<?xml version="1.0"?>
<VTKFile type="UnstructuredGrid" version="0.1" byte_order="LittleEndian" header_type="UInt32" compressor="vtkZLibDataCompressor">
  <UnstructuredGrid>
    <Piece NumberOfPoints="8" NumberOfCells="1">
      <PointData>
        <DataArray type="Int32" Name="libmesh_node_id" format="ascii" RangeMin="0" RangeMax="7">
          0 1 2 3 4 5
          6 7
        </DataArray>
        <DataArray type="Float64" Name="stress_zz" format="ascii" RangeMin="837.5649314249064" RangeMax="837.5649314249064">
          837.5649314249064 837.5649314249064 837.5649314249064 837.5649314249064 837.5649314249064 837.5649314249064
          837.5649314249064 837.5649314249064
        </DataArray>
        <DataArray type="Float64" Name="peeq" format="ascii" RangeMin="0.5797107415781568" RangeMax="0.5797107415781568">
          0.5797107415781568 0.5797107415781568 0.5797107415781568 0.5797107415781568 0.5797107415781568 0.5797107415781568
          0.5797107415781568 0.5797107415781568
        </DataArray>
        <DataArray type="Float64" Name="pe11" format="ascii" RangeMin="-0.2898553707890783" RangeMax="-0.2898553707890783">
          -0.2898553707890783 -0.2898553707890783 -0.2898553707890783 -0.2898553707890783 -0.2898553707890783 -0.2898553707890783
          -0.2898553707890783 -0.2898553707890783
        </DataArray>
        <DataArray type="Float64" Name="pe22" format="ascii" RangeMin="-0.2898553707890785" RangeMax="-0.2898553707890785">
          -0.2898553707890785 -0.2898553707890785 -0.2898553707890785 -0.2898553707890785 -0.2898553707890785 -0.2898553707890785
          -0.2898553707890785 -0.2898553707890785
        </DataArray>
        <DataArray type="Float64" Name="pe33" format="ascii" RangeMin="0.5797107415781568" RangeMax="0.5797107415781568">
          0.5797107415781568 0.5797107415781568 0.5797107415781568 0.5797107415781568 0.5797107415781568 0.5797107415781568
          0.5797107415781568 0.5797107415781568
        </DataArray>
        <DataArray type="Float64" Name="x_disp" format="ascii" RangeMin="-0.25296551033180487" RangeMax="9.677937891212387e-16">
          0 -0.25296551033180487 -0.2529655103318048 9.677937891212387e-16 1.0407496398719776e-16 -0.25296551033180464
          -0.25296551033180426 4.311701976120943e-16
        </DataArray>
        <DataArray type="Float64" Name="y_disp" format="ascii" RangeMin="-0.2529655103318058" RangeMax="0">
          0 0 -0.2529655103318058 -0.2529655103318049 -2.3268584312167954e-16 -3.5340813803002755e-16
          -0.25296551033180553 -0.25296551033180475
        </DataArray>
        <DataArray type="Float64" Name="z_disp" format="ascii" RangeMin="0" RangeMax="0.7999999999999999">
          0 0 0 0 0.7999999999999999 0.7999999999999999
          0.7999999999999999 0.7999999999999999
        </DataArray>
      </PointData>
      <CellData>
        <DataArray type="Int32" Name="libmesh_elem_id" format="ascii" RangeMin="0" RangeMax="0">
          0
        </DataArray>
        <DataArray type="Int32" Name="subdomain_id" format="ascii" RangeMin="0" RangeMax="0">
          0
        </DataArray>
        <DataArray type="Int32" Name="processor_id" format="ascii" RangeMin="0" RangeMax="0">
          0
        </DataArray>
      </CellData>
      <Points>
        <DataArray type="Float64" Name="Points" NumberOfComponents="3" format="ascii" RangeMin="0" RangeMax="1.7320508075688772">
          0 0 0 1 0 0
          1 1 0 0 1 0
          0 0 1 1 0 1
          1 1 1 0 1 1
          <InformationKey name="L2_NORM_RANGE" location="vtkDataArray" length="2">
            <Value index="0">
              0
            </Value>
            <Value index="1">
              1.7320508076
            </Value>
          </InformationKey>
        </DataArray>
      </Points>
      <Cells>
        <DataArray type="Int64" Name="connectivity" format="ascii" RangeMin="0" RangeMax="7">
          0 1 2 3 4 5
          6 7
        </DataArray>
        <DataArray type="Int64" Name="offsets" format="ascii" RangeMin="8" RangeMax="8">
          8
        </DataArray>
        <DataArray type="UInt8" Name="types" format="ascii" RangeMin="12" RangeMax="12">
          12
        </DataArray>
      </Cells>
    </Piece>
  </UnstructuredGrid>
</VTKFile>
