<?xml version="1.0"?>
<VTKFile type="UnstructuredGrid" version="0.1" byte_order="LittleEndian" header_type="UInt32" compressor="vtkZLibDataCompressor">
  <UnstructuredGrid>
    <Piece NumberOfPoints="8" NumberOfCells="1">
      <PointData>
        <DataArray type="Int32" Name="libmesh_node_id" format="ascii" RangeMin="0" RangeMax="7">
          0 1 2 3 4 5
          6 7
        </DataArray>
        <DataArray type="Float64" Name="stress_zz" format="ascii" RangeMin="813.5618359646272" RangeMax="813.5618359646272">
          813.5618359646272 813.5618359646272 813.5618359646272 813.5618359646272 813.5618359646272 813.5618359646272
          813.5618359646272 813.5618359646272
        </DataArray>
        <DataArray type="Float64" Name="peeq" format="ascii" RangeMin="0.46254218776722816" RangeMax="0.46254218776722816">
          0.46254218776722816 0.46254218776722816 0.46254218776722816 0.46254218776722816 0.46254218776722816 0.46254218776722816
          0.46254218776722816 0.46254218776722816
        </DataArray>
        <DataArray type="Float64" Name="pe11" format="ascii" RangeMin="-0.231271093883614" RangeMax="-0.231271093883614">
          -0.231271093883614 -0.231271093883614 -0.231271093883614 -0.231271093883614 -0.231271093883614 -0.231271093883614
          -0.231271093883614 -0.231271093883614
        </DataArray>
        <DataArray type="Float64" Name="pe22" format="ascii" RangeMin="-0.23127109388361414" RangeMax="-0.23127109388361414">
          -0.23127109388361414 -0.23127109388361414 -0.23127109388361414 -0.23127109388361414 -0.23127109388361414 -0.23127109388361414
          -0.23127109388361414 -0.23127109388361414
        </DataArray>
        <DataArray type="Float64" Name="pe33" format="ascii" RangeMin="0.46254218776722816" RangeMax="0.46254218776722816">
          0.46254218776722816 0.46254218776722816 0.46254218776722816 0.46254218776722816 0.46254218776722816 0.46254218776722816
          0.46254218776722816 0.46254218776722816
        </DataArray>
        <DataArray type="Float64" Name="x_disp" format="ascii" RangeMin="-0.20781061552569366" RangeMax="5.006854190001427e-16">
          0 -0.20781061552569366 -0.2078106155256931 3.949426251782202e-16 -4.565665735722161e-16 -0.2078106155256932
          -0.20781061552569302 5.006854190001427e-16
        </DataArray>
        <DataArray type="Float64" Name="y_disp" format="ascii" RangeMin="-0.20781061552569408" RangeMax="4.9178535075275897e-17">
          0 0 -0.20781061552569408 -0.20781061552569322 4.9178535075275897e-17 -5.333371367991042e-16
          -0.20781061552569377 -0.20781061552569313
        </DataArray>
        <DataArray type="Float64" Name="z_disp" format="ascii" RangeMin="0" RangeMax="0.6">
          0 0 0 0 0.6 0.6
          0.6 0.6
        </DataArray>
      </PointData>
      <CellData>
        <DataArray type="Int32" Name="libmesh_elem_id" format="ascii" RangeMin="0" RangeMax="0">
          0
        </DataArray>
        <DataArray type="Int32" Name="subdomain_id" format="ascii" RangeMin="0" RangeMax="0">
          0
        </DataArray>
        <DataArray type="Int32" Name="processor_id" format="ascii" RangeMin="0" RangeMax="0">
          0
        </DataArray>
      </CellData>
      <Points>
        <DataArray type="Float64" Name="Points" NumberOfComponents="3" format="ascii" RangeMin="0" RangeMax="1.7320508075688772">
          0 0 0 1 0 0
          1 1 0 0 1 0
          0 0 1 1 0 1
          1 1 1 0 1 1
          <InformationKey name="L2_NORM_RANGE" location="vtkDataArray" length="2">
            <Value index="0">
              0
            </Value>
            <Value index="1">
              1.7320508076
            </Value>
          </InformationKey>
        </DataArray>
      </Points>
      <Cells>
        <DataArray type="Int64" Name="connectivity" format="ascii" RangeMin="0" RangeMax="7">
          0 1 2 3 4 5
          6 7
        </DataArray>
        <DataArray type="Int64" Name="offsets" format="ascii" RangeMin="8" RangeMax="8">
          8
        </DataArray>
        <DataArray type="UInt8" Name="types" format="ascii" RangeMin="12" RangeMax="12">
          12
        </DataArray>
      </Cells>
    </Piece>
  </UnstructuredGrid>
</VTKFile>
