<?xml version="1.0"?>
<VTKFile type="UnstructuredGrid" version="0.1" byte_order="LittleEndian" header_type="UInt32" compressor="vtkZLibDataCompressor">
  <UnstructuredGrid>
    <Piece NumberOfPoints="8" NumberOfCells="1">
      <PointData>
        <DataArray type="Int32" Name="libmesh_node_id" format="ascii" RangeMin="0" RangeMax="7">
          0 1 2 3 4 5
          6 7
        </DataArray>
        <DataArray type="Float64" Name="stress_zz" format="ascii" RangeMin="669.0655922703618" RangeMax="669.0655922703618">
          669.0655922703618 669.0655922703618 669.0655922703618 669.0655922703618 669.0655922703618 669.0655922703618
          669.0655922703618 669.0655922703618
        </DataArray>
        <DataArray type="Float64" Name="peeq" format="ascii" RangeMin="0.17736247997995985" RangeMax="0.17736247997995985">
          0.17736247997995985 0.17736247997995985 0.17736247997995985 0.17736247997995985 0.17736247997995985 0.17736247997995985
          0.17736247997995985 0.17736247997995985
        </DataArray>
        <DataArray type="Float64" Name="pe11" format="ascii" RangeMin="-0.08868123998997995" RangeMax="-0.08868123998997995">
          -0.08868123998997995 -0.08868123998997995 -0.08868123998997995 -0.08868123998997995 -0.08868123998997995 -0.08868123998997995
          -0.08868123998997995 -0.08868123998997995
        </DataArray>
        <DataArray type="Float64" Name="pe22" format="ascii" RangeMin="-0.08868123998997993" RangeMax="-0.08868123998997993">
          -0.08868123998997993 -0.08868123998997993 -0.08868123998997993 -0.08868123998997993 -0.08868123998997993 -0.08868123998997993
          -0.08868123998997993 -0.08868123998997993
        </DataArray>
        <DataArray type="Float64" Name="pe33" format="ascii" RangeMin="0.17736247997995985" RangeMax="0.17736247997995985">
          0.17736247997995985 0.17736247997995985 0.17736247997995985 0.17736247997995985 0.17736247997995985 0.17736247997995985
          0.17736247997995985 0.17736247997995985
        </DataArray>
        <DataArray type="Float64" Name="x_disp" format="ascii" RangeMin="-0.08597389955630284" RangeMax="0">
          0 -0.08597389955630284 -0.0859738995563027 -3.129579693724234e-16 -1.5254685972003855e-16 -0.08597389955630273
          -0.08597389955630282 -4.7422745049190963e-17
        </DataArray>
        <DataArray type="Float64" Name="y_disp" format="ascii" RangeMin="-0.08597389955630287" RangeMax="1.8130501302718338e-16">
          0 0 -0.08597389955630241 -0.08597389955630276 -9.267129732875464e-17 1.8130501302718338e-16
          -0.08597389955630287 -0.0859738995563025
        </DataArray>
        <DataArray type="Float64" Name="z_disp" format="ascii" RangeMin="0" RangeMax="0.2">
          0 0 0 0 0.2 0.2
          0.2 0.2
        </DataArray>
      </PointData>
      <CellData>
        <DataArray type="Int32" Name="libmesh_elem_id" format="ascii" RangeMin="0" RangeMax="0">
          0
        </DataArray>
        <DataArray type="Int32" Name="subdomain_id" format="ascii" RangeMin="0" RangeMax="0">
          0
        </DataArray>
        <DataArray type="Int32" Name="processor_id" format="ascii" RangeMin="0" RangeMax="0">
          0
        </DataArray>
      </CellData>
      <Points>
        <DataArray type="Float64" Name="Points" NumberOfComponents="3" format="ascii" RangeMin="0" RangeMax="1.7320508075688772">
          0 0 0 1 0 0
          1 1 0 0 1 0
          0 0 1 1 0 1
          1 1 1 0 1 1
          <InformationKey name="L2_NORM_RANGE" location="vtkDataArray" length="2">
            <Value index="0">
              0
            </Value>
            <Value index="1">
              1.7320508076
            </Value>
          </InformationKey>
        </DataArray>
      </Points>
      <Cells>
        <DataArray type="Int64" Name="connectivity" format="ascii" RangeMin="0" RangeMax="7">
          0 1 2 3 4 5
          6 7
        </DataArray>
        <DataArray type="Int64" Name="offsets" format="ascii" RangeMin="8" RangeMax="8">
          8
        </DataArray>
        <DataArray type="UInt8" Name="types" format="ascii" RangeMin="12" RangeMax="12">
          12
        </DataArray>
      </Cells>
    </Piece>
  </UnstructuredGrid>
</VTKFile>
