<?xml version="1.0"?>
<VTKFile type="UnstructuredGrid" version="0.1" byte_order="LittleEndian" header_type="UInt32" compressor="vtkZLibDataCompressor">
  <UnstructuredGrid>
    <Piece NumberOfPoints="8" NumberOfCells="1">
      <PointData>
        <DataArray type="Int32" Name="libmesh_node_id" format="ascii" RangeMin="0" RangeMax="7">
          0 1 2 3 4 5
          6 7
        </DataArray>
        <DataArray type="Float64" Name="stress_zz" format="ascii" RangeMin="825.9292014835753" RangeMax="825.9292014835753">
          825.9292014835753 825.9292014835753 825.9292014835753 825.9292014835753 825.9292014835753 825.9292014835753
          825.9292014835753 825.9292014835753
        </DataArray>
        <DataArray type="Float64" Name="peeq" format="ascii" RangeMin="0.5228364269027085" RangeMax="0.5228364269027085">
          0.5228364269027085 0.5228364269027085 0.5228364269027085 0.5228364269027085 0.5228364269027085 0.5228364269027085
          0.5228364269027085 0.5228364269027085
        </DataArray>
        <DataArray type="Float64" Name="pe11" format="ascii" RangeMin="-0.26141821345135413" RangeMax="-0.26141821345135413">
          -0.26141821345135413 -0.26141821345135413 -0.26141821345135413 -0.26141821345135413 -0.26141821345135413 -0.26141821345135413
          -0.26141821345135413 -0.26141821345135413
        </DataArray>
        <DataArray type="Float64" Name="pe22" format="ascii" RangeMin="-0.26141821345135435" RangeMax="-0.26141821345135435">
          -0.26141821345135435 -0.26141821345135435 -0.26141821345135435 -0.26141821345135435 -0.26141821345135435 -0.26141821345135435
          -0.26141821345135435 -0.26141821345135435
        </DataArray>
        <DataArray type="Float64" Name="pe33" format="ascii" RangeMin="0.5228364269027085" RangeMax="0.5228364269027085">
          0.5228364269027085 0.5228364269027085 0.5228364269027085 0.5228364269027085 0.5228364269027085 0.5228364269027085
          0.5228364269027085 0.5228364269027085
        </DataArray>
        <DataArray type="Float64" Name="x_disp" format="ascii" RangeMin="-0.23137955430351262" RangeMax="2.4183691169511434e-16">
          0 -0.23137955430351262 -0.23137955430351256 1.643058673641272e-16 -1.5896013602711144e-16 -0.2313795543035124
          -0.23137955430351254 2.4183691169511434e-16
        </DataArray>
        <DataArray type="Float64" Name="y_disp" format="ascii" RangeMin="-0.23137955430351284" RangeMax="0">
          0 0 -0.2313795543035128 -0.2313795543035127 -2.8733751563284155e-17 -1.996184110426406e-16
          -0.23137955430351284 -0.2313795543035126
        </DataArray>
        <DataArray type="Float64" Name="z_disp" format="ascii" RangeMin="0" RangeMax="0.7">
          0 0 0 0 0.7 0.7
          0.7 0.7
        </DataArray>
      </PointData>
      <CellData>
        <DataArray type="Int32" Name="libmesh_elem_id" format="ascii" RangeMin="0" RangeMax="0">
          0
        </DataArray>
        <DataArray type="Int32" Name="subdomain_id" format="ascii" RangeMin="0" RangeMax="0">
          0
        </DataArray>
        <DataArray type="Int32" Name="processor_id" format="ascii" RangeMin="0" RangeMax="0">
          0
        </DataArray>
      </CellData>
      <Points>
        <DataArray type="Float64" Name="Points" NumberOfComponents="3" format="ascii" RangeMin="0" RangeMax="1.7320508075688772">
          0 0 0 1 0 0
          1 1 0 0 1 0
          0 0 1 1 0 1
          1 1 1 0 1 1
          <InformationKey name="L2_NORM_RANGE" location="vtkDataArray" length="2">
            <Value index="0">
              0
            </Value>
            <Value index="1">
              1.7320508076
            </Value>
          </InformationKey>
        </DataArray>
      </Points>
      <Cells>
        <DataArray type="Int64" Name="connectivity" format="ascii" RangeMin="0" RangeMax="7">
          0 1 2 3 4 5
          6 7
        </DataArray>
        <DataArray type="Int64" Name="offsets" format="ascii" RangeMin="8" RangeMax="8">
          8
        </DataArray>
        <DataArray type="UInt8" Name="types" format="ascii" RangeMin="12" RangeMax="12">
          12
        </DataArray>
      </Cells>
    </Piece>
  </UnstructuredGrid>
</VTKFile>
