<?xml version="1.0"?>
<VTKFile type="UnstructuredGrid" version="0.1" byte_order="LittleEndian" header_type="UInt32" compressor="vtkZLibDataCompressor">
  <UnstructuredGrid>
    <Piece NumberOfPoints="8" NumberOfCells="1">
      <PointData>
        <DataArray type="Int32" Name="libmesh_node_id" format="ascii" RangeMin="0" RangeMax="7">
          0 1 2 3 4 5
          6 7
        </DataArray>
        <DataArray type="Float64" Name="stress_zz" format="ascii" RangeMin="445.00005699771924" RangeMax="445.00005699771924">
          445.00005699771924 445.00005699771924 445.00005699771924 445.00005699771924 445.00005699771924 445.00005699771924
          445.00005699771924 445.00005699771924
        </DataArray>
        <DataArray type="Float64" Name="peeq" format="ascii" RangeMin="0.09218970808975163" RangeMax="0.09218970808975163">
          0.09218970808975163 0.09218970808975163 0.09218970808975163 0.09218970808975163 0.09218970808975163 0.09218970808975163
          0.09218970808975163 0.09218970808975163
        </DataArray>
        <DataArray type="Float64" Name="pe11" format="ascii" RangeMin="-0.0460948540448758" RangeMax="-0.0460948540448758">
          -0.0460948540448758 -0.0460948540448758 -0.0460948540448758 -0.0460948540448758 -0.0460948540448758 -0.0460948540448758
          -0.0460948540448758 -0.0460948540448758
        </DataArray>
        <DataArray type="Float64" Name="pe22" format="ascii" RangeMin="-0.04609485404487582" RangeMax="-0.04609485404487582">
          -0.04609485404487582 -0.04609485404487582 -0.04609485404487582 -0.04609485404487582 -0.04609485404487582 -0.04609485404487582
          -0.04609485404487582 -0.04609485404487582
        </DataArray>
        <DataArray type="Float64" Name="pe33" format="ascii" RangeMin="0.09218970808975163" RangeMax="0.09218970808975163">
          0.09218970808975163 0.09218970808975163 0.09218970808975163 0.09218970808975163 0.09218970808975163 0.09218970808975163
          0.09218970808975163 0.09218970808975163
        </DataArray>
        <DataArray type="Float64" Name="x_disp" format="ascii" RangeMin="-0.04579517586252964" RangeMax="6.193671686596092e-17">
          0 -0.04579517586252964 -0.045795175862529576 2.242324118829575e-17 -3.6772361137264724e-17 -0.0457951758625296
          -0.045795175862529555 6.193671686596092e-17
        </DataArray>
        <DataArray type="Float64" Name="y_disp" format="ascii" RangeMin="-0.04579517586252965" RangeMax="5.460004772343412e-17">
          0 0 -0.04579517586252961 -0.045795175862529576 5.460004772343412e-17 -4.5084956416165235e-17
          -0.04579517586252965 -0.04579517586252959
        </DataArray>
        <DataArray type="Float64" Name="z_disp" format="ascii" RangeMin="0" RangeMax="0.1">
          0 0 0 0 0.1 0.1
          0.1 0.1
        </DataArray>
      </PointData>
      <CellData>
        <DataArray type="Int32" Name="libmesh_elem_id" format="ascii" RangeMin="0" RangeMax="0">
          0
        </DataArray>
        <DataArray type="Int32" Name="subdomain_id" format="ascii" RangeMin="0" RangeMax="0">
          0
        </DataArray>
        <DataArray type="Int32" Name="processor_id" format="ascii" RangeMin="0" RangeMax="0">
          0
        </DataArray>
      </CellData>
      <Points>
        <DataArray type="Float64" Name="Points" NumberOfComponents="3" format="ascii" RangeMin="0" RangeMax="1.7320508075688772">
          0 0 0 1 0 0
          1 1 0 0 1 0
          0 0 1 1 0 1
          1 1 1 0 1 1
          <InformationKey name="L2_NORM_RANGE" location="vtkDataArray" length="2">
            <Value index="0">
              0
            </Value>
            <Value index="1">
              1.7320508076
            </Value>
          </InformationKey>
        </DataArray>
      </Points>
      <Cells>
        <DataArray type="Int64" Name="connectivity" format="ascii" RangeMin="0" RangeMax="7">
          0 1 2 3 4 5
          6 7
        </DataArray>
        <DataArray type="Int64" Name="offsets" format="ascii" RangeMin="8" RangeMax="8">
          8
        </DataArray>
        <DataArray type="UInt8" Name="types" format="ascii" RangeMin="12" RangeMax="12">
          12
        </DataArray>
      </Cells>
    </Piece>
  </UnstructuredGrid>
</VTKFile>
