<?xml version="1.0"?>
<VTKFile type="UnstructuredGrid" version="0.1" byte_order="LittleEndian" header_type="UInt32" compressor="vtkZLibDataCompressor">
  <UnstructuredGrid>
    <Piece NumberOfPoints="8" NumberOfCells="1">
      <PointData>
        <DataArray type="Int32" Name="libmesh_node_id" format="ascii" RangeMin="0" RangeMax="7">
          0 1 2 3 4 5
          6 7
        </DataArray>
        <DataArray type="Float64" Name="stress_zz" format="ascii" RangeMin="715.918294593515" RangeMax="715.918294593515">
          715.918294593515 715.918294593515 715.918294593515 715.918294593515 715.918294593515 715.918294593515
          715.918294593515 715.918294593515
        </DataArray>
        <DataArray type="Float64" Name="peeq" format="ascii" RangeMin="0.2565747918962672" RangeMax="0.2565747918962672">
          0.2565747918962672 0.2565747918962672 0.2565747918962672 0.2565747918962672 0.2565747918962672 0.2565747918962672
          0.2565747918962672 0.2565747918962672
        </DataArray>
        <DataArray type="Float64" Name="pe11" format="ascii" RangeMin="-0.12828739594813363" RangeMax="-0.12828739594813363">
          -0.12828739594813363 -0.12828739594813363 -0.12828739594813363 -0.12828739594813363 -0.12828739594813363 -0.12828739594813363
          -0.12828739594813363 -0.12828739594813363
        </DataArray>
        <DataArray type="Float64" Name="pe22" format="ascii" RangeMin="-0.12828739594813363" RangeMax="-0.12828739594813363">
          -0.12828739594813363 -0.12828739594813363 -0.12828739594813363 -0.12828739594813363 -0.12828739594813363 -0.12828739594813363
          -0.12828739594813363 -0.12828739594813363
        </DataArray>
        <DataArray type="Float64" Name="pe33" format="ascii" RangeMin="0.2565747918962672" RangeMax="0.2565747918962672">
          0.2565747918962672 0.2565747918962672 0.2565747918962672 0.2565747918962672 0.2565747918962672 0.2565747918962672
          0.2565747918962672 0.2565747918962672
        </DataArray>
        <DataArray type="Float64" Name="x_disp" format="ascii" RangeMin="-0.12160432825429189" RangeMax="2.833185431920015e-16">
          0 -0.12160432825429189 -0.12160432825429132 2.833185431920015e-16 -2.523802150718198e-16 -0.12160432825429154
          -0.12160432825429122 2.1513783358835486e-16
        </DataArray>
        <DataArray type="Float64" Name="y_disp" format="ascii" RangeMin="-0.12160432825429206" RangeMax="0">
          0 0 -0.12160432825429206 -0.12160432825429139 -6.63469687842823e-17 -3.1226009188091607e-16
          -0.12160432825429193 -0.12160432825429128
        </DataArray>
        <DataArray type="Float64" Name="z_disp" format="ascii" RangeMin="0" RangeMax="0.30000000000000004">
          0 0 0 0 0.30000000000000004 0.30000000000000004
          0.30000000000000004 0.30000000000000004
        </DataArray>
      </PointData>
      <CellData>
        <DataArray type="Int32" Name="libmesh_elem_id" format="ascii" RangeMin="0" RangeMax="0">
          0
        </DataArray>
        <DataArray type="Int32" Name="subdomain_id" format="ascii" RangeMin="0" RangeMax="0">
          0
        </DataArray>
        <DataArray type="Int32" Name="processor_id" format="ascii" RangeMin="0" RangeMax="0">
          0
        </DataArray>
      </CellData>
      <Points>
        <DataArray type="Float64" Name="Points" NumberOfComponents="3" format="ascii" RangeMin="0" RangeMax="1.7320508075688772">
          0 0 0 1 0 0
          1 1 0 0 1 0
          0 0 1 1 0 1
          1 1 1 0 1 1
          <InformationKey name="L2_NORM_RANGE" location="vtkDataArray" length="2">
            <Value index="0">
              0
            </Value>
            <Value index="1">
              1.7320508076
            </Value>
          </InformationKey>
        </DataArray>
      </Points>
      <Cells>
        <DataArray type="Int64" Name="connectivity" format="ascii" RangeMin="0" RangeMax="7">
          0 1 2 3 4 5
          6 7
        </DataArray>
        <DataArray type="Int64" Name="offsets" format="ascii" RangeMin="8" RangeMax="8">
          8
        </DataArray>
        <DataArray type="UInt8" Name="types" format="ascii" RangeMin="12" RangeMax="12">
          12
        </DataArray>
      </Cells>
    </Piece>
  </UnstructuredGrid>
</VTKFile>
