<?xml version="1.0"?>
<VTKFile type="UnstructuredGrid" version="0.1" byte_order="LittleEndian" header_type="UInt32" compressor="vtkZLibDataCompressor">
  <UnstructuredGrid>
    <Piece NumberOfPoints="780" NumberOfCells="454">
      <PointData>
        <DataArray type="Int32" Name="libmesh_node_id" format="ascii" RangeMin="1278" RangeMax="5063">
          1278 1279 1280 1281 1282 1283
          1284 1285 1286 1287 1288 1289
          1290 1291 1292 1293 1294 1295
          1296 1297 1298 1299 1300 1301
          1302 1303 1304 1305 1306 1307
          1308 1309 1310 1311 1312 1313
          1314 1315 1316 1317 1318 1319
          1320 1321 1322 1323 1324 1325
          1329 1330 1331 1332 1333 1334
          1335 1336 1337 1338 1339 1340
          1341 1342 1343 1344 1345 1346
          1347 1348 1349 1350 1351 1352
          1356 1357 1358 1359 1360 1361
          1362 1363 1364 1365 1366 1367
          1368 1369 1370 1371 1372 1373
          1374 1375 1376 1377 1378 1379
          1383 1384 1385 1386 1387 1388
          1389 1390 1391 1392 1393 1394
          1395 1396 1397 1398 1399 1400
          1401 1402 1403 1404 1405 1406
          1410 1411 1412 1413 1414 1415
          1416 1417 1418 1419 1420 1421
          1422 1423 1424 1425 1426 1427
          1428 1429 1430 1431 1432 1433
          1437 1438 1439 1440 1441 1442
          1443 1444 1445 1446 1447 1448
          1449 1450 1451 1452 1453 1454
          1455 1456 1457 1458 1459 1460
          1461 1462 1463 1464 1465 1466
          1467 1468 1469 1470 1471 1472
          1473 1474 1475 1476 1477 1478
          1479 1480 1481 1482 1483 1484
          1485 1486 1487 1488 1489 1490
          1491 1492 1493 1494 1495 1496
          1497 1498 1499 1500 1501 1502
          1503 1504 1505 1506 1507 1508
          1509 1510 1511 1512 1513 1514
          1515 1516 1517 1518 1519 1520
          1521 1522 1523 1524 1525 1526
          1527 1528 1529 1530 1531 1532
          1533 1534 1535 1536 1537 1538
          1539 1540 1541 1542 1543 1544
          1545 1546 1547 1548 1549 1550
          1551 1552 1553 1554 1555 1556
          1557 1558 1559 1560 1561 1562
          1563 1564 1565 1566 1567 1568
          1569 1570 1571 1572 1573 1574
          1575 1576 1577 1578 1579 1580
          1581 1582 1583 1584 1585 1586
          1587 1588 1589 1590 1591 1592
          1593 1594 1595 1596 1597 1598
          1599 1600 1601 1602 1603 1604
          1605 1606 1607 1608 1609 1610
          1611 1612 1613 1614 1615 1616
          1617 1618 1619 1620 1621 1622
          1623 1624 1625 1626 1627 1628
          1629 1630 1631 1632 1633 1634
          1635 1636 1637 1638 1639 1640
          1641 1642 1643 1644 1645 1646
          1647 1648 1649 1650 1651 1652
          1653 1654 1655 1656 1657 1658
          1659 1660 1661 1662 1663 1664
          1665 1666 1667 1668 1669 1670
          1671 1672 1673 1674 1675 1676
          1680 1681 1682 1683 1684 1685
          1686 1687 1688 1689 1690 1691
          1692 1693 1694 1695 1696 1697
          1698 1699 1700 1701 1702 1703
          1707 1708 1709 1710 1711 1712
          1713 1714 1715 1716 1717 1718
          1719 1720 1721 1722 1723 1724
          1725 1726 1727 1728 1729 1730
          1734 1735 1736 1737 1738 1739
          1740 1741 1742 1743 1744 1745
          1746 1747 1748 1749 1750 1751
          1752 1753 1754 1755 1756 1757
          1761 1762 1763 1764 1765 1766
          1767 1768 1769 1770 1771 1772
          1773 1774 1775 1776 1777 1778
          1779 1780 1781 1782 1783 1784
          1791 1792 1793 1794 1795 1796
          1797 1798 1799 1800 1801 1802
          1803 1804 1805 1806 1807 1808
          1809 1810 1811 1818 1819 1820
          1821 1822 1823 1824 1825 1826
          1827 1828 1829 1830 1831 1832
          1833 1834 1835 1836 1837 1838
          1845 1846 1847 1848 1849 1850
          1851 1852 1853 1854 1855 1856
          1857 1858 1859 1860 1861 1862
          1872 1873 1874 1875 1876 1877
          1878 1879 1880 1881 1882 1883
          1884 1885 1886 2184 2185 2186
          2187 2188 2189 2190 2191 2192
          2193 2194 2195 2196 2197 2198
          2199 2200 2201 2202 2203 2204
          2205 2206 2207 2208 2210 2211
          2212 2214 2215 2216 2218 2219
          2244 2246 2248 2262 2263 2264
          2265 2266 2267 2268 2269 2270
          2271 2272 2273 2592 2593 2594
          2595 2596 2597 2913 2914 2915
          2916 2917 2918 2919 2920 2921
          3336 3337 3338 3339 3340 3341
          3582 3583 3584 3585 3586 3587
          3688 3690 3692 3699 3700 3701
          3702 3703 3704 4161 4162 4163
          4164 4165 4166 4527 4528 4529
          4530 4531 4532 4536 4537 4538
          4539 4540 4541 4671 4672 4673
          4698 4699 4700 4701 4702 4703
          4725 4726 4727 4770 4771 4772
          4884 4885 4886 4905 4906 4907
          4983 4984 4985 5034 5035 5036
          5061 5062 5063 1863 1864 1865
          1887 1888 1889 1890 1891 1892
          1902 1899 1903 1900 1904 1901
          1905 1906 1907 1908 1909 1910
          1911 1912 1913 1914 1915 1916
          2209 2213 2217 2245 2247 2249
          2526 2525 2530 2529 2534 2533
          3234 3235 3236 3237 3238 3239
          3300 3301 3302 3303 3304 3305
          3366 3367 3368 3663 3665 3667
          3687 3386 3689 3389 3691 3392
          3705 3706 3707 3939 3940 3941
          3942 3943 3944 4467 4468 4469
          3455 3458 3461 3210 3120 3212
          3124 3214 3128 4441 4443 4445
          3119 3123 3127 3231 3232 3233
        </DataArray>
        <DataArray type="Float64" Name="resid_x" format="ascii" RangeMin="-0.00009888189313667084" RangeMax="0.00008204235884301525">
          -0.0000018935996015656542 -8.97412665956665e-7 -0.0000031725154077122397 -0.000001219099905469534 9.792865922619853e-7 6.936803829127314e-7
          -0.0000027740721249003286 -0.0000014834896484572369 -0.000005552417185583636 -0.000003082569045798067 4.924399634731458e-7 1.529157551694027e-7
          -0.000002382255439137282 -0.000001422532887929151 -0.0000059995141938884444 -0.000003247548857387983 0.0000011295807906819277 6.276702779750565e-7
          -0.0000025059840287333657 -0.0000014622923520946074 -0.000006574837807971079 -0.0000034951197434018866 0.0000015647338553748114 9.029414620442822e-7
          -0.0000021309622515452986 -0.0000012416701573592093 -0.000006540368602703239 -0.0000034778909530075452 0.000002660211209981611 0.0000015043913563772549
          -0.0000013615554466106516 -8.17551146337081e-7 -0.000006251864852480082 -0.0000033401418879641653 0.000004142335955137355 0.000002333138152899039
          -1.4144890236877927e-7 -2.1470789768329723e-7 -0.000005670423492087906 -0.0000031253321970403647 0.0000063151572766706465 0.000003403809246016465
          0.000004101555262980838 0.0000036293674310350355 4.4344446159527706e-7 0.0000035379430869397765 0.00000826152972610572 0.000006470294807048305
          -0.000002095835049509276 -0.0000036713997673132326 6.84334858114255e-7 -0.0000025822960370014414 -0.000005475115385955576 3.7657533136226107e-7
          -0.0000023566890390291917 -0.000005869495212085241 8.737115835266707e-7 -0.0000022707226858820206 -0.000006044531648541351 0.000001458883099214603
          -0.0000015952764247373352 -0.000005608505086129867 0.0000026292880157541276 -5.092622821223358e-7 -0.000004915146896156131 0.000004117268193937207
          6.449598002333801e-7 -0.000004598923295073831 0.000005893354273478479 0.0000016016517521144635 -0.000004115012693262088 0.000005937292250735027
          -0.000002765624861567062 -0.000004970319979591409 8.004231055736e-9 -0.0000027710846910444786 -0.000005778647299337081 -5.1211080709379075e-8
          -0.0000029871144984205955 -0.000006630106988758655 1.4756459743026085e-7 -0.0000028702394070379 -0.000006686149895518412 7.581105845311242e-7
          -0.000002292690532090802 -0.000006374487000915252 0.0000016750395301912135 -0.000001431357789627441 -0.000005861974624821187 0.0000027568238789577038
          1.1164247748496336e-7 -0.000003875845747014495 0.00000485119007542778 4.896843166513065e-7 -0.000004781305669609992 0.000004644261790032189
          -0.000004043344687509887 -0.000007364256223496568 -0.0000011465406490884789 -0.0000030705908691253114 -0.0000061180765098534096 -4.269395841305368e-7
          -0.0000037252831588396873 -0.000007335461317037328 -4.5542551552202326e-7 -0.000003463774080891824 -0.000007092585238677174 3.224234377263713e-7
          -0.0000029395962668488096 -0.000006739595738380899 0.000001117066930511612 -0.0000022332822071646774 -0.000006165066261942798 0.000001939602379152916
          -0.0000010314007869993702 -0.000004420459498000184 0.000003553060520911089 -6.67822240174587e-7 -0.000004817966599013346 0.0000033646513264429245
          -0.000005807618541631143 -0.000010649702474552214 -0.0000026725877031452683 -0.0000034611668255912775 -0.000006535896829973353 -6.778086394376714e-7
          -0.0000045099235697065865 -0.000008118856547056907 -8.955577563973804e-7 -0.000004012275820031164 -0.000007513204860920553 1.2362376633490157e-7
          -0.000003504440459600744 -0.000007102042926643293 8.148605559199495e-7 -0.0000029517976076753882 -0.000006479464401909496 0.0000013686438866677975
          -0.00000211574069908238 -0.00000498076924193569 0.0000024425274260941876 -0.0000018305167812648904 -0.000004742000059065887 0.000002202953322427703
          -0.000005015057488400032 -0.000008862971100143113 -0.0000022319143795357377 -0.000003896629926725126 -0.000007468880857341986 -0.0000015305763927386806
          -0.000005195414766845374 -0.000008865830747772918 -0.0000010519529567432073 -0.000004411207573884468 -0.000007912827314715543 2.418724345254475e-7
          -0.000003875288580257319 -0.00000743446192963404 8.73875570128746e-7 -0.000003438514103670798 -0.0000067512709267525395 0.0000012049238504729942
          -0.0000029428531780339995 -0.0000055124160387443055 0.0000017535421723557931 -0.0000028038081198999976 -0.000004718208270748647 0.0000013208734923608745
          -0.000010359704946782955 -0.000016568579872533462 -0.000005075945558985495 -0.000003773718380006841 -0.000006000842089903813 -0.0000017176676685437542
          -0.000004238520485255748 -0.000008486479457392448 -0.0000025096057512108416 -0.000005730410984838841 -0.000009543405687928441 -9.400091793843046e-7
          -0.000004661987738519002 -0.000008284862706986473 5.9574878807922e-7 -0.0000040644257301991615 -0.000007717797122275272 0.000001210092712700117
          -0.0000036751513725619134 -0.0000069506712079281385 0.000001416663972797494 -0.000003419421679140555 -0.000005912973804811372 0.0000015867532314750576
          -0.000003305508252893219 -0.000004512072572016024 9.964442182486266e-7 -0.00001080132318342919 -0.000020753051089172914 -0.000007309454892912015
          -0.000005037189142687026 -0.000007647577113800708 -0.0000018367087983861552 -0.000007010091287451559 -0.000010797509740534394 -0.0000025515210748672246
          -0.000005872671504203453 -0.00000940545253280689 -3.0829366126639e-7 -0.000004936702769686718 -0.000008658357372848258 9.039160495660781e-7
          -0.0000042783754783393135 -0.00000797888898462773 0.0000015284069991849947 -0.000003860955958501222 -0.0000070845510387052 0.0000017272849959226733
          -0.0000036649698418322885 -0.000006104789821215206 0.0000017495436113179608 -0.0000034255205521027676 -0.00000420734793715738 0.0000010958543885664085
          -0.000010994746254766596 -0.000020608309649006173 -0.0000072494850984483605 -0.000005082150343227454 -0.000007650784735080407 -0.0000010870327633583088
          -0.000007696028804016208 -0.00001126363679659903 -0.0000022247535511610295 -0.000006352740609116836 -0.000009687651702172673 -1.9963461950212036e-7
          -0.0000055764979167705064 -0.00000914749137281845 7.42144476095774e-7 -0.000004881445335946921 -0.000008276808300067273 0.0000013916784302736573
          -0.000004365314459686687 -0.000007185373422036179 0.0000017086628405493798 -0.0000040443323023886535 -0.000006127467558680877 0.0000018486335040535096
          -0.0000033887143096045236 -0.0000036628362503066114 0.0000014225877356111027 -0.000010397994004485156 -0.000019950567610393932 -0.000006461095400922545
          -0.000005911945531789087 -0.00000955430142912661 -0.000001502645336604047 -0.000008465972274329658 -0.000012191462624766558 -0.0000026115921971658906
          -0.000007520253568316093 -0.000010613465240449926 -9.886392056124294e-7 -0.000006926150766251027 -0.000009848285797975365 -2.24329611331342e-7
          -0.000006243047409260072 -0.000008681746777039479 4.4892200845580987e-7 -0.000005553446869477341 -0.0000072465618452532965 9.828618390272936e-7
          -0.000005021111348035845 -0.000006105816271251285 0.0000014224062652168357 -0.000003890378344362233 -0.0000033220193507155216 0.000001390538854728618
          -0.00001028477664810623 -0.000020420196420900538 -0.000006298621368472368 -0.000006645510564950996 -0.000010927101655067162 -0.0000018487007040768333
          -0.000009804694580228812 -0.000013538568828241893 -0.000003620878400223404 -0.000009434745783298837 -0.000011888937061499405 -0.000002525101773009908
          -0.00000914290103626314 -0.000010806818051989353 -0.000002022093467335395 -0.000008524761056172281 -0.000009238750819484665 -0.0000013783573771242175
          -0.000007656718169268828 -0.0000073526461505935 -6.244107835229329e-7 -0.000006728679740941601 -0.000005684506232839226 2.3679906746565393e-7
          -0.000005339933069059555 -0.000003028940300353611 0.0000012042823458457974 -0.000010683120617471786 -0.00002179981777672424 -0.00000652224314023897
          -0.000007716047359718203 -0.000012659235343548403 -0.00000249394497275901 -0.000011854636599917256 -0.000015429716174963914 -0.00000518320775810821
          -0.000012054534564764907 -0.000013509740380612811 -0.00000452631889968913 -0.000012064658116983651 -0.00001197567569954927 -0.00000427986118278767
          -0.000011516828873237017 -0.000009886799448466377 -0.0000037149503882005774 -0.000010529824586491543 -0.000007484212657171696 -0.000002921984094683694
          -0.000009409184826836281 -0.000005396660052170432 -0.0000021665901566159107 -0.000006721764692407817 -0.0000019200845433609004 -3.2536676375372053e-7
          -0.000012074099492664914 -0.00002492825845479274 -0.00000742903068129408 -0.000009135981401620086 -0.000014754665329963501 -0.000003293163220341455
          -0.000014538959731691392 -0.0000178750111810011 -0.000006957516514471962 -0.00001506591939781643 -0.000015345981312364643 -0.000006387538444840857
          -0.000015182253330081608 -0.000013153972995283425 -0.000006252476663526352 -0.000014625786918021078 -0.000010380815078203653 -0.000005778024014801986
          -0.00001357469574125858 -0.000007423217702751117 -0.000005101442870802941 -0.000012384425312372827 -0.000005475262567777861 -0.000004753118448608262
          -0.000009077195543660821 -4.232320129915479e-7 -0.0000026588302075580827 -0.000013788169401340866 -0.000028427070789760478 -0.000006457549980964927
          -0.000017620668097517722 -0.000030615379724707736 -0.00000866339950844619 -0.000016393072506115658 -0.000018308781409626107 -0.000006403709060798235
          -0.000017856906549429397 -0.000017101945165354238 -0.000007262847884881296 -0.00001778157025622562 -0.000013950137870200052 -0.000007061295260513134
          -0.000017084654928556375 -0.000010373483454451105 -0.000006727571923548226 -0.000015966918358589766 -0.000006717507666120781 -0.0000063215088528245644
          -0.000014987867065663352 -0.000004667448940232077 -0.000006645864628396225 -0.000011429329420664658 0.000001380451735144561 -0.000004834798325248357
          -0.000025989242169011106 -0.000051791825388392 -0.000016992403844007242 -0.000013775773460622531 -0.00001938490608166532 -0.000003663853616941992
          -0.00002053461993289929 -0.000020657508222221566 -0.000007786382270058567 -0.000019230053436736227 -0.00001399357524611844 -0.000006162872909332151
          -0.000018342959786199486 -0.000009496276536236081 -0.0000061170807281740736 -0.00001725247689021714 -0.000005198455512278599 -0.00000626558289207324
          -0.000016700635875110947 -0.0000032095146766941696 -0.000007655700597020143 -0.000013240516126167279 0.000003583679848429 -0.000006732527340957972
          -0.000026259600307554365 -0.00005067599541952461 -0.000012311464963943308 -0.000013974803635630195 -0.000019904177203322604 1.609518474054994e-7
          -0.000021315300474000765 -0.000021904087670776562 -0.000005517196913551459 -0.000019323993435627074 -0.000012979337094876087 -0.0000035727786422690144
          -0.000018354388678254452 -0.0000074557965588084585 -0.0000040855104446180235 -0.000017468355268501767 -0.000002613909776183476 -0.000005072513248549626
          -0.00001739153972524221 -6.936005902957731e-7 -0.000007438281380167666 -0.000013344236734269543 0.00000797773066540941 -0.0000067723265750885275
          -0.000024871809709559045 -0.00004701922659577917 -0.000005467768207978452 -0.000014281498144086413 -0.000020887762129273568 0.000004454391782093836
          -0.000020368105758450383 -0.000020686986687223907 -8.363100754138486e-7 -0.000018281508649575784 -0.00001052584802918588 4.0248813570897823e-7
          -0.000017417959758070367 -0.000003926776318330383 -9.428553271462192e-7 -0.000016956123665590184 0.000001219992557643934 -0.000002964282640682825
          -0.000017683454240025043 0.0000023731866929388445 -0.000007083870599444708 -0.000014354311985709245 0.000010616691772824538 -0.00000678809213239262
          -0.00002417098862306233 -0.00004499736394869558 0.000004377701638080822 -0.00002367775220557533 -0.00004071888332912721 0.000003584424612235182
          -0.000016886562805851213 -0.000014113974926566186 0.000008205886730561218 -0.00001631750564667911 -0.000006067529202180566 0.000005774797961155542
          -0.000015632520316888332 0.0000014662048517521953 0.0000034344092085802913 -0.000015506309539503604 0.000006956151092474272 6.989274758950614e-7
          -0.00001641412903952144 0.000007663161334381385 -0.0000046734267731274315 -0.000013033681048213452 0.000012808443533351976 -0.0000040924001254438735
          -0.00002812173806177043 -0.00005648490269116735 0.0000032172441137845453 -0.000008820145310561855 -0.000007806043500035997 0.000018353157494654937
          -0.000014014249223759379 -0.0000015588330395388539 0.000011378092256819627 -0.000012339307059683335 0.00000942193617703424 0.000009775208900109078
          -0.000012568030926640716 0.000014778133960113848 0.000005746637310455327 -0.00001534242731882074 0.000010598232790037798 -0.0000024079711566926676
          -0.000008671202223808905 0.000020287846570266055 -8.450238326851434e-7 -0.000023913567188671436 -0.00004549161753431008 0.000018669125398496078
          -0.000002933483346012622 0.0000036974039012704907 0.000031594351909358664 -0.000009240970053170372 0.0000075068157405766556 0.00002071342913012586
          -0.000006743366548711549 0.000020586179696024942 0.000018162400411636526 -0.000007823478357149583 0.00002482116624991093 0.00001197099453298378
          -0.00001803990624171803 0.00000666161705531465 -0.0000025235496967646043 -0.00001673876582719558 0.000005289002482200544 -0.000003361678969859838
          -0.00002093104427025594 -0.00003689358343805793 0.0000345088568867169 0.00000486081248318726 0.000020227545016293647 0.00004730303257316493
          -0.0000017746310443378377 0.00002321467614629924 0.00003348208727427249 8.178665189539913e-7 0.000035124962219246214 0.000027477892524441216
          -0.000006701563905586738 0.000028142024044441882 0.000015610813330457773 -0.000032431605515803597 -0.000020456714877603588 -0.00000664906123670761
          9.366135778066109e-8 -0.0000055759352033391 0.00006252313602317372 0.000006604112971153597 0.00002251022581001294 0.00006266362604190334
          4.2018954626854566e-7 0.00002126715516004296 0.00004648760506054117 -0.0000019020190604734921 0.000023019780674538026 0.000032186846214532494
          -0.000029188362622889485 -0.00001955881503290513 0.000007270480822718639 0.000006169423611090963 -0.000011706761958052425 -0.000009992119714752334
          0.000004208372517133796 0.00001233848570381113 -0.000010658813238251241 -0.00000811721874605098 0.0000049233575092344495 -0.000004064632501243892
          -0.00001856136676892106 -0.000014814903134041657 -0.000004340986298423388 -0.000008453516373574388 -0.000006606141466747317 -0.000003008299700901773
          -0.000003001188557227863 -0.000017094410306839336 -0.00001350182045145587 -0.000002917599077001398 -0.0000038608399037798335 -0.0000036210806313441424
          -0.0000028463402501621715 8.801088187126993e-7 8.872139138915713e-7 -0.000014694801310000116 -0.000043638577830407144 -0.00002774789713733128
          -0.000029193579637265543 -0.00006617475956360863 -0.00003734291773804799 -0.000017685272237777383 -0.00003062921271901331 -0.000026561089153442907
          -0.00005910045326018576 -0.00009888189313667084 -0.0000510005597114116 -0.000014145374625407214 -0.000005723355283038245 -0.000010429931802224957
          -0.000012166161829085809 -0.000008671671864135533 -0.000002281617123678359 -0.00002108550350499172 -0.00001830838252292466 -0.0000061559165094315915
          0.0000011144539104890328 -0.000006611471305761896 -0.0000073007054330886945 -0.000006013670137861027 -0.000004629518239873676 -0.000011434443267788197
          -0.00000368793834581993 -0.0000012814752654577433 0.0000014800196153075262 -0.00001665395209204945 -0.000024688290489294218 -0.000028582925485132193
          -0.000011182033453849272 -0.00004417396232181403 -0.0000487894602390071 -0.000010491980858340355 -0.00002624265282680227 -0.00003181591167411568
          -0.0000035990078068870446 -3.903804763893959e-7 -0.000004047013593577731 -2.572741308881632e-7 0.0000018257288765255453 0.0000043626680441555266
          -0.000012329951170508835 -0.00003456911708005217 0.000018012717714177562 -0.00005091870174767088 -0.000003016800398603081 -0.00003312707939662207
          -0.000007602895800928877 -0.000014423451738743154 -0.0000033434244102181765 -0.000027247822260711985 -0.000029614191085158836 -0.000020823444812911873
          -0.00004395065697737621 -0.00001034502321228814 -0.00001804715583508809 -0.000029620493897208888 -0.000026241011345184972 -9.586574174491602e-7
          -0.000005859717187917113 -0.000006896139100209808 -0.0000045392831569124326 -0.000006563551230409637 -0.000008591066534391345 -0.000002626308585107484
          -0.000014180258307128213 -7.84667916198245e-8 -0.000004582818777354447 -0.0000039483877936064005 -0.000008327719374534581 -0.000002473074275144427
          -0.000008913513084740643 4.93621619579443e-7 -0.0000016167222707252904 -0.000001428084960064524 -0.000003928542479325614 0.0000029768900065008097
          0.000003329311511812705 7.398930994551023e-7 0.000001510865891951596 -0.0000031814902297089276 0.000006586963793520084 0.000004475283621907522
          -0.000005799647559534549 -0.000005855382984698565 -0.000001258304250129072 0.000009954961698088738 0.000012600844875976236 0.000011578288727331909
          -0.00004172304862226639 -0.00002343632957213515 -0.00001843776387078222 0.000014229095630646782 0.000018788062089214463 0.000012790016959751682
          0.000009008290499323834 0.00001409207850588956 0.000011870254737367247 0.000012417147188692468 0.000019529821778441203 0.000013711981522668282
          0.000010932662102725033 0.000015610244745278834 0.000010524633883068901 -0.00001902166094147617 -0.00003665960630172549 -0.000017741484218625203
          0.000007865327078526718 -0.000008821144518833535 -0.00001263679065344192 0.00001954218416422293 0.000022363931553748273 -0.000005935201130569112
          0.000033950144906924606 0.000008621357213023373 0.00006021414349444143 -0.000007088821561751502 0.00008204235884301525 0.00006525611155794309
          0.0000033098060421288267 0.000051963852524927745 0.00005529871327114577 0.000006737224944597386 0.000058696234463528896 0.000045899677641791925
          -0.000013648197015214691 0.00004455636029954135 0.000032811563599022264 0.000027178701852648146 0.000025304675971504764 -0.00000942858359476162
          -0.000058483038735346327 -0.00007035559844936756 -0.00005055005740217666 -0.0000673974366982577 -0.00009826682930835773 -0.00006376659459483847
          -0.000010939917888919126 -0.00001127768741149282 -0.00003212100308758181 -0.000027163607665414702 -0.000017916076391344404 -0.000013847784886777958
          -0.000023210830834230478 -0.00003965353879031852 -0.00003511573462589013 -0.000052673482645815284 -0.000030272134159403663 -0.00003727905901751427
          -0.000010903670782269614 -0.000008444521293782259 -0.000020629436100705334 -0.00002209756266680074 -0.000005995809182479661 -0.000006445110781072572
          -0.0000045062877127577394 -0.000007247778977870212 0.0000017995019163663528 -0.0000341390788136664 -0.00006737673531809207 -0.000041019950002940675
          -0.00001426708749896477 -0.000006449542837572153 -0.000021007573597131568 -0.0000140462714046663 -0.000006997260109997683 -0.000007504400332258854
          -0.00004315954192524174 -0.00006629089972776114 -0.00003049104785191048 -0.00002561993870919821 -0.00002270129890113992 -0.00003493387381592328
          -0.00002636160210389704 -0.00002086525725975008 -0.00001360350053891679 -0.00002161328406291574 0.000004748777181262653 0.000003089094060992892
          0.0000018516647735111746 0.000006545525440770916 0.000009793735380014823 0.000007394812224781333 0.000012991919790650286 0.000011883806926960006
          0.0000280075039036376 0.000011447454938640078 0.000021134752884677255 0.00000947814595519958 0.000019890061885519117 0.00001659351955218824
          0.000011673645826881796 0.000024096703800324804 0.000016607624163000878 -0.00003897731817037453 -0.00002821993462021055 -0.00003079446676057529
        </DataArray>
        <DataArray type="Float64" Name="resid_y" format="ascii" RangeMin="-0.2042186313982223" RangeMax="0.00008909763924763725">
          8.218557824568595e-7 -0.10209951839659567 0.0000016499767149999456 -0.2042186313982223 0.000001716318664489458 -0.1021510749894915
          2.748195556956379e-7 -0.09442077568876342 5.521643761802197e-7 -0.18885834692375816 0.0000013474679690234082 -0.09446355138042918
          4.005088124550693e-7 -0.08568391542795785 2.6425467994362073e-7 -0.17138166907138308 0.0000011744113379563714 -0.08571994968433302
          2.9826599188403913e-7 -0.07615373005952603 4.8330313293099e-9 -0.15231871610253905 7.795798104767715e-7 -0.0761825180439409
          2.185789172784447e-7 -0.06610278054153562 -1.8291640613635196e-7 -0.13221439061839416 3.732173180052978e-7 -0.0661247880053413
          1.961522928771442e-7 -0.055794927512481544 -3.2472459977547774e-7 -0.11159520748008431 -4.241341279576094e-8 -0.05581188884359624
          2.845910889101577e-7 -0.04543135846101894 -3.5605157472709537e-7 -0.09086188490578288 -3.675527915497634e-7 -0.04539758067467473
          -0.0000013317751861134652 -0.037736587929943194 -0.000003922069285065485 -0.07548446014559086 -0.0000017899317482882038 -0.03746708720443562
          0.0000024911173900077355 0.0000031508041326011593 0.000003670132213397237 0.0000018156154612675168 8.646157611397198e-7 0.0000029299505594632125
          0.0000017366042993627318 1.9068715866044084e-7 0.000002488578285941845 0.0000010688656231563898 -5.867438031340044e-7 0.0000015443328651720822
          3.238909471840745e-7 -0.0000013854557951720192 5.732283130735483e-7 -4.5119253522935e-7 -0.000002234954301818387 -4.6290634124479535e-7
          -8.325790169308456e-7 -0.0000025681056232684796 -0.0000011125757930462166 2.4779044281199314e-7 -0.0000013463214614661129 -4.914998565485468e-7
          0.0000043082823293280614 0.000005213775846654722 0.000005264054942485941 0.000003062547272315863 0.0000016164161496731722 0.000004072336468534388
          0.0000029143192861944 7.869879821223447e-7 0.0000035622018625669494 0.0000020508434799212938 1.2890684667962726e-7 0.0000024405493473725337
          0.0000010948670786208037 -5.89543049309138e-7 0.000001339063081751135 1.4607018928441962e-7 -0.0000012305689713228152 2.38155104012594e-7
          -9.669565119684032e-7 -0.000002674913343251109 -0.0000011933540888693639 -4.879352163925793e-7 -0.0000022120504838823996 -0.0000013265233958642542
          0.00000595277674539374 0.000007119003088681963 0.000006531655792077484 0.000004083699322046663 0.0000022120302440517547 0.000004883099500425925
          0.000003754100491436263 0.0000010884190131954519 0.000004245585073524294 0.0000026483447410387273 2.632862636173239e-7 0.000002885409129686073
          0.0000014553200502961938 -6.651464543455665e-7 0.0000015946088423243743 2.6392271226111097e-7 -0.000001501845549246178 2.894863094723976e-7
          -0.0000010632508300276872 -0.0000029532130066782514 -0.0000013292508128162628 -9.834783190932912e-7 -0.0000025745518476628145 -0.0000017550536111051243
          0.000007269132929262068 0.000008624925478983858 0.000007293232489151424 0.0000048230807853308355 0.000002777729385533556 0.000005316591843558538
          0.000004277103655143943 0.0000013260290022965027 0.000004571042749895726 0.000003000965192050814 3.2710860844997747e-7 0.0000030722450368204923
          0.0000016482167654700841 -8.295921744387591e-7 0.0000016861582692699606 2.9457405512425816e-7 -0.0000018623556713968925 2.7060368175055305e-7
          -0.0000011761666926859982 -0.0000032367321007135963 -0.0000014069391263485387 -0.0000016154336515833423 -0.000003236726585130814 -0.000002254999481022396
          0.0000053452539719237024 0.000004175484577033373 0.000005644223096019918 0.000005210273984437852 0.000003522161957862646 0.000005882320847722111
          0.000004427490235100334 0.000001474922826344427 0.000004539821440729258 0.0000030682561230968575 2.857904072318951e-7 0.0000029963873876201474
          0.0000016415489284375695 -0.0000011076736563843392 0.0000016117993880369885 2.264414499415779e-7 -0.0000023249268190587286 2.0492614424133526e-7
          -0.0000012844678710334165 -0.0000035997347708534994 -0.000001404458493022183 -0.000002167108356201583 -0.0000038577511439936985 -0.00000256900561146009
          0.000012391610009029885 0.00002323676621916737 0.00001351924949775929 0.000007248120004819947 0.000007644187304312045 0.000007637956892438125
          0.0000052398815111528996 0.000003975937350721159 0.0000057875145659663785 0.0000042309632978070055 0.000001566106276051915 0.000004222205918960609
          0.0000028498783023189755 1.0333910134552315e-7 0.000002685016987916816 0.0000014361794037354159 -0.0000015471393282114748 0.0000013610984261197556
          4.7056839298439956e-8 -0.0000029613421627609077 4.265398120470443e-8 -0.0000013937572888970962 -0.000004150837396084406 -0.0000013970083718155973
          -0.000002608450753626562 -0.000004613768466516649 -0.0000027221153377117446 0.0000073436566811677095 0.000012106428700871252 0.000007705780988472022
          0.000006730428346965467 0.000006467358977413351 0.000006165339542577031 0.000005469909929105288 0.0000034221597828495987 0.000005070280117862314
          0.0000037522056567478035 0.000001530045540296815 0.0000035007182999542696 0.000002403162998508568 -2.5599429536588003e-7 0.000002213136269836602
          0.0000010454520207470869 -0.000002187574742459203 9.63203003478269e-7 -2.600381220022735e-7 -0.00000381702920408504 -2.461398422078792e-7
          -0.0000015755939607851486 -0.000004979550757968428 -0.0000014911477242123689 -0.0000029015646693004993 -0.00000546731593046787 -0.0000027644874172373657
          0.000010691646179929182 0.000014604282052264883 0.00000970047681739944 0.000006820643086824507 0.000008191254272663095 0.000007132315825386648
          0.000004987835886274827 0.000004119823143321211 0.000005074074151484309 0.0000033718957893683066 0.000001749560458032956 0.0000032068350019308356
          0.0000018243910666834728 -8.376993024562795e-7 0.0000017165690717121929 5.046466429892843e-7 -0.0000030719410725518065 4.6269505578171166e-7
          -7.055047633246041e-7 -0.000004900505053589618 -6.831395510456528e-7 -0.0000019206062718624475 -0.000006169913040121253 -0.0000017994180698793077
          -0.000003118657171724895 -0.000006440371180345059 -0.0000028370153647584023 0.000010563255578931174 0.00001506139604368073 0.000009909869593836829
          0.0000065806910551774456 0.000008149545479153864 0.00000725885373413504 0.0000047964220155419235 0.000004328717395807313 0.0000052990235154259935
          0.0000029906278447532075 0.0000013921189014887148 0.0000031318507799499296 0.0000012846357409241477 -0.0000016575673541935343 0.0000013774130567974219
          -1.1382266109066091e-7 -0.000004236663244148314 -6.263891432455038e-8 -0.0000012978962453554215 -0.000006236706299547453 -0.0000012626851846574139
          -0.0000023880035645781894 -0.000007504107846193105 -0.0000022732458520285242 -0.000003689381921532023 -0.000008069991369362775 -0.000003321309104385023
          0.000012167136141091883 0.000017859016431642782 0.000012018031292825027 0.0000072847814448842585 0.000009018326818675815 0.000008633540611438506
          0.00000521645973963758 0.000004481325777939971 0.000006295931378061392 0.000002992308631124402 8.240222630906402e-7 0.0000035998931936509493
          9.381805999193749e-7 -0.000002754247554500114 0.000001371729504559202 -7.217050084002601e-7 -0.000005695429219114358 -4.706347506776114e-7
          -0.0000020543988818299413 -0.000007929662234259886 -0.0000019709646837534622 -0.0000030280389067566943 -0.000008994738418683854 -0.000002937346008972941
          -0.000005167910481513466 -0.000011191689979678232 -0.000004609580055076057 0.000014481415339460957 0.000020895586948802003 0.000014897766120652856
          0.000008622949193383411 0.000009874163018827598 0.000010853770251909034 0.0000063176270142413504 0.0000043739022055275245 0.000008087426124681052
          0.0000035367695157863255 -3.376644767613679e-8 0.000004703176785511576 9.270400377773061e-7 -0.0000041901194613594775 0.0000018101191814837853
          -0.0000012002216534766352 -0.00000749899184260619 -6.298314374191677e-7 -0.000002854064609949386 -0.000009890409863882663 -0.0000025873917939116253
          -0.0000039881423167572455 -0.000011159656989393613 -0.000003917226477936214 -0.000004645136761020213 -0.000010687852902795808 -0.000004439627677117058
          0.00001796443958362176 0.000025326808268971712 0.000018889694474361063 0.000010656932145441944 0.000010622646531455171 0.000013840423097911947
          0.000008143226261470016 0.0000039106712143195665 0.000010625722652164021 0.00000461294084967874 -0.0000013200512809993792 0.000006320473340842847
          0.0000012836750700047058 -0.0000060812125003933785 0.0000026490825693076953 -0.0000014455296153369213 -0.000009699080826000572 -4.59734497651465e-7
          -0.000003519235098808915 -0.00001208201566456693 -0.0000028997162488317296 -0.00000476674036219496 -0.000012662397485246196 -0.000004229330353388433
          -0.000006032546202093536 -0.000012342611746884308 -0.000005127193348521825 0.00003742751185320525 0.00006041206871937321 0.00003310795505923059
          0.000020796031657277503 0.000026111720000443484 0.000021867711362838493 0.000010801708271342136 0.0000030992119263613394 0.000013284070908808898
          0.00000602242383579768 -0.0000032557992512309217 0.000008084396193435914 0.000001912848601261924 -0.000008632254970955544 0.0000036878114661100664
          -0.0000014495120176857834 -0.00001247483145917598 -1.78082698587545e-9 -0.0000039963624892565275 -0.000014791032292425788 -0.0000028945920358021404
          -0.0000054210988402574045 -0.000014817450928034798 -0.000004369858474045918 -0.000007177404914748137 -0.000014473592490043229 -0.000005486563355666663
          0.000020210823251418097 0.000019400964808596877 0.000020505023666461675 0.000009381370718831647 5.507585957662681e-7 0.000014091299114711228
          0.000007257986477581576 -0.000006100725058246067 0.00001040114051557438 0.0000025550109102236845 -0.000012119755236199639 0.000004615919060545898
          -0.0000012795277735434818 -0.000016008861700150118 5.679758785584466e-7 -0.000004090106386318154 -0.000017936065529085277 -0.0000024472087522958708
          -0.000005539010538700706 -0.00001711546122053903 -0.000003776746457441471 -0.000007474057118359023 -0.000015884002922513657 -0.000004769600890033865
          0.000024591489299410907 0.00002388131677880101 0.000024163030060697643 0.000011547770413848808 -0.0000011990424176938283 0.000015973135504325497
          0.00000770608098795908 -0.000011734842985779495 0.000011074924666237482 0.0000029437028133509624 -0.000016810762684900393 0.0000051563512020111335
          -0.0000010452338955052598 -0.000020425664299484475 0.0000010769493749528125 -0.000003788708539981256 -0.000021650331595131356 -0.000001727367819892578
          -0.000004923340866505588 -0.00001951673224095951 -0.0000024901511497393836 -0.000007712437700166039 -0.000018496455087061575 -0.0000037951498102484216
          0.00002565175098671879 0.00002313931171069039 0.000026540462245649987 0.000011924217596486907 -0.000005940620317505547 0.000016671998793526188
          0.000007776423276907585 -0.000017999499512061368 0.000011294237187917111 0.00000286110440827006 -0.000022897062631335036 0.000005173981610942513
          -8.840883204408456e-7 -0.00002573199135500609 0.0000013299617110315576 -0.0000031813079643464026 -0.000025774839944411876 -9.866998125981907e-7
          -0.0000035186400222514402 -0.000021732281466312064 -7.703247410020819e-7 -0.000005740171934456861 -0.000018357145537981068 -0.0000012205060962514058
          0.00005499060343572282 0.00007708702876463303 0.000045957177089550605 0.00002272127991714834 0.000009897206112052803 0.00002235627147664787
          0.000007627828120963798 -0.00002582223564069619 0.000010431876278076124 0.000002185021513188834 -0.000030490250356778048 0.00000460971850049785
          -0.000001012956980836477 -0.000031861603891708556 0.0000011164169709879102 -0.0000025399639503667637 -0.000029991593447867282 -5.444492548467572e-7
          -0.0000022229682130892048 -0.00002423945227567753 5.791924524573e-7 -0.0000029503909522513028 -0.000016606690007324454 6.186009470082743e-7
          0.000011845941970900498 -0.00001706713227445089 0.000010391277016408296 -8.653939573832758e-7 -0.000037450331275078186 0.000005526335841422869
          6.189809263965063e-7 -0.00003982535955532329 0.00000453444893818572 -0.0000015066360662882583 -0.00003844786923075383 5.272989137689033e-7
          -0.0000022351608198745154 -0.000034137948457003964 -4.98108452151591e-7 -1.3524284874638637e-7 -0.000023870309729147332 0.0000027946284240631947
          -0.000004060134772831958 -0.000019668242209509856 0.0000012970156387029363 0.000012975073082871491 -0.00001390294478198495 0.000010265800070463627
          -0.000003059422596471406 -0.00004890569846480175 0.0000019587681759358766 -0.0000017541068884213695 -0.00005155414624018195 0.0000025920105428955953
          -0.0000020657824711944883 -0.000044812469231658714 2.3039674414832012e-7 -0.0000018189713772084892 -0.000037306772518570785 -1.4566829036055662e-7
          -8.585275122763303e-7 -0.00002863679078276421 0.0000016183676167166872 0.0000045731405861546 -0.000005646590850352795 0.00000788427258851393
          0.0000033051225118985172 -0.00003778945191768024 0.0000011838862879753886 -0.000008551715369606305 -0.00006532188897352686 -0.0000035153733593668024
          -0.0000039929765427576536 -0.00006210029608229306 0.0000011010184360893405 -0.0000013833238380056567 -0.00004941287707340564 9.189566518991166e-7
          -0.0000018184861065723146 -0.00004140336195124217 -1.805021129300255e-7 0.000012938152275827897 -0.0000034290356687866064 0.000010971775477458534
          0.0000321274163891383 0.00002744155609774035 0.000022927573192915718 0.000048490020268479594 0.00004445135285048585 0.00003477066583723598
          0.0000567514793733126 0.000053298772348539525 0.00004154043335664881 0.00004955648802630608 0.000049987479650397126 0.00003725013242256159
          0.00003219463403113243 0.00003091365291948284 0.00002444351733035116 -0.000009176770705384557 -0.0000061665380793538005 -0.0000070099586109220735
          -0.000004022013789510559 -0.00001879410979332974 -0.000012430583818185542 -0.00001559000761565746 -0.000005499466644184187 -0.000005402934593355668
          -0.0000031643116789395465 -0.000006542070160639457 -0.000001449600520120331 -0.000005483158088947018 -0.0000036560579454326253 -0.0000019707294719589763
          -0.000002521827953022235 -0.000011445550404935723 -0.000008800111373205577 -0.000004728881670032839 -0.000006058255344460611 -0.000006936315720114036
          -0.0000057041183211094595 -0.0000034758994923462377 -0.000004500102403418374 -0.000017856567796931664 0.000010543067914443177 -0.000007921607017055687
          -0.00003591299604208321 0.000020364999009932216 -0.00001687039779012592 -0.00001429944953711083 0.000012395772014155843 -0.0000020614754465166085
          0.000006142001763326244 0.0000037565075911780155 0.000005266881107676702 -0.0000073938383905319816 -0.0000030245457440444823 -0.000004406712733641405
          -3.840262604269673e-7 -0.000014061040657806223 -0.000006927069453132803 -0.000009471171764156329 -0.00000847841240815203 -0.000006950626766234758
          -0.000003621693516600577 -0.000005649711806950987 -0.0000058788776199636406 -0.0000057267582592550326 -0.0000037711986512044965 -0.000010550943079355724
          -0.000004491895350376869 -0.000006119321985914236 -0.000003269975376437792 8.826175016130033e-7 -0.000008838439733413472 -0.000022814389572845678
          5.793033601639297e-7 -0.000013630901385005417 -0.000031799588396497214 0.000003962627599090468 8.395825919944866e-7 -0.000008160799613680936
          -0.0000029605286116091145 -0.000005459524950100075 -0.0000033476258202158604 -0.00000940234058417061 -0.0000024159448187253962 -0.000004944113075040432
          -0.000007880675405802506 -0.00000932760288615414 -0.000018916116625571078 -0.00003503321697997941 -0.0000033930571059978543 -0.000013837405624550492
          -0.00000682223729534491 -0.00001263549976249917 -0.000005983581515288383 0.000009521171721416782 0.000016008193085604444 0.00001742956857865227
          0.000018762747988960993 0.0000103026970050199 0.000009916414679900232 0.000002543677082099405 0.000007316718284827717 -0.0000017574462940865565
          0.000007397469368876364 0.0000022522382151952958 0.000006398568237600544 -0.0000013859234668602873 -0.00000302857820596485 -0.0000021140025129756136
          -0.000006671463292315296 -0.000001114117986200213 -0.0000034304275742446863 -0.0000025947102483200868 -0.0000043204557385143495 -0.000004708684048438522
          -0.000009644395973982178 -0.0000025589075616453544 -0.000004844563980934595 -0.0000020068199963509115 -0.000002596302127110331 -0.0000019405633259975824
          -0.0000024322217826808906 -0.0000013850242602340274 -0.0000049182406237479465 -0.0000016998453171174904 -0.0000022719618727497226 -9.574659825036663e-7
          -0.0000030727945779553123 -0.000003949777760610743 -0.000002086854595389348 -0.0000026542768618506574 -0.000005375566686130484 -0.000002059127448519188
          0.000011375403071466061 0.00001585270454650123 0.000010605540405786429 0.0000010264254075072893 8.363415456395795e-7 7.025023419753029e-7
          -0.000004718772882399483 -0.000008069245027275684 -0.000003820566869260165 -0.0000031984691749892703 -0.000005203020050146504 -0.0000022832145707086995
          -2.3589462226723118e-7 -6.070696863579375e-7 -1.7927012347079135e-7 0.000020405541297912125 0.000015069953805631198 0.000007195432708688096
          -0.0000060599692525212245 0.0000063755072459148465 0.000024236636993926752 -0.000011977558012889189 -0.0000026313048138715267 0.000019815217961453857
          0.000005336124421273514 0.000006767915217495077 0.00005196060458767526 0.00003470361674639405 0.000050393881404903196 0.000032242921135964414
          0.00003383914471874472 0.00008595195309463177 0.00006793489367262762 0.00003894405272716894 0.00008909763924763725 0.00006470664031399398
          0.00002886878456651032 0.00005274919102304931 0.0000482024914323087 -0.00001113006611636741 -0.000015917493385420034 0.00001689062771154104
          -0.000025836438140487868 -0.0000381244586483212 -6.853940202333764e-7 -0.000016364961182017274 -0.00002347872906914572 -0.000001457380299354355
          -0.0000012079996024247364 6.844958667998058e-7 -0.000003934056936199387 0.000004628729725009162 -0.000003702693516445185 0.0000033579144178737252
          -0.0000063040736784023 -0.000008438176103294642 -0.000030152984004855332 -0.000025106823280725277 -0.00000714918080190613 -0.000006449968249964966
          -0.000009580836962373024 -0.000007117409561177568 -0.000012488451047183713 -0.000014889979047597035 -0.000008448160323040743 -0.00000959027122283962
          -0.0000020009343901488535 -0.000005726996132531664 -0.0000056192884420463995 -0.000010377356515118424 -0.00002000997166974952 -0.00000758078239825391
          -0.000007380362693411302 -0.000007980848723481565 -0.000012104443525375042 -0.000013783552411765487 -0.000005869434495497233 -0.000007559425067717868
          0.000024502258284105072 0.00002687133101894959 0.0000169964966258776 0.000032274635261078655 0.00002184029642553209 0.000045289793362698894
          0.000030134480959315146 0.000024974971217318898 0.00001675290891219039 0.00000905294862152406 -0.000002143030565310289 0.0000010519814398757266
          -4.828159257241199e-7 -0.0000040027067292024154 -0.000004506767167554784 -0.0285745795678089 -0.000003894427043725848 -0.05720317711728664
          -0.000007036052491592865 -0.02875260873913117 -0.000003124560485253877 -0.0000014932947346082276 -0.0000016583866736669117 -0.000001406758678716008
          -0.000004126242828571616 -0.000008261851767544376 -0.0000037412036077346528 -0.000005758182911576315 -0.000015471439901798556 0.000007482821430253306
        </DataArray>
        <DataArray type="Float64" Name="resid_z" format="ascii" RangeMin="0" RangeMax="0">
          0 0 0 0 0 0
          0 0 0 0 0 0
          0 0 0 0 0 0
          0 0 0 0 0 0
          0 0 0 0 0 0
          0 0 0 0 0 0
          0 0 0 0 0 0
          0 0 0 0 0 0
          0 0 0 0 0 0
          0 0 0 0 0 0
          0 0 0 0 0 0
          0 0 0 0 0 0
          0 0 0 0 0 0
          0 0 0 0 0 0
          0 0 0 0 0 0
          0 0 0 0 0 0
          0 0 0 0 0 0
          0 0 0 0 0 0
          0 0 0 0 0 0
          0 0 0 0 0 0
          0 0 0 0 0 0
          0 0 0 0 0 0
          0 0 0 0 0 0
          0 0 0 0 0 0
          0 0 0 0 0 0
          0 0 0 0 0 0
          0 0 0 0 0 0
          0 0 0 0 0 0
          0 0 0 0 0 0
          0 0 0 0 0 0
          0 0 0 0 0 0
          0 0 0 0 0 0
          0 0 0 0 0 0
          0 0 0 0 0 0
          0 0 0 0 0 0
          0 0 0 0 0 0
          0 0 0 0 0 0
          0 0 0 0 0 0
          0 0 0 0 0 0
          0 0 0 0 0 0
          0 0 0 0 0 0
          0 0 0 0 0 0
          0 0 0 0 0 0
          0 0 0 0 0 0
          0 0 0 0 0 0
          0 0 0 0 0 0
          0 0 0 0 0 0
          0 0 0 0 0 0
          0 0 0 0 0 0
          0 0 0 0 0 0
          0 0 0 0 0 0
          0 0 0 0 0 0
          0 0 0 0 0 0
          0 0 0 0 0 0
          0 0 0 0 0 0
          0 0 0 0 0 0
          0 0 0 0 0 0
          0 0 0 0 0 0
          0 0 0 0 0 0
          0 0 0 0 0 0
          0 0 0 0 0 0
          0 0 0 0 0 0
          0 0 0 0 0 0
          0 0 0 0 0 0
          0 0 0 0 0 0
          0 0 0 0 0 0
          0 0 0 0 0 0
          0 0 0 0 0 0
          0 0 0 0 0 0
          0 0 0 0 0 0
          0 0 0 0 0 0
          0 0 0 0 0 0
          0 0 0 0 0 0
          0 0 0 0 0 0
          0 0 0 0 0 0
          0 0 0 0 0 0
          0 0 0 0 0 0
          0 0 0 0 0 0
          0 0 0 0 0 0
          0 0 0 0 0 0
          0 0 0 0 0 0
          0 0 0 0 0 0
          0 0 0 0 0 0
          0 0 0 0 0 0
          0 0 0 0 0 0
          0 0 0 0 0 0
          0 0 0 0 0 0
          0 0 0 0 0 0
          0 0 0 0 0 0
          0 0 0 0 0 0
          0 0 0 0 0 0
          0 0 0 0 0 0
          0 0 0 0 0 0
          0 0 0 0 0 0
          0 0 0 0 0 0
          0 0 0 0 0 0
          0 0 0 0 0 0
          0 0 0 0 0 0
          0 0 0 0 0 0
          0 0 0 0 0 0
          0 0 0 0 0 0
          0 0 0 0 0 0
          0 0 0 0 0 0
          0 0 0 0 0 0
          0 0 0 0 0 0
          0 0 0 0 0 0
          0 0 0 0 0 0
          0 0 0 0 0 0
          0 0 0 0 0 0
          0 0 0 0 0 0
          0 0 0 0 0 0
          0 0 0 0 0 0
          0 0 0 0 0 0
          0 0 0 0 0 0
          0 0 0 0 0 0
          0 0 0 0 0 0
          0 0 0 0 0 0
          0 0 0 0 0 0
          0 0 0 0 0 0
          0 0 0 0 0 0
          0 0 0 0 0 0
          0 0 0 0 0 0
          0 0 0 0 0 0
          0 0 0 0 0 0
          0 0 0 0 0 0
          0 0 0 0 0 0
          0 0 0 0 0 0
          0 0 0 0 0 0
          0 0 0 0 0 0
          0 0 0 0 0 0
        </DataArray>
        <DataArray type="Float64" Name="stress_zz" format="ascii" RangeMin="-40954.24049070295" RangeMax="86383.9968920669">
          -1666.1796642055851 -1630.3478876693948 -1639.2817734974712 -1617.233004282311 -1612.3838827893574 -1604.1181208952266
          -1295.8806305075295 -1264.7071360794016 -1346.205307150021 -1330.411790335163 -1396.5299837925127 -1396.116444590924
          -820.0357659004244 -802.8392235452201 -801.2122840754768 -800.6999207781457 -782.388802250529 -798.5606180110714
          -213.11090547243487 -197.65422039211646 -230.11554474240373 -229.11402712476945 -247.1201840123726 -260.5738338574224
          283.1589192236577 326.74850659989755 290.08133488290355 296.65200331641165 297.00375054214936 266.55550003292575
          548.1218149353823 631.2711237177946 557.5769319337626 654.8183201784028 567.032048932143 678.365516639011
          2195.8529831850565 1625.5594179706477 2041.0092616382692 1371.2025729763718 1886.1655400914813 1116.8457279820962
          7492.13476485361 4288.5303622831325 7879.658858711005 4394.4660568323325 8267.1829525684 4500.401751381533
          -1713.779093804538 -1671.6710250080475 -1629.5629562115573 -1315.9281093955485 -1354.1313914427726 -1392.3346734899967
          -806.4683384066113 -774.6223692136132 -742.776400020615 -189.42033008579065 -195.55016394059882 -201.67999779540696
          280.16640828441695 323.25947588070073 366.3525434769846 532.8804335690035 506.16241519269414 479.44439681638477
          2723.063569466193 2672.840889499731 2622.61820953327 7632.4987696682365 7769.695893967414 7906.893018266592
          -1733.457654200548 -1687.5550615000295 -1641.652468799511 -1284.5075779213482 -1328.7538296585556 -1373.0000813957627
          -733.0591129699994 -707.7245618078028 -682.390010645606 -87.66642197622366 -98.7544950830025 -109.84256818978132
          404.95436723728403 445.0000852284303 485.04580321957656 725.6672119117762 681.2337166258833 636.8002213399903
          2744.4248994759464 2731.781794074331 2719.1386886727164 4304.167559968355 4195.773823235189 4087.3800865020235
          -1753.4539240438032 -1703.437500813131 -1653.4210775824586 -1243.8888844025548 -1291.6492433559288 -1339.409602309303
          -636.0931830808875 -613.4949634331797 -590.8967437854718 60.02271695277964 47.52332248522522 35.02392801767084
          599.7080044224855 639.5352138953788 679.3624233682722 963.7044337209508 921.1444349696008 878.584436218251
          2920.054210184033 2909.666668879954 2899.2791275758755 4890.868957051094 5040.043338260279 5189.217719469464
          -1783.5311856527153 -1723.777960858767 -1664.0247360648186 -1193.1709150406682 -1245.6684189874652 -1298.1659229342627
          -510.86379545088 -487.51374284540225 -464.1636902399245 255.68221370821973 242.82119454691764 229.96017538561554
          845.2349521746778 887.9509963615691 930.6670405484605 1223.4253995022818 1175.7023302360958 1127.97926096991
          3206.789280205753 3173.338271738995 3139.887263272237 5466.139893090754 5591.283335994614 5716.4267788984735
          -1836.8810157139355 -1773.8945581700002 -1710.9081006260649 -1119.2471702119167 -1177.5298840726623 -1235.8125979334075
          -341.9186011429803 -319.07076183633853 -296.2229225296967 505.29649639669 492.5864243401938 479.87635228369754
          1150.5124461375633 1193.3142734184694 1236.1161006993757 1564.0415540963818 1514.6343082051199 1465.227062313858
          3554.0384666982054 3531.480562323622 3508.922657949038 5125.486054371003 5247.033186161111 5368.580317951219
          -4679.655444331645 -4809.470845014771 -4939.286245697897 -1863.9868315065182 -1795.0062376953051 -1726.0256438840916
          -1008.3885530190803 -1068.5622096682462 -1128.735866317412 -111.58721741206085 -89.70414978652128 -67.82108216098172
          824.650371792321 811.9846076234974 799.3188434546738 1529.1986920988609 1570.998082266448 1612.7974724340347
          1996.4558262563157 1945.965047661227 1895.4742690661387 3906.7309811880505 3888.75980713334 3870.7886330786305
          5086.057367325074 5214.255346989762 5342.4533266544495 -5138.139806865066 -5265.31658328394 -5392.493359702815
          -1869.343655293737 -1772.9782033897748 -1676.6127514858124 -850.4498888379524 -917.6148113903441 -984.779733942736
          201.93254741474317 224.2988238767535 246.6651003387638 1247.3825168418234 1233.6735873560597 1219.964657870296
          1990.567981545415 2030.148378310395 2069.728775075375 2496.0346138703817 2448.2234643730785 2400.412314875776
          4468.996004965055 4444.506810018339 4420.0176150716225 5133.498628060083 5258.684356681387 5383.87008530269
          -5667.878601785233 -5798.400106968937 -5928.9216121526415 -1844.4257164669912 -1725.1354355024296 -1605.845154537868
          -613.7041355201994 -693.3151065735501 -772.9260776269007 625.9038246428822 650.7165468173005 675.5292689917186
          1806.5065558795382 1790.703863772405 1774.901171665272 2605.5191560870585 2648.857733005595 2692.196309924131
          3009.4404433748414 2950.065871843614 2890.6913003123864 5224.035740044781 5175.857707612161 5127.67967517954
          5895.1551131530605 6151.8654524262765 6408.575791699493 -6268.821321469208 -6428.911326330467 -6589.0013311917255
          -1748.3755577859465 -1615.0478325530325 -1481.720107320119 -262.3664138905724 -352.8265316286204 -443.2866493666684
          1195.6495499750094 1225.0285958645825 1254.4076417541555 2533.980366293259 2516.8990738889165 2499.817781484574
          3399.576355763725 3449.3811690623234 3499.185982360921 3802.776922942875 3747.1636688495255 3691.550414756176
          5440.487159015242 5400.378087276328 5360.269015537415 7651.4141590865265 7786.194401186878 7920.97464328723
          -6992.694421795635 -7185.600346946352 -7378.506272097071 -1582.032330812316 -1428.087001514724 -1274.1416722171318
          243.51326603232056 143.37223790502554 43.23120977773053 1968.259224106253 2002.396317836169 2036.5334115660844
          3457.157663820476 3446.5258768608583 3435.8940899012405 4374.466963535158 4402.419535978393 4430.372108421627
          4714.6912235144655 4728.196357605294 4741.701491696122 5782.874964401448 5691.1690239986365 5599.463083595823
          10736.91271092936 10976.254206859488 11215.595702789618 -7824.497379476964 -8060.081809989115 -8295.666240501267
          -1257.5347399055136 -1077.634695571608 -897.7346512377023 993.2153363739953 880.9896552080304 768.7639740420653
          3022.570366100902 3063.0224792654876 3103.474592430073 4636.40405256361 4635.253743203219 4634.103433842827
          5544.47860577286 5540.778396441473 5537.078187110084 5634.971257218027 5698.905194912021 5762.839132606014
          6093.696774768447 5925.593095874412 5757.489416980379 12685.06263190827 12604.182089851685 12523.3015477951
          -8758.650346700162 -9033.869685797306 -9309.089024894452 -676.7221996776101 -455.1643468172709 -233.60649395693164
          2100.4809449945064 1969.034060951904 1837.5871769093012 4464.334129873585 4515.4967888490755 4566.659447824566
          6174.190427910322 6176.66583403602 6179.141240161718 6943.844280804548 6937.240675111209 6930.6370694178695
          6906.761953660748 6957.113293804135 7007.464633947522 6085.832387553111 6083.574644475169 6081.316901397229
          7554.397849061689 7281.4874481954175 7008.577047329147 -9819.5498960459 -10142.627799075286 -10465.705702104671
          315.4902883136062 588.563266908058 861.6362455025102 3733.4122013088263 3573.344499889273 3413.2767984697184
          6420.861907450933 6486.168680677232 6551.475453903531 8159.142452365701 8166.996171262036 8174.84989015837
          8675.68546026131 8672.761884608824 8669.83830895634 8261.747852985402 8293.752284703662 8325.756716421922
          6728.512056070439 6753.701129909445 6778.8902037484495 6023.221532214437 5910.336929768987 5797.452327323536
          1864.7832376010094 2198.408996161509 2532.0347547220094 6083.813493255991 5887.568210067167 5691.322926878344
          9054.373542040728 9138.46428214582 9222.555022250912 10659.556599992153 10674.880626620388 10690.204653248627
          10726.181025047907 10725.926977353865 10725.672929659824 9637.468908799838 9699.794169690516 9762.119430581191
          7436.011038138467 7390.8947764937075 7345.778514848948 6827.3955317143 6734.238213949287 6641.080896184274
          4340.518208676243 4755.895026160681 5171.271843645119 9480.927031267282 9233.528870952861 8986.130710638443
          12582.377573762828 12689.662131909927 12796.946690057028 13735.08385336967 13757.333481098185 13779.583108826702
          12949.359325713162 12945.99437657485 12942.629427436537 10996.870044211379 11093.396377809297 11189.922711407213
          7134.854954675689 7054.3879198809855 6973.9208850862815 6360.259251977692 6804.842891165876 7249.426530354058
          8290.693732143707 8851.415817059717 9412.137901975726 14357.3185725461 14063.766949881534 13770.215327216969
          17227.622821637302 17361.114463208156 17494.60610477901 17373.641240383906 17419.67261223475 17465.703984085594
          15233.405752000395 15195.437416084991 15157.469080169583 12031.766927130118 12128.33637851722 12224.905829904319
          7133.907608497089 7070.552586810709 7007.197565124329 -8241.33653773503 -8402.483139666056 -8563.629741597084
          14399.496956690122 15134.583030439702 15869.669104189281 21293.70199644117 20940.938255078378 20588.174513715592
          23179.823718138166 23358.267820385834 23536.711922633505 21413.66834427722 21487.362946995756 21561.057549714293
          17184.23714871327 17118.753043421984 17053.268938130703 12747.125451787431 12856.301434321977 12965.47741685652
          4127.394182272647 4409.7161310466145 4692.0380798205815 -22742.13760226836 -23592.988245468667 -24443.838888668965
          30813.648262484814 30363.085737833528 29912.52321318224 30333.45847138923 30594.439148496767 30855.419825604302
          25292.333106997372 25394.52817356966 25496.723240141946 18060.188112074335 17988.873308819537 17917.558505564735
          11466.776869994334 11613.436624679516 11760.096379364697 -1777.2841116141237 -1511.7955593339393 -1246.3070070537553
          -17430.593332085733 -17994.020572437472 -18557.447812789207 43661.61603514158 43059.64961729538 42457.68319944918
          38183.27496888153 38491.49694752728 38799.71892617303 27864.699824847306 27966.76996538713 28068.840105926964
          16700.013699138435 16529.643523954313 16359.273348770192 7494.265579070201 7748.5996969371745 8002.93381480415
          -6874.676461169823 -6809.117963966543 -6743.559466763265 -14763.736116019852 -15511.933411953563 -16260.13070788727
          59979.604783354785 59204.50912045007 58429.413457545365 44874.29081826392 45317.31598854195 45760.341158819974
          26724.990805775476 26914.520972792376 27104.05113980927 11256.17421705608 11066.655123869656 10877.136030683236
          1090.4320613054456 1526.9210894791158 1963.4101176527863 -14868.427040816103 -14847.978092078823 -14827.529143341544
          77641.03214151897 76390.57753060374 75140.12291968853 45711.977294301185 46186.8408059956 46661.70431769002
          18038.766907082845 18172.975576091965 18307.184245101085 -328.75158999264545 -665.1170395447921 -1001.4824890969389
          -9543.130811944777 -9104.725238219671 -8666.31966449457 -14849.210123800189 254.15400227693988 8259.310124563277
          -4326.848230889679 -15149.191901779073 231.81239543199968 8474.11121250425 -4253.488072098661 -15449.17367975796
          209.47078858706027 8688.912300445221 -4180.127913307643 -1450.6716377436537 -4596.036096671714 186.53283508248023
          981.6274888630124 -1648.8816535978374 -4827.227665122675 86.95988853061863 828.3114520088712 -1847.0916694520208
          -5058.419233573635 -12.613058021242637 674.9954151547299 -8939.05626208646 -4018.6308208494365 -14113.340571751003
          -8901.097184043007 -3519.006585464804 -14169.11315476316 -8863.138105999551 -3019.382350080172 -14224.88573777531
          -14175.73138402866 -14937.143991916319 -15698.55659980398 10989.15655982956 17903.853965891096 13017.921713492391
          8419.503652393705 10830.589910363755 18534.80709750135 13273.443464773212 8543.769272942254 10672.023260897946
          19165.760229111605 13528.965216054035 8668.034893490803 1630.099627573395 2454.6655286552486 1603.5072205908896
          2410.813290390485 1576.9148136083843 2366.96105212572 -20719.01933200658 -10769.566199242843 -4358.868070231036
          -21652.01916408909 -11077.906603805226 -3777.0809891751387 -22585.018996171606 -11386.247008367609 -3195.2939081192426
          3306.9301113344936 1333.1346792051709 3245.4412639728043 1275.0394853776738 3183.952416611114 1216.9442915501768
          -13027.579306430967 -10503.241132130554 -13072.148857706256 -10666.779708430422 -13116.718408981546 -10830.31828473029
          894.1464733208745 847.3001643946128 800.4538554683511 -18107.836304893248 -9982.85740505671 -18730.410260136083
          -10401.644641827741 -19352.984215378918 -10820.43187859877 -4913.726088075188 -19969.868523741923 -4607.219128483343
          -20685.17764528179 -4300.712168891496 -21400.48676682165 16839.029180550966 8405.325926915777 18133.226022495528
          8472.262751455102 19427.422864440094 8539.199575994426 1867.9815816570276 3448.380009338526 1769.3906007308378
          3112.8404317023424 1670.7996198046467 2777.3008540661585 3424.688671348172 3278.0481802461027 3131.407689144034
          5044.696499166681 5891.376026272473 5003.115598455731 6049.105735344806 4961.534697744781 6206.83544441714
          -4540.656941855863 -4595.206227617003 -4649.755513378142 4542.7049999225455 4478.640704307147 4414.57640869175
          -27823.65760722478 -28895.254164406757 -29966.85072158874 6864.996327737218 7478.531403964957 8092.066480192697
          1025.9544413984609 826.9311136196914 627.9077858409217 4466.750851513796 4746.839958628648 5026.929065743498
          4880.956263602725 5387.600060707235 5894.243857811744 -23451.324079914673 -24724.264994642406 -25997.205909370143
          -26605.177789327907 -26623.452863441744 -26641.727937555585 -35155.99401000901 -36449.31624289859 -37742.63847578817
          30775.386703120632 86383.9968920669 31249.07312113102 84870.16895084924 31722.759539141407 83356.34100963158
          -2449.812517182936 -2524.569395945331 -2599.326274707727 -18677.06143278454 -19328.228562595184 -19979.39569240583
          -24653.673085854716 -24183.8965762054 -23714.120066556083 -40868.926232223275 -40911.58336146311 -40954.24049070295
          -5198.727999304663 -4990.434552491254 -4782.141105677844 3002.2347236052665 2852.4177940047703 2702.600864404272
          316.25077658481587 -281.34562710527473 9.329124792900984 -359.95183078329603 -297.59252699901253 -438.55803446131705
          -7727.065448326022 3328.1015508707146 -7836.405282424757 3866.095293458597 -7945.745116523491 4404.08903604648
          3483.100005024594 -1253.7500225029257 3507.2056884059252 -1091.6331099678 3531.3113717872566 -929.5161974326741
          2665.41516805601 2631.9856695677863 2598.556171079563 8516.43842366413 8950.77778363049 9385.11714359685
          2379.3553896163426 -6593.341689683734 2062.6499005193878 -6611.547870666223 1745.9444114224332 -6629.754051648713
          -4138.233386375498 -4376.388812440902 -4614.544238506305 8373.439626474687 1658.6572303305238 8669.25564564101
          1894.3807447012045 8965.071664807332 2130.1042590718844 -6881.819141514191 -6465.106891221701 -6048.39464092921
          952.894677822879 881.8965465064418 810.8984151900046 3913.984551315636 -825.4942090380116 3975.985296618083
          -986.4659928468478 4037.98604192053 -1147.437776655685 -137.38114448351246 -108.73015984743938 -80.07917521136619
          -2660.7342287312263 -2601.5666978193353 -2542.399166907445 -9783.999599482162 -9247.351596971257 -8710.703594460352
        </DataArray>
        <DataArray type="Float64" Name="peeq" format="ascii" RangeMin="0" RangeMax="0">
          0 0 0 0 0 0
          0 0 0 0 0 0
          0 0 0 0 0 0
          0 0 0 0 0 0
          0 0 0 0 0 0
          0 0 0 0 0 0
          0 0 0 0 0 0
          0 0 0 0 0 0
          0 0 0 0 0 0
          0 0 0 0 0 0
          0 0 0 0 0 0
          0 0 0 0 0 0
          0 0 0 0 0 0
          0 0 0 0 0 0
          0 0 0 0 0 0
          0 0 0 0 0 0
          0 0 0 0 0 0
          0 0 0 0 0 0
          0 0 0 0 0 0
          0 0 0 0 0 0
          0 0 0 0 0 0
          0 0 0 0 0 0
          0 0 0 0 0 0
          0 0 0 0 0 0
          0 0 0 0 0 0
          0 0 0 0 0 0
          0 0 0 0 0 0
          0 0 0 0 0 0
          0 0 0 0 0 0
          0 0 0 0 0 0
          0 0 0 0 0 0
          0 0 0 0 0 0
          0 0 0 0 0 0
          0 0 0 0 0 0
          0 0 0 0 0 0
          0 0 0 0 0 0
          0 0 0 0 0 0
          0 0 0 0 0 0
          0 0 0 0 0 0
          0 0 0 0 0 0
          0 0 0 0 0 0
          0 0 0 0 0 0
          0 0 0 0 0 0
          0 0 0 0 0 0
          0 0 0 0 0 0
          0 0 0 0 0 0
          0 0 0 0 0 0
          0 0 0 0 0 0
          0 0 0 0 0 0
          0 0 0 0 0 0
          0 0 0 0 0 0
          0 0 0 0 0 0
          0 0 0 0 0 0
          0 0 0 0 0 0
          0 0 0 0 0 0
          0 0 0 0 0 0
          0 0 0 0 0 0
          0 0 0 0 0 0
          0 0 0 0 0 0
          0 0 0 0 0 0
          0 0 0 0 0 0
          0 0 0 0 0 0
          0 0 0 0 0 0
          0 0 0 0 0 0
          0 0 0 0 0 0
          0 0 0 0 0 0
          0 0 0 0 0 0
          0 0 0 0 0 0
          0 0 0 0 0 0
          0 0 0 0 0 0
          0 0 0 0 0 0
          0 0 0 0 0 0
          0 0 0 0 0 0
          0 0 0 0 0 0
          0 0 0 0 0 0
          0 0 0 0 0 0
          0 0 0 0 0 0
          0 0 0 0 0 0
          0 0 0 0 0 0
          0 0 0 0 0 0
          0 0 0 0 0 0
          0 0 0 0 0 0
          0 0 0 0 0 0
          0 0 0 0 0 0
          0 0 0 0 0 0
          0 0 0 0 0 0
          0 0 0 0 0 0
          0 0 0 0 0 0
          0 0 0 0 0 0
          0 0 0 0 0 0
          0 0 0 0 0 0
          0 0 0 0 0 0
          0 0 0 0 0 0
          0 0 0 0 0 0
          0 0 0 0 0 0
          0 0 0 0 0 0
          0 0 0 0 0 0
          0 0 0 0 0 0
          0 0 0 0 0 0
          0 0 0 0 0 0
          0 0 0 0 0 0
          0 0 0 0 0 0
          0 0 0 0 0 0
          0 0 0 0 0 0
          0 0 0 0 0 0
          0 0 0 0 0 0
          0 0 0 0 0 0
          0 0 0 0 0 0
          0 0 0 0 0 0
          0 0 0 0 0 0
          0 0 0 0 0 0
          0 0 0 0 0 0
          0 0 0 0 0 0
          0 0 0 0 0 0
          0 0 0 0 0 0
          0 0 0 0 0 0
          0 0 0 0 0 0
          0 0 0 0 0 0
          0 0 0 0 0 0
          0 0 0 0 0 0
          0 0 0 0 0 0
          0 0 0 0 0 0
          0 0 0 0 0 0
          0 0 0 0 0 0
          0 0 0 0 0 0
          0 0 0 0 0 0
          0 0 0 0 0 0
          0 0 0 0 0 0
          0 0 0 0 0 0
          0 0 0 0 0 0
        </DataArray>
        <DataArray type="Float64" Name="pe11" format="ascii" RangeMin="0" RangeMax="0">
          0 0 0 0 0 0
          0 0 0 0 0 0
          0 0 0 0 0 0
          0 0 0 0 0 0
          0 0 0 0 0 0
          0 0 0 0 0 0
          0 0 0 0 0 0
          0 0 0 0 0 0
          0 0 0 0 0 0
          0 0 0 0 0 0
          0 0 0 0 0 0
          0 0 0 0 0 0
          0 0 0 0 0 0
          0 0 0 0 0 0
          0 0 0 0 0 0
          0 0 0 0 0 0
          0 0 0 0 0 0
          0 0 0 0 0 0
          0 0 0 0 0 0
          0 0 0 0 0 0
          0 0 0 0 0 0
          0 0 0 0 0 0
          0 0 0 0 0 0
          0 0 0 0 0 0
          0 0 0 0 0 0
          0 0 0 0 0 0
          0 0 0 0 0 0
          0 0 0 0 0 0
          0 0 0 0 0 0
          0 0 0 0 0 0
          0 0 0 0 0 0
          0 0 0 0 0 0
          0 0 0 0 0 0
          0 0 0 0 0 0
          0 0 0 0 0 0
          0 0 0 0 0 0
          0 0 0 0 0 0
          0 0 0 0 0 0
          0 0 0 0 0 0
          0 0 0 0 0 0
          0 0 0 0 0 0
          0 0 0 0 0 0
          0 0 0 0 0 0
          0 0 0 0 0 0
          0 0 0 0 0 0
          0 0 0 0 0 0
          0 0 0 0 0 0
          0 0 0 0 0 0
          0 0 0 0 0 0
          0 0 0 0 0 0
          0 0 0 0 0 0
          0 0 0 0 0 0
          0 0 0 0 0 0
          0 0 0 0 0 0
          0 0 0 0 0 0
          0 0 0 0 0 0
          0 0 0 0 0 0
          0 0 0 0 0 0
          0 0 0 0 0 0
          0 0 0 0 0 0
          0 0 0 0 0 0
          0 0 0 0 0 0
          0 0 0 0 0 0
          0 0 0 0 0 0
          0 0 0 0 0 0
          0 0 0 0 0 0
          0 0 0 0 0 0
          0 0 0 0 0 0
          0 0 0 0 0 0
          0 0 0 0 0 0
          0 0 0 0 0 0
          0 0 0 0 0 0
          0 0 0 0 0 0
          0 0 0 0 0 0
          0 0 0 0 0 0
          0 0 0 0 0 0
          0 0 0 0 0 0
          0 0 0 0 0 0
          0 0 0 0 0 0
          0 0 0 0 0 0
          0 0 0 0 0 0
          0 0 0 0 0 0
          0 0 0 0 0 0
          0 0 0 0 0 0
          0 0 0 0 0 0
          0 0 0 0 0 0
          0 0 0 0 0 0
          0 0 0 0 0 0
          0 0 0 0 0 0
          0 0 0 0 0 0
          0 0 0 0 0 0
          0 0 0 0 0 0
          0 0 0 0 0 0
          0 0 0 0 0 0
          0 0 0 0 0 0
          0 0 0 0 0 0
          0 0 0 0 0 0
          0 0 0 0 0 0
          0 0 0 0 0 0
          0 0 0 0 0 0
          0 0 0 0 0 0
          0 0 0 0 0 0
          0 0 0 0 0 0
          0 0 0 0 0 0
          0 0 0 0 0 0
          0 0 0 0 0 0
          0 0 0 0 0 0
          0 0 0 0 0 0
          0 0 0 0 0 0
          0 0 0 0 0 0
          0 0 0 0 0 0
          0 0 0 0 0 0
          0 0 0 0 0 0
          0 0 0 0 0 0
          0 0 0 0 0 0
          0 0 0 0 0 0
          0 0 0 0 0 0
          0 0 0 0 0 0
          0 0 0 0 0 0
          0 0 0 0 0 0
          0 0 0 0 0 0
          0 0 0 0 0 0
          0 0 0 0 0 0
          0 0 0 0 0 0
          0 0 0 0 0 0
          0 0 0 0 0 0
          0 0 0 0 0 0
          0 0 0 0 0 0
          0 0 0 0 0 0
          0 0 0 0 0 0
        </DataArray>
        <DataArray type="Float64" Name="pe22" format="ascii" RangeMin="0" RangeMax="0">
          0 0 0 0 0 0
          0 0 0 0 0 0
          0 0 0 0 0 0
          0 0 0 0 0 0
          0 0 0 0 0 0
          0 0 0 0 0 0
          0 0 0 0 0 0
          0 0 0 0 0 0
          0 0 0 0 0 0
          0 0 0 0 0 0
          0 0 0 0 0 0
          0 0 0 0 0 0
          0 0 0 0 0 0
          0 0 0 0 0 0
          0 0 0 0 0 0
          0 0 0 0 0 0
          0 0 0 0 0 0
          0 0 0 0 0 0
          0 0 0 0 0 0
          0 0 0 0 0 0
          0 0 0 0 0 0
          0 0 0 0 0 0
          0 0 0 0 0 0
          0 0 0 0 0 0
          0 0 0 0 0 0
          0 0 0 0 0 0
          0 0 0 0 0 0
          0 0 0 0 0 0
          0 0 0 0 0 0
          0 0 0 0 0 0
          0 0 0 0 0 0
          0 0 0 0 0 0
          0 0 0 0 0 0
          0 0 0 0 0 0
          0 0 0 0 0 0
          0 0 0 0 0 0
          0 0 0 0 0 0
          0 0 0 0 0 0
          0 0 0 0 0 0
          0 0 0 0 0 0
          0 0 0 0 0 0
          0 0 0 0 0 0
          0 0 0 0 0 0
          0 0 0 0 0 0
          0 0 0 0 0 0
          0 0 0 0 0 0
          0 0 0 0 0 0
          0 0 0 0 0 0
          0 0 0 0 0 0
          0 0 0 0 0 0
          0 0 0 0 0 0
          0 0 0 0 0 0
          0 0 0 0 0 0
          0 0 0 0 0 0
          0 0 0 0 0 0
          0 0 0 0 0 0
          0 0 0 0 0 0
          0 0 0 0 0 0
          0 0 0 0 0 0
          0 0 0 0 0 0
          0 0 0 0 0 0
          0 0 0 0 0 0
          0 0 0 0 0 0
          0 0 0 0 0 0
          0 0 0 0 0 0
          0 0 0 0 0 0
          0 0 0 0 0 0
          0 0 0 0 0 0
          0 0 0 0 0 0
          0 0 0 0 0 0
          0 0 0 0 0 0
          0 0 0 0 0 0
          0 0 0 0 0 0
          0 0 0 0 0 0
          0 0 0 0 0 0
          0 0 0 0 0 0
          0 0 0 0 0 0
          0 0 0 0 0 0
          0 0 0 0 0 0
          0 0 0 0 0 0
          0 0 0 0 0 0
          0 0 0 0 0 0
          0 0 0 0 0 0
          0 0 0 0 0 0
          0 0 0 0 0 0
          0 0 0 0 0 0
          0 0 0 0 0 0
          0 0 0 0 0 0
          0 0 0 0 0 0
          0 0 0 0 0 0
          0 0 0 0 0 0
          0 0 0 0 0 0
          0 0 0 0 0 0
          0 0 0 0 0 0
          0 0 0 0 0 0
          0 0 0 0 0 0
          0 0 0 0 0 0
          0 0 0 0 0 0
          0 0 0 0 0 0
          0 0 0 0 0 0
          0 0 0 0 0 0
          0 0 0 0 0 0
          0 0 0 0 0 0
          0 0 0 0 0 0
          0 0 0 0 0 0
          0 0 0 0 0 0
          0 0 0 0 0 0
          0 0 0 0 0 0
          0 0 0 0 0 0
          0 0 0 0 0 0
          0 0 0 0 0 0
          0 0 0 0 0 0
          0 0 0 0 0 0
          0 0 0 0 0 0
          0 0 0 0 0 0
          0 0 0 0 0 0
          0 0 0 0 0 0
          0 0 0 0 0 0
          0 0 0 0 0 0
          0 0 0 0 0 0
          0 0 0 0 0 0
          0 0 0 0 0 0
          0 0 0 0 0 0
          0 0 0 0 0 0
          0 0 0 0 0 0
          0 0 0 0 0 0
          0 0 0 0 0 0
          0 0 0 0 0 0
          0 0 0 0 0 0
          0 0 0 0 0 0
        </DataArray>
        <DataArray type="Float64" Name="pe33" format="ascii" RangeMin="0" RangeMax="0">
          0 0 0 0 0 0
          0 0 0 0 0 0
          0 0 0 0 0 0
          0 0 0 0 0 0
          0 0 0 0 0 0
          0 0 0 0 0 0
          0 0 0 0 0 0
          0 0 0 0 0 0
          0 0 0 0 0 0
          0 0 0 0 0 0
          0 0 0 0 0 0
          0 0 0 0 0 0
          0 0 0 0 0 0
          0 0 0 0 0 0
          0 0 0 0 0 0
          0 0 0 0 0 0
          0 0 0 0 0 0
          0 0 0 0 0 0
          0 0 0 0 0 0
          0 0 0 0 0 0
          0 0 0 0 0 0
          0 0 0 0 0 0
          0 0 0 0 0 0
          0 0 0 0 0 0
          0 0 0 0 0 0
          0 0 0 0 0 0
          0 0 0 0 0 0
          0 0 0 0 0 0
          0 0 0 0 0 0
          0 0 0 0 0 0
          0 0 0 0 0 0
          0 0 0 0 0 0
          0 0 0 0 0 0
          0 0 0 0 0 0
          0 0 0 0 0 0
          0 0 0 0 0 0
          0 0 0 0 0 0
          0 0 0 0 0 0
          0 0 0 0 0 0
          0 0 0 0 0 0
          0 0 0 0 0 0
          0 0 0 0 0 0
          0 0 0 0 0 0
          0 0 0 0 0 0
          0 0 0 0 0 0
          0 0 0 0 0 0
          0 0 0 0 0 0
          0 0 0 0 0 0
          0 0 0 0 0 0
          0 0 0 0 0 0
          0 0 0 0 0 0
          0 0 0 0 0 0
          0 0 0 0 0 0
          0 0 0 0 0 0
          0 0 0 0 0 0
          0 0 0 0 0 0
          0 0 0 0 0 0
          0 0 0 0 0 0
          0 0 0 0 0 0
          0 0 0 0 0 0
          0 0 0 0 0 0
          0 0 0 0 0 0
          0 0 0 0 0 0
          0 0 0 0 0 0
          0 0 0 0 0 0
          0 0 0 0 0 0
          0 0 0 0 0 0
          0 0 0 0 0 0
          0 0 0 0 0 0
          0 0 0 0 0 0
          0 0 0 0 0 0
          0 0 0 0 0 0
          0 0 0 0 0 0
          0 0 0 0 0 0
          0 0 0 0 0 0
          0 0 0 0 0 0
          0 0 0 0 0 0
          0 0 0 0 0 0
          0 0 0 0 0 0
          0 0 0 0 0 0
          0 0 0 0 0 0
          0 0 0 0 0 0
          0 0 0 0 0 0
          0 0 0 0 0 0
          0 0 0 0 0 0
          0 0 0 0 0 0
          0 0 0 0 0 0
          0 0 0 0 0 0
          0 0 0 0 0 0
          0 0 0 0 0 0
          0 0 0 0 0 0
          0 0 0 0 0 0
          0 0 0 0 0 0
          0 0 0 0 0 0
          0 0 0 0 0 0
          0 0 0 0 0 0
          0 0 0 0 0 0
          0 0 0 0 0 0
          0 0 0 0 0 0
          0 0 0 0 0 0
          0 0 0 0 0 0
          0 0 0 0 0 0
          0 0 0 0 0 0
          0 0 0 0 0 0
          0 0 0 0 0 0
          0 0 0 0 0 0
          0 0 0 0 0 0
          0 0 0 0 0 0
          0 0 0 0 0 0
          0 0 0 0 0 0
          0 0 0 0 0 0
          0 0 0 0 0 0
          0 0 0 0 0 0
          0 0 0 0 0 0
          0 0 0 0 0 0
          0 0 0 0 0 0
          0 0 0 0 0 0
          0 0 0 0 0 0
          0 0 0 0 0 0
          0 0 0 0 0 0
          0 0 0 0 0 0
          0 0 0 0 0 0
          0 0 0 0 0 0
          0 0 0 0 0 0
          0 0 0 0 0 0
          0 0 0 0 0 0
          0 0 0 0 0 0
          0 0 0 0 0 0
          0 0 0 0 0 0
          0 0 0 0 0 0
        </DataArray>
        <DataArray type="Float64" Name="disp_x" format="ascii" RangeMin="0.0000016836052956853654" RangeMax="0.000008469696584780517">
          0.000002206672041650741 0.0000022066944131408547 0.0000022066682254889597 0.0000022066905879492447 0.0000022066575011308245 0.0000022066799384591946
          0.000002726557175835402 0.000002726579487668358 0.00000272655287128188 0.0000027265752362357147 0.000002726539781024587 0.000002726562258339319
          0.0000032468191966163856 0.0000032468386011666306 0.000003246814349553573 0.000003246833760700172 0.0000032467995592086693 0.0000032468190378542436
          0.000003767495061814416 0.000003767508765262621 0.000003767489755527451 0.000003767503468242731 0.00000376747359411255 0.0000037674873806415545
          0.0000042886063085217676 0.00000428861172575143 0.000004288600697346165 0.0000042886060540758874 0.000004288583493172277 0.0000042885889678078215
          0.0000048101604918564605 0.0000048101550948109486 0.0000048101546287116045 0.000004810149271026018 0.000004810137072884757 0.000004810131391641808
          0.000005332153060871909 0.000005332133221934712 0.0000053321464124958975 0.000005332126884223177 0.000005332126760964584 0.000005332108897055489
          0.000005854555261915798 0.000005854538073493917 0.000005854549696890629 0.000005854531720512271 0.000005854528339699122 0.000005854512742252732
          0.0000022066050858198918 0.0000022066011872085306 0.000002206590128784968 0.000002726490919605453 0.000002726486554570845 0.0000027264730738359657
          0.000003246762079998397 0.0000032467571071578403 0.000003246741889418179 0.0000037674552778435235 0.0000037674498270204225 0.0000037674332195595348
          0.000004288591530282018 0.000004288585813612303 0.000004288568194320597 0.000004810177895956563 0.000004810171798639304 0.000004810153877388854
          0.000005332209221111925 0.000005332202839523176 0.000005332182935001433 0.000005854664231747185 0.000005854658038711662 0.0000058546400132817545
          0.000002206494377954662 0.0000022064902798054643 0.000002206478637951546 0.0000027263821420392368 0.000002726377544540221 0.0000027263634248794304
          0.0000032466694216000603 0.000003246664195714551 0.000003246648272662134 0.0000037673924011180624 0.0000037673866896349795 0.0000037673693478328693
          0.00000428857091560515 0.000004288564933807359 0.000004288546582782423 0.00000481020988181849 0.000004810203533918102 0.0000048101848262281525
          0.000005332300565496064 0.000005332294022278058 0.000005332273493211008 0.000005854813715504497 0.000005854807172082748 0.000005854787808920009
          0.0000022063405583808484 0.0000022063361535313164 0.0000022063236400991106 0.0000027262327414127735 0.0000027262278179524507 0.0000027262127310820563
          0.000003246544704714312 0.000003246539114007832 0.00000324652213152181 0.000003767311796995924 0.0000037673057121463837 0.000003767287270237441
          0.000004288551665843484 0.000004288545313633129 0.00000428852584600274 0.000004810265630171423 0.000004810258932084588 0.000004810239135255535
          0.00000533244033975123 0.000005332433351323729 0.000005332411641530169 0.000005855044021395203 0.0000058550374326219146 0.000005855017144331692
          0.0000022061449958067817 0.000002206140185190934 0.0000022061265131864877 0.000002726046055183702 0.000002726040687087012 0.000002726024280792761
          0.000003246393763368403 0.000003246387688524491 0.0000032463692805421666 0.000003767222147831514 0.0000037672155670312787 0.0000037671956495789334
          0.000004288545732334889 0.0000042885388976570795 0.000004288517951691887 0.000004810361084292978 0.000004810353900034528 0.000004810332670033654
          0.000005332649410211748 0.000005332641999605323 0.000005332618775159344 0.000005855373560880732 0.000005855366645974564 0.0000058553453615686126
          0.0000022059100603636334 0.0000022059047213371797 0.00000220588959737961 0.000002725827275178135 0.0000027258213524716027 0.000002725803222334657
          0.0000032462250848673442 0.000003246218389493035 0.0000032461981502656615 0.0000037671358598346223 0.000003767128652691096 0.000003767106841345331
          0.000004288569887673055 0.00000428856243618084 0.0000042885396141582745 0.000004810517584414302 0.000004810509818055736 0.0000048104867624821
          0.000005332952724447102 0.000005332944795347437 0.000005332919894317729 0.000005855829541299731 0.000005855822131603135 0.000005855799388890279
          0.0000016861657008276276 0.00000168616079506963 0.0000016861451290316542 0.0000022056402879328245 0.000002205634291770377 0.000002205617095245676
          0.0000027255836987011474 0.0000027255770392396545 0.00000272555679326118 0.0000032460503548106608 0.0000032460428909769253 0.0000032460203286831244
          0.0000037670696358372484 0.000003767061644811251 0.0000037670374715590267 0.0000042886461004433 0.000004288637886372065 0.000004288612735124043
          0.000004810762159562409 0.000004810753687742237 0.000004810728411945251 0.000005333381837611179 0.000005333373314096956 0.000005333346491173789
          0.000005856449466240715 0.0000058564414688181885 0.0000058564169750346765 0.000001685876261626495 0.0000016858706574866592 0.0000016858527188153438
          0.000002205340508905589 0.0000022053337206924247 0.0000022053143161344166 0.000002725325129685633 0.0000027253175998200477 0.0000027252945944189197
          0.0000032458852326436963 0.0000032458767902757355 0.000003245851360081633 0.000003767045571088709 0.0000037670366183286413 0.0000037670095311768017
          0.000004288802767988179 0.000004288793625196442 0.000004288765628707375 0.0000048111289640005675 0.000004811119628697366 0.000004811091665744117
          0.000005333976169046165 0.00000533396690413713 0.00000533393777251828 0.000005857275475245972 0.000005857267033548291 0.000005857240881329143
          0.0000016855533213269126 0.0000016855468153619163 0.0000016855260188191051 0.0000022050169217739094 0.0000022050091175337455 0.00000220498674217535
          0.0000027250646309346473 0.0000027250559716503235 0.0000027250295848833625 0.0000032457505295900964 0.0000032457408927894828 0.000003245711903913082
          0.000003767092951139369 0.000003767082825815331 0.0000037670521626074605 0.000004289077259642043 0.000004289066982375628 0.000004289035560144935
          0.000004811661350887829 0.00000481165099566788 0.000004811619775218218 0.0000053347842866597185 0.000005334773994665242 0.000005334741911260063
          0.0000058583572751267845 0.000005858348228785875 0.000005858319409846402 0.0000016852001131938391 0.0000016851924780645534 0.0000016851681383974353
          0.000002204679280828971 0.0000022046701705490068 0.0000022046440522566634 0.000002724820140581878 0.0000027248101051682574 0.000002724779508614306
          0.0000032456743897071377 0.0000032456633094018433 0.00000324562995238293 0.000003767250635953554 0.0000037672390762263047 0.0000037672040914537943
          0.000004289518816823603 0.000004289507217049437 0.000004289471612412299 0.000004812417863742291 0.000004812406185772209 0.000004812371247333549
          0.000005335865635732475 0.000005335854234721851 0.000005335818219201058 0.000005859771895454856 0.000005859761687781386 0.000005859730127141272
          0.0000016848227124658526 0.0000016848136600289177 0.0000016847848665810325 0.00000220434176779592 0.0000022043310358896512 0.000002204300170403953
          0.0000027246167911312064 0.0000027246050632835227 0.0000027245692505542664 0.0000032456947298384736 0.000003245681886975625 0.000003245643181711021
          0.0000037675698451646263 0.000003767556582442985 0.000003767516383330288 0.000004290191501368757 0.000004290178260407959 0.000004290137781167868
          0.000004813474620538514 0.0000048134615708116845 0.000004813422113436805 0.000005337311221542984 0.000005337298345130166 0.000005337258154621454
          0.000005861573051179102 0.000005861561365027105 0.000005861524568899436 0.0000016844314154248263 0.0000016844205837083342 0.0000016843861283405267
          0.0000022040250837213 0.0000022040123224737095 0.000002203975513790433 0.0000027244895188641894 0.0000027244756999636575 0.0000027244334138480258
          0.0000032458626239705208 0.000003245847619285778 0.0000032458023767848316 0.0000037681178724594815 0.000003768102572001861 0.000003768056116941154
          0.000004291177175223558 0.000004291161938700552 0.000004291115741226066 0.0000048149249526251604 0.000004814910477558311 0.0000048148657102146515
          0.00000533922836437272 0.00000533921418497992 0.000005339172794358498 0.0000058639511541210365 0.000005863937799953724 0.000005863894187360697
          0.0000016840410689527126 0.0000016840279602824974 0.0000016839862232121915 0.000002203758601005868 0.0000022037432709549066 0.00000220369899658542
          0.0000027244866070450835 0.000002724470159631533 0.0000027244198229449693 0.0000032462471083354832 0.000003246229448895602 0.000003246176200805704
          0.0000037689836394307335 0.000003768965832232935 0.00000376891186434047 0.000004292580519644288 0.000004292563073769177 0.0000042925101026117615
          0.000004816883756264533 0.000004816867175741598 0.000004816816691961322 0.000005341722037084862 0.000005341706649524476 0.000005341659571641578
          0.000005866924026974921 0.000005866909491670965 0.000005866865882507661 0.0000016836725984364053 0.0000016836565280998077 0.0000016836052956853654
          0.000002203583809809977 0.0000022035651828676778 0.000002203511453908782 0.0000027246751285642666 0.0000027246553938273977 0.0000027245949326710055
          0.0000032469423791157334 0.0000032469214271022298 0.0000032468583690438304 0.0000037702856498988905 0.000003770264829775277 0.0000037702018221014334
          0.000004294538672201184 0.000004294518533471873 0.000004294457643760424 0.000004819497136329945 0.000004819478338160537 0.000004819421032584596
          0.0000053449471234783655 0.000005344929892441389 0.00000534487800848146 0.000005870685557401138 0.000005870669808982024 0.0000058706211611357414
          0.0000022035604575160573 0.0000022035375158377173 0.0000022034713662199925 0.0000027251502921678526 0.0000027251262829203434 0.0000027250531968915225
          0.0000032480781331162066 0.0000032480531254778866 0.0000032479779788898217 0.000003772183240668973 0.000003772158770417011 0.000003772084916154417
          0.000004297231752047866 0.000004297208477500651 0.000004297138343842434 0.000004822956143741116 0.000004822934769600439 0.000004822869813339019
          0.000005349092547714262 0.000005349073313231905 0.0000053490157569053706 0.000005875411966095567 0.000005875394935272197 0.000005875343855761703
          0.0000022037783934118086 0.0000022037499050183533 0.0000022036680145239716 0.000002726047722973361 0.000002726018450371826 0.0000027259292721517742
          0.000003249834707902371 0.000003249804672658061 0.0000032497146720640415 0.000003774891433894026 0.0000037748625832947026 0.0000037747757811579437
          0.000004300895659940297 0.000004300868768605961 0.000004300787898312151 0.000004827504660208156 0.000004827480494230249 0.000004827407402917156
          0.0000053543942372231696 0.00000535437248524896 0.0000053543074836229985 0.000005881288443224021 0.000005881270305698464 0.000005881211393113568
          0.000002204371464463449 0.0000022043357944698376 0.0000022042331079806273 0.0000027275641190548453 0.0000027275280992516866 0.0000027274185272110996
          0.0000032524642834812286 0.0000032524280595967705 0.0000032523197223836504 0.0000037787012418259563 0.000003778667226614318 0.0000037785650511692313
          0.000004305838795021848 0.000004305807689007786 0.000004305714572535904 0.000004833444730109045 0.000004833417630205466 0.000004833335296309222
          0.00000536114678707334 0.00000536112335998962 0.000005361055670802215 0.0000058886628070901534 0.000005888643100128401 0.000005888580473146947
          0.0000022055408146187257 0.0000022054954815731994 0.0000022053652744259976 0.0000027299865519825537 0.000002729941936084597 0.0000027298062687748056
          0.0000032563222364998746 0.0000032562784485590615 0.000003256147529894582 0.000003784007761274173 0.0000037839677491872747 0.0000037838474778581492
          0.000004312462509486401 0.000004312426734145488 0.00000431232019486395 0.000004841156492075611 0.0000048411258647924585 0.000004841032387056514
          0.000005369655530021112 0.000005369631144563969 0.000005369557852574771 0.000005897623265930118 0.000005897601468829083 0.000005897543045630626
          0.0000027337392461608126 0.0000027336835970514868 0.000002733514195950787 0.0000032619135653125632 0.000003261860575902699 0.0000032617023172030205
          0.000003791346274480707 0.0000037912993734695957 0.000003791158338010172 0.000004321286184039694 0.0000043212455261028455 0.000004321124043302681
          0.000004851107860412397 0.000004851074177352988 0.000004850971848103168 0.000005380352812682887 0.000005380326131519468 0.000005380247340104551
          0.0000059087807422854474 0.000005908758621404335 0.0000059086925401637276 0.000002739460767528886 0.000002739391095910058 0.0000027391793713164144
          0.0000032699558094663426 0.0000032698919168937207 0.000003269700869665129 0.0000038014355307235572 0.0000038013810929756233 0.000003801217080769927
          0.000004332966295859845 0.0000043329206291691735 0.000004332784400353054 0.000004863856997254094 0.000004863820870323846 0.000004863709670126037
          0.0000053936776176604826 0.000005393649759851141 0.000005393570055643502 0.000005922248024325215 0.00000592222515470194 0.000005922155204513581
          0.000002748115933394666 0.000002748028860771662 0.0000027477638780442636 0.000003281464183282404 0.000003281387696654119 0.0000032811590379085076
          0.000003815224238281143 0.000003815161970077009 0.0000038149739696799055 0.000004348307145941208 0.000004348256944264982 0.000004348107264732415
          0.000004880029880193318 0.000004879992074176806 0.000004879874444224727 0.000005410058717722178 0.000005410031152071419 0.000005409953371510583
          0.0000027611578672845333 0.0000027610497694513287 0.000002760720398333831 0.0000032978545282874068 0.000003297764465978939 0.0000032974953511147983
          0.000003833925094076228 0.000003833855657450309 0.000003833645643488809 0.000004368243613241839 0.00000436819026665915 0.000004368031018508269
          0.000004900284122949817 0.000004900246180760996 0.000004900127541018628 0.000006894781946749835 0.000006344056334700924 0.000006335000238295699
          0.000006807726433728559 0.000006894768907199935 0.000006344041769690117 0.000006334986237314557 0.000006807714428513696 0.00000689472865229426
          0.000006343996875319117 0.000006334942061103912 0.000006807682868167549 0.000006747359164071361 0.000006698341541989835 0.000006282991843563272
          0.000006297506228716896 0.000006747351239769742 0.000006698332917775983 0.000006282983600820827 0.000006297498227726493 0.000006747326523520466
          0.00000669830662886089 0.0000062829597422322485 0.00000629747498282155 0.00000666321268413906 0.0000063621074972094865 0.0000062800134962702025
          0.000006663195788157156 0.000006362088588015123 0.000006279994538619982 0.000006663150122683184 0.00000636202764756232 0.000006279932609980013
          0.000006965261270754571 0.00000696524698977453 0.00000696520307863151 0.000006303510700935048 0.000006270788070823684 0.000006682529542568836
          0.000006766156879278801 0.000006303497665165206 0.0000062707762416130315 0.00000668251880699231 0.000006766145718217282 0.000006303457381272601
          0.00000627073699888042 0.000006682490172422977 0.000006766110640996433 0.000006731942521515507 0.000006290013207189619 0.0000067319355385478235
          0.000006290006272169074 0.000006731914093933261 0.00000628998437697943 0.000007261163398948529 0.00000758721475492697 0.000007331572390470752
          0.000007261151679880156 0.000007587204541638029 0.0000073315609585184395 0.0000072611187198921566 0.000007587174310438711 0.0000073315232730165375
          0.000006273924982827756 0.000006693200089171809 0.000006273918442074365 0.000006693193510061869 0.0000062738984781533205 0.000006693173325229936
          0.000006392752881341764 0.0000069842741489543055 0.000006392735508095598 0.000006984259930863046 0.000006392682920980639 0.000006984215139925964
          0.000006778613413045012 0.000006778604244303451 0.00000677857542559489 0.000007276869967255969 0.000007766028561103576 0.0000072768598938042474
          0.000007766018475881176 0.0000072768272614245634 0.000007765986376652622 0.000006357958095551869 0.000006725104681253636 0.000006357941931196345
          0.000006725090597091249 0.000006357899978152235 0.000006725049807446414 0.00000625527132671782 0.0000065483703092036916 0.000006255261080603974
          0.0000065483600377021535 0.0000062552290701448135 0.00000654833166725665 0.000006294583346943565 0.000006388213078414868 0.000006294574357030522
          0.000006388203969220914 0.000006294548410983599 0.000006388174905578607 0.000006254785342859217 0.0000062547791741024595 0.000006254760966544355
          0.000006250845930431852 0.000006235747730915347 0.000006250840792417844 0.000006235741500487772 0.0000062508218219447795 0.000006235724050711803
          0.000006604745865798061 0.0000066047384977524344 0.0000066047103563425345 0.000006235283661749666 0.000006235278052942198 0.000006235265043011097
          0.0000061785348966920816 0.00000617851596876997 0.00000617845101174159 0.000006166385368237896 0.000006166379289247561 0.000006166364791647013
          0.000006649603571830153 0.000006649597643341904 0.000006649578312346867 0.000006617485768933721 0.000006617479828190277 0.000006617463223323467
          0.000006503894978054739 0.000006503889534597511 0.000006503873146599112 0.000005938332854253389 0.000005938309941256404 0.000005938240692188671
          0.0000054299263453741874 0.000005429900013765451 0.000005429828853136736 0.000005957327145198409 0.000005957306910863823 0.0000059572435830281636
          0.000003321044070576645 0.0000027807758204063294 0.0000033209406540216257 0.000002780643797708879 0.0000033206327317957826 0.000002780240738826729
          0.000003858999854857188 0.000003858924382712838 0.000003858697822827372 0.000004393771329089446 0.000004393716827569408 0.000004393555789087615
          0.0000049252176993657385 0.000004925181864255877 0.000004925068272846596 0.0000054535925909712785 0.000005453570688876992 0.000005453513163361854
          0.0000069363706519874496 0.000006936357561913276 0.000006936321132640734 0.000007290886387450871 0.000007290874314890167 0.0000072908347766407835
          0.0000071044461131718266 0.000007330948445645225 0.000007104436376561084 0.000007330937976125697 0.000007104407303014447 0.00000733090819771701
          0.000008052118471958159 0.000007743274691064003 0.000008052109470935814 0.000007743265207239558 0.000008052083923320814 0.000007743241394899096
          0.000007225322424327449 0.0000071991276432597094 0.000007225314961634729 0.000007199119301243412 0.000007225292086981571 0.00000719909526968789
          0.00000717879746998806 0.000007178790458378224 0.000007178770830356586 0.000007500217893150918 0.000007500206698797172 0.000007500171525416483
          0.000006955776446739201 0.000007400157357087914 0.000006955768305526538 0.0000074001491415093175 0.000006955740825330328 0.000007400126090018335
          0.000008315966898409834 0.000008315958067992481 0.000008315931324775094 0.000008469696584780517 0.000007902300935283173 0.000008469688793419423
          0.00000790229141835397 0.000008469665069993142 0.000007902261982929647 0.0000063771508097807444 0.000006377132373125772 0.000006377072057408293
          0.00000711776860246795 0.000007117761910675504 0.000007117742935105589 0.000006457723225350484 0.000006685449677514311 0.000006457717385551501
          0.000006685444192418867 0.000006457699838883445 0.000006685427977603384 0.000007048293122851036 0.000007048286963051529 0.000007048268543308019
          0.000006942877248593657 0.000006942871430646687 0.000006942854251540249 0.000006851043785297802 0.0000068510320737478716 0.000006851003555589134
        </DataArray>
        <DataArray type="Float64" Name="disp_y" format="ascii" RangeMin="-0.0000033860501455238924" RangeMax="0">
          -1.4011258022828466e-7 0 -1.4011190815604193e-7 0 -1.4010990958582727e-7 0
          -1.4059157559414897e-7 0 -1.4059101877547955e-7 0 -1.4058929826033985e-7 0
          -1.4113489796345098e-7 0 -1.4113439670555796e-7 0 -1.411329790235357e-7 0
          -1.4172502946843784e-7 0 -1.4172463479539396e-7 0 -1.4172353204934965e-7 0
          -1.4234439403154853e-7 0 -1.4234411555275969e-7 0 -1.4234330992420866e-7 0
          -1.4297574646444466e-7 0 -1.4297550869011005e-7 0 -1.4297499257904365e-7 0
          -1.4360360787928873e-7 0 -1.4360362860539953e-7 0 -1.436030830165485e-7 0
          -1.4422034590642836e-7 0 -1.4422002521189812e-7 0 -1.4422179150352333e-7 0
          -2.8019910583327307e-7 -2.801978024376386e-7 -2.801938761538254e-7 -2.8116545846148797e-7 -2.81164234442779e-7 -2.8116082958678917e-7
          -2.822606701900661e-7 -2.822596417964217e-7 -2.8225685953343925e-7 -2.834496092821553e-7 -2.834487800734603e-7 -2.8344663867974727e-7
          -2.846966069011022e-7 -2.8469598774215545e-7 -2.8469448942835173e-7 -2.859669976062385e-7 -2.859665704363434e-7 -2.8596566610589835e-7
          -2.872289905767549e-7 -2.8722874215814084e-7 -2.872283745125137e-7 -2.884572632284185e-7 -2.884572125188783e-7 -2.884563911361355e-7
          -4.2023385057298617e-7 -4.2023180692494223e-7 -4.2022577679377954e-7 -4.21703950735658e-7 -4.2170209949161227e-7 -4.216968870569898e-7
          -4.2336858064273447e-7 -4.2336700515773845e-7 -4.233627537636549e-7 -4.2517368359312e-7 -4.2517242610685485e-7 -4.251691615384902e-7
          -4.2706461028800704e-7 -4.2706367153434755e-7 -4.2706141166409204e-7 -4.2898846665790656e-7 -4.289878598069319e-7 -4.2898659294860994e-7
          -4.308965689455187e-7 -4.308962787413997e-7 -4.3089601639814146e-7 -4.32743303580638e-7 -4.3274329902637713e-7 -4.327441948931368e-7
          -5.601903617598895e-7 -5.601875424320448e-7 -5.601792899223972e-7 -5.62189817160399e-7 -5.62187300314752e-7 -5.621802045473019e-7
          -5.644506430983338e-7 -5.644485096280348e-7 -5.644427465297981e-7 -5.668982432575069e-7 -5.668965499807972e-7 -5.668921504347231e-7
          -5.694574709717746e-7 -5.69456223128126e-7 -5.694532148998104e-7 -5.720559382452253e-7 -5.720551417021172e-7 -5.720534981816387e-7
          -5.746265263174334e-7 -5.74626189280918e-7 -5.746258524678049e-7 -5.771067203526014e-7 -5.771068796381868e-7 -5.771078669191604e-7
          -7.000424168596549e-7 -7.000387890843673e-7 -7.000281354283622e-7 -7.026065678276703e-7 -7.026033608026908e-7 -7.025942800600295e-7
          -7.05500457618764e-7 -7.054977571268513e-7 -7.054904150031728e-7 -7.08626492050358e-7 -7.086243682498383e-7 -7.086188083042208e-7
          -7.118870038657118e-7 -7.11885461453278e-7 -7.118817045850909e-7 -7.151884161771043e-7 -7.15187452542087e-7 -7.15185441698242e-7
          -7.184448864626957e-7 -7.184444916498001e-7 -7.184441320717793e-7 -7.215810201861893e-7 -7.215811643941093e-7 -7.215823836428184e-7
          -8.397636053027567e-7 -8.39759105528376e-7 -8.397459661651163e-7 -8.429390241376812e-7 -8.429350936949367e-7 -8.429238912388919e-7
          -8.465138569372948e-7 -8.465105707616711e-7 -8.465015760470166e-7 -8.503648101400199e-7 -8.503622587816214e-7 -8.503555134888928e-7
          -8.543689468317355e-7 -8.543671282534863e-7 -8.543626456947156e-7 -8.584095228498523e-7 -8.58408429769337e-7 -8.584061173912704e-7
          -8.623811531394849e-7 -8.623807406085511e-7 -8.623804262010906e-7 -8.661937425328658e-7 -8.661939824268911e-7 -8.661954363700244e-7
          -9.760995003725263e-7 -9.760935090513352e-7 -9.760752834301702e-7 -9.793281768717934e-7 -9.79322681259548e-7 -9.793067273239588e-7
          -9.83173471794558e-7 -9.831687783000513e-7 -9.831552814250926e-7 -9.874897620558478e-7 -9.874858658915424e-7 -9.87475134351776e-7
          -9.921237482990348e-7 -9.921207755739521e-7 -9.92112832310408e-7 -9.969239977369528e-7 -9.969219347403727e-7 -9.969167773434724e-7
          -0.0000010017480252369447 -0.0000010017468525347141 -0.0000010017443556122174 -0.0000010064689092963006 -0.000001006468557631828 -0.0000010064684396974622
          -0.0000010109805688931227 -0.0000010109809544452646 -0.0000010109827917587498 -0.0000011148442861646848 -0.0000011148369707578344 -0.0000011148151827160005
          -0.0000011187096478824778 -0.0000011187031101482964 -0.000001118683997211672 -0.0000011232987595554227 -0.0000011232931320343427 -0.0000011232771715300762
          -0.0000011284312186968509 -0.0000011284267090005091 -0.0000011284141052440851 -0.0000011339192386100037 -0.0000011339158520959838 -0.0000011339067177344116
          -0.000001139578847828755 -0.0000011395765831729494 -0.0000011395708515918047 -0.0000011452389612499413 -0.0000011452377856907958 -0.0000011452352559740715
          -0.0000011507481135243682 -0.0000011507479349118438 -0.0000011507483957617047 -0.000001155983596356232 -0.0000011559842383399635 -0.0000011559870615407414
          -0.0000012532988579328875 -0.000001253290025383903 -0.0000012532640323084423 -0.0000012578832316362157 -0.0000012578755285031626 -0.0000012578529527753247
          -0.0000012633069492784053 -0.0000012633004409177225 -0.0000012632817538176663 -0.0000012693469858556036 -0.0000012693418289253057 -0.0000012693272862545973
          -0.0000012757742917769358 -0.0000012757705145479176 -0.000001275760209776899 -0.0000012823675072065828 -0.0000012823651022989823 -0.0000012823589263382576
          -0.0000012889245076299409 -0.0000012889233970743732 -0.0000012889211288837188 -0.000001295267220939251 -0.0000012952674247284618 -0.0000012952686869805364
          -0.0000013012462896964417 -0.0000013012474377312393 -0.0000013012521169363126 -0.0000013914186181633799 -0.0000013914081729655982 -0.0000013913773734005586
          -0.0000013968256349905842 -0.0000013968166254370698 -0.0000013967901286232518 -0.0000014031955551356905 -0.00000140318805560645 -0.0000014031663959185303
          -0.0000014102535218624307 -0.0000014102477054002315 -0.0000014102311471305598 -0.0000014177211778557295 -0.0000014177170468984961 -0.0000014177056449529315
          -0.0000014253339581214873 -0.0000014253314733575333 -0.0000014253250333499195 -0.0000014328542428560554 -0.0000014328533099740538 -0.0000014328515037670936
          -0.0000014400823655406716 -0.0000014400828775885958 -0.000001440085487932414 -0.0000014468368853738546 -0.0000014468388728432239 -0.0000014468459904275757
          -0.0000015291582841572195 -0.0000015291460113046367 -0.0000015291096716579734 -0.000001535516435382979 -0.0000015355059541891267 -0.000001535475048043369
          -0.0000015429690657013043 -0.0000015429605041486445 -0.0000015429356129922511 -0.0000015511775449974043 -0.0000015511710648409198 -0.0000015511524647427996
          -0.0000015598043169814571 -0.0000015597998938196835 -0.0000015597875573516035 -0.0000015685344255378595 -0.0000015685319589342517 -0.0000015685255109085325
          -0.0000015770919649265536 -0.0000015770913077308044 -0.0000015770903702756784 -0.0000015852475427175466 -0.0000015852483496803447 -0.0000015852513246706173
          -0.0000015928409766155247 -0.0000015928434359097413 -0.000001592852234808995 -0.000001666470392751183 -0.0000016664560198164198 -0.0000016664132966756104
          -0.0000016739394833024047 -0.00000167392733803092 -0.0000016738914636964324 -0.000001682641686657825 -0.000001682631981884143 -0.0000016826036224225094
          -0.000001692159293859634 -0.0000016921521693755792 -0.0000016921315806293381 -0.0000017020833687247957 -0.0000017020787476658635 -0.0000017020657545560528
          -0.0000017120409324384496 -0.0000017120386476263321 -0.000001712032719073122 -0.0000017217137080966148 -0.0000017217135104002138 -0.000001721713800583164
          -0.000001730849045510907 -0.0000017308505526597453 -0.0000017308561205041893 -0.0000017392648234222353 -0.000001739267525331554 -0.000001739274973031022
          -0.0000018033064805970131 -0.000001803289569899396 -0.0000018032394362625949 -0.0000018120855878539008 -0.0000018120715581057503 -0.0000018120300448565848
          -0.0000018222412528441997 -0.0000018222303286503263 -0.000001822198286313562 -0.000001833256859386936 -0.0000018332491450021633 -0.0000018332267356042623
          -0.00000184463725316932 -0.000001844632587298207 -0.000001844619423247766 -0.0000018559430152486956 -0.000001855941140146981 -0.000001855936379108015
          -0.0000018668116242261026 -0.0000018668121754889124 -0.0000018668147810148673 -0.0000018769674361305752 -0.0000018769700566391929 -0.0000018769788442380087
          -0.0000018862137371952748 -0.0000018862174632512505 -0.0000018862313919677996 -0.000001939619007216556 -0.000001939599073698168 -0.0000019395397449301963
          -0.0000019499565215349497 -0.000001949940371770996 -0.0000019498924764027464 -0.000001961814949383874 -0.0000019618027496268566 -0.000001961766914895591
          -0.000001974552208094995 -0.000001974544014954189 -0.000001974520141706908 -0.0000019875691136433003 -0.0000019875646406689658 -0.0000019875520187353483
          -0.000002000351364458494 -0.000002000350199497207 -0.0000020003475898443926 -0.000002012491944770525 -0.000002012493609443466 -0.0000020124994814301194
          -0.0000020236934794415447 -0.000002023697458980961 -0.000002023710332679301 -0.0000020337692199151274 -0.0000020337750047164025 -0.0000020337917897944975
          -0.0000020875716450530277 -0.0000020875531317253986 -0.000002087498177724325 -0.0000021014375506689455 -0.0000021014241842357182 -0.0000021013845812026753
          -0.0000021161590240123287 -0.0000021161505543705944 -0.0000021161259253922134 -0.000002131012812089351 -0.0000021310088832369915 -0.000002130997890715303
          -0.0000021454021769790533 -0.00000214540215862999 -0.0000021454029679155428 -0.000002158877766591419 -0.0000021588809533960735 -0.0000021588915013593264
          -0.0000021711374950974977 -0.0000021711432194090153 -0.000002171161488009784 -0.0000021819956665712257 -0.0000021820032796254307 -0.000002182029086549264
          -0.000002224978431127517 -0.0000022249574680054466 -0.000002224894781078451 -0.0000022412227697298054 -0.000002241208207108317 -0.0000022411652478983535
          -0.0000022582331389091285 -0.0000022582247788841933 -0.0000022582005199507853 -0.000002275140258467019 -0.0000022751374027564474 -0.0000022751296581352375
          -0.0000022912612793820456 -0.0000022912630009078156 -0.0000022912690666643226 -0.0000023061130094565756 -0.0000023061183534631655 -0.000002306135344229248
          -0.0000023194025274634597 -0.000002319410419189308 -0.000002319434873677703 -0.0000023309921766935622 -0.000002331002004121031 -0.000002331031524619285
          -0.000002362264437371254 -0.0000023622406404639577 -0.0000023621698648230653 -0.000002381338536835679 -0.0000023813231249068424 -0.0000023812776983165093
          -0.0000024009854941424206 -0.00000240097784252725 -0.0000024009558270193 -0.000002420169413441808 -0.0000024201684175965084 -0.000002420166294045743
          -0.000002438125238874101 -0.000002438129536567703 -0.0000024381434035298517 -0.0000024543590208678168 -0.0000024543673919745234 -0.000002454393314911895
          -0.000002468602316931117 -0.0000024686133013394093 -0.0000024686485424810818 -0.0000024808244954162723 -0.0000024808365384365953 -0.0000024808708714363835
          -0.000002499582880777947 -0.00000249955617075402 -0.0000024994764582960536 -0.000002522029074178286 -0.000002522013393352168 -0.0000025219673040883728
          -0.0000025446981492385396 -0.0000025446921760099 -0.000002544675436110132 -0.00000256637097428317 -0.0000025663729902830367 -0.0000025663799490826112
          -0.0000025862208345732387 -0.0000025862288509550357 -0.0000025862538814009414 -0.000002603777842643062 -0.0000026037901497986306 -0.0000026038282094120736
          -0.0000026188588650416298 -0.000002618873944248958 -0.0000026189209556425506 -0.000002631412413593289 -0.0000026314286325307343 -0.000002631480224624803
          -0.000002663645052074602 -0.000002663630222323801 -0.0000026635870647667955 -0.000002689742010847462 -0.0000026897395108467617 -0.0000026897327481875653
          -0.0000027140717257358038 -0.000002714078348835131 -0.000002714099422580823 -0.0000027357944202496746 -0.0000027358076437136 -0.0000027358483703863098
          -0.0000027545316184023336 -0.0000027545490714056825 -0.0000027546026854881855 -0.000002770223288402461 -0.000002770243099312801 -0.0000027703033212218333
          -0.0000027830030669898543 -0.000002783024247951361 -0.000002783088117140132 -0.0000028066846155168 -0.000002806673118106429 -0.000002806639310481222
          -0.0000028365920258288296 -0.000002836595261714914 -0.00000283660603340281 -0.000002863646310126402 -0.000002863660002669237 -0.0000028637022088002947
          -0.0000028870931031044476 -0.000002887113542108671 -0.0000028871760049460742 -0.0000029067422111051083 -0.0000029067665556082037 -0.000002906840447848521
          -0.000002922750796341881 -0.000002922776310460359 -0.0000029228558829347676 -0.000002935485627840068 -0.000002935511172277125 -0.0000029355865762739367
          -0.0000029518322814068616 -0.000002951827612259238 -0.000002951814586653848 -0.0000029858281267239112 -0.0000029858407447606206 -0.0000029858803415077867
          -0.0000030154890145512634 -0.000003015512764327139 -0.0000030155858890863524 -0.0000030403190527374697 -0.000003040349136354628 -0.0000030404409024250603
          -0.0000030604571415980523 -0.0000030604899556672822 -0.00000306059026067752 -0.00000307636455779908 -0.0000030763972930330463 -0.000003076497656039575
          -0.000003100002355802462 -0.0000031000101996721344 -0.000003100034691287434 -0.0000031381043180601676 -0.000003138131449689196 -0.0000031382145297297934
          -0.0000031699433677586237 -0.0000031699813736106072 -0.0000031700967097539133 -0.0000031955572426883054 -0.0000031956000143197323 -0.000003195729410991297
          -0.0000032155816455362565 -0.0000032156247421895257 -0.0000032157556840559312 -0.000002237043131677131 -0.0000022080044471408607 -0.000002054485318872757
          -0.000002063746956551958 -0.000002237054582872996 -0.000002208013718425553 -0.0000020544927006112463 -0.0000020637546661641073 -0.000002237086090289684
          -0.000002208040859920427 -0.0000020545140581665347 -0.0000020637783295881205 -0.0000010739613303437778 -0.0000012362112002953999 -0.000001256253518793989
          -0.0000011071594877305442 -0.000001073962944834412 -0.000001236213835024978 -0.0000012562552606814103 -0.0000011071610231217236 -0.000001073966447830842
          -0.0000012362211441289353 -0.0000012562618621986064 -0.0000011071647459097865 -0.0000026704957151869896 -0.0000028842378562303404 -0.0000027365856980473133
          -0.0000026705141890728713 -0.000002884263068909607 -0.0000027366062585035385 -0.000002670570330260253 -0.0000028843393695394817 -0.0000027366731527223823
          -0.0000026110228715176694 -0.0000026110398219974313 -0.000002611092664399711 -0.0000019045383826156892 -0.0000017595873763196952 -0.0000017470319424216026
          -0.000001900278675399592 -0.000001904542810524077 -0.0000017595921600741757 -0.0000017470374052774827 -0.000001900284850844244 -0.000001904559063335923
          -0.0000017596002420961682 -0.0000017470543652638426 -0.0000019003023504130479 -9.033779582377289e-7 -9.554296336941609e-7 -9.033793605633548e-7
          -9.55430185458309e-7 -9.03383940075746e-7 -9.55433019812578e-7 -0.000002183402852682726 -0.0000022397735268319787 -0.0000023485729396288517
          -0.0000021834120899772302 -0.0000022397852440364952 -0.0000023485867406293514 -0.0000021834470343971834 -0.000002239825194875294 -0.000002348628661458665
          -8.014536460843461e-7 -7.430189040360489e-7 -8.01454203604403e-7 -7.430201068174513e-7 -8.014567726577041e-7 -7.43023743475066e-7
          -0.0000025269066060231803 -0.0000024763407746958937 -0.000002526921349104469 -0.0000024763549913798384 -0.0000025269629381486676 -0.000002476398782499004
          -0.0000014172764070810357 -0.0000014172798600848962 -0.00000141728925185354 -0.000002072927490636676 -0.000002116295386962232 -0.000002072935919902778
          -0.0000021163046630632455 -0.0000020729567980518305 -0.000002116329051200713 -0.0000023532474444962833 -0.0000023582017444307214 -0.0000023532580695992083
          -0.000002358213270669305 -0.0000023532965995187658 -0.0000023582506552788367 -0.0000016608033186948387 -0.0000016142841231425909 -0.0000016608063296426996
          -0.0000016142884805737683 -0.0000016608205792986874 -0.0000016143073867627695 -0.0000013862490931333834 -0.0000015017133379764904 -0.000001386251778556523
          -0.0000015017169514861939 -0.000001386257732929667 -0.0000015017278946871965 -6.511413289072221e-7 -6.511416372787894e-7 -6.511433187324752e-7
          -3.628683425481975e-7 -5.085324535083014e-7 -3.6286828596179823e-7 -5.085327913466237e-7 -3.628707408881105e-7 -5.085337148906333e-7
          -0.0000013453860042617689 -0.000001345387916694885 -0.0000013454000007370788 -2.3336013192954215e-7 -2.3336043249501468e-7 -2.3335841108908283e-7
          -0.000002635702584481488 -0.0000026357184800269396 -0.0000026357690448130345 -1.4071817398511223e-7 -1.4071796839942153e-7 -1.4071584465670792e-7
          -5.873165533788034e-7 -5.873169114541078e-7 -5.873193928981396e-7 -4.2294883235566835e-7 -4.2294983125727555e-7 -4.2295019835848784e-7
          -3.4851606826286474e-7 -3.485161548932859e-7 -3.4851972416940824e-7 -0.00000308861170557686 -0.000003088643113239147 -0.0000030887375288327345
          -0.000003230844406270576 -0.000003230887345734089 -0.0000032310143562928007 -0.0000032421837624028576 -0.0000032422228424779563 -0.0000032423377950322494
          -0.0000032940227943189575 -0.000003252317850637495 -0.0000032940739040369786 -0.000003252348838572094 -0.0000032942252963804317 -0.000003252441868696886
          -0.0000033271596196427725 -0.0000033272185678453882 -0.000003327394491530907 -0.000003352656609721872 -0.0000033527165581887247 -0.0000033528954168143824
          -0.0000033718033702497555 -0.000003371860341700274 -0.0000033720305980177033 -0.0000033858419438631342 -0.0000033858935866106204 -0.0000033860501455238924
          -0.0000028219114980740654 -0.0000028219333643874197 -0.0000028219987726028236 -0.000002664315059883948 -0.0000026643322309597657 -0.0000026643844224417763
          -0.0000016938639031801936 -0.0000018825156109667698 -0.0000016938695921011927 -0.0000018825222286424873 -0.0000016938873306531818 -0.0000018825441916411746
          -0.0000023228347522743814 -0.000002433233689495408 -0.000002322847799140286 -0.000002433247700385692 -0.0000023228890571463273 -0.0000024332905833655183
          -0.0000010484221717965884 -0.000001274020503054684 -0.0000010484241506867361 -0.0000012740233769348233 -0.0000010484307267946097 -0.0000012740316981340728
          -8.609554972905547e-7 -8.609573251149183e-7 -8.609636070424478e-7 -0.000002542639715502053 -0.0000025426554269884456 -0.0000025427012030363746
          -0.0000015412099012737905 -0.0000014575603147719042 -0.000001541214380002663 -0.0000014575640382729219 -0.000001541224995704926 -0.0000014575779939982632
          -0.000002194506975254945 -0.0000021945168621860494 -0.0000021945450727342293 -0.0000020458615972198636 -0.000001975149106076454 -0.000002045869717788097
          -0.0000019751564594398463 -0.000002045892360798878 -0.0000019751804273115374 -0.0000030403047277409233 -0.0000030403334916446166 -0.0000030404209437226686
          -6.876593592230678e-7 -6.876607626503215e-7 -6.876641443099118e-7 0 -2.285743068876059e-7 0
          -2.285740879878853e-7 0 -2.2857435715217004e-7 -5.285749069319867e-7 -5.285757608188525e-7 -5.285783794907248e-7
          -3.8145666326195653e-7 -3.8145752501783624e-7 -3.814615328686281e-7 -0.0000030186104758037447 -0.000003018637107853949 -0.0000030187165191743316
        </DataArray>
        <DataArray type="Float64" Name="disp_z" format="ascii" RangeMin="-1.0858934720951762e-7" RangeMax="0">
          0 0 -5.3349311529572715e-8 -5.334734763223158e-8 -1.0669895027165526e-7 -1.0669512445149617e-7
          0 0 -5.332571098464798e-8 -5.332402634932609e-8 -1.066513064550798e-7 -1.0664803325588973e-7
          0 0 -5.3298314833375394e-8 -5.329691969164651e-8 -1.0659661764616119e-7 -1.0659387212943461e-7
          0 0 -5.32678320410962e-8 -5.3266666575711376e-8 -1.0653562701115568e-7 -1.0653343990627565e-7
          0 0 -5.323489868140453e-8 -5.3234068562663275e-8 -1.0646985156030072e-7 -1.0646820129683972e-7
          0 0 -5.3200393391800936e-8 -5.3199665277014544e-8 -1.0640057505624059e-7 -1.0639956123154226e-7
          0 0 -5.316525944358185e-8 -5.316418309399886e-8 -1.0633039008676356e-7 -1.0632789354598577e-7
          0 0 -5.312181391449609e-8 -5.312954387193709e-8 -1.0624398418782282e-7 -1.0626138854829781e-7
          0 -5.335483918393771e-8 -1.0671003413822944e-7 0 -5.333053953547978e-8 -1.0666097661465332e-7
          0 -5.3302314126016444e-8 -1.0660461994913468e-7 0 -5.327097670194611e-8 -1.065419331207182e-7
          0 -5.323717850568072e-8 -1.064744584217013e-7 0 -5.320200482842252e-8 -1.064036693765204e-7
          0 -5.316609477729477e-8 -1.0633273099208135e-7 0 -5.312495075685839e-8 -1.0624968480652233e-7
          0 -5.3364212464476124e-8 -1.0672878777455511e-7 0 -5.3338681137003205e-8 -1.0667726971624142e-7
          0 -5.330905903041056e-8 -1.0661812423595223e-7 0 -5.3276252482714046e-8 -1.0655249646068518e-7
          0 -5.324097657724782e-8 -1.0648204302216652e-7 0 -5.320432644296785e-8 -1.0640836978575633e-7
          0 -5.316680008165741e-8 -1.0633403322649454e-7 0 -5.312456991466189e-8 -1.0624805257760223e-7
          0 -5.337757463113175e-8 -1.0675552953244907e-7 0 -5.335026743559844e-8 -1.0670044076622367e-7
          0 -5.331861470549638e-8 -1.0663723399671728e-7 0 -5.328367769487912e-8 -1.0656734279952245e-7
          0 -5.324622344363762e-8 -1.0649253941014969e-7 0 -5.320739762395213e-8 -1.0641450062491211e-7
          0 -5.316779049034396e-8 -1.0633600878838418e-7 0 -5.312289374298846e-8 -1.0624547037727011e-7
          0 -5.339520247960227e-8 -1.0679079429933169e-7 0 -5.336545343447197e-8 -1.067308058336509e-7
          0 -5.3331065630751615e-8 -1.0666213883273934e-7 0 -5.329326541156014e-8 -1.0658651654534336e-7
          0 -5.325289985215159e-8 -1.0650589974658235e-7 0 -5.3211241864771696e-8 -1.0642215864269877e-7
          0 -5.316885335918085e-8 -1.0633822080941141e-7 0 -5.3121147256843485e-8 -1.062417423458492e-7
          0 -5.341743938060876e-8 -1.0683535130026057e-7 0 -5.338443756020563e-8 -1.0676875112084363e-7
          0 -5.334653426845409e-8 -1.0669308086252918e-7 0 -5.3305048693433596e-8 -1.0661008197439532e-7
          0 -5.3260979760690994e-8 -1.065220569265307e-7 0 -5.321572316901709e-8 -1.064311276407418e-7
          0 -5.316988272734426e-8 -1.0634027299421722e-7 0 -5.311919481195559e-8 -1.0623790034768187e-7
          0 -5.3475512939111284e-8 -1.0695034802512488e-7 0 -5.344446067569467e-8 -1.068893444578169e-7
          0 -5.3407501830957665e-8 -1.0681491983288717e-7 0 -5.3365153344052985e-8 -1.0673030908457714e-7
          0 -5.331904657620385e-8 -1.0663808182580262e-7 0 -5.327037117960435e-8 -1.0654083359189797e-7
          0 -5.322065886030147e-8 -1.064410187234255e-7 0 -5.3170737252405626e-8 -1.0634195421925391e-7
          0 -5.311670548362565e-8 -1.06232860177324e-7 0 -5.3512189071410324e-8 -1.0702341246447147e-7
          0 -5.347702292561173e-8 -1.0695455232207856e-7 0 -5.343499355015138e-8 -1.0686984635947965e-7
          0 -5.3387060204142636e-8 -1.0677414769753096e-7 0 -5.333525363302358e-8 -1.0667049160818997e-7
          0 -5.3280924644387655e-8 -1.065619448388219e-7 0 -5.322579564498511e-8 -1.0645127601768802e-7
          0 -5.317090527646198e-8 -1.063423657877778e-7 0 -5.311310337853495e-8 -1.0622559821003615e-7
          0 -5.355623940915654e-8 -1.071113594625124e-7 0 -5.3515623931391145e-8 -1.0703183792599882e-7
          0 -5.346725801270563e-8 -1.069343489380028e-7 0 -5.341245739737558e-8 -1.0682494771627196e-7
          0 -5.33536283969248e-8 -1.0670724959248048e-7 0 -5.329238451407456e-8 -1.0658484242606208e-7
          0 -5.3230773334726184e-8 -1.0646130633300972e-7 0 -5.316975933180305e-8 -1.0633979741596297e-7
          0 -5.310642297335312e-8 -1.0621275337758152e-7 0 -5.360847774865595e-8 -1.0721570251980001e-7
          0 -5.3560983905324785e-8 -1.0712264124611693e-7 0 -5.350474404606627e-8 -1.0700930335591899e-7
          0 -5.344147070230854e-8 -1.0688298104868057e-7 0 -5.3374077026847517e-8 -1.0674812834029874e-7
          0 -5.330447549173166e-8 -1.0660909383360388e-7 0 -5.323496808745204e-8 -1.0646946873461789e-7
          0 -5.316685298856672e-8 -1.0633473797569473e-7 0 -5.3095970001788356e-8 -1.0619077904285491e-7
          0 -5.3670274615277194e-8 -1.0733911910248994e-7 0 -5.3613980611494995e-8 -1.0722872681925285e-7
          0 -5.354792603862077e-8 -1.070956330507361e-7 0 -5.347419218321897e-8 -1.0694842665249755e-7
          0 -5.339637319301897e-8 -1.0679273121162106e-7 0 -5.331682307296546e-8 -1.0663373290439928e-7
          0 -5.323804893905511e-8 -1.0647585574244977e-7 0 -5.316138140983812e-8 -1.0632282604236792e-7
          0 -5.308071264894757e-8 -1.0616180296761995e-7 0 -5.374299818468902e-8 -1.0748430956156579e-7
          0 -5.3675579758215175e-8 -1.0735205217091358e-7 0 -5.3597251157886495e-8 -1.0719423861994471e-7
          0 -5.3510605316506704e-8 -1.0702125582322027e-7 0 -5.342011804704386e-8 -1.0684024556367349e-7
          0 -5.3328766428329783e-8 -1.0665748776777866e-7 0 -5.323907872111541e-8 -1.064784294159964e-7
          0 -5.315417786578236e-8 -1.0630745680047459e-7 0 -5.30749193348929e-8 -1.0615232264487537e-7
          0 -5.382833461957443e-8 -1.0765472658719331e-7 0 -5.3746888121962946e-8 -1.0749484768963445e-7
          0 -5.365314149948914e-8 -1.0730596827452234e-7 0 -5.3550519698240986e-8 -1.0710109657145556e-7
          0 -5.3444642972400366e-8 -1.0688928022555882e-7 0 -5.3339123442240635e-8 -1.0667826027362863e-7
          0 -5.3237050767327324e-8 -1.0647410876293225e-7 0 -5.314104771552858e-8 -1.0628203822919343e-7
          0 -5.30523825678199e-8 -1.0610397282162122e-7 0 -5.3928455240651657e-8 -1.0785438054824443e-7
          0 -5.382923614118167e-8 -1.0765980769729665e-7 0 -5.371594195758284e-8 -1.074314755328935e-7
          0 -5.359347195860533e-8 -1.0718702124787505e-7 0 -5.346885658712697e-8 -1.0693771302293219e-7
          0 -5.3346488255077246e-8 -1.0669294631632403e-7 0 -5.322983877768854e-8 -1.0645982507076446e-7
          0 -5.31217471424191e-8 -1.0624317605340495e-7 0 -5.302499269847474e-8 -1.0604982514958886e-7
          0 -5.3923892134628064e-8 -1.0784938443245024e-7 0 -5.378569576192748e-8 -1.0757095677470415e-7
          0 -5.363858500473387e-8 -1.0727722334194407e-7 0 -5.349113976156597e-8 -1.06982291857168e-7
          0 -5.3348780289058e-8 -1.0669750726890413e-7 0 -5.321544184815694e-8 -1.0643106595616062e-7
          0 -5.309362473438548e-8 -1.0618712483822912e-7 0 -5.2988995179292834e-8 -1.0597912603340732e-7
          0 -5.403229199099782e-8 -1.0806654763113798e-7 0 -5.386213971280237e-8 -1.0772374149123903e-7
          0 -5.368414976530967e-8 -1.0736838459517795e-7 0 -5.350905940526601e-8 -1.0701810558298871e-7
          0 -5.334320355800761e-8 -1.0668641551092428e-7 0 -5.3190913052876824e-8 -1.0638190006624502e-7
          0 -5.3055049023478225e-8 -1.0610931728416109e-7 0 -5.293166108969225e-8 -1.0586423980712207e-7
          0 -5.415516390512864e-8 -1.0831294020969991e-7 0 -5.3944108014038087e-8 -1.0788753619348128e-7
          0 -5.3727483386610216e-8 -1.0745509071672887e-7 0 -5.3518961615169055e-8 -1.0703792288008505e-7
          0 -5.332585669687519e-8 -1.0665161124963975e-7 0 -5.315215275733093e-8 -1.0630480820787797e-7
          0 -5.300284973259124e-8 -1.0600492810321735e-7 0 -5.2881761215168666e-8 -1.057662665217364e-7
          0 -5.42932225935538e-8 -1.0858934720951762e-7 0 -5.4029211541527246e-8 -1.0805768070363501e-7
          0 -5.3764219884629125e-8 -1.0752853077993059e-7 0 -5.351552645141132e-8 -1.0703114163723264e-7
          0 -5.3291261076453284e-8 -1.0658214288801983e-7 0 -5.309463338215503e-8 -1.0619027282375836e-7
          0 -5.292362302365667e-8 -1.0584612258338461e-7 0 -5.280494566053305e-8 -1.0560843430733765e-7
          0 -5.4112497962027554e-8 -1.0822375519489173e-7 0 -5.3787214629542527e-8 -1.075746888675292e-7
          0 -5.349119009678662e-8 -1.0698237207371239e-7 0 -5.323211103643268e-8 -1.06464009173457e-7
          0 -5.301113362587121e-8 -1.0602303552353478e-7 0 -5.2829028481707947e-8 -1.0565735031826353e-7
          0 -5.2694976577112004e-8 -1.0539076655554168e-7 0 -5.418542923830347e-8 -1.0836942851006784e-7
          0 -5.378547259056403e-8 -1.0757114060719693e-7 0 -5.3434954370565625e-8 -1.0686989006277725e-7
          0 -5.313896245187076e-8 -1.0627746323338839e-7 0 -5.28954080115282e-8 -1.0579224035460806e-7
          0 -5.270133016462795e-8 -1.0540029168670774e-7 0 -5.257221389217466e-8 -1.0514767049506981e-7
          0 -5.423152089220311e-8 -1.0846131469733073e-7 0 -5.374174250172642e-8 -1.07484087609141e-7
          0 -5.333130561206499e-8 -1.0666287885755541e-7 0 -5.2999160605356906e-8 -1.0599782590015714e-7
          0 -5.273660051722038e-8 -1.0547576997128092e-7 0 -5.253600788157722e-8 -1.0506763687144532e-7
          0 -5.422380770233561e-8 -1.0844559957404364e-7 0 -5.363141816108951e-8 -1.0726312919598544e-7
          0 -5.316026709690945e-8 -1.0632022981218119e-7 0 -5.2797635453840233e-8 -1.0559442014281731e-7
          0 -5.2524447842380905e-8 -1.0505070100283823e-7 0 0 0
          0 -5.280473005526733e-8 -5.289762560345759e-8 -5.2937902346083166e-8 -5.287013185869947e-8 -1.0560605039638211e-7
          -1.0579658360385643e-7 -1.0587536780594274e-7 -1.0573938415994386e-7 0 0 0
          0 -5.303849480522187e-8 -5.3037311962508046e-8 -5.3071436992386566e-8 -5.3078466218554244e-8 -1.0607602960675117e-7
          -1.0607576186627168e-7 -1.0614336325296108e-7 -1.0615724947730216e-7 0 0 0
          -5.261849000452964e-8 -5.2496395427812174e-8 -5.264174857049041e-8 -1.0523694449982841e-7 -1.0499129401500835e-7 -1.0528038829186464e-7
          0 -5.2615966273486585e-8 -1.0523881985041756e-7 0 0 0
          0 -5.298187148987876e-8 -5.300328583298345e-8 -5.295580398459575e-8 -5.291682366929831e-8 -1.059645417252432e-7
          -1.0600788934518884e-7 -1.059110726343536e-7 -1.0583430128636765e-7 0 0 -5.304855435285182e-8
          -5.3084190191609753e-8 -1.0609679808650118e-7 -1.061692128538373e-7 0 0 0
          -5.278753166382252e-8 -5.2717396966415725e-8 -5.268304031738552e-8 -1.0558136221580688e-7 -1.0543346092860304e-7 -1.053626645870722e-7
          0 0 -5.309084020608584e-8 -5.305993046073667e-8 -1.0618245261476807e-7 -1.06119167155018e-7
          0 0 -5.2743277796538054e-8 -5.268270618759472e-8 -1.0548269947027264e-7 -1.0536506382159903e-7
          0 -5.30001899122819e-8 -1.059973121690983e-7 0 0 -5.2820262019064134e-8
          -5.274417756270245e-8 -1.0564137433884903e-7 -1.0548740221651742e-7 0 0 -5.2831142727752025e-8
          -5.279328132996293e-8 -1.0565781812589899e-7 -1.0559703059481428e-7 0 0 -5.3012762837363844e-8
          -5.300144521436151e-8 -1.0601824296067362e-7 -1.0600446592799385e-7 0 0 -5.3057523518706494e-8
          -5.304185447932392e-8 -1.0611416367483e-7 -1.0608746016923922e-7 0 -5.3096141585255783e-8 -1.0619292495236106e-7
          0 0 -5.3099961716039484e-8 -5.3098918083589094e-8 -1.0620110900393732e-7 -1.0619856958903147e-7
          0 -5.3030337166890376e-8 -1.0605972192510521e-7 0 -5.310566127969808e-8 -1.062152567322242e-7
          0 -5.274427220418864e-8 -1.0549473785890527e-7 0 -5.3095879248871355e-8 -1.0618441190493186e-7
          0 -5.3069454563784504e-8 -1.061380229690431e-7 0 -5.307459491587834e-8 -1.0615083275951493e-7
          0 -5.307831388568278e-8 -1.0614890448529688e-7 0 -5.241807223021137e-8 -1.0484051670990689e-7
          0 -5.2328882816022165e-8 -1.0465421759094409e-7 0 -5.222773397026959e-8 -1.0446063135355954e-7
          0 0 -5.34219794073844e-8 -5.4121526786825324e-8 -1.0684463672793484e-7 -1.0824074113696931e-7
          0 -5.2897037343962645e-8 -1.0579454166574134e-7 0 -5.251762883944627e-8 -1.0503448085657919e-7
          0 -5.22499592348205e-8 -1.0450409470915392e-7 0 -5.2068513232547656e-8 -1.0413079984994084e-7
          0 -5.246185543190538e-8 -1.0492411928521729e-7 0 -5.252334967061714e-8 -1.0504379711400049e-7
          0 0 -5.2929562136277884e-8 -5.2855135321819255e-8 -1.0586034681588702e-7 -1.0570867974548616e-7
          0 0 -5.263328989262511e-8 -5.2599588382054054e-8 -1.0526658377800292e-7 -1.0520130773970811e-7
          0 0 -5.299656777647725e-8 -5.2980918448632056e-8 -1.0599331540426093e-7 -1.05962202056858e-7
          0 -5.3018638420652804e-8 -1.0603783562859147e-7 0 -5.256370037424594e-8 -1.0512680307667371e-7
          0 0 -5.2970363777921534e-8 -5.293958915465122e-8 -1.0594140594602448e-7 -1.0587938757223694e-7
          0 -5.266466990279882e-8 -1.0533013447311901e-7 0 0 -5.268798421087616e-8
          -5.2762787597057195e-8 -1.0537601055983422e-7 -1.0552410233893982e-7 0 -5.23430805045179e-8 -1.0468289225355806e-7
          0 -5.303215954444229e-8 -1.0606456292180763e-7 0 0 -5.3085665018506696e-8
          -5.3080516043781295e-8 -1.0617314427640648e-7 -1.0616212767104874e-7 0 -5.304227421776026e-8 -1.0608484056159453e-7
          0 -5.305530752847811e-8 -1.0611020153578462e-7 0 -5.230400761022659e-8 -1.0461155855815569e-7
        </DataArray>
      </PointData>
      <CellData>
        <DataArray type="Int32" Name="libmesh_elem_id" format="ascii" RangeMin="776" RangeMax="3207">
          776 777 778 779 780 781
          782 783 784 785 786 787
          788 789 794 795 796 797
          798 799 800 801 802 803
          804 805 806 807 812 813
          814 815 816 817 818 819
          820 821 822 823 824 825
          830 831 832 833 834 835
          836 837 838 839 840 841
          842 843 848 849 850 851
          852 853 854 855 856 857
          858 859 860 861 866 867
          868 869 870 871 872 873
          874 875 876 877 878 879
          884 885 886 887 888 889
          890 891 892 893 894 895
          896 897 900 901 902 903
          904 905 906 907 908 909
          910 911 912 913 914 915
          918 919 920 921 922 923
          924 925 926 927 928 929
          930 931 932 933 936 937
          938 939 940 941 942 943
          944 945 946 947 948 949
          950 951 954 955 956 957
          958 959 960 961 962 963
          964 965 966 967 968 969
          972 973 974 975 976 977
          978 979 980 981 982 983
          984 985 986 987 990 991
          992 993 994 995 996 997
          998 999 1000 1001 1002 1003
          1004 1005 1008 1009 1010 1011
          1012 1013 1014 1015 1016 1017
          1018 1019 1020 1021 1022 1023
          1028 1029 1030 1031 1032 1033
          1034 1035 1036 1037 1038 1039
          1040 1041 1046 1047 1048 1049
          1050 1051 1052 1053 1054 1055
          1056 1057 1058 1059 1064 1065
          1066 1067 1068 1069 1070 1071
          1072 1073 1074 1075 1076 1077
          1082 1083 1084 1085 1086 1087
          1088 1089 1090 1091 1092 1093
          1094 1095 1102 1103 1104 1105
          1106 1107 1108 1109 1110 1111
          1112 1113 1120 1121 1122 1123
          1124 1125 1126 1127 1128 1129
          1130 1131 1138 1139 1140 1141
          1142 1143 1144 1145 1146 1147
          1148 1149 1156 1157 1158 1159
          1160 1161 1162 1163 1164 1165
          1166 1167 1174 1175 1176 1177
          1178 1179 1180 1181 1182 1183
          1374 1375 1376 1377 1378 1379
          1384 1385 1388 1389 1404 1405
          1458 1459 1536 1537 1542 1543
          1624 1625 1648 1649 1658 1659
          1672 1673 1770 1771 1810 1811
          1818 1819 1828 1829 1830 1831
          1866 1867 2074 2075 2078 2079
          2116 2117 2124 2125 2288 2289
          2290 2291 2336 2337 2342 2343
          2348 2349 2352 2353 2356 2357
          2358 2359 2424 2425 2452 2453
          2464 2465 2496 2497 2526 2527
          2530 2531 2532 2533 2554 2555
          2560 2561 2590 2591 2594 2595
          2622 2623 2736 2737 2740 2741
          2762 2763 2768 2769 2794 2795
          2800 2801 2864 2865 2890 2891
          2904 2905 2920 2921 2956 2957
          2986 2987 3018 3019 3036 3037
          3088 3089 3114 3115 3144 3145
          3156 3157 3176 3177 3184 3185
          3190 3191 3206 3207
        </DataArray>
        <DataArray type="Int32" Name="subdomain_id" format="ascii" RangeMin="105" RangeMax="107">
          105 105 105 105 105 105
          105 105 105 105 105 105
          105 105 105 105 105 105
          105 105 105 105 105 105
          105 105 105 105 105 105
          105 105 105 105 105 105
          105 105 105 105 105 105
          105 105 105 105 105 105
          105 105 105 105 105 105
          105 105 105 105 105 105
          105 105 105 105 105 105
          105 105 105 105 105 105
          105 105 105 105 105 105
          105 105 105 105 105 105
          105 105 105 105 105 105
          105 105 105 105 105 105
          105 105 105 105 105 105
          105 105 105 105 105 105
          105 105 105 105 105 105
          105 105 105 105 105 105
          105 105 105 105 105 105
          105 105 105 105 105 105
          105 105 105 105 105 105
          105 105 105 105 105 105
          105 105 105 105 105 105
          105 105 105 105 105 105
          105 105 105 105 105 105
          105 105 105 105 105 105
          105 105 105 105 105 105
          105 105 105 105 105 105
          105 105 105 105 105 105
          105 105 105 105 105 105
          105 105 105 105 105 105
          105 105 105 105 105 105
          105 105 105 105 105 105
          105 105 105 105 105 105
          105 105 105 105 105 105
          105 105 105 105 105 105
          105 105 105 105 105 105
          105 105 105 105 105 105
          105 105 105 105 105 105
          105 105 105 105 105 105
          105 105 105 105 105 105
          105 105 105 105 105 105
          105 105 105 105 105 105
          105 105 105 105 105 105
          105 105 105 105 105 105
          105 105 105 105 105 105
          105 105 105 105 105 105
          105 105 105 105 105 105
          105 105 105 105 105 105
          105 105 105 105 105 105
          105 105 105 105 105 105
          105 105 105 105 105 105
          107 107 107 107 107 107
          107 107 107 107 107 107
          107 107 107 107 107 107
          107 107 107 107 107 107
          107 107 107 107 107 107
          107 107 107 107 107 107
          107 107 107 107 107 107
          107 107 107 107 107 107
          107 107 107 107 107 107
          107 107 107 107 107 107
          107 107 107 107 107 107
          107 107 107 107 107 107
          107 107 107 107 107 107
          107 107 107 107 107 107
          107 107 107 107 107 107
          107 107 107 107 107 107
          107 107 107 107 107 107
          107 107 107 107 107 107
          107 107 107 107 107 107
          107 107 107 107 107 107
          107 107 107 107 107 107
          107 107 107 107
        </DataArray>
        <DataArray type="Int32" Name="processor_id" format="ascii" RangeMin="6" RangeMax="6">
          6 6 6 6 6 6
          6 6 6 6 6 6
          6 6 6 6 6 6
          6 6 6 6 6 6
          6 6 6 6 6 6
          6 6 6 6 6 6
          6 6 6 6 6 6
          6 6 6 6 6 6
          6 6 6 6 6 6
          6 6 6 6 6 6
          6 6 6 6 6 6
          6 6 6 6 6 6
          6 6 6 6 6 6
          6 6 6 6 6 6
          6 6 6 6 6 6
          6 6 6 6 6 6
          6 6 6 6 6 6
          6 6 6 6 6 6
          6 6 6 6 6 6
          6 6 6 6 6 6
          6 6 6 6 6 6
          6 6 6 6 6 6
          6 6 6 6 6 6
          6 6 6 6 6 6
          6 6 6 6 6 6
          6 6 6 6 6 6
          6 6 6 6 6 6
          6 6 6 6 6 6
          6 6 6 6 6 6
          6 6 6 6 6 6
          6 6 6 6 6 6
          6 6 6 6 6 6
          6 6 6 6 6 6
          6 6 6 6 6 6
          6 6 6 6 6 6
          6 6 6 6 6 6
          6 6 6 6 6 6
          6 6 6 6 6 6
          6 6 6 6 6 6
          6 6 6 6 6 6
          6 6 6 6 6 6
          6 6 6 6 6 6
          6 6 6 6 6 6
          6 6 6 6 6 6
          6 6 6 6 6 6
          6 6 6 6 6 6
          6 6 6 6 6 6
          6 6 6 6 6 6
          6 6 6 6 6 6
          6 6 6 6 6 6
          6 6 6 6 6 6
          6 6 6 6 6 6
          6 6 6 6 6 6
          6 6 6 6 6 6
          6 6 6 6 6 6
          6 6 6 6 6 6
          6 6 6 6 6 6
          6 6 6 6 6 6
          6 6 6 6 6 6
          6 6 6 6 6 6
          6 6 6 6 6 6
          6 6 6 6 6 6
          6 6 6 6 6 6
          6 6 6 6 6 6
          6 6 6 6 6 6
          6 6 6 6 6 6
          6 6 6 6 6 6
          6 6 6 6 6 6
          6 6 6 6 6 6
          6 6 6 6 6 6
          6 6 6 6 6 6
          6 6 6 6 6 6
          6 6 6 6 6 6
          6 6 6 6 6 6
          6 6 6 6 6 6
          6 6 6 6
        </DataArray>
      </CellData>
      <Points>
        <DataArray type="Float64" Name="Points" NumberOfComponents="3" format="ascii" RangeMin="0.0018888888888872" RangeMax="0.010555613193541787">
          0.0018888888888873 0.00041379310344749 0 0.0018888888888872 0 0
          0.0018888888888873 0.00041379310344749 0.00015 0.0018888888888872 0 0.00015
          0.0018888888888873 0.00041379310344749 0.0003 0.0018888888888872 0 0.0003
          0.0023333333333313 0.00041379310344749 0 0.0023333333333311 0 0
          0.0023333333333313 0.00041379310344749 0.00015 0.0023333333333311 0 0.00015
          0.0023333333333313 0.00041379310344749 0.0003 0.0023333333333311 0 0.0003
          0.0027777777777734 0.00041379310344749 0 0.0027777777777731 0 0
          0.0027777777777734 0.00041379310344749 0.00015 0.0027777777777731 0 0.00015
          0.0027777777777734 0.00041379310344749 0.0003 0.0027777777777731 0 0.0003
          0.003222222222218 0.00041379310344749 0 0.0032222222222177 0 0
          0.003222222222218 0.00041379310344749 0.00015 0.0032222222222177 0 0.00015
          0.003222222222218 0.00041379310344749 0.0003 0.0032222222222177 0 0.0003
          0.0036666666666636 0.00041379310344749 0 0.0036666666666634 0 0
          0.0036666666666636 0.00041379310344749 0.00015 0.0036666666666634 0 0.00015
          0.0036666666666636 0.00041379310344749 0.0003 0.0036666666666634 0 0.0003
          0.0041111111111091 0.00041379310344749 0 0.004111111111109 0 0
          0.0041111111111091 0.00041379310344749 0.00015 0.004111111111109 0 0.00015
          0.0041111111111091 0.00041379310344749 0.0003 0.004111111111109 0 0.0003
          0.0045555555555554 0.00041379310344749 0 0.0045555555555553 0 0
          0.0045555555555554 0.00041379310344749 0.00015 0.0045555555555553 0 0.00015
          0.0045555555555554 0.00041379310344749 0.0003 0.0045555555555553 0 0.0003
          0.005 0.00041379310344749 0 0.005 0 0
          0.005 0.00041379310344749 0.00015 0.005 0 0.00015
          0.005 0.00041379310344749 0.0003 0.005 0 0.0003
          0.0018888888888875 0.00082758620689497 0 0.0018888888888875 0.00082758620689497 0.00015
          0.0018888888888875 0.00082758620689497 0.0003 0.0023333333333315 0.00082758620689497 0
          0.0023333333333315 0.00082758620689497 0.00015 0.0023333333333315 0.00082758620689497 0.0003
          0.0027777777777737 0.00082758620689497 0 0.0027777777777737 0.00082758620689497 0.00015
          0.0027777777777737 0.00082758620689497 0.0003 0.0032222222222183 0.00082758620689497 0
          0.0032222222222183 0.00082758620689497 0.00015 0.0032222222222183 0.00082758620689497 0.0003
          0.0036666666666638 0.00082758620689497 0 0.0036666666666638 0.00082758620689497 0.00015
          0.0036666666666638 0.00082758620689497 0.0003 0.0041111111111093 0.00082758620689497 0
          0.0041111111111093 0.00082758620689497 0.00015 0.0041111111111093 0.00082758620689497 0.0003
          0.0045555555555554 0.00082758620689497 0 0.0045555555555554 0.00082758620689497 0.00015
          0.0045555555555554 0.00082758620689497 0.0003 0.005 0.00082758620689497 0
          0.005 0.00082758620689497 0.00015 0.005 0.00082758620689497 0.0003
          0.0018888888888876 0.0012413793103426 0 0.0018888888888876 0.0012413793103426 0.00015
          0.0018888888888876 0.0012413793103426 0.0003 0.0023333333333317 0.0012413793103426 0
          0.0023333333333317 0.0012413793103426 0.00015 0.0023333333333317 0.0012413793103426 0.0003
          0.002777777777774 0.0012413793103426 0 0.002777777777774 0.0012413793103426 0.00015
          0.002777777777774 0.0012413793103426 0.0003 0.0032222222222186 0.0012413793103426 0
          0.0032222222222186 0.0012413793103426 0.00015 0.0032222222222186 0.0012413793103426 0.0003
          0.003666666666664 0.0012413793103426 0 0.003666666666664 0.0012413793103426 0.00015
          0.003666666666664 0.0012413793103426 0.0003 0.0041111111111095 0.0012413793103426 0
          0.0041111111111095 0.0012413793103426 0.00015 0.0041111111111095 0.0012413793103426 0.0003
          0.0045555555555554 0.0012413793103426 0 0.0045555555555554 0.0012413793103426 0.00015
          0.0045555555555554 0.0012413793103426 0.0003 0.005 0.0012413793103426 0
          0.005 0.0012413793103426 0.00015 0.005 0.0012413793103426 0.0003
          0.0018888888888877 0.0016551724137901 0 0.0018888888888877 0.0016551724137901 0.00015
          0.0018888888888877 0.0016551724137901 0.0003 0.0023333333333319 0.0016551724137901 0
          0.0023333333333319 0.0016551724137901 0.00015 0.0023333333333319 0.0016551724137901 0.0003
          0.0027777777777743 0.0016551724137901 0 0.0027777777777743 0.0016551724137901 0.00015
          0.0027777777777743 0.0016551724137901 0.0003 0.0032222222222189 0.0016551724137901 0
          0.0032222222222189 0.0016551724137901 0.00015 0.0032222222222189 0.0016551724137901 0.0003
          0.0036666666666642 0.0016551724137901 0 0.0036666666666642 0.0016551724137901 0.00015
          0.0036666666666642 0.0016551724137901 0.0003 0.0041111111111096 0.0016551724137901 0
          0.0041111111111096 0.0016551724137901 0.00015 0.0041111111111096 0.0016551724137901 0.0003
          0.0045555555555555 0.0016551724137901 0 0.0045555555555555 0.0016551724137901 0.00015
          0.0045555555555555 0.0016551724137901 0.0003 0.005 0.0016551724137901 0
          0.005 0.0016551724137901 0.00015 0.005 0.0016551724137901 0.0003
          0.0018888888888879 0.0020689655172371 0 0.0018888888888879 0.0020689655172371 0.00015
          0.0018888888888879 0.0020689655172371 0.0003 0.002333333333332 0.0020689655172371 0
          0.002333333333332 0.0020689655172371 0.00015 0.002333333333332 0.0020689655172371 0.0003
          0.0027777777777746 0.0020689655172371 0 0.0027777777777746 0.0020689655172371 0.00015
          0.0027777777777746 0.0020689655172371 0.0003 0.0032222222222192 0.0020689655172371 0
          0.0032222222222192 0.0020689655172371 0.00015 0.0032222222222192 0.0020689655172371 0.0003
          0.0036666666666643 0.0020689655172371 0 0.0036666666666643 0.0020689655172371 0.00015
          0.0036666666666643 0.0020689655172371 0.0003 0.0041111111111098 0.0020689655172371 0
          0.0041111111111098 0.0020689655172371 0.00015 0.0041111111111098 0.0020689655172371 0.0003
          0.0045555555555555 0.0020689655172371 0 0.0045555555555555 0.0020689655172371 0.00015
          0.0045555555555555 0.0020689655172371 0.0003 0.005 0.0020689655172371 0
          0.005 0.0020689655172371 0.00015 0.005 0.0020689655172371 0.0003
          0.001888888888888 0.0024827586206843 0 0.001888888888888 0.0024827586206843 0.00015
          0.001888888888888 0.0024827586206843 0.0003 0.0023333333333322 0.0024827586206843 0
          0.0023333333333322 0.0024827586206843 0.00015 0.0023333333333322 0.0024827586206843 0.0003
          0.0027777777777749 0.0024827586206843 0 0.0027777777777749 0.0024827586206843 0.00015
          0.0027777777777749 0.0024827586206843 0.0003 0.0032222222222196 0.0024827586206843 0
          0.0032222222222196 0.0024827586206843 0.00015 0.0032222222222196 0.0024827586206843 0.0003
          0.0036666666666645 0.0024827586206843 0 0.0036666666666645 0.0024827586206843 0.00015
          0.0036666666666645 0.0024827586206843 0.0003 0.0041111111111099 0.0024827586206843 0
          0.0041111111111099 0.0024827586206843 0.00015 0.0041111111111099 0.0024827586206843 0.0003
          0.0045555555555555 0.0024827586206843 0 0.0045555555555555 0.0024827586206843 0.00015
          0.0045555555555555 0.0024827586206843 0.0003 0.005 0.0024827586206843 0
          0.005 0.0024827586206843 0.00015 0.005 0.0024827586206843 0.0003
          0.0014444444444442 0.0028965517241314 0 0.0014444444444442 0.0028965517241314 0.00015
          0.0014444444444442 0.0028965517241314 0.0003 0.0018888888888881 0.0028965517241314 0
          0.0018888888888881 0.0028965517241314 0.00015 0.0018888888888881 0.0028965517241314 0.0003
          0.0023333333333324 0.0028965517241314 0 0.0023333333333324 0.0028965517241314 0.00015
          0.0023333333333324 0.0028965517241314 0.0003 0.0027777777777753 0.0028965517241314 0
          0.0027777777777753 0.0028965517241314 0.00015 0.0027777777777753 0.0028965517241314 0.0003
          0.0032222222222199 0.0028965517241314 0 0.0032222222222199 0.0028965517241314 0.00015
          0.0032222222222199 0.0028965517241314 0.0003 0.0036666666666647 0.0028965517241314 0
          0.0036666666666647 0.0028965517241314 0.00015 0.0036666666666647 0.0028965517241314 0.0003
          0.0041111111111101 0.0028965517241314 0 0.0041111111111101 0.0028965517241314 0.00015
          0.0041111111111101 0.0028965517241314 0.0003 0.0045555555555556 0.0028965517241314 0
          0.0045555555555556 0.0028965517241314 0.00015 0.0045555555555556 0.0028965517241314 0.0003
          0.005 0.0028965517241314 0 0.005 0.0028965517241314 0.00015
          0.005 0.0028965517241314 0.0003 0.0014444444444442 0.0033103448275785 0
          0.0014444444444442 0.0033103448275785 0.00015 0.0014444444444442 0.0033103448275785 0.0003
          0.0018888888888882 0.0033103448275785 0 0.0018888888888882 0.0033103448275785 0.00015
          0.0018888888888882 0.0033103448275785 0.0003 0.0023333333333326 0.0033103448275785 0
          0.0023333333333326 0.0033103448275785 0.00015 0.0023333333333326 0.0033103448275785 0.0003
          0.0027777777777756 0.0033103448275785 0 0.0027777777777756 0.0033103448275785 0.00015
          0.0027777777777756 0.0033103448275785 0.0003 0.0032222222222202 0.0033103448275785 0
          0.0032222222222202 0.0033103448275785 0.00015 0.0032222222222202 0.0033103448275785 0.0003
          0.0036666666666649 0.0033103448275785 0 0.0036666666666649 0.0033103448275785 0.00015
          0.0036666666666649 0.0033103448275785 0.0003 0.0041111111111102 0.0033103448275785 0
          0.0041111111111102 0.0033103448275785 0.00015 0.0041111111111102 0.0033103448275785 0.0003
          0.0045555555555556 0.0033103448275785 0 0.0045555555555556 0.0033103448275785 0.00015
          0.0045555555555556 0.0033103448275785 0.0003 0.005 0.0033103448275785 0
          0.005 0.0033103448275785 0.00015 0.005 0.0033103448275785 0.0003
          0.0014444444444443 0.0037241379310256 0 0.0014444444444443 0.0037241379310256 0.00015
          0.0014444444444443 0.0037241379310256 0.0003 0.0018888888888884 0.0037241379310256 0
          0.0018888888888884 0.0037241379310256 0.00015 0.0018888888888884 0.0037241379310256 0.0003
          0.0023333333333328 0.0037241379310256 0 0.0023333333333328 0.0037241379310256 0.00015
          0.0023333333333328 0.0037241379310256 0.0003 0.0027777777777759 0.0037241379310256 0
          0.0027777777777759 0.0037241379310256 0.00015 0.0027777777777759 0.0037241379310256 0.0003
          0.0032222222222205 0.0037241379310256 0 0.0032222222222205 0.0037241379310256 0.00015
          0.0032222222222205 0.0037241379310256 0.0003 0.003666666666665 0.0037241379310256 0
          0.003666666666665 0.0037241379310256 0.00015 0.003666666666665 0.0037241379310256 0.0003
          0.0041111111111104 0.0037241379310256 0 0.0041111111111104 0.0037241379310256 0.00015
          0.0041111111111104 0.0037241379310256 0.0003 0.0045555555555556 0.0037241379310256 0
          0.0045555555555556 0.0037241379310256 0.00015 0.0045555555555556 0.0037241379310256 0.0003
          0.005 0.0037241379310256 0 0.005 0.0037241379310256 0.00015
          0.005 0.0037241379310256 0.0003 0.0014444444444444 0.0041379310344727 0
          0.0014444444444444 0.0041379310344727 0.00015 0.0014444444444444 0.0041379310344727 0.0003
          0.0018888888888885 0.0041379310344727 0 0.0018888888888885 0.0041379310344727 0.00015
          0.0018888888888885 0.0041379310344727 0.0003 0.002333333333333 0.0041379310344727 0
          0.002333333333333 0.0041379310344727 0.00015 0.002333333333333 0.0041379310344727 0.0003
          0.0027777777777762 0.0041379310344727 0 0.0027777777777762 0.0041379310344727 0.00015
          0.0027777777777762 0.0041379310344727 0.0003 0.0032222222222208 0.0041379310344727 0
          0.0032222222222208 0.0041379310344727 0.00015 0.0032222222222208 0.0041379310344727 0.0003
          0.0036666666666652 0.0041379310344727 0 0.0036666666666652 0.0041379310344727 0.00015
          0.0036666666666652 0.0041379310344727 0.0003 0.0041111111111105 0.0041379310344727 0
          0.0041111111111105 0.0041379310344727 0.00015 0.0041111111111105 0.0041379310344727 0.0003
          0.0045555555555557 0.0041379310344727 0 0.0045555555555557 0.0041379310344727 0.00015
          0.0045555555555557 0.0041379310344727 0.0003 0.005 0.0041379310344727 0
          0.005 0.0041379310344727 0.00015 0.005 0.0041379310344727 0.0003
          0.0014444444444444 0.0045517241379199 0 0.0014444444444444 0.0045517241379199 0.00015
          0.0014444444444444 0.0045517241379199 0.0003 0.0018888888888886 0.0045517241379199 0
          0.0018888888888886 0.0045517241379199 0.00015 0.0018888888888886 0.0045517241379199 0.0003
          0.0023333333333331 0.0045517241379199 0 0.0023333333333331 0.0045517241379199 0.00015
          0.0023333333333331 0.0045517241379199 0.0003 0.0027777777777765 0.0045517241379199 0
          0.0027777777777765 0.0045517241379199 0.00015 0.0027777777777765 0.0045517241379199 0.0003
          0.0032222222222211 0.0045517241379199 0 0.0032222222222211 0.0045517241379199 0.00015
          0.0032222222222211 0.0045517241379199 0.0003 0.0036666666666654 0.0045517241379199 0
          0.0036666666666654 0.0045517241379199 0.00015 0.0036666666666654 0.0045517241379199 0.0003
          0.0041111111111107 0.0045517241379199 0 0.0041111111111107 0.0045517241379199 0.00015
          0.0041111111111107 0.0045517241379199 0.0003 0.0045555555555557 0.0045517241379199 0
          0.0045555555555557 0.0045517241379199 0.00015 0.0045555555555557 0.0045517241379199 0.0003
          0.005 0.0045517241379199 0 0.005 0.0045517241379199 0.00015
          0.005 0.0045517241379199 0.0003 0.0014444444444445 0.0049655172413669 0
          0.0014444444444445 0.0049655172413669 0.00015 0.0014444444444445 0.0049655172413669 0.0003
          0.0018888888888888 0.0049655172413669 0 0.0018888888888888 0.0049655172413669 0.00015
          0.0018888888888888 0.0049655172413669 0.0003 0.0023333333333333 0.0049655172413669 0
          0.0023333333333333 0.0049655172413669 0.00015 0.0023333333333333 0.0049655172413669 0.0003
          0.0027777777777768 0.0049655172413669 0 0.0027777777777768 0.0049655172413669 0.00015
          0.0027777777777768 0.0049655172413669 0.0003 0.0032222222222214 0.0049655172413669 0
          0.0032222222222214 0.0049655172413669 0.00015 0.0032222222222214 0.0049655172413669 0.0003
          0.0036666666666656 0.0049655172413669 0 0.0036666666666656 0.0049655172413669 0.00015
          0.0036666666666656 0.0049655172413669 0.0003 0.0041111111111108 0.0049655172413669 0
          0.0041111111111108 0.0049655172413669 0.00015 0.0041111111111108 0.0049655172413669 0.0003
          0.0045555555555557 0.0049655172413669 0 0.0045555555555557 0.0049655172413669 0.00015
          0.0045555555555557 0.0049655172413669 0.0003 0.005 0.0049655172413669 0
          0.005 0.0049655172413669 0.00015 0.005 0.0049655172413669 0.0003
          0.0014444444444445 0.0053793103448139 0 0.0014444444444445 0.0053793103448139 0.00015
          0.0014444444444445 0.0053793103448139 0.0003 0.0018888888888889 0.0053793103448139 0
          0.0018888888888889 0.0053793103448139 0.00015 0.0018888888888889 0.0053793103448139 0.0003
          0.0023333333333335 0.0053793103448139 0 0.0023333333333335 0.0053793103448139 0.00015
          0.0023333333333335 0.0053793103448139 0.0003 0.0027777777777771 0.0053793103448139 0
          0.0027777777777771 0.0053793103448139 0.00015 0.0027777777777771 0.0053793103448139 0.0003
          0.0032222222222217 0.0053793103448139 0 0.0032222222222217 0.0053793103448139 0.00015
          0.0032222222222217 0.0053793103448139 0.0003 0.0036666666666658 0.0053793103448139 0
          0.0036666666666658 0.0053793103448139 0.00015 0.0036666666666658 0.0053793103448139 0.0003
          0.004111111111111 0.0053793103448139 0 0.004111111111111 0.0053793103448139 0.00015
          0.004111111111111 0.0053793103448139 0.0003 0.0045555555555558 0.0053793103448139 0
          0.0045555555555558 0.0053793103448139 0.00015 0.0045555555555558 0.0053793103448139 0.0003
          0.005 0.0053793103448139 0 0.005 0.0053793103448139 0.00015
          0.005 0.0053793103448139 0.0003 0.0014444444444446 0.0057931034482612 0
          0.0014444444444446 0.0057931034482612 0.00015 0.0014444444444446 0.0057931034482612 0.0003
          0.001888888888889 0.0057931034482612 0 0.001888888888889 0.0057931034482612 0.00015
          0.001888888888889 0.0057931034482612 0.0003 0.0023333333333337 0.0057931034482612 0
          0.0023333333333337 0.0057931034482612 0.00015 0.0023333333333337 0.0057931034482612 0.0003
          0.0027777777777774 0.0057931034482612 0 0.0027777777777774 0.0057931034482612 0.00015
          0.0027777777777774 0.0057931034482612 0.0003 0.003222222222222 0.0057931034482612 0
          0.003222222222222 0.0057931034482612 0.00015 0.003222222222222 0.0057931034482612 0.0003
          0.0036666666666659 0.0057931034482612 0 0.0036666666666659 0.0057931034482612 0.00015
          0.0036666666666659 0.0057931034482612 0.0003 0.0041111111111112 0.0057931034482612 0
          0.0041111111111112 0.0057931034482612 0.00015 0.0041111111111112 0.0057931034482612 0.0003
          0.0045555555555558 0.0057931034482612 0 0.0045555555555558 0.0057931034482612 0.00015
          0.0045555555555558 0.0057931034482612 0.0003 0.005 0.0057931034482612 0
          0.005 0.0057931034482612 0.00015 0.005 0.0057931034482612 0.0003
          0.0018888888888891 0.0062068965517097 0 0.0018888888888891 0.0062068965517097 0.00015
          0.0018888888888891 0.0062068965517097 0.0003 0.0023333333333339 0.0062068965517097 0
          0.0023333333333339 0.0062068965517097 0.00015 0.0023333333333339 0.0062068965517097 0.0003
          0.0027777777777778 0.0062068965517097 0 0.0027777777777778 0.0062068965517097 0.00015
          0.0027777777777778 0.0062068965517097 0.0003 0.0032222222222224 0.0062068965517097 0
          0.0032222222222224 0.0062068965517097 0.00015 0.0032222222222224 0.0062068965517097 0.0003
          0.0036666666666661 0.0062068965517097 0 0.0036666666666661 0.0062068965517097 0.00015
          0.0036666666666661 0.0062068965517097 0.0003 0.0041111111111113 0.0062068965517097 0
          0.0041111111111113 0.0062068965517097 0.00015 0.0041111111111113 0.0062068965517097 0.0003
          0.0045555555555558 0.0062068965517097 0 0.0045555555555558 0.0062068965517097 0.00015
          0.0045555555555558 0.0062068965517097 0.0003 0.005 0.0062068965517097 0
          0.005 0.0062068965517097 0.00015 0.005 0.0062068965517097 0.0003
          0.0018888888888893 0.0066206896551586 0 0.0018888888888893 0.0066206896551586 0.00015
          0.0018888888888893 0.0066206896551586 0.0003 0.002333333333334 0.0066206896551586 0
          0.002333333333334 0.0066206896551586 0.00015 0.002333333333334 0.0066206896551586 0.0003
          0.0027777777777781 0.0066206896551586 0 0.0027777777777781 0.0066206896551586 0.00015
          0.0027777777777781 0.0066206896551586 0.0003 0.0032222222222227 0.0066206896551586 0
          0.0032222222222227 0.0066206896551586 0.00015 0.0032222222222227 0.0066206896551586 0.0003
          0.0036666666666663 0.0066206896551586 0 0.0036666666666663 0.0066206896551586 0.00015
          0.0036666666666663 0.0066206896551586 0.0003 0.0041111111111115 0.0066206896551586 0
          0.0041111111111115 0.0066206896551586 0.00015 0.0041111111111115 0.0066206896551586 0.0003
          0.0045555555555559 0.0066206896551586 0 0.0045555555555559 0.0066206896551586 0.00015
          0.0045555555555559 0.0066206896551586 0.0003 0.005 0.0066206896551586 0
          0.005 0.0066206896551586 0.00015 0.005 0.0066206896551586 0.0003
          0.0018888888888894 0.0070344827586082 0 0.0018888888888894 0.0070344827586082 0.00015
          0.0018888888888894 0.0070344827586082 0.0003 0.0023333333333342 0.0070344827586082 0
          0.0023333333333342 0.0070344827586082 0.00015 0.0023333333333342 0.0070344827586082 0.0003
          0.0027777777777784 0.0070344827586082 0 0.0027777777777784 0.0070344827586082 0.00015
          0.0027777777777784 0.0070344827586082 0.0003 0.003222222222223 0.0070344827586082 0
          0.003222222222223 0.0070344827586082 0.00015 0.003222222222223 0.0070344827586082 0.0003
          0.0036666666666665 0.0070344827586082 0 0.0036666666666665 0.0070344827586082 0.00015
          0.0036666666666665 0.0070344827586082 0.0003 0.0041111111111116 0.0070344827586082 0
          0.0041111111111116 0.0070344827586082 0.00015 0.0041111111111116 0.0070344827586082 0.0003
          0.0045555555555559 0.0070344827586082 0 0.0045555555555559 0.0070344827586082 0.00015
          0.0045555555555559 0.0070344827586082 0.0003 0.005 0.0070344827586082 0
          0.005 0.0070344827586082 0.00015 0.005 0.0070344827586082 0.0003
          0.0018888888888895 0.0074482758620575 0 0.0018888888888895 0.0074482758620575 0.00015
          0.0018888888888895 0.0074482758620575 0.0003 0.0023333333333344 0.0074482758620575 0
          0.0023333333333344 0.0074482758620575 0.00015 0.0023333333333344 0.0074482758620575 0.0003
          0.0027777777777787 0.0074482758620575 0 0.0027777777777787 0.0074482758620575 0.00015
          0.0027777777777787 0.0074482758620575 0.0003 0.0032222222222233 0.0074482758620575 0
          0.0032222222222233 0.0074482758620575 0.00015 0.0032222222222233 0.0074482758620575 0.0003
          0.0036666666666666 0.0074482758620576 0 0.0036666666666666 0.0074482758620576 0.00015
          0.0036666666666666 0.0074482758620576 0.0003 0.0041111111111118 0.0074482758620576 0
          0.0041111111111118 0.0074482758620576 0.00015 0.0041111111111118 0.0074482758620576 0.0003
          0.0045555555555559 0.0074482758620576 0 0.0045555555555559 0.0074482758620576 0.00015
          0.0045555555555559 0.0074482758620576 0.0003 0.005 0.0074482758620575 0
          0.005 0.0074482758620575 0.00015 0.005 0.0074482758620575 0.0003
          0.0023333333333346 0.0078620689655065 0 0.0023333333333346 0.0078620689655065 0.00015
          0.0023333333333346 0.0078620689655065 0.0003 0.002777777777779 0.0078620689655065 0
          0.002777777777779 0.0078620689655065 0.00015 0.002777777777779 0.0078620689655065 0.0003
          0.0032222222222236 0.0078620689655065 0 0.0032222222222236 0.0078620689655065 0.00015
          0.0032222222222236 0.0078620689655065 0.0003 0.0036666666666668 0.0078620689655065 0
          0.0036666666666668 0.0078620689655065 0.00015 0.0036666666666668 0.0078620689655065 0.0003
          0.0041111111111119 0.0078620689655065 0 0.0041111111111119 0.0078620689655065 0.00015
          0.0041111111111119 0.0078620689655065 0.0003 0.004555555555556 0.0078620689655065 0
          0.004555555555556 0.0078620689655065 0.00015 0.004555555555556 0.0078620689655065 0.0003
          0.005 0.0078620689655065 0 0.005 0.0078620689655065 0.00015
          0.005 0.0078620689655065 0.0003 0.0023333333333348 0.0082758620689564 0
          0.0023333333333348 0.0082758620689564 0.00015 0.0023333333333348 0.0082758620689564 0.0003
          0.0027777777777793 0.0082758620689564 0 0.0027777777777793 0.0082758620689564 0.00015
          0.0027777777777793 0.0082758620689564 0.0003 0.0032222222222239 0.0082758620689564 0
          0.0032222222222239 0.0082758620689564 0.00015 0.0032222222222239 0.0082758620689564 0.0003
          0.003666666666667 0.0082758620689564 0 0.003666666666667 0.0082758620689564 0.00015
          0.003666666666667 0.0082758620689564 0.0003 0.0041111111111121 0.0082758620689564 0
          0.0041111111111121 0.0082758620689564 0.00015 0.0041111111111121 0.0082758620689564 0.0003
          0.004555555555556 0.0082758620689564 0 0.004555555555556 0.0082758620689564 0.00015
          0.004555555555556 0.0082758620689564 0.0003 0.005 0.0082758620689564 0
          0.005 0.0082758620689564 0.00015 0.005 0.0082758620689564 0.0003
          0.002333333333335 0.0086896551724064 0 0.002333333333335 0.0086896551724064 0.00015
          0.002333333333335 0.0086896551724064 0.0003 0.0027777777777796 0.0086896551724064 0
          0.0027777777777796 0.0086896551724064 0.00015 0.0027777777777796 0.0086896551724064 0.0003
          0.0032222222222242 0.0086896551724064 0 0.0032222222222242 0.0086896551724064 0.00015
          0.0032222222222242 0.0086896551724064 0.0003 0.0036666666666672 0.0086896551724064 0
          0.0036666666666672 0.0086896551724064 0.00015 0.0036666666666672 0.0086896551724064 0.0003
          0.0041111111111122 0.0086896551724064 0 0.0041111111111122 0.0086896551724064 0.00015
          0.0041111111111122 0.0086896551724064 0.0003 0.004555555555556 0.0086896551724064 0
          0.004555555555556 0.0086896551724064 0.00015 0.004555555555556 0.0086896551724064 0.0003
          0.0023333333333351 0.0091034482758539 0 0.0023333333333351 0.0091034482758539 0.00015
          0.0023333333333351 0.0091034482758539 0.0003 0.0027777777777799 0.0091034482758539 0
          0.0027777777777799 0.0091034482758539 0.00015 0.0027777777777799 0.0091034482758539 0.0003
          0.0032222222222245 0.0091034482758539 0 0.0032222222222245 0.0091034482758539 0.00015
          0.0032222222222245 0.0091034482758539 0.0003 0.0036666666666673 0.0091034482758539 0
          0.0036666666666673 0.0091034482758539 0.00015 0.0036666666666673 0.0091034482758539 0.0003
          0.0041111111111124 0.0091034482758539 0 0.0041111111111124 0.0091034482758539 0.00015
          0.0041111111111124 0.0091034482758539 0.0003 0.0058597010152523 0.0063127004857001 0
          0.0053951839928307 0.0062556571299739 0 0.0053921082338215 0.005828945826549 0
          0.0057916174309905 0.0058352682535246 0 0.0058597010152523 0.0063127004857001 0.00015
          0.0053951839928307 0.0062556571299739 0.00015 0.0053921082338215 0.005828945826549 0.00015
          0.0057916174309905 0.0058352682535246 0.00015 0.0058597010152523 0.0063127004857001 0.0003
          0.0053951839928307 0.0062556571299739 0.0003 0.0053921082338215 0.005828945826549 0.0003
          0.0057916174309905 0.0058352682535246 0.0003 0.0057558905586118 0.0030553709280972 0
          0.0057130501801562 0.0035159257865852 0 0.005360618756523 0.0035837068269911 0
          0.0053739732009329 0.0031599138809835 0 0.0057558905586118 0.0030553709280972 0.00015
          0.0057130501801562 0.0035159257865852 0.00015 0.005360618756523 0.0035837068269911 0.00015
          0.0053739732009329 0.0031599138809835 0.00015 0.0057558905586118 0.0030553709280972 0.0003
          0.0057130501801562 0.0035159257865852 0.0003 0.005360618756523 0.0035837068269911 0.0003
          0.0053739732009329 0.0031599138809835 0.0003 0.0056439388514995 0.0075162532529611 0
          0.0053753336003136 0.0081134227852172 0 0.0053162760057692 0.0077147827843445 0
          0.0056439388514995 0.0075162532529611 0.00015 0.0053753336003136 0.0081134227852172 0.00015
          0.0053162760057692 0.0077147827843445 0.00015 0.0056439388514995 0.0075162532529611 0.0003
          0.0053753336003136 0.0081134227852172 0.0003 0.0053162760057692 0.0077147827843445 0.0003
          0.0059025575310583 0.0073410103875386 0 0.0059025575310583 0.0073410103875386 0.00015
          0.0059025575310583 0.0073410103875386 0.0003 0.005369078903807 0.0054112957512825 0
          0.0053441966179727 0.0050059769161847 0 0.0056930202847481 0.0049554676612008 0
          0.0057606246390047 0.0053811345728149 0 0.005369078903807 0.0054112957512825 0.00015
          0.0053441966179727 0.0050059769161847 0.00015 0.0056930202847481 0.0049554676612008 0.00015
          0.0057606246390047 0.0053811345728149 0.00015 0.005369078903807 0.0054112957512825 0.0003
          0.0053441966179727 0.0050059769161847 0.0003 0.0056930202847481 0.0049554676612008 0.0003
          0.0057606246390047 0.0053811345728149 0.0003 0.0057438065986578 0.0025718646608386 0
          0.0053684283361675 0.002728434685479 0 0.0057438065986578 0.0025718646608386 0.00015
          0.0053684283361675 0.002728434685479 0.00015 0.0057438065986578 0.0025718646608386 0.0003
          0.0053684283361675 0.002728434685479 0.0003 0.0061712548385041 0.0061513410385421 0
          0.006445117357903 0.0062971891343806 0 0.0062246515840748 0.0066057171706914 0
          0.0061712548385041 0.0061513410385421 0.00015 0.006445117357903 0.0062971891343806 0.00015
          0.0062246515840748 0.0066057171706914 0.00015 0.0061712548385041 0.0061513410385421 0.0003
          0.006445117357903 0.0062971891343806 0.0003 0.0062246515840748 0.0066057171706914 0.0003
          0.0053553835295756 0.0022900157905326 0 0.0057116151882083 0.0021168511926722 0
          0.0053553835295756 0.0022900157905326 0.00015 0.0057116151882083 0.0021168511926722 0.00015
          0.0053553835295756 0.0022900157905326 0.0003 0.0057116151882083 0.0021168511926722 0.0003
          0.0054233068561349 0.007134337670225 0 0.0059254586078826 0.006969673542248 0
          0.0054233068561349 0.007134337670225 0.00015 0.0059254586078826 0.006969673542248 0.00015
          0.0054233068561349 0.007134337670225 0.0003 0.0059254586078826 0.006969673542248 0.0003
          0.0057792643598707 0.0040250905144168 0 0.0057792643598707 0.0040250905144168 0.00015
          0.0057792643598707 0.0040250905144168 0.0003 0.0061880810420103 0.0058441905555885 0
          0.0066005814160285 0.0059502230786403 0 0.0061880810420103 0.0058441905555885 0.00015
          0.0066005814160285 0.0059502230786403 0.00015 0.0061880810420103 0.0058441905555885 0.0003
          0.0066005814160285 0.0059502230786403 0.0003 0.0054017220983371 0.0066575347525889 0
          0.0057115805714605 0.0066548075405697 0 0.0054017220983371 0.0066575347525889 0.00015
          0.0057115805714605 0.0066548075405697 0.00015 0.0054017220983371 0.0066575347525889 0.0003
          0.0057115805714605 0.0066548075405697 0.0003 0.005332609719228 0.0047287620137874 0
          0.0055816175545808 0.004587255111362 0 0.005332609719228 0.0047287620137874 0.00015
          0.0055816175545808 0.004587255111362 0.00015 0.005332609719228 0.0047287620137874 0.0003
          0.0055816175545808 0.004587255111362 0.0003 0.0053693194142364 0.0039518184911864 0
          0.0054474185858658 0.0042751360204936 0 0.0053693194142364 0.0039518184911864 0.00015
          0.0054474185858658 0.0042751360204936 0.00015 0.0053693194142364 0.0039518184911864 0.0003
          0.0054474185858658 0.0042751360204936 0.0003 0.0053395672611724 0.0018614292474742 0
          0.0053395672611724 0.0018614292474742 0.00015 0.0053395672611724 0.0018614292474742 0.0003
          0.0053367365074525 0.0010378216876611 0 0.0053236825500972 0.0014543115259673 0
          0.0053367365074525 0.0010378216876611 0.00015 0.0053236825500972 0.0014543115259673 0.00015
          0.0053367365074525 0.0010378216876611 0.0003 0.0053236825500972 0.0014543115259673 0.0003
          0.0056326688189693 0.0038271453778623 0 0.0056326688189693 0.0038271453778623 0.00015
          0.0056326688189693 0.0038271453778623 0.0003 0.0053236477572007 0.00066751117045644 0
          0.0053236477572007 0.00066751117045644 0.00015 0.0053236477572007 0.00066751117045644 0.0003
          0.0052365987891119 0.0074441888076402 0 0.0052365987891119 0.0074441888076402 0.00015
          0.0052365987891119 0.0074441888076402 0.0003 0.0052651323069134 0.00040272801788152 0
          0.0052651323069134 0.00040272801788152 0.00015 0.0052651323069134 0.00040272801788152 0.0003
          0.005675081773805 0.0016743369040255 0 0.005675081773805 0.0016743369040255 0.00015
          0.005675081773805 0.0016743369040255 0.0003 0.0056481668838523 0.0012062671985027 0
          0.0056481668838523 0.0012062671985027 0.00015 0.0056481668838523 0.0012062671985027 0.0003
          0.0055517738097912 0.00099492145317098 0 0.0055517738097912 0.00099492145317098 0.00015
          0.0055517738097912 0.00099492145317098 0.0003 0.005 0.0086896551724064 0
          0.005 0.0086896551724064 0.00015 0.005 0.0086896551724064 0.0003
          0.0045555555555561 0.0091034482758539 0 0.0045555555555561 0.0091034482758539 0.00015
          0.0045555555555561 0.0091034482758539 0.0003 0.005 0.0091034482758539 0
          0.005 0.0091034482758539 0.00015 0.005 0.0091034482758539 0.0003
          0.0027777777777802 0.0095172413793029 0 0.0023333333333353 0.0095172413793029 0
          0.0027777777777802 0.0095172413793029 0.00015 0.0023333333333353 0.0095172413793029 0.00015
          0.0027777777777802 0.0095172413793029 0.0003 0.0023333333333353 0.0095172413793029 0.0003
          0.0032222222222248 0.0095172413793029 0 0.0032222222222248 0.0095172413793029 0.00015
          0.0032222222222248 0.0095172413793029 0.0003 0.0036666666666675 0.0095172413793029 0
          0.0036666666666675 0.0095172413793029 0.00015 0.0036666666666675 0.0095172413793029 0.0003
          0.0041111111111126 0.0095172413793029 0 0.0041111111111126 0.0095172413793029 0.00015
          0.0041111111111126 0.0095172413793029 0.0003 0.0045555555555561 0.0095172413793029 0
          0.0045555555555561 0.0095172413793029 0.00015 0.0045555555555561 0.0095172413793029 0.0003
          0.0058653844060618 0.0079194158644502 0 0.0058653844060618 0.0079194158644502 0.00015
          0.0058653844060618 0.0079194158644502 0.0003 0.0061750164335738 0.0074760206739226 0
          0.0061750164335738 0.0074760206739226 0.00015 0.0061750164335738 0.0074760206739226 0.0003
          0.0060512178389602 0.0047929387822649 0 0.0062389906493372 0.0053128670028646 0
          0.0060512178389602 0.0047929387822649 0.00015 0.0062389906493372 0.0053128670028646 0.00015
          0.0060512178389602 0.0047929387822649 0.0003 0.0062389906493372 0.0053128670028646 0.0003
          0.0068354780286894 0.0065149558629347 0 0.0065694481807909 0.0068273110654121 0
          0.0068354780286894 0.0065149558629347 0.00015 0.0065694481807909 0.0068273110654121 0.00015
          0.0068354780286894 0.0065149558629347 0.0003 0.0065694481807909 0.0068273110654121 0.0003
          0.0061614658010566 0.0029736343202522 0 0.0061372854142827 0.0036106222238676 0
          0.0061614658010566 0.0029736343202522 0.00015 0.0061372854142827 0.0036106222238676 0.00015
          0.0061614658010566 0.0029736343202522 0.0003 0.0061372854142827 0.0036106222238676 0.0003
          0.0061231952422177 0.002444135475079 0 0.0061231952422177 0.002444135475079 0.00015
          0.0061231952422177 0.002444135475079 0.0003 0.0063586074578252 0.0071353312088165 0
          0.0063586074578252 0.0071353312088165 0.00015 0.0063586074578252 0.0071353312088165 0.0003
          0.005927800859391 0.0043689372395662 0 0.0063054236008776 0.0041223407032968 0
          0.005927800859391 0.0043689372395662 0.00015 0.0063054236008776 0.0041223407032968 0.00015
          0.005927800859391 0.0043689372395662 0.0003 0.0063054236008776 0.0041223407032968 0.0003
          0.0070635342364542 0.0061542378287001 0 0.0070635342364542 0.0061542378287001 0.00015
          0.0070635342364542 0.0061542378287001 0.0003 0.0071984303565192 0.0057392272964834 0
          0.0067200519522164 0.0055550541115669 0 0.0071984303565192 0.0057392272964834 0.00015
          0.0067200519522164 0.0055550541115669 0.00015 0.0071984303565192 0.0057392272964834 0.0003
          0.0067200519522164 0.0055550541115669 0.0003 0.0053754057810206 0.0085370600870078 0
          0.0053754057810206 0.0085370600870078 0.00015 0.0053754057810206 0.0085370600870078 0.0003
          0.0060722038988066 0.0019538017587265 0 0.0060722038988066 0.0019538017587265 0.00015
          0.0060722038988066 0.0019538017587265 0.0003 0.0055128205128194 0 0
          0.0057061681768373 0.00065177476244477 0 0.0055128205128194 0 0.00015
          0.0057061681768373 0.00065177476244477 0.00015 0.0055128205128194 0 0.0003
          0.0057061681768373 0.00065177476244477 0.0003 0.0060137569775388 0.0015029488511318 0
          0.0060137569775388 0.0015029488511318 0.00015 0.0060137569775388 0.0015029488511318 0.0003
          0.0059245902968253 0.0010856763727913 0 0.0059245902968253 0.0010856763727913 0.00015
          0.0059245902968253 0.0010856763727913 0.0003 0.0057785311780113 0.0084598603588589 0
          0.0057785311780113 0.0084598603588589 0.00015 0.0057785311780113 0.0084598603588589 0.0003
          <InformationKey name="L2_NORM_RANGE" location="vtkDataArray" length="2">
            <Value index="0">
              0.0018888888889
            </Value>
            <Value index="1">
              0.010555613194
            </Value>
          </InformationKey>
        </DataArray>
      </Points>
      <Cells>
        <DataArray type="Int64" Name="connectivity" format="ascii" RangeMin="0" RangeMax="779">
          6 0 1 7 8 2
          3 9 8 2 3 9
          10 4 5 11 12 6
          7 13 14 8 9 15
          14 8 9 15 16 10
          11 17 18 12 13 19
          20 14 15 21 20 14
          15 21 22 16 17 23
          24 18 19 25 26 20
          21 27 26 20 21 27
          28 22 23 29 30 24
          25 31 32 26 27 33
          32 26 27 33 34 28
          29 35 36 30 31 37
          38 32 33 39 38 32
          33 39 40 34 35 41
          42 36 37 43 44 38
          39 45 44 38 39 45
          46 40 41 47 51 48
          0 6 52 49 2 8
          52 49 2 8 53 50
          4 10 54 51 6 12
          55 52 8 14 55 52
          8 14 56 53 10 16
          57 54 12 18 58 55
          14 20 58 55 14 20
          59 56 16 22 60 57
          18 24 61 58 20 26
          61 58 20 26 62 59
          22 28 63 60 24 30
          64 61 26 32 64 61
          26 32 65 62 28 34
          66 63 30 36 67 64
          32 38 67 64 32 38
          68 65 34 40 69 66
          36 42 70 67 38 44
          70 67 38 44 71 68
          40 46 75 72 48 51
          76 73 49 52 76 73
          49 52 77 74 50 53
          78 75 51 54 79 76
          52 55 79 76 52 55
          80 77 53 56 81 78
          54 57 82 79 55 58
          82 79 55 58 83 80
          56 59 84 81 57 60
          85 82 58 61 85 82
          58 61 86 83 59 62
          87 84 60 63 88 85
          61 64 88 85 61 64
          89 86 62 65 90 87
          63 66 91 88 64 67
          91 88 64 67 92 89
          65 68 93 90 66 69
          94 91 67 70 94 91
          67 70 95 92 68 71
          99 96 72 75 100 97
          73 76 100 97 73 76
          101 98 74 77 102 99
          75 78 103 100 76 79
          103 100 76 79 104 101
          77 80 105 102 78 81
          106 103 79 82 106 103
          79 82 107 104 80 83
          108 105 81 84 109 106
          82 85 109 106 82 85
          110 107 83 86 111 108
          84 87 112 109 85 88
          112 109 85 88 113 110
          86 89 114 111 87 90
          115 112 88 91 115 112
          88 91 116 113 89 92
          117 114 90 93 118 115
          91 94 118 115 91 94
          119 116 92 95 123 120
          96 99 124 121 97 100
          124 121 97 100 125 122
          98 101 126 123 99 102
          127 124 100 103 127 124
          100 103 128 125 101 104
          129 126 102 105 130 127
          103 106 130 127 103 106
          131 128 104 107 132 129
          105 108 133 130 106 109
          133 130 106 109 134 131
          107 110 135 132 108 111
          136 133 109 112 136 133
          109 112 137 134 110 113
          138 135 111 114 139 136
          112 115 139 136 112 115
          140 137 113 116 141 138
          114 117 142 139 115 118
          142 139 115 118 143 140
          116 119 147 144 120 123
          148 145 121 124 148 145
          121 124 149 146 122 125
          150 147 123 126 151 148
          124 127 151 148 124 127
          152 149 125 128 153 150
          126 129 154 151 127 130
          154 151 127 130 155 152
          128 131 156 153 129 132
          157 154 130 133 157 154
          130 133 158 155 131 134
          159 156 132 135 160 157
          133 136 160 157 133 136
          161 158 134 137 162 159
          135 138 163 160 136 139
          163 160 136 139 164 161
          137 140 165 162 138 141
          166 163 139 142 166 163
          139 142 167 164 140 143
          174 171 144 147 175 172
          145 148 175 172 145 148
          176 173 146 149 177 174
          147 150 178 175 148 151
          178 175 148 151 179 176
          149 152 180 177 150 153
          181 178 151 154 181 178
          151 154 182 179 152 155
          183 180 153 156 184 181
          154 157 184 181 154 157
          185 182 155 158 186 183
          156 159 187 184 157 160
          187 184 157 160 188 185
          158 161 189 186 159 162
          190 187 160 163 190 187
          160 163 191 188 161 164
          192 189 162 165 193 190
          163 166 193 190 163 166
          194 191 164 167 198 195
          168 171 199 196 169 172
          199 196 169 172 200 197
          170 173 201 198 171 174
          202 199 172 175 202 199
          172 175 203 200 173 176
          204 201 174 177 205 202
          175 178 205 202 175 178
          206 203 176 179 207 204
          177 180 208 205 178 181
          208 205 178 181 209 206
          179 182 210 207 180 183
          211 208 181 184 211 208
          181 184 212 209 182 185
          213 210 183 186 214 211
          184 187 214 211 184 187
          215 212 185 188 216 213
          186 189 217 214 187 190
          217 214 187 190 218 215
          188 191 219 216 189 192
          220 217 190 193 220 217
          190 193 221 218 191 194
          225 222 195 198 226 223
          196 199 226 223 196 199
          227 224 197 200 228 225
          198 201 229 226 199 202
          229 226 199 202 230 227
          200 203 231 228 201 204
          232 229 202 205 232 229
          202 205 233 230 203 206
          234 231 204 207 235 232
          205 208 235 232 205 208
          236 233 206 209 237 234
          207 210 238 235 208 211
          238 235 208 211 239 236
          209 212 240 237 210 213
          241 238 211 214 241 238
          211 214 242 239 212 215
          243 240 213 216 244 241
          214 217 244 241 214 217
          245 242 215 218 246 243
          216 219 247 244 217 220
          247 244 217 220 248 245
          218 221 252 249 222 225
          253 250 223 226 253 250
          223 226 254 251 224 227
          255 252 225 228 256 253
          226 229 256 253 226 229
          257 254 227 230 258 255
          228 231 259 256 229 232
          259 256 229 232 260 257
          230 233 261 258 231 234
          262 259 232 235 262 259
          232 235 263 260 233 236
          264 261 234 237 265 262
          235 238 265 262 235 238
          266 263 236 239 267 264
          237 240 268 265 238 241
          268 265 238 241 269 266
          239 242 270 267 240 243
          271 268 241 244 271 268
          241 244 272 269 242 245
          273 270 243 246 274 271
          244 247 274 271 244 247
          275 272 245 248 279 276
          249 252 280 277 250 253
          280 277 250 253 281 278
          251 254 282 279 252 255
          283 280 253 256 283 280
          253 256 284 281 254 257
          285 282 255 258 286 283
          256 259 286 283 256 259
          287 284 257 260 288 285
          258 261 289 286 259 262
          289 286 259 262 290 287
          260 263 291 288 261 264
          292 289 262 265 292 289
          262 265 293 290 263 266
          294 291 264 267 295 292
          265 268 295 292 265 268
          296 293 266 269 297 294
          267 270 298 295 268 271
          298 295 268 271 299 296
          269 272 300 297 270 273
          301 298 271 274 301 298
          271 274 302 299 272 275
          306 303 276 279 307 304
          277 280 307 304 277 280
          308 305 278 281 309 306
          279 282 310 307 280 283
          310 307 280 283 311 308
          281 284 312 309 282 285
          313 310 283 286 313 310
          283 286 314 311 284 287
          315 312 285 288 316 313
          286 289 316 313 286 289
          317 314 287 290 318 315
          288 291 319 316 289 292
          319 316 289 292 320 317
          290 293 321 318 291 294
          322 319 292 295 322 319
          292 295 323 320 293 296
          324 321 294 297 325 322
          295 298 325 322 295 298
          326 323 296 299 327 324
          297 300 328 325 298 301
          328 325 298 301 329 326
          299 302 333 330 303 306
          334 331 304 307 334 331
          304 307 335 332 305 308
          336 333 306 309 337 334
          307 310 337 334 307 310
          338 335 308 311 339 336
          309 312 340 337 310 313
          340 337 310 313 341 338
          311 314 342 339 312 315
          343 340 313 316 343 340
          313 316 344 341 314 317
          345 342 315 318 346 343
          316 319 346 343 316 319
          347 344 317 320 348 345
          318 321 349 346 319 322
          349 346 319 322 350 347
          320 323 351 348 321 324
          352 349 322 325 352 349
          322 325 353 350 323 326
          354 351 324 327 355 352
          325 328 355 352 325 328
          356 353 326 329 360 357
          330 333 361 358 331 334
          361 358 331 334 362 359
          332 335 363 360 333 336
          364 361 334 337 364 361
          334 337 365 362 335 338
          366 363 336 339 367 364
          337 340 367 364 337 340
          368 365 338 341 369 366
          339 342 370 367 340 343
          370 367 340 343 371 368
          341 344 372 369 342 345
          373 370 343 346 373 370
          343 346 374 371 344 347
          375 372 345 348 376 373
          346 349 376 373 346 349
          377 374 347 350 378 375
          348 351 379 376 349 352
          379 376 349 352 380 377
          350 353 381 378 351 354
          382 379 352 355 382 379
          352 355 383 380 353 356
          387 384 360 363 388 385
          361 364 388 385 361 364
          389 386 362 365 390 387
          363 366 391 388 364 367
          391 388 364 367 392 389
          365 368 393 390 366 369
          394 391 367 370 394 391
          367 370 395 392 368 371
          396 393 369 372 397 394
          370 373 397 394 370 373
          398 395 371 374 399 396
          372 375 400 397 373 376
          400 397 373 376 401 398
          374 377 402 399 375 378
          403 400 376 379 403 400
          376 379 404 401 377 380
          405 402 378 381 406 403
          379 382 406 403 379 382
          407 404 380 383 411 408
          384 387 412 409 385 388
          412 409 385 388 413 410
          386 389 414 411 387 390
          415 412 388 391 415 412
          388 391 416 413 389 392
          417 414 390 393 418 415
          391 394 418 415 391 394
          419 416 392 395 420 417
          393 396 421 418 394 397
          421 418 394 397 422 419
          395 398 423 420 396 399
          424 421 397 400 424 421
          397 400 425 422 398 401
          426 423 399 402 427 424
          400 403 427 424 400 403
          428 425 401 404 429 426
          402 405 430 427 403 406
          430 427 403 406 431 428
          404 407 435 432 408 411
          436 433 409 412 436 433
          409 412 437 434 410 413
          438 435 411 414 439 436
          412 415 439 436 412 415
          440 437 413 416 441 438
          414 417 442 439 415 418
          442 439 415 418 443 440
          416 419 444 441 417 420
          445 442 418 421 445 442
          418 421 446 443 419 422
          447 444 420 423 448 445
          421 424 448 445 421 424
          449 446 422 425 450 447
          423 426 451 448 424 427
          451 448 424 427 452 449
          425 428 453 450 426 429
          454 451 427 430 454 451
          427 430 455 452 428 431
          459 456 432 435 460 457
          433 436 460 457 433 436
          461 458 434 437 462 459
          435 438 463 460 436 439
          463 460 436 439 464 461
          437 440 465 462 438 441
          466 463 439 442 466 463
          439 442 467 464 440 443
          468 465 441 444 469 466
          442 445 469 466 442 445
          470 467 443 446 471 468
          444 447 472 469 445 448
          472 469 445 448 473 470
          446 449 474 471 447 450
          475 472 448 451 475 472
          448 451 476 473 449 452
          477 474 450 453 478 475
          451 454 478 475 451 454
          479 476 452 455 483 480
          459 462 484 481 460 463
          484 481 460 463 485 482
          461 464 486 483 462 465
          487 484 463 466 487 484
          463 466 488 485 464 467
          489 486 465 468 490 487
          466 469 490 487 466 469
          491 488 467 470 492 489
          468 471 493 490 469 472
          493 490 469 472 494 491
          470 473 495 492 471 474
          496 493 472 475 496 493
          472 475 497 494 473 476
          498 495 474 477 499 496
          475 478 499 496 475 478
          500 497 476 479 504 501
          480 483 505 502 481 484
          505 502 481 484 506 503
          482 485 507 504 483 486
          508 505 484 487 508 505
          484 487 509 506 485 488
          510 507 486 489 511 508
          487 490 511 508 487 490
          512 509 488 491 513 510
          489 492 514 511 490 493
          514 511 490 493 515 512
          491 494 516 513 492 495
          517 514 493 496 517 514
          493 496 518 515 494 497
          519 516 495 498 520 517
          496 499 520 517 496 499
          521 518 497 500 525 522
          501 504 526 523 502 505
          526 523 502 505 527 524
          503 506 528 525 504 507
          529 526 505 508 529 526
          505 508 530 527 506 509
          531 528 507 510 532 529
          508 511 532 529 508 511
          533 530 509 512 534 531
          510 513 535 532 511 514
          535 532 511 514 536 533
          512 515 537 534 513 516
          538 535 514 517 538 535
          514 517 539 536 515 518
          687 537 516 519 688 538
          517 520 688 538 517 520
          689 539 518 521 543 540
          522 525 544 541 523 526
          544 541 523 526 545 542
          524 527 546 543 525 528
          547 544 526 529 547 544
          526 529 548 545 527 530
          549 546 528 531 550 547
          529 532 550 547 529 532
          551 548 530 533 552 549
          531 534 553 550 532 535
          553 550 532 535 554 551
          533 536 690 552 534 537
          691 553 535 538 691 553
          535 538 692 554 536 539
          693 690 537 687 694 691
          538 688 694 691 538 688
          695 692 539 689 696 697
          540 543 698 699 541 544
          698 699 541 544 700 701
          542 545 702 696 543 546
          703 698 544 547 703 698
          544 547 704 700 545 548
          705 702 546 549 706 703
          547 550 706 703 547 550
          707 704 548 551 708 705
          549 552 709 706 550 553
          709 706 550 553 710 707
          551 554 711 708 552 690
          712 709 553 691 712 709
          553 691 713 710 554 692
          555 556 557 558 559 560
          561 562 559 560 561 562
          563 564 565 566 567 568
          569 570 571 572 573 574
          571 572 573 574 575 576
          577 578 579 714 580 581
          582 715 583 584 582 715
          583 584 585 716 586 587
          579 588 717 714 582 589
          718 715 582 589 718 715
          585 590 719 716 591 592
          593 594 595 596 597 598
          595 596 597 598 599 600
          601 602 594 558 557 591
          598 562 561 595 598 562
          561 595 602 566 565 599
          603 567 570 604 605 571
          574 606 605 571 574 606
          607 575 578 608 555 609
          610 611 559 612 613 614
          559 612 613 614 563 615
          616 617 594 593 720 721
          598 597 722 723 598 597
          722 723 602 601 724 725
          726 727 611 610 728 729
          614 613 728 729 614 613
          730 731 617 616 567 732
          733 568 571 734 735 572
          571 734 735 572 575 736
          737 576 604 618 619 603
          606 620 621 605 606 620
          621 605 608 622 623 607
          567 603 738 732 571 605
          739 734 571 605 739 734
          575 607 740 736 579 624
          625 588 582 626 627 589
          582 626 627 589 585 628
          629 590 625 741 717 588
          627 742 718 589 627 742
          718 589 629 743 719 590
          744 630 733 745 746 631
          735 747 746 631 735 747
          748 632 737 749 633 634
          610 609 635 636 613 612
          635 636 613 612 637 638
          616 615 634 750 726 610
          636 751 728 613 636 751
          728 613 638 752 730 616
          555 558 633 609 559 562
          635 612 559 562 635 612
          563 566 637 615 753 750
          634 754 755 751 636 756
          755 751 636 756 757 752
          638 758 639 640 625 624
          641 642 627 626 641 642
          627 626 643 644 629 628
          625 611 727 741 627 614
          729 742 627 614 729 742
          629 617 731 743 634 633
          721 754 636 635 723 756
          636 635 723 756 638 637
          725 758 580 759 687 519
          583 760 688 520 583 760
          688 520 586 761 689 521
          581 580 519 498 584 583
          520 499 584 583 520 499
          587 586 521 500 592 645
          646 593 596 647 648 597
          596 647 648 597 600 649
          650 601 651 652 300 273
          653 654 301 274 653 654
          301 274 655 656 302 275
          569 651 273 246 573 653
          274 247 573 653 274 247
          577 655 275 248 556 405
          381 557 560 406 382 561
          560 406 382 561 564 407
          383 565 570 569 246 219
          574 573 247 220 574 573
          247 220 578 577 248 221
          557 381 354 591 561 382
          355 595 561 382 355 595
          565 383 356 599 604 570
          219 192 606 574 220 193
          606 574 220 193 608 578
          221 194 640 555 611 625
          642 559 614 627 642 559
          614 627 644 563 617 629
          618 604 192 165 620 606
          193 166 620 606 193 166
          622 608 194 167 657 618
          165 141 658 620 166 142
          658 620 166 142 659 622
          167 143 660 661 117 93
          662 663 118 94 662 663
          118 94 664 665 119 95
          661 657 141 117 663 658
          142 118 663 658 142 118
          665 659 143 119 762 738
          603 619 763 739 605 621
          763 739 605 621 764 740
          607 623 429 639 624 453
          430 641 626 454 430 641
          626 454 431 643 628 455
          666 568 733 630 667 572
          735 631 667 572 735 631
          668 576 737 632 669 660
          93 69 670 662 94 70
          670 662 94 70 671 664
          95 71 592 327 300 645
          596 328 301 647 596 328
          301 647 600 329 302 649
          721 633 558 594 723 635
          562 598 723 635 562 598
          725 637 566 602 744 720
          593 646 746 722 597 648
          746 722 597 648 748 724
          601 650 477 453 624 672
          478 454 626 673 478 454
          626 673 479 455 628 674
          327 592 591 354 328 596
          595 355 328 596 595 355
          329 600 599 356 669 675
          765 766 670 676 767 768
          670 676 767 768 671 677
          769 770 639 429 405 556
          641 430 406 560 641 430
          406 560 643 431 407 564
          581 672 624 579 584 673
          626 582 584 673 626 582
          587 674 628 585 678 619
          618 657 679 621 620 658
          679 621 620 658 680 623
          622 659 42 43 765 675
          44 45 767 676 44 45
          767 676 46 47 769 677
          646 645 300 652 648 647
          301 654 648 647 301 654
          650 649 302 656 619 678
          771 762 621 679 772 763
          621 679 772 763 623 680
          773 764 744 646 652 630
          746 648 654 631 746 648
          654 631 748 650 656 632
          678 681 774 771 679 682
          775 772 679 682 775 772
          680 683 776 773 681 678
          657 661 682 679 658 663
          682 679 658 663 683 680
          659 665 666 630 652 651
          667 631 654 653 667 631
          654 653 668 632 656 655
          651 569 568 666 653 573
          572 667 653 573 572 667
          655 577 576 668 681 684
          766 774 682 685 768 775
          682 685 768 775 683 686
          770 776 759 580 714 777
          760 583 715 778 760 583
          715 778 761 586 716 779
          672 581 498 477 673 584
          499 478 673 584 499 478
          674 587 500 479 639 556
          555 640 641 560 559 642
          641 560 559 642 643 564
          563 644 675 669 69 42
          676 670 70 44 676 670
          70 44 677 671 71 46
          684 681 661 660 685 682
          663 662 685 682 663 662
          686 683 665 664 660 669
          766 684 662 670 768 685
          662 670 768 685 664 671
          770 686
        </DataArray>
        <DataArray type="Int64" Name="offsets" format="ascii" RangeMin="8" RangeMax="3632">
          8 16 24 32 40 48
          56 64 72 80 88 96
          104 112 120 128 136 144
          152 160 168 176 184 192
          200 208 216 224 232 240
          248 256 264 272 280 288
          296 304 312 320 328 336
          344 352 360 368 376 384
          392 400 408 416 424 432
          440 448 456 464 472 480
          488 496 504 512 520 528
          536 544 552 560 568 576
          584 592 600 608 616 624
          632 640 648 656 664 672
          680 688 696 704 712 720
          728 736 744 752 760 768
          776 784 792 800 808 816
          824 832 840 848 856 864
          872 880 888 896 904 912
          920 928 936 944 952 960
          968 976 984 992 1000 1008
          1016 1024 1032 1040 1048 1056
          1064 1072 1080 1088 1096 1104
          1112 1120 1128 1136 1144 1152
          1160 1168 1176 1184 1192 1200
          1208 1216 1224 1232 1240 1248
          1256 1264 1272 1280 1288 1296
          1304 1312 1320 1328 1336 1344
          1352 1360 1368 1376 1384 1392
          1400 1408 1416 1424 1432 1440
          1448 1456 1464 1472 1480 1488
          1496 1504 1512 1520 1528 1536
          1544 1552 1560 1568 1576 1584
          1592 1600 1608 1616 1624 1632
          1640 1648 1656 1664 1672 1680
          1688 1696 1704 1712 1720 1728
          1736 1744 1752 1760 1768 1776
          1784 1792 1800 1808 1816 1824
          1832 1840 1848 1856 1864 1872
          1880 1888 1896 1904 1912 1920
          1928 1936 1944 1952 1960 1968
          1976 1984 1992 2000 2008 2016
          2024 2032 2040 2048 2056 2064
          2072 2080 2088 2096 2104 2112
          2120 2128 2136 2144 2152 2160
          2168 2176 2184 2192 2200 2208
          2216 2224 2232 2240 2248 2256
          2264 2272 2280 2288 2296 2304
          2312 2320 2328 2336 2344 2352
          2360 2368 2376 2384 2392 2400
          2408 2416 2424 2432 2440 2448
          2456 2464 2472 2480 2488 2496
          2504 2512 2520 2528 2536 2544
          2552 2560 2568 2576 2584 2592
          2600 2608 2616 2624 2632 2640
          2648 2656 2664 2672 2680 2688
          2696 2704 2712 2720 2728 2736
          2744 2752 2760 2768 2776 2784
          2792 2800 2808 2816 2824 2832
          2840 2848 2856 2864 2872 2880
          2888 2896 2904 2912 2920 2928
          2936 2944 2952 2960 2968 2976
          2984 2992 3000 3008 3016 3024
          3032 3040 3048 3056 3064 3072
          3080 3088 3096 3104 3112 3120
          3128 3136 3144 3152 3160 3168
          3176 3184 3192 3200 3208 3216
          3224 3232 3240 3248 3256 3264
          3272 3280 3288 3296 3304 3312
          3320 3328 3336 3344 3352 3360
          3368 3376 3384 3392 3400 3408
          3416 3424 3432 3440 3448 3456
          3464 3472 3480 3488 3496 3504
          3512 3520 3528 3536 3544 3552
          3560 3568 3576 3584 3592 3600
          3608 3616 3624 3632
        </DataArray>
        <DataArray type="UInt8" Name="types" format="ascii" RangeMin="12" RangeMax="12">
          12 12 12 12 12 12
          12 12 12 12 12 12
          12 12 12 12 12 12
          12 12 12 12 12 12
          12 12 12 12 12 12
          12 12 12 12 12 12
          12 12 12 12 12 12
          12 12 12 12 12 12
          12 12 12 12 12 12
          12 12 12 12 12 12
          12 12 12 12 12 12
          12 12 12 12 12 12
          12 12 12 12 12 12
          12 12 12 12 12 12
          12 12 12 12 12 12
          12 12 12 12 12 12
          12 12 12 12 12 12
          12 12 12 12 12 12
          12 12 12 12 12 12
          12 12 12 12 12 12
          12 12 12 12 12 12
          12 12 12 12 12 12
          12 12 12 12 12 12
          12 12 12 12 12 12
          12 12 12 12 12 12
          12 12 12 12 12 12
          12 12 12 12 12 12
          12 12 12 12 12 12
          12 12 12 12 12 12
          12 12 12 12 12 12
          12 12 12 12 12 12
          12 12 12 12 12 12
          12 12 12 12 12 12
          12 12 12 12 12 12
          12 12 12 12 12 12
          12 12 12 12 12 12
          12 12 12 12 12 12
          12 12 12 12 12 12
          12 12 12 12 12 12
          12 12 12 12 12 12
          12 12 12 12 12 12
          12 12 12 12 12 12
          12 12 12 12 12 12
          12 12 12 12 12 12
          12 12 12 12 12 12
          12 12 12 12 12 12
          12 12 12 12 12 12
          12 12 12 12 12 12
          12 12 12 12 12 12
          12 12 12 12 12 12
          12 12 12 12 12 12
          12 12 12 12 12 12
          12 12 12 12 12 12
          12 12 12 12 12 12
          12 12 12 12 12 12
          12 12 12 12 12 12
          12 12 12 12 12 12
          12 12 12 12 12 12
          12 12 12 12 12 12
          12 12 12 12 12 12
          12 12 12 12 12 12
          12 12 12 12 12 12
          12 12 12 12 12 12
          12 12 12 12 12 12
          12 12 12 12 12 12
          12 12 12 12 12 12
          12 12 12 12 12 12
          12 12 12 12 12 12
          12 12 12 12 12 12
          12 12 12 12 12 12
          12 12 12 12 12 12
          12 12 12 12 12 12
          12 12 12 12 12 12
          12 12 12 12 12 12
          12 12 12 12 12 12
          12 12 12 12
        </DataArray>
      </Cells>
    </Piece>
  </UnstructuredGrid>
</VTKFile>
