<?xml version="1.0"?>
<VTKFile type="UnstructuredGrid" version="0.1" byte_order="LittleEndian" header_type="UInt32" compressor="vtkZLibDataCompressor">
  <UnstructuredGrid>
    <Piece NumberOfPoints="756" NumberOfCells="468">
      <PointData>
        <DataArray type="Int32" Name="libmesh_node_id" format="ascii" RangeMin="120" RangeMax="2168">
          120 121 122 123 124 125
          126 127 128 129 130 131
          132 133 134 135 136 137
          138 139 140 141 142 143
          144 145 146 147 148 149
          150 151 152 153 154 155
          156 157 158 159 160 161
          162 163 164 165 166 167
          168 169 170 171 172 173
          174 175 176 177 178 179
          240 241 242 243 244 245
          246 247 248 249 250 251
          252 253 254 255 256 257
          258 259 260 261 262 263
          264 265 266 267 268 269
          330 331 332 333 334 335
          336 337 338 339 340 341
          342 343 344 345 346 347
          348 349 350 351 352 353
          354 355 356 357 358 359
          420 421 422 423 424 425
          426 427 428 429 430 431
          432 433 434 435 436 437
          438 439 440 441 442 443
          444 445 446 447 448 449
          510 511 512 513 514 515
          516 517 518 519 520 521
          522 523 524 525 526 527
          528 529 530 531 532 533
          534 535 536 537 538 539
          600 601 602 603 604 605
          606 607 608 609 610 611
          612 613 614 615 616 617
          618 619 620 621 622 623
          624 625 626 627 628 629
          690 691 692 693 694 695
          696 697 698 699 700 701
          702 703 704 705 706 707
          708 709 710 711 712 713
          714 715 716 717 718 719
          780 781 782 783 784 785
          786 787 788 789 790 791
          792 793 794 795 796 797
          798 799 800 801 802 803
          804 805 806 807 808 809
          876 877 878 879 880 881
          882 883 884 885 886 887
          888 889 890 891 892 893
          894 895 896 897 898 899
          900 901 902 903 904 905
          906 907 908 909 910 911
          912 913 914 915 916 917
          918 919 920 921 922 923
          924 925 926 927 928 929
          930 931 932 933 934 935
          936 937 938 939 940 941
          942 943 944 945 946 947
          948 949 950 951 952 953
          954 955 956 957 958 959
          960 961 962 963 964 965
          966 967 968 969 970 971
          972 973 974 975 976 977
          978 979 980 981 982 983
          984 985 986 987 988 989
          990 991 992 993 994 995
          996 997 998 999 1000 1001
          1002 1003 1004 1005 1006 1007
          1008 1009 1010 1011 1012 1013
          1014 1015 1016 1017 1018 1019
          1020 1021 1022 1023 1024 1025
          1026 1027 1028 1029 1030 1031
          1032 1033 1034 1035 1036 1037
          1038 1039 1040 1041 1042 1043
          1044 1045 1046 1047 1048 1049
          1050 1051 1052 1053 1054 1055
          1056 1057 1058 1059 1060 1061
          1062 1063 1064 1065 1066 1067
          1068 1069 1070 1071 1072 1073
          1074 1075 1076 1077 1078 1079
          1080 1081 1082 1083 1084 1085
          1086 1087 1088 1089 1090 1091
          1092 1093 1094 1095 1096 1097
          1098 1099 1100 1101 1102 1103
          1104 1105 1106 1107 1108 1109
          1110 1111 1112 1113 1114 1115
          1116 1117 1118 1119 1120 1121
          1122 1123 1124 1125 1126 1127
          1128 1129 1130 1131 1132 1133
          1134 1135 1136 1137 1138 1139
          1140 1141 1142 1143 1144 1145
          1146 1147 1148 1149 1150 1151
          1152 1153 1154 1155 1156 1157
          1158 1159 1160 1161 1162 1163
          1164 1165 1166 1167 1168 1169
          1170 1171 1172 1173 1174 1175
          1176 1177 1178 1179 1180 1181
          1182 1183 1184 1185 1186 1187
          1188 1189 1190 1191 1192 1193
          1194 1195 1196 1197 1198 1199
          1200 1201 1202 1203 1204 1205
          1206 1207 1208 1209 1210 1211
          1212 1213 1214 1215 1216 1217
          1218 1219 1220 1221 1222 1223
          1224 1225 1226 1227 1228 1229
          1230 1231 1232 1233 1234 1235
          1236 1237 1238 1239 1240 1241
          1242 1243 1244 1245 1246 1247
          1248 1249 1250 1251 1252 1253
          1254 1255 1256 1257 1258 1259
          1260 1261 1262 1263 1264 1265
          1266 1267 1268 1269 1270 1271
          1893 1894 1895 1896 1897 1898
          1920 1921 1922 1923 1924 1925
          1947 1948 1949 1974 1975 1976
          2001 2002 2003 2028 2029 2030
          2055 2056 2057 2112 2113 2114
          2115 2116 2117 2124 2125 2126
          2127 2128 2129 2130 2131 2132
          2133 2134 2135 2148 2149 2150
          2151 2152 2153 2164 2166 2168
          1926 1899 1927 1900 1928 1901
          1950 1951 1952 1953 1954 1955
          1977 1978 1979 2004 2005 2006
          2031 2032 2033 2058 2059 2060
          2142 2144 2146 2163 2143 2096
          2165 2145 2100 2167 2147 2104
        </DataArray>
        <DataArray type="Float64" Name="resid_x" format="ascii" RangeMin="-20.101460293534906" RangeMax="0.10670611027116458">
          -0.02347295813466488 -8.132822796983934 -0.05426930920091255 -16.353262031252072 -0.03123972679393905 -8.309651527814173
          -0.02406611807487291 -8.204223059409024 -0.03731374984268765 -16.584563235589318 -0.008975774805386472 -8.576831929499484
          -0.0015652487361341727 -8.332034889721601 -0.00028828122118174093 -16.905180727209196 -0.0012447577417527 -8.933046793364252
          -0.00048460903933911226 -8.523167076404267 -0.0001536494689897694 -17.296560046907437 -0.0023640125087460717 -9.31698209209727
          0.00024748404428720505 -8.786146760471862 0.0008428591684612741 -17.74103310748012 -0.0026258762072846054 -9.608844351743537
          0.0005108442095300703 -9.037314182116603 0.0010158314871162588 -18.140741498405944 -0.0020025938017260714 -9.709668248467574
          0.0011169449634280681 -9.267831762837613 0.0015241893950204144 -18.529395209157876 -0.001603239683557689 -9.597522558675934
          0.0013510752753767008 -9.573933585069508 0.0016445278117229734 -19.051380663313978 0.0007807992733681601 -9.29270553738104
          0.004338981945192444 -10.14367902271981 0.007113765811230799 -20.101460293534906 0.007853319360993094 -8.818684314266966
          0.011677903359995412 -6.301540728532665 0.02080341419162335 -12.430015991472393 0.016362006816114855 -4.810598781197704
          -0.046016113508035694 -0.07630945075473328 -0.020152327023652994 -0.0165660277956583 -0.01563801096484685 -0.002232491343095333
          -0.0006487537488171213 0.00007258881578220411 -0.0018534473734082013 0.00006863045232563536 0.0001507540409457775 -0.0038387951504326168
          0.001356281273158011 0.0015931078722335457 -0.0036033561507125 0.002025305732118454 0.002042794498225753 -0.0026542280618544467
          0.003730753667992026 0.003496743666018709 -0.0020140181779542132 0.004067284485866018 0.0053893754378275815 0.00345966602659864
          0.00842820172535319 0.013347741088142406 0.01669479001275187 0.014405461543138154 0.024838418841598875 0.027781348152116192
          -0.017020833032682425 -0.013839619385686674 -0.0008536408578612154 -0.0010933433201794074 -0.00005841355059921227 -0.0018924151227110997
          -0.0008501936945783939 -0.0003187423321655558 -0.004006851605581119 -0.00015408102684411062 -0.00029169547707841303 -0.005992899048437472
          0.0006074574580621217 0.0009612893601982364 -0.005103866385007372 0.0006102707028947663 0.0016317418550384488 -0.003177085279273406
          0.003402074578164438 0.0022597027656638957 -0.0019408310142035035 0.0038515129455873875 0.005235580242922033 0.005636903162970164
          0.010205510444175836 0.01663369062815434 0.023648046005459555 0.01985946713383866 0.036180067457316216 0.039652858594372155
          -0.00028008124866385486 -0.0000455162094858963 -0.0015795705775589752 -0.0007390158395805813 0.00009282109364061597 -0.0030417391594275145
          -0.0006021880149349457 -0.000580862231708501 -0.006019202199810003 -0.00027208269476819424 -0.00027321861034934614 -0.007635250181462716
          0.00046724714032109205 0.0011330717654178812 -0.00619703359206536 0.0005500950754555589 0.0007510463527884426 -0.0032129504489848415
          0.0028767230162562996 0.0020196567305648117 -0.00012671305751776885 0.003714182929912546 0.005594546404458001 0.009259166093438242
          0.010362793767014544 0.017279145631615478 0.027220111629978394 0.01881208261472067 0.032006887938540673 0.0387999888724162
          -0.00042729628042348367 0.000512847358891122 -0.0035188326598643016 -0.00030389372922101643 0.0004899371418991549 -0.005525400712930839
          -0.00028694492326586385 -0.0007210949012605994 -0.00858604832485188 -0.00014899333489548638 0.00010056697692428784 -0.00907511885983503
          0.00046993609034995387 0.0015580891797863927 -0.007069243638206935 0.00013346415160331304 0.00010447788610434827 -0.004187066826347952
          0.0020377289864503823 0.0023141717722694466 0.0024520990117027353 0.003260754414688982 0.005140626785247626 0.012377247929923563
          0.009178370675403613 0.015350343088714524 0.029695508665917192 0.011519142597594456 0.02034251072474702 0.035526521182238646
          -0.00012378688206116095 0.00039933461683716587 -0.005805137451247333 -0.0002900309291193892 0.0000515785138253122 -0.007989990583968876
          -0.0006646345758785088 -0.0009292832404828033 -0.01000344083564908 -0.00004119832552440528 0.0004342665252146105 -0.009911136764726436
          0.00020308649584599436 0.0012109754331541822 -0.007371096051278947 -0.0007727046647723057 -0.00022372909485923742 -0.00407026465071425
          0.0014828881144524075 0.002846604095720018 0.004650387279332868 0.003319952693291661 0.005642398405024451 0.014840663539574805
          0.007683402409960571 0.01304597241137273 0.03096910895464866 0.008601787547026563 0.01594089526143283 0.03254143941796139
          -0.0007292586469835882 -0.0003116919520200767 -0.0075883109582655095 -0.0014817155250232972 -0.0010373704692527852 -0.009781750086772512
          -0.0010124641482898156 -0.00045981454970345226 -0.01049401416586715 0.00018582050483662016 0.0007350340277119116 -0.010071743257707322
          -0.0001364079258001638 0.0002796311697377263 -0.007305986890769223 -0.0010553074309385124 -0.0013705620472626023 -0.0035857348454735316
          0.001772361859147864 0.004331172910311487 0.005793096382155305 0.0037988047088139965 0.006881589078179928 0.016210099243661347
          0.005847528574282279 0.010656409531955902 0.02916679026110458 0.005242199474688403 0.011163113817172499 0.026949653062778522
          -0.006779775079412076 -0.012477638848805483 -0.014233265976001164 -0.00623415184416487 -0.011521239888875101 -0.014378800329357233
          -0.0012570410953358646 -0.0019933800371756405 -0.009228198036905333 -0.000023969078396746113 -0.00014548146154602648 -0.009698147434772153
          -0.0005290395254622382 -0.0010381561385379712 -0.007716077383208564 0.00025565968125906835 -0.0003137360430400804 -0.0045900143705113194
          0.003435294172654757 0.006511358359171382 0.006274580109876027 0.00436332461825284 0.007893119628042733 0.017337384445694326
          0.005080377674476999 0.010698708232250276 0.028724015316449858 0.000019477944784629386 0.0011563887032763898 0.020155072018187115
          0.005803805470260492 0.011512710342122645 -0.005969497350359898 0.005690923479120258 0.008060485260083183 -0.002201485146307469
          0.0005422648207127345 -0.0017673624823819623 -0.004838041732614595 0.00006211159653091158 -0.0010169831921080785 0.0027576563666285026
          0.002328814883196806 0.005318868385467468 0.01626034208023519 -0.000022387178852056877 -0.0011493120985655025 0.025796671284187944
          0.0006924389946769693 -0.00008363118498611044 0.04116250871624949 -0.0011943063358321737 -0.004837659794608928 0.027894091646231356
          -0.004573628652764335 -0.01017919880375473 -0.003576765621209649 -0.0039825313999504175 -0.009605913980123088 -0.03195205119155997
          -0.01640386857669421 -0.008719923224599357 -0.0017102550101937078 -0.04015041176677325 -0.01805075341671636 -0.0029745462718441806
          -0.002111885647967632 -0.0033871028076858274 -0.004376332391320598 -0.0068266503230176995 -0.00324623657678183 -0.003562392906088771
          -0.0020361032984712174 -0.0016465831571624602 -0.002323846446914593 -0.0037886854407628984 -0.0032301878817155285 -0.005144794336166599
          -0.0002760312920202235 -0.0011453538804613375 -0.003444134693554618 -0.0014027738596160688 0.0014371720853905146 -0.007709021288810791
          0.0014222892934341869 -0.0035525431495636584 -0.0018934410354235487 -0.013023248203990367 0.0022263186935931323 0.0036554011351246363
          0.009677121752417694 0.0013379002311458832 0.0049512285138598455 -0.004815753551950075 -0.001192984164070432 -0.0021473072617109734
          -0.0015202671303338189 -0.00787970483484357 -0.004746431847687194 -0.002633812956488457 -0.00010246229677764174 0.019586486435771988
          0.015845958812631067 0.012696310736229899 0.009905230230243811 0.00031372156964049047 0.0031317223544746753 -0.0006370863862295018
          -0.0026053259241258786 -0.0043132408294321856 0.005059509616709645 0.0008754220722564376 -0.009069695739409633 0.00728674014175823
          0.012674282550259708 0.009766691710390019 0.0036149320348561886 -0.003709295162986903 -0.0017187589491693966 0.0025621775324629614
          -0.0019999955272702596 -0.008797637866526431 -0.004928456155153693 0.007723732729539967 -0.003840970086323725 0.007625336844383268
          0.010592911579380138 0.018137622863954928 0.011562513548573516 -0.0021536075543024946 -0.0021328574199031003 -0.005103956045631852
          -0.0032560693152876574 0.005057920272192096 0.0063364836189565565 0.00397944526361671 -0.005232739196442182 0.004156180329086379
          -0.011370823160575139 0.006891567762264406 0.0068212730742721606 -0.0034971953329629678 -0.0012772820629603776 0.0015782335545730941
          -0.001098436687633042 -0.007285676981147522 -0.0032134632397027643 0.0018915676485929782 -0.0027562073132295084 -0.005082473947138538
          -0.0020178687702928633 -0.000394330652985872 -0.0033815161234693747 -0.000038703037756882 0.0013558365660328864 -0.0015355835963045683
          -1.7678258934094206 -0.00019633398650820144 0.0012114615946454688 -0.002681161800109133 -3.3781285466275714 -0.0010974394716389835
          0.002702249579947691 0.0015077568573110267 -1.2449641869480979 0.004215339167659704 -0.006069982978772703 0.0066370994699951336
          -0.00990459759806428 0.010716179452424868 0.009267241299311668 -0.01598717342923428 -0.002315854843068843 -0.0014534941514580124
          -0.006518025663200255 -0.08648353024705491 -0.0511324157588694 -0.0037736297959647946 -0.00873656561611158 -0.03432789636659361
          -0.006339838162441658 -0.0016450549484987587 -0.000899766423946291 0.007890990640787576 -0.017370346310158213 0.02356198789967162
          0.033764032198146776 0.00506287351301804 -0.03410190257680268 0.040362120036657845 0.056215970695308926 -0.003490708542074339
          -0.0172940766349029 0.018482028745046064 0.03584922352184533 0.000022264162911652188 -0.0004484361105524734 -0.001515490704913497
          -0.000333599080968687 -0.00008464552716058726 -0.0003629876385526703 -0.0036973861536225977 -0.0009428935692209345 -0.0007709234814647359
          0.001555076809457892 -0.0016160806614876622 -0.0005074583387435355 0.0003676474685356812 0.0007938211462957812 0.0005139637470705782
          0.0014555156926124857 0.007291451377884561 0.010747166506877237 0.00002995697318930457 -0.0012153612909922007 0.011013049721063983
          -0.004643207175113351 0.011669672671327014 -0.010140188902817093 0.029826003501394194 -0.004789829393588407 0.019567389597220125
          -0.001930349549280841 -0.0038300574086429506 0.02052917819836786 -0.007171180725818127 -0.008757977586768162 0.04349461195908333
          0.0019615824648369085 -0.00005360499366724447 0.02875152129865266 -0.0011197084624419706 -0.0010489807550069785 0.0028988760763550836
          -0.005374592443418355 0.0009581292804704544 0.0002944883384868244 -0.007722137849435207 -0.0063015227775748 0.01417561929627853
          0.020853567703414594 0.02692486098222413 0.029076092746317977 -1.225806565795286 0.0016547558624291914 -1.5428930077795127
          -2.483459662274733 0.0032458832494628442 -2.944699316411214 -0.9839721032909837 0.004216461577441211 -1.1451750475882707
          -0.00277816429478666 0.0014484368732976538 -0.005772682293467038 0.003659631121173623 0.008920037707630422 0.013828449734304638
          -0.0018225490568362923 -0.00767543779598695 -0.0009046380356482753 -0.016827060593695486 0.0007547875763928569 -0.0056867512539997556
          0.0022189495035997014 0.011400116712518733 0.0036382847239611327 -0.003302048128374979 0.010777590687146565 0.010017180633474246
          -1.351892125039763 0.001812788103258245 -0.00003616811770733308 -1.6247755725649933 -2.6366070780837685 0.0032952860056085775
          0.0007238846452381556 -3.148778224470679 -1.2632729607582731 0.004190318285723471 0.00043500232457149846 -1.3895597967415259
          -0.002838040734095326 0.003844869029771214 -0.0007007104452223523 -0.006725854381571583 0.007729446077624935 -0.005569790122814555
          0.006737141074160902 0.013207332722625864 0.005867126402941181 0.0026418491297308666 -0.017715760489846355 0.10670611027116458
          -0.02754229014903309 0.03772708140454917 0.008298320261121539 0.00032946177693782275 -0.0027251092350470962 0.0029183303846747055
          -0.006468613020317537 0.019359391848117302 0.012968990490808574 0.003139940617641787 -0.004662020766519226 0.005006763848703972
          -0.007842563286283383 0.02267699649669605 0.010382874529847985 -0.0037064586348540818 0.0005501262615854596 -0.00782343425813048
          0.0004154379687936194 0.006935181534714285 0.008357762936933355 -0.00008003076791221475 -0.0022126565400231793 -0.00046807297855227387
          -0.0003792771860627528 -0.004083549328746491 -0.0008545161899937842 -0.00009306681683215329 -0.0016556840312016551 -0.0003241569412380102
          0.00010473793303522605 -0.0025542047608046736 -0.0008348623191459792 -0.000060237518300088055 -0.0057094715067041585 -0.0019834605605044686
          0.008291537293057871 0.0032380111695399227 0.004873695057802441 -0.0005029354767410454 -0.0007113713735930061 -1.3328496652707398
          -0.0025684908459486233 0.00010928082269440198 -2.5977342903012346 0.00047048914230179983 0.0018028774926439617 -1.0739940066299112
          -1.2602185673937467 -2.5095424025432465 -1.1822394464230928 -0.00002507101951660165 -0.0006149317163797879 -0.002835451275503803
          -0.0020096548984997265 -0.00017526789102875057 -0.0014625383547932982 -0.005606470943977787 -0.004004140187068392 -0.00007024892868656013
          -0.0006926610806928316 -0.002587088123718162 -0.001961527432816808 0.001699985385494096 0.007666099520079406 -0.00020557997902415082
          0.013654810557370722 0.0046867110201058715 0.01246060746910399 -0.002001177550966904 -0.0003181829037575967 -0.00373022304713172
          -0.0007093899082757163 -0.001795877012490163 -0.00033906997178570486 0.00817618609744386 -0.002552424893400823 0.016768717539848432
          -0.002844496712365127 0.011338188611803857 0.007669181834324301 0.026714013775868573 -0.029401658357771643 0.03253809017717213
          -0.041108526950677016 0.025235663555296384 0.01162010765750554 -0.0028100955078370904 -0.005731932818592772 -0.00263034722188403
          0.0005540964102972445 -0.00011810127531863834 0.009188659314966596 -0.03477019376302548 0.020940547528255693 -0.06345317585445964
          0.028170864792428252 -0.00013308140539236568 0.0197611448756696 0.0008854870860001141 0.001441422444389051 0.004996400480434815
          -0.00931517671534876 -0.022508018863257206 0.0004462901434074962 -0.0006146279004196481 -0.0010857607005992712 -0.00024151797157647564
          0.003095387303215791 0.017959572584399286 0.007990458775895437 -0.003891380970606262 -0.007034323773169593 -0.0031861139692508367
          0.0008269529548745377 0.0015898342811803134 -0.005059496999662488 0.03112473058803178 0.04051407228203119 0.017736828697390683
          -1.2773616369844194 -2.4242680636737743 -1.0647021370515852 -1.6607527512136029 -3.204994950811423 -1.156549459697852
          -0.006524365475818639 -0.012616229752886399 -0.0061756768032359965 -0.00013965246575855378 -0.00047433826935341927 -0.00040409339969757485
          0.007649176679508152 0.016979661484663566 0.008016441991554046 -0.0006441664204732689 -0.005169306754018166 -0.002607568347047007
          -0.003840321789646328 -0.009956932161890641 -0.002378869292209096 -0.0018541267076566115 -0.004417685482620115 0.003826224165538683
          0.0014166471927925528 0.003676858684347195 0.011511182790734154 0.0013742905865390398 0.005470436023732539 0.019989765129368564
          0.0007751976402996519 0.0037178123865668766 0.023292305639582622 0.0019555298801687826 0.00790039506840845 0.030642960993178647
          -0.0065750465823481985 -0.010572711446159122 0.014555332763620754 -0.00016293083523466478 -0.003453225250965364 0.0003268982419482036
          -0.005780152860565685 0.004506100223018006 0.0031142671770041375 -0.004248377477567636 -0.0017842631467490655 0.00409129273751585
          -0.005424170797202921 -0.008428802644492757 -0.0030268441934970802 0.006059446912309863 -0.010913610678502828 -0.005185837111873787
          -0.0025112464249761324 0.0026665270450167977 -0.003546372582277302 -0.0038499652405030726 -0.006768784809647099 -0.003515185229450657
          -0.006678640707686867 -0.01269460760039709 -0.0032003230509052294 -0.014012114096832673 -0.027207748570129864 -0.014332201801373401
          -0.0020057802540023317 -0.005884512952244236 -0.003476480444124519 -0.00857439069489807 0.0066786795137439015 0.0017811968650294219
          0.0005281242541643749 0.0017280572113254067 0.01161564595486464 0.0005662642695885012 -0.00007363535696924828 0.010050854828993039
          0.0003674492820522346 -0.0005878782080230849 0.013678779159695509 -0.00036299138012907406 -0.0020896971160251354 0.015548268406423205
          -0.003829473395630778 -0.010025787544032383 0.011864015454375654 -0.007369438824936125 -0.015883864063038544 0.0005603081703764445
          -0.007759196386815326 -0.01518546606406801 -0.0056234421573702065 0.015409311351519683 -0.006890140381721643 0.0031749581541586913
          0.02262046917410565 -0.013535358005363207 0.00312234401416589 0.0019748136845234576 -0.00737605954235665 -0.002908473467038153
        </DataArray>
        <DataArray type="Float64" Name="resid_y" format="ascii" RangeMin="-0.09439761853628936" RangeMax="0.07312046965855606">
          0.0003808473687597902 -0.0008115478139135504 0.0023855372420090865 -0.001455587943439314 0.0024692512602924876 -0.00007025733220731092
          0.009226291221453659 0.004386155668653687 0.012459793306293583 0.004410844203318415 0.0027889071694419607 -0.0005090372403434643
          0.0003231031047334354 -0.0010528112230781608 0.0008059660295251375 -0.003376143288171693 -0.00008614391513994679 -0.002634206770724845
          0.00019018714776199153 -0.00113936812172033 0.0013259773399056374 -0.0030242919827250248 0.00010498882273063392 -0.0022906539326496
          0.00034189678101040344 -0.000872029594801732 0.0018108279647360281 -0.0021764975124546337 -0.0007392093927897636 -0.0025092272201240884
          0.0007069750152142174 -0.00046790465855273133 0.0022359113833109734 -0.0013351364344406647 -0.0018211928919509845 -0.002550017876325583
          0.0005264775413393319 -0.00034616294909428635 0.0023254578824198346 -0.0007804059117758055 -0.0021702279373553846 -0.002461131218691681
          0.0011290661472345143 0.00018043573084941533 0.002923349179696555 -0.000010438294465009434 -0.002946169585618774 -0.0025490411791506684
          0.0015148309279039984 0.0006215343914920402 0.0046568629729042965 0.0014410911699940243 -0.0031207325351357285 -0.0028094541221114766
          0.0024043759278857824 0.000289995560287859 0.008119475290807143 0.0020445289465961247 -0.0028551745698766062 -0.0007996744069729278
          0.00200236765353784 0.0022364016400719805 -0.0005102661461530884 0.0010580660076826287 0.0002628467824298368 -0.001587542594013537
          -0.002760224578547299 -0.003893806567383369 -0.0022974392201257493 -0.002051456563993581 -0.0025556651150622917 -0.001940212934718466
          -0.0012566923813707442 -0.0009954140168309533 -0.0023609630693827155 -0.0013762029477537019 -0.0014303458557931303 -0.0032859501100268584
          -0.0015442056970784157 -0.0012052934009353922 -0.0035031992568135273 -0.0005110656337147801 0.0007243838430524008 -0.003746988022918507
          0.0007034233138128454 0.0033535597141482465 -0.002089914363577694 0.005726674759640796 0.012916700342249898 -0.0013946250504572322
          0.00011626551571906896 -0.001659153913003704 -0.002073593176097191 -0.0011607609669364305 -0.0009998818156046058 -0.0012036306923302598
          -0.0013578626208385902 -0.0007026005690299042 -0.0009974292573484145 -0.0005224931086318108 0.0007219196783729599 -0.0006525073757030209
          -0.0003534607133180434 0.000962456393516567 -0.0009292048468238223 -0.000011138683597811116 0.0008439961151798514 -0.001721549714865045
          -0.00012663230738663156 0.001330385115646593 -0.002267016502987884 0.0003646359386758613 0.0026555413771766623 -0.0021386536255750266
          0.0005764364244255915 0.003280358956104956 -0.0016828871108036936 0.0008412309824571418 0.004297218518004076 -0.0050712128850115
          -0.0029670599205141035 -0.004291753680349508 -0.0027540749741978288 -0.001966628808009907 -0.0022588031852905366 -0.0014755022924141173
          -0.0017139082187911936 -0.0014189370028609566 -0.0012190869517755415 -0.0012321601258984682 -0.0005352377627295402 -0.0007762512779346323
          -0.0002556918849385831 0.0009715606125408338 -0.000424170767059473 0.00035927075880065606 0.0015519525044818405 -0.001458205365040155
          0.0008995173732860295 0.0028692577678078868 -0.0017329412004693234 0.0004091715557051345 0.00278012267678146 -0.001587545175757099
          0.00017571453694323336 0.002826292747759307 -0.0017414640679506849 0.0014841281332707013 0.00583942532038062 -0.0026025988282821766
          -0.0029329440993839107 -0.004558248066151599 -0.0028204830664861347 -0.0021691873655210747 -0.0027821799422024646 -0.002141577523932514
          -0.001802344826042343 -0.0018729020314201955 -0.0015627174346542379 -0.0011223901141166823 -0.0003609081413872006 -0.0007254503597396919
          -0.0004365787423283862 0.000331195066667022 -0.0005306453747813897 -0.00008919560324310849 0.000922742077464192 -0.0009495456200373786
          0.001050571552717483 0.0025691773897298653 -0.0014225705372708508 0.0005951026418326844 0.002883672069198401 -0.0014507365955299945
          0.0009510717646766254 0.0036868074694004493 -0.001735241218483341 0.003142438533882186 0.005872026192226543 -0.0013580769292259598
          -0.002554180594461275 -0.004329153890398618 -0.002642135005256452 -0.00263580373206497 -0.0035775665735772455 -0.002290236195529847
          -0.0024309296567743416 -0.0031982340467187204 -0.001950535927776692 -0.0012085935018386965 -0.0010147066194110682 -0.0006490964625009421
          -0.0005114881057765655 0.0003072084817160644 -0.00016286994462502702 -0.00011015877751414938 0.0006204862070554873 -0.0007270252638394686
          0.00044930030452255965 0.0016100876355957944 -0.0015061110794034327 0.0015673146662951165 0.0038595052631518745 -0.0013327176754934222
          0.00037044698274089904 0.002131776777305111 -0.0026469039418974133 -0.0020716232773423937 -0.003284128909133155 -0.003477876279492642
          -0.002479502906119091 -0.004160859892386792 -0.00253987617738477 -0.003009638173194426 -0.004984720036715837 -0.002505602925361894
          -0.002973669134540037 -0.004438888996863094 -0.0018899350534758858 -0.0017565811433651983 -0.001244004435929938 -0.00005244125961599566
          -0.0010721274681316853 -0.0004959393656742625 0.0000594246498891865 -0.0003042241867006537 0.00014883344119413083 -0.0009738651239081242
          0.0008129150467246701 0.0021606847184978406 -0.0016626368262660333 0.001722130286286698 0.004149533706308325 -0.0016643511061516653
          0.0005071406460022132 0.0021767112230988497 -0.0031500183600735032 -0.0004038808836268615 -0.0015405535197415832 -0.0025485085410087427
          -0.006288974208843168 -0.01130850307101805 -0.005366678446264372 -0.006204393468973279 -0.00895356940964831 -0.003572007748872452
          -0.0038047912922868354 -0.004139905308010006 -0.0011030809241835415 -0.001625778038596426 -0.0014696870350696285 0.000421693698476
          -0.0019312056418586835 -0.002249165602731459 -0.0009165191236584214 -0.00029037961715502533 0.0002123188509779786 -0.001484710807646561
          0.0012178292139059521 0.0033328185014695477 -0.0015548286170108255 0.0016928213839672128 0.004361507353719249 -0.0027279956073804623
          0.0007846450011818884 0.0023365354917646436 -0.004226881194977383 0.0002575967164973325 0.0004157013255239317 -0.001238946508386768
          -0.0007748398786171506 -0.002562125323692155 -0.004927511411236318 -0.00031484316230190323 -0.001478715806526587 -0.004638719731343333
          -0.0011601214227334178 0.0005291216918070774 -0.004138308389833922 -0.0009995182963115912 0.0014457414499299548 -0.0035618582889959116
          -0.002620118319224013 -0.0022343898285591968 -0.004079484630263308 -0.0018754746378797371 -0.0012028575291878063 -0.0023047636305637553
          -0.0014280968724753595 -0.0013423245662338434 0.000886849973628645 -0.0005237165766496243 -0.0005011647745656322 0.0029470106796208873
          0.0011415083380241862 0.000010823400226539492 0.001305336232266252 -0.0016346630586269173 0.0008119236255003694 -0.010305274411989584
          -0.0014702583882257036 -0.00431525885444109 -0.0006977506661795113 -0.011243813378865708 -0.003631457428146745 -0.001800638368458382
          -0.0018959707401322856 -0.0009978016532429686 -0.003681904815862974 -0.0016603959394402706 -0.0022730545391550644 -0.00027444910047067644
          -0.0012960563401276486 -0.0006071098134718678 -0.0008682874323080875 -0.0025471411492420104 -0.0015553972980074243 -0.0020004289385227303
          0.0010215661531738293 -0.000988346542054569 -0.001168982010422398 0.0018026905897751133 0.00039781312873488073 0.011373648442973616
          -0.003053158013732238 0.004076495070660879 0.0025491729730190427 0.019447483469807902 -0.004361798844031206 -0.0010226152878495265
          -0.00200978016922293 0.0051877392104051345 -0.004760210178992946 -0.001430586294124625 -0.0039118938156695315 -0.0010516448501896314
          -0.002065544424497745 -0.006078795185416652 -0.011867419092743803 0.0020664940599297854 -0.006129050974060177 -0.005903520630150094
          -0.0034688057099646064 0.013166240097248871 -0.0010753069497402012 -0.0067508470538930054 0.0030882502288792635 0.001802577784413062
          0.0006313288051611188 -0.0158998337560729 0.005486255035708598 0.005425191976180965 0.0013896352230476916 -0.011836603758161285
          0.000648067055846191 0.001069455876009262 -0.0035077122351530043 0.003898514221987781 0.008627341507291275 -0.004336816162869933
          0.0033558167347880197 0.004611952594320068 0.015629220687261358 -0.00957016002117167 0.0075572888893552514 0.0012010296266277143
          0.005228303928949685 -0.0039265341352929806 0.007078945709022677 0.0006468439004042037 -0.0023914895732426444 0.0011360200504761109
          -0.0057672953283604556 0.0006509011743097495 -0.004123806684471321 -0.002957960289473177 -0.002052168427055412 -0.003686094858709313
          -0.0044478638266847725 -0.0023296851522115886 -0.0030796791569104864 -0.0030240135947007226 -0.0030965037930672998 0.001352641146899064
          0.002144017019781508 -0.005430433468763818 -0.006510842176695009 0.00014252561692787435 0.002837165507583117 -0.001736365959109143
          -0.0034415928730815726 -0.0022642842843695055 -0.0065978120497022785 -0.0028869541584409008 -0.006421436498033395 -0.0040372462210193786
          -0.002441428364215986 -0.005165230018570884 -0.010490448587599732 -0.0059673186582051415 -0.0034775752033615603 -0.004844326431818379
          -0.007735003019299358 -0.005452444929751483 -0.0037745347636178594 -0.0038964223312960566 -0.007082107123674575 -0.004931020517402462
          -0.013672798608230952 -0.003697861748529152 -0.007604032026348628 0.010474499606634102 -0.007861378942644173 -0.002683613936658502
          -0.0011019620192706664 0.07312046965855606 -0.05455454136388316 -0.005917304702625192 -0.002110138405477968 0.003777472110821689
          -0.011087276800016255 -0.0030552614462603933 -0.0008977278773310005 -0.05386935796581138 -0.02840166173069747 0.00022795242316253628
          0.018467060382625376 -0.09439761853628936 -0.052229180513715945 -0.0005303118780643767 0.04423539542860335 -0.039222195025530704
          -0.028182621347464076 0.0011667281072917368 0.024479489944570956 -0.00012493732557994353 -0.0006502666086859541 -0.0009158352466633463
          -0.000048415962527057627 -0.0004265399088062144 -0.0009491355554866604 -0.0008297741866549989 -0.00054950412452303 -0.00028913958108819915
          0.0005041964469279236 0.0009039998150547589 -0.0012345523143105271 -0.0006697716333411985 0.0003258956678632227 -0.0007634609951254201
          -0.000010748476749034008 -0.0012332510154067777 -0.00004263170002941465 -0.0017606033161189916 -0.0019845735774999262 -0.008051907416227772
          -0.00229185737117496 0.003394435822711872 -0.004330980059901235 0.017228270798225587 -0.002164334944354196 0.025488129217800692
          -0.0017046820291379827 -0.004455732920814692 -0.0030630069122317277 -0.007936350996614439 -0.01212060061133785 -0.006895960469336826
          0.003659131696141349 -0.0022824304732527168 0.0015842991593865152 0.002591114545737988 0.006251339735335648 0.015381305797389278
          0.007534124843152135 0.008376240072099306 0.016211470706574305 0.02822674111326018 0.016741073634269365 0.005464331535150552
          0.012124388179852091 0.021946074104260305 0.009069667711471288 -0.0009004007637938294 -0.003357888529854497 -0.0014855883883165
          -0.001327635724128251 -0.004881715941264547 -0.002219617024447812 -0.0019389242032472678 -0.005153442752633394 -0.002723913156516041
          0.0007393234115786081 -0.0052097410994560445 0.0007215210716758486 -0.010109346299000621 0.0024669108978677134 -0.006521621046806758
          -0.002518195569747972 0.00034703309664629867 -0.0059926405606550714 -0.00481905897000473 0.0017254988869375154 -0.002528398489561434
          0.0028269357735251077 -0.0030309928845839718 0.0044607032388863654 -0.0015191160636081613 0.0019523304286275245 0.009503225558417136
          -0.0004722430437161425 -0.0014175086980638407 -0.002000874317706347 0.0011368120215386399 0.0013592750910259854 -0.0023304333329697557
          -0.0053642490127283615 0.0031024892060572233 0.0004361777321925456 -0.004629542146882687 -0.0064559306391834825 0.0017236403037076513
          0.0006661775612590293 0.0031219455968375387 -0.0013875358676332245 0.000484181783897919 0.005353317412616521 -0.005145491775028141
          -0.000458092543951627 0.0017692837215264046 -0.005752497672221843 -0.027495396198100097 0.012399053469955013 -0.03879368940556699
          0.0014654451235804333 0.0029065369830195975 -0.00013780572477128938 -0.003872969056396891 0.0014179439794729243 -0.006855407787335177
          0.0004251286585585379 -0.007393974209037701 -0.004731421397652813 0.005019676624397673 -0.0038805772726357435 0.008244433981531074
          -0.0007249046724508018 0.005507622821580238 0.0006586918473142078 -0.0020981278299965767 -0.0056125124399362125 -0.003784507242593438
          -0.00927818559414162 0.001387269574269212 0.002567260611350708 -0.0004160882296675465 -0.00045449188666743176 -0.00027607388982152196
          -0.0009564083574134779 -0.0011707554500177096 -0.0005038785723148163 -0.00045962511920139655 -0.0007216525382437583 -0.00015680777384886706
          0.000018095331004830406 -0.0065660983201658585 -0.00032248134147816465 -0.0009628763320560507 -0.015175031855336751 -0.001388894955956732
          0.0027886323295666093 -0.005149791068173704 0.0014430925351860413 0.0000030562033261904986 -0.00014669654998947235 -0.0012505151242421172
          -0.0000653181312805784 -0.0001710608928181534 -0.0013026911185251427 -0.0032102813066618163 -0.0046902429190633504 -0.0017564125522349112
          -0.001490129049825012 -0.001971138222098559 -0.002107713506516031 0.00003450389025547694 -0.00019067016553221683 -0.0003658754165970918
          -0.0007006802451534296 -0.00013706768071133912 -0.0005126965786432444 -0.00042570799788813757 -0.0015603478409092243 -0.00020002027443908124
          -0.00023250657937070457 -0.000041720765406733085 -0.0008802364169265588 -0.0015047876482198533 0.0045408400778814695 -0.0018762406745002486
          0.008059661423507336 -0.0032512481580823163 -0.00235204688270374 -0.000026992112004183694 -0.0008133110900749186 -0.00015090796743736506
          -0.001761158000892913 -0.00013337534015189778 -0.0009737677629012599 -0.0017126761990946537 -0.006696313397835718 -0.00574005690556334
          -0.00890088343925588 -0.010853029138058912 -0.006527689183745022 -0.016499697358778764 0.02533530715553911 -0.03294928581078743
          0.04071078710000631 -0.015700613170186783 0.015817880406931883 -0.0029080679838227076 -0.005487348175296989 -0.0022913156136755188
          -0.0019496071078923816 -0.0031390147180221373 0.0013168341715075194 -0.01444699690569351 -0.007640231270020392 -0.017809149449638628
          -0.01676265494381607 -0.0030002108735398547 -0.0028404672982834667 -0.009035598969081154 -0.018058744436463686 -0.008319817320464273
          -0.005755512290288034 -0.011304485268770969 -0.004782465352292015 -0.0005340973388027091 -0.0011336177881022666 -0.0006045322837375869
          -0.015537862895656174 -0.043006850771524496 -0.009425119914655222 -0.0022753813266242415 -0.0036184515177295554 -0.0012029834181855326
          -0.0024338077185630524 -0.013173024615129869 -0.004416674305762647 -0.0034387415949497235 -0.01425237775856375 -0.007859888220304534
          -0.018207370357540737 -0.03413734744271617 -0.02058565693633327 -0.00353083933814817 -0.006755640650859485 -0.0036608680282689352
          -0.0018735202971796594 -0.0037327101218253833 -0.0019377934763434267 -0.00012502440115835962 -0.0002525297838945305 -0.0007475865455551928
          -0.0034156196810068984 -0.007891305598005216 -0.008617363883139217 -0.0018537822187991576 -0.007508858277929076 -0.0061033277291145105
          0.0021668724653039484 0.004693542223711364 -0.003676231295365845 -0.004707700474978371 -0.006642069811566398 -0.004273081035415127
          -0.005493258447594074 -0.005437218016931644 -0.006016980344789147 -0.0029955840155906355 -0.0014655248940074195 -0.002119531962969212
          -0.006206143944239018 -0.006243895676193434 -0.0027615321193388276 -0.007254283500047087 -0.00895426917009412 -0.0019956470716901986
          -0.005688347864169052 -0.007393586650256023 -0.004335428526563656 -0.0029995931537973863 -0.002765949931278655 -0.00533368749431401
          -0.0064386337005108984 -0.0009365115263636897 -0.0029970239979870694 0.00044632758771512293 -0.0024102356141590398 0.0005216957430014824
          -0.003754295571848726 -0.0010726487432576315 -0.005736859907999298 0.0020018033740143992 -0.010954814509925637 -0.0014067534819698357
          -0.004473833841829533 0.0007880370295174632 -0.007403504009855011 -0.000692647345181957 0.00021162770819323218 -0.000021928833960349614
          -0.0018101351806126265 -0.0025743096575201185 -0.003006185160246866 -0.0019005035135078452 -0.0015181792270354127 -0.001961134562996264
          -0.0011440279734254225 0.00028773084980426855 -0.0014920098177593766 -0.004978767892131808 -0.0019161172703882484 -0.0050160310258167695
          -0.003946361433277867 -0.009854943131987204 -0.00675541092347709 -0.003873076991561586 -0.005382022402000475 -0.0047576260559488714
          0.004358770005693957 0.008624372936178126 0.0022252671843220884 0.003816431111953067 0.009638612595598062 0.0023118155186188094
          0.0027886496889508727 0.007414593979772288 0.0018004307992245394 0.0021519110361996052 0.004468358392557548 -0.002654234397612143
          -0.0013596415164165432 -0.001255362495034884 -0.0034147847237142592 -0.009676447755460005 -0.0017049415102721056 -0.010842942289071344
          -0.016102854353664875 -0.0026887147995207777 -0.018586963171999482 -0.006548946340754591 -0.0019848246629118257 -0.007149090438574257
        </DataArray>
        <DataArray type="Float64" Name="resid_z" format="ascii" RangeMin="0" RangeMax="0">
          0 0 0 0 0 0
          0 0 0 0 0 0
          0 0 0 0 0 0
          0 0 0 0 0 0
          0 0 0 0 0 0
          0 0 0 0 0 0
          0 0 0 0 0 0
          0 0 0 0 0 0
          0 0 0 0 0 0
          0 0 0 0 0 0
          0 0 0 0 0 0
          0 0 0 0 0 0
          0 0 0 0 0 0
          0 0 0 0 0 0
          0 0 0 0 0 0
          0 0 0 0 0 0
          0 0 0 0 0 0
          0 0 0 0 0 0
          0 0 0 0 0 0
          0 0 0 0 0 0
          0 0 0 0 0 0
          0 0 0 0 0 0
          0 0 0 0 0 0
          0 0 0 0 0 0
          0 0 0 0 0 0
          0 0 0 0 0 0
          0 0 0 0 0 0
          0 0 0 0 0 0
          0 0 0 0 0 0
          0 0 0 0 0 0
          0 0 0 0 0 0
          0 0 0 0 0 0
          0 0 0 0 0 0
          0 0 0 0 0 0
          0 0 0 0 0 0
          0 0 0 0 0 0
          0 0 0 0 0 0
          0 0 0 0 0 0
          0 0 0 0 0 0
          0 0 0 0 0 0
          0 0 0 0 0 0
          0 0 0 0 0 0
          0 0 0 0 0 0
          0 0 0 0 0 0
          0 0 0 0 0 0
          0 0 0 0 0 0
          0 0 0 0 0 0
          0 0 0 0 0 0
          0 0 0 0 0 0
          0 0 0 0 0 0
          0 0 0 0 0 0
          0 0 0 0 0 0
          0 0 0 0 0 0
          0 0 0 0 0 0
          0 0 0 0 0 0
          0 0 0 0 0 0
          0 0 0 0 0 0
          0 0 0 0 0 0
          0 0 0 0 0 0
          0 0 0 0 0 0
          0 0 0 0 0 0
          0 0 0 0 0 0
          0 0 0 0 0 0
          0 0 0 0 0 0
          0 0 0 0 0 0
          0 0 0 0 0 0
          0 0 0 0 0 0
          0 0 0 0 0 0
          0 0 0 0 0 0
          0 0 0 0 0 0
          0 0 0 0 0 0
          0 0 0 0 0 0
          0 0 0 0 0 0
          0 0 0 0 0 0
          0 0 0 0 0 0
          0 0 0 0 0 0
          0 0 0 0 0 0
          0 0 0 0 0 0
          0 0 0 0 0 0
          0 0 0 0 0 0
          0 0 0 0 0 0
          0 0 0 0 0 0
          0 0 0 0 0 0
          0 0 0 0 0 0
          0 0 0 0 0 0
          0 0 0 0 0 0
          0 0 0 0 0 0
          0 0 0 0 0 0
          0 0 0 0 0 0
          0 0 0 0 0 0
          0 0 0 0 0 0
          0 0 0 0 0 0
          0 0 0 0 0 0
          0 0 0 0 0 0
          0 0 0 0 0 0
          0 0 0 0 0 0
          0 0 0 0 0 0
          0 0 0 0 0 0
          0 0 0 0 0 0
          0 0 0 0 0 0
          0 0 0 0 0 0
          0 0 0 0 0 0
          0 0 0 0 0 0
          0 0 0 0 0 0
          0 0 0 0 0 0
          0 0 0 0 0 0
          0 0 0 0 0 0
          0 0 0 0 0 0
          0 0 0 0 0 0
          0 0 0 0 0 0
          0 0 0 0 0 0
          0 0 0 0 0 0
          0 0 0 0 0 0
          0 0 0 0 0 0
          0 0 0 0 0 0
          0 0 0 0 0 0
          0 0 0 0 0 0
          0 0 0 0 0 0
          0 0 0 0 0 0
          0 0 0 0 0 0
          0 0 0 0 0 0
          0 0 0 0 0 0
          0 0 0 0 0 0
          0 0 0 0 0 0
          0 0 0 0 0 0
          0 0 0 0 0 0
        </DataArray>
        <DataArray type="Float64" Name="stress_zz" format="ascii" RangeMin="-113826340.53928179" RangeMax="183331828.914971">
          2608612.227757388 2909256.006431287 1651804.8418622573 1955734.503183059 694997.4559671269 1002212.9999348312
          1119934.090488005 1517476.4492284101 335726.647917027 658845.0092687588 -448480.79465395096 -199786.4306908925
          -1517511.0341227422 -1408324.7365636833 -1661548.9284738442 -1611082.7445082995 -1805586.822824946 -1813840.752452916
          -3193993.945616802 -3373841.6867852337 -2722868.2049821992 -2896074.7103802236 -2251742.4643475944 -2418307.7339752135
          -3019029.49705953 -3253516.6247582 -2242883.4289108193 -2444166.252085077 -1466737.3607621084 -1634815.8794119544
          -1808430.9913158799 -2077698.9388775397 -1111586.4520075007 -1337673.1336501287 -414741.9126991218 -597647.3284227174
          276431.3569683397 -118153.96256929927 495491.186734848 81251.49415945902 714551.0165013563 280656.9508882173
          3500326.3041101126 2233965.419902252 2817728.4773177495 1238113.2185050272 2135130.650525386 242261.01710780256
          7152751.887705049 6599601.208528331 5022926.220783545 4437767.175651437 2893100.553862043 2275933.142774543
          36465054.17730494 13026281.228974253 29736082.21191268 8623596.258280674 23007110.24652042 4220911.287587093
          1691672.6445913417 831199.1004628504 -29274.443665640836 92226.06885099456 -435426.5721268669 -963079.2131047284
          -1781709.1623898947 -1773601.019765738 -1765492.8771415816 -2764728.8948914823 -2297445.5985185676 -1830162.3021456527
          -2434928.8613079544 -1743262.9547593794 -1051597.0482108046 -1003580.5468610077 -424705.7327727765 154169.08131545447
          1608159.085941315 1883805.9553611772 2159452.8247810393 5143398.46843606 5088166.882621762 5032935.296807464
          7403596.436963425 5678751.281687429 3953906.1264114324 -1223127.5511966022 -4002493.514293457 -6781859.477390309
          212482.30069117958 -307129.66515617777 -826741.6310035351 -1279064.1590251678 -1367531.4472259658 -1455998.7354267638
          -2217917.5008665663 -1927674.9005092215 -1637432.300151877 -2351275.3339801747 -1821334.7593851513 -1291394.1847901277
          -1683425.5358729502 -1089965.7893396982 -496506.04280644614 345283.27429449384 749172.1177853547 1153060.9612762157
          3524389.7153902743 3848298.825203169 4172207.935016064 5566489.720802769 6126987.15710764 6687484.593412513
          2521610.814833038 1665088.7621977767 808566.7095625151 -2580914.802098313 -3783339.6463387487 -4985764.490579186
          -2060523.080403116 -1860627.2412719661 -1660731.4021408157 -3124437.0460586357 -2492515.56380623 -1860594.0815538247
          -2978384.8470720807 -2193829.8537836336 -1409274.8604951862 -2134180.418056868 -1438764.8453971243 -743349.2727373808
          -801411.313256024 -306725.27244643366 187960.7683631567 1939474.0122267131 2133036.696770595 2326599.381314477
          5351921.613263851 5639267.059113516 5926612.504963179 5380398.265159506 6384311.380191753 7388224.495223997
          -1971764.4252902227 -2410385.5381766064 -2849006.6510629896 -5880906.652656978 -7850595.754318899 -9820284.855980821
          -5580387.356869714 -4060303.6100359145 -2540219.8632021146 -5636463.698121933 -3889614.4973483686 -2142765.296574805
          -4080582.942933118 -2623087.603566006 -1165592.264198894 -2070662.724125617 -1154016.776475445 -237370.82882527233
          132369.7257473582 524205.59024192224 916041.4547364862 3361160.176239961 3330727.354711172 3300294.5331823835
          6670199.276746609 6764372.878169727 6858546.479592847 5534319.403853665 6403208.955863144 7272098.5078726215
          -2598931.95697092 -3354464.9270713623 -4109997.8971718047 -20434113.038792893 -23159843.715561885 -25885574.392330885
          -9913044.928955749 -6630392.640204964 -3347740.3514541807 -8319290.60262602 -5346618.671003387 -2373946.739380756
          -5261259.712592797 -3154230.567140221 -1047201.4216876444 -2087724.356706523 -962409.8562377379 162904.6442310474
          940070.8433216893 1244095.9650777623 1548121.086833835 4374057.831876785 4089027.1449977066 3803996.4581186287
          7557880.671029549 7219725.951411571 6881571.2317935955 6256722.52342846 6262092.957029922 6267463.390631385
          -2480302.375406475 -4061848.928626365 -5643395.481846254 -8007829.439172755 -12584280.527682971 -17160731.61619319
          -12975667.764595086 -8823583.329516564 -4671498.894438043 -9857588.658029769 -6541067.412415636 -3224546.166801505
          -5878708.37024769 -3726330.6064827996 -1573952.8427179093 -2030042.4839599263 -994976.0521974995 40090.37956492766
          1572453.921393844 1690485.6431661537 1808517.3649384633 5013555.582488861 4417774.323657622 3821993.0648263833
          7994394.697899707 7071608.187771736 6148821.677643764 7933917.934639288 6730732.9915906135 5527548.048541937
          1846402.4949196645 -647895.788869227 -3142194.0726581183 -2072033.119680861 -5199611.263454794 -8327189.407228729
          -9858966.52913869 -10214702.599065654 -10570438.66899262 -6289519.898248214 -7491401.048712853 -8693282.199177492
          -2767678.045790543 -4549067.143892859 -6330456.241995175 451308.7303498653 -1542599.8366922722 -3536508.40373441
          3440908.474285164 1601806.637728841 -237295.1988274816 5953273.485371397 4672957.3992879605 3392641.313204525
          7100176.992888924 6926804.891813066 6753432.790737208 7668601.728171597 8820104.84868376 9971607.969195923
          5621196.964351175 8157499.511305188 10693802.058259202 -3594105.6793220006 1583584.3212713618 6761274.321864724
          237155.7282654352 -3835471.2760556643 -7908098.280376764 2387463.921962683 -1133094.154735315 -4653652.231433312
          4341084.206503294 1746572.4560240002 -847939.2944552943 5691483.836459194 4494326.524273882 3297169.212088568
          5463380.142318398 6253987.721756255 7044595.301194113 4774390.343383586 7617330.9562739385 10460271.569164287
          9492146.352084853 15031405.119008228 20570663.8859316 6040489.007899645 12352480.38360326 18664471.759306874
          -3236588.3308451646 -39943499.9825342 -27495019.017531224 -4826038.900313318 -7387912.541444461 -37426192.60229482
          -22547735.72965456 -6852973.768662583 -11539236.752043758 -34908885.22205545 -17600452.441777892 -8879908.637011848
          25137600.657739483 19902426.57069781 15409684.1590356 14050942.73655893 5681767.660331717 8199458.902420049
          26142529.167054597 47574056.87136326 59661212.45535446 17197386.469621204 31369144.102091506 45482136.12500592
          8252243.772187819 15164231.332819749 31303059.794657387 25707299.078250483 12597766.91807303 79389207.21959686
          26785038.88351215 21445663.200390507 9834176.422430744 69804577.8760186 21729026.875745494 17184027.32253053
          7070585.926788464 60219948.532440305 16673014.867978834 -17290656.15626976 -39189516.430619456 -52623369.95559836
          -51819148.04303172 -8320986.4167497195 -27472038.231404245 -32014282.375991635 -28361792.89062953 648683.322770318
          -15754560.032189036 -11405194.796384914 -4904437.738227336 8482158.30801152 2596360.062304642 43506783.6531699
          10784921.002699839 9480086.791054044 1332212.2694635303 40007802.83739357 10031863.889326584 10478015.274096567
          68064.47662242036 36508822.02161723 9278806.775953328 -23028108.80559244 25341456.007383402 -9142285.891866038
          -20502604.016854793 -18292372.39329415 31679161.693841893 -5276022.387024371 -15919854.894120928 -13556635.980995862
          38016867.38030038 -1409758.8821827054 -11337105.771387065 1458845.732170187 -591141.6197428657 8064707.179900477
          -2231236.084802247 14670568.627630763 -3871330.5498616286 34348929.462824844 4693664.437378187 32780729.24654999
          -754935.1064215926 31212529.030275136 -6203534.650221369 -12921816.127984697 24109635.59249476 33971285.64264415
          -72028995.12571149 -6983928.344671046 15265130.851025976 7478030.90017844 -54018451.86036217 -1046040.5613573994
          6420626.109557193 -19015223.842287272 -36007908.59501286 41348936.10002813 56100660.72560484 23976386.45313224
          7712496.455364172 30332639.683847025 48416285.95508843 19415678.8731536 1738462.1086273973 19316343.267665915
          40731911.18457204 14854971.293174963 -4235572.23810938 -84697108.92912732 -49807173.46647225 -79439732.45715773
          -48800526.587107435 -74182355.98518814 -47793879.707742624 -21024627.770759005 -8823647.254579242 -289952.3154144611
          -1874143.3497833642 -19078094.332337603 -6525326.75131707 -159275.00976259203 -3290918.9300774103 -17131560.8939162
          -4227006.248054897 -28597.70411072299 -4707694.510371456 96561202.0023758 183331828.914971 37856519.27828662
          35955405.46133284 72237487.11628766 158502471.98927563 35780643.25023414 27871506.747113872 47913772.23019953
          133673115.0635803 33704767.22218166 19787608.03289489 84817802.56152108 71723563.93228279 67783502.99422182
          90122078.45805266 44165525.69560667 32974647.904402096 43825041.742216714 59219206.316937715 3513248.8296922524
          -5774268.123478606 19866580.4902116 28316334.175822765 27349741.58695413 -13107649.647408124 36494350.74654144
          -6395322.9272298105 45638959.90612874 317003.79294849746 6132883.043358887 5177629.425862451 4222375.808366014
          -38633827.83909056 -56997772.10681869 -25249359.948214103 -48934555.915502205 -11864892.057337642 -40871339.724185705
          -58112619.45726171 -65323740.9538843 -55149271.86833419 -39378598.33289981 -51086213.71012178 -49114897.03250028
          -20644577.208537914 -36848686.46635925 -43080522.196666375 -12410672.992308525 -1352595.186787881 50436733.94194574
          32981518.103589807 -35487745.612148896 -31554291.396747265 46663634.55310546 25888853.862818927 -58564818.231989264
          -61755987.60670665 42890535.16426519 18796189.62204805 19602925.821730644 5989184.577509515 18981263.768368836
          15393512.464303862 666190.1624480803 12606818.458189143 11184099.106877085 -4656804.2526133545 6232373.148009446
          8334618.855654245 -11959683.687342573 14251395.169764047 -15697331.01280973 20168171.483873855 -19434978.33827688
          -75566777.32621248 -37203264.7058514 -46575891.222865365 -24691631.201557707 -17585005.119518247 -12179997.69726401
          -44325592.20758594 -42328751.012762345 -22630043.34581682 -33811335.68794458 -934494.4840477085 -25293920.363126818
          62763948.24843627 79493965.88463254 66850969.029817715 51452801.91628626 61677408.4643491 75580431.41443864
          61982098.428855136 48707707.37193221 60590868.680261925 71666896.94424473 57113227.82789257 45962612.827578165
          -8566955.591297034 21212264.130653244 11272355.897102864 -6099341.143518518 14875388.602231653 5438928.140628658
          -3631726.695739999 8538513.073810063 -394499.6158455461 -28978899.499835 -29988855.932312384 -24223897.748003546
          -20479870.621364105 -19468895.996172093 -10970885.310415825 1149247.5911121555 2788103.887650064 3298918.1377869463
          3655442.3813086106 5448588.684461737 4522780.874967154 -27433304.321341168 -31075616.102451917 -24385945.491446313
          -48617861.0685568 -21338586.661551453 -66160106.03466168 -21332161.409730695 -18085668.91496733 -19703645.822755713
          -8886533.75494073 -18075130.235780735 312601.405085871 58403060.338769004 37162318.345402524 44894460.080151126
          37291639.30826962 24236187.81479546 29118848.574453708 16180218.277770238 11310057.284188401 13343237.068756286
          -7680076.874621449 -8573423.982564945 10781183.919685764 -5168006.304275833 -3082220.5206017853 24558704.304785483
          -2655935.7339302152 2408982.941361373 38336224.6898852 -4409247.478995956 -5091588.691822523 -39145530.83487349
          -3880437.7595957126 1507705.9565737345 -33188513.86453102 -3351628.0401954707 8107000.604969996 -27231496.894188553
          624037.2735404521 7245055.318482101 13866073.36342375 23585133.80929885 19957686.37106577 12752242.612674221
          12584458.072894236 14106976.600618687 12396752.127114348 7030550.33538856 5240507.650597305 4628819.391938522
          4835817.883162931 1308858.0581028964 -2103442.771699627 42773285.07405786 -15325478.843047336 41681025.82824193
          -15709487.320223957 40588766.582426 -16093495.797400579 28701690.267809182 34139776.347849466 18624914.660453558
          21356730.155026514 8548139.05309793 8573683.962203562 56489537.94309687 -49635963.65085388 49520172.73683363
          -42531678.67746491 42550807.53057038 -35427393.70407597 100382138.25268197 -86123272.22609873 92954461.99578395
          -78454142.5206166 85526785.73888592 -70785012.81513451 14060929.849151284 9647051.149887918 5233172.450624552
          -6229412.289657398 -3281757.000486363 -334101.71131532616 43520673.43115305 90972444.05123968 54722365.336646706
          97677465.14782606 65924057.24214036 104382486.24441242 -5707933.508581844 7911662.371256821 21531258.251095485
          -80350401.81956124 -51737127.76803765 -23123853.71651405 75974310.80624501 52652310.576655544 29330310.34706608
          -26349839.814722314 -19341107.521991316 -12332375.229260318 6424379.406778308 2941904.5500093466 -540570.3067596147
          -113826340.53928179 -90714045.40476888 -67601750.270256 67908958.7318431 66298417.17505441 64687875.618265696
          115334968.71294501 100383795.94543052 85432623.17791604 -11419193.667941574 -19218740.947366245 -27018288.22679092
          8887911.17931878 3876204.279491729 -1135502.6203353219 74425692.268426 33420921.46631331 -7583849.335799384
          2442723.214786133 2445249.9487650394 2447776.6827439466 4565242.282741789 5642384.595213044 6719526.9076843
          3569810.7280840687 3658359.000956218 3746907.273828367 4093177.301898102 4948173.270723747 5803169.239549394
          4050161.687528175 4213448.270390297 4376734.85325242 3206114.401993101 3470642.1187439193 3735169.835494737
          2136414.2057181844 1670085.2871946637 1203756.3686711432 4133898.829864628 3576179.772623532 3018460.715382436
          6414150.236174537 5813626.474138397 5213102.712102259 -2891798.1201724936 -8335647.350745426 -6286014.0606894195
          -10976165.68034491 -9680230.001206344 -13616684.009944396 -377368.9374190727 2120966.978815528 2548922.1422313224
          -3779049.760052521 -1099380.8635643912 1185843.5430100076 3065939.2679262124 -4050426.2700598664 -1821392.7897097096
          250720.10720448708 3582956.393621102 -4321802.780067213 3047372.8004037165 1763406.77748416 479440.75456460286
          5169447.433650978 4906229.638174678 4643011.842698377 4842574.022552636 3744358.323946895 2646142.625341154
          3610772.0853478173 5475381.355208661 3470317.776764983 5299944.076806629 3329863.468182148 5124506.798404597
          2662840.197215898 3116871.191014582 3570902.184813266 564579.3017640277 448860.989273943 333142.67678385833
          -222211.8822376798 -358508.75285279006 -494805.6234679003 -4140100.6479280908 -5596551.143281642 -7053001.638635196
          -7103333.885735456 -9209313.865033258 -11315293.84433106 3158026.847048184 2861441.624067135 2564856.4010860864
          9251027.861496264 9345125.941544749 9439224.021593235 1871158.7707170725 5507938.754359193 1299967.612268134
          1770653.9661054336 4402206.051502812 1026177.2448994995 1670149.161493795 3296473.3486464308 752386.877530864
        </DataArray>
        <DataArray type="Float64" Name="peeq" format="ascii" RangeMin="0" RangeMax="0.09937085287725585">
          0.00006760662903306219 0.00005775877735767854 0.00008389238049650934 0.00007153600504215181 0.00010017813195995647 0.00008531323272662508
          0.00007197729054395422 0.00004295056123319607 0.00010747953502467241 0.00007554916887645322 0.0001429817795053906 0.00010814777651971036
          0.0002586185959168951 0.0001994380958208166 0.00032238124833607507 0.0002609909869718464 0.00038614390075525503 0.00032254387812287623
          0.0008631672252480515 0.0007712533864511631 0.0009592787211774658 0.0008667201441176325 0.00105539021710688 0.0009621869017841019
          0.002221708543836562 0.0021040526840726747 0.002340692026894222 0.0022255131929051195 0.0024596755099518825 0.0023469737017375644
          0.004743850151251895 0.0046217606193260695 0.004846382425443156 0.004729409859969346 0.0049489146996344185 0.004837059100612623
          0.008843949653760697 0.00875260734261864 0.008861697934143067 0.008773553573325035 0.008879446214525435 0.008794499804031427
          0.015037035732539063 0.015032575598378391 0.014879018028846594 0.014869520393205767 0.014721000325154124 0.014706465188033143
          0.025038464345159 0.025396967334994115 0.024569038498569565 0.02489756875327924 0.024099612651980136 0.02439817017156437
          0.038335105748994666 0.037572220967241436 0.03741018776320195 0.036705444032696655 0.03648526977740922 0.03583866709815188
          0.00010235448871506096 0.00012734063418681505 0.00015232677965856914 0.00016570838803031316 0.00021055910557122502 0.0002554098231121369
          0.00044023077253604805 0.0005106276624690392 0.0005810245524020301 0.0011402763485444316 0.0012377225176801515 0.001335168686815871
          0.00257180650260798 0.002682921159938762 0.002794035817269544 0.005102795512191135 0.005190656457325184 0.0052785174024592325
          0.009110568696725045 0.009118925884778792 0.009127283072832544 0.01503652170689399 0.014893376839808284 0.014750231972722575
          0.02401736147483966 0.02362828002909806 0.023239198583356456 0.03412125781342481 0.0334354753012946 0.0327496927891644
          0.0001795779492733303 0.00022004943457186777 0.00026052091987040525 0.00034271535698578436 0.00040248799414004734 0.00046226063129431027
          0.0007561825306573572 0.0008365837814450349 0.0009169850322327124 0.0016063982624770785 0.0017033833692946796 0.0018003684761122808
          0.0031450948892856453 0.0032415205083244345 0.0033379461273632246 0.005676566051852321 0.005741514193907939 0.005806462335963557
          0.009521059759373743 0.009515174492023973 0.009509289224674202 0.01499805146687592 0.014877000965806597 0.014755950464737277
          0.022462300056208088 0.02219070480428286 0.021919109552357634 0.030242798167448952 0.029885853891686166 0.029528909615923377
          0.0003262044527057588 0.00038615471822840545 0.0004461049837510521 0.0006287931379386413 0.0007056752763924998 0.0007825574148463585
          0.001225315806291366 0.001314337707087571 0.0014033596078837757 0.0022640402591875756 0.0023537593819852537 0.0024434785047829314
          0.003922773157011547 0.003995543229422909 0.004068313301834271 0.006425227534387689 0.006460424223895534 0.0064956209134033795
          0.010016014776697876 0.009994119581149707 0.009972224385601537 0.014862639910614282 0.014767805866807517 0.01467297182300075
          0.020609380825603138 0.020468496953648774 0.0203276130816944 0.024507991359892026 0.024438892050865014 0.024369792741838
          0.0005783587553049879 0.0006541306636188313 0.0007299025719326746 0.0010600592964900763 0.001146449532096499 0.0012328397677029217
          0.0018715837440095283 0.0019564201471598563 0.002041256550310184 0.003110005717898856 0.0031776285936763373 0.0032452514694538176
          0.004872097450562126 0.004909706794853259 0.0049473161391443915 0.007289417171741442 0.007290311344205774 0.007291205516670107
          0.010514569760375486 0.010479153894138987 0.010443738027902489 0.014564868632920946 0.014502345907507139 0.014439823182093331
          0.018638293653745953 0.018618846347490173 0.018599399041234393 0.02050325142061283 0.020653751216035878 0.02080425101145892
          0.0009874023253388382 0.001056428672015361 0.0011254550186918836 0.0016829004121745078 0.0017498068796090367 0.001816713347043565
          0.0027178248279929092 0.002767664260165512 0.0028175036923381155 0.004131772231338636 0.004152169269652352 0.004172566307966068
          0.0059448730805124585 0.005933547938120678 0.005922222795728897 0.008193989695064933 0.008159855310651621 0.008125720926238308
          0.010927440367200673 0.01088779743200785 0.010848154496815029 0.014048379059980323 0.014032497265337042 0.014016615470693765
          0.016565637677409872 0.016666380764667373 0.01676712385192488 0.017024603143022295 0.017354084321975185 0.017683565500928075
          0.001605158181275419 0.0016206721409124198 0.001636186100549421 0.0025325114829424147 0.0025297892992521063 0.002527067115561798
          0.0037696508227740098 0.0037402842168173978 0.0037109176108607858 0.00529966293283584 0.005243048541399918 0.005186434149963996
          0.0070780605955212145 0.007006040695640046 0.006934020795758878 0.009055402961585045 0.008991591857222234 0.008927780752859424
          0.011173135447317791 0.011148410825854565 0.011123686204391338 0.01326240143639405 0.013319407254198898 0.013376413072003747
          0.014418965706049053 0.01464825991643675 0.014877554126824448 0.013843436668635245 0.014302963551551837 0.01476249043446843
          0.0024267042079986817 0.002381028722528959 0.002335353237059237 0.003579680717340015 0.0035067691489429407 0.003433857580545866
          0.004973242572758441 0.004874445035327394 0.004775647497896346 0.006539803474365909 0.006425619315559308 0.006311435156752707
          0.00818314614496068 0.008074493566493849 0.00796584098802702 0.009785481883749565 0.009712998104315343 0.009640514324881123
          0.011199428737555368 0.011199994659558149 0.01120056058156093 0.012214530867381545 0.012333390878906253 0.012452250890430963
          0.012251312270151821 0.012544207548836487 0.012837102827521155 0.01110514051478045 0.011552444467039957 0.011999748419299466
          0.006102276202658206 0.0060113822554614315 0.005920488308264657 0.00758850055031437 0.00749155507382012 0.007394609597325869
          0.0090027802251604 0.008916695949892892 0.008830611674625384 0.010187182768733517 0.010134593398154779 0.01008200402757604
          0.010948388751614028 0.010955796587565889 0.010963204423517748 0.011048674373966944 0.011146350325838687 0.011244026277710432
          0.010181914327418808 0.010387972382464684 0.01059403043751056 0.00881527601999934 0.009107346973324961 0.00939941792665058
          0.000004344328566447783 0.00019661207576750567 0.0002339740419726566 0.0000022671383198035353 0.0005083929783124163 0.0016271000736616148
          0.0003876413010513125 0.0000039930876776623036 0.0010124416280583848 0.003057588071555724 0.0005413085601299685 0.000005719037035521071
          0 0 0.00012114051787522787 0 0.00024228103575045574 0
          0 0 0 0.00028067706514347385 0.00003733473050451098 0.00012099967038415829
          0.0005613541302869477 0.00007466946100902196 0.00024199934076831657 0.05083800260039064 0.04673675487716244 0.058975049290474445
          0.05923043746231235 0.049500890544108875 0.04585535904129696 0.057414263947058376 0.05742720207828822 0.0481637784878271
          0.04497396320543147 0.05585347860364233 0.05562396669426409 0.017797507463196582 0.011078386495078908 0.008270097471215291
          0.01127524391339864 0.02109413350386355 0.013445846802105508 0.010775302534474498 0.014190404217808688 0.024390759544530516
          0.01581330710913211 0.013280507597733707 0.017105564522218734 0.030345048124622874 0.03041265872768436 0.036357434248491506
          0.03522724817538761 0.030221525933158012 0.03048432538931879 0.03602321454207699 0.034803900455808785 0.030098003741693153
          0.03055599205095322 0.035688994835662485 0.03438055273622996 0.015108661618046868 0.016317747068976915 0.011718508798764338
          0.01000570922702983 0.015960186134466384 0.016975446154333135 0.012426607838960352 0.010846480019496382 0.0168117106508859
          0.01763314523968935 0.013134706879156365 0.011687250811962932 0.00951984203419446 0.011984257311513766 0.010015626036987805
          0.012579599591908719 0.01051141003978115 0.01317494187230367 0.04127749155126855 0.03814945877127915 0.040575330020828936
          0.037836987471233416 0.03987316849038932 0.03752451617118768 0.000007264178620147327 0 0
          0.00036325631677000563 0.0006944381336318487 0.00047844781729246906 0.0005565711305669099 0.002161467364929055 0.0013816120886435501
          0.0009568956345849381 0.0011131422611338198 0.003959678413088105 0.04678988947812697 0.04598005549561541 0.054720718996358685
          0.052094399770227943 0.045570066593159944 0.044714150516939166 0.05295675060406609 0.05056210235341779 0.04435024370819293
          0.04344824553826292 0.0511927822117735 0.049029804936607635 0.048691895617134294 0.06414829745951407 0.04771441244163821
          0.062322728921204495 0.046736929266142126 0.0604971603828949 0.0004598694503165782 0.0008457216291126671 0.00020181381883081748
          0.00006477938517493205 0.0005859422460378252 0.0009605017270720627 0.00021995335995815503 0.00007395321256559363 0.0007120150417590723
          0.0010752818250314576 0.00023809290108549254 0.00008312703995625519 0.08749321356621054 0.09937085287725585 0.09319462765530666
          0.0785500994711859 0.08548148665938858 0.09631109950125315 0.09009063614333793 0.07661674473374755 0.08346975975256662
          0.09325134612525046 0.08698664463136918 0.0746833899963092 0 0 0
          0 0.0007713887970630779 0.0007973612367663793 0.0005517357550557048 0.000511488572265624 0.0015427775941261558
          0.0015947224735327586 0.0011034715101114097 0.001022977144531248 0.01958156454265342 0.01988713591561965 0.020157812724400447
          0.020617651509826654 0.02073406090614747 0.021348167104033654 0.041816239604609874 0.040907418415529646 0.03999859722644943
          0.00017672920732978895 0.0006863754530274573 0.0024886003512382977 0.004495642879630382 0.004800471495146808 0.008304910306233305
          0.004133808091001872 0.004409156846561197 0.0012415281050309228 0.007934298224231702 0.007092589640456209 0.0032747752953309712
          0.011734788357461534 0.009776022434351219 0.00530802248563102 0.027097365404094728 0.025384873819243543 0.04423567064106939
          0.03880956771338565 0.028235746255553567 0.0275574887303334 0.045259361170758336 0.03872939197411862 0.029374127107012406
          0.029730103641423256 0.046283051700447275 0.03864921623485159 0.05884107546986034 0.061900911080064736 0.06592597896763593
          0.05676579327888903 0.05973236679059525 0.06337119836298342 0.054690511087917726 0.05756382250112577 0.06081641775833093
          0.008570804123603896 0.015062579877680681 0.009109350641593034 0.015618235150159091 0.009647897159582173 0.016173890422637505
          0.006856101891581816 0.008449081931613393 0.008276519212090475 0.010327213213379033 0.00969693653259913 0.012205344495144675
          0.009731248143963369 0.0050802791957810815 0.011066988735233286 0.006033438436574101 0.0124027293265032 0.006986597677367118
          0.08263164918736138 0.07996583531704489 0.08756801023676201 0.08927778861302138 0.07882669189970869 0.07653749715691884
          0.08401254071692833 0.08542067650400138 0.075021734612056 0.07310915899679278 0.08045707119709465 0.0815635643949814
          0.024727458663330985 0.025546241565640587 0.03165731045453888 0.025154612405041778 0.026304477046299905 0.03195457991570905
          0.025581766146752564 0.027062712526959222 0.03225184937687922 0.001554184513966404 0.0009068802508508806 0.001987030859592815
          0.0013316793391185012 0.002419877205219226 0.0017564784273861212 0.023869054045539455 0.018865842310641368 0.024093986631980854
          0.019270586060802796 0.024318919218422257 0.019675329810964228 0.01614993384169626 0.01960445745164563 0.017261399715170756
          0.021248198243448153 0.018372865588645256 0.022891939035250677 0.009645896024229954 0.005497714523847746 0.010682837393755591
          0.00616050201805325 0.011719778763281228 0.006823289512258754 0 0 0
          0.000005681076951731729 0 0 0.000011362153903463459 0 0
          0.0054342959330272635 0.0030628718586887278 0.006297996897380103 0.0057696358978426175 0.0033335390129979824 0.006829069267337314
          0.0061049758626579706 0.0036042061673072384 0.007360141637294524 0.06805276380274408 0.07413034138951334 0.07428381195255748
          0.06544064134953996 0.07104529194914146 0.07107547891760718 0.06282851889633584 0.06796024250876956 0.06786714588265688
          0.07751319317032143 0.0740766403512693 0.07064008753221718 0 0 0
          0 0 0 0 0 0
          0 0 0 0.0677144070050381 0.07470943700927168 0.06534856323665032
          0.07192991488479103 0.06298271946826253 0.06915039276031036 0 0 0
          0 0 0 0.09551670948895652 0.08108169388159576 0.09214127077579183
          0.07819083000257399 0.08876583206262716 0.0752999661235522 0.05676545405839081 0.06661319343670667 0.05574007369330827
          0.066379114299795 0.05471469332822573 0.0661450351628833 0 0 0
          0.007327641890537659 0.007665906523761626 0.008004171156985592 0.03503609619450315 0.021468906993456893 0.03827994538387304
          0.025123993048553544 0.041523794573242935 0.028779079103650185 0.008537927989068862 0.009237075625291503 0.009936223261514145
          0.002799898217267713 0.005380256904422691 0.007960615591577668 0 0.000005681076951731729 0.000011362153903463459
          0.0023077978749925987 0.0026799415839604593 0.00305208529292832 6.613907135874396e-7 0.0000015087674124786655 0.0000023561441113698915
          0.0032962348052788543 0.00543691857305925 0.007577602340839646 0.0594296185843309 0.06069613364655858 0.06196264870878629
          0.09839203379261077 0.09488854839805594 0.0913850630035011 0.04607497318338867 0.04496889121621361 0.043862809249038556
          0 0 0 0 0.0005198004495949076 0.0010396008991898152
          0.008250288310116295 0.0082104789806265 0.008170669651136709 0.00858611503029696 0.00858133357561279 0.008576552120928619
          0.009339351811091062 0.009304624051243132 0.009269896291395203 0.009245224854633846 0.009241487931991421 0.009237751009348998
          0.010094846267741455 0.010073946728699854 0.010053047189658253 0.010309659162379886 0.010312770082913257 0.010315881003446629
          0.009743978315525158 0.009782906467307508 0.009821834619089859 0.008149047516507451 0.008225651695784842 0.00830225587506223
          0.005588319254602749 0.005696964916987091 0.00580561057937143 0.0054565955195003445 0.0036031322607196314 0.005668012490267784
          0.003764693458660148 0.005879429461035222 0.003926254656600665 0.001349499922107967 0.0005290070067502064 0.0005344404638811003
          0.001811639610190061 0.0013674217260392497 0.0005306425276537755 0.000556384688566458 0.0018910978384794066 0.001385343529970533
          0.0005322780485573445 0.0005783289132518157 0.001970556066768752 0.00003317673011525302 0.00003466362004382101 0.000036150509972389
          0.0026112978197521974 0.002657392821664077 0.002703487823575956 0.0001342572423497973 0.00013254861633602832 0.00013083999032225936
          0.008715438833855543 0.00855066806757365 0.008714826826053509 0.008548262919815901 0.008714214818251477 0.008545857772058154
          0.009505016968865647 0.009503809020899614 0.009502601072933582 0.0084418676513681 0.008443744161277687 0.008445620671187273
          0.009173893807089977 0.009177835980706562 0.009181778154323146 0.008053024613023756 0.00806643420292043 0.008079843792817103
          0.006031684641285126 0.006052148594740139 0.006072612548195154 0.003594382208442712 0.0036087614366007116 0.00362314066475871
          0.001624636594657608 0.0016309723735712853 0.0016373081524849627 0.0000735861533598021 0.000497681774105095 0.0003967175714250461
          0.00007630084151609082 0.0004975249895367045 0.00040117172088951895 0.00007901552967237953 0.000497368204968314 0.0004056258703539919
        </DataArray>
        <DataArray type="Float64" Name="pe11" format="ascii" RangeMin="-0.0009219277382925663" RangeMax="0.09649648036885175">
          0.00006756960815110715 0.000057730954236573064 0.00008386153407598387 0.00007151318704239938 0.0001001534600008606 0.00008529541984822569
          0.0000718848202255629 0.00004293346333272205 0.00010729772161786574 0.00007546551184929985 0.00014271062301016857 0.00010799756036587764
          0.00025732751547116555 0.0001987678767230856 0.00031992153033340564 0.00025925563529391476 0.00038251554519564573 0.0003197433938647439
          0.000852290357456062 0.0007622751831956411 0.0009425758327648874 0.0008519629235711507 0.0010328613080737125 0.0009416506639466601
          0.002171247987935266 0.002056233989843227 0.002275110042663708 0.0021622068518218278 0.00237897209739215 0.002268179713800429
          0.004585646564030019 0.004463918612763903 0.004664655238401538 0.004547241896636129 0.004743663912773057 0.004630565180508356
          0.00846506759519324 0.00836568045418077 0.008459093110582343 0.00836216992563004 0.008453118625971444 0.008358659397079311
          0.014269849471241203 0.014234848496116925 0.01409640632106733 0.014055224310751496 0.013922963170893456 0.013875600125386066
          0.02348167037168563 0.023729920741878855 0.023000308251120292 0.02321812531131453 0.02251894613055495 0.022706329880750206
          0.03580267443493804 0.034861158908392746 0.03483551149470199 0.033938657527348245 0.033868348554465924 0.033016156146303745
          0.00010225973983570005 0.00012725005452916084 0.00015224036922262163 0.000165146027897264 0.00020982895217839902 0.000254511876459534
          0.00043645754022810255 0.0005054488268724979 0.0005744401135168932 0.0011231411893357318 0.0012147337708490688 0.0013063263523624058
          0.002513241762276152 0.002610283391403628 0.002707325020531105 0.004943324260202022 0.005009825328023611 0.005076326395845198
          0.008755014960624368 0.008741658427645679 0.008728301894666989 0.014352771681329686 0.014196432806657337 0.014040093931984986
          0.022725295583198343 0.022330083224601643 0.021934870866004944 0.032074755510057805 0.031404806804006875 0.030734858097955946
          0.00017922515287312532 0.00021966579961347783 0.00026010644635383033 0.0003405578219239526 0.0003999936625094838 0.00045942950309501516
          0.0007467251267820626 0.0008254347741607224 0.0009041444215393823 0.001577629412588336 0.0016689007323953849 0.001760172052202434
          0.0030727919313526986 0.0031567151779122995 0.0032406384244719004 0.0055146576477503526 0.005561194069607917 0.00560773049146548
          0.009201137477326425 0.009176222789951345 0.009151308102576267 0.014432006700409884 0.014299836521282411 0.014167666342154935
          0.0214813702974799 0.02121322130177407 0.02094507230606825 0.02865752468545953 0.028344259286961427 0.028030993888463328
          0.0003249678996996296 0.0003847358972979921 0.0004445038948963547 0.0006227595899071618 0.0006989607091886645 0.0007751618284701674
          0.0012056275053380812 0.0012925916315944322 0.001379555757850783 0.002217852557725047 0.0023021570466522164 0.002386461535579386
          0.003831865522047697 0.0038939709922255644 0.003956076462403432 0.006260321817438163 0.006280227938622348 0.006300134059806532
          0.009738999767342237 0.009700774600932048 0.00966254943452186 0.014427993024961231 0.014324078764991973 0.014220164505022715
          0.019934790349481903 0.019803454152047616 0.019672117954613325 0.023500351248648892 0.02347624559949716 0.023452139950345424
          0.0005745611454317625 0.0006498196891116957 0.0007250782327916288 0.0010460268814651559 0.0011313067915805083 0.0012165867016958602
          0.0018356637949006856 0.0019182396922968524 0.0020008155896930188 0.0030407949314357925 0.003103672004922762 0.003166549078409731
          0.004759646694413363 0.004788647557276498 0.004817648420139634 0.0071227465353899 0.00711127033987344 0.00709979414435698
          0.010283712967533404 0.010234456010190629 0.01018519905284785 0.014257294192798465 0.01418747330965163 0.014117652426504791
          0.01822050117503972 0.018212840607762924 0.01820518004048613 0.0198592454162814 0.020044517110732758 0.020229788805184116
          0.0009766950304763546 0.0010452099550705574 0.0011137248796647607 0.001653492408438263 0.0017196796775190925 0.001785866946599922
          0.002657776285105169 0.0027063162425940723 0.0027548562000829753 0.0040344918931177875 0.004051907172558089 0.004069322451998391
          0.005810747388618927 0.005793396762881839 0.005776046137144754 0.008029311671279665 0.007985503376425151 0.007941695081570638
          0.010744178405736327 0.010692841952964327 0.010641505500192326 0.013851367097959796 0.013829057462785985 0.013806747827612174
          0.01632218295032071 0.01643305825889022 0.016543933567459725 0.016589341530709827 0.01694321803788177 0.017297094545053716
          0.0015780984735189153 0.0015947303669630922 0.0016113622604072687 0.002475991431661667 0.002475065162669836 0.0024741388936780056
          0.00367583789537833 0.003648200760216359 0.0036205636250543887 0.005170487405086044 0.005114145831938159 0.005057804258790273
          0.006925460246173356 0.006850591092880605 0.0067757219395878565 0.008899401195569298 0.008828396211222425 0.008757391226875553
          0.01103754727223192 0.011002479813356263 0.01096741235448061 0.013151711009552043 0.013201718276362122 0.0132517255431722
          0.014275287077307776 0.014509883427964372 0.01474447977862097 0.013513171085750321 0.013984786816905632 0.014456402548060944
          0.0023724644437712497 0.0023262231223181084 0.0022799818008649676 0.003486158776077464 0.0034129906590842102 0.0033398225420909564
          0.004840462315405502 0.004741615625419136 0.004642768935432769 0.006380437567546972 0.006265793224878312 0.006151148882209651
          0.008020236788674648 0.007909391739984487 0.0077985466912943256 0.00964750923037704 0.009569398140516373 0.009491287050655703
          0.011109471400356768 0.011100496159761445 0.011091520919166126 0.012160667706669098 0.012269341896406863 0.012378016086144625
          0.01212056821330822 0.012411362035183985 0.012702155857059753 0.010708166556658976 0.011159130746442416 0.011610094936225859
          0.005974287657407654 0.005881367185236774 0.005788446713065894 0.007453022600474207 0.007354386046259372 0.0072557494920445385
          0.008883558864851147 0.008795658137164094 0.008707757409477043 0.010105585261794591 0.010050190305122027 0.009994795348449464
          0.010907050477697638 0.01091014749263781 0.01091324450757798 0.011005011172901575 0.01109771341901903 0.011190415665136483
          0.010001398144256558 0.010206183885970306 0.010410969627684053 0.008320557786625384 0.008613556807393303 0.00890655582816122
          0.000003659338601098081 0.00018166090661047467 0.00021710732288970284 0.0000021048873367856842 0.000027397611265740023 -0.000010691482096749657
          0.0003018415106601259 0.0000034377772629704705 0.000051135883930381965 -0.00020304387080397396 0.00038657569843054897 0.000004770667189155257
          0 0 -0.000021771037437114524 0 -0.00004354207487422905 0
          0 0 0 0.0000937913095621866 -0.000009280231261029131 0.000013179756852673518
          0.0001875826191243732 -0.000018560462522058263 0.000026359513705347035 0.04851464026479715 0.043954480881351427 0.056400619695130265
          0.057091073852391865 0.0470792010392894 0.04315421822880937 0.054777245986309925 0.055147801862564884 0.045643761813781644
          0.04235395557626733 0.05315387227748959 0.05320452987273792 0.01219920586181325 0.0072591469566789385 0.002302789096103013
          0.005980127315030937 0.013789884057452264 0.007896195411319498 0.0032394180873783233 0.007578209028471896 0.015380562253091278
          0.008533243865960058 0.0041760470786536335 0.009176290741912854 0.028823834001918895 0.028708588313779114 0.03410845651081078
          0.03319062897107691 0.02877822359928235 0.02889702327679213 0.03392207825461507 0.03285475275072461 0.0287326131966458
          0.02908545823980515 0.03373569999841936 0.032518876530372304 0.013843657523918727 0.015407227469444121 0.010763233966890356
          0.008751541177170714 0.014682266907309536 0.016073139775363624 0.011444367430520387 0.009532415584562788 0.015520876290700345
          0.01673905208128313 0.012125500894150418 0.010313289991954864 0.00887507670196682 0.011450848431356832 0.00936238614277846
          0.012051366775628968 0.0098496955835901 0.012651885119901106 0.03879371056523945 0.03546890160776846 0.03823353914482522
          0.03541969278354817 0.03767336772441098 0.03537048395932788 0.0000020982172973738503 0 0
          0.000016639489427781077 0.00007036466913013241 0.00022532397898262683 0.0001217234496032593 -0.00045264412443239265 0.00013863112096289097
          0.0004506479579652537 0.0002434468992065186 -0.0009219277382925663 0.04410256725305656 0.04345574791599566 0.052814332303576364
          0.049967787344731625 0.04275160351125902 0.0421139724579601 0.050872594944480744 0.048242441852089875 0.041400639769461484
          0.04077219699992453 0.0489308575853851 0.046517096359448125 0.04483720963234169 0.06068289257481947 0.04411496348347404
          0.05906336807161363 0.04339271733460639 0.057443843568407794 0.00041968626940654466 0.0007920905827849203 0.00018819474665392584
          0.000060488787973085016 0.0005026706998955423 0.0008772618747196452 0.00020148224905803218 0.00006699397092410628 0.0005856551303845399
          0.0009624331666543702 0.00021476975146213852 0.00007349915387512755 0.07460250571502527 0.09431768040462876 0.0895085431434875
          0.07042489750630276 0.07341792647290943 0.0913116627707349 0.08635221414170965 0.06913255832886318 0.07223334723079358
          0.08830564513684104 0.0831958851399318 0.06784021915142362 0 0 0
          0 -0.00021261027339468535 -0.00001783107915976797 0.00003189868973820367 -0.00016698625140603135 -0.0004252205467893707
          -0.00003566215831953594 0.00006379737947640734 -0.0003339725028120627 0.018679266154173795 0.01865005229683564 0.019299837313660903
          0.019414921829855488 0.019920408473148004 0.02017979136287534 0.03942346744216323 0.038548291404429294 0.037673115366695334
          0.000059381124992714346 0.0004058622488208913 0.000086921299085266 -0.00008061129094466545 0.00011446147317781762 -0.0005670848307102223
          0.0007430440551501741 0.002458179983558936 0.000995305302518541 0.0006849470112992184 0.0023592154677982784 0.0008316236109398023
          0.0006268499674482628 0.0022602509520376216 0.0006679419193610636 0.024153187290452287 0.020609968523297786 0.03485513503023034
          0.03449982289792409 0.02539299770024099 0.02207781149195734 0.03600691456813313 0.034918854017491834 0.026632808110029688
          0.02354565446061689 0.03715869410603591 0.035337885137059585 0.05736326769813266 0.06030368011512404 0.0646871728127759
          0.05505820987815351 0.05789057239445761 0.061859722498587906 0.052753152058174366 0.05547746467379117 0.059032272184399916
          0.00784398282921301 0.014409496162531015 0.008350816921217119 0.014983278728773634 0.008857651013221227 0.015557061295016255
          0.00043933409167034074 0.002821679629034733 0.002077365703566573 0.004301260809987239 0.003715397315462806 0.005780841990939745
          0.007747207078364887 0.004151211451512467 0.008741415806616035 0.004859502367441013 0.009735624534867182 0.005567793283369558
          0.08145386265307283 0.07867732117523425 0.08602010383620137 0.0877820375436113 0.07740949140123078 0.07506092205943116
          0.08216576873572515 0.08365963067187526 0.07336512014938873 0.07144452294362805 0.07831143363524891 0.07953722380013921
          0.02333014849028807 0.023496436652419052 0.029453955817788702 0.02387680749006552 0.02440754996815474 0.02996433648036355
          0.02442346648984297 0.02531866328389042 0.030474717142938396 0.0013433741366947775 0.0008025119358073172 0.0016424087803984472
          0.001060511813668545 0.0019414434241021169 0.0013185116915297725 0.022795727694738827 0.01807138223502018 0.023099775024148627
          0.01851357367946624 0.023403822353558423 0.0189557651239123 0.014209832449117237 0.016422091385347882 0.015220372636915508
          0.017656664136340997 0.01623091282471378 0.01889123688733411 0.008081354337800592 0.004666298494025554 0.008982645601287424
          0.005212053091117554 0.009883936864774253 0.005757807688209554 0 0 0
          0.000002480614003007818 0 0 0.000004961228006015636 0 0
          0.004776680908352357 0.0026557005366461693 0.005522681048790714 0.005073701381583336 0.0028707347894104474 0.0059774909693177305
          0.005370721854814315 0.003085769042174725 0.006432300889844745 0.06685519170187446 0.07319173829926322 0.07349731047805355
          0.06397533823477086 0.06983970483427099 0.06996957394439511 0.061095484767667255 0.06648767136927879 0.06644183741073667
          0.07656149214726743 0.07281030650223247 0.06905912085719751 0 0 0
          0 0 0 0 0 0
          0 0 0 0.06601856523960378 0.07270293614073854 0.06353434714733039
          0.06992716040944497 0.061050129055057 0.0671513846781514 0 0 0
          0 0 0 0.09374293145917965 0.07847607264701457 0.08993858913852722
          0.07563075064502706 0.0861342468178748 0.07278542864303952 0.05035024481794326 0.05173406724043131 0.05008937388911374
          0.052201148163911464 0.049828502960284224 0.052668229087391605 0 0 0
          0.006606995643522297 0.00693240132198549 0.0072578070004486826 0.021925755288485557 0.01132784794750781 0.023995497550743063
          0.01336580632592553 0.026065239813000567 0.01540376470434325 0.007595576957899627 0.008226539400773671 0.008857501843647713
          -0.00011029433712064643 0.000179876556510553 0.00047004745014175234 0 0.000002480614003007818 0.000004961228006015636
          0.0019579286591375916 0.002233818620586243 0.002509708582034894 6.383596895918804e-7 0.0000014376324339408707 0.000002236905178289861
          -0.00022326242546234857 -0.00024024830315607816 -0.00025723418084980774 0.04031095354848684 0.04155145611622308 0.042791958683959325
          0.09649648036885175 0.09263398455242357 0.08877148873599539 0.043246244339162944 0.04199910444736469 0.040751964555566435
          0 0 0 0 -0.000091248043977308 -0.000182496087954616
          0.008191479796964243 0.008151471030723218 0.008111462264482193 0.008574751189217463 0.008569767099396688 0.008564783009575916
          0.009299052669708605 0.009264057435682716 0.009229062201656828 0.00923667652398446 0.009232859033859252 0.009229041543734044
          0.01007295666926372 0.01005183308507316 0.0100307095008826 0.010284131539202553 0.010287492727117094 0.010290853915031636
          0.00966083509901698 0.00970099729420567 0.009741159489394358 0.007929162382613555 0.008006588195130027 0.008084014007646498
          0.005257485511282649 0.005362353755276855 0.005467221999271063 0.004968206474635976 0.003288407762716624 0.00516847541892347
          0.0034320240257386947 0.005368744363210964 0.003575640288760765 0.0012898651099178108 0.0005162225344575944 0.0005102030846240432
          0.0016800537502927421 0.0013029456917226776 0.0005166294140799309 0.0005272592743618064 0.0017447977653151498 0.0013160262735275442
          0.0005170362937022675 0.0005443154640995694 0.0018095417803375574 0.0000328794250864225 0.00003424069295656075 0.000035601960826699
          0.002465257925859847 0.002504030014022359 0.002542802102184871 0.00013157772087459197 0.00012978483073720817 0.00012799194059982436
          0.008694740520888204 0.008542932286965297 0.008694157037252154 0.008540413920890062 0.008693573553616102 0.008537895554814828
          0.00948513744854477 0.009483914475118167 0.009482691501691563 0.008394875544685498 0.008396785987477116 0.008398696430268734
          0.009117447074593495 0.009121221836508276 0.009124996598423057 0.007932191310762693 0.007944661157167921 0.00795713100357315
          0.0058505336168511585 0.0058680902767985444 0.00588564693674593 0.003453433739020885 0.0034645570727692616 0.003475680406517638
          0.0015708651008174619 0.001575034501711594 0.0015792039026057262 0.00007165685177479015 0.0004897356096754746 0.000391855695129749
          0.00007421852127672441 0.0004890475018943889 0.00039594703089281235 0.00007678019077865867 0.0004883593941133034 0.00040003836665587577
        </DataArray>
        <DataArray type="Float64" Name="pe22" format="ascii" RangeMin="-0.04212375847979336" RangeMax="0.000605292277400238">
          -0.000035420283034544305 -0.00003034728355054517 -0.000043149406334669636 -0.00003700896229036886 -0.00005087852963479495 -0.00004367064103019255
          -0.00003593876294755011 -0.000021703972476598 -0.000051240059060324276 -0.000036258025427173954 -0.00006654135517309846 -0.000050812078377749915
          -0.00011418659811243993 -0.00008828442484413929 -0.0001333634299126294 -0.00010790407668687186 -0.00015254026171281887 -0.00012752372852960442
          -0.0003252808945034731 -0.00028966104973007767 -0.00033433905974506595 -0.00029986629062640215 -0.0003433972249866588 -0.00031007153152272674
          -0.0007054035581302837 -0.0006613659812908463 -0.0006883772618547135 -0.0006449801398826289 -0.000671350965579143 -0.0006285942984744114
          -0.0012774612232528209 -0.0012244953539801327 -0.0012293197323299133 -0.001175881254640476 -0.0011811782414070059 -0.0011272671553008195
          -0.0020600264145659596 -0.001992265330046714 -0.0019862190783735524 -0.0019168746934505709 -0.0019124117421811446 -0.0018414840568544279
          -0.0030847585980907513 -0.0029795448961102184 -0.0029830842964272833 -0.0028710189783214056 -0.002881409994763815 -0.002762493060532593
          -0.004315076307116154 -0.00411489017830538 -0.004159934782825096 -0.003943779545176696 -0.004004793258534037 -0.0037726689120480108
          -0.006362211526132089 -0.005453245109744893 -0.006006016595279771 -0.005121016888586916 -0.0056498216644274525 -0.004788788667428939
          -0.000053018828582310734 -0.00006428562604652538 -0.00007555242351074004 -0.00008072089729351659 -0.00009817721206777884 -0.0001156335268420411
          -0.0001917340968225748 -0.00020966562472186568 -0.00022759715262115655 -0.00043158013006434155 -0.000437631299489865 -0.0004436824689153885
          -0.0008366716526887329 -0.0008180547759195155 -0.0007994378991502981 -0.0014343494563369827 -0.0013878618602477467 -0.001341374264158511
          -0.0022616299466852383 -0.0021927750221431043 -0.0021239200976009708 -0.0033773196917809838 -0.003292822900306642 -0.0032083261088323004
          -0.004769367672542541 -0.004659273549687013 -0.004549179426831485 -0.006496900208859606 -0.006306610431239113 -0.006116320653618621
          -0.00009089225086033795 -0.00010762428846019208 -0.0001243563260600462 -0.0001614070768025998 -0.00018110868520948396 -0.00020081029361636809
          -0.00032130018986067704 -0.00033701604589016036 -0.0003527319019196437 -0.0006073588433999912 -0.0006091827690815315 -0.0006110066947630716
          -0.0010520950805150344 -0.0010317707543650734 -0.0010114464282151127 -0.0016892646366914448 -0.001646101960439737 -0.0016029392841880293
          -0.002582433620554451 -0.002521876985349935 -0.002461320350145419 -0.0037979812108073245 -0.0037361563194013682 -0.003674331427995411
          -0.005239404057868739 -0.0051943917059022 -0.005149379353935662 -0.006989817715581513 -0.007004511714447168 -0.007019205713312822
          -0.00015887840107793765 -0.00018045690250197312 -0.00020203540392600862 -0.0002831373224401024 -0.00030332038851710476 -0.0003235034545941072
          -0.0005034696528433212 -0.0005154459131017946 -0.0005274221733602678 -0.0008491154932509506 -0.0008461854092242343 -0.000843255325197518
          -0.0013453102674340456 -0.0013241685891419441 -0.0013030269108498427 -0.0020311730564395204 -0.001993249261562623 -0.0019553254666857256
          -0.0029875443184370965 -0.0029382937991413076 -0.002889043279845519 -0.0042653832091690625 -0.004229111455265088 -0.004192839701361112
          -0.005672116768248362 -0.0056878931347624445 -0.005703669501276527 -0.006829354227991226 -0.006941183758450977 -0.007053013288910729
          -0.0002651188296984258 -0.0002877521667476464 -0.000310385503796867 -0.00044970684202895364 -0.00046686724519072356 -0.0004840276483524935
          -0.0007369528115841215 -0.0007432954330200274 -0.0007496380544559331 -0.0011495468552709651 -0.0011422666356400684 -0.0011349864160091715
          -0.0017055758184876487 -0.0016852079644214812 -0.0016648401103553142 -0.0024414292046256066 -0.002410566144378534 -0.002379703084131462
          -0.0034326495315368795 -0.0033972677435332574 -0.003361885955529635 -0.004701470443857852 -0.004689622678901167 -0.0046777749139444835
          -0.00601545072078597 -0.006069543887895502 -0.006123637055005034 -0.006899593254015736 -0.007042921180901426 -0.007186249107787117
          -0.00041522863710318126 -0.000432063925976771 -0.00044889921485036065 -0.000661905856663721 -0.0006712969979322858 -0.0006806881392008506
          -0.0010166363912332372 -0.0010160341464412776 -0.0010154319016493177 -0.0014978265833051336 -0.0014875947693193817 -0.0014773629553336293
          -0.0021164010973302658 -0.0020988548999060046 -0.0020813087024817442 -0.002893801612477655 -0.0028716988041630025 -0.0028495959958483503
          -0.0038758423191839657 -0.0038556260912368198 -0.003835409863289674 -0.0050500059492509025 -0.005057938113948919 -0.005065870278646937
          -0.006152376547643662 -0.006226514504520757 -0.0063006524613978526 -0.00677716041570596 -0.0069266246190497266 -0.007076088822393494
          -0.0006082956793379991 -0.0006116999883686354 -0.0006151042973992717 -0.0009147280702281487 -0.0009125807276735133 -0.0009104333851188777
          -0.0013337076931446716 -0.0013261982465607208 -0.0013186887999767703 -0.0018797675672171715 -0.0018686760261721683 -0.0018575844851271646
          -0.0025552117691789843 -0.002542745041556954 -0.0025302783139349236 -0.0033576891940973034 -0.003345995923867766 -0.003334302653638228
          -0.004282503828398339 -0.004277711882807424 -0.00427291993721651 -0.00527653415621719 -0.005299658175650612 -0.005322782195084032
          -0.006098396522410991 -0.0061787302732963624 -0.006259064024181733 -0.006387319335033915 -0.006532931376413996 -0.006678543417794077
          -0.0008377950720148018 -0.0008242279775298151 -0.0008106608830448286 -0.0012026059376192993 -0.001186360121037087 -0.0011701143044548748
          -0.001680663780892436 -0.0016644732012688684 -0.0016482826216453006 -0.0022814766519316555 -0.0022680721205260864 -0.0022546675891205173
          -0.0029973015941252776 -0.002988770117080275 -0.0029802386400352727 -0.0038006420992396433 -0.003799105738160068 -0.003797569377080492
          -0.004629774360988945 -0.004641405855540129 -0.004653037350091311 -0.005375205938084443 -0.005414665750744734 -0.0054541255634050255
          -0.0058606222723293685 -0.0059437445820353305 -0.006026866891741292 -0.0058266420435616586 -0.005956550050939953 -0.006086458058318248
          -0.002191053040891601 -0.002175814544223503 -0.002160576047555404 -0.0028409558041165347 -0.0028315896924741555 -0.0028222235808317763
          -0.0035668780672723404 -0.0035652236997066296 -0.0035635693321409184 -0.004310507207191738 -0.004318525676200608 -0.004326544145209478
          -0.004961526242993267 -0.004984857063835961 -0.005008187884678655 -0.0053525946203650905 -0.005398347548380439 -0.005444100476395787
          -0.005346260101052134 -0.005414400018186181 -0.005482539935320227 -0.005031394807874766 -0.005114905634090097 -0.005198416460305428
          -0.0000018139651340723896 -0.00010347897357494801 -0.00011727124526509728 -0.0000010474735157950068 -0.00011553690351882662 -0.0001345634817710007
          -0.00011265700082176055 -0.0000013051024877629008 -0.00022925984190358086 -0.00016564798996705342 -0.00010804275637842385 -0.000001562731459730795
          0 0 0.000013073059366056821 0 0.000026146118732113642 0
          0 0 0 -0.00009172816632720765 0.000009659536774940462 -0.000014596801278230501
          -0.00018345633265441533 0.000019319073549880923 -0.000029193602556461002 -0.012982738316031988 -0.011692783368253745 -0.017750401575215697
          -0.017660578435603688 -0.01211837394286918 -0.011321560015670532 -0.016540546553585188 -0.016244322292200797 -0.011254009569706373
          -0.01095033666308732 -0.015330691531954682 -0.014828066148797902 -0.00270423613046163 -0.0025266940702343647 -0.000798825717146076
          -0.001118565335029036 -0.0035192870968745833 -0.002412165203995751 -0.000827580804651645 -0.0015872015992412026 -0.004334338063287537
          -0.002297636337757137 -0.0008563358921572139 -0.002055837863453369 -0.008093988000905222 -0.008367140519212182 -0.008485545484885048
          -0.008011752071220372 -0.00828064110323303 -0.008667502555889096 -0.008621187941162895 -0.008063071887991873 -0.00846729420556084
          -0.00896786459256601 -0.00875683039744074 -0.008114391704763371 -0.006835978113888223 -0.007003668303743643 -0.0057150387965898865
          -0.004777208169412658 -0.00716589968473751 -0.007318835541444115 -0.005899618346216983 -0.004951288294089433 -0.007495821255586798
          -0.007634002779144588 -0.00608419789584408 -0.005125368418766206 -0.0052497120776508 -0.006087778500240288 -0.005382895114717081
          -0.006253264936631996 -0.0055160781517833634 -0.006418751373023703 -0.009399350195795624 -0.009322747420096514 -0.009307147732461466
          -0.009528758649390864 -0.009214945269127308 -0.009734769878685216 -7.96144760448911e-7 0 0
          0.00003568879954578918 -0.00011251125312514834 -0.00023275575412614458 -0.00010630193784404526 0.00002799095803358333 -0.0002242263614898478
          -0.00046551150825228915 -0.00021260387568809052 0.00002029311652137748 -0.00887898200656709 -0.009406998452631377 -0.014922609977085758
          -0.012643612397024067 -0.008193453907334272 -0.008758328033971434 -0.013640627781563016 -0.011564209356796673 -0.007507925808101456
          -0.008109657615311494 -0.01235864558604028 -0.010484806316569275 -0.012922630149457728 -0.022388011296597066 -0.012540577122201977
          -0.021029926733237527 -0.012158524094946228 -0.01967184216987799 -0.00023594151516695885 -0.0004562284433026158 -0.0001084512402491031
          -0.00003510913027317911 -0.00023826142887057068 -0.0004578187099764693 -0.00010823462218129214 -0.00003537477927107988 -0.0002405813425741825
          -0.0004594089766503227 -0.0001080180041134812 -0.00003564042826898064 -0.031798294621857306 -0.04212375847979336 -0.03970043908746846
          -0.029713984988371567 -0.03055157072701293 -0.039197996502467074 -0.03676578953799553 -0.028585336198586137 -0.02930484683216855
          -0.03627223452514078 -0.03383113998852259 -0.027456687408800702 0 0 0
          0 0.000302646138700119 0.000038940056941694886 -0.00004448600471006199 0.0002037767199737946 0.000605292277400238
          0.00007788011388338977 -0.00008897200942012398 0.0004075534399475892 -0.007572729215827002 -0.008104263680266018 -0.00797069463081059
          -0.008538622041352084 -0.00836866004579418 -0.008972980402438149 -0.009010401419816719 -0.008687599663582825 -0.008364797907348934
          -0.00004820210478969608 -0.00024364371106742894 -0.0005462303233639218 -0.00040617329759512586 -0.0010442585419381475 -0.0005687028841228224
          -0.0004291654170713497 -0.0011042679495193565 -0.00048055510360190827 -0.0005021537127900003 -0.000579651276580786 -0.00024233146662821768
          -0.0005751420085086509 -0.00005503460364221559 -0.000004107829654527033 -0.007539267363971418 -0.005745795902545269 -0.010491988192259783
          -0.00902980188415005 -0.008180485998089794 -0.006466399881691171 -0.011595254998781623 -0.009535006798194492 -0.008821704632208167
          -0.007187003860837073 -0.012698521805303458 -0.010040211712238933 -0.017718922173001077 -0.019530510024693696 -0.02265242397866168
          -0.01610452259225616 -0.01768941189261894 -0.020386360294752506 -0.014490123011511242 -0.01584831376054418 -0.018120296610843332
          -0.0046038748603758894 -0.00669121286056102 -0.0047134392639241905 -0.006881148033919012 -0.0048230036674724915 -0.007071083207277003
          0.000019817442651770913 -0.00048173644376348367 -0.0010655504623277164 -0.0011110042438594373 -0.0021509183673072037 -0.0017402720439553914
          -0.0032189939196221044 -0.0020583848815209594 -0.0036091573534243575 -0.002177984272299438 -0.00399932078722661 -0.0022975836630779174
          -0.033139292835401804 -0.031442767790619955 -0.03501938943847046 -0.034577755927056156 -0.029549753639523703 -0.0282665080437644
          -0.03147218833512543 -0.03072876664801716 -0.0259602144436456 -0.02509024829690884 -0.027924987231780406 -0.026879777368978158
          -0.008249444245384426 -0.008032495582292618 -0.0082363938191215 -0.008658428873384937 -0.008659416592496381 -0.008765656136717934
          -0.009067413501385447 -0.009286337602700145 -0.00929491845431437 -0.0007250300569957075 -0.0004101044058130155 -0.0007443799195817108
          -0.00041276535433982527 -0.0007637297821677143 -0.0004154263028666349 -0.007661128361348399 -0.007046708278979729 -0.007944950529202917
          -0.007290236458606589 -0.008228772697057431 -0.00753376463823345 -0.006116151507802072 -0.00594675107301389 -0.006565631656452621
          -0.0063883253132407565 -0.007015111805103168 -0.006829899553467621 -0.004007452225947211 -0.0028174996974514176 -0.004196125605998702
          -0.0028903182440321532 -0.004384798986050192 -0.0029631367906128884 0 0 0
          -0.0000021618141698108416 0 0 -0.000004323628339621683 0 0
          -0.003046329693482398 -0.0016696718252587656 -0.0033892719676398095 -0.0030898764480233477 -0.0016893071797355022 -0.003467485959655519
          -0.003133423202564296 -0.001708942534212238 -0.003545699951671229 -0.024284927915692416 -0.02883474798045558 -0.029607528131697772
          -0.021959052081546873 -0.02597476478923434 -0.02651315953170239 -0.01963317624740133 -0.02311478159801309 -0.023418790931707005
          -0.031213784254355212 -0.027872538925621984 -0.024531293596888756 0 0 0
          0 0 0 0 0 0
          0 0 0 -0.02368793270320751 -0.028567088924620558 -0.021704432993257854
          -0.02609311170044316 -0.019720933283308206 -0.02361913447626576 0 0 0
          0 0 0 -0.0397296400703655 -0.033430894810474475 -0.036109005168009155
          -0.030866760484332133 -0.032488370265652815 -0.028302626158189792 -0.017181773217932655 -0.020188757568381285 -0.017222518009765236
          -0.02073198295487772 -0.01726326280159782 -0.02127520834137416 0 0 0
          -0.004239927674181451 -0.004311041339046858 -0.004382155003912265 -0.005165604471205931 -0.000703053944248972 -0.0069596186816158565
          -0.00210752756828358 -0.008753632892025784 -0.0035120011923181877 -0.00449001330362623 -0.004625291290994161 -0.004760569278362093
          0.00017364590158480808 -0.0006375745578773962 -0.0014487950173396004 0 -0.0000021618141698108416 -0.000004323628339621683
          -0.0011627327281896634 -0.0011845621687524134 -0.0012063916093151634 -3.35451960404249e-7 -6.819553094041433e-7 -0.0000010284586584040378
          0.0005314954230285631 -0.00014780346921321001 -0.0008271023614549832 -0.01378241874284128 -0.014999474409011447 -0.016216530075181614
          -0.040394488157729884 -0.0366498656872634 -0.032905243216796914 -0.008121482618289438 -0.0074724575115399025 -0.006823432404790365
          0 0 0 0 0.00019773883745264877 0.00039547767490529754
          -0.0036052384975793217 -0.0036095787133434997 -0.003613918929107678 -0.004217668962196052 -0.004228256538472251 -0.004238844114748449
          -0.004263817167415332 -0.0042735777592525425 -0.004283338351089752 -0.0046884976785449214 -0.004702323169880048 -0.004716148661215176
          -0.004828663916378149 -0.004844440052471571 -0.004860216188564993 -0.0051582267478738324 -0.005182825017596658 -0.005207423287319483
          -0.005074287994372224 -0.005107257788045562 -0.005140227581718901 -0.004449501140478502 -0.004479015631625957 -0.004508530122773411
          -0.00322752410765973 -0.0032376549468639848 -0.003247785786068239 -0.003234567881706757 -0.0020713457884151878 -0.003253154928645145
          -0.0020746774695978402 -0.0032717419755835335 -0.0020780091507804927 -0.0007421549597182229 -0.00028484616328277435 -0.0002954154644108951
          -0.0010248388474629797 -0.0007304952150282959 -0.0002781941688985407 -0.0002907558287005602 -0.001019244390050704 -0.0007188354703383691
          -0.00027154217451430714 -0.00028609619299022526 -0.0010136499326384284 -0.000017228565646480083 -0.000017488484125571286 -0.000017748402604662482
          -0.0014723718846150155 -0.0014562677525619728 -0.0014401636205089302 -0.00007312078329675963 -0.00007134601889756884 -0.00006957125449837805
          -0.0046289593160198095 -0.004429096463134186 -0.004640324571743954 -0.00443829855599023 -0.004651689827468098 -0.004447500648846273
          -0.004963512112820297 -0.004980267177188991 -0.004997022241557686 -0.004581061619505218 -0.00459376368566755 -0.004606465751829883
          -0.004905500580719981 -0.004924964672088949 -0.004944428763457918 -0.004374237824367202 -0.004392096401635607 -0.004409954978904013
          -0.003319247324182481 -0.0033235902961121673 -0.003327933268041854 -0.00200109409534986 -0.0019893691139866746 -0.001977644132623489
          -0.0008891999409430511 -0.0008770220335283052 -0.0008648441261135595 -0.00003190460132687009 -0.0002553650429284603 -0.00019616071742512706
          -0.000032847708264297166 -0.00025110679605375597 -0.00019637910404726443 -0.00003379081520172424 -0.0002468485491790517 -0.0001965974906694018
        </DataArray>
        <DataArray type="Float64" Name="pe33" format="ascii" RangeMin="-0.056101992211121714" RangeMax="0.0011357877148373728">
          -0.00003214932511656283 -0.000027383670686027886 -0.00004071212774131424 -0.00003450422475203051 -0.00004927493036606566 -0.00004162477881803314
          -0.00003594605727801279 -0.00002122949085612404 -0.000056057662557541446 -0.00003920748642212588 -0.00007616926783707012 -0.000057185481988127716
          -0.00014314091735872562 -0.00011048345187894631 -0.00018655810042077627 -0.00015135155860704293 -0.0002299752834828269 -0.0001922196653351395
          -0.0005270094629525889 -0.00047261413346556336 -0.0006082367730198212 -0.0005520966329447482 -0.0006894640830870536 -0.0006315791324239332
          -0.0014658444298049818 -0.0013948680085523802 -0.001586732780808994 -0.0015172267119391986 -0.0017076211318130064 -0.0016395854153260171
          -0.0033081853407771985 -0.0032394232587837695 -0.003435335506071625 -0.0033713606419956527 -0.0035624856713660506 -0.003503298025207536
          -0.006405041180627281 -0.006373415124134054 -0.0064728740322087894 -0.006445295232179469 -0.006540706883790299 -0.006517175340224884
          -0.01118509087315045 -0.011255303600006705 -0.011113322024640045 -0.011184205332430086 -0.011041553176129638 -0.01111310706485347
          -0.01916659406456947 -0.019615030563573468 -0.01884037346829519 -0.01927434576613783 -0.018514152872020913 -0.018933660968702193
          -0.02944046290880592 -0.02940791379864785 -0.028829494899422194 -0.02881764063876133 -0.02821852689003846 -0.02822736747887481
          -0.000049240911253389325 -0.00006296442848263544 -0.00007668794571188157 -0.0000844251306037474 -0.00011165174011062015 -0.00013887834961749288
          -0.0002447234434055277 -0.00029578320215063226 -0.00034684296089573677 -0.0006915610592713901 -0.0007771024713592036 -0.0008626438834470172
          -0.0016765701095874186 -0.0017922286154841126 -0.001907887121380806 -0.0035089748038650394 -0.0036219634677758625 -0.003734952131686686
          -0.00649338501393913 -0.0065488834055025735 -0.006604381797066017 -0.010975451989548697 -0.01090360990635069 -0.010831767823152684
          -0.017955927910655794 -0.01767080967491462 -0.01738569143917345 -0.02557785530119812 -0.02509819637276766 -0.024618537444337195
          -0.00008833290201278735 -0.00011204151115328575 -0.00013575012029378415 -0.00017915074512135268 -0.0002188849772999999 -0.00025861920947864713
          -0.00042542493692138546 -0.000488418728270562 -0.0005514125196197387 -0.0009702705691883446 -0.0010597179633138535 -0.0011491653574393623
          -0.0020206968508376636 -0.002124944423547225 -0.0022291919962567877 -0.0038253930110589067 -0.003915092109168178 -0.00400479120727745
          -0.006618703856771972 -0.006654345804601409 -0.0066899877524308465 -0.010634025489602555 -0.010563680201881039 -0.010493334914159522
          -0.01624196623961114 -0.016018829595871847 -0.015795692952132553 -0.021667706969877843 -0.02133974757251402 -0.0210117881751502
          -0.00016608949862169186 -0.00020427899479601893 -0.000242468490970346 -0.00033962226746705944 -0.00039564032067155984 -0.0004516583738760602
          -0.00070215785249476 -0.0007771457184926375 -0.000852133584490515 -0.0013687370644740958 -0.0014559716374279818 -0.0015432062103818676
          -0.002486555254613651 -0.00256980240308362 -0.0026530495515535886 -0.004229148760998642 -0.004286978677059724 -0.0043448085931208046
          -0.006751455448905137 -0.006762480801790739 -0.0067735061546763415 -0.010162609815792166 -0.010094967309726883 -0.010027324803661598
          -0.014262673581233513 -0.014115561017285132 -0.013968448453336751 -0.01667099702065751 -0.01653506184104598 -0.01639912666143445
          -0.00030944231573333655 -0.00036206752236404914 -0.00041469272899476183 -0.0005963200394362021 -0.0006644395463897844 -0.0007325590533433666
          -0.0010987109833165642 -0.0011749442592768249 -0.0012511775352370856 -0.001891248076164827 -0.001961405369282693 -0.0020315626624005587
          -0.0030540708759257146 -0.003103439592855017 -0.003152808309784319 -0.0046813173307642935 -0.004700704195494905 -0.0047200910602255165
          -0.006851063435996522 -0.006837188266657368 -0.006823313097318215 -0.009555823748940602 -0.00949785063075045 -0.009439877512560299
          -0.012205050454253713 -0.012143296719867379 -0.012081542985481046 -0.01295965216226556 -0.013001595929831201 -0.01304353969739684
          -0.0005614663933731732 -0.0006131460290937866 -0.0006648256648143999 -0.0009915865517745417 -0.0010483826795868066 -0.0011051788073990715
          -0.0016411398938719316 -0.001690282096152795 -0.0017394242984336583 -0.0025366653098126534 -0.0025643124032387076 -0.0025919594966647614
          -0.00369434629128866 -0.003694541862975834 -0.0036947374346630087 -0.005135510058802011 -0.005113804572262147 -0.005092099085722285
          -0.0068683360865523565 -0.0068372158617275025 -0.0068060956369026485 -0.00880136114870888 -0.00877111934883705 -0.008740877548965223
          -0.010169806402677013 -0.010206543754369423 -0.010243281106061835 -0.009812181115003812 -0.010016593418831975 -0.01022100572266014
          -0.0009698027941809162 -0.0009830303785944568 -0.0009962579630079975 -0.0015612633614335183 -0.0015624844349963233 -0.0015637055085591283
          -0.0023421302022336578 -0.002322002513655638 -0.002301874825077619 -0.0032907198378688716 -0.0032454698057659895 -0.003200219773663108
          -0.0043702484769943695 -0.00430784605132365 -0.004245443625652931 -0.005541712001471993 -0.005482400287354659 -0.005423088573237325
          -0.0067550434438335746 -0.0067247679305488355 -0.006694492417264095 -0.007875176853334838 -0.007902060100711495 -0.007928943348088151
          -0.00817689055489676 -0.008331153154667982 -0.008485415754439205 -0.007125851750716376 -0.007451855440491602 -0.007777859130266827
          -0.0015346693717564477 -0.0015019951447882932 -0.0014693209178201386 -0.0022835528384581635 -0.0022266305380471228 -0.0021697082376360816
          -0.0031597985345130654 -0.0030771424241502667 -0.0029944863137874693 -0.004098960915615315 -0.003997721104352225 -0.003896481293089134
          -0.00502293519454937 -0.00492062162290421 -0.004818308051259051 -0.005846867131137395 -0.005770292402356303 -0.0056937176735752095
          -0.006479697039367818 -0.006459090304221313 -0.006438483569074808 -0.006785461768584645 -0.006854676145662116 -0.006923890522739586
          -0.006259945940978833 -0.006467617453148637 -0.0066752889653184395 -0.004881524513097306 -0.005202580695502447 -0.0055236368779075905
          -0.003783234616516053 -0.003705552641013271 -0.0036278706655104897 -0.004612066796357672 -0.004522796353785217 -0.004433525911212763
          -0.005316680797578806 -0.005230434437457464 -0.005144188077336122 -0.005795078054602852 -0.005731664628921418 -0.005668251203239983
          -0.005945524234704369 -0.0059252904288018445 -0.0059050566228993195 -0.005652416552536479 -0.0056993658706385834 -0.005746315188740688
          -0.0046551380432044145 -0.004791783867784115 -0.004928429692363817 -0.003289162978750613 -0.0034986511733032005 -0.0037081393678557867
          -0.000001845373467025692 -0.00007818193303552662 -0.00009983607762460555 -0.000001057413820990677 0.00008813929225184946 0.000145254963858489
          -0.0001891845098383653 -0.00000213267477520757 0.0001781239579707246 0.00036869186075250463 -0.00027853294205212507 -0.0000032079357294244628
          0 0 0.000008697978071057704 0 0.00001739595614211541 0
          0 0 0 -0.0000020631432349804653 -3.7930551391132153e-7 0.0000014170444255568643
          -0.0000041262864699609315 -7.586110278226431e-7 0.0000028340888511137286 -0.035531901948764995 -0.03226169751309723 -0.038650218119914356
          -0.03943049541678812 -0.03496082709641999 -0.03183265821313787 -0.03823669943272428 -0.03890347957036405 -0.034389752244074985
          -0.03140361891317851 -0.03782318074553421 -0.03837646372393999 -0.009494969731348661 -0.004732452886444159 -0.001503963378955075
          -0.004861561980000639 -0.010270596960565393 -0.0054840302073114 -0.0024118372827057265 -0.00599100742922104 -0.011046224189782124
          -0.0062356075281786395 -0.0033197111864563776 -0.0071204528784414405 -0.02072984600101334 -0.020341447794566335 -0.025622911025925118
          -0.02517887689985618 -0.02049758249604883 -0.020229520720902117 -0.025300890313451237 -0.024791680862732222 -0.020265318991084327
          -0.0201175936472379 -0.024978869600977352 -0.02440448482560827 -0.0070076794100304065 -0.008403559165700389 -0.005048195170300448
          -0.0039743330077580425 -0.007516367222571863 -0.008754304233919371 -0.0055447490843033706 -0.004581127290473333 -0.008025055035113322
          -0.009105049302138351 -0.006041302998306293 -0.005187921573188625 -0.003625364624316012 -0.005363069931116521 -0.003979491028061366
          -0.005798101838996943 -0.00433361743180672 -0.006233133746877366 -0.029394360369443377 -0.026146154187670915 -0.028926391412363032
          -0.025890934134155677 -0.028458422455282684 -0.02563571408064044 -0.0000013020725369249338 0 0
          -0.0000523282889735692 0.00004214658399514011 0.000007431775143515864 -0.000015421511759214074 0.00042465316639919487 0.00008559524052720516
          0.00001486355028703173 -0.00003084302351842814 0.000901634621771959 -0.035223585246489456 -0.03404874946336423 -0.03789172232649059
          -0.03732417494770756 -0.03455814960392475 -0.03335564442398861 -0.03723196716291772 -0.03667823249529322 -0.03389271396136004
          -0.03266253938461299 -0.036572211999344864 -0.03603229004287888 -0.031914579482882954 -0.03829488127822192 -0.03157438636126938
          -0.03803344133837477 -0.031234193239655803 -0.03777200139852761 -0.00018374475423958594 -0.0003358621394823046 -0.00007974350640482276
          -0.00002537965769990592 -0.00026440927102497157 -0.00041944316474317594 -0.00009324762687674002 -0.000031619191653026406 -0.00034507378781035725
          -0.0005030241900040472 -0.0001067517473486573 -0.0000378587256061469 -0.042804211093165824 -0.052193921924835116 -0.04980810405601882
          -0.040710912517930124 -0.04286635574589677 -0.05211366626829501 -0.049586424603728495 -0.040547222130276346 -0.04292850039862771
          -0.05203341061175489 -0.04936474515143817 -0.040383531742622554 0 0 0
          0 -0.0000900358653054353 -0.000021108977781927895 0.000012587314971857745 -0.00003679046856776433 -0.0001800717306108706
          -0.0000422179555638558 0.00002517462994371549 -0.00007358093713552867 -0.011106536938346656 -0.010545788616569449 -0.011329142682850088
          -0.010876299788503102 -0.011551748427353516 -0.011206810960436754 -0.030413066022346263 -0.029860691740846112 -0.029308317459345958
          -0.000011179020203018992 -0.00016221853775346304 0.00045930902427485933 0.0004867845885419549 0.0009297970687527377 0.0011357877148373728
          -0.00031387863807800934 -0.0013539120340401833 -0.0005147501989166326 -0.00018279329848609768 -0.0017795641911961346 -0.0005892921443067155
          -0.00005170795889418607 -0.002205216348352086 -0.0006638340896967984 -0.016613919926479745 -0.014864172620750033 -0.024363146837968197
          -0.025470021013772704 -0.01721251170214892 -0.01561141161026027 -0.024411659569336296 -0.025383847219294126 -0.01781110347781809
          -0.016358650599770503 -0.024460172300704398 -0.025297673424815554 -0.039644345525131575 -0.04077317009043032 -0.04203474883411421
          -0.03895368728589739 -0.040201160501838695 -0.04147336220383544 -0.0382630290466632 -0.03962915091324708 -0.04091197557355667
          -0.0032401079688371115 -0.007718283301969945 -0.003637377657292915 -0.008102130694854557 -0.004034647345748718 -0.008485978087739168
          -0.0004591515343201149 -0.0023399431852711454 -0.001011815241231107 -0.0031902565661255967 -0.001564478948142099 -0.004040569946980047
          -0.004528213158742759 -0.002092826569991504 -0.005132258453191619 -0.0026815180951415673 -0.0057363037476404815 -0.0032702096202916306
          -0.04831456981767103 -0.04723455338461429 -0.051000714397730934 -0.05320428161655519 -0.04785973776171044 -0.04679441401566886
          -0.05069358040060869 -0.05293086402387362 -0.047404905705749845 -0.046354274646723446 -0.05038644640348644 -0.05265744643119205
          -0.015080704244903315 -0.015463941070125886 -0.021217561998666073 -0.015218378616680048 -0.01574813337565737 -0.02119868034364391
          -0.015356052988456782 -0.016032325681188855 -0.02117979868862174 -0.0006183440796990702 -0.0003924075299943017 -0.0008980288608167363
          -0.0006477464593287196 -0.001177713641934402 -0.0009030853886631375 -0.015134599333390203 -0.011024673956040324 -0.015154824494945391
          -0.011223337220859482 -0.015175049656500577 -0.01142200048567864 -0.008093680941314995 -0.010475340312333586 -0.008654740980462568
          -0.011268338823099232 -0.009215801019610143 -0.012061337333864875 -0.004073902111853365 -0.001848798796574134 -0.004786519995288697
          -0.0023217348470853964 -0.005499137878724029 -0.0027946708975966593 0 0 0
          -3.1879983319697534e-7 0 0 -6.375996663939507e-7 0 0
          -0.0017303512148699575 -0.0009860287113874033 -0.0021334090811509013 -0.0019838249335599875 -0.001181427609674945 -0.002510005009662206
          -0.0022372986522500174 -0.001376826507962487 -0.0028866009381735102 -0.04257026378618203 -0.044356990318807646 -0.04388978234635581
          -0.042016286153224024 -0.04386494004503683 -0.043456414412692795 -0.04146230852026602 -0.04337288977126603 -0.04302304647902978
          -0.04534770789291223 -0.04493776757661073 -0.044527827260309225 0 0 0
          0 0 0 0 0 0
          0 0 0 -0.042330632536396254 -0.04413584721611798 -0.04182991415407264
          -0.043834048709002434 -0.04132919577174904 -0.04353225020188689 0 0 0
          0 0 0 -0.05401329138881405 -0.045045177836540023 -0.05382958397053856
          -0.044763990160695794 -0.05364587655226307 -0.04448280248485157 -0.03316847160000988 -0.03154530967204781 -0.03286685587934525
          -0.03146916520900989 -0.03256524015868062 -0.03139302074597198 0 0 0
          -0.002367067969340845 -0.0026213599829386296 -0.002875651996536414 -0.016760150817276918 -0.010624794003258014 -0.01703587886910624
          -0.011258278757635382 -0.017311606920935557 -0.011891763512012746 -0.003105563654273391 -0.003601248109779498 -0.004096932565285605
          -0.00006335156446296203 0.0004576980013685162 0.0009787475671999943 0 -3.1879983319697534e-7 -6.375996663939507e-7
          -0.000795195930947928 -0.0010492564518338294 -0.0013033169727197306 -3.0290772918763127e-7 -7.55677124536727e-7 -0.0000012084465198858228
          -0.00030823299756605583 0.00038805177236968865 0.0010843365423054332 -0.026528534805643055 -0.026551981707182825 -0.026575428608722588
          -0.056101992211121714 -0.05598411886518925 -0.055866245519256785 -0.035124761720873504 -0.034526646935824794 -0.03392853215077609
          0 0 0 0 -0.00010649079347534194 -0.00021298158695068388
          -0.004586241299384919 -0.004541892317379718 -0.004497543335374515 -0.004357082227021408 -0.004341510560924436 -0.004325938894827464
          -0.00503523550229327 -0.004990479676430173 -0.004945723850567074 -0.004548178845439535 -0.004530535863979201 -0.004512892882518866
          -0.00524429275288557 -0.005207393032601586 -0.005170493312317603 -0.005125904791328719 -0.005104667709520435 -0.0050834306277121495
          -0.0045865471046447545 -0.004593739506160104 -0.004600931907675454 -0.003479661242135051 -0.003527572563504068 -0.0035754838848730845
          -0.0020299614036229175 -0.0021246988084128705 -0.002219436213202823 -0.0017336385929292194 -0.001217061974301437 -0.0019153204902783245
          -0.0013573465561408544 -0.0020970023876274294 -0.001497631137980272 -0.0005477101501995878 -0.00023137637117482003 -0.00021478762021314799
          -0.000655214902829762 -0.0005724504766943815 -0.00023843524518139022 -0.000236503445661246 -0.0007255533752644455 -0.0005971908031891754
          -0.00024549411918796035 -0.0002582192711093439 -0.0007958918476991288 -0.000015650859439942412 -0.000016752208830989463 -0.000017853558222036517
          -0.0009928860412448308 -0.0010477622614603862 -0.0011026384816759413 -0.000058456937577832304 -0.000058438811839639316 -0.00005842068610144633
          -0.0040657812048683906 -0.004113835823831108 -0.0040538324655081965 -0.004102115364899831 -0.0040418837261480016 -0.004090394905968553
          -0.004521625335724471 -0.004503647297929172 -0.004485669260133874 -0.0038138139251802767 -0.003803022301809564 -0.0037922306784388504
          -0.004211946493873513 -0.004196257164419325 -0.004180567834965137 -0.0035579534863954894 -0.003552564755532313 -0.003547176024669136
          -0.0025312862926686764 -0.0025444999806863763 -0.0025577136687040757 -0.0014523396436710244 -0.0014751879587825865 -0.0014980362738941486
          -0.0006816651598744107 -0.0006980124681832887 -0.0007143597764921668 -0.000039752250447920074 -0.0002343705667470143 -0.0001956949777046219
          -0.000041370813012427236 -0.00023794070584063292 -0.0001995679268455479 -0.0000429893755769344 -0.00024151084493425154 -0.00020344087598647383
        </DataArray>
        <DataArray type="Float64" Name="disp_x" format="ascii" RangeMin="0" RangeMax="0.00003433062757308375">
          1.449714526445462e-7 0 1.4689237010233247e-7 0 1.5241100145442233e-7 0
          1.4018138406934965e-7 0 1.442649995961815e-7 0 1.5653968120106082e-7 0
          1.5158982037321257e-7 0 1.5873417781849024e-7 0 1.8095544726166537e-7 0
          2.0461308327347445e-7 0 2.145502862705708e-7 0 2.47583514556452e-7 0
          3.371198610859906e-7 0 3.497662154203277e-7 0 3.898772805610033e-7 0
          5.965963915083643e-7 0 6.074061546733483e-7 0 6.413697518322055e-7 0
          0.0000010273867749449574 0 0.0000010289274505427445 0 0.0000010356998392426254 0
          0.0000016758762558088848 0 0.0000016571769774307417 0 0.0000016079035666735031 0
          0.0000026322212841415368 0 0.0000025837764332034405 0 0.0000024306565154746626 0
          0.000004456574913941011 0 0.000004348074053411188 0 0.000003982372471104453 0
          2.918630579437827e-7 2.963445395908253e-7 3.0939084577205305e-7 2.863091097552917e-7 2.9515093011515686e-7 3.219655220267353e-7
          3.157571248209606e-7 3.302993690716416e-7 3.763432576126771e-7 4.2898522575468854e-7 4.4947089002797645e-7 5.16233020702733e-7
          7.011550958154022e-7 7.258864904395423e-7 8.044191012783312e-7 0.0000012225636105667814 0.0000012430315256166981 0.0000013075101129556425
          0.0000020800365475095514 0.000002081879370219543 0.0000020922808317052874 0.0000033620370284700692 0.0000033267581474329816 0.0000032307547163053703
          0.000005248764796526314 0.000005153781547258413 0.000004865611780506394 0.000008694783196749308 0.00000848925638408744 0.000007814806450744719
          4.4340273592131274e-7 4.5184907659772383e-7 4.767210835485292e-7 4.454712649331585e-7 4.604450813666779e-7 5.063165018811473e-7
          5.05561022136829e-7 5.285187170855814e-7 6.017012390670174e-7 6.937189433871106e-7 7.253430825877912e-7 8.266023094417627e-7
          0.0000011183227330995653 0.000001154140578592322 0.000001267146311999262 0.000001905449441668681 0.00000193334418826945 0.0000020214920972328795
          0.000003180378889268694 0.000003180779032508641 0.000003189518694356318 0.000005069466793050448 0.000005019559254953823 0.00000488060121480479
          0.000007811422828967393 0.000007677923667691364 0.000007284548496362544 0.000012523555523124672 0.000012248834247412944 0.000011364520887701441
          6.043961424091566e-7 6.190723576148684e-7 6.623520520151468e-7 6.269312800522413e-7 6.501688415525943e-7 7.214256002466819e-7
          7.359326243752791e-7 7.690301544981075e-7 8.736364049953492e-7 0.0000010205036278473342 0.0000010633816911586563 0.0000011979316289177085
          0.0000016137827946695403 0.0000016587289457999159 0.0000017994515292415043 0.0000026692110281841174 0.0000027012627002515596 0.0000028034302887270375
          0.000004346008747051548 0.000004342929331191618 0.000004343277714314421 0.000006797767058618256 0.0000067348693869051676 0.000006557991924302848
          0.00001028477994110578 0.000010125411775786388 0.000009660151182284437 0.000015789759630374842 0.00001548415108092376 0.000014518243714203887
          7.83302158982675e-7 8.069464883514556e-7 8.763215820953245e-7 8.438135849522027e-7 8.776783104671558e-7 9.80828719797666e-7
          0.0000010252634995786427 0.0000010697373404493347 0.00000120796073241115 0.0000014317727337996273 0.0000014843504107279075 0.0000016474201705005454
          0.00000221030177228866 0.0000022608838518529514 0.000002419018104066203 0.0000035327927075525185 0.0000035650870821744586 0.0000036694215252714775
          0.0000055844292250503035 0.000005575610474110608 0.000005560717834833789 0.000008535688072270893 0.00000846317236405516 0.00000825476139274727
          0.000012621640835395152 0.000012447059084560062 0.00001194456623390564 0.000018545503448183556 0.000018244315061241846 0.000017299109896625906
          9.947258400096385e-7 0.0000010285846128706375 0.0000011292682099639816 0.0000011157618989629272 0.000001160307655182119 0.0000012970641033995121
          0.0000013966427288589686 0.0000014502823972260802 0.0000016176912773004348 0.0000019499082849645064 0.000002007551495599164 0.0000021883235182422487
          0.0000029265856872432652 0.0000029773647359860685 0.0000031386422036113733 0.000004507316461215807 0.000004535535916448096 0.000004629198649522975
          0.000006892575876005501 0.000006876961531297151 0.0000068416824132610705 0.000010257642698767544 0.000010179592066604814 0.00000994867939371674
          0.000014783180144842915 0.000014607981662080092 0.000014101049414347281 0.000020812093318224418 0.00002054124732466998 0.000019692579333530896
          0.0000012621822671395208 0.0000013014783634906715 0.0000014283873636026141 0.0000014702735052980127 0.0000015186170243854846 0.0000016779630561728554
          0.0000018769181275013516 0.000001931059766476936 0.0000021108488768537195 0.0000025959413002136254 0.0000026497028412578786 0.000002828374111590948
          0.000003775148590791744 0.0000038188185398257675 0.000003964809318767342 0.000005594496804247278 0.000005614660424141185 0.000005685479096978964
          0.000008255536887080307 0.000008234539975543807 0.000008177985404436248 0.000011929194822763484 0.000011852556447091825 0.000011613963903597983
          0.000016724558952618712 0.00001656771707106579 0.000016092240138729134 0.000022630261777539328 0.000022416407974415983 0.00002172032130321506
          0.000001615326524306139 0.0000016469513869832273 0.0000017758096598653365 0.000001937599283070192 0.0000019753965224601283 0.000002126383705243633
          0.0000024914274218096566 0.0000025321175569228335 0.0000026909262375329795 0.0000033857100768172387 0.00000342415796752788 0.000003570746492386121
          0.000004760045975191222 0.000004789095826071069 0.0000048979565223823295 0.000006785220199640267 0.000006795076997460138 0.000006833561487906271
          0.000009649742833448189 0.00000962785864112515 0.000009556662472204783 0.000013506545954986512 0.000013443609618732109 0.000013223257758388772
          0.0000184077907806202 0.000018289632225801277 0.0000178922138266448 0.00002407441331772358 0.000023933201152925635 0.000023429340239137512
          0.000003244177562571659 0.000003276834062902858 0.0000033815688897894293 0.000004315407302813248 0.000004343997108650807 0.000004434668595600662
          0.000005868293550664372 0.000005887587868111125 0.000005946820871004931 0.000008057555702134445 0.000008060426231635404 0.000008066476318558545
          0.000011048985712525148 0.000011026500696376367 0.00001095365334312935 0.000014965547422933288 0.00001491105131055859 0.000014734626288290343
          0.000019818344239245682 0.0000197248824545485 0.000019437409392143023 0.000025208327379635774 0.000025105381098264533 0.000024783472467341797
          0.000032410399169158213 0.000031769296985671475 0.00003176364659353343 0.000032406397186387256 0.00003241472037006295 0.000031757012902070106
          0.00003176573660780025 0.000032406513432189384 0.00003238127773224369 0.00003184581926041085 0.00003176646732353973 0.00003240802797012201
          0.00003301461532861784 0.000033053712095309493 0.00003300797438620425 0.00003305307017993906 0.00003303679675993422 0.000033063338808471985
          0.00003297385782588735 0.00003344064787281686 0.00003345508910222347 0.00003295621063019705 0.00003343431686848718 0.00003343957519539878
          0.000032992242169423605 0.000033452856770577937 0.000033480142536603774 0.000008623799843215477 0.000012995348629741453 0.000010379579620467521
          0.000007457135017434891 0.000008291918658618707 0.000012555603290096598 0.000009975104438316331 0.0000071409763416334 0.000007314273626182378
          0.00001116455852323751 0.000008715209242865685 0.000006227224308077316 0.00002853213180422731 0.00002919967423993244 0.000030496425794037884
          0.000030004185791839967 0.00002832160280101653 0.00002902909394552371 0.00003058669148282999 0.000029967396729686747 0.000027304170680600223
          0.00002814785992861822 0.00003078541773905636 0.000029792546896175138 0.000016439367301367913 0.00001810379978500189 0.000015149799333890282
          0.000013498053469239588 0.000016081039590430883 0.00001767125980389778 0.000014721596703191944 0.000013166146139763257 0.000014920143554301583
          0.000016323009646012832 0.000013395944557880087 0.000012085177807535733 0.000025558135347001047 0.00002385187766572774 0.00002585319675678337
          0.000027444631071402854 0.000025288134757232082 0.000023549892119687898 0.00002564736101619891 0.000027277165864321857 0.000024367039476828337
          0.00002261501840030356 0.000024977992850919434 0.00002661476911563608 0.000025765183838630664 0.000024552772857949945 0.00002563163640261607
          0.0000243657111722657 0.000025183430762923974 0.000023734977844920026 0.000012813636797852744 0.000016510401732133243 0.000012414997126470075
          0.00001604276132951304 0.00001116811197081324 0.0000145526439775616 0.00003266430656443874 0.000033142568833749346 0.00003325245201945782
          0.00003262151655075607 0.00003265980656376454 0.000033129862439784065 0.00003323246803958421 0.00003261498632590798 0.00003258112822755792
          0.000033076340165487114 0.000033158746832716014 0.00003254203682522808 0.000002496092257555594 0.0000055048823859142556 0.000004162057023817779
          0 0.0000024426167435291525 0.00000535392360840494 0.0000039995494312302674 0 0.000002200116727007978
          0.000004814412766399351 0.000003513669185549561 0 0.000015317659877209084 0.000013455255932575392 0.000014813801611453157
          0.000012984618297500831 0.000013135940822279318 0.000011307229664837944 0.00003160577623339459 0.00003126592008330248 0.000032173097351307515
          0.00003243512393157945 0.00003160740321563406 0.00003126133533447881 0.000032173094393790966 0.00003243521295640673 0.00003158566594498304
          0.00003123722208911358 0.00003217109080097786 0.00003243490105656651 0.000019422042635168844 0.000010375453452159336 0.000010028580414437938
          0.000016926067293624283 0.00001919912203868372 0.000010210899568874578 0.000009801039396411924 0.000016489387282788048 0.000017272643311301622
          0.000008892747989151351 0.00000833874341326017 0.000014192664003930438 0.00003389608029462683 0.0000335863087041764 0.00003351419226410695
          0.000033869074415765546 0.00003384957735409248 0.00003355006990043385 0.00003348578294445649 0.00003384963529862431 0.000033971275976850344
          0.00003358462138450854 0.000033562274750116316 0.000033798911038190665 0.000022573692402028127 0.000023428721169492284 0.000022236441130590435
          0.000023083642189362017 0.000021146291740345807 0.00002193268641546369 0.00000989103264638413 0.000009593741436757602 0.00000865281355297551
          0.000032101173922760704 0.000031499697480128196 0.00003209820536746668 0.0000315105807786617 0.000031985310338414695 0.0000318393984641453
          0.000031014990829872066 0.000030422762628876826 0.00003108225128480554 0.0000310810092747392 0.000030277250484746604 0.00003104850547759677
          0.00003158258985496569 0.000029840331384807015 0.000030877903429855424 0.000023669541336729505 0.000025748493611524754 0.000023482007733610586
          0.000019609990278623448 0.000023142067482174694 0.000025247151850049777 0.000022877964234306852 0.000019000993272906505 0.000021542752568801366
          0.00002371340623070758 0.000020871154617955382 0.000017078646218132063 0 0.000004017186694717407 0
          0 0.000003840802861467064 0 0 0.0000033520414145144776 0
          0.000027105971812521303 0.00002331981623234867 0.000026976966709524226 0.000023053263956300184 0.00002653778339747131 0.000022240608086140998
          0.000031182835315317527 0.000031337125145718856 0.000031215758822519385 0.00003118246865821652 0.00003114869779945971 0.000030648028263249693
          0.000028578239699941854 0.00002985762083817893 0.000028381483150735445 0.000029744063780454397 0.000027546489554001714 0.000029316799590616065
          0 0.000004090226449400216 0.00000498633457605316 0 0 0.0000039153045550078725
          0.000004822476264933228 0 0 0.0000032858560719929324 0.000003969775114391676 0
          0.000021114913311502986 0.000022644725440457643 0.00001962502271974375 0.000020709706129953335 0.000022222774911053418 0.00001914987643981303
          0.000019417523678963465 0.000020810518329800822 0.000017650743947231244 0.00003089280526159736 0.000031221165458368846 0.00003088234493400077
          0.00003121400710371929 0.000030761338980990155 0.000031127100969418666 0.000019643110651805354 0.0000214952247498795 0.000019284204837254774
          0.00002118117009855078 0.000018137933580220467 0.000020198613731983148 0.00002640940564315804 0.000026709786381387072 0.000026108667962841727
          0.000026312838729307423 0.000025008883953967117 0.00002501118403624586 0.000028019542600476344 0.000029334850293481533 0.000027825328263624767
          0.000029244594627956927 0.000027079233102592678 0.000028896913616643655 0.00003382213069759119 0.000033473568294699733 0.000033802000511402545
          0.000033807288369076126 0.00003346884127782875 0.000033792688842727634 0.0000338090234784973 0.00003348616623781501 0.00003380120442283868
          0.000028814306873005433 0.000030279656407507894 0.000028626935491491834 0.00002874691496579542 0.0000302526516214473 0.00002852731960664733
          0.000028532024505735596 0.000030158719707232394 0.000028169624294447166 0.000003619295828380118 0.0000029282032451336626 0
          0.000003465502171076716 0.00000280126913934021 0 0.0000029466526139855894 0.000002360195495266368 0
          0 0 0 0.00003377690033052656 0.000033448500630295393 0.00003332963895779676
          0.00003376936653559035 0.00003377347890471207 0.000033447579374835034 0.00003332973722568206 0.000033767488396467586 0.000033783713739699394
          0.00003346028895408647 0.00003334147505851905 0.000033778290353286215 0.000006803138738690431 0.000007891883501573404 0.000006518705687986893
          0.000007584619137663314 0.000005582789877529161 0.00000651504214240031 0.00003347674703829881 0.0000337867403088247 0.00003347454138348654
          0.00003378104599962481 0.000033488217421018054 0.000033791599096682666 0.0000054201641747467545 0.000010668942287739791 0.000005298678935940491
          0.000010316670812347565 0.00000446664240444746 0.000008618815625269319 0.000018768896515729042 0.000022180626033181615 0.000018181885171759357
          0.00002177446238160836 0.00001596434398960007 0.000019640141545287174 0.00003304766959145639 0.000033047875007751494 0.000033058273666603635
          0.000027078553405010918 0.000026968399257978397 0.000026668920019549388 0.000027855349739137692 0.000029731831687126964 0.000027602308349857693
          0.000029655863635452022 0.0000259536960991056 0.00002909503587058511 0.0000276560075707231 0.000027531846340050794 0.00002702058210298025
          0.000031683823663958295 0.00003169206221011369 0.00003177675951991094 0.00003384595107049637 0.000033826557482588214 0.00003380756599547412
          0.000030475027211424353 0.00003044778082376286 0.00003030792366555353 0.000033001431446187036 0.000033003679006307265 0.000033011954810337734
          0.000031809734581571034 0.000031979632056774154 0.00003214525932489739 0.000027168732240871715 0.00002699279634090147 0.000024995566264545457
          0 0 0 0 0 0
          0.0000337659722174734 0.00003376577742981388 0.00003377707207285883 0.000033909543044268356 0.0000338418344493022 0.000034016957020426056
          0.000008453929065416563 0.00000845512107747224 0.000008436058143441954 0.000012835826777329946 0.000012824181497659717 0.000012802528832368692
          0.000010607967540542943 0.000010601920962940565 0.000010565181337751196 0.0000154155897252288 0.000015398557307373773 0.00001535854503371872
          0.000013271598466380057 0.000013257099770972774 0.000013202783303207858 0.000016500610283392785 0.000016476358470883883 0.000016405472612891157
          0.000020295266408479236 0.00002026072705398836 0.000020175758899974413 0.000024477976205646416 0.000024437344748765536 0.00002435095891784032
          0.000028633306477151676 0.000028614860025448746 0.000028564870034284437 0.00002868267706859641 0.00002986346486075724 0.000028635271854691996
          0.000029853098981133335 0.00002851075034838725 0.00002978282714874744 0.00003160072123681623 0.00003249620852515463 0.00003210540408276687
          0.00003104323928083415 0.00003159828926067475 0.000032497586033134764 0.00003210601417110169 0.00003103644813164987 0.00003158916574677229
          0.00003250210936838504 0.00003210936532522516 0.00003101673154042629 0.000032965948588008 0.00003296798210817475 0.000032977977456227184
          0.000030519503129252904 0.00003051539300952043 0.000030485294940986002 0.00003395341504849906 0.000033954943455728595 0.000033962436895968335
          0.00002008767278931744 0.00001731039343037727 0.000020074503457747576 0.000017303124845681902 0.000020034974725379364 0.000017280667524885838
          0.000018336247141690758 0.00001831506028192044 0.000018258703894363305 0.00002300619756965819 0.000022987950448504858 0.000022932893162468
          0.00002155097614944278 0.00002152817259355349 0.000021459299835402755 0.00002493134468124175 0.00002490883102152456 0.000024834563183129946
          0.000028218894158719374 0.000028205345061734183 0.00002813950601510463 0.000030808565794506936 0.000030803264929495425 0.000030777104303123586
          0.000031855107766866515 0.00003185030975300361 0.00003184199282096231 0.000034328423541272476 0.00003295924580120079 0.00003360636352293014
          0.0000343295013285902 0.000032958700317945174 0.00003360660369761771 0.00003433062757308375 0.00003295586099828875 0.00003360782091845055
        </DataArray>
        <DataArray type="Float64" Name="disp_y" format="ascii" RangeMin="-0.000024438382641796556" RangeMax="-0.0000031962679155655838">
          -0.0000032000004407420976 -0.000003199345593255057 -0.0000031984847658810935 -0.0000031980974408600374 -0.000003196642650736139 -0.000003196998648653419
          -0.0000033812159772506584 -0.0000033779548624444217 -0.0000033772757553410892 -0.0000033743118518976164 -0.0000033692023080522494 -0.0000033673225657625164
          -0.0000035567820902649252 -0.000003547582358513913 -0.00000354803800101084 -0.0000035390855636731853 -0.0000035251291830712113 -0.0000035174377583980296
          -0.0000037561555636948427 -0.000003736336213575376 -0.0000037385064985729796 -0.0000037187744569285175 -0.0000036849998945325666 -0.0000036662813475942586
          -0.000004032258316443609 -0.00000399640221824145 -0.000003999486345291509 -0.0000039634588370473524 -0.000003893699042776312 -0.0000038575580668101305
          -0.000004461994368211865 -0.000004404917728215808 -0.000004407230934955939 -0.000004349586843521087 -0.000004226764769499429 -0.000004167238205771914
          -0.0000051367376855361105 -0.00000505325926620274 -0.000005054252430904098 -0.000004970088545402325 -0.000004782999845495941 -0.000004694937833873805
          -0.00000615851309166159 -0.0000060404680859589355 -0.000006042986454679613 -0.000005923477912457123 -0.0000056643384057630145 -0.000005538985485814153
          -0.000007636368324556474 -0.000007461016311264512 -0.000007480813701110999 -0.000007296249532672027 -0.000006946067091172948 -0.000006738719882932342
          -0.00000961540633735508 -0.00000931095493246841 -0.000009405468668753136 -0.000009089229311705696 -0.000008604179497733482 -0.000008214504716875166
          -0.0000032025501647868217 -0.0000032002932522180345 -0.0000031962679155655838 -0.0000033922774561849065 -0.0000033875518612630916 -0.0000033764198747317122
          -0.0000035862055106700864 -0.0000035769462146710167 -0.0000035506605758861942 -0.00000381784723161939 -0.0000037999663831479713 -0.0000037440049436852762
          -0.0000041421313525180165 -0.000004109941581730916 -0.000004004770975947277 -0.0000046347518981697664 -0.000004581627508763492 -0.000004406607471650185
          -0.000005387740283316083 -0.0000053078629077442555 -0.000005048133511284388 -0.000006513039080552319 -0.000006402111174506367 -0.000006042917580548268
          -0.000008153894800582687 -0.000008016295533961633 -0.000007536924277018738 -0.000010477336303853211 -0.000010290817574735285 -0.000009632749542703848
          -0.000003208907532002532 -0.0000032055388735890614 -0.000003197845578923352 -0.000003414475816351038 -0.0000034087136392768075 -0.000003392765785683565
          -0.000003640995113506495 -0.0000036309692555951745 -0.000003599299932362836 -0.0000039274595195807685 -0.000003909463501298437 -0.0000038500511017419
          -0.00000433205819284131 -0.000004300646235221813 -0.0000041966253107708325 -0.0000049267629034054855 -0.0000048764207524965065 -0.000004710501739776245
          -0.000005805348494997339 -0.00000572993441796595 -0.000005489514225410308 -0.000007101842215141035 -0.000006999842672954863 -0.000006672636887171418
          -0.000008962313062979247 -0.00000884693884704245 -0.000008441294822009809 -0.000011426917636349021 -0.000011302891177802421 -0.000010872837737210667
          -0.0000032225464718595823 -0.000003217872436385927 -0.000003205149080779759 -0.000003453843913274303 -0.000003446949782659978 -0.0000034245268641161227
          -0.0000037289164069864283 -0.000003717895637117 -0.0000036796801043593736 -0.000004093968687023489 -0.0000040757777876393566 -0.000004012328046866131
          -0.000004609255337772766 -0.000004579101951833899 -0.000004477337290240394 -0.000005342340713656693 -0.000005295669613084847 -0.000005142770394291852
          -0.000006388355065679918 -0.000006319894188259811 -0.00000610569074007569 -0.000007891665287493232 -0.000007800916409896601 -0.000007516863172142643
          -0.00000998239983435648 -0.000009894732612123604 -0.00000957943677640457 -0.000012623864606418401 -0.000012562285263300426 -0.000012355386671276569
          -0.0000032487731900463887 -0.000003242786036702276 -0.0000032235776557510682 -0.0000035180825897048315 -0.000003509805969410785 -0.0000034798707379241985
          -0.000003859468892340306 -0.000003847569813761474 -0.0000038025323809262777 -0.0000043263312848119446 -0.0000043080550977044 -0.000004241425615643078
          -0.000004979713434782715 -0.0000049510440285376454 -0.000004853879859876202 -0.000005882895387773162 -0.000005840608663863417 -0.000005704396009611159
          -0.000007126541821851884 -0.000007066647722038014 -0.0000068838942313427335 -0.00000884224946624827 -0.000008767107660385277 -0.000008537071690817325
          -0.000011128071409076422 -0.00001106884911603389 -0.000010850424241222455 -0.0000139502776451635 -0.000013918615393516974 -0.00001385512052810251
          -0.0000032947705393789597 -0.0000032871365626228844 -0.0000032601787228210712 -0.0000036164564349369503 -0.0000036066663343036746 -0.0000035687667908998184
          -0.000004043332977453397 -0.000004030199909916235 -0.000003978780969678635 -0.000004633411874995477 -0.0000046145960066410565 -0.0000045459894074623084
          -0.000005446775481839011 -0.000005419605575208665 -0.000005329332142081238 -0.000006543445126288721 -0.000006505878952877922 -0.000006389258320003962
          -0.000007998548983032082 -0.000007948615973011825 -0.000007801616306034383 -0.000009912183687236292 -0.000009855131148903586 -0.000009684499358969128
          -0.000012340510271439232 -0.000012302929118285633 -0.000012171428549552486 -0.000015157249308489828 -0.000015165402443466679 -0.000015218050071435034
          -0.000003369279695704482 -0.000003359522421638825 -0.0000033238354197927806 -0.000003759853103511345 -0.000003747710929297287 -0.0000037014331136912763
          -0.000004290551718008604 -0.00000427503071460485 -0.0000042174635340655476 -0.000005020467531776799 -0.000005000229324052178 -0.000004930997148004498
          -0.000006008130061318578 -0.000005982188776258181 -0.000005900587317322584 -0.0000073092078883327595 -0.000007276770758128597 -0.000007181676253294282
          -0.000008975482426361911 -0.000008936681497456228 -0.000008827844228490543 -0.000011054814797210696 -0.000011016492086331036 -0.000010905299202243407
          -0.000013552781001318505 -0.000013537193069437707 -0.000013484445486950018 -0.000016306052699565045 -0.00001633088009340871 -0.000016444003644383457
          -0.0000034832878214638818 -0.0000034699081614866377 -0.0000034241291722651847 -0.00000395930560524777 -0.000003942791061646892 -0.0000038868471060494856
          -0.000004608096358210191 -0.000004588562729180529 -0.0000045243700972450344 -0.000005487652357314236 -0.000005465518024244664 -0.000005395951400551867
          -0.000006653746666757491 -0.0000066297278939013215 -0.000006557608204828271 -0.00000815367105427906 -0.000008128704209021556 -0.000008056558618800733
          -0.000010016381758097984 -0.000009992656050769716 -0.000009923757485807597 -0.000012226886904837266 -0.000012211460029290727 -0.000012159565187677643
          -0.000014722036413971856 -0.000014725798758756717 -0.00001473736816575274 -0.000017409873143622497 -0.00001743673368825564 -0.00001758243244764331
          -0.000004996730289583861 -0.000004974424021191657 -0.000004905404420187781 -0.000006028315596003212 -0.000006004847229649087 -0.000005937901340645144
          -0.000007365744690498656 -0.0000073429088275035894 -0.000007284112875036999 -0.00000904602054694331 -0.000009025444647825037 -0.000008981020957126736
          -0.000011075401988499784 -0.000011059844545216381 -0.000011036218702353344 -0.000013397277575156176 -0.00001339404128817141 -0.000013406646388649193
          -0.000015859314031340196 -0.000015871061919705512 -0.000015945890482802277 -0.000018266360073970377 -0.000018310092632564463 -0.00001843762669528053
          -0.000018462219813774733 -0.000018471424914028608 -0.000018984613409987203 -0.00001912590207184298 -0.00001852721291755745 -0.000018539572354173462
          -0.000019040894510212084 -0.000019176122394842305 -0.000018682629694593714 -0.000018735633544190392 -0.000019214476583222355 -0.000019286812547935787
          -0.00001868621601849136 -0.00001920316616847601 -0.000018745760923315217 -0.0000192450749535039 -0.000018845346157892308 -0.000019341763040227503
          -0.00001813053915294542 -0.000018704414380332432 -0.000018266581547401395 -0.000018196644115716063 -0.00001876068387518824 -0.000018334839775680395
          -0.000018432376985626705 -0.000018862488407657745 -0.000018505799989254945 -0.000011574005149461821 -0.000012519265693953895 -0.000012739643302962155
          -0.000012324402293311013 -0.000011281976001229977 -0.000012301223249571759 -0.000012412294032784978 -0.000011947969456504712 -0.000010173907629769755
          -0.00001136209074647961 -0.000011085536169145586 -0.000010533727293645626 -0.000016057226041467593 -0.000016802725682670513 -0.000016770743501631837
          -0.000016098781612278512 -0.000016127501033269076 -0.000017086974691887702 -0.00001697234690402704 -0.000016176610435254766 -0.00001649385634490757
          -0.00001764941348165429 -0.000017185207828537056 -0.00001675713784778926 -0.000012747376588349089 -0.000013425850212453542 -0.000012490507960674903
          -0.000011956390342656912 -0.000012676230893905829 -0.00001338402796977028 -0.000012386175779489417 -0.000011826292032350496 -0.000012405009121990719
          -0.000013146094915317143 -0.000011936247125576642 -0.000011327873440524826 -0.000016804303587768857 -0.00001625869944372365 -0.000017444534928557414
          -0.000017785279269384937 -0.000016869999083425366 -0.000016290846696176514 -0.00001748639514636679 -0.000017853170345828125 -0.00001713232494468922
          -0.000016474576676057898 -0.000017713990267811865 -0.000018147074335878274 -0.000018203525135201828 -0.00001718069969701735 -0.000018245920826912058
          -0.00001721184312338566 -0.00001844626023675271 -0.00001738693936369938 -0.000012021658115773104 -0.00001292284775555547 -0.000011838748761554972
          -0.000012833401958141946 -0.000011116997525089833 -0.000012430101462552979 -0.000017586985153730576 -0.00001762279512112307 -0.00001705748981786873
          -0.000016818345472458252 -0.000017692111191009223 -0.00001770350961586867 -0.0000171575515127012 -0.000016916069265377395 -0.000017880900939184325
          -0.000017956643531822163 -0.000017481246454212694 -0.00001748562461938947 -0.000009860488070937097 -0.00001032556315888569 -0.000010902275684025909
          -0.00001022479708758049 -0.000009627116553577251 -0.000010081429270386389 -0.000010609678238665176 -0.000009949762816476424 -0.000008684702621527763
          -0.000009138217233795303 -0.000009433594292920526 -0.000008842540021843287 -0.000013459634355410229 -0.000013865083287323571 -0.000013255466306479535
          -0.000013518135289309742 -0.00001234614793187713 -0.000012093079591081561 -0.00001953525624580249 -0.000020265307145188484 -0.000020373838501487603
          -0.000019805799170437137 -0.000019580525812523177 -0.00002030225909285952 -0.000020405545898383957 -0.00001984219315408453 -0.00001972904804352398
          -0.000020408251729101565 -0.000020482462003122436 -0.00001993302901991352 -0.000019917855134872383 -0.00002142703185983935 -0.000019255246447663866
          -0.000017184266539918422 -0.000019257221705100634 -0.00002056179436377366 -0.00001846934866092941 -0.000016700349679381936 -0.000017012865176252105
          -0.000016717259924449205 -0.00001525882643698687 -0.000015020499186541243 -0.00001756490966900517 -0.000017514575843866353 -0.000017826634663010438
          -0.000017987303251384062 -0.00001764614398469061 -0.00001759678677995478 -0.00001789136001213178 -0.000018056169249466406 -0.000017880914442099728
          -0.00001793379251516616 -0.000018197335641046256 -0.00001829973168195507 -0.000015337779041327222 -0.000015578225173936265 -0.00001535898963200618
          -0.000015626372960121234 -0.000015473263145023782 -0.000015811105582537862 -0.000011091824211349208 -0.000010866413916018785 -0.000010068409130375274
          -0.000017773912702460895 -0.000017946971494794716 -0.000017885643677053738 -0.000018014281742842974 -0.0000181051472817175 -0.000018070603674153785
          -0.000017465333723405948 -0.000017623042376772742 -0.000018286176025465648 -0.000017390379383166556 -0.000017692956850889086 -0.000018327992120120086
          -0.000017509335154451018 -0.000018228838002162697 -0.000018685419963973155 -0.000015076159209421015 -0.00001551632053530584 -0.000014394598014703215
          -0.000013808599265631471 -0.000015201942078626376 -0.000015606625979685875 -0.000014409739714303164 -0.000013767044027939821 -0.000015392888393020957
          -0.000015879457365831075 -0.000014714411174051992 -0.000013547736444128732 -0.000011201811468369455 -0.000012072378737036083 -0.000012258427431053227
          -0.000010848797462393838 -0.000011669401736889902 -0.000011815895468431286 -0.000009489282652812067 -0.00001017171282461523 -0.000010169387100925772
          -0.000018544142793922673 -0.00001631905790044315 -0.000018594308062198965 -0.000016349892444647837 -0.000018831891989750982 -0.000016503429377494674
          -0.000016663612058415875 -0.000015931070753716735 -0.000016833417463279992 -0.000015950608711424966 -0.00001726021401373447 -0.0000169189790102927
          -0.000017217299231291287 -0.000018198733097156688 -0.00001732662662127954 -0.000018242374218218434 -0.000017778683030646424 -0.000018624563079615236
          -0.000017680250309938236 -0.000016048559752496496 -0.000017921578288903715 -0.000019623432316186408 -0.000016785887119673046 -0.000015326850139008814
          -0.000017108374170622887 -0.000018601378267552417 -0.00001337322787568949 -0.000012680340681732866 -0.000013868870605777515 -0.000014464550515090922
          -0.000014677389757218215 -0.000014976455087846009 -0.000013909566295018372 -0.000014688937007813903 -0.00001504266942567365 -0.000013880382151934452
          -0.000014677793025832883 -0.00001512563270328157 -0.000013652587704511343 -0.00001905948894661714 -0.00001879356435286191 -0.00001911679591638694
          -0.000018851106489944537 -0.000019341979728974943 -0.00001909160118362567 -0.000014102906916193252 -0.000015206384623247019 -0.00001407680961639897
          -0.00001519896456365962 -0.000014015535066591685 -0.0000152641691135241 -0.00001668261527067756 -0.000016191636316828125 -0.000016781229929650275
          -0.000016342940950803223 -0.00001712389868713483 -0.000016715898866658075 -0.000017589720805544528 -0.00001874976338692806 -0.00001765856069818566
          -0.000018807382744422837 -0.000018008833030646265 -0.00001907761342492655 -0.000018781185332618134 -0.00001908162165707321 -0.00001915149840380135
          -0.00001883266615507111 -0.000019125475827041133 -0.000019192069334646824 -0.00001892822214219358 -0.000019212579807313847 -0.000019275806563961684
          -0.00001962762610728182 -0.000020086438493845967 -0.0000189313345601144 -0.000019672685330128585 -0.000020129055238503462 -0.00001898694213687372
          -0.00001983778417556116 -0.0000202819910563472 -0.00001923690616799319 -0.000013010141041563749 -0.000014446092177679593 -0.000013992911235980107
          -0.000012507766130819386 -0.000013832986946387865 -0.00001340074986905484 -0.000010719025866362905 -0.000011610280039833786 -0.000011218954482139105
          -0.000015787682200489008 -0.000015043034309149949 -0.000012283946945615133 -0.000019840335088438533 -0.000019713915534474587 -0.00002002416257983928
          -0.00002016495369404278 -0.000019869755985246973 -0.000019746381135816254 -0.000020053173086350258 -0.00002019038376595029 -0.00001993940901809745
          -0.00001982086319450197 -0.00002012180170701573 -0.000020251674336860582 -0.00001362413784712653 -0.000015040931938623541 -0.000013118072605918743
          -0.00001446405156284219 -0.00001132787780006565 -0.000012394558079200848 -0.000019418812419133435 -0.00001950312894732247 -0.0000194552780637411
          -0.00001953718971342325 -0.000019537079771754882 -0.00001961369628294451 -0.00001925968766464571 -0.000016684382450579518 -0.000018378522837765845
          -0.00001604293453377412 -0.000014733852514967241 -0.00001365645764741776 -0.000014659459127654876 -0.00001602417455778791 -0.000014416052334267
          -0.000015781134875484117 -0.000013455345867227756 -0.0000154072609862139 -0.000019688010345753322 -0.000019722966829568447 -0.000019801356361736746
          -0.00001900741583343442 -0.00001906242378668789 -0.000019205008470459563 -0.000014952007678681442 -0.000015025553577359565 -0.000015099215038270731
          -0.000015166044935687709 -0.000016060539969564503 -0.00001693110200993742 -0.000018197235552261048 -0.000018244269745962106 -0.000018494244623838055
          -0.000017061895722303822 -0.000017156609896688762 -0.000017754890615477322 -0.00001839278358882265 -0.000018455713241456292 -0.000018595579124614425
          -0.000019432603881428173 -0.00001948972642323075 -0.000019691492733013985 -0.000020443980415201576 -0.000020469919543145773 -0.0000205295653117833
          -0.000016341861072807425 -0.000016593422144603692 -0.000017377822510571174 -0.00001720969302372286 -0.000016973776519807885 -0.000017128048281645564
          -0.000021501324329545005 -0.000020382026216650106 -0.000015501068590719272 -0.000009649407762438983 -0.000009408809632023891 -0.000008452882875616966
          -0.00002047590898419025 -0.000020498226382122167 -0.000020551411418244566 -0.00001714271356866674 -0.00001723663108082606 -0.000017489921064506323
          -0.000008438294986503309 -0.000008424497474058928 -0.000008382614613736587 -0.000011124381161520807 -0.000011117197788134699 -0.000011095534797431205
          -0.000010261433332980659 -0.000010252818963052631 -0.000010225590895213322 -0.000013195797952618528 -0.000013193357760049854 -0.000013186421430506834
          -0.000012378829766128768 -0.000012377171885615404 -0.00001237027272948269 -0.000014719589341183808 -0.000014727145205992488 -0.000014746974546370122
          -0.000017134172209297565 -0.000017156983439735012 -0.000017215448755605816 -0.0000194023121475003 -0.000019434036467758555 -0.000019546797808966256
          -0.000021298007989173605 -0.000021331737933743164 -0.000021460019379467755 -0.000020299285378789332 -0.000020838967845265086 -0.000020338466618672653
          -0.000020869011247058782 -0.000020477831530598823 -0.00002099969891292626 -0.000022100131337948714 -0.000022273494797555194 -0.000021247010875157076
          -0.000021121110169113517 -0.000022123234954396767 -0.000022290237108486337 -0.000021270953162357386 -0.000021151584981873727 -0.0000221846149892375
          -0.000022337743115157713 -0.000021337600329731594 -0.00002125279447517976 -0.000021327201201556383 -0.00002134704608932105 -0.000021396544512040905
          -0.000021873666105538405 -0.000021903821741223366 -0.00002198647399795805 -0.000022626654705113226 -0.00002263944970565655 -0.000022672873544112495
          -0.00001597218269645581 -0.000013857600118454189 -0.00001597633808995976 -0.00001385673908501368 -0.000015988207767659743 -0.000013853925855727162
          -0.00001544943239767729 -0.000015453551132888953 -0.000015466524051150518 -0.000018135769202364362 -0.000018145984141320473 -0.000018175771031574654
          -0.00001777114164291213 -0.00001778325092077898 -0.00001782150218508365 -0.00001998116636065317 -0.000020004490282385955 -0.000020073308029556044
          -0.00002184314773110918 -0.000021872619411083466 -0.000021972205418204713 -0.000023099635345111246 -0.00002312480241097429 -0.00002320632492149841
          -0.000023230354933123924 -0.00002325037866772172 -0.000023303919093696526 -0.000024049886409889177 -0.000023334645081615143 -0.000024393146128739394
          -0.000024061377245210238 -0.000023347875072417592 -0.000024404456113210408 -0.00002409500260670977 -0.00002338891927425564 -0.000024438382641796556
        </DataArray>
        <DataArray type="Float64" Name="disp_z" format="ascii" RangeMin="-0.000018407574112227605" RangeMax="5.223018731767722e-7">
          0 0 -5.6178473203754646e-8 -5.540839091811931e-8 -1.1732812604715253e-7 -1.1515412837486576e-7
          0 0 -5.6128115443369336e-8 -5.374452481009253e-8 -1.2196052420640947e-7 -1.1646009126408307e-7
          0 0 -7.102228303830265e-8 -6.592159103392105e-8 -1.59283645886635e-7 -1.4874368869248668e-7
          0 0 -1.2398228398635957e-7 -1.158173810043789e-7 -2.7710199140282757e-7 -2.5986843236699056e-7
          0 0 -2.5679251967191814e-7 -2.455826282009965e-7 -5.56468004521044e-7 -5.347388781121671e-7
          0 0 -5.248749334041772e-7 -5.135881957208524e-7 -0.000001095547090338746 -0.0000010748050536723363
          0 0 -9.812818893007705e-7 -9.745007401588001e-7 -0.000001989552585644164 -0.0000019777757546997092
          0 0 -0.0000016714856120025611 -0.0000016790890606851468 -0.0000033291626961747116 -0.0000033439716461254773
          0 0 -0.000002711702212446745 -0.0000027451143771529006 -0.000005343700864102263 -0.000005413047728547627
          0 0 -0.000004748688147052562 -0.0000049658020238150695 -0.00000929756338836355 -0.000009706606858050623
          0 -5.887639569374743e-8 -1.247127852625052e-7 0 -6.382271182907536e-8 -1.395372093011683e-7
          0 -8.658309690989933e-8 -1.9242081403870243e-7 0 -1.488953414885574e-7 -3.28780492327129e-7
          0 -2.900286511023913e-7 -6.209188345578352e-7 0 -5.582380017736602e-7 -0.0000011568189542068277
          0 -9.992593713187698e-7 -0.0000020204668509305146 0 -0.0000016530831775087027 -0.0000032929624070157935
          0 -0.0000025944386367461095 -0.000005109570250401839 0 -0.00000423202836907284 -0.000008307965217990055
          0 -6.489041138853223e-8 -1.4028402772220674e-7 0 -7.843817857228323e-8 -1.7266252281461028e-7
          0 -1.1390838610140915e-7 -2.50906724041677e-7 0 -1.9174813187997488e-7 -4.159314835849089e-7
          0 -3.4460322104697755e-7 -7.259043980258145e-7 0 -6.10727257545363e-7 -0.0000012529672120374193
          0 -0.0000010260914876282167 -0.000002066881422941179 0 -0.0000016157615274701462 -0.0000032159151344408587
          0 -0.000002434829914482704 -0.000004804565147172438 0 -0.000003557759646197658 -0.000007005827392160268
          0 -7.69495505314614e-8 -1.6933915439290013e-7 0 -1.0291724754532491e-7 -2.2686703372198934e-7
          0 -1.5596753218715628e-7 -3.3948465227062534e-7 0 -2.5396812873517333e-7 -5.391439652410138e-7
          0 -4.189435493251017e-7 -8.670312697205699e-7 0 -6.779332142213115e-7 -0.0000013757005143913635
          0 -0.0000010554313234247338 -0.0000021163563843941256 0 -0.0000015637510977226872 -0.0000031115824242727914
          0 -0.000002221338881778809 -0.00000438568475340285 0 -0.0000028323671441649834 -0.000005623102669905115
          0 -9.968142039438113e-8 -2.1963794882518047e-7 0 -1.4229961375274425e-7 -3.102237233861692e-7
          0 -2.170705873371463e-7 -4.6241929597072413e-7 0 -3.3583497679284895e-7 -6.970089831616177e-7
          0 -5.098135182680874e-7 -0.000001036909073122614 0 -7.53641704828373e-7 -0.0000015136539071372475
          0 -0.000001080222374075378 -0.0000021565245820838974 0 -0.0000014936341918535926 -0.000002971588227091375
          0 -0.000001965476646216983 -0.0000038911523309504216 0 -0.0000021671854429061763 -0.000004361686176140028
          0 -1.399380938753743e-7 -3.0018191385690113e-7 0 -2.0395657893673555e-7 -4.303690179913806e-7
          0 -3.0158733184308455e-7 -6.229384541275402e-7 0 -4.3741867091552493e-7 -8.860131796418597e-7
          0 -6.124210488985604e-7 -0.0000012255360482882774 0 -8.302336675922214e-7 -0.0000016528016741093208
          0 -0.0000010932317367593946 -0.000002175726114799466 0 -0.0000013954830008371218 -0.000002779557380650154
          0 -0.0000016912040340115023 -0.000003372816198529037 0 -0.000001591421712226948 -0.00000325330082699778
          0 -2.0573522761727773e-7 -4.179133513739231e-7 0 -2.9422389574938116e-7 -5.916125554310241e-7
          0 -4.1234875515481194e-7 -8.205142379167188e-7 0 -5.568475194915386e-7 -0.0000010999470743364753
          0 -7.21063373881048e-7 -0.0000014216857618527962 0 -8.996053166187879e-7 -0.000001778694854162557
          0 -0.0000010856790280385582 -0.000002160129057137829 0 -0.0000012663751111524038 -0.000002535919413268007
          0 -0.0000013904648775925648 -0.0000028125644039499573 0 -0.0000011129068301896833 -0.000002354084137594877
          0 -2.989458642178938e-7 -5.759744488513461e-7 0 -4.1253541655312634e-7 -7.938295840004103e-7
          0 -5.45698606254823e-7 -0.0000010514487131755387 0 -6.883573173063901e-7 -0.000001332032498649887
          0 -8.287231044637813e-7 -0.0000016152012581354079 0 -9.54111785874059e-7 -0.0000018786503323705766
          0 -0.0000010505223522882615 -0.0000020967647100828365 0 -0.000001102287961102591 -0.0000022358188339340494
          0 -0.0000010642798557758167 -0.0000022145251173966843 0 -7.139261259508317e-7 -0.000001579374717931979
          0 -6.756590698644286e-7 -0.0000013342786824868348 0 -8.092784303299446e-7 -0.000001596355703130374
          0 -9.176831861505002e-7 -0.000001811920215088905 0 -9.834788327672154e-7 -0.0000019479762024907566
          0 -9.878184220304542e-7 -0.0000019663807232645466 0 -9.205955465841611e-7 -0.0000018444747790956992
          0 -7.534696957171774e-7 -0.0000015346560401423753 0 -4.359205337254023e-7 -9.157898848048051e-7
          0 0 0 0 -2.0098487714377406e-8 -6.825140474092937e-8
          -7.002131617697156e-8 -2.8519191354638557e-8 -6.854013101638494e-8 -1.3899355734859306e-7 -1.5633086491750017e-7 -6.818052220060523e-8
          0 0 7.002944901923815e-9 9.200599991737934e-10 6.558159765582386e-9 -1.0924347982932578e-8
          0 0 0 1.3164085005848884e-8 3.08431615732852e-8 4.452134512035792e-8
          2.039585410024017e-8 4.495403583713539e-8 4.8125647017647965e-8 0 0 0
          0 -0.000005360005935544057 -0.000004808657409602356 -0.00000586147314801376 -0.000005977577994211301 -0.00001054626303867061
          -0.000009515331866900688 -0.00001167411003701258 -0.000011845874100793512 0 0 0
          0 -0.0000012422467355661883 -7.501095865730368e-7 1.5971892948053117e-7 -8.852560995854684e-7 -0.0000026882086310216023
          -0.000001487273048612961 -4.2678698798526984e-7 -0.0000020490611310941614 0 0 0
          0 -0.0000031078143803810803 -0.000003045997898469524 -0.000003898969536969199 -0.000003893450315944653 -0.000006128161768187677
          -0.000006062252699750949 -0.000007720070848062254 -0.000007689407787336739 0 0 0
          0 -0.0000010252214222370957 -0.0000012399396168486858 -7.762540035191986e-7 -6.102289526463552e-7 -0.000002141881343791598
          -0.000002547785159744558 -0.0000017682431567402798 -0.000001478291547319929 0 0 -5.473727377978691e-7
          -8.500152903668579e-7 -0.0000011573508571235671 -0.000001867736832183063 0 0 -0.000004330143473660912
          -0.000004057306233093143 -0.00000846356444687757 -0.00000808388584217346 0 0 0
          0 -9.118178022180312e-9 2.8376825721796466e-8 2.389532827237124e-8 2.8346153407615432e-9 -1.0535449075135786e-7
          6.965637695050808e-8 5.264418760229637e-8 -1.0016322522125242e-7 0 0 0
          0 -0.000005316851444284277 -0.000005095828476640019 -0.000005719241581012746 -0.000005719818707871095 -0.000010462380136842401
          -0.00000994593730036807 -0.000011256865070877027 -0.000011294708101097747 0 0 -0.000004748088731658106
          -0.000005834742404733183 -0.00000931806284687021 -0.000011756198514829604 0 0 0
          0 -7.546914938549208e-8 -8.829096317125245e-8 -5.3766733645197945e-8 -3.4960775715667013e-8 -1.7118957930929164e-7
          -1.90082481829624e-7 -1.1927141584229886e-7 -7.993417221997394e-8 0 0 0
          0 -0.000006960055265691226 -0.000008161137011578895 -0.000007231786381552999 -0.000006119511168978885 -0.000014273955584107125
          -0.00001647801156873575 -0.000014162636030377304 -0.000012269968564816726 0 0 0
          0 8.507932116108764e-8 4.288257653061748e-8 5.640879427583372e-8 8.661197855861988e-8 -4.753253270915243e-8
          3.290854802334519e-8 1.0130461567164456e-7 1.6174168396345681e-7 0 0 -0.0000017042023965535197
          -0.000001672028001297013 -0.000003458674352124744 -0.000003489234109946076 0 -0.000004593342080548576 -0.000009065582423776475
          0 0 -3.805589516251563e-8 -6.318034164082131e-8 -1.516238773745245e-7 5.223018731767722e-7
          0 0 0 -4.126644250831072e-8 -2.839695929563506e-7 -1.1539257779534973e-7
          1.156964330860458e-7 -9.064535578918496e-7 -3.736526976556539e-7 0 0 0
          0 -0.000002615698504633021 -0.0000022857477176233482 -0.000003678775922284637 -0.0000038002586885498204 -0.0000054159382515478025
          -0.0000051888470849563285 -0.000007346307675929438 -0.000007561044873362701 0 0 0
          -0.0000059063644612760045 -0.000006176509799453369 -0.000006288448440056689 -0.000011536443096068875 -0.00001227551799854364 -0.000012417444100369185
          0 0 -4.5435055483212256e-7 -0.0000012025469337807946 -0.0000010462664545807513 -0.0000025390936366339095
          0 0 -6.421805064204042e-8 -2.8240919276509594e-7 -4.902584384879038e-7 -0.000001026340117428544
          0 0 -6.611761009043378e-7 -3.0326191213095297e-7 -0.000001382983253342644 -8.047043895492295e-7
          0 0 0 0 -0.00000709423208397704 -0.000006919638032125416
          -0.000007647635265944513 -0.000008014393273818435 -0.000014054735076953831 -0.000013726338507603047 -0.000015245776255434522 -0.000015977787694311097
          0 0 0 -0.000002329047838306712 -0.0000023671854797883225 -0.000003147376034269237
          -0.000004709374279916323 -0.00000478530437535786 -0.000006329802125964607 0 0 -1.1819616979553259e-7
          -1.042927774332754e-7 -3.2866766555918414e-7 -2.9025316692504467e-7 0 0 -0.0000023027801174450036
          -0.0000016701664490365716 -0.000004618314423510056 -0.0000033922770745594138 0 0 -0.000001171719143483342
          -0.0000015763552369999822 -0.000002526886866250176 -0.0000035346574147159755 0 0 -6.258786227795277e-7
          -2.7593746038080433e-7 -0.0000016179039871819526 -6.722200870535192e-7 0 0 0
          5.838945905617688e-8 2.453884382688314e-8 4.394829846448656e-8 7.807350809562474e-8 3.2236312765104385e-8 6.105809674517064e-8
          0 0 0 -2.6848343137788e-7 -1.474999906265228e-7 -2.8758957039229095e-7
          -6.38191649327973e-7 -3.482587464691679e-7 -6.647061775996423e-7 0 0 0
          -0.000006343768238078922 -0.000006615643638605075 -0.000006513975337476707 -0.000012513162993161132 -0.000013108189655078631 -0.000012945755700160569
          0 -0.00000667379019678533 -0.000013222467510306731 0 0 0
          0 2.3997162739006863e-8 8.951295822272197e-9 -2.6690994259439773e-9 1.53377022597909e-8 3.283144248977628e-8
          8.075421930933066e-9 -1.3686372112646905e-8 2.0223602252230088e-8 0 0 -0.000006252140874399022
          -0.000006675792821959978 -0.00001225329539958199 -0.000013319736698892415 0 0 1.730013521113555e-8
          3.317721779324052e-8 2.0790222424799888e-8 4.6197054891276917e-8 0 0 -0.000008006088255826102
          -0.0000067822698375191524 -0.00001625776429187442 -0.000013485161144174336 0 0 -0.000004881567524276823
          -0.000005078405591141131 -0.000009633586635867642 -0.000010226528936035753 0 -8.418749271768946e-9 -2.4248450013715982e-8
          0 -3.8137338009686146e-7 -8.326566642086382e-7 0 0 -0.0000022890182417341578
          -0.0000013869217118306843 -0.000004536802845201739 -0.000003048939627306287 0 -4.748424120922394e-7 -0.000001001666859974637
          0 -1.135924118769026e-7 3.0837660204344916e-7 0 7.766520552498576e-8 1.1452710251740895e-7
          0 -1.4606506294974754e-7 -3.973638113859323e-7 0 -2.309472041472154e-8 -5.483671338616716e-8
          0 -1.2591001689503883e-7 2.4844375094641036e-7 0 -0.000004099191961119006 -0.000008341656301561219
          0 -0.000009206394182970175 -0.000018407574112227605 0 -0.000005357783201678339 -0.000010611868850602447
          0 7.603122153608602e-9 3.923395098820576e-9 0 7.60179837316815e-8 1.66252219661958e-8
          0 -7.482589244670648e-7 -0.0000014792705569632119 0 -7.133549413107566e-7 -0.0000014263675064405474
          0 -8.146368317659136e-7 -0.0000016128588529072314 0 -7.424168868553563e-7 -0.000001482851899007944
          0 -8.467223755327579e-7 -0.00000168069084641313 0 -8.32583775651495e-7 -0.000001658994912934112
          0 -7.590642314561191e-7 -0.0000015192088851035787 0 -6.026717774482912e-7 -0.0000012283998599819106
          0 -2.8719293015398086e-7 -6.035566431903614e-7 0 0 -2.9929839066248974e-7
          -2.1464575256271554e-7 -7.103309216206114e-7 -4.7481140776608965e-7 0 0 0
          0 -1.2427276472497368e-7 -8.015075370701804e-8 -6.946834755323662e-8 -1.240128588256811e-7 -2.638699032858508e-7
          -1.5842588719110615e-7 -1.5181674024095017e-7 -2.670419071823997e-7 0 -3.800088648274365e-8 -7.041876813271627e-8
          0 -1.6055111949286645e-7 -3.1944281152754735e-7 0 -2.6642580151760763e-8 -5.722560878645996e-8
          0 0 -6.716772685485844e-7 -6.799654144574612e-7 -0.0000013390115165812652 -0.000001355740878171933
          0 -7.399485878580696e-7 -0.0000014761118120889628 0 -6.322122535352656e-7 -0.0000012603088366613507
          0 -6.953933868648723e-7 -0.0000013851231594119957 0 -5.973051238231126e-7 -0.000001186648912240308
          0 -4.354354574959603e-7 -8.71043198153266e-7 0 -2.1998394270799383e-7 -4.42763065236852e-7
          0 -1.4297664762043434e-7 -2.972367048233379e-7 0 0 0
          -3.277093078929504e-8 -8.589214447148967e-8 -7.788104868903574e-8 -6.573928192336412e-8 -1.7181136118756604e-7 -1.5752985879533294e-7
        </DataArray>
      </PointData>
      <CellData>
        <DataArray type="Int32" Name="libmesh_elem_id" format="ascii" RangeMin="40" RangeMax="1373">
          40 41 42 43 44 45
          46 47 48 49 50 51
          52 53 54 55 56 57
          98 99 100 101 102 103
          104 105 106 107 108 109
          110 111 112 113 114 115
          156 157 158 159 160 161
          162 163 164 165 166 167
          168 169 170 171 172 173
          214 215 216 217 218 219
          220 221 222 223 224 225
          226 227 228 229 230 231
          272 273 274 275 276 277
          278 279 280 281 282 283
          284 285 286 287 288 289
          330 331 332 333 334 335
          336 337 338 339 340 341
          342 343 344 345 346 347
          388 389 390 391 392 393
          394 395 396 397 398 399
          400 401 402 403 404 405
          446 447 448 449 450 451
          452 453 454 455 456 457
          458 459 460 461 462 463
          508 509 510 511 512 513
          514 515 516 517 518 519
          520 521 522 523 524 525
          526 527 528 529 530 531
          532 533 534 535 536 537
          538 539 540 541 542 543
          544 545 546 547 548 549
          550 551 552 553 554 555
          556 557 558 559 560 561
          562 563 564 565 566 567
          568 569 570 571 572 573
          574 575 576 577 578 579
          580 581 582 583 584 585
          586 587 588 589 590 591
          592 593 594 595 596 597
          598 599 600 601 602 603
          604 605 606 607 608 609
          610 611 612 613 614 615
          616 617 618 619 620 621
          622 623 624 625 626 627
          628 629 630 631 632 633
          634 635 636 637 638 639
          640 641 642 643 644 645
          646 647 648 649 650 651
          652 653 654 655 656 657
          658 659 660 661 662 663
          664 665 666 667 668 669
          670 671 672 673 674 675
          676 677 678 679 680 681
          682 683 684 685 686 687
          688 689 690 691 692 693
          694 695 696 697 698 699
          700 701 702 703 704 705
          706 707 708 709 710 711
          712 713 714 715 716 717
          718 719 720 721 722 723
          724 725 726 727 728 729
          730 731 732 733 734 735
          736 737 738 739 740 741
          742 743 744 745 746 747
          748 749 750 751 752 753
          754 755 756 757 758 759
          760 761 762 763 764 765
          766 767 768 769 770 771
          1186 1187 1188 1189 1190 1191
          1204 1205 1206 1207 1208 1209
          1222 1223 1224 1225 1240 1241
          1242 1243 1258 1259 1260 1261
          1276 1277 1278 1279 1300 1301
          1304 1305 1306 1307 1314 1315
          1316 1317 1326 1327 1328 1329
          1330 1331 1338 1339 1344 1345
          1348 1349 1356 1357 1358 1359
          1360 1361 1366 1367 1372 1373
        </DataArray>
        <DataArray type="Int32" Name="subdomain_id" format="ascii" RangeMin="103" RangeMax="143">
          103 103 103 103 103 103
          103 103 103 103 103 103
          103 103 103 103 103 103
          103 103 103 103 103 103
          103 103 103 103 103 103
          103 103 103 103 103 103
          103 103 103 103 103 103
          103 103 103 103 103 103
          103 103 103 103 103 103
          103 103 103 103 103 103
          103 103 103 103 103 103
          103 103 103 103 103 103
          103 103 103 103 103 103
          103 103 103 103 103 103
          103 103 103 103 103 103
          103 103 103 103 103 103
          103 103 103 103 103 103
          103 103 103 103 103 103
          103 103 103 103 103 103
          103 103 103 103 103 103
          103 103 103 103 103 103
          103 103 103 103 103 103
          103 103 103 103 103 103
          103 103 103 103 103 103
          103 103 103 103 103 103
          103 103 103 103 103 103
          103 103 104 104 104 104
          104 104 104 104 104 104
          104 104 104 104 104 104
          104 104 104 104 104 104
          104 104 104 104 104 104
          104 104 104 104 104 104
          104 104 104 104 104 104
          104 104 104 104 104 104
          104 104 104 104 104 104
          104 104 104 104 104 104
          104 104 104 104 104 104
          104 104 104 104 104 104
          104 104 104 104 104 104
          104 104 104 104 104 104
          104 104 104 104 104 104
          104 104 104 104 104 104
          104 104 104 104 104 104
          104 104 104 104 104 104
          104 104 104 104 104 104
          104 104 104 104 104 104
          104 104 104 104 104 104
          104 104 104 104 104 104
          104 104 104 104 104 104
          104 104 104 104 104 104
          104 104 104 104 104 104
          104 104 104 104 104 104
          104 104 104 104 104 104
          104 104 104 104 104 104
          104 104 104 104 104 104
          104 104 104 104 104 104
          104 104 104 104 104 104
          104 104 104 104 104 104
          104 104 104 104 104 104
          141 141 141 141 141 141
          141 141 141 141 141 141
          141 141 141 141 141 141
          141 141 141 141 141 141
          141 141 141 141 141 141
          141 141 141 141 141 141
          141 141 141 141 141 141
          141 141 141 141 141 141
          141 141 141 141 141 141
          105 105 105 105 105 105
          105 105 105 105 105 105
          105 105 105 105 105 105
          105 105 105 105 105 105
          105 105 105 105 106 106
          106 106 106 106 106 106
          106 106 106 106 106 106
          106 106 106 106 106 106
          106 106 106 106 106 106
          143 143 143 143 143 143
        </DataArray>
        <DataArray type="Int32" Name="processor_id" format="ascii" RangeMin="5" RangeMax="5">
          5 5 5 5 5 5
          5 5 5 5 5 5
          5 5 5 5 5 5
          5 5 5 5 5 5
          5 5 5 5 5 5
          5 5 5 5 5 5
          5 5 5 5 5 5
          5 5 5 5 5 5
          5 5 5 5 5 5
          5 5 5 5 5 5
          5 5 5 5 5 5
          5 5 5 5 5 5
          5 5 5 5 5 5
          5 5 5 5 5 5
          5 5 5 5 5 5
          5 5 5 5 5 5
          5 5 5 5 5 5
          5 5 5 5 5 5
          5 5 5 5 5 5
          5 5 5 5 5 5
          5 5 5 5 5 5
          5 5 5 5 5 5
          5 5 5 5 5 5
          5 5 5 5 5 5
          5 5 5 5 5 5
          5 5 5 5 5 5
          5 5 5 5 5 5
          5 5 5 5 5 5
          5 5 5 5 5 5
          5 5 5 5 5 5
          5 5 5 5 5 5
          5 5 5 5 5 5
          5 5 5 5 5 5
          5 5 5 5 5 5
          5 5 5 5 5 5
          5 5 5 5 5 5
          5 5 5 5 5 5
          5 5 5 5 5 5
          5 5 5 5 5 5
          5 5 5 5 5 5
          5 5 5 5 5 5
          5 5 5 5 5 5
          5 5 5 5 5 5
          5 5 5 5 5 5
          5 5 5 5 5 5
          5 5 5 5 5 5
          5 5 5 5 5 5
          5 5 5 5 5 5
          5 5 5 5 5 5
          5 5 5 5 5 5
          5 5 5 5 5 5
          5 5 5 5 5 5
          5 5 5 5 5 5
          5 5 5 5 5 5
          5 5 5 5 5 5
          5 5 5 5 5 5
          5 5 5 5 5 5
          5 5 5 5 5 5
          5 5 5 5 5 5
          5 5 5 5 5 5
          5 5 5 5 5 5
          5 5 5 5 5 5
          5 5 5 5 5 5
          5 5 5 5 5 5
          5 5 5 5 5 5
          5 5 5 5 5 5
          5 5 5 5 5 5
          5 5 5 5 5 5
          5 5 5 5 5 5
          5 5 5 5 5 5
          5 5 5 5 5 5
          5 5 5 5 5 5
          5 5 5 5 5 5
          5 5 5 5 5 5
          5 5 5 5 5 5
          5 5 5 5 5 5
          5 5 5 5 5 5
          5 5 5 5 5 5
        </DataArray>
      </CellData>
      <Points>
        <DataArray type="Float64" Name="Points" NumberOfComponents="3" format="ascii" RangeMin="0.0082758620689774" RangeMax="0.013139935358843113">
          0.00011111111111123 0.0082758620689751 0 0 0.0082758620689774 0
          0.00011111111111123 0.0082758620689751 0.00015 0 0.0082758620689774 0.00015
          0.00011111111111123 0.0082758620689751 0.0003 0 0.0082758620689774 0.0003
          0.00011111111111125 0.0086896551724226 0 0 0.0086896551724246 0
          0.00011111111111125 0.0086896551724226 0.00015 0 0.0086896551724246 0.00015
          0.00011111111111125 0.0086896551724226 0.0003 0 0.0086896551724246 0.0003
          0.00011111111111126 0.0091034482758696 0 0 0.0091034482758716 0
          0.00011111111111126 0.0091034482758696 0.00015 0 0.0091034482758716 0.00015
          0.00011111111111126 0.0091034482758696 0.0003 0 0.0091034482758716 0.0003
          0.00011111111111128 0.0095172413793168 0 0 0.0095172413793185 0
          0.00011111111111128 0.0095172413793168 0.00015 0 0.0095172413793185 0.00015
          0.00011111111111128 0.0095172413793168 0.0003 0 0.0095172413793185 0.0003
          0.00011111111111129 0.0099310344827632 0 0 0.0099310344827645 0
          0.00011111111111129 0.0099310344827632 0.00015 0 0.0099310344827645 0.00015
          0.00011111111111129 0.0099310344827632 0.0003 0 0.0099310344827645 0.0003
          0.00011111111111131 0.01034482758621 0 0 0.01034482758621 0
          0.00011111111111131 0.01034482758621 0.00015 0 0.01034482758621 0.00015
          0.00011111111111131 0.01034482758621 0.0003 0 0.01034482758621 0.0003
          0.00011111111111132 0.010758620689657 0 0 0.010758620689657 0
          0.00011111111111132 0.010758620689657 0.00015 0 0.010758620689657 0.00015
          0.00011111111111132 0.010758620689657 0.0003 0 0.010758620689657 0.0003
          0.00011111111111134 0.011172413793104 0 0 0.011172413793104 0
          0.00011111111111134 0.011172413793104 0.00015 0 0.011172413793104 0.00015
          0.00011111111111134 0.011172413793104 0.0003 0 0.011172413793104 0.0003
          0.00011111111111135 0.011586206896551 0 0 0.011586206896551 0
          0.00011111111111135 0.011586206896551 0.00015 0 0.011586206896551 0.00015
          0.00011111111111135 0.011586206896551 0.0003 0 0.011586206896551 0.0003
          0.00011111111111137 0.012 0 0 0.012 0
          0.00011111111111137 0.012 0.00015 0 0.012 0.00015
          0.00011111111111137 0.012 0.0003 0 0.012 0.0003
          0.00022222222222243 0.0082758620689727 0 0.00022222222222243 0.0082758620689727 0.00015
          0.00022222222222243 0.0082758620689727 0.0003 0.00022222222222246 0.0086896551724206 0
          0.00022222222222246 0.0086896551724206 0.00015 0.00022222222222246 0.0086896551724206 0.0003
          0.00022222222222249 0.0091034482758676 0 0.00022222222222249 0.0091034482758676 0.00015
          0.00022222222222249 0.0091034482758676 0.0003 0.00022222222222253 0.0095172413793151 0
          0.00022222222222253 0.0095172413793151 0.00015 0.00022222222222253 0.0095172413793151 0.0003
          0.00022222222222256 0.0099310344827619 0 0.00022222222222256 0.0099310344827619 0.00015
          0.00022222222222256 0.0099310344827619 0.0003 0.0002222222222226 0.010344827586209 0
          0.0002222222222226 0.010344827586209 0.00015 0.0002222222222226 0.010344827586209 0.0003
          0.00022222222222263 0.010758620689656 0 0.00022222222222263 0.010758620689656 0.00015
          0.00022222222222263 0.010758620689656 0.0003 0.00022222222222266 0.011172413793103 0
          0.00022222222222266 0.011172413793103 0.00015 0.00022222222222266 0.011172413793103 0.0003
          0.0002222222222227 0.011586206896551 0 0.0002222222222227 0.011586206896551 0.00015
          0.0002222222222227 0.011586206896551 0.0003 0.00022222222222273 0.012 0
          0.00022222222222273 0.012 0.00015 0.00022222222222273 0.012 0.0003
          0.00033333333333363 0.0082758620689704 0 0.00033333333333363 0.0082758620689704 0.00015
          0.00033333333333363 0.0082758620689704 0.0003 0.00033333333333368 0.0086896551724185 0
          0.00033333333333368 0.0086896551724185 0.00015 0.00033333333333368 0.0086896551724185 0.0003
          0.00033333333333373 0.0091034482758657 0 0.00033333333333373 0.0091034482758657 0.00015
          0.00033333333333373 0.0091034482758657 0.0003 0.00033333333333379 0.0095172413793133 0
          0.00033333333333379 0.0095172413793133 0.00015 0.00033333333333379 0.0095172413793133 0.0003
          0.00033333333333384 0.0099310344827607 0 0.00033333333333384 0.0099310344827607 0.00015
          0.00033333333333384 0.0099310344827607 0.0003 0.00033333333333389 0.010344827586208 0
          0.00033333333333389 0.010344827586208 0.00015 0.00033333333333389 0.010344827586208 0.0003
          0.00033333333333394 0.010758620689656 0 0.00033333333333394 0.010758620689656 0.00015
          0.00033333333333394 0.010758620689656 0.0003 0.000333333333334 0.011172413793103 0
          0.000333333333334 0.011172413793103 0.00015 0.000333333333334 0.011172413793103 0.0003
          0.00033333333333405 0.011586206896551 0 0.00033333333333405 0.011586206896551 0.00015
          0.00033333333333405 0.011586206896551 0.0003 0.0003333333333341 0.012 0
          0.0003333333333341 0.012 0.00015 0.0003333333333341 0.012 0.0003
          0.00044444444444486 0.0082758620689681 0 0.00044444444444486 0.0082758620689681 0.00015
          0.00044444444444486 0.0082758620689681 0.0003 0.00044444444444493 0.0086896551724165 0
          0.00044444444444493 0.0086896551724165 0.00015 0.00044444444444493 0.0086896551724165 0.0003
          0.00044444444444501 0.0091034482758637 0 0.00044444444444501 0.0091034482758637 0.00015
          0.00044444444444501 0.0091034482758637 0.0003 0.00044444444444508 0.0095172413793116 0
          0.00044444444444508 0.0095172413793116 0.00015 0.00044444444444508 0.0095172413793116 0.0003
          0.00044444444444516 0.0099310344827594 0 0.00044444444444516 0.0099310344827594 0.00015
          0.00044444444444516 0.0099310344827594 0.0003 0.00044444444444523 0.010344827586207 0
          0.00044444444444523 0.010344827586207 0.00015 0.00044444444444523 0.010344827586207 0.0003
          0.00044444444444531 0.010758620689655 0 0.00044444444444531 0.010758620689655 0.00015
          0.00044444444444531 0.010758620689655 0.0003 0.00044444444444538 0.011172413793103 0
          0.00044444444444538 0.011172413793103 0.00015 0.00044444444444538 0.011172413793103 0.0003
          0.00044444444444546 0.011586206896551 0 0.00044444444444546 0.011586206896551 0.00015
          0.00044444444444546 0.011586206896551 0.0003 0.00044444444444553 0.012 0
          0.00044444444444553 0.012 0.00015 0.00044444444444553 0.012 0.0003
          0.00055555555555597 0.0082758620689657 0 0.00055555555555597 0.0082758620689657 0.00015
          0.00055555555555597 0.0082758620689657 0.0003 0.00055555555555605 0.0086896551724145 0
          0.00055555555555605 0.0086896551724145 0.00015 0.00055555555555605 0.0086896551724145 0.0003
          0.00055555555555613 0.0091034482758618 0 0.00055555555555613 0.0091034482758618 0.00015
          0.00055555555555613 0.0091034482758618 0.0003 0.00055555555555621 0.0095172413793099 0
          0.00055555555555621 0.0095172413793099 0.00015 0.00055555555555621 0.0095172413793099 0.0003
          0.00055555555555629 0.0099310344827581 0 0.00055555555555629 0.0099310344827581 0.00015
          0.00055555555555629 0.0099310344827581 0.0003 0.00055555555555636 0.010344827586206 0
          0.00055555555555636 0.010344827586206 0.00015 0.00055555555555636 0.010344827586206 0.0003
          0.00055555555555644 0.010758620689655 0 0.00055555555555644 0.010758620689655 0.00015
          0.00055555555555644 0.010758620689655 0.0003 0.00055555555555652 0.011172413793102 0
          0.00055555555555652 0.011172413793102 0.00015 0.00055555555555652 0.011172413793102 0.0003
          0.0005555555555566 0.011586206896551 0 0.0005555555555566 0.011586206896551 0.00015
          0.0005555555555566 0.011586206896551 0.0003 0.00055555555555667 0.012 0
          0.00055555555555667 0.012 0.00015 0.00055555555555667 0.012 0.0003
          0.00066666666666675 0.0082758620689634 0 0.00066666666666675 0.0082758620689634 0.00015
          0.00066666666666675 0.0082758620689634 0.0003 0.00066666666666679 0.0086896551724125 0
          0.00066666666666679 0.0086896551724125 0.00015 0.00066666666666679 0.0086896551724125 0.0003
          0.00066666666666684 0.0091034482758598 0 0.00066666666666684 0.0091034482758598 0.00015
          0.00066666666666684 0.0091034482758598 0.0003 0.00066666666666688 0.0095172413793081 0
          0.00066666666666688 0.0095172413793081 0.00015 0.00066666666666688 0.0095172413793081 0.0003
          0.00066666666666693 0.0099310344827568 0 0.00066666666666693 0.0099310344827568 0.00015
          0.00066666666666693 0.0099310344827568 0.0003 0.00066666666666697 0.010344827586205 0
          0.00066666666666697 0.010344827586205 0.00015 0.00066666666666697 0.010344827586205 0.0003
          0.00066666666666701 0.010758620689654 0 0.00066666666666701 0.010758620689654 0.00015
          0.00066666666666701 0.010758620689654 0.0003 0.00066666666666706 0.011172413793102 0
          0.00066666666666706 0.011172413793102 0.00015 0.00066666666666706 0.011172413793102 0.0003
          0.0006666666666671 0.01158620689655 0 0.0006666666666671 0.01158620689655 0.00015
          0.0006666666666671 0.01158620689655 0.0003 0.00066666666666715 0.012 0
          0.00066666666666715 0.012 0.00015 0.00066666666666715 0.012 0.0003
          0.00077777777777787 0.0082758620689611 0 0.00077777777777787 0.0082758620689611 0.00015
          0.00077777777777787 0.0082758620689611 0.0003 0.00077777777777791 0.0086896551724104 0
          0.00077777777777791 0.0086896551724104 0.00015 0.00077777777777791 0.0086896551724104 0.0003
          0.00077777777777794 0.0091034482758578 0 0.00077777777777794 0.0091034482758578 0.00015
          0.00077777777777794 0.0091034482758578 0.0003 0.00077777777777797 0.0095172413793064 0
          0.00077777777777797 0.0095172413793064 0.00015 0.00077777777777797 0.0095172413793064 0.0003
          0.000777777777778 0.0099310344827555 0 0.000777777777778 0.0099310344827555 0.00015
          0.000777777777778 0.0099310344827555 0.0003 0.00077777777777803 0.010344827586205 0
          0.00077777777777803 0.010344827586205 0.00015 0.00077777777777803 0.010344827586205 0.0003
          0.00077777777777806 0.010758620689654 0 0.00077777777777806 0.010758620689654 0.00015
          0.00077777777777806 0.010758620689654 0.0003 0.00077777777777809 0.011172413793101 0
          0.00077777777777809 0.011172413793101 0.00015 0.00077777777777809 0.011172413793101 0.0003
          0.00077777777777813 0.01158620689655 0 0.00077777777777813 0.01158620689655 0.00015
          0.00077777777777813 0.01158620689655 0.0003 0.00077777777777816 0.012 0
          0.00077777777777816 0.012 0.00015 0.00077777777777816 0.012 0.0003
          0.0008888888888888 0.0082758620689588 0 0.0008888888888888 0.0082758620689588 0.00015
          0.0008888888888888 0.0082758620689588 0.0003 0.00088888888888881 0.0086896551724084 0
          0.00088888888888881 0.0086896551724084 0.00015 0.00088888888888881 0.0086896551724084 0.0003
          0.00088888888888882 0.0091034482758559 0 0.00088888888888882 0.0091034482758559 0.00015
          0.00088888888888882 0.0091034482758559 0.0003 0.00088888888888883 0.0095172413793047 0
          0.00088888888888883 0.0095172413793047 0.00015 0.00088888888888883 0.0095172413793047 0.0003
          0.00088888888888884 0.0099310344827542 0 0.00088888888888884 0.0099310344827542 0.00015
          0.00088888888888884 0.0099310344827542 0.0003 0.00088888888888885 0.010344827586204 0
          0.00088888888888885 0.010344827586204 0.00015 0.00088888888888885 0.010344827586204 0.0003
          0.00088888888888885 0.010758620689653 0 0.00088888888888885 0.010758620689653 0.00015
          0.00088888888888885 0.010758620689653 0.0003 0.00088888888888886 0.011172413793101 0
          0.00088888888888886 0.011172413793101 0.00015 0.00088888888888886 0.011172413793101 0.0003
          0.00088888888888887 0.01158620689655 0 0.00088888888888887 0.01158620689655 0.00015
          0.00088888888888887 0.01158620689655 0.0003 0.00088888888888888 0.012 0
          0.00088888888888888 0.012 0.00015 0.00088888888888888 0.012 0.0003
          0.001 0.0091034482758539 0 0.001 0.0091034482758539 0.00015
          0.001 0.0091034482758539 0.0003 0.001 0.0095172413793029 0
          0.001 0.0095172413793029 0.00015 0.001 0.0095172413793029 0.0003
          0.001 0.0099310344827529 0 0.001 0.0099310344827529 0.00015
          0.001 0.0099310344827529 0.0003 0.001 0.010344827586203 0
          0.001 0.010344827586203 0.00015 0.001 0.010344827586203 0.0003
          0.001 0.010758620689653 0 0.001 0.010758620689653 0.00015
          0.001 0.010758620689653 0.0003 0.001 0.0111724137931 0
          0.001 0.0111724137931 0.00015 0.001 0.0111724137931 0.0003
          0.001 0.01158620689655 0 0.001 0.01158620689655 0.00015
          0.001 0.01158620689655 0.0003 0.001 0.012 0
          0.001 0.012 0.00015 0.001 0.012 0.0003
          0.00067947077571632 0.012798245728111 0 0.00068678568032061 0.012710429785181 0
          0.00076344362314339 0.012698069087358 0 0.00078000626700894 0.012788238676479 0
          0.00067947077571632 0.012798245728111 0.00015 0.00068678568032061 0.012710429785181 0.00015
          0.00076344362314339 0.012698069087358 0.00015 0.00078000626700894 0.012788238676479 0.00015
          0.00067947077571632 0.012798245728111 0.0003 0.00068678568032061 0.012710429785181 0.0003
          0.00076344362314339 0.012698069087358 0.0003 0.00078000626700894 0.012788238676479 0.0003
          0.0007101811699723 0.012881232243155 0 0.00078737528777453 0.012884598822829 0
          0.0007101811699723 0.012881232243155 0.00015 0.00078737528777453 0.012884598822829 0.00015
          0.0007101811699723 0.012881232243155 0.0003 0.00078737528777453 0.012884598822829 0.0003
          0.00063149088332091 0.012876508075697 0 0.00071156048039536 0.012943694476106 0
          0.00064992343237843 0.012944046337553 0 0.00063149088332091 0.012876508075697 0.00015
          0.00071156048039536 0.012943694476106 0.00015 0.00064992343237843 0.012944046337553 0.00015
          0.00063149088332091 0.012876508075697 0.0003 0.00071156048039536 0.012943694476106 0.0003
          0.00064992343237843 0.012944046337553 0.0003 0.00014271480927744 0.012184528409521 0
          0.00021074182908597 0.012239195039162 0 0.00014617236906556 0.012274772666576 0
          0.00010836971036758 0.0122326927564 0 0.00014271480927744 0.012184528409521 0.00015
          0.00021074182908597 0.012239195039162 0.00015 0.00014617236906556 0.012274772666576 0.00015
          0.00010836971036758 0.0122326927564 0.00015 0.00014271480927744 0.012184528409521 0.0003
          0.00021074182908597 0.012239195039162 0.0003 0.00014617236906556 0.012274772666576 0.0003
          0.00010836971036758 0.0122326927564 0.0003 0.00040316247653445 0.012523054457121 0
          0.00050524235438491 0.012516470580574 0 0.00047556583290331 0.012611926172403 0
          0.00040677839563254 0.01259579728731 0 0.00040316247653445 0.012523054457121 0.00015
          0.00050524235438491 0.012516470580574 0.00015 0.00047556583290331 0.012611926172403 0.00015
          0.00040677839563254 0.01259579728731 0.00015 0.00040316247653445 0.012523054457121 0.0003
          0.00050524235438491 0.012516470580574 0.0003 0.00047556583290331 0.012611926172403 0.0003
          0.00040677839563254 0.01259579728731 0.0003 0.00038389728538556 0.012111104172094 0
          0.00037958632650406 0.012195366170904 0 0.00029855370140418 0.012181148574691 0
          0.00029802321336891 0.012105931916082 0 0.00038389728538556 0.012111104172094 0.00015
          0.00037958632650406 0.012195366170904 0.00015 0.00029855370140418 0.012181148574691 0.00015
          0.00029802321336891 0.012105931916082 0.00015 0.00038389728538556 0.012111104172094 0.0003
          0.00037958632650406 0.012195366170904 0.0003 0.00029855370140418 0.012181148574691 0.0003
          0.00029802321336891 0.012105931916082 0.0003 0.00062435778703091 0.012280526392523 0
          0.00063694887874418 0.012191685157308 0 0.00075163746499696 0.012211869018538 0
          0.0007101306235237 0.012330652999586 0 0.00062435778703091 0.012280526392523 0.00015
          0.00063694887874418 0.012191685157308 0.00015 0.00075163746499696 0.012211869018538 0.00015
          0.0007101306235237 0.012330652999586 0.00015 0.00062435778703091 0.012280526392523 0.0003
          0.00063694887874418 0.012191685157308 0.0003 0.00075163746499696 0.012211869018538 0.0003
          0.0007101306235237 0.012330652999586 0.0003 0.00090036231429234 0.012108977226849 0
          0.00080269198720626 0.012096984730608 0 0.00090036231429234 0.012108977226849 0.00015
          0.00080269198720626 0.012096984730608 0.00015 0.00090036231429234 0.012108977226849 0.0003
          0.00080269198720626 0.012096984730608 0.0003 0.00023865656240352 0.012177237347116 0
          0.00029061852669854 0.01224857812735 0 0.00023865656240352 0.012177237347116 0.00015
          0.00029061852669854 0.01224857812735 0.00015 0.00023865656240352 0.012177237347116 0.0003
          0.00029061852669854 0.01224857812735 0.0003 0.00056164385173704 0.012835416164401 0
          0.00056508360468666 0.012898794448667 0 0.00049240387645224 0.012913175910861 0
          0.00046984631090009 0.012828989929731 0 0.00056164385173704 0.012835416164401 0.00015
          0.00056508360468666 0.012898794448667 0.00015 0.00049240387645224 0.012913175910861 0.00015
          0.00046984631090009 0.012828989929731 0.00015 0.00056164385173704 0.012835416164401 0.0003
          0.00056508360468666 0.012898794448667 0.0003 0.00049240387645224 0.012913175910861 0.0003
          0.00046984631090009 0.012828989929731 0.0003 0.000050495613361417 0.012066083920595 0
          0.00011131843390441 0.012086989142678 0 0.000069577205110887 0.012153607960951 0
          0 0.012111111111109 0 0.000050495613361417 0.012066083920595 0.00015
          0.00011131843390441 0.012086989142678 0.00015 0.000069577205110887 0.012153607960951 0.00015
          0 0.012111111111109 0.00015 0.000050495613361417 0.012066083920595 0.0003
          0.00011131843390441 0.012086989142678 0.0003 0.000069577205110887 0.012153607960951 0.0003
          0 0.012111111111109 0.0003 0.00022470825547396 0.012306913365418 0
          0.00017103954025546 0.012340304715306 0 0.00022470825547396 0.012306913365418 0.00015
          0.00017103954025546 0.012340304715306 0.00015 0.00022470825547396 0.012306913365418 0.0003
          0.00017103954025546 0.012340304715306 0.0003 0.00085640575367095 0.012657655614724 0
          0.001 0.012571428571438 0 0.001 0.012714285714292 0
          0.00089085524488654 0.012778191533234 0 0.00085640575367095 0.012657655614724 0.00015
          0.001 0.012571428571438 0.00015 0.001 0.012714285714292 0.00015
          0.00089085524488654 0.012778191533234 0.00015 0.00085640575367095 0.012657655614724 0.0003
          0.001 0.012571428571438 0.0003 0.001 0.012714285714292 0.0003
          0.00089085524488654 0.012778191533234 0.0003 0.00017101007138246 0.012530153689505 0
          0.000086824088695593 0.01250759612347 0 0.00010015626416536 0.012463076177022 0
          0.00018026894988108 0.012457509098897 0 0.00017101007138246 0.012530153689505 0.00015
          0.000086824088695593 0.01250759612347 0.00015 0.00010015626416536 0.012463076177022 0.00015
          0.00018026894988108 0.012457509098897 0.00015 0.00017101007138246 0.012530153689505 0.0003
          0.000086824088695593 0.01250759612347 0.0003 0.00010015626416536 0.012463076177022 0.0003
          0.00018026894988108 0.012457509098897 0.0003 0.00055555555555552 0.013 0
          0.00054972466987376 0.012958523613261 0 0.00059017772624368 0.012950117696029 0
          0.00061111111111072 0.013 0 0.00055555555555552 0.013 0.00015
          0.00054972466987376 0.012958523613261 0.00015 0.00059017772624368 0.012950117696029 0.00015
          0.00061111111111072 0.013 0.00015 0.00055555555555552 0.013 0.0003
          0.00054972466987376 0.012958523613261 0.0003 0.00059017772624368 0.012950117696029 0.0003
          0.00061111111111072 0.013 0.0003 0.00056012017374448 0.012193168747791 0
          0.00054338833040714 0.012250054231166 0 0.00056012017374448 0.012193168747791 0.00015
          0.00054338833040714 0.012250054231166 0.00015 0.00056012017374448 0.012193168747791 0.0003
          0.00054338833040714 0.012250054231166 0.0003 0.00020164702899907 0.012111009853496 0
          0.00020164702899907 0.012111009853496 0.00015 0.00020164702899907 0.012111009853496 0.0003
          0.00058698867508036 0.01276393301723 0 0.00061242021253103 0.012689969395149 0
          0.00058698867508036 0.01276393301723 0.00015 0.00061242021253103 0.012689969395149 0.00015
          0.00058698867508036 0.01276393301723 0.0003 0.00061242021253103 0.012689969395149 0.0003
          0.00054704952286259 0.01264760123259 0 0.00058547756026548 0.012574831423214 0
          0.00066845126455385 0.012625352450745 0 0.00054704952286259 0.01264760123259 0.00015
          0.00058547756026548 0.012574831423214 0.00015 0.00066845126455385 0.012625352450745 0.00015
          0.00054704952286259 0.01264760123259 0.0003 0.00058547756026548 0.012574831423214 0.0003
          0.00066845126455385 0.012625352450745 0.0003 0.00040316497174951 0.012375710115571 0
          0.00038996592658543 0.012448925709731 0 0.00030251984068288 0.012451026681152 0
          0.00030273327950676 0.012339921797294 0 0.00040316497174951 0.012375710115571 0.00015
          0.00038996592658543 0.012448925709731 0.00015 0.00030251984068288 0.012451026681152 0.00015
          0.00030273327950676 0.012339921797294 0.00015 0.00040316497174951 0.012375710115571 0.0003
          0.00038996592658543 0.012448925709731 0.0003 0.00030251984068288 0.012451026681152 0.0003
          0.00030273327950676 0.012339921797294 0.0003 0 0.012166666666663 0
          0.000060257043043922 0.012213388328671 0 0 0.012222222222217 0
          0 0.012166666666663 0.00015 0.000060257043043922 0.012213388328671 0.00015
          0 0.012222222222217 0.00015 0 0.012166666666663 0.0003
          0.000060257043043922 0.012213388328671 0.0003 0 0.012222222222217 0.0003
          0.00086766031505541 0.012218873949421 0 0.00070802748250363 0.01210226547145 0
          0.00086766031505541 0.012218873949421 0.00015 0.00070802748250363 0.01210226547145 0.00015
          0.00086766031505541 0.012218873949421 0.0003 0.00070802748250363 0.01210226547145 0.0003
          0.00045681564832724 0.012667985356076 0 0.00038302222240927 0.012678606196169 0
          0.00045681564832724 0.012667985356076 0.00015 0.00038302222240927 0.012678606196169 0.00015
          0.00045681564832724 0.012667985356076 0.0003 0.00038302222240927 0.012678606196169 0.0003
          0.00057343997443155 0.012462111372123 0 0.00067467937701806 0.012497336760124 0
          0.00057343997443155 0.012462111372123 0.00015 0.00067467937701806 0.012497336760124 0.00015
          0.00057343997443155 0.012462111372123 0.0003 0.00067467937701806 0.012497336760124 0.0003
          0 0.012388888888886 0 0.00004805763346656 0.012364070531781 0
          0.000052775834931525 0.012418323433379 0 0 0.012444444444443 0
          0 0.012388888888886 0.00015 0.00004805763346656 0.012364070531781 0.00015
          0.000052775834931525 0.012418323433379 0.00015 0 0.012444444444443 0.00015
          0 0.012388888888886 0.0003 0.00004805763346656 0.012364070531781 0.0003
          0.000052775834931525 0.012418323433379 0.0003 0 0.012444444444443 0.0003
          0.0004655657017567 0.012222981448331 0 0.0004403524252846 0.012306679111378 0
          0.00036518397892919 0.012268658791136 0 0.0004655657017567 0.012222981448331 0.00015
          0.0004403524252846 0.012306679111378 0.00015 0.00036518397892919 0.012268658791136 0.00015
          0.0004655657017567 0.012222981448331 0.0003 0.0004403524252846 0.012306679111378 0.0003
          0.00036518397892919 0.012268658791136 0.0003 0.00079059026611164 0.012574208252283 0
          0.00074033738884001 0.012629472897336 0 0.00079059026611164 0.012574208252283 0.00015
          0.00074033738884001 0.012629472897336 0.00015 0.00079059026611164 0.012574208252283 0.0003
          0.00074033738884001 0.012629472897336 0.0003 0.00049134001885305 0.012124425854677 0
          0.00060162315338905 0.012101782274206 0 0.00049134001885305 0.012124425854677 0.00015
          0.00060162315338905 0.012101782274206 0.00015 0.00049134001885305 0.012124425854677 0.0003
          0.00060162315338905 0.012101782274206 0.0003 0.00055165526617401 0.012365152711649 0
          0.00046621557592763 0.012427373679685 0 0.00055165526617401 0.012365152711649 0.00015
          0.00046621557592763 0.012427373679685 0.00015 0.00055165526617401 0.012365152711649 0.0003
          0.00046621557592763 0.012427373679685 0.0003 0.00065175768920993 0.012395993188634 0
          0.00078658012555766 0.01242031863996 0 0.00065175768920993 0.012395993188634 0.00015
          0.00078658012555766 0.01242031863996 0.00015 0.00065175768920993 0.012395993188634 0.0003
          0.00078658012555766 0.01242031863996 0.0003 0.00072222222222142 0.013 0
          0.00076767785213736 0.012949407633443 0 0.00077777777777722 0.013 0
          0.00072222222222142 0.013 0.00015 0.00076767785213736 0.012949407633443 0.00015
          0.00077777777777722 0.013 0.00015 0.00072222222222142 0.013 0.0003
          0.00076767785213736 0.012949407633443 0.0003 0.00077777777777722 0.013 0.0003
          0.001 0.01228571428572 0 0.001 0.012428571428581 0
          0.00085243404696798 0.012340254950119 0 0.001 0.01228571428572 0.00015
          0.001 0.012428571428581 0.00015 0.00085243404696798 0.012340254950119 0.00015
          0.001 0.01228571428572 0.0003 0.001 0.012428571428581 0.0003
          0.00085243404696798 0.012340254950119 0.0003 0.000047305708530005 0.012255757186949 0
          0.000035989657241992 0.012305788523607 0 0 0.012277777777773 0
          0.000047305708530005 0.012255757186949 0.00015 0.000035989657241992 0.012305788523607 0.00015
          0 0.012277777777773 0.00015 0.000047305708530005 0.012255757186949 0.0003
          0.000035989657241992 0.012305788523607 0.0003 0 0.012277777777773 0.0003
          0 0.01233333333333 0 0 0.01233333333333 0.00015
          0 0.01233333333333 0.0003 0.00088888888888861 0.013 0
          0.00086852226729803 0.012945143609779 0 0.00092105077811413 0.012923509600428 0
          0.0009444444444442 0.013 0 0.00088888888888861 0.013 0.00015
          0.00086852226729803 0.012945143609779 0.00015 0.00092105077811413 0.012923509600428 0.00015
          0.0009444444444442 0.013 0.00015 0.00088888888888861 0.013 0.0003
          0.00086852226729803 0.012945143609779 0.0003 0.00092105077811413 0.012923509600428 0.0003
          0.0009444444444442 0.013 0.0003 0.000088322519872331 0.012287262323421 0
          0.000098057359918883 0.01234321954228 0 0.000088322519872331 0.012287262323421 0.00015
          0.000098057359918883 0.01234321954228 0.00015 0.000088322519872331 0.012287262323421 0.0003
          0.000098057359918883 0.01234321954228 0.0003 0.00082037799021753 0.012949927278989 0
          0.00083333333333302 0.013 0 0.00082037799021753 0.012949927278989 0.00015
          0.00083333333333302 0.013 0.00015 0.00082037799021753 0.012949927278989 0.0003
          0.00083333333333302 0.013 0.0003 0.000055423585756317 0.01245648439217 0
          0.00011750487062481 0.01240389197138 0 0.000055423585756317 0.01245648439217 0.00015
          0.00011750487062481 0.01240389197138 0.00015 0.000055423585756317 0.01245648439217 0.0003
          0.00011750487062481 0.01240389197138 0.0003 0.00022703795328819 0.012397087263253 0
          0.00024412512388832 0.012487409031957 0 0.00022703795328819 0.012397087263253 0.00015
          0.00024412512388832 0.012487409031957 0.00015 0.00022703795328819 0.012397087263253 0.0003
          0.00024412512388832 0.012487409031957 0.0003 0.00086622784349606 0.012879340816766 0
          0.00086622784349606 0.012879340816766 0.00015 0.00086622784349606 0.012879340816766 0.0003
          0.001 0.01214285714286 0 0.001 0.01214285714286 0.00015
          0.001 0.01214285714286 0.0003 0.00032807036377433 0.012530514194312 0
          0.00032139380548758 0.012616977778981 0 0.00032807036377433 0.012530514194312 0.00015
          0.00032139380548758 0.012616977778981 0.00015 0.00032807036377433 0.012530514194312 0.0003
          0.00032139380548758 0.012616977778981 0.0003 0.00078653837511981 0.012300730611142 0
          0.00078653837511981 0.012300730611142 0.00015 0.00078653837511981 0.012300730611142 0.0003
          0.00050187285486533 0.012723776617989 0 0.00050187285486533 0.012723776617989 0.00015
          0.00050187285486533 0.012723776617989 0.0003 0.00066666666666612 0.013 0
          0.00066666666666612 0.013 0.00015 0.00066666666666612 0.013 0.0003
          0.00086640285866826 0.012499721374928 0 0.00086640285866826 0.012499721374928 0.00015
          0.00086640285866826 0.012499721374928 0.0003 0.001 0.012857142857146 0
          0.001 0.012857142857146 0.00015 0.001 0.012857142857146 0.0003
          0.00043301270230906 0.012750000000722 0 0.00043301270230906 0.012750000000722 0.00015
          0.00043301270230906 0.012750000000722 0.0003 0.00025000000019401 0.01256698729822 0
          0.00025000000019401 0.01256698729822 0.00015 0.00025000000019401 0.01256698729822 0.0003
          0 0.0125 0 0 0.0125 0.00015
          0 0.0125 0.0003 0 0.012055555555554 0
          0 0.012055555555554 0.00015 0 0.012055555555554 0.0003
          0.001 0.013 0 0.001 0.013 0.00015
          0.001 0.013 0.0003 0.0005 0.013 0
          0.0005 0.013 0.00015 0.0005 0.013 0.0003
          0.0014444444444451 0.0095172413793029 0 0.0014444444444451 0.0095172413793029 0.00015
          0.0014444444444451 0.0095172413793029 0.0003 0.0018888888888902 0.0095172413793029 0
          0.0018888888888902 0.0095172413793029 0.00015 0.0018888888888902 0.0095172413793029 0.0003
          0.0014444444444452 0.0099310344827529 0 0.0014444444444452 0.0099310344827529 0.00015
          0.0014444444444452 0.0099310344827529 0.0003 0.0018888888888903 0.0099310344827529 0
          0.0018888888888903 0.0099310344827529 0.00015 0.0018888888888903 0.0099310344827529 0.0003
          0.0014444444444452 0.010344827586203 0 0.0014444444444452 0.010344827586203 0.00015
          0.0014444444444452 0.010344827586203 0.0003 0.0014444444444453 0.010758620689653 0
          0.0014444444444453 0.010758620689653 0.00015 0.0014444444444453 0.010758620689653 0.0003
          0.0014444444444453 0.0111724137931 0 0.0014444444444453 0.0111724137931 0.00015
          0.0014444444444453 0.0111724137931 0.0003 0.0014444444444454 0.01158620689655 0
          0.0014444444444454 0.01158620689655 0.00015 0.0014444444444454 0.01158620689655 0.0003
          0.0014444444444455 0.012 0 0.0014444444444455 0.012 0.00015
          0.0014444444444455 0.012 0.0003 0.0011659770658264 0.012184916069452 0
          0.0011978981211319 0.012291694091132 0 0.0011659770658264 0.012184916069452 0.00015
          0.0011978981211319 0.012291694091132 0.00015 0.0011659770658264 0.012184916069452 0.0003
          0.0011978981211319 0.012291694091132 0.0003 0.0014134281085546 0.012468353283698 0
          0.001412897365997 0.01265802692797 0 0.0011710921098332 0.012660749606473 0
          0.0011928404820732 0.012464476127519 0 0.0014134281085546 0.012468353283698 0.00015
          0.001412897365997 0.01265802692797 0.00015 0.0011710921098332 0.012660749606473 0.00015
          0.0011928404820732 0.012464476127519 0.00015 0.0014134281085546 0.012468353283698 0.0003
          0.001412897365997 0.01265802692797 0.0003 0.0011710921098332 0.012660749606473 0.0003
          0.0011928404820732 0.012464476127519 0.0003 0.0011801499871676 0.012824831216028 0
          0.0011801499871676 0.012824831216028 0.00015 0.0011801499871676 0.012824831216028 0.0003
          0.0014335559245349 0.012265987585326 0 0.0014335559245349 0.012265987585326 0.00015
          0.0014335559245349 0.012265987585326 0.0003 0.0014444444444455 0.013 0
          0.0014444444444455 0.013 0.00015 0.0014444444444455 0.013 0.0003
          0.0023333333333355 0.0099310344827529 0 0.0023333333333353 0.0095172413793029 0
          0.0023333333333355 0.0099310344827529 0.00015 0.0023333333333353 0.0095172413793029 0.00015
          0.0023333333333355 0.0099310344827529 0.0003 0.0023333333333353 0.0095172413793029 0.0003
          0.0018888888888904 0.010344827586203 0 0.0018888888888904 0.010344827586203 0.00015
          0.0018888888888904 0.010344827586203 0.0003 0.0023333333333357 0.010344827586203 0
          0.0023333333333357 0.010344827586203 0.00015 0.0023333333333357 0.010344827586203 0.0003
          0.0018888888888905 0.010758620689653 0 0.0018888888888905 0.010758620689653 0.00015
          0.0018888888888905 0.010758620689653 0.0003 0.0018888888888907 0.0111724137931 0
          0.0018888888888907 0.0111724137931 0.00015 0.0018888888888907 0.0111724137931 0.0003
          0.0018888888888908 0.01158620689655 0 0.0018888888888908 0.01158620689655 0.00015
          0.0018888888888908 0.01158620689655 0.0003 0.0018888888888909 0.012 0
          0.0018888888888909 0.012 0.00015 0.0018888888888909 0.012 0.0003
          0.0017386847932316 0.012348636106575 0 0.0017386847932316 0.012348636106575 0.00015
          0.0017386847932316 0.012348636106575 0.0003 0.0018888888888909 0.013 0
          0.001702980389272 0.012655949584096 0 0.0020604062010233 0.012679406151259 0
          0.0018888888888909 0.013 0.00015 0.001702980389272 0.012655949584096 0.00015
          0.0020604062010233 0.012679406151259 0.00015 0.0018888888888909 0.013 0.0003
          0.001702980389272 0.012655949584096 0.0003 0.0020604062010233 0.012679406151259 0.0003
          <InformationKey name="L2_NORM_RANGE" location="vtkDataArray" length="2">
            <Value index="0">
              0.008275862069
            </Value>
            <Value index="1">
              0.013139935359
            </Value>
          </InformationKey>
        </DataArray>
      </Points>
      <Cells>
        <DataArray type="Int64" Name="connectivity" format="ascii" RangeMin="0" RangeMax="755">
          1 0 6 7 3 2
          8 9 3 2 8 9
          5 4 10 11 7 6
          12 13 9 8 14 15
          9 8 14 15 11 10
          16 17 13 12 18 19
          15 14 20 21 15 14
          20 21 17 16 22 23
          19 18 24 25 21 20
          26 27 21 20 26 27
          23 22 28 29 25 24
          30 31 27 26 32 33
          27 26 32 33 29 28
          34 35 31 30 36 37
          33 32 38 39 33 32
          38 39 35 34 40 41
          37 36 42 43 39 38
          44 45 39 38 44 45
          41 40 46 47 43 42
          48 49 45 44 50 51
          45 44 50 51 47 46
          52 53 49 48 54 55
          51 50 56 57 51 50
          56 57 53 52 58 59
          0 60 63 6 2 61
          64 8 2 61 64 8
          4 62 65 10 6 63
          66 12 8 64 67 14
          8 64 67 14 10 65
          68 16 12 66 69 18
          14 67 70 20 14 67
          70 20 16 68 71 22
          18 69 72 24 20 70
          73 26 20 70 73 26
          22 71 74 28 24 72
          75 30 26 73 76 32
          26 73 76 32 28 74
          77 34 30 75 78 36
          32 76 79 38 32 76
          79 38 34 77 80 40
          36 78 81 42 38 79
          82 44 38 79 82 44
          40 80 83 46 42 81
          84 48 44 82 85 50
          44 82 85 50 46 83
          86 52 48 84 87 54
          50 85 88 56 50 85
          88 56 52 86 89 58
          60 90 93 63 61 91
          94 64 61 91 94 64
          62 92 95 65 63 93
          96 66 64 94 97 67
          64 94 97 67 65 95
          98 68 66 96 99 69
          67 97 100 70 67 97
          100 70 68 98 101 71
          69 99 102 72 70 100
          103 73 70 100 103 73
          71 101 104 74 72 102
          105 75 73 103 106 76
          73 103 106 76 74 104
          107 77 75 105 108 78
          76 106 109 79 76 106
          109 79 77 107 110 80
          78 108 111 81 79 109
          112 82 79 109 112 82
          80 110 113 83 81 111
          114 84 82 112 115 85
          82 112 115 85 83 113
          116 86 84 114 117 87
          85 115 118 88 85 115
          118 88 86 116 119 89
          90 120 123 93 91 121
          124 94 91 121 124 94
          92 122 125 95 93 123
          126 96 94 124 127 97
          94 124 127 97 95 125
          128 98 96 126 129 99
          97 127 130 100 97 127
          130 100 98 128 131 101
          99 129 132 102 100 130
          133 103 100 130 133 103
          101 131 134 104 102 132
          135 105 103 133 136 106
          103 133 136 106 104 134
          137 107 105 135 138 108
          106 136 139 109 106 136
          139 109 107 137 140 110
          108 138 141 111 109 139
          142 112 109 139 142 112
          110 140 143 113 111 141
          144 114 112 142 145 115
          112 142 145 115 113 143
          146 116 114 144 147 117
          115 145 148 118 115 145
          148 118 116 146 149 119
          120 150 153 123 121 151
          154 124 121 151 154 124
          122 152 155 125 123 153
          156 126 124 154 157 127
          124 154 157 127 125 155
          158 128 126 156 159 129
          127 157 160 130 127 157
          160 130 128 158 161 131
          129 159 162 132 130 160
          163 133 130 160 163 133
          131 161 164 134 132 162
          165 135 133 163 166 136
          133 163 166 136 134 164
          167 137 135 165 168 138
          136 166 169 139 136 166
          169 139 137 167 170 140
          138 168 171 141 139 169
          172 142 139 169 172 142
          140 170 173 143 141 171
          174 144 142 172 175 145
          142 172 175 145 143 173
          176 146 144 174 177 147
          145 175 178 148 145 175
          178 148 146 176 179 149
          150 180 183 153 151 181
          184 154 151 181 184 154
          152 182 185 155 153 183
          186 156 154 184 187 157
          154 184 187 157 155 185
          188 158 156 186 189 159
          157 187 190 160 157 187
          190 160 158 188 191 161
          159 189 192 162 160 190
          193 163 160 190 193 163
          161 191 194 164 162 192
          195 165 163 193 196 166
          163 193 196 166 164 194
          197 167 165 195 198 168
          166 196 199 169 166 196
          199 169 167 197 200 170
          168 198 201 171 169 199
          202 172 169 199 202 172
          170 200 203 173 171 201
          204 174 172 202 205 175
          172 202 205 175 173 203
          206 176 174 204 207 177
          175 205 208 178 175 205
          208 178 176 206 209 179
          180 210 213 183 181 211
          214 184 181 211 214 184
          182 212 215 185 183 213
          216 186 184 214 217 187
          184 214 217 187 185 215
          218 188 186 216 219 189
          187 217 220 190 187 217
          220 190 188 218 221 191
          189 219 222 192 190 220
          223 193 190 220 223 193
          191 221 224 194 192 222
          225 195 193 223 226 196
          193 223 226 196 194 224
          227 197 195 225 228 198
          196 226 229 199 196 226
          229 199 197 227 230 200
          198 228 231 201 199 229
          232 202 199 229 232 202
          200 230 233 203 201 231
          234 204 202 232 235 205
          202 232 235 205 203 233
          236 206 204 234 237 207
          205 235 238 208 205 235
          238 208 206 236 239 209
          210 240 243 213 211 241
          244 214 211 241 244 214
          212 242 245 215 213 243
          246 216 214 244 247 217
          214 244 247 217 215 245
          248 218 216 246 249 219
          217 247 250 220 217 247
          250 220 218 248 251 221
          219 249 252 222 220 250
          253 223 220 250 253 223
          221 251 254 224 222 252
          255 225 223 253 256 226
          223 253 256 226 224 254
          257 227 225 255 258 228
          226 256 259 229 226 256
          259 229 227 257 260 230
          228 258 261 231 229 259
          262 232 229 259 262 232
          230 260 263 233 231 261
          264 234 232 262 265 235
          232 262 265 235 233 263
          266 236 234 264 267 237
          235 265 268 238 235 265
          268 238 236 266 269 239
          246 270 273 249 247 271
          274 250 247 271 274 250
          248 272 275 251 249 273
          276 252 250 274 277 253
          250 274 277 253 251 275
          278 254 252 276 279 255
          253 277 280 256 253 277
          280 256 254 278 281 257
          255 279 282 258 256 280
          283 259 256 280 283 259
          257 281 284 260 258 282
          285 261 259 283 286 262
          259 283 286 262 260 284
          287 263 261 285 288 264
          262 286 289 265 262 286
          289 265 263 287 290 266
          264 288 291 267 265 289
          292 268 265 289 292 268
          266 290 293 269 294 295
          296 297 298 299 300 301
          298 299 300 301 302 303
          304 305 306 294 297 307
          308 298 301 309 308 298
          301 309 310 302 305 311
          312 306 313 314 315 308
          316 317 315 308 316 317
          318 310 319 320 321 322
          323 324 325 326 327 328
          325 326 327 328 329 330
          331 332 333 334 335 336
          337 338 339 340 337 338
          339 340 341 342 343 344
          345 346 347 348 349 350
          351 352 349 350 351 352
          353 354 355 356 357 358
          359 360 361 362 363 364
          361 362 363 364 365 366
          367 368 267 369 370 237
          268 371 372 238 268 371
          372 238 269 373 374 239
          375 347 376 322 377 351
          378 326 377 351 378 326
          379 355 380 330 381 382
          383 384 385 386 387 388
          385 386 387 388 389 390
          391 392 393 394 395 396
          397 398 399 400 397 398
          399 400 401 402 403 404
          323 322 405 406 327 326
          407 408 327 326 407 408
          331 330 409 410 411 412
          413 414 415 416 417 418
          415 416 417 418 419 420
          421 422 423 424 425 426
          427 428 429 430 427 428
          429 430 431 432 433 434
          435 436 437 438 439 440
          441 442 439 440 441 442
          443 444 445 446 447 358
          357 448 449 362 361 450
          449 362 361 450 451 366
          365 452 54 87 453 394
          56 88 454 398 56 88
          454 398 58 89 455 402
          456 457 295 294 458 459
          299 298 458 459 299 298
          460 461 303 302 457 462
          463 464 459 465 466 467
          459 465 466 467 461 468
          469 470 456 294 312 381
          458 298 315 385 458 298
          315 385 460 302 318 389
          471 472 473 474 475 476
          477 478 475 476 477 478
          479 480 481 482 483 395
          484 485 486 399 487 488
          486 399 487 488 489 403
          490 491 370 492 359 493
          372 494 363 495 372 494
          363 495 374 496 367 497
          237 370 493 207 238 372
          495 208 238 372 495 208
          239 374 497 209 336 335
          498 499 340 339 500 501
          340 339 500 501 344 343
          502 503 463 334 504 505
          466 338 506 507 466 338
          506 507 469 342 508 509
          510 511 512 513 514 515
          516 517 514 515 516 517
          518 519 520 521 522 523
          524 346 525 526 527 350
          525 526 527 350 528 529
          530 354 531 532 464 505
          533 534 467 507 533 534
          467 507 535 536 470 509
          537 147 177 538 539 148
          178 540 539 148 178 540
          541 149 179 542 523 543
          544 471 526 545 546 475
          526 545 546 475 529 547
          548 479 549 360 550 505
          551 364 552 507 551 364
          552 507 553 368 554 509
          555 313 556 557 558 316
          559 560 558 316 559 560
          561 319 562 563 564 565
          566 492 567 568 569 494
          567 568 569 494 570 571
          572 496 573 574 575 485
          576 577 578 488 576 577
          578 488 579 580 581 491
          582 574 511 510 583 577
          515 514 583 577 515 514
          584 580 519 518 87 117
          348 453 88 118 352 454
          88 118 352 454 89 119
          356 455 504 334 544 543
          506 338 546 545 506 338
          546 545 508 342 548 547
          585 586 587 588 589 590
          591 592 589 590 591 592
          593 594 595 596 574 597
          598 511 577 599 600 515
          577 599 600 515 580 601
          602 519 375 322 321 453
          377 326 325 454 377 326
          325 454 379 330 329 455
          557 556 603 604 560 559
          605 606 560 559 605 606
          563 562 607 608 425 609
          512 610 429 611 516 612
          429 611 516 612 433 613
          520 614 207 493 538 177
          208 495 540 178 208 495
          540 178 209 497 542 179
          615 473 616 426 617 477
          618 430 617 477 618 430
          619 481 620 434 297 414
          621 307 301 418 622 309
          301 418 622 309 305 422
          623 311 492 369 624 564
          494 371 625 567 494 371
          625 567 496 373 626 570
          627 333 336 628 629 337
          340 630 629 337 340 630
          631 341 344 632 360 633
          566 550 364 634 569 552
          364 634 569 552 368 635
          572 554 457 456 636 462
          459 458 637 465 459 458
          637 465 461 460 638 468
          357 360 549 543 361 364
          551 545 361 364 551 545
          365 368 553 547 295 464
          532 296 299 467 534 300
          299 467 534 300 303 470
          536 304 639 314 313 555
          640 317 316 558 640 317
          316 558 641 320 319 561
          471 474 524 523 475 478
          527 526 475 478 527 526
          479 482 530 529 426 610
          406 615 430 612 408 617
          430 612 408 617 434 614
          410 619 504 543 549 505
          506 545 551 507 506 545
          551 507 508 547 553 509
          566 565 642 550 569 568
          643 552 569 568 643 552
          572 571 644 554 610 512
          511 598 612 516 515 600
          612 516 515 600 614 520
          519 602 621 414 645 587
          622 418 646 591 622 418
          646 591 623 422 647 595
          405 474 615 406 407 478
          617 408 407 478 617 408
          409 482 619 410 381 384
          636 456 385 388 637 458
          385 388 637 458 389 392
          638 460 648 499 498 636
          649 501 500 637 649 501
          500 637 650 503 502 638
          616 651 423 426 618 652
          427 430 618 652 427 430
          620 653 431 434 324 597
          573 484 328 599 576 487
          328 599 576 487 332 601
          579 490 642 412 411 531
          643 416 415 533 643 416
          415 533 644 420 419 535
          538 358 447 537 540 362
          449 539 540 362 449 539
          542 366 451 541 524 376
          347 346 527 378 351 350
          527 378 351 350 530 380
          355 354 627 651 616 473
          629 652 618 477 629 652
          618 477 631 653 620 481
          405 322 376 474 407 326
          378 478 407 326 378 478
          409 330 380 482 306 307
          556 313 308 309 559 316
          308 309 559 316 310 311
          562 319 345 117 147 537
          349 118 148 539 349 118
          148 539 353 119 149 541
          414 297 296 411 418 301
          300 415 418 301 300 415
          422 305 304 419 621 586
          603 307 622 590 605 309
          622 590 605 309 623 594
          607 311 544 334 333 472
          546 338 337 476 546 338
          337 476 548 342 341 480
          348 347 375 453 352 351
          377 454 352 351 377 454
          356 355 379 455 531 505
          550 642 533 507 552 643
          533 507 552 643 535 509
          554 644 321 324 484 395
          325 328 487 399 325 328
          487 399 329 332 490 403
          598 597 323 406 600 599
          327 408 600 599 327 408
          602 601 331 410 447 448
          522 537 449 450 525 539
          449 450 525 539 451 452
          528 541 513 512 609 654
          517 516 611 655 517 516
          611 655 521 520 613 656
          604 603 586 585 606 605
          590 589 606 605 590 589
          608 607 594 593 463 462
          335 334 466 465 339 338
          466 465 339 338 469 468
          343 342 438 437 314 639
          442 441 317 640 442 441
          317 640 446 445 320 641
          436 383 382 437 440 387
          386 441 440 387 386 441
          444 391 390 445 393 657
          55 54 397 658 57 56
          397 658 57 56 401 659
          59 58 312 314 437 382
          315 317 441 386 315 317
          441 386 318 320 445 390
          346 345 537 522 350 349
          539 525 350 349 539 525
          354 353 541 528 498 335
          462 636 500 339 465 637
          500 339 465 637 502 343
          468 638 369 267 291 624
          371 268 292 625 371 268
          292 625 373 269 293 626
          358 538 493 359 362 540
          495 363 362 540 495 363
          366 542 497 367 394 453
          321 395 398 454 325 399
          398 454 325 399 402 455
          329 403 587 645 660 588
          591 646 661 592 591 646
          661 592 595 647 662 596
          448 543 523 522 450 545
          526 525 450 545 526 525
          452 547 529 528 472 333
          627 473 476 337 629 477
          476 337 629 477 480 341
          631 481 436 435 663 383
          440 439 664 387 440 439
          664 387 444 443 665 391
          411 296 532 531 415 300
          534 533 415 300 534 533
          419 304 536 535 609 425
          424 654 611 429 428 655
          611 429 428 655 613 433
          432 656 492 566 633 359
          494 569 634 363 494 569
          634 363 496 572 635 367
          393 394 54 397 398 56
          397 398 56 401 402 58
          413 414 645 417 418 646
          417 418 646 421 422 647
          628 627 651 630 629 652
          630 629 652 632 631 653
          117 348 345 118 352 349
          118 352 349 119 356 353
          565 642 412 568 643 416
          568 643 416 571 644 420
          457 295 464 459 299 467
          459 299 467 461 303 470
          463 464 505 466 467 507
          466 467 507 469 470 509
          499 336 628 501 340 630
          501 340 630 503 344 632
          384 636 648 388 637 649
          388 637 649 392 638 650
          492 369 370 494 371 372
          494 371 372 496 373 374
          473 474 615 477 478 617
          477 478 617 481 482 619
          381 382 312 385 386 315
          385 386 315 389 390 318
          471 472 544 475 476 546
          475 476 546 479 480 548
          582 574 575 583 577 578
          583 577 578 584 580 581
          312 306 294 315 308 298
          315 308 298 318 310 302
          524 376 474 527 378 478
          527 378 478 530 380 482
          396 393 657 400 397 658
          400 397 658 404 401 659
          483 395 396 486 399 400
          486 399 400 489 403 404
          357 448 543 361 450 545
          361 450 545 365 452 547
          485 573 484 488 576 487
          488 576 487 491 579 490
          621 586 587 622 590 591
          622 590 591 623 594 595
          324 597 323 328 599 327
          328 599 327 332 601 331
          603 307 556 605 309 559
          605 309 559 607 311 562
          610 425 426 612 429 430
          612 429 430 614 433 434
          360 633 359 364 634 363
          364 634 363 368 635 367
          598 610 406 600 612 408
          600 612 408 602 614 410
          574 597 573 577 599 576
          577 599 576 580 601 579
          672 276 273 666 673 277
          274 667 673 277 274 667
          674 278 275 668 675 672
          666 669 676 673 667 670
          676 673 667 670 677 674
          668 671 720 675 669 721
          722 676 670 723 722 676
          670 723 724 677 671 725
          678 279 276 672 679 280
          277 673 679 280 277 673
          680 281 278 674 726 678
          672 675 727 679 673 676
          727 679 673 676 728 680
          674 677 729 726 675 720
          730 727 676 722 730 727
          676 722 731 728 677 724
          681 282 279 678 682 283
          280 679 682 283 280 679
          683 284 281 680 732 681
          678 726 733 682 679 727
          733 682 679 727 734 683
          680 728 684 285 282 681
          685 286 283 682 685 286
          283 682 686 287 284 683
          735 684 681 732 736 685
          682 733 736 685 682 733
          737 686 683 734 687 288
          285 684 688 289 286 685
          688 289 286 685 689 290
          287 686 738 687 684 735
          739 688 685 736 739 688
          685 736 740 689 686 737
          690 291 288 687 691 292
          289 688 691 292 289 688
          692 293 290 689 741 690
          687 738 742 691 688 739
          742 691 688 739 743 692
          689 740 693 694 564 624
          695 696 567 625 695 696
          567 625 697 698 570 626
          699 700 701 702 703 704
          705 706 703 704 705 706
          707 708 709 710 702 701
          412 565 706 705 416 568
          706 705 416 568 710 709
          420 571 413 701 711 645
          417 705 712 646 417 705
          712 646 421 709 713 647
          690 741 744 714 691 742
          745 715 691 742 745 715
          692 743 746 716 714 699
          702 694 715 703 706 696
          715 703 706 696 716 707
          710 698 694 702 565 564
          696 706 568 567 696 706
          568 567 698 710 571 570
          747 717 748 749 750 718
          751 752 750 718 751 752
          753 719 754 755 699 744
          748 700 703 745 751 704
          703 745 751 704 707 746
          754 708 711 701 700 717
          712 705 704 718 712 705
          704 718 713 709 708 719
          714 694 693 690 715 696
          695 691 715 696 695 691
          716 698 697 692 291 690
          693 624 292 691 695 625
          292 691 695 625 293 692
          697 626 711 717 660 645
          712 718 661 646 712 718
          661 646 713 719 662 647
          714 699 744 715 703 745
          715 703 745 716 707 746
          748 700 717 751 704 718
          751 704 718 754 708 719
          413 701 412 417 705 416
          417 705 416 421 709 420
        </DataArray>
        <DataArray type="Int64" Name="offsets" format="ascii" RangeMin="8" RangeMax="3624">
          8 16 24 32 40 48
          56 64 72 80 88 96
          104 112 120 128 136 144
          152 160 168 176 184 192
          200 208 216 224 232 240
          248 256 264 272 280 288
          296 304 312 320 328 336
          344 352 360 368 376 384
          392 400 408 416 424 432
          440 448 456 464 472 480
          488 496 504 512 520 528
          536 544 552 560 568 576
          584 592 600 608 616 624
          632 640 648 656 664 672
          680 688 696 704 712 720
          728 736 744 752 760 768
          776 784 792 800 808 816
          824 832 840 848 856 864
          872 880 888 896 904 912
          920 928 936 944 952 960
          968 976 984 992 1000 1008
          1016 1024 1032 1040 1048 1056
          1064 1072 1080 1088 1096 1104
          1112 1120 1128 1136 1144 1152
          1160 1168 1176 1184 1192 1200
          1208 1216 1224 1232 1240 1248
          1256 1264 1272 1280 1288 1296
          1304 1312 1320 1328 1336 1344
          1352 1360 1368 1376 1384 1392
          1400 1408 1416 1424 1432 1440
          1448 1456 1464 1472 1480 1488
          1496 1504 1512 1520 1528 1536
          1544 1552 1560 1568 1576 1584
          1592 1600 1608 1616 1624 1632
          1640 1648 1656 1664 1672 1680
          1688 1696 1704 1712 1720 1728
          1736 1744 1752 1760 1768 1776
          1784 1792 1800 1808 1816 1824
          1832 1840 1848 1856 1864 1872
          1880 1888 1896 1904 1912 1920
          1928 1936 1944 1952 1960 1968
          1976 1984 1992 2000 2008 2016
          2024 2032 2040 2048 2056 2064
          2072 2080 2088 2096 2104 2112
          2120 2128 2136 2144 2152 2160
          2168 2176 2184 2192 2200 2208
          2216 2224 2232 2240 2248 2256
          2264 2272 2280 2288 2296 2304
          2312 2320 2328 2336 2344 2352
          2360 2368 2376 2384 2392 2400
          2408 2416 2424 2432 2440 2448
          2456 2464 2472 2480 2488 2496
          2504 2512 2520 2528 2536 2544
          2552 2560 2568 2576 2584 2592
          2600 2608 2616 2624 2632 2640
          2648 2656 2664 2672 2680 2688
          2696 2704 2712 2720 2728 2736
          2744 2752 2760 2768 2776 2784
          2792 2800 2808 2816 2824 2832
          2838 2844 2850 2856 2862 2868
          2874 2880 2886 2892 2898 2904
          2910 2916 2922 2928 2934 2940
          2946 2952 2958 2964 2970 2976
          2982 2988 2994 3000 3006 3012
          3018 3024 3030 3036 3042 3048
          3054 3060 3066 3072 3078 3084
          3090 3096 3102 3108 3114 3120
          3126 3132 3138 3144 3150 3156
          3164 3172 3180 3188 3196 3204
          3212 3220 3228 3236 3244 3252
          3260 3268 3276 3284 3292 3300
          3308 3316 3324 3332 3340 3348
          3356 3364 3372 3380 3388 3396
          3404 3412 3420 3428 3436 3444
          3452 3460 3468 3476 3484 3492
          3500 3508 3516 3524 3532 3540
          3548 3556 3564 3572 3580 3588
          3594 3600 3606 3612 3618 3624
        </DataArray>
        <DataArray type="UInt8" Name="types" format="ascii" RangeMin="12" RangeMax="13">
          12 12 12 12 12 12
          12 12 12 12 12 12
          12 12 12 12 12 12
          12 12 12 12 12 12
          12 12 12 12 12 12
          12 12 12 12 12 12
          12 12 12 12 12 12
          12 12 12 12 12 12
          12 12 12 12 12 12
          12 12 12 12 12 12
          12 12 12 12 12 12
          12 12 12 12 12 12
          12 12 12 12 12 12
          12 12 12 12 12 12
          12 12 12 12 12 12
          12 12 12 12 12 12
          12 12 12 12 12 12
          12 12 12 12 12 12
          12 12 12 12 12 12
          12 12 12 12 12 12
          12 12 12 12 12 12
          12 12 12 12 12 12
          12 12 12 12 12 12
          12 12 12 12 12 12
          12 12 12 12 12 12
          12 12 12 12 12 12
          12 12 12 12 12 12
          12 12 12 12 12 12
          12 12 12 12 12 12
          12 12 12 12 12 12
          12 12 12 12 12 12
          12 12 12 12 12 12
          12 12 12 12 12 12
          12 12 12 12 12 12
          12 12 12 12 12 12
          12 12 12 12 12 12
          12 12 12 12 12 12
          12 12 12 12 12 12
          12 12 12 12 12 12
          12 12 12 12 12 12
          12 12 12 12 12 12
          12 12 12 12 12 12
          12 12 12 12 12 12
          12 12 12 12 12 12
          12 12 12 12 12 12
          12 12 12 12 12 12
          12 12 12 12 12 12
          12 12 12 12 12 12
          12 12 12 12 12 12
          12 12 12 12 12 12
          12 12 12 12 12 12
          12 12 12 12 12 12
          12 12 12 12 12 12
          12 12 12 12 12 12
          12 12 12 12 12 12
          12 12 12 12 12 12
          12 12 12 12 12 12
          12 12 12 12 12 12
          12 12 12 12 12 12
          13 13 13 13 13 13
          13 13 13 13 13 13
          13 13 13 13 13 13
          13 13 13 13 13 13
          13 13 13 13 13 13
          13 13 13 13 13 13
          13 13 13 13 13 13
          13 13 13 13 13 13
          13 13 13 13 13 13
          12 12 12 12 12 12
          12 12 12 12 12 12
          12 12 12 12 12 12
          12 12 12 12 12 12
          12 12 12 12 12 12
          12 12 12 12 12 12
          12 12 12 12 12 12
          12 12 12 12 12 12
          12 12 12 12 12 12
          13 13 13 13 13 13
        </DataArray>
      </Cells>
    </Piece>
  </UnstructuredGrid>
</VTKFile>
