<?xml version="1.0"?>
<VTKFile type="UnstructuredGrid" version="0.1" byte_order="LittleEndian" header_type="UInt32" compressor="vtkZLibDataCompressor">
  <UnstructuredGrid>
    <Piece NumberOfPoints="819" NumberOfCells="454">
      <PointData>
        <DataArray type="Int32" Name="libmesh_node_id" format="ascii" RangeMin="2316" RangeMax="5735">
          2316 2317 2318 2319 2320 2321
          2322 2323 2324 2325 2326 2327
          2433 2434 2435 2436 2437 2438
          2439 2440 2441 2442 2443 2444
          2598 2599 2600 2601 2602 2603
          2643 2644 2645 2646 2647 2648
          2649 2650 2651 2709 2710 2711
          2712 2713 2714 2715 2716 2717
          2718 2719 2720 2766 2767 2768
          2769 2770 2771 2772 2773 2774
          2775 2776 2777 2808 2809 2810
          2811 2812 2813 2814 2815 2816
          2817 2818 2819 2852 2853 2856
          2857 2860 2861 2970 2971 2973
          2974 2976 2977 2991 2994 2995
          2998 2999 3002 3081 3082 3083
          3084 3085 3086 3087 3088 3089
          3090 3091 3092 3187 3190 3193
          3241 3243 3245 3270 3271 3272
          3312 3313 3314 3315 3316 3317
          3495 3496 3497 3498 3499 3500
          3501 3502 3503 3504 3505 3506
          3765 3766 3767 3768 3769 3770
          3852 3853 3854 4470 4471 4472
          4584 4585 4586 4587 4588 4589
          4635 4636 4637 4638 4639 4640
          4641 4642 4643 4644 4645 4646
          4659 4660 4661 4662 4663 4664
          4722 4723 4724 4782 4783 4784
          4791 4792 4793 4794 4795 4796
          4797 4798 4799 4812 4813 4814
          4815 4816 4817 4818 4819 4820
          4833 4834 4835 4836 4837 4838
          4848 4849 4850 4851 4852 4853
          4896 4897 4898 4899 4900 4901
          4911 4912 4913 4935 4936 4937
          4938 4939 4940 4944 4945 4946
          4947 4948 4949 4950 4951 4952
          4953 4954 4955 4956 4957 4958
          4992 4993 4994 5007 5008 5009
          5010 5011 5012 5013 5014 5015
          5016 5017 5018 5019 5020 5021
          5025 5026 5027 5028 5029 5030
          5040 5041 5042 5043 5044 5045
          5055 5056 5057 5073 5074 5075
          5079 5080 5081 5088 5089 5090
          5094 5095 5096 5103 5104 5105
          5151 5152 5153 5160 5161 5162
          5169 5170 5171 5178 5179 5180
          5187 5188 5189 5202 5203 5204
          5205 5206 5207 5208 5209 5210
          5211 5212 5213 5214 5215 5216
          5217 5218 5219 5220 5221 5222
          5223 5224 5225 5226 5227 5228
          5229 5230 5231 5232 5233 5234
          5235 5236 5237 5238 5239 5240
          5241 5242 5243 5244 5245 5246
          5247 5248 5249 5253 5254 5255
          5256 5257 5258 5259 5260 5261
          5262 5263 5264 5265 5266 5267
          5268 5269 5270 5271 5272 5273
          5274 5275 5276 5280 5281 5282
          5283 5284 5285 5286 5287 5288
          5289 5290 5291 5292 5293 5294
          5295 5296 5297 5298 5299 5300
          5301 5302 5303 5307 5308 5309
          5310 5311 5312 5313 5314 5315
          5316 5317 5318 5319 5320 5321
          5322 5323 5324 5325 5326 5327
          5328 5329 5330 5334 5335 5336
          5337 5338 5339 5340 5341 5342
          5343 5344 5345 5346 5347 5348
          5349 5350 5351 5352 5353 5354
          5355 5356 5357 5358 5359 5360
          5361 5362 5363 5364 5365 5366
          5367 5368 5369 5370 5371 5372
          5373 5374 5375 5376 5377 5378
          5379 5380 5381 5382 5383 5384
          5385 5386 5387 5388 5389 5390
          5391 5392 5393 5394 5395 5396
          5397 5398 5399 5400 5401 5402
          5403 5404 5405 5406 5407 5408
          5409 5410 5411 5412 5413 5414
          5415 5416 5417 5418 5419 5420
          5421 5422 5423 5424 5425 5426
          5427 5428 5429 5430 5431 5432
          5433 5434 5435 5436 5437 5438
          5439 5440 5441 5442 5443 5444
          5445 5446 5447 5448 5449 5450
          5451 5452 5453 5454 5455 5456
          5457 5458 5459 5460 5461 5462
          5463 5464 5465 5466 5467 5468
          5469 5470 5471 5472 5473 5474
          5475 5476 5477 5478 5479 5480
          5481 5482 5483 5484 5485 5486
          5487 5488 5489 5490 5491 5492
          5493 5494 5495 5496 5497 5498
          5499 5500 5501 5502 5503 5504
          5505 5506 5507 5508 5509 5510
          5511 5512 5513 5514 5515 5516
          5517 5518 5519 5520 5521 5522
          5523 5524 5525 5526 5527 5528
          5529 5530 5531 5532 5533 5534
          5535 5536 5537 5538 5539 5540
          5541 5542 5543 5544 5545 5546
          5547 5548 5549 5550 5551 5552
          5553 5554 5555 5556 5557 5558
          5559 5560 5561 5562 5563 5564
          5565 5566 5567 5568 5569 5570
          5571 5572 5573 5574 5575 5576
          5577 5578 5579 5580 5581 5582
          5583 5584 5585 5586 5587 5588
          5589 5590 5591 5592 5593 5594
          5595 5596 5597 5598 5599 5600
          5601 5602 5603 5604 5605 5606
          5607 5608 5609 5610 5611 5612
          5613 5614 5615 5616 5617 5618
          5619 5620 5621 5622 5623 5624
          5625 5626 5627 5628 5629 5630
          5631 5632 5633 5634 5635 5636
          5637 5638 5639 5640 5641 5642
          5643 5644 5645 5646 5647 5648
          5649 5650 5651 5652 5653 5654
          5655 5656 5657 5658 5659 5660
          5661 5662 5663 5664 5665 5666
          5667 5668 5669 5670 5671 5672
          5673 5674 5675 5676 5677 5678
          5679 5680 5681 5682 5683 5684
          5685 5686 5687 5688 5689 5690
          5691 5692 5693 5694 5695 5696
          5697 5698 5699 5700 5701 5702
          5703 5704 5705 5706 5707 5708
          5709 5710 5711 5712 5713 5714
          5715 5716 5717 5718 5719 5720
          5721 5722 5723 5724 5725 5726
          5727 5728 5729 5730 5731 5732
          5733 5734 5735
        </DataArray>
        <DataArray type="Float64" Name="resid_x" format="ascii" RangeMin="-0.053893165370269" RangeMax="67.96614810896969">
          0.00017248102180289493 0.0011385473750671338 0.0006069792145426689 0.0007345096535829043 0.0002763480130507645 0.0012167109658509645
          -0.00006895262476369624 -0.0006978875345016178 -0.011558351290368307 -0.01522889229156732 -0.011507580264940032 -0.016390047373892713
          -0.0006025065698302967 0.00004053197466724612 0.0020266777864161867 0.002221223897614255 -0.002112921536674861 -0.0008345076977125387
          -0.0009090412860501829 -0.0013460354096754834 -0.012907347585669804 -0.014258578323197213 -0.022260788445002788 -0.023053897133021195
          -0.01662812871435726 -0.012214500200500633 -0.0012813354102299002 -0.0016230240827745934 -0.01717827777515879 -0.018044262010130208
          -0.0019735344593989623 -0.0028205105664973473 -0.014660698077417322 0.00010019606035882589 -0.002659458159637751 -0.0008089151052281807
          -0.015421905342179798 -0.014452616667325557 -0.01612081692181988 0.0000030494142829184945 0.0003362482666080524 0.0008655291458161685
          0.000726820464276301 -0.0011346292452981688 -0.0011138113178930098 -0.0014573691504153885 -0.0018898260084085905 -0.00998242110148273
          -0.0060922862914543074 -0.010636503674808395 -0.014525345219359664 0.0002820114114836514 0.0011489540347726646 -0.0031492327152884414
          -0.005070101474894173 -0.0007818585679624235 -0.0012118438869324066 -0.0026977618556385252 -0.002721282847407025 -0.007128517070425389
          -0.007896327365937594 -0.00890397606606097 -0.01397026001796231 -0.010516514920114517 -0.0051781019809631346 -0.010669986391104835
          -0.005244699475932535 -0.0031914599511093655 -0.0021478029166042134 -0.01460845804665567 -0.011139459912259397 -0.015823560539533155
          -0.012360086504848766 -0.0001957733623960678 -0.0067144837729742335 -0.017721555507360875 -0.014843616834131268 -0.014733462350335458
          -0.01298600986805809 -0.00943151019579247 -0.008759909537502608 -0.012770018876711475 -0.008942650376122074 0.0002906110139768714
          -0.012350280377958711 -0.004633424699759914 -0.0030329286049006754 -0.005759093349093192 -0.0023738537424620176 -0.007643547935543893
          -0.004750649113516303 -0.004990778286437347 -0.0022585134743700053 -0.005748584621002806 -0.0000184491037522605 0.00028214985789531966
          -0.005551463444943838 -0.002313003844095718 -0.0004323713214229308 -0.00022272040749893307 -0.001986683554420443 -0.007667151121898641
          -0.0047575401480685064 -0.009860055832427328 -0.01360537736341172 -0.016902811328694867 -0.02006794951852875 -0.009620051976515498
          -0.004176392243690152 -0.00937906904524155 -0.0033080591413421345 -0.011143306800928343 -0.013851344750463568 -0.005677391093667161
          -0.011172659001873697 -0.0024193447517610878 -0.003150443161533234 -0.00029435794735022114 -0.014950662620484945 -0.009081297730256566
          -0.008826205269564014 0.0007113386321684345 0.0009093823290973191 -0.007051842204756298 -0.019625190885186328 0.0014550379516480305
          0.0014353706981129477 -0.018437387876282685 -0.012546922996611087 -0.0036561430854096244 -0.002978227721300186 -0.012506642547169378
          -0.011274581838067732 -0.010107967950569563 -0.0025995658102466734 -0.0024368195530902748 -0.012537432922261615 -0.01363048727248728
          -0.006111634749606409 -0.010772945281063429 -0.0054464802908720245 -0.006269562156250075 -0.0022512239297522996 -0.007950557829989435
          -0.005064025053629351 -0.004327616323806183 -0.007958017012050789 -0.008011789185282225 -0.00198859787629857 -0.0026176134629238845
          -0.00609287894154753 -0.0058930652311417475 -0.002423371076081704 -0.002855717166670324 -0.006339528152122131 -0.007395472497970346
          -0.007251659035983238 -0.00701226272138733 -0.002736342101043121 -0.003328443786114299 -0.008018742513046462 -0.0065321589353910525
          -0.0027271084484130625 -0.0011386128792736372 -0.002060266901533936 -0.01212528366445742 -0.0042818127729011835 -0.006413811813806625
          -0.00771708393943582 -0.002606749691197452 -0.0045723409811639915 -0.013545311161139661 -0.0022977496739442493 -0.007071181127372483
          -0.008103662395040345 -0.006963507954957038 -0.005005480458208922 0.00637108188855251 -0.003139912030640346 0.021140591859868607
          -0.0078806334833601 0.010598362828544872 0.009144917361517457 -0.013327414693243611 -0.0010657986220277138 -0.011142545679076576
          -0.011864078955168722 -0.006267466883656869 -0.00018675093628495176 -0.0019085333393982218 -0.007651136654738266 -0.00827290076335263
          -0.008464880763705551 -0.0044869411535097825 -0.002085621347724498 -0.0015936667440064056 -0.008800487926157174 -0.006073134416166859
          -0.010943815545450875 -0.005856737752015562 -0.0004573494184132443 -0.00009939922981683225 -0.009231803226128932 -0.005928763797050429
          -0.00818899890669833 -0.003253420686263553 -0.0037730130442135135 -0.007100398700883304 -0.014892695452910942 0.00034584121387126743
          -0.012384759175883886 -0.012647878512588306 -0.007118135943223081 -0.0071820962316442305 -0.0034142278675624027 -0.001848402590982623
          -0.0012982250226807324 -0.004584173571527295 -0.0014135355762716628 0.0076348209475050055 0.009818052897742291 -0.0022187648187834697
          0.019152325607436183 -0.009632659376277886 0.012111474434638225 -0.004375294428723642 -0.007003173623723491 0.00017562702069540137
          -0.0013316698610665867 -0.002581932320933511 -0.005620655224098492 -0.006775487875843922 -0.006157270884419752 -0.010881205623113566
          0.004263162569716705 0.01495341083363666 0.00720862965358382 -0.014744348278261654 -0.010146722956589471 -0.0008122990745818015
          -0.0013632673690784358 -0.006536439259358318 -0.009187906544589453 -0.0055896814978151355 -0.003442940452689669 -0.00017138220548318372
          -0.002290809387835324 -0.0069834370908328225 -0.005536662259366665 0.002794942463062 0.01576013846043267 0.006007484062254598
          -0.001350887339146567 0.006902338753572046 -0.007567573000203609 -0.012164083319350816 -0.004295008309778581 -0.006928686092840586
          0.005016573326748208 0.006119772850419203 0.013828133885988692 0.014407958544052413 0.003749684088796279 0.004035930533292209
          0.0036525092966890327 0.014920651149838982 0.005459063536974007 0.0033633174130587307 0.013649951963381923 0.00381845217396215
          -0.017844582900353956 -0.004008351187868797 -0.00934638557509615 0.003335149924391878 0.0140295854456145 0.005111119800455199
          0.0040442910321596415 0.01549160141275241 0.004694829913878706 0.008545664823218502 0.030132385513470084 0.008172168758145304
          -0.00989827714660052 -0.006081571612106984 0.0039490358824991745 -0.011553278751225804 -0.00506425518890552 0.0011015819370605584
          -0.011343553064698142 -0.007059441197320382 -0.0044494212756411855 -0.014208130628642124 -0.010789057785210332 -0.010391144959051246
          0.010782317711367284 0.0400619264947224 0.01782181320561449 -0.0004548987062804599 -0.00032352214561548465 0.0007750820772258749
          -0.00011760937989890863 0.0020167235507173586 0.0006047841027818635 0.0001592903345244423 -0.000018747993195233903 0.0003177357656767299
          0.000034025958234096265 0.002027025777000091 0.0010551142862809115 0.0015210237094045453 0.0005917045010885857 0.0005132287885771802
          0.0001538053876881662 0.0028234557316224596 0.001556445093966019 0.001609094281533885 0.0007611287083637563 0.00033748724717597156
          0.00003960533552316292 0.002422316349118603 0.0011791650429060496 0.001511974656247972 0.0008208838525582962 0.00036933367120717264
          0.00009736401451476695 0.0021997888305893554 0.0010335095029621044 0.001186576011134477 0.0005711447124809865 0.0003926393230848646
          0.00009910939708746014 0.0018943487526996705 0.000896075215433001 0.000999414124855491 0.0005017231428219304 0.00041793024274383583
          0.00013259029979195702 0.001625889845922046 0.0007748757868704104 0.0008240886992574303 0.0004046586678967401 0.0004010231103208639
          0.00016075068816334692 0.001409843457178539 0.000684080496643702 0.0009927506039133505 0.0016502302211520714 0.002643611393352785
          0.0005220547431807887 0.00032876943400950154 0.0025860094251282106 0.0018470744090546276 0.00033971730113435683 0.003115057007223143
          0.0018904701045201477 0.0004010234501450327 0.0025466914434488785 0.001591285575637258 0.0004566709893705223 0.002293513811503445
          0.0013471841131504902 0.00044022944554278354 0.0019929048561593277 0.0011512400742752504 0.000509785314154243 0.0017396921304424495
          0.0009579775354140452 0.00044948962389312896 0.001529455686391401 0.0016028106452026236 0.0020305537501528192 0.0028334853865246146
          0.0007024995327675754 0.0006709133784550403 0.0027274513471038375 0.0018954858865800617 0.0007253560050592966 0.002884124768899099
          0.001763733163908654 0.0006965726896002167 0.002462226618103358 0.00142544872164585 0.0006658570268562869 0.0022523263266318594
          0.0013136113479479405 0.0006724690760115948 0.0019922582645470754 0.001080696365727718 0.0007039626368143814 0.0018415177889075096
          0.0009535509560016919 0.0005678133720188328 0.0016964871515874336 0.0018089451462515171 0.0027699802691216746 0.003252988316887695
          0.0007033317564459907 0.0009979570471720933 0.0030556171365336837 0.0015766159295012017 0.0013073400575578376 0.0032187722582133205
          0.0017498272628717615 0.0010045694017222218 0.00247436389156519 0.0013029063451135414 0.000929520066152989 0.002322406451263248
          0.0012813207634820856 0.0008688901570650387 0.0021041606703704474 0.0011058127147851593 0.0008769833229376189 0.0019954733855431783
          0.0009636874346661273 0.000682193834247613 0.0018513983593173577 -0.03258817521791357 -0.053893165370269 -0.012957220664159053
          0.001102365255365001 0.0015486781060705113 0.0032713712769574244 0.0014198311906579164 0.0013761685993038952 0.003670157814950059
          0.0014909179629771785 0.0014353435824663308 0.0028825816409643323 0.0011399658092479115 0.0012763577889298716 0.0025486595612278506
          0.0012027303674582157 0.001090930279488589 0.0023678910846012258 0.001253326656698306 0.0010010631525965152 0.002160269870042697
          0.0010441733143338183 0.0007484523826697398 0.0018868471991950742 0.02644901497713903 0.04999855541225884 0.03212621549300643
          -0.02801974910391536 -0.05264921100806674 -0.01575121759307052 0.0013858767306587083 0.0019881321894352766 0.004241417171622075
          0.0015721055107356108 0.0022315635839582626 0.003329910651673984 0.001436942672235375 0.0018872491923627166 0.003198698646853515
          0.0011932134209757805 0.0016812784436570638 0.002789891840240699 0.0011089549854670366 0.001320611200101851 0.0026429933825582452
          0.0013286269748835622 0.001022338804618883 0.0022506611320523007 0.0010261533583442173 0.0006814058402717649 0.0018062205434699052
          0.0010675602272343099 0.001298187833015163 0.010922531489818255 0.0009535402105740332 0.001638891916265095 0.011774014344572592
          -0.0007046121033766894 -0.0022625503194610985 0.005945384578824431 0.0017693255356103776 0.0027093426665665277 0.0038743047639737682
          0.0017451770899565844 0.0025562719980882775 0.0031824460109106667 0.0013753183374429767 0.002271596921813668 0.00324175240540292
          0.0011020079096493163 0.0016251446748203335 0.002976048804571363 0.0011359891218116758 0.0008589266966296805 0.0022217427846769056
          0.0007738494085884895 0.0002768774242145611 0.0016258507829665092 -0.0006042075845869022 -0.0019160823348087774 0.008770671294868748
          0.013518212832229537 0.026816292479175274 0.026513373542568885 -0.011578878456033337 -0.023472906977044516 0.00026140351531189765
          0.0016250067983527572 0.002313044230556116 0.006295247024555195 0.0021972111332040356 0.0034588529348091868 0.0037081538521412938
          0.001961872529928854 0.003422482905405033 0.003914319949442913 0.0015152620642790993 0.0024530595693139645 0.0037920518090786004
          0.0007937461147120572 0.0005061446644818446 0.0021165037111288143 0.00012798303536776245 -0.0009062155776593528 0.000870134113636567
          0.008055955355427358 0.01705005831596651 0.013406666106197562 0.00414791289435712 0.008844243896795945 0.012446271407732468
          -0.006047743232702629 -0.01201225597718647 0.0016050200509791779 -0.008327461404084247 -0.01642176911938087 -0.0039764803023008
          -0.008711821485626103 -0.01780436078541392 -0.007496179810683401 -0.007763044572755007 -0.015971626864986987 -0.006666139603858312
          -0.006206907805472284 -0.012749606976733219 -0.004704963669482254 -0.003969632459472017 -0.00849516496635161 -0.0031809183233848515
          -0.0020266942565134727 -0.004633045062869101 -0.001783315340148306 0.00036278386857446776 0.0007019460963455515 0.00013315297669436177
          0.00031939189912577604 0.0005762553669264037 0.0012289148977764341 0.0008296090101787001 0.0003408428716404899 0.0013421646473155135
          0.0009666135875150417 0.00047549344552777484 0.0014589476242647947 0.0010310127056776253 0.0005674804052162585 0.001545605380513848
          0.0009904660315456226 0.0006063002411309526 0.0015273481278867962 0.000841461828880341 0.0005235639231351286 0.0014329215194042177
          0.000579429495086714 0.00019230949155257804 0.0012292318254836232 -0.00004645912125411655 -0.0008586236937890845 0.0005147560881937352
          -0.000907059792652376 -0.002167907273411096 -0.0009907587892721281 0.00036756951249117265 0.0007383637155982115 0.00014568464020925376
          0.00031986135294914675 0.0005355725210449691 0.0011504752581110722 0.0008263074602439247 0.00035160500437214637 0.0012620000971530487
          0.0009278128667986607 0.0004440639031635385 0.00127517088094109 0.000976976954078168 0.0005182200351470101 0.0012457701187571502
          0.0009092458941015735 0.0005491040894796129 0.0011661587257023598 0.0007592390276212058 0.0004756930960816419 0.0010551722966472
          0.000579101817276495 0.00018310974767565824 0.0007823145290331013 0.00008148243118988319 -0.0007598067800032027 -0.000093490976926347
          -0.0005514198607823317 -0.001569741942072156 -0.0010581243583640543 0.00035551218412521735 0.0007203027314588439 0.0001391149452274476
          0.0003054868341472172 0.0004138199483989524 0.0009870520693873175 0.0008000414438669168 0.00033938707208847063 0.0011456068761148686
          0.0008413098053310364 0.0004201646110253421 0.0010808166381153228 0.0008159899539066373 0.0004866594784971312 0.0009544153681027012
          0.0007479312801255134 0.0005142537204463338 0.0008929133452149074 0.0006841184742309991 0.00044068327587076794 0.0008549470964478445
          0.0005784375924449137 0.00011695048881854575 0.0006299697480294242 0.0001691112387529614 -0.0007042400084564804 -0.0000625694241325192
          -0.00026345465498245346 -0.0011054639391900878 -0.0006655179273593603 0.0002621389656098927 0.0006164604371541316 0.00012579472927498614
          0.0002791918961833062 0.00031677096343329936 0.000813181621747816 0.0007534089329013227 0.00031632138026438383 0.0009667506520081304
          0.0007235124170748009 0.00038206708942922774 0.0008701289308739035 0.0006096003909910053 0.00044002953918820253 0.0006866850391098467
          0.0005612414047142522 0.00045870906689415847 0.0006131739740240505 0.0005863294675307884 0.00036449033640906237 0.0006047268902236169
          0.0005316710144587233 0.000026739898588701294 0.00045156694831405275 0.00025151654998900597 -0.0006350055511763486 0.00007541536511546099
          -0.00000576634431048717 -0.0007615556443365534 -0.00029936008695763405 0.0001676830095007631 0.0004767520228838862 0.00010679182867434633
          0.00024013177489123905 0.00029477250171439096 0.0006877117374344266 0.0006507427321942316 0.0002737241365871057 0.0007367635599173639
          0.0005955788479639068 0.00032935951242052397 0.0006128223283958789 0.0004302204970816348 0.0003761522186511712 0.0004160005882045681
          0.00038028940182321946 0.0003807422691117779 0.0003147704925190453 0.00044239639133181186 0.0002736991343752493 0.00033273990134752296
          0.0004586089594234011 -0.00003599408408305749 0.0003205367007357296 0.000410327944679878 -0.0005336316310096123 0.00024523614537841354
          0.0002730427907469135 -0.0005119203699042174 -9.470392736687927e-7 0.00014999315406427627 0.0003828294686698541 0.00008417583276454366
          0.0001898286951877992 0.0002809069590945512 0.0005845547689595776 0.0004841641398201091 0.0002126563937672188 0.000530220023602368
          0.00041532412544853514 0.00026074814652332634 0.0003483295447388457 0.00024380000672330482 0.00029502591594265937 0.00013476376530441314
          0.00017092451045108703 0.000288419252106209 0.000016986785034589502 0.0002574811557458645 0.0001858705467085997 0.00007635982749398806
          0.00039270913748801206 -0.00006835422668771685 0.00019697708935240144 0.0005671582265662778 -0.00041720438676939864 0.0002854816917388092
          0.00047684570892769784 -0.0003366266370257165 0.0001189872354725452 0.000169046593754274 0.0003474775549072717 0.00005794603799813558
          0.00013182507110087727 0.00020339410691150306 0.00041555309813290364 0.0003319389032050424 0.00014422204729314103 0.00034765573014183815
          0.00020224783436262328 0.00018124674585706657 0.00016608070854573498 0.000015854854265029417 0.00020287351177650237 -0.000021417241839571943
          -0.00007356751154041774 0.00019154775277030467 -0.0001219994507497546 0.000050162926317653955 0.00011026061387120478 -0.00005356848443227591
          0.0003068320516632639 -0.00007213887449708523 0.00008990423542165615 0.0005915735496575536 -0.00029102544558945453 0.00018537007249008752
          0.0004993521282550262 -0.00020818761645280404 0.00008592978960919595 0.0001454637893907318 0.0002816273617582965 0.000028032564369340207
          0.0000675677415316045 0.00006709597896659147 0.00014730278430263866 0.00021320390434809156 0.00007420412896763651 0.00013589863094054522
          0.00004973845106803765 0.00009668168041443437 0.00007512057456438015 -0.0001293142579594786 0.00010713501204051568 0.000011546341781354386
          -0.00020829497018759469 0.00009696853729579402 -0.00002854399303231503 -0.00007541935118915433 0.00004931105513072964 -0.00001928437167819652
          0.0002032009139583124 -0.000049954354542691704 -0.0000029735018376442213 0.0004584771641535923 -0.00015353352741342974 -0.000008527314754758208
          0.000357069734196358 -0.00010246046681139376 -0.00002502062589826437 17.08889493523835 33.98294185806074 34.17792127022432
          67.96614810896969 17.09075851430435 33.98663762634261 33.39378556114609 66.78785029670587 33.39735558976569
          32.400627334980484 64.80156795057681 32.403887068206714 31.002980992100646 62.0062751992127 31.00557708577835
          29.238342223534666 58.47689951911142 29.2396785077431 27.2292437216423 54.45843460609768 27.228432979439013
          25.24087638341068 50.48128841105901 25.236926070740523 23.710052273789927 47.419131455997785 23.70219768350291
          11.567029591876105 23.133290142592777 11.561656239850196
        </DataArray>
        <DataArray type="Float64" Name="resid_y" format="ascii" RangeMin="-6.931228259191542" RangeMax="5.555729445312325">
          0.00004693401907651662 0.0007867720260088529 0.0008338997555196459 0.0025289313017006487 -0.00013333846692650808 0.00032797990238232766
          0.0005997719901809986 0.0005412761913064917 -0.012448139513896006 -0.01757676727106748 -0.011629050955792843 -0.018544867615259857
          -0.00010106662049422753 0.000748709514194465 0.000748213517735935 0.0008716954132580584 -0.0008988803699853144 -0.0004676651655858479
          0.0013830734761465513 -0.0008067518066251222 -0.007330093426458559 -0.009058560692508178 -0.008908842281884904 -0.012433372457053962
          -0.01211016949725427 -0.010802271217157405 -0.0011562458938085343 0.000336044499503238 -0.00902663247587173 -0.013057314554671642
          -0.004459918843936428 0.0007180532012933116 -0.006521687266334286 0.00033169526822890427 0.0014366667307958991 0.001115776432527471
          -0.009974154857871342 -0.00844465386642057 -0.00957475192162921 -0.00006792675784376978 0.0005151012312555256 0.0008379461643118549
          0.0008527306854704403 -0.000684898666165043 0.00093871036749342 0.0012763391808701327 -0.002020592960386005 -0.006866316090891184
          -0.002736683216527744 -0.006554592203017656 -0.010617126163401526 0.00005951609928493695 0.00008104029091568488 -0.004553820623042527
          -0.006125120772530447 0.00042445603987295577 0.0005314542853029278 -0.005625889361776611 -0.0042232786139615565 -0.0027712707026105662
          -0.002617036476883411 -0.007617161619145274 -0.009839618351783385 -0.0017414940272193619 -0.00217543779586557 -0.007972483973362268
          -0.001947224793165593 -0.0019442636507203126 -0.0010387588060093988 -0.008704149578924236 -0.011168379136712203 -0.010762230998389827
          -0.008994885759658844 -0.0008689743895690105 -0.01171423009285058 -0.017039227472295776 -0.017886364564975027 -0.016004233362710674
          -0.01787295678562728 -0.00988187179375516 -0.01346075628160509 -0.007488738764352104 -0.007600373861053611 -0.0021135419319251447
          -0.006392633457538877 -0.008490582904847388 -0.00561650898057553 -0.003644906267573994 0.0007129212281792342 0.00037917434542550366
          0.0018714840747566033 -0.0003243908731700301 0.00003375831107594457 -0.003522466127939626 0.00044993793010358885 0.000295632603356355
          -0.005829913149462546 -0.0013969263355718894 0.0002668509553230853 0.00026088285658404375 -0.002226892775640456 -0.0051809725777573305
          -0.0037250122215832186 -0.004914369982742375 -0.008858511202382804 -0.00965830958494307 -0.011036057481808026 -0.008247312613007374
          -0.003790040820436983 -0.008650961461956801 -0.005607955969841613 -0.013611103265121105 -0.01272013107308334 -0.008056219715988466
          -0.008470664014344362 -0.0013447867016339182 -0.001491380897273055 -0.000420011218203023 -0.008043905653394239 -0.006035561448719154
          -0.0017817826237479795 -0.0004076406353180073 0.00022536984210863586 -0.0015133088402592698 -0.004720244865035694 -0.0013347219415077993
          -0.0008248813171573555 -0.0033857066442534722 -0.00711884154068268 -0.006985529137382707 -0.005140711321646341 -0.006363128769900167
          -0.0019630189019050615 -0.0002754361879147432 0.0005944710571392994 0.000362650741663223 -0.00929316567667024 -0.011701317455779098
          -0.002200767133137693 -0.006956680094231607 -0.005896205798999514 -0.003468615553998862 -0.0011308480057050652 -0.005202597664640755
          -0.0002730692901752457 -0.0010530748939925338 -0.0003247415970845935 -0.0009710380884628278 -0.001988616220243558 -0.0010660831510510699
          -0.004552654385838625 -0.0015608232454224769 -0.0019480927224721258 0.0001781352217822725 -0.004447232518202022 -0.0037202561341607918
          -0.0016313582966995255 -0.0022447462387486655 -0.0006858725775207297 -0.0020441558867002885 -0.005703718595730739 -0.005238149025692473
          0.0008208494953273679 0.0005542942548499852 -0.00342588692813868 -0.01213423548577272 -0.017711802129585508 -0.014441740665051772
          -0.004189229011541902 -0.0034311577529321444 -0.006325875249775542 -0.0021551091746030288 0.0005182476227180433 -0.00577740155534133
          -0.002013075075340813 -0.0012153764214612311 -0.00301760554178427 0.0024803117904799027 -0.007665964807277714 -0.009085900746471115
          -0.013051467442344866 -0.00048076228812737876 -0.004397951464516839 -0.006211245685790699 -0.0018589231700869777 -0.0074257535702291835
          -0.004186020514889942 0.0005341232939627405 -0.0003644153644489674 0.002944895353109739 -0.005968714671257615 -0.0036305933641255297
          -0.010551996646483514 -0.007058748427793832 -0.003042904767528651 -0.0015279972043129864 -0.005715953497149734 -0.0049454988611644934
          -0.005763208305233414 -0.002249224084258806 -0.0015364312008563988 -0.0006713260434697815 -0.008618666707514176 -0.005916911294669562
          -0.005119005748959432 -0.0003994649391363958 -0.003131686080431628 -0.01440091911554063 -0.0013631403885480953 0.0006094335325312131
          -0.007628337430978738 -0.0035463109104148793 -0.0053671054886041125 -0.0016883363638627788 -0.0007441000603414447 0.0016084576730597336
          0.0018299186331512188 -0.0032071007917392064 -0.0004826391304745131 -0.0010231534707556694 0.0011915897597375505 -0.0023041545257387747
          0.0010204391832134146 -0.000477198366664322 -0.001184182702698565 -0.0012074456649765267 -0.002353472022155134 -0.0013078524004772052
          0.001830832127448244 0.00007847508091915478 0.000995641499744418 -0.0015912807743742319 -0.003362387930219264 -0.00014344582060204364
          -0.003098902454449909 -0.000902126452394604 -0.0018882619974579934 -0.0041654129970906395 -0.006619530899331996 -0.00041102863945319257
          -0.0005406749094176155 -0.005185464231988526 -0.004069696001196124 -0.005623554420095406 -0.004634268672489117 -0.0014940364000647754
          -0.0015819876068744465 -0.008844896740633424 -0.007371658873625453 -0.003945677105332515 -0.0008662791046195398 -0.0014921905684332007
          -0.00010705329572489874 0.002905823376070177 -0.0009491292885290964 -0.004224511833097064 -0.0010134099463752003 -0.0036316560564625365
          -0.004731266260989568 -0.004374028600240963 -0.0019658236144161484 -0.0024856415499566603 -0.002623203470242405 -0.0026912480918820925
          -0.0041736870115382865 -0.0021744812917486173 -0.0029484870862238333 -0.005408430364949347 -0.0011471328468968395 -0.003112281694366205
          -0.008701559873148176 -0.0029310575487980772 -0.005551310657384373 -0.005833518024058574 -0.0006812860886096072 -0.0021291663204938416
          -0.005861992577636831 0.0007423095825281542 -0.0022791694026006552 -0.010289870773284027 -0.0006246158862114048 -0.007755776154000832
          -0.005254779329134984 -0.005762572499991903 -0.008554865152417324 -0.005269962678602524 -0.002951602008742338 -0.008249321175268443
          -0.008016160969093578 -0.0019528831088377885 -0.010620819460227193 -0.010120531604190963 -0.002947914838257293 -0.014157207791627963
          -0.01292694255202953 -0.000840650327233905 -0.004500434736774889 -0.00030619931641728826 -3.4652645115340652 -0.0005002838759988748
          -6.931228259191542 -0.0008130075871874975 -3.4751149921719726 0.00004072948277644706 -2.960886314542682 0.00008153266137034265
          -5.9221333775752605 -0.0004458329352572399 -2.9705259306793628 0.00016573367371286452 -2.2221603804665007 0.000032013791491758425
          -4.444724072376056 -0.00022528338402616477 -2.2302857506304656 0.00022601820751788626 -1.3449767233663534 0.00010348179294372706
          -2.6901822706616922 -0.00001371371032055091 -1.3511009379181018 0.0002067167421542504 -0.4160103409746362 0.00009771547307002582
          -0.8321041146459893 0.00022728759649126573 -0.41939697455554625 0.0002575401141657052 0.4937590406191911 0.00006130637837664654
          0.9875016539968151 0.00026859519931274334 0.493659911964232 0.00015925549542017414 1.3315091105499164 0.00004175166652764517
          2.6631193103860027 0.0002413481217516944 1.3348998331656392 0.0001844343119740688 1.7023289540207984 0.00004434636325900687
          3.404761121613884 0.000050271781159738627 1.70732409249475 0.000011514369018916781 -0.0005417683029378395 -0.0011499445349034687
          -0.00033655047987624087 0.0002807131328774748 -0.0007737095126294502 -0.00013089686051381832 0.00020178939497128567 -0.00010985611474900736
          0.00023695996510975093 0.00006682149699654971 0.00019823395587525994 0.00046952745815903585 0.0000691012060419216 0.00042125853328883744
          0.0004526487327379397 0.0000633104155303571 0.0005991456620719135 0.00043551555118481744 0.00005846330480058226 0.0004336335073604203
          0.0003451276822587501 0.000064311651451876 0.00012575543425741298 -0.001040634316310296 -0.0002910900700570096 -0.0008809493611248165
          -0.0005298602884251657 0.0002733641982246571 -0.0007112871385712705 -0.00009321406102391627 0.0003305730929179518 -0.00006675213154938575
          0.00037139935347729747 0.00026796427007258483 0.000566825571395646 0.0007122383613424876 0.00022849458122725652 0.0006582841005872142
          0.0006961060257790058 0.00021542248053356416 0.0007924914104301545 0.000683360008714079 0.00017466125430168344 0.0005208159306848426
          0.00042835047992844516 0.00016463624921092893 0.00021474965839644866 -0.0012461422429030922 0.0000782698234527146 -0.00045374651336049787
          -0.00039260185670153547 0.0004393312415484907 -0.0004388970823412386 -0.00010516294192508546 0.0006261083827761027 0.0003210601669938473
          0.0005382464792069719 0.0004267602971097517 0.0009254206546287502 0.0008955881539439714 0.000439083959727693 0.0009678618408455186
          0.0008890728769944678 0.00040696446610427595 0.0009010622942104418 0.0007678037766481044 0.000357305758305157 0.0005981747252617742
          0.0004881296516499045 0.00029969518921396654 0.0002944092565119183 -0.013391506707872036 -0.020626153542316228 -0.009616855134277902
          -0.00032902909721954643 0.0006608533573877473 0.000006069205021219659 0.0005387759273214332 0.000684391175491017 0.0003709994833318575
          0.0008437219470287527 0.0007608703003849637 0.001057632879737147 0.0010956457739186298 0.0007950551674138495 0.0014097676264879233
          0.0011008170384007032 0.0007594313810254105 0.0010607573042501484 0.0008253892193424983 0.0006388751269049697 0.0007264577496058355
          0.000562666836256831 0.0004932913416799689 0.00045023238753993944 0.02004205533532888 0.03636575583373336 0.009495374692129577
          0.002525567046650856 0.00571578320461974 0.00014992351916642832 0.00001834304737746706 0.0006346536733152774 0.00034370111598702735
          0.0009937846200194222 0.0011622338829022638 0.0006792573835974203 0.0013004358382198156 0.0011527523498777725 0.0011364253036214578
          0.001336309724559115 0.0013198626369781419 0.0018001998443020195 0.0014067875177090627 0.001320994113239271 0.0013955963918910186
          0.0009921390972694732 0.001087226727475299 0.0009159871216266602 0.0006846909095792331 0.0007710563487981492 0.0006822810168738425
          -0.0010308416675310905 -0.0009185367057371607 -0.002137090884582138 -0.0028274491830662107 -0.004436588694589183 -0.0030200678891834087
          -0.0014059398976011828 -0.0025816457601410825 -0.0008528529681828267 0.0009732971363227705 0.0009293381336550333 0.0013733284298949044
          0.0016288363043801546 0.0016702403507751207 0.0016668730130895426 0.0016595399990162463 0.0020353249365725468 0.002147008367418657
          0.001767598109602142 0.002200507042159572 0.0019221637287312188 0.00135208766372652 0.0018781879899361087 0.0013617964758305678
          0.0008746865162381212 0.0011609486340746766 0.0009652579438266251 -0.0029854342260269284 -0.004656729034168805 -0.004660320605876178
          0.0032795062905954797 0.007583554166282314 0.0035129011875052463 -0.00580839318844939 -0.011910792109655066 -0.0043952832781619655
          0.0002923494913749103 -0.000258278043016702 0.0016938509895796372 0.0015674637867406638 0.0015944207455738102 0.002139246950430884
          0.00213109488676988 0.002883916749568005 0.002616322674678262 0.002382264617840857 0.003654022838737614 0.0028545520970055804
          0.002172164174915947 0.003698231789219575 0.0024828968424150943 0.001215113452672778 0.001778674484381293 0.0013769987295966235
          -0.0035194701468597156 -0.0044017369770208425 -0.0028728625404552677 -0.0013211986724663838 -0.0007791035521425016 -0.00009387816453010345
          0.0007686844059979769 0.0016237751114847043 0.0017667260596834211 -0.0022768225831253375 -0.0056005925728448425 -0.001673269085655349
          -0.002461925388225872 -0.00635296903004523 -0.002550110852782339 -0.0023554760785886586 -0.005983816855536617 -0.0024619348513263972
          -0.0020896161382992773 -0.004829272263290996 -0.0017871424038453654 -0.0009815658243148562 -0.002381092507794502 -0.0008179030581167979
          -0.0001003441925160331 -0.0008096687107961298 -0.00032001057424579926 1.7638493534183217 0.00006977815887254657 3.527843785301382
          0.000046625091938201635 1.769061822192341 -0.000026989500905627573 0.00009414032739935019 0.00006600186842226075 6.992557941010169e-7
          0.00016228483436703245 0.00014045194419065599 0.00010863063342686496 0.0002560632786612893 0.00022942123969965644 0.0002609440252037132
          0.0003520358665186629 0.00033449681985597834 0.0004527624705580324 0.0004886194245670161 0.00045241812919472046 0.0006660487170835339
          0.000642661261317734 0.0005508717652493722 0.0008051850513701719 0.0007456359396957879 0.0005791708848363886 0.00080494298817535
          0.00024978964613575627 -0.00027124530862798757 -0.00010092978974141076 2.0282875518491377 1.669098737000496e-8 4.056774359097155
          0.000054921332846680215 2.0339878482898763 0.00002243617671393583 0.000001704162041815671 0.00010217996298722554 0.00005208503850384627
          0.00005966647997457386 0.00016545620550256768 0.0001596749387778873 0.00020671982075261275 0.0002414126656193616 0.00038502753833527525
          0.0004266153428434949 0.000326928496548029 0.0006487417479367208 0.0006406847661928339 0.00040199485959024894 0.0008441886154153533
          0.0008109565091727333 0.0004860454192150421 0.0009401582373147477 0.0008669442977992103 0.00046840844340956256 0.0009113478423513621
          0.0005383115232318048 0.00003618948400574418 0.0001690000414280579 2.2483282000436757 0.00002380425785730722 4.496862305036988
          0.00006686134531441734 2.254290727289659 0.00008930291406794577 0.00007467289781892816 0.000129905781098838 0.0001351844767601973
          0.0001509918104643515 0.00019476588732880717 0.0002727391953049052 0.0003229452765399765 0.00027474391152764593 0.0005224568651197997
          0.0005855302310064925 0.00036099338926648405 0.0007988444948521245 0.000836664624605854 0.0004454047639154135 0.0010098338878117286
          0.0010202623439186098 0.000539610658261136 0.001155148976040854 0.0010715274768939853 0.00045308229975349334 0.0011452853145209607
          0.000757235593501937 0.00010700980768074686 0.0003266601455110818 2.42593767809307 0.00004661191071497761 4.85208166613008
          0.00008011553796793969 2.4320228805459636 0.00013796611426908356 0.0001439071848526874 0.00015685822526834148 0.0002376662449735667
          0.0002824379595487425 0.00023553126211128816 0.0003867336455568582 0.00048364738626316406 0.00032982833887887364 0.0005959721916491967
          0.0007264016519180072 0.0004294826966341203 0.0008452079035690674 0.0009636112684416887 0.0005260880385524747 0.0010773610126909583
          0.0011525955066822302 0.0005846467670167499 0.0012424627658734755 0.0012047167278644855 0.0004351572376162238 0.0012222309000566867
          0.000878488522416232 0.00011820820346242211 0.00034610656458700095 2.5642018421388606 0.00006068743812503996 5.128613204092822
          0.00009406262118760722 2.570325768507148 0.00017410259171257714 0.00021399943263766819 0.00017820251856814906 0.0003375821710822624
          0.0004069813572580294 0.000279295339542851 0.00048389309268659364 0.0005921177156077984 0.0003912865914320607 0.0006443213655620839
          0.000773598878328903 0.000502728601812906 0.0008486186794582559 0.0009738256584917448 0.0005937938935842713 0.001045139612365853
          0.0011441896697186316 0.0006059772832714971 0.001142680807474039 0.0011658220292057875 0.0004066716935025583 0.001072182906844965
          0.0008517533074079431 0.00011072876391471365 0.0002696756900467112 2.6666974124904614 0.00008873809326015447 5.333600126671114
          0.00010670476598950707 2.6728052065931225 0.0001908380951087807 0.0002944622806277941 0.00020139429404841813 0.0003686168164420689
          0.0005117428797523083 0.00032031328675719006 0.0005005580145006627 0.0006725527620723981 0.0004471298615576491 0.0006190354553857746
          0.0007940093602755993 0.0005647829055667464 0.0007452684080662686 0.0009138895514984313 0.0006403403720360024 0.000840261109919832
          0.000987203272085957 0.0006136801957240534 0.0008333697835175569 0.0009200065613791109 0.0003797275229371899 0.0007174146830018768
          0.0006528002759919604 0.00010291072617635288 0.00014688559578629468 2.7369198838237114 0.00011830116771571753 5.474034213357127
          0.0001148042202201438 2.7429847193657158 0.00017647614094440378 0.00033114340359285954 0.00022421593049859467 0.000324878165114173
          0.0005324700816832229 0.0003526635237479647 0.00042688818570379983 0.0006674438424784102 0.000489244465529115 0.00048074304412992763
          0.0007268275694333193 0.000609085373811602 0.0004911032640921298 0.0007256477785172188 0.0006671103514404308 0.00046982073626615495
          0.0006658535221399919 0.0006109781821310722 0.0004148390840446603 0.0005238818369873999 0.0003592842001931412 0.000329736152039517
          0.00035825416406520816 0.00009838274918080869 0.000050862022071135327 2.7777709223612717 0.00012369785503807407 5.555729445312325
          0.00011898147489053379 2.783797089863063 0.00014530743076290875 0.00029849230429235263 0.00024065343247747784 0.00027142470434160515
          0.00046404298463631477 0.0003735836735567766 0.0003488876901707183 0.0005606519225344053 0.0005148557446460478 0.00033274999100696423
          0.0005435781872396017 0.0006334922221149508 0.00023505545796731475 0.0004238004728441269 0.0006768560887779329 0.0001330592359354288
          0.0002738523885868621 0.0005989200157374142 0.0000953303983562831 0.00014037412704141598 0.0003454580049602042 0.00009246912473151112
          0.00010633312613751722 0.00009607770704538054 0.000023491147581086724 1.3955853112595042 0.0000752791502589556 2.7912588976559447
          0.00006012687836554065 1.3985875428474985 0.00005707430502188693 0.00016784540601122444 0.00012215931998915686 0.0001055971904224684
          0.00024888924199828466 0.0001886559414501221 0.00013356344404691356 0.0002665642058512496 0.0002608581406324806 0.00012063561740927042
          0.00019033477229613016 0.000321734772973703 0.00008007242987284613 0.00005660876237933987 0.000341509450979105 0.00005028165644771487
          -0.00004026371424931119 0.000298569094722978 0.000051890548652178126 -0.00006064241579029073 0.00016934904490381597 0.00005024733278442828
          -0.000001106980180844326 0.000046705689327504116 0.000017215685335733588
        </DataArray>
        <DataArray type="Float64" Name="resid_z" format="ascii" RangeMin="0" RangeMax="0">
          0 0 0 0 0 0
          0 0 0 0 0 0
          0 0 0 0 0 0
          0 0 0 0 0 0
          0 0 0 0 0 0
          0 0 0 0 0 0
          0 0 0 0 0 0
          0 0 0 0 0 0
          0 0 0 0 0 0
          0 0 0 0 0 0
          0 0 0 0 0 0
          0 0 0 0 0 0
          0 0 0 0 0 0
          0 0 0 0 0 0
          0 0 0 0 0 0
          0 0 0 0 0 0
          0 0 0 0 0 0
          0 0 0 0 0 0
          0 0 0 0 0 0
          0 0 0 0 0 0
          0 0 0 0 0 0
          0 0 0 0 0 0
          0 0 0 0 0 0
          0 0 0 0 0 0
          0 0 0 0 0 0
          0 0 0 0 0 0
          0 0 0 0 0 0
          0 0 0 0 0 0
          0 0 0 0 0 0
          0 0 0 0 0 0
          0 0 0 0 0 0
          0 0 0 0 0 0
          0 0 0 0 0 0
          0 0 0 0 0 0
          0 0 0 0 0 0
          0 0 0 0 0 0
          0 0 0 0 0 0
          0 0 0 0 0 0
          0 0 0 0 0 0
          0 0 0 0 0 0
          0 0 0 0 0 0
          0 0 0 0 0 0
          0 0 0 0 0 0
          0 0 0 0 0 0
          0 0 0 0 0 0
          0 0 0 0 0 0
          0 0 0 0 0 0
          0 0 0 0 0 0
          0 0 0 0 0 0
          0 0 0 0 0 0
          0 0 0 0 0 0
          0 0 0 0 0 0
          0 0 0 0 0 0
          0 0 0 0 0 0
          0 0 0 0 0 0
          0 0 0 0 0 0
          0 0 0 0 0 0
          0 0 0 0 0 0
          0 0 0 0 0 0
          0 0 0 0 0 0
          0 0 0 0 0 0
          0 0 0 0 0 0
          0 0 0 0 0 0
          0 0 0 0 0 0
          0 0 0 0 0 0
          0 0 0 0 0 0
          0 0 0 0 0 0
          0 0 0 0 0 0
          0 0 0 0 0 0
          0 0 0 0 0 0
          0 0 0 0 0 0
          0 0 0 0 0 0
          0 0 0 0 0 0
          0 0 0 0 0 0
          0 0 0 0 0 0
          0 0 0 0 0 0
          0 0 0 0 0 0
          0 0 0 0 0 0
          0 0 0 0 0 0
          0 0 0 0 0 0
          0 0 0 0 0 0
          0 0 0 0 0 0
          0 0 0 0 0 0
          0 0 0 0 0 0
          0 0 0 0 0 0
          0 0 0 0 0 0
          0 0 0 0 0 0
          0 0 0 0 0 0
          0 0 0 0 0 0
          0 0 0 0 0 0
          0 0 0 0 0 0
          0 0 0 0 0 0
          0 0 0 0 0 0
          0 0 0 0 0 0
          0 0 0 0 0 0
          0 0 0 0 0 0
          0 0 0 0 0 0
          0 0 0 0 0 0
          0 0 0 0 0 0
          0 0 0 0 0 0
          0 0 0 0 0 0
          0 0 0 0 0 0
          0 0 0 0 0 0
          0 0 0 0 0 0
          0 0 0 0 0 0
          0 0 0 0 0 0
          0 0 0 0 0 0
          0 0 0 0 0 0
          0 0 0 0 0 0
          0 0 0 0 0 0
          0 0 0 0 0 0
          0 0 0 0 0 0
          0 0 0 0 0 0
          0 0 0 0 0 0
          0 0 0 0 0 0
          0 0 0 0 0 0
          0 0 0 0 0 0
          0 0 0 0 0 0
          0 0 0 0 0 0
          0 0 0 0 0 0
          0 0 0 0 0 0
          0 0 0 0 0 0
          0 0 0 0 0 0
          0 0 0 0 0 0
          0 0 0 0 0 0
          0 0 0 0 0 0
          0 0 0 0 0 0
          0 0 0 0 0 0
          0 0 0 0 0 0
          0 0 0 0 0 0
          0 0 0 0 0 0
          0 0 0 0 0 0
          0 0 0 0 0 0
          0 0 0 0 0 0
          0 0 0 0 0 0
          0 0 0 0 0 0
          0 0 0
        </DataArray>
        <DataArray type="Float64" Name="stress_zz" format="ascii" RangeMin="-4353158.545893326" RangeMax="2233600.0815017577">
          1218908.0777560298 514016.3662354462 342117.7171227036 731485.2319786954 1219300.4595402265 526585.9187782196
          336905.556564596 724461.8597272796 1219692.8413244234 539155.471320993 331693.39600648836 717438.4874758637
          -338855.0353430424 68327.59055373169 281243.91898960056 -51969.19395791521 -328221.80698745244 63001.546612852326
          270861.9721018166 -57580.889599671886 -317588.5786318625 57675.502671972994 260480.02521403268 -63192.58524142855
          641481.4620369979 232015.35531786928 627865.8739056 231848.92958309763 614250.2857742021 231682.503848326
          715203.1974408409 1072079.342828216 1204181.3452234385 708091.3261710091 1055997.5671025664 1183315.903311536
          700979.4549011774 1039915.7913769165 1162450.4613996337 194355.17367010488 -27906.317630761303 -171196.891832643
          23686.11010370258 193603.63503924076 -56388.714832005295 -177047.02386794594 20235.45336953541 192852.09640837662
          -84871.11203324924 -182897.15590324896 16784.796635368235 -372769.4483996972 -159556.27759936737 -63062.40772403349
          -25425.058139944704 -376693.7056549114 -165632.70502169555 -87049.00393933067 -11609.383700794913 -380617.9629101256
          -171709.13244402368 -111035.60015462786 2206.290738354891 -384688.69150112674 89719.17951238735 778303.7919976584
          -388844.32788583497 101693.87360347407 779255.7260836917 -392999.9642705432 113668.56769456081 780207.6601697248
          1869907.0600395557 1883748.7379748116 1897590.415910067 511043.30721326364 -293976.7257018322 511570.15953595063
          -277869.57527751254 512097.01185863756 -261762.4248531927 2187556.7168280114 1218583.7097408932 2210578.3991648844
          1200909.1292405482 2233600.0815017577 1183234.5487402035 -63721.109689013145 -76198.85211901873 -83051.466567961
          -53215.17946740537 -102381.82344690888 -30231.506815792032 -387753.59110991296 -416905.1642213465 -269848.77384433185
          -168935.0007370643 -401933.7750899734 -424358.6382218933 -291268.3310586043 -174680.8529900016 -416113.95907003386
          -431812.1122224401 -312687.88827287673 -180426.70524293886 485338.02815720416 500275.2108280933 515212.3934989824
          293645.09862223687 288191.651702687 282738.20478313725 632156.4675408464 636944.826568298 641733.1855957496
          -180516.76037285864 -576318.3154307129 -178847.08358655818 -556149.025932775 -177177.4068002578 -535979.7364348371
          -517057.182578474 -1641826.2894575172 -1782904.0186029063 -1398301.529859153 -522995.100313062 -1750991.0084102503
          -1847040.185716267 -1435255.9510691739 -528933.0180476501 -1860155.7273629832 -1911176.3528296277 -1472210.3722791946
          109908.99668315628 362791.1600891367 114477.47810925967 366332.45690860087 119045.95953536306 369873.75372806506
          -416179.4870652283 -376751.304928724 -337323.12279221974 -141246.7937387193 -139548.9453546293 -137851.09697053928
          516356.46327774366 552540.767198422 513592.9452793463 584914.3959859537 510829.42728094896 617288.0247734855
          32543.41028306777 -319418.51491773146 61667.96379506749 -300126.8544672924 90792.51730706713 -280835.1940168533
          -1146862.4303043263 -1683352.8278386546 -1123326.3362262682 -1710997.5436254796 -1099790.2421482103 -1738642.2594123038
          -479569.11903948 -446942.38407693757 -414315.649114395 -617249.3022474439 -623012.9446395418 -628776.5870316395
          -170648.79527539073 -159582.62920227624 -148516.46312916174 -948330.1015477928 -871621.0620207576 -794912.0224937225
          -65452.179188356764 -14218.365325571896 37015.44853721293 243203.9087867753 252881.6497195745 251897.75132449713
          243388.81041879108 260591.59386221893 233895.97111800767 -109809.583469433 -104940.59646996616 -100071.6094704993
          -387698.26309267903 -986122.7602045981 -374629.901205381 -987255.0734031252 -361561.5393180829 -988387.386601652
          -773516.0695153341 -713949.4708111042 -764138.5269866235 -683801.6723997983 -754760.984457913 -653653.8739884924
          340432.74982849933 -137274.37960856128 339997.4229698514 -137567.72342565792 339562.09611120337 -137861.06724275457
          273264.69450380077 303007.680786445 332750.66706908925 15524.287940201757 -25337.6748207208 -66199.63758164336
          -873706.8141485162 -891089.7938228406 -908472.7734971647 199342.98654756576 -50262.262081147324 238921.47420625717
          -41775.669517816896 278499.9618649486 -33289.07695448643 221841.01007863058 -32732.395844186758 229140.35978835088
          205.28962710762002 236439.70949807117 33142.975098402 -40971.77004224819 -253105.35071029316 -318810.43750898755
          6891.7577026249855 -246756.3939899076 -304432.4470816086 54755.28544749814 -240407.43726952202 -290054.4566542296
          -215161.3363931106 -222879.37737386583 -230597.41835462107 -750787.8845331516 -1023233.8747868219 -669144.064721863
          -1036675.7052405442 -587500.2449105744 -1050117.5356942664 63256.999548706066 326746.89009145385 45032.19592538387
          336200.20565159427 26807.392302061693 345653.52121173486 -502930.882068494 -496059.9394449972 -489188.99682150036
          42742.73168463557 30757.199689048313 18771.667693461117 -1137595.1440581465 -1095829.3856445209 -1054063.6272308952
          -353663.1007262586 -264638.4631179911 -343786.99766629585 -285172.35394614725 -333910.89460633305 -305706.2447743034
          -493767.21490732644 -492031.12808187795 -490295.04125642945 -473082.95439560886 -469092.79783904046 -465102.6412824722
          -890582.9762832369 -879968.0899108603 -869353.2035384832 312571.8268174316 276503.0598313584 240434.2928452851
          820178.1964499038 812077.173682547 803976.1509151903 485967.5667747131 495962.61338135996 505957.65998800687
          1638087.7065787711 1629655.3628935006 1621223.0192082303 1492758.7958818371 1490246.551277635 1487734.306673433
          1062542.3462076052 1058973.813302514 1055405.2803974226 190572.6278174662 190437.9452030289 190303.26258859158
          -477967.3078405378 -473785.3956294517 -469603.4834183657 -44148.033616887544 -43927.23994481508 -42425.44625016766
          -42423.159044097614 -40702.858883447785 -40919.078143380146 -28615.617676292415 -21218.205069063457 -29459.726435930603
          -21885.479509821213 -30303.83519556879 -22552.753950578972 6359.437501260472 12679.53318318483 6712.611566585912
          12984.198844679706 7065.785631911355 13288.864506174583 32346.557914926365 40402.44291998648 32234.910605398833
          40396.0901598331 32123.26329587129 40389.737399679725 48680.84207720168 57087.50309982405 48702.35188302496
          57185.18692745334 48723.86168884825 57282.87075508262 57991.07095702338 63603.820868243594 57990.29002525316
          63680.88613946948 57989.50909348294 63757.95141069537 48209.202252208044 53270.69411626358 48240.90843442472
          53362.46352710435 48272.6146166414 53454.23293794513 6680.631673893182 15412.75303894989 6612.5933334822175
          15445.616759702341 6544.554993071254 15478.480480454793 -87181.47554398487 -85273.02903488491 -83364.58252578492
          -21332.03755843159 -22030.598297015647 -22729.15903559971 6984.69636772243 6948.1963623547645 6911.696356987097
          34125.92376767085 34169.335843724024 34212.7479197772 47085.88444016888 47011.26464681943 46936.64485346999
          59423.94570134127 59496.891085026386 59569.83646871151 41998.331881945654 42161.86157022323 42325.39125850081
          -18356.068833734782 -18390.09606433083 -18424.12329492689 -50589.922529784075 -50508.15575556114 -50426.38898133821
          -28441.62448992968 -27166.91263946248 -25892.200788995284 33157.93562008969 33263.52021645844 33369.104812827194
          49709.096556112905 49932.250294813166 50155.404033513434 56065.48613522716 56048.40999770815 56031.33386018914
          69921.68653552308 69937.89780228189 69954.1090690407 33293.3420280476 33275.93646679923 33258.530905550855
          -63477.15277758881 -64077.68475293346 -64678.216728278116 -8886.253979057517 -18605.65518390955 -28325.056388761557
          18637.03422750935 16262.650256540575 13888.266285571815 46584.58375018668 46943.212687424326 47301.84162466197
          64998.21266939469 64731.49837166404 64464.784073933384 50669.64314453219 50363.478301337396 50057.31345814259
          73634.38990686474 73933.30652771571 74232.22314856667 9455.615510094318 10268.995891098972 11082.376272103618
          -137325.18538316168 -137240.43064604592 -137155.67590893013 -690213.706021974 -696073.4672697408 -701933.2285175073
          47231.69749338098 43372.83559500505 39513.97369662911 104843.03511266716 105032.24064241088 105221.44617215462
          54349.566380580574 55531.0559070709 56712.54543356122 37695.66576172358 37319.96346301018 36944.26116429678
          69332.09204509718 69113.8704922648 68895.64893943245 -50369.57673706717 -50991.42564859978 -51613.274560132384
          -278607.23678360763 -281226.9794526933 -283846.722121779 -1009651.4093690456 -1019657.7280194056 -1029664.0466697656
          -1460662.7887434154 -1457731.5663477748 -1454800.343952134 -709073.0822568173 -708647.5206473414 -708221.9590378654
          60823.79789885887 55106.80244565129 49389.8069924437 76749.79602536182 75287.21713072585 73824.6382360899
          658.0353491313354 94.23495031959328 -469.56544849214697 82215.22682644716 83016.48467541758 83817.74252438804
          -112434.72622956743 -109958.8683853164 -107483.01054106538 -458884.34091377695 -458728.3149486378 -458572.2889834986
          1003208.9726339418 990028.8182103467 976848.6637867515 -120512.4613573972 -121651.84664148907 -122791.23192558094
          -1503331.0038163841 -1493424.9399770433 -1483518.8761377027 -661634.4657216804 -662187.2706487618 -662740.0755758431
          395512.6805540317 390422.91754959605 385333.15454516036 43079.63937072883 40982.20559602329 38884.77182131774
          41569.92969411513 42662.87007506161 43755.81045600808 -641181.993273699 -639499.4952800905 -637816.9972864818
          -1281519.4661545816 -1284370.875368742 -1287222.2845829024 742671.8849659748 734961.9606863732 727252.0364067715
          -449737.63318192423 -453980.0066328816 -458222.3800838389 -2967358.633313617 -2953018.7438375717 -2938678.854361527
          -2664572.4531440595 -2653771.2890049764 -2642970.124865894 -114861.47148017696 -118638.14753769059 -122414.82359520416
          333231.81730162184 327591.05704664625 321950.29679167055 544953.9344067373 546039.2608821626 547124.5873575876
          -343840.7617329073 -344017.8106552371 -344194.85957756685 -1544750.866370449 -1552809.2990846026 -1560867.7317987557
          -815415.5622215867 -823962.1510530423 -832508.7398844978 -2245935.295789494 -2252285.841609082 -2258636.38742867
          -4353158.545893326 -4343396.417645736 -4333634.289398144 -4053131.1020960715 -4042204.1597277997 -4031277.217359528
          -901408.4379268158 -904746.3709370781 -908084.3039473402 549334.9968809701 541199.3949381654 533063.7929953608
          1106429.2560875071 1109242.915690391 1112056.5752932748 463725.664436415 468218.9724235742 472712.2804107334
          -1069373.7218795253 -1072764.7722457584 -1076155.8226119913 -16193.331907438664 -22834.211622159983 -16161.932533732393
          -22824.756211965803 -16130.53316002612 -22815.300801771624 -42612.68251480675 -42431.22696961169 -42249.77142441664
          -76262.30064856668 -76211.43211604553 -76160.56358352437 -124293.63784181958 -123325.70428902874 -122357.77073623792
          -211504.2178532508 -211620.11050200826 -211736.0031507658 -283779.26611025335 -280879.4518313019 -277979.6375523506
          -781732.7845264196 -777703.3825951647 -773673.9806639097 -402342.27711676684 -397176.51869772776 -392010.76027868886
          462417.9702260627 472931.62674129586 483445.2832565288 -27264.060162282687 -30684.86448034593 -27240.034618786874
          -30665.052765195585 -27216.009075291062 -30645.241050045235 -40129.41346080812 -40041.59151007615 -39953.769559344175
          -54444.630740494205 -54376.905941738376 -54309.18114298255 -73107.81609095685 -72701.08873732685 -72294.36138369683
          -101958.24317228356 -101855.20105442786 -101752.15893657216 -119390.14529721187 -118286.44449002048 -117182.74368282908
          -338559.40520961944 -336986.5285646525 -335413.6519196857 508735.322625471 508153.0949265446 507570.86722761823
          1576246.1225961917 1574775.282411484 1573304.4422267764 -39288.708683083096 -43076.10678615152 -39276.150788964595
          -43082.33481486178 -39263.5928948461 -43088.56284357203 -53871.10784546397 -53924.05934883779 -53977.01085221159
          -70821.74418647218 -70979.14224504502 -71136.54030361783 -94534.24569990965 -94801.67935510108 -95069.11301029251
          -127380.69531385861 -127998.04251424 -128615.38971462139 -185251.59360632458 -186214.31257538323 -187177.03154444188
          -252265.70566106497 -254472.31394516304 -256678.92222926114 343015.11382243986 338716.9569128713 334418.80000330275
          966516.1285534948 961341.3275167535 956166.5264800121 -51665.50945094973 -55376.40085805864 -51657.14759749708
          -55360.60533440152 -51648.78574404444 -55344.809810744424 -65952.57080715231 -65907.78273969011 -65862.9946722279
          -82464.37489313689 -82369.3092582833 -82274.24362342972 -104119.60469556876 -103948.71370677858 -103777.82271798841
          -133606.1821455497 -133299.434149309 -132992.68615306824 -161913.49869956216 -161480.9312359709 -161048.36377237955
          -106884.1980843931 -105905.23615202818 -104926.27421966326 373796.4328242892 376368.7062657016 378940.9797071139
          788618.3197553388 792274.5793570708 795930.8389588029 -63502.83784349125 -67309.55038269292 -63498.58028745522
          -67309.61657222686 -63494.32273141919 -67309.6827617608 -78136.97725052822 -78150.27386779334 -78163.57048505846
          -94474.6017373064 -94509.02895717382 -94543.45617704125 -114135.43784225424 -114228.85991798411 -114322.28199371397
          -132824.22234750283 -132945.81856229162 -133067.41477708044 -123857.53641528224 -124265.38430664009 -124673.23219799795
          -10225.532747362391 -10684.28425127562 -11143.035755188852 353694.2966018014 352789.3759397908 351884.4552777802
          621293.6667737112 619688.6320932272 618083.5974127431 -73884.98092389567 -77801.42164909553 -73881.46278482628
          -77798.17232746571 -73877.94464575688 -77794.92300583588 -88784.89279198916 -88782.07242613616 -88779.25206028315
          -104505.713952234 -104498.22767846225 -104490.74140469049 -120087.69135236499 -120093.8536460105 -120100.01593965599
          -124130.4973274788 -124091.87698673838 -124053.25664599797 -84845.86896288057 -84933.3179036236 -85020.76684436662
          51975.213207155815 52149.53065600445 52323.84810485307 331936.74168464437 332490.56591222034 333044.3901397964
          511476.43567422865 511958.6737613977 512440.91184856684 -81921.83961619242 -85921.19270896827 -81919.8618471902
          -85921.36038104331 -81917.88407818798 -85921.52805311835 -96936.87690252348 -96944.0296782021 -96951.18245388073
          -111635.87880441967 -111647.62054607476 -111659.36228772982 -122423.96993898108 -122465.47805050797 -122506.9861620348
          -113407.6499032419 -113427.32722277872 -113447.00454231555 -54249.22235423538 -54423.0870182615 -54596.95168228762
          89413.51218313782 89426.88891230244 89440.26564146706 314534.26764702576 314592.4264616113 314650.58527619677
          443028.97575336316 442738.64005727787 442448.30436119257 -86968.87131485558 -91019.85090428653 -86969.98178825693
          -91022.19936276054 -86971.09226165828 -91024.54782123453 -102005.34871060234 -102012.76194770476 -102020.17518480716
          -115782.54080584223 -115791.15691364362 -115799.773021445 -122919.37651538846 -122952.19749870404 -122985.01848201963
          -105386.43170684538 -105389.88773003829 -105393.34375323121 -35584.834498192504 -35713.58768427179 -35842.34087035108
          108789.35668159008 108868.75424383153 108948.15180607297 302954.5196723416 303149.4778417758 303344.43601120985
          404719.9820522291 404640.85915915517 404561.73626608134 -88687.8705340187 -92754.59248354132 -88689.63776705955
          -92757.47173615514 -88691.40500010039 -92760.35098876897 -103715.15541072424 -103723.49391062719 -103731.83241053016
          -117121.05785880523 -117131.63296476923 -117142.20807073324 -122904.70920684344 -122941.34073198376 -122977.97225712406
          -102444.38490835973 -102453.79769722723 -102463.21048609473 -29326.03774725238 -29460.668757649568 -29595.29976804676
          114818.46880023129 114882.56816288896 114946.66752554664 299119.64691594784 299261.0664246722 299402.4859333966
          392662.7514691868 392502.15675228916 392341.56203539146
        </DataArray>
        <DataArray type="Float64" Name="peeq" format="ascii" RangeMin="0" RangeMax="0.0028433160994239463">
          0.0017536847534896567 0.0018332170064921508 0.0018595717087054712 0.0018456538570561637 0.0017535491484716823 0.0018331755241909706
          0.0018594881796551554 0.0018454757810292739 0.0017534135434537075 0.0018331340418897904 0.0018594046506048394 0.0018452977050023838
          0.0018128260603160206 0.0018270902850698796 0.0017973552304616904 0.0018129920757428085 0.0018131643507473365 0.0018273122917049453
          0.0017970416718452705 0.0018127992891754747 0.0018135026411786523 0.0018275342983400116 0.0017967281132288508 0.001812606502608141
          0.0018029333274665567 0.001833365850440783 0.0018025754752743724 0.0018332454858431754 0.001802217623082188 0.0018331251212455675
          0.0017680719806636373 0.0016186065580060143 0.0017325320992238906 0.0017678621004168008 0.0016183425753416528 0.001732150543872598
          0.0017676522201699647 0.0016180785926772916 0.0017317689885213057 0.0019279194468152518 0.0020046337457960118 0.0020768772102030186
          0.0019400974074088532 0.0019284382347995095 0.002005037691411132 0.002077469105683258 0.0019407186113835767 0.0019289570227837673
          0.002005441637026252 0.0020780610011634977 0.0019413398153583002 0.0019883251640652453 0.0020642675635562466 0.0020294134690486045
          0.0019357172230187168 0.0019887227876026372 0.002064712668371339 0.0020297966688200392 0.0019362224653642391 0.0019891204111400287
          0.0020651577731864317 0.0020301798685914744 0.0019367277077097615 0.0018590125266406742 0.001943206524078568 0.001866932997442795
          0.001859798463981534 0.0019440742800179711 0.0018672302919161606 0.0018605844013223935 0.0019449420359573743 0.001867527586389526
          0.0015916525252798487 0.0015916020945829453 0.0015915516638860413 0.0019850726011428114 0.002122730480198916 0.0019854471275850038
          0.0021233015197171723 0.0019858216540271957 0.002123872559235428 0.0013997081662582222 0.0014684001094341667 0.0013997545997276306
          0.001468321597920855 0.0013998010331970393 0.0014682430864075432 0.0025672450305389235 0.002689687145738308 0.0025672723449995487
          0.002689780728696217 0.0025672996594601734 0.002689874311654125 0.0021351311363947347 0.0022377429606274275 0.002079682175461112
          0.001983612405247467 0.0021356905864322066 0.0022385100138716074 0.0020803367211413787 0.0019841978547530544 0.0021362500364696785
          0.0022392770671157878 0.0020809912668216446 0.001984783304258642 0.0026815997133216264 0.002681869613793473 0.00268213951426532
          0.0028433160994239463 0.002843201456919691 0.002843086814415436 0.0017635008158384646 0.0017636508827320845 0.0017638009496257043
          0.0018200560519148284 0.0018152590932125248 0.0018202114030468803 0.0018159196752183695 0.0018203667541789323 0.0018165802572242136
          0.0026516771329674624 0.002371152062485689 0.0023447131234453863 0.0026321711949673365 0.002652043015238431 0.0023710477368813956
          0.0023449101517577452 0.002632654394340712 0.0026524088975094003 0.0023709434112771017 0.0023451071800701046 0.0026331375937140872
          0.0018588611261053318 0.0018722953299853122 0.0018591929787962194 0.0018724969140409705 0.0018595248314871072 0.0018726984980966287
          0.0025807323044221096 0.002581531231890241 0.002582330159358373 0.002126459693231883 0.00212704671042971 0.0021276337276275367
          0.002550215684423168 0.002533754414239 0.002551178510868394 0.0025348261085058046 0.00255214133731362 0.0025358978027726097
          0.0019092352005737239 0.0019339525125144498 0.0019097044177591794 0.0019343952899172716 0.0019101736349446344 0.0019348380673200934
          0.002112431905019267 0.0021672257234272943 0.002113559650165388 0.0021680604577348594 0.0021146873953115097 0.0021688951920424246
          0.0024366460082297153 0.0024373487369098133 0.0024380514655899122 0.0023361672047482406 0.0023363804157148877 0.0023365936266815357
          0.0023256844660685875 0.0023261896879769213 0.002326694909885254 0.0020532578221317665 0.002054565521966278 0.0020558732218007893
          0.002385695879214388 0.0023869805746841947 0.002388265270154001 0.0026828152435584597 0.00266441608688925 0.002682569379620377
          0.002664012913146893 0.0026823235156822945 0.0026636097394045367 0.0018513580232357113 0.0018519144199844737 0.0018524708167332355
          0.0018657502531398557 0.0018992452237993139 0.0018665334341209528 0.0019000295526859748 0.0018673166151020495 0.001900813881572636
          0.0020777099989801253 0.0022988809451196437 0.0020786390107102393 0.0022996793728377062 0.0020795680224403525 0.0023004778005557692
          0.0018837248544974153 0.0018980162668082487 0.001883847306553534 0.001898291667705468 0.001883969758609652 0.0018985670686026874
          0.0023021400169529467 0.002303304517972426 0.0023044690189919057 0.0026249748591878853 0.0026245758671256452 0.0026241768750634056
          0.0025901615871095213 0.0025909200179115256 0.0025916784487135308 0.002263705874596664 0.0024177826003544704 0.002264398722920327
          0.002418123977192523 0.002265091571243989 0.002418465354030576 0.0024949834895331264 0.0025173651779409785 0.00249521016674474
          0.0025177676746861756 0.0024954368439563533 0.0025181701714313727 0.0022685120695483288 0.002168383406783067 0.0023138531505031788
          0.0022693176613127895 0.0021690273067415133 0.002314431517044571 0.0022701232530772508 0.002169671206699959 0.0023150098835859633
          0.002338779613812074 0.0023391408444071522 0.0023395020750022304 0.0019450715170323423 0.0019224709091747987 0.001946583214370955
          0.0019233844749645015 0.0019480949117095673 0.0019242980407542043 0.0018796364978157093 0.0018737746931484051 0.001879782932092809
          0.001873847057803948 0.0018799293663699082 0.0018739194224594903 0.002189824716912255 0.002190520284662522 0.002191215852412789
          0.0024523048066040446 0.0024524887502204488 0.002452672693836853 0.0018285996488565416 0.0018295699962371443 0.0018305403436177467
          0.0019482336241678656 0.0020078604172314475 0.001948671665456338 0.002008158314117029 0.0019491097067448108 0.002008456211002611
          0.0020836031469364698 0.002084118504638959 0.002084633862341448 0.0019064249190615514 0.0019068834096370021 0.0019073419002124524
          0.0018359380815014018 0.0018367201652625595 0.001837502249023717 0.0018911411720201957 0.001891450881193452 0.001891760590366708
          0.0018826761427883604 0.0018827450206150675 0.0018828138984417746 0.001862146671037531 0.001862062538670855 0.001861978406304179
          0.0010925833153245068 0.0010925428755987165 0.0010925024358729258 0.00135525134097853 0.001355187695158768 0.0013551240493390065
          0.0015763754613835168 0.0015763101824203653 0.0015762449034572136 0.0017463495587315921 0.0017463031734069778 0.001746256788082364
          0.0018178007174869002 0.0018177771105428277 0.001817753503598755 0 0 0
          0 0 0 0 0 0
          0 0 0 0 0 0
          0 0 0 0 0 0
          0 0 0 0 0 0
          0 0 0 0 0 0
          0 0 0 0 0 0
          0 0 0 0 0 0
          0 0 0 0 0 0
          0 0 0 0 0 0
          0 0 0 0 0 0
          0 0 0 0 0 0
          0 0 0 0 0 0
          0 0 0 0 0 0
          0 0 0 0 0 0
          0 0 0 0 0 0
          0 0 0 0 0 0
          0 0 0 0 0 0
          0 0 0 0 0 0
          0 0 0 0 0 0
          0 0 0 0.000015509932230946463 0.000015539514553737924 0.000015569096876529384
          0 0 0 0 0 0
          0 0 0 0 0 0
          0 0 0 0 0 0
          0 0 0 0.0003316729708186839 0.0003317381884217629 0.00033180340602484193
          0.00010673774634612014 0.00010683695208227138 0.00010693615781842259 0.000015034576860655156 0.000015085614778968075 0.000015136652697280994
          0 0 0 0 0 0
          0 0 0 0 0 0
          0 0 0 0 0 0
          0.0006720087717635335 0.0006718904584108395 0.0006717721450581456 0.0003316267183887993 0.0003316677742711438 0.00033170883015348816
          0.00009077593087369322 0.00009089465013893138 0.00009101336940416954 0.000004046501838618647 0.000004088299831834974 0.000004130097825051302
          0 0 0 0 0 0
          0 0 0 0 0 0
          0 0 0 0.0010986495235869843 0.0010982543639860664 0.001097859204385149
          0.0006860075494147977 0.0006858416287983863 0.0006856757081819747 0.00028078804592562406 0.00028093627069316886 0.0002810844954607137
          0.000049826307396027564 0.000049955566602553306 0.00005008482580907904 0 0 0
          0 0 0 0 0 0
          0 0 0 0 0 0
          0.0013316840808439098 0.0013311424407946655 0.0013306008007454213 0.0008912172902823442 0.0008909425841115518 0.0008906678779407595
          0.00041009338382517194 0.0004102544706664111 0.0004104155575076503 0.00009155961111481783 0.00009173453354143666 0.00009190945596805549
          0 0 0 0 0 0
          0 0 0 0 0 0
          0 0 0 0 0 0
          0 0 0 0 0 0
          0 0 0 0 0 0
          0 0 0 0 0 0
          0 0 0 0 0 0
          0 0 0 0 0 0
          0 0 0 0 0 0
          0 0 0 0 0 0
          0 0 0 0 0 0
          0 0 0 0 0 0
          0 0 0 0 0 0
          0 0 0 0 0 0
          0 0 0 0 0 0
          0 0 0 0 0 0
          0 0 0 0 0 0
          0 0 0 0 0 0
          0 0 0 0 0 0
          0 0 0 0 0 0
          0 0 0 0 0 0
          0 0 0 0 0 0
          0 0 0 0 0 0
          0 0 0 0 0 0
          0 0 0 0 0 0
          0 0 0 0 0 0
          0 0 0 0 0 0
          0 0 0 0 0 0
          0 0 0 0 0 0
          0 0 0 0 0 0
          0 0 0 0 0 0
          0 0 0 0 0 0
          0 0 0 0 0 0
          0 0 0 0 0 0
          0 0 0 0 0 0
          0 0 0 0 0 0
          0 0 0 0 0 0
          0 0 0 0 0 0
          0 0 0 0 0 0
          0 0 0 0 0 0
          0 0 0 0 0 0
          0 0 0 0 0 0
          0 0 0 0 0 0
          0 0 0 0 0 0
          0 0 0 0 0 0
          0 0 0 0 0 0
          0 0 0 0 0 0
          0 0 0
        </DataArray>
        <DataArray type="Float64" Name="pe11" format="ascii" RangeMin="0" RangeMax="0.00284308609027098">
          0.0017535587552016355 0.0018331298434000494 0.00185948107099265 0.001845565686789824 0.0017534222688555764 0.0018330873765557754
          0.0018593967003212174 0.0018453871208052323 0.0017532857825095164 0.0018330449097115017 0.0018593123296497846 0.001845208554820641
          0.0018127295946192674 0.0018269353830615565 0.0017971392266916506 0.0018128614687782485 0.0018130674219441886 0.0018271545547328047
          0.0017968230326410044 0.0018126677718873488 0.0018134052492691094 0.0018273737264040526 0.0017965068385903578 0.0018124740749964484
          0.0018028010780659792 0.0018332633971061309 0.0018024423724896461 0.001833142704433544 0.0018020836669133127 0.0018330220117609571
          0.0017677428236027104 0.0016182708385997094 0.001732329281356897 0.0017675276546520358 0.0016180030520026693 0.0017319457303966107
          0.0017673124857013611 0.00161773526540563 0.001731562179436324 0.0019278601664776517 0.0020045643415218407 0.0020767872439046422
          0.0019400172922032894 0.0019283770014330219 0.0020049681970857464 0.002077378185857496 0.0019406367479952603 0.0019288938363883927
          0.002005372052649652 0.0020779691278103494 0.0019412562037872312 0.0019882907964427488 0.002064236681582091 0.002029369016272912
          0.0019356676987037486 0.0019886883403903164 0.0020646817596096023 0.0020297522598249013 0.0019361713932450435 0.001989085884337884
          0.002065126837637114 0.002030135503376891 0.0019366750877863384 0.0018589211169108691 0.001943008036753896 0.001866688339120719
          0.001859703895439714 0.001943870435579797 0.0018669794938813457 0.0018604866739685589 0.0019447328344056975 0.001867270648641973
          0.0015914094802297048 0.0015913575548672193 0.0015913056295047336 0.0019846204175984275 0.002122345747834405 0.001984985894634094
          0.0021229121821160456 0.0019853513716697607 0.002123478616397686 0.001399266490012453 0.001467869420506669 0.0013993105615585988
          0.0014677850861159463 0.0013993546331047446 0.0014677007517252237 0.0025670668395346005 0.0026894079550542826 0.0025670936274157195
          0.0026895017408194877 0.0025671204152968386 0.0026895955265846933 0.0021349798477191886 0.002237548168825381 0.0020795568823514876
          0.001983506379628306 0.0021355383237903727 0.0022383141447563366 0.002080211439348458 0.0019840906678241306 0.0021360967998615564
          0.0022390801206872927 0.0020808659963454284 0.0019846749560199547 0.0026811525177398 0.002681415987317368 0.0026816794568949357
          0.00284308609027098 0.0028429713443006216 0.0028428565983302637 0.001762992238877875 0.001763132701846733 0.001763273164815591
          0.00181996872731582 0.0018151923279427112 0.0018201238981528471 0.001815852800266949 0.0018202790689898743 0.0018165132725911867
          0.002651267760630716 0.0023709111675853187 0.0023444808567335143 0.0026318132170807915 0.0026516303146963275 0.0023708031748693645
          0.002344675857258682 0.002632294427086189 0.002651992868761939 0.002370695182153411 0.0023448708577838502 0.0026327756370915873
          0.0018587921525517858 0.0018722306450210475 0.0018591219714453116 0.0018724301944453667 0.001859451790338837 0.0018726297438696863
          0.0025805018464901876 0.0025813019807434416 0.0025821021149966955 0.0021264181032400356 0.0021270044164041955 0.0021275907295683553
          0.0025499504875848887 0.0025335704152498824 0.0025509124363517206 0.0025346422834658677 0.0025518743851185525 0.002535714151681853
          0.0019091861252572516 0.0019339204912864811 0.0019096525133591913 0.0019343615875586446 0.0019101189014611311 0.0019348026838308086
          0.0021123165447073503 0.0021670757690471294 0.002113444277356075 0.0021679095405229753 0.0021145720100047994 0.0021687433119988216
          0.0024363979371308914 0.0024371002044818266 0.002437802471832762 0.002335848404955283 0.0023360580065590365 0.0023362676081627896
          0.0023254850541359656 0.00232598979128859 0.0023264945284412145 0.0020530737699311122 0.0020543784113940975 0.0020556830528570837
          0.002385497462236993 0.0023867821752520113 0.00238806688826703 0.002682751567506655 0.002664364239872845 0.002682502588963461
          0.0026639587162079845 0.0026822536104202667 0.0026635531925431246 0.0018512931912142501 0.0018518480150535729 0.0018524028388928956
          0.0018656836053658784 0.0018991837588846817 0.0018664655679524406 0.001899966754829328 0.0018672475305390032 0.0019007497507739749
          0.0020776086860783095 0.00229865865956394 0.002078538612034036 0.002299457819946588 0.002079468537989762 0.002300256980329235
          0.001883662963759137 0.0018979691843636552 0.0018837830839747035 0.001898242580178887 0.0018839032041902703 0.0018985159759941192
          0.002301946665051461 0.0023031122557276734 0.0023042778464038858 0.002624924543519571 0.0026245242250168346 0.002624123906514098
          0.002589823634723639 0.0025905808463363303 0.0025913380579490213 0.002263591053963532 0.0024176627623571077 0.0022642831942495173
          0.0024180043906334736 0.0022649753345355033 0.00241834601890984 0.002494916481724847 0.0025172855348569306 0.0024951347352338794
          0.002517672016078992 0.0024953529887429115 0.0025180584973010537 0.0022684527499154394 0.0021683495238544077 0.0023137973651246534
          0.0022692574895257184 0.002168993518555033 0.0023143700961480084 0.002270062229135998 0.002169637513255658 0.002314942827171364
          0.0023387212857049655 0.002339071517392693 0.0023394217490804196 0.0019449895154191466 0.0019224138834701573 0.001946498611193133
          0.00192332577089392 0.0019480077069671197 0.0019242376583176826 0.0018795561990858159 0.0018736951343512169 0.0018797022715581826
          0.0018737669610955207 0.0018798483440305488 0.001873838787839824 0.0021897884174513866 0.0021904844091769913 0.002191180400902596
          0.0024522359419209263 0.002452419300268737 0.0024526026586165475 0.0018285456984436885 0.0018295153664357041 0.0018304850344277193
          0.0019482119776504602 0.00200783761503121 0.0019486490699318101 0.002008135351734161 0.0019490861622131603 0.0020084330884371127
          0.0020835730223297275 0.0020840881367112894 0.0020846032510928505 0.0019063954170466003 0.0019068526397347668 0.0019073098624229335
          0.0018358750770118434 0.0018366560425778916 0.00183743700814394 0.001891090579027015 0.001891400735715584 0.0018917108924041532
          0.0018826175502798387 0.0018826863595118972 0.0018827551687439557 0.0018620884815512347 0.0018620033466689831 0.001861918211786732
          0.0010915656170920496 0.001091523854034673 0.0010914820909772962 0.0013545715769327086 0.0013545064285039059 0.0013544412800751031
          0.0015760146105241735 0.0015759478980684463 0.0015758811856127193 0.0017461867927561943 0.0017461391193186564 0.0017460914458811187
          0.0018177048922820372 0.0018176801406383654 0.0018176553889946937 0 0 0
          0 0 0 0 0 0
          0 0 0 0 0 0
          0 0 0 0 0 0
          0 0 0 0 0 0
          0 0 0 0 0 0
          0 0 0 0 0 0
          0 0 0 0 0 0
          0 0 0 0 0 0
          0 0 0 0 0 0
          0 0 0 0 0 0
          0 0 0 0 0 0
          0 0 0 0 0 0
          0 0 0 0 0 0
          0 0 0 0 0 0
          0 0 0 0 0 0
          0 0 0 0 0 0
          0 0 0 0 0 0
          0 0 0 0 0 0
          0 0 0 0 0 0
          0 0 0 0.000015257913110126019 0.0000152872029656777 0.000015316492821229382
          0 0 0 0 0 0
          0 0 0 0 0 0
          0 0 0 0 0 0
          0 0 0 0.00032808426570340575 0.0003281483657602266 0.00032821246581704735
          0.0001048741276473744 0.00010497293903595851 0.00010507175042454264 0.000014686758878101375 0.0000147372554553574 0.000014787752032613423
          0 0 0 0 0 0
          0 0 0 0 0 0
          0 0 0 0 0 0
          0.0006656086904101759 0.0006654880314993216 0.0006653673725884674 0.0003252997990162626 0.0003253431123089763 0.00032538642560169006
          0.00008804447514090173 0.00008816343411115271 0.00008828239308140368 0.000003868996344962981 0.00000390928564688241 0.000003949574948801838
          0 0 0 0 0 0
          0 0 0 0 0 0
          0 0 0 0.0010891332287833928 0.001088731450692137 0.001088329672600881
          0.0006709960050796122 0.0006708366053696057 0.0006706772056595995 0.00026923698099375255 0.0002693903401765657 0.0002695436993593788
          0.00004651488683870029 0.00004664267911146869 0.00004677047138423709 0 0 0
          0 0 0 0 0 0
          0 0 0 0 0 0
          0.001320388124506766 0.0013198372601842812 0.0013192863958617963 0.0008706248412011959 0.0008703584582618206 0.0008700920753224452
          0.0003917585294619044 0.0003919283230415407 0.00039209811662117703 0.00008529178098747462 0.00008546678692917257 0.00008564179287087051
          0 0 0 0 0 0
          0 0 0 0 0 0
          0 0 0 0 0 0
          0 0 0 0 0 0
          0 0 0 0 0 0
          0 0 0 0 0 0
          0 0 0 0 0 0
          0 0 0 0 0 0
          0 0 0 0 0 0
          0 0 0 0 0 0
          0 0 0 0 0 0
          0 0 0 0 0 0
          0 0 0 0 0 0
          0 0 0 0 0 0
          0 0 0 0 0 0
          0 0 0 0 0 0
          0 0 0 0 0 0
          0 0 0 0 0 0
          0 0 0 0 0 0
          0 0 0 0 0 0
          0 0 0 0 0 0
          0 0 0 0 0 0
          0 0 0 0 0 0
          0 0 0 0 0 0
          0 0 0 0 0 0
          0 0 0 0 0 0
          0 0 0 0 0 0
          0 0 0 0 0 0
          0 0 0 0 0 0
          0 0 0 0 0 0
          0 0 0 0 0 0
          0 0 0 0 0 0
          0 0 0 0 0 0
          0 0 0 0 0 0
          0 0 0 0 0 0
          0 0 0 0 0 0
          0 0 0 0 0 0
          0 0 0 0 0 0
          0 0 0 0 0 0
          0 0 0 0 0 0
          0 0 0 0 0 0
          0 0 0 0 0 0
          0 0 0 0 0 0
          0 0 0 0 0 0
          0 0 0 0 0 0
          0 0 0 0 0 0
          0 0 0 0 0 0
          0 0 0
        </DataArray>
        <DataArray type="Float64" Name="pe22" format="ascii" RangeMin="-0.00143095564239204" RangeMax="0">
          -0.0008715406930380158 -0.0009151550450383975 -0.00092849074334508 -0.0009189413216882957 -0.0008716256559040565 -0.0009152097238980585
          -0.0009284999387525858 -0.0009189400745889746 -0.0008717106187700974 -0.0009152644027577192 -0.0009285091341600916 -0.0009189388274896532
          -0.0009047276105170285 -0.0009081865908541136 -0.0008894284187456693 -0.0009000972899905781 -0.0009046657265336178 -0.0009081944556235692
          -0.000889402461921832 -0.0009000495799893636 -0.0009046038425502068 -0.0009082023203930248 -0.0008893765050979946 -0.0009000018699881491
          -0.0008940149093864292 -0.0009123712056944215 -0.0008939921985378874 -0.0009122922748644439 -0.0008939694876893457 -0.0009122133440344661
          -0.0008726697955182889 -0.0007989786853121997 -0.0008567494308992529 -0.0008726666273707424 -0.0007989967007044122 -0.0008567479862965361
          -0.0008726634592231959 -0.0007990147160966245 -0.0008567465416938195 -0.0009663609646504299 -0.0010071773125907284 -0.0010396568170837083
          -0.0009713184078534618 -0.0009662106057403912 -0.00100697672705454 -0.0010395040104991258 -0.0009711995009218265 -0.0009660602468303525
          -0.0010067761415183513 -0.0010393512039145434 -0.0009710805939901913 -0.0009958121414513526 -0.0010324449398834959 -0.0010176578931201195
          -0.0009703864388441565 -0.0009956383639623306 -0.0010322382041724584 -0.0010174377392239463 -0.0009701999472563805 -0.0009954645864733087
          -0.0010320314684614212 -0.0010172175853277727 -0.0009700134556686046 -0.0009264942756208978 -0.0009633355543103807 -0.0009241267236179125
          -0.0009263955229624719 -0.0009632661121108785 -0.0009241397784539378 -0.0009262967703040461 -0.0009631966699113762 -0.0009241528332899632
          -0.000788087336423026 -0.0007882069496278669 -0.000788326562832708 -0.0009781875128770383 -0.0010478249204540831 -0.0009782362907035562
          -0.0010477393582729263 -0.000978285068530074 -0.0010476537960917693 -0.0006905316425144757 -0.0007236791238987039 -0.000690660844532354
          -0.0007237356336558844 -0.0006907900465502324 -0.0007237921434130649 -0.001286541943468265 -0.001350941802082019 -0.001286540909199203
          -0.001351052050974514 -0.001286539874930141 -0.0013511622998670092 -0.0010673692449705212 -0.0011198023448442678 -0.0010436388887504564
          -0.0009927604050060492 -0.0010672276313431913 -0.001119684891517031 -0.0010434477932891755 -0.0009926096295187936 -0.0010670860177158614
          -0.0011195674381897936 -0.001043256697827895 -0.0009924588540315383 -0.0013432074474597087 -0.00134283283251745 -0.0013424582175751915
          -0.0014306722309628244 -0.0014308139366774326 -0.00143095564239204 -0.0008672109180098333 -0.0008673130188795862 -0.0008674151197493391
          -0.0009070840888149523 -0.0009075303150340093 -0.0009069644909130171 -0.0009074283470847604 -0.0009068448930110817 -0.0009073263791355116
          -0.001333546341787181 -0.0011838863122519 -0.001173714869686316 -0.001324439767252069 -0.0013333263448023303 -0.0011834839518011027
          -0.0011734105335798847 -0.0013243035474972081 -0.0013331063478174796 -0.0011830815913503056 -0.001173106197473453 -0.0013241673277423474
          -0.0009273823507225912 -0.0009340404825837653 -0.0009272698585554693 -0.000933956071290208 -0.0009271573663883472 -0.0009338716599966505
          -0.0012934014648766671 -0.0012934621514543421 -0.001293522838032017 -0.001063501285906027 -0.001063262776349972 -0.001063024266793917
          -0.0012774944680261848 -0.0012674958469825347 -0.0012772392339066353 -0.0012673337835108212 -0.001276983999787086 -0.0012671717200391076
          -0.0009562804623335443 -0.0009684189747981879 -0.0009560572765745129 -0.000968253231626414 -0.0009558340908154818 -0.0009680874884546402
          -0.0010574624558524245 -0.0010809048726338527 -0.0010572664080747527 -0.0010806493353922406 -0.0010570703602970808 -0.001080393798150628
          -0.001219040961469112 -0.0012190145845525956 -0.0012189882076360796 -0.001160901463773804 -0.0011605237450748934 -0.001160146026375983
          -0.0011624188901283767 -0.0011622513067796685 -0.0011620837234309607 -0.0010215928897371735 -0.0010214854013649323 -0.001021377912992691
          -0.001194504026335258 -0.0011944927749855 -0.0011944815236357416 -0.0013421636178204983 -0.0013324994914208782 -0.0013415609272705844
          -0.001332305342086611 -0.0013409582367206704 -0.001332111192752344 -0.000924425729652373 -0.0009242956017467408 -0.0009241654738411083
          -0.0009323204161249942 -0.0009509039508811684 -0.0009322138146213499 -0.0009507946172634109 -0.0009321072131177058 -0.0009506852836456536
          -0.0010434576799584004 -0.0011552817290109412 -0.0010432422209055705 -0.0011549809909821086 -0.0010430267618527407 -0.0011546802529532763
          -0.0009410445562069559 -0.0009494489102406401 -0.0009409163105304822 -0.0009493051421436139 -0.0009407880648540085 -0.0009491613740465881
          -0.0011571187369367995 -0.0011569403935870245 -0.0011567620502372499 -0.0013128741259218384 -0.0013130299381937422 -0.0013131857504656464
          -0.0013007650933192546 -0.0013005272984226185 -0.0013002895035259827 -0.0011330164642959356 -0.0012122201050704807 -0.0011327932331568363
          -0.0012119805340470493 -0.0011325700020177372 -0.0012117409630236179 -0.0012485251925521321 -0.0012598407056773856 -0.0012479643898840591
          -0.001258584171684105 -0.0012474035872159861 -0.0012573276376908241 -0.0011353275903259166 -0.00108351065674639 -0.0011566558213602634
          -0.001135182033252811 -0.0010834471301159373 -0.0011564052719903058 -0.0011350364761797058 -0.0010833836034854843 -0.0011561547226203483
          -0.001168431555706482 -0.0011679505975282487 -0.0011674696393500152 -0.0009726074005894883 -0.0009635334624957883 -0.0009725314265554869
          -0.0009633758516221585 -0.0009724554525214853 -0.0009632182407485284 -0.0009404136024248909 -0.0009375581067260895 -0.0009403583001601711
          -0.0009375670115121378 -0.0009403029978954514 -0.0009375759162981858 -0.0010937186704742285 -0.0010938431092665575 -0.0010939675480588868
          -0.0012282845543427762 -0.0012282526153261474 -0.0012282206763095187 -0.0009160015644263762 -0.0009159329581853315 -0.0009158643519442868
          -0.0009740874901419234 -0.0010031046513989035 -0.0009740414086978732 -0.0010030208014138947 -0.0009739953272538231 -0.001002936951428886
          -0.0010409322909292564 -0.0010407583004954206 -0.0010405843100615847 -0.000953747100492068 -0.0009536523374220288 -0.0009535575743519896
          -0.0009189788725005189 -0.0009188643986582543 -0.0009187499248159898 -0.0009461210021735843 -0.000946051590301135 -0.0009459821784286856
          -0.0009419845973979161 -0.0009419778168884414 -0.0009419710363789667 -0.0009307218860804963 -0.0009307161535656803 -0.0009307104210508643
          -0.0005294395494726417 -0.0005294851876115647 -0.0005295308257504879 -0.0006636621095652236 -0.0006637274053215827 -0.0006637927010779421
          -0.0007789234457689774 -0.0007789981345411505 -0.0007790728233133236 -0.0008681917226069731 -0.0008682315103672688 -0.0008682712981275645
          -0.0009056462007144884 -0.0009056593764536023 -0.0009056725521927161 0 0 0
          0 0 0 0 0 0
          0 0 0 0 0 0
          0 0 0 0 0 0
          0 0 0 0 0 0
          0 0 0 0 0 0
          0 0 0 0 0 0
          0 0 0 0 0 0
          0 0 0 0 0 0
          0 0 0 0 0 0
          0 0 0 0 0 0
          0 0 0 0 0 0
          0 0 0 0 0 0
          0 0 0 0 0 0
          0 0 0 0 0 0
          0 0 0 0 0 0
          0 0 0 0 0 0
          0 0 0 0 0 0
          0 0 0 0 0 0
          0 0 0 0 0 0
          0 0 0 -0.000006102000125806902 -0.00000611013794573325 -0.0000061182757656595985
          0 0 0 0 0 0
          0 0 0 0 0 0
          0 0 0 0 0 0
          0 0 0 -0.00014096317727288967 -0.0001409726452283148 -0.0001409821131837399
          -0.00004329689283249526 -0.000043323919506859534 -0.000043350946181223795 -0.000005984449147470223 -0.000006002444172932134 -0.000006020439198394047
          0 0 0 0 0 0
          0 0 0 0 0 0
          0 0 0 0 0 0
          -0.00029815994236197555 -0.00029810243167216867 -0.0002980449209823618 -0.00014087114399022752 -0.0001408646524116117 -0.0001408581608329959
          -0.00003750032400051893 -0.00003753658840084301 -0.000037572852801167085 -0.00000163934967729977 -0.0000016556191626125473 -0.0000016718886479253247
          0 0 0 0 0 0
          0 0 0 0 0 0
          0 0 0 -0.0005076314177813198 -0.0005074188327760523 -0.0005072062477707847
          -0.00030430608554001296 -0.0003041865038876941 -0.0003040669222353753 -0.00011946158393323689 -0.0001194875302135818 -0.00011951347649392666
          -0.000020247723271001272 -0.000020292259589130744 -0.000020336795907260213 0 0 0
          0 0 0 0 0 0
          0 0 0 0 0 0
          -0.0006240781760740543 -0.0006237673969278697 -0.0006234566177816851 -0.00040125966851294764 -0.0004010712660744174 -0.00040088286363588717
          -0.00017589141816037638 -0.0001759067719713418 -0.00017592212578230727 -0.000037216747187403005 -0.00003727328085303639 -0.00003732981451866978
          0 0 0 0 0 0
          0 0 0 0 0 0
          0 0 0 0 0 0
          0 0 0 0 0 0
          0 0 0 0 0 0
          0 0 0 0 0 0
          0 0 0 0 0 0
          0 0 0 0 0 0
          0 0 0 0 0 0
          0 0 0 0 0 0
          0 0 0 0 0 0
          0 0 0 0 0 0
          0 0 0 0 0 0
          0 0 0 0 0 0
          0 0 0 0 0 0
          0 0 0 0 0 0
          0 0 0 0 0 0
          0 0 0 0 0 0
          0 0 0 0 0 0
          0 0 0 0 0 0
          0 0 0 0 0 0
          0 0 0 0 0 0
          0 0 0 0 0 0
          0 0 0 0 0 0
          0 0 0 0 0 0
          0 0 0 0 0 0
          0 0 0 0 0 0
          0 0 0 0 0 0
          0 0 0 0 0 0
          0 0 0 0 0 0
          0 0 0 0 0 0
          0 0 0 0 0 0
          0 0 0 0 0 0
          0 0 0 0 0 0
          0 0 0 0 0 0
          0 0 0 0 0 0
          0 0 0 0 0 0
          0 0 0 0 0 0
          0 0 0 0 0 0
          0 0 0 0 0 0
          0 0 0 0 0 0
          0 0 0 0 0 0
          0 0 0 0 0 0
          0 0 0 0 0 0
          0 0 0 0 0 0
          0 0 0 0 0 0
          0 0 0 0 0 0
          0 0 0
        </DataArray>
        <DataArray type="Float64" Name="pe33" format="ascii" RangeMin="-0.0014124138593081545" RangeMax="0">
          -0.0008820180621636198 -0.0009179747983616515 -0.0009309903276475697 -0.0009266243651015279 -0.0008817966129515194 -0.0009178776526577168
          -0.000930896761568631 -0.0009264470462162575 -0.0008815751637394189 -0.0009177805069537821 -0.0009308031954896926 -0.0009262697273309874
          -0.0009080019841022385 -0.0009187487922074424 -0.0009077108079459811 -0.0009127641787876698 -0.0009084016954105701 -0.000918960099109235
          -0.0009074205707191722 -0.0009126181918979845 -0.0009088014067189019 -0.0009191714060110275 -0.0009071303334923629 -0.0009124722050082993
          -0.0009087861686795499 -0.0009208921914117088 -0.0009084501739517584 -0.0009208504295690997 -0.000908114179223967 -0.0009208086677264906
          -0.0008950730280844214 -0.0008192921532875094 -0.0008755798504576442 -0.0008948610272812932 -0.0008190063512982574 -0.0008751977441000743
          -0.000894649026478165 -0.0008187205493090054 -0.0008748156377425043 -0.0009614992018272217 -0.000997387028931113 -0.001037130426820934
          -0.0009686988843498275 -0.0009621663956926307 -0.0009979914700312068 -0.00103787417535837 -0.0009694372470734337 -0.0009628335895580396
          -0.0009985959111313007 -0.0010386179238958055 -0.0009701756097970396 -0.0009924786549913962 -0.001031791741698595 -0.0010117111231527929
          -0.000965281259859592 -0.0009930499764279855 -0.0010324435554371438 -0.0010123145206009556 -0.0009659714459886628 -0.000993621297864575
          -0.001033095369175693 -0.0010129179180491186 -0.000966661632117734 -0.0009324268412899712 -0.0009796724824435148 -0.0009425616155028062
          -0.000933308372477242 -0.0009806043234689178 -0.0009428397154274076 -0.0009341899036645126 -0.0009815361644943212 -0.000943117815352009
          -0.0008033221438066788 -0.0008031506052393522 -0.0008029790666720256 -0.0010064329047213892 -0.0010745208273803214 -0.0010067496039305379
          -0.0010751728238431188 -0.0010070663031396866 -0.001075824820305916 -0.0007087348474979772 -0.0007441902966079651 -0.0007086497170262448
          -0.0007440494524600619 -0.0007085645865545123 -0.0007439086083121587 -0.0012805248960663345 -0.0013384661529722633 -0.001280552718216516
          -0.0013384496898449735 -0.001280580540366697 -0.0013384332267176837 -0.0010676106027486668 -0.0011177458239811128 -0.0010359179936010308
          -0.000990745974622257 -0.0010683106924471808 -0.0011186292532393057 -0.0010367636460592816 -0.0009914810383053363 -0.001069010782145695
          -0.0011195126824974986 -0.0010376092985175326 -0.000992216101988416 -0.0013379450702800913 -0.0013385831547999179 -0.001339221239319744
          -0.0014124138593081545 -0.001412157407623189 -0.0014119009559382238 -0.0008957813208680417 -0.0008958196829671467 -0.0008958580450662516
          -0.0009128846385008673 -0.0009076620129087014 -0.0009131594072398299 -0.0009084244531821881 -0.0009134341759787924 -0.0009091868934556749
          -0.0013177214188435352 -0.0011870248553334185 -0.001170765987047198 -0.0013073734498287224 -0.0013183039698939972 -0.0011873192230682618
          -0.0011712653236787974 -0.001307990879588981 -0.0013188865209444592 -0.001187613590803105 -0.0011717646603103967 -0.0013086083093492395
          -0.0009314098018291946 -0.000938190162437282 -0.0009318521128898422 -0.0009384741231551586 -0.0009322944239504895 -0.0009387580838730353
          -0.00128710038161352 -0.0012878398292890992 -0.0012885792769646782 -0.0010629168173340083 -0.0010637416400542234 -0.0010645664627744384
          -0.001272456019558704 -0.0012660745682673477 -0.001273673202445085 -0.0012673084999550467 -0.0012748903853314663 -0.0012685424316427457
          -0.0009529056629237068 -0.0009655015164882928 -0.000953595236784678 -0.0009661083559322304 -0.0009542848106456494 -0.0009667151953761681
          -0.0010548540888549256 -0.0010861708964132763 -0.001056177869281322 -0.0010872602051307347 -0.0010575016497077184 -0.001088349513848193
          -0.001217356975661779 -0.0012180856199292306 -0.001218814264196682 -0.0011749469411814787 -0.0011755342614841425 -0.0011761215817868063
          -0.0011630661640075885 -0.001163738484508921 -0.0011644108050102532 -0.0010314808801939386 -0.0010328930100291654 -0.0010343051398643923
          -0.0011909934359017346 -0.0011922894002665114 -0.0011935853646312879 -0.001340587949686157 -0.0013318647484519665 -0.0013409416616928767
          -0.0013316533741213736 -0.0013412953736995962 -0.0013314419997907806 -0.0009268674615618768 -0.000927552413306832 -0.0009282373650517874
          -0.0009333631892408838 -0.0009482798080035128 -0.0009342517533310904 -0.0009491721375659169 -0.000935140317421297 -0.0009500644671283208
          -0.0010341510061199093 -0.0011433769305529988 -0.0010352963911284651 -0.001144476828964479 -0.001036441776137021 -0.001145576727375959
          -0.0009426184075521808 -0.000948520274123015 -0.0009428667734442213 -0.0009489374380352728 -0.0009431151393362618 -0.0009493546019475308
          -0.0011448279281146613 -0.0011461718621406487 -0.001147515796166636 -0.0013120504175977326 -0.001311494286823092 -0.0013109381560484517
          -0.0012890585414043838 -0.0012900535479137111 -0.0012910485544230382 -0.0011305745896675963 -0.0012054426572866263 -0.001131489961092681
          -0.001206023856586424 -0.0011324053325177659 -0.0012066050558862216 -0.001246391289172715 -0.0012574448291795453 -0.0012471703453498203
          -0.0012590878443948874 -0.0012479494015269258 -0.0012607308596102294 -0.0011331251595895228 -0.0010848388671080172 -0.0011571415437643905
          -0.0011340754562729075 -0.0010855463884390953 -0.0011579648241577026 -0.0011350257529562922 -0.0010862539097701734 -0.0011587881045510154
          -0.0011702897299984837 -0.001171120919864444 -0.0011719521097304044 -0.0009723821148296583 -0.0009588804209743691 -0.0009739671846376463
          -0.0009599499192717617 -0.0009755522544456342 -0.0009610194175691542 -0.0009391425966609249 -0.0009361370276251271 -0.000939343971398011
          -0.0009361999495833827 -0.0009395453461350972 -0.000936262871541638 -0.0010960697469771577 -0.0010966412999104333 -0.0010972128528437086
          -0.0012239513875781502 -0.0012241666849425895 -0.0012243819823070286 -0.000912544134017312 -0.000913582408250372 -0.0009146206824834322
          -0.0009741244875085368 -0.0010047329636323063 -0.0009746076612339368 -0.001005114550320266 -0.0009750908349593369 -0.001005496137008226
          -0.0010426407314004706 -0.001043329836215868 -0.0010440189410312654 -0.0009526483165545323 -0.0009532003023127381 -0.0009537522880709438
          -0.0009168962045113243 -0.0009177916439196371 -0.0009186870833279501 -0.0009449695768534306 -0.0009453491454144489 -0.0009457287139754671
          -0.0009406329528819221 -0.0009407085426234555 -0.0009407841323649887 -0.000931366595470738 -0.0009312871931033029 -0.0009312077907358677
          -0.0005621260676194078 -0.000562038666423108 -0.0005619512652268085 -0.0006909094673674849 -0.000690779023182323 -0.000690648578997161
          -0.000797091164755196 -0.0007969497635272956 -0.0007968083622993953 -0.000877995070149221 -0.0008779076089513876 -0.0008778201477535542
          -0.0009120586915675483 -0.0009120207641847631 -0.0009119828368019777 0 0 0
          0 0 0 0 0 0
          0 0 0 0 0 0
          0 0 0 0 0 0
          0 0 0 0 0 0
          0 0 0 0 0 0
          0 0 0 0 0 0
          0 0 0 0 0 0
          0 0 0 0 0 0
          0 0 0 0 0 0
          0 0 0 0 0 0
          0 0 0 0 0 0
          0 0 0 0 0 0
          0 0 0 0 0 0
          0 0 0 0 0 0
          0 0 0 0 0 0
          0 0 0 0 0 0
          0 0 0 0 0 0
          0 0 0 0 0 0
          0 0 0 0 0 0
          0 0 0 -0.000009155912984319118 -0.00000917706501994445 -0.000009198217055569782
          0 0 0 0 0 0
          0 0 0 0 0 0
          0 0 0 0 0 0
          0 0 0 -0.00018712108843051606 -0.00018717572053191173 -0.0001872303526333074
          -0.00006157723481487914 -0.00006164901952909899 -0.00006172080424331884 -0.00000870230973063115 -0.000008734811282425262 -0.000008767312834219374
          0 0 0 0 0 0
          0 0 0 0 0 0
          0 0 0 0 0 0
          -0.0003674487480482002 -0.0003673855998271528 -0.00036732245160610543 -0.00018442865502603508 -0.00018447845989736462 -0.00018452826476869416
          -0.00005054415114038278 -0.0000506268457103097 -0.00005070954028023661 -0.0000022296466676632092 -0.0000022536664842698614 -0.000002277686300876514
          0 0 0 0 0 0
          0 0 0 0 0 0
          0 0 0 -0.000581501811002073 -0.0005813126179160847 -0.0005811234248300962
          -0.0003666899195395992 -0.00036665010148191163 -0.000366610283424224 -0.0001497753970605156 -0.00014990280996298382 -0.00015003022286545206
          -0.000026267163567699 -0.00002635041952233794 -0.000026433675476976883 0 0 0
          0 0 0 0 0 0
          0 0 0 0 0 0
          -0.0006963099484327118 -0.0006960698632564116 -0.0006958297780801112 -0.0004693651726882483 -0.00046928719218740307 -0.00046920921168655777
          -0.00021586711130152796 -0.00021602155107019883 -0.00021617599083886968 -0.000048075033800071584 -0.00004819350607613616 -0.00004831197835220074
          0 0 0 0 0 0
          0 0 0 0 0 0
          0 0 0 0 0 0
          0 0 0 0 0 0
          0 0 0 0 0 0
          0 0 0 0 0 0
          0 0 0 0 0 0
          0 0 0 0 0 0
          0 0 0 0 0 0
          0 0 0 0 0 0
          0 0 0 0 0 0
          0 0 0 0 0 0
          0 0 0 0 0 0
          0 0 0 0 0 0
          0 0 0 0 0 0
          0 0 0 0 0 0
          0 0 0 0 0 0
          0 0 0 0 0 0
          0 0 0 0 0 0
          0 0 0 0 0 0
          0 0 0 0 0 0
          0 0 0 0 0 0
          0 0 0 0 0 0
          0 0 0 0 0 0
          0 0 0 0 0 0
          0 0 0 0 0 0
          0 0 0 0 0 0
          0 0 0 0 0 0
          0 0 0 0 0 0
          0 0 0 0 0 0
          0 0 0 0 0 0
          0 0 0 0 0 0
          0 0 0 0 0 0
          0 0 0 0 0 0
          0 0 0 0 0 0
          0 0 0 0 0 0
          0 0 0 0 0 0
          0 0 0 0 0 0
          0 0 0 0 0 0
          0 0 0 0 0 0
          0 0 0 0 0 0
          0 0 0 0 0 0
          0 0 0 0 0 0
          0 0 0 0 0 0
          0 0 0 0 0 0
          0 0 0 0 0 0
          0 0 0 0 0 0
          0 0 0
        </DataArray>
        <DataArray type="Float64" Name="disp_x" format="ascii" RangeMin="0.00007387073985606806" RangeMax="0.00014">
          0.00009707653882625003 0.00009506980052010853 0.00009171050850911252 0.00009206188949628784 0.00009707598247578405 0.00009506964330819786
          0.00009171028480313499 0.00009206173883387945 0.00009707435787038347 0.00009506925159266323 0.00009170964730064337 0.00009206134814606556
          0.00008928886909802838 0.00009035001358902388 0.00009313351060084292 0.00009148047693788559 0.00008928897257728692 0.00009034995832626731
          0.00009313341035637802 0.00009148059856418759 0.00008928936005007747 0.00009034977519516001 0.000093133272236138 0.00009148116972666851
          0.00009387488903437101 0.00009104159025623229 0.00009387470489801937 0.00009104178319566644 0.00009387395334144348 0.00009104226619489577
          0.0000943876046562267 0.00009770222269519484 0.00009603504325422 0.00009438724206151472 0.0000977009538857129 0.00009603424851367509
          0.00009438633138219892 0.00009769711609742403 0.00009603161617802209 0.00008574165414278973 0.0000839893210239243 0.0000822233790995567
          0.00008479505761120491 0.00008574106764679645 0.00008398852706053074 0.00008222229397247872 0.00008479429324728662 0.00008573941991061992
          0.00008398598101008767 0.00008221938538395188 0.00008479210859453123 0.0000852869449631365 0.00008337768101329347 0.00008377041567535299
          0.00008626199740982203 0.00008528619759717683 0.00008337661859948188 0.00008376960852154665 0.00008626150183363024 0.00008528408104184651
          0.00008337394964321083 0.00008376691072031945 0.00008625980895954414 0.0000877766376102497 0.00008799101214766256 0.00009106567134919753
          0.00008777636731770428 0.00008799027554483894 0.00009106530253281106 0.00008777556531241169 0.00008798846517237536 0.00009106378357297054
          0.00009898076076341439 0.00009897993861425136 0.00009897740136115741 0.00009117673620582446 0.00008782579151873595 0.00009117553401847428
          0.00008782431464206501 0.00009117161522434994 0.00008781978712009119 0.00010071409264778861 0.00009924210435920293 0.00010071304135044479
          0.00009924063621211147 0.00010070978267185245 0.00009923610690794828 0.00007641195286972964 0.00007508233805126619 0.0000764099269046408
          0.00007508000479799038 0.00007640351697035583 0.00007507316072548109 0.00008107746710912618 0.00007970187161196007 0.00008221384859503596
          0.00008359290294978988 0.000081076114078664 0.00007970037342307626 0.00008221256930458888 0.00008359185084454905 0.0000810718338990828
          0.00007969598539850223 0.00008220892838169382 0.00008358852902823225 0.00008104323038074487 0.00008104133581660671 0.00008103552770279474
          0.00007388176616833322 0.00007387907161834402 0.00007387073985606806 0.00009545108446779659 0.00009544990972519437 0.00009544650688487417
          0.00008945409962742155 0.00008790951033632023 0.00008945433112964616 0.00008790946334973636 0.00008945472894387804 0.00008790960030937927
          0.00008015197627963706 0.00008234393978403131 0.00008133582146419944 0.00007910675138302776 0.00008014997725995958 0.00008234155740974227
          0.00008133319801306993 0.00007910431917482957 0.00008014434433535512 0.00008233509654965331 0.00008132510797645742 0.00007909716055850667
          0.0000882749611515243 0.00008898293390683696 0.00008827497420737615 0.00008898298100691226 0.00008827479570222467 0.00008898305003017702
          0.00007624851042741249 0.00007624581190561616 0.00007623742329717175 0.00008166853162246937 0.00008166752076683841 0.00008166469050102056
          0.00007747921643857359 0.0000770052736101617 0.00007747634915871588 0.00007700257116672665 0.00007746744251061511 0.00007699340286914934
          0.00008753140252898643 0.00008700102202647623 0.0000875312355003329 0.00008700060237460545 0.0000875305605327798 0.00008699896874011567
          0.00008335353978464817 0.00008369868539761847 0.00008335120868060362 0.00008369608736025266 0.00008334408655603464 0.00008368592337396253
          0.00007746831021314636 0.00007746632422421397 0.00007746044429942675 0.00008431922366758775 0.00008431703822143592 0.00008431010620663216
          0.00007869188300295519 0.00007869011207825052 0.00007868458227445571 0.00008542253069525803 0.00008542065595068424 0.00008541464887575894
          0.00007817084258146703 0.00007816870968656245 0.00007816255612224254 0.00007556242793790761 0.00007565462235966587 0.00007555765515511313
          0.00007565320322923139 0.00007555317459010096 0.00007564816473622404 0.00008720484949896744 0.00008720479381725101 0.00008720433533139605
          0.00008599271418781704 0.00008517772939864698 0.00008599226103029699 0.00008517673235504375 0.00008599063842947517 0.00008517341925404306
          0.00008282171797864106 0.00008053873799307654 0.00008282034811786808 0.00008053649973244366 0.00008281646373702857 0.00008052954418658146
          0.00008916386263508421 0.00008878054949541126 0.00008916390886094305 0.00008878029647030208 0.0000891637603146054 0.00008877963116905434
          0.00007956262457543921 0.0000795607234904903 0.00007955478576031274 0.00007584774061003457 0.00007584573511151188 0.00007584005923874678
          0.00007821134622690049 0.00007820862709557955 0.0000782000782384452 0.00007950710322425003 0.00007792375183569871 0.00007950553886743981
          0.0000779217873234355 0.00007950039104228623 0.00007791532862826631 0.00007760203623698232 0.00007757147799216368 0.00007759958342129667
          0.0000775726675057986 0.00007759331295818194 0.00007756693508264738 0.00007968478201079731 0.00008147631829052476 0.00007954857948053835
          0.00007968324487662007 0.00008147519273111254 0.00007954675237772849 0.00007967829090468237 0.00008147128273127494 0.00007954155985385277
          0.0000794904945536749 0.0000794891849883214 0.0000794839924735842 0.00008545447487852149 0.00008515487523404284 0.00008545354014908546
          0.0000851539502998831 0.00008545060189909729 0.00008515072081744159 0.0000906316374927616 0.0000915851389422107 0.00009063154183841026
          0.00009158505187689587 0.00009063071799238651 0.00009158491333755119 0.0000813176963585745 0.00008131627248780086 0.00008131212659054046
          0.0000777811118184336 0.00007777922687790766 0.00007777256181171006 0.0000868027477587884 0.0000868024548042278 0.00008680093867122081
          0.00008648141947322556 0.0000847991464001439 0.00008648079563225725 0.0000847984142057744 0.00008647869333940197 0.0000847960428549571
          0.00008308132622088268 0.00008308070489985493 0.0000830779882731092 0.00008813330879154725 0.00008813307855747599 0.00008813202319471111
          0.00008726872975417334 0.0000872684626674668 0.00008726708102841693 0.00008976743537614659 0.00008976751018316444 0.00008976740929695585
          0.00009140197260250801 0.00009140207497943651 0.00009140238466118258 0.00009303793735266242 0.00009303801390444507 0.00009303795975324823
          0.00010500222259429202 0.00010500128228400542 0.00010499848481782118 0.00010365382089159807 0.00010365309881185058 0.00010365091012088401
          0.00010204538126971497 0.00010204484706986739 0.00010204318906006007 0.00010023920870406266 0.00010023894608697107 0.00010023809018266231
          0.00009833063996134565 0.0000983306270264905 0.00009833048791491709 0.00011525908740311346 0.00011520753026013194 0.00011525903727330139
          0.00011520748217189724 0.00011525888467992952 0.00011520734797796186 0.00011712899459755456 0.00011706138118594327 0.00011712891816157292
          0.00011706130785465526 0.00011712868814949805 0.0001170610831241338 0.00011899472990651945 0.00011891445783893478 0.00011899464049001464
          0.000118914371654802 0.00011899437487330894 0.00011891411630793635 0.00012086077346796072 0.00012077209021819591 0.00012086067731478249
          0.00012077199670030821 0.00012086039054029004 0.00012077171788932153 0.00012272825853798153 0.00012263658713350614 0.0001227281613855967
          0.00012263649227962675 0.000122727871799008 0.00012263621066603444 0.00012459577276002052 0.0001245077671781972 0.00012459567882559886
          0.00012450767597552734 0.00012459539799658404 0.00012450740353608364 0.0001264602166039973 0.00012638373967711972 0.0001264601310902162
          0.00012638365582540073 0.0001264598754863859 0.00012638340572267967 0.00012831772018581536 0.00012826171861323406 0.0001283176433443465
          0.0001282616432910056 0.0001283174135298441 0.000128261418141145 0.00011536671514081586 0.00011536665925159237 0.00011536650767686225
          0.00011726458444088139 0.00011726449724043522 0.00011726422898795854 0.00011915421453307161 0.00011915411588767576 0.00011915382586298433
          0.00012103914097659135 0.00012103903578895596 0.00012103872193936228 0.0001229190047432561 0.0001229189003147134 0.0001229185896267386
          0.00012479078398235834 0.0001247906830660668 0.00012479038153505784 0.00012664971172862078 0.00012664962261656776 0.00012664935699009425
          0.0001284902624821668 0.00012849018224122614 0.00012848994277866855 0.0001155415852184366 0.00011554147346066387 0.00011554112282505209
          0.00011748011419322845 0.00011748002392167823 0.00011747976381507909 0.00011940578585857732 0.0001194056672424676 0.00011940530961352172
          0.0001213205684688502 0.0001213204502238998 0.0001213200992020442 0.00012322218398869812 0.00012322206747388974 0.00012322171911160058
          0.0001251056787503191 0.0001251055662503667 0.00012510522954146247 0.00012696444652654125 0.0001269643516212495 0.0001269640680026268
          0.00012879116033600612 0.00012879107469572138 0.00012879081872693715 0.00011580226947806532 0.00011580220746285737 0.00011580203095387313
          0.00011779665783401318 0.00011779650555898932 0.00011779603514143068 0.0001197717071242988 0.00011977157857390575 0.00011977120255523402
          0.00012172794419806386 0.00012172780199899885 0.0001217273731140771 0.00012366009859833739 0.0001236599666185871 0.00012365957423643068
          0.00012556142763122663 0.00012556129859978615 0.00012556091074111453 0.00012742380569376815 0.0001274237042160997 0.00012742340288187266
          0.00012923823728599229 0.00012923814567212765 0.00012923787290753698 0.00011617958250551099 0.00011617950080641628 0.00011617926576881462
          0.00011824590477532156 0.00011824576638409169 0.00011824535422241166 0.00012028563983023006 0.00012028545486321861 0.00012028489459145997
          0.00012229419930448202 0.00012229404384158756 0.00012229358352945798 0.00012426351333613854 0.00012426335866526375 0.00012426289431648413
          0.00012618587678281688 0.00012618572624207297 0.00012618527364896537 0.00012805240368215365 0.00012805229094730566 0.00012805195347772525
          0.00012985233384569487 0.00012985223228462693 0.00012985192726938666 0.00011431580650451682 0.00011431463087227494 0.00011431107139481275
          0.00011671594853079527 0.00011671527021543436 0.00011671322907492601 0.00011887653605275351 0.0001188763338472234 0.0001188757657039804
          0.00012099311442589202 0.0001209929384453467 0.00012099240661677441 0.000123061179255807 0.0001230609751873725 0.00012306035736603016
          0.00012507021014654168 0.0001250700380161485 0.00012506952857979428 0.00012701266542495187 0.00012701248381654206 0.00012701193346983881
          0.00012887782188260693 0.00012887771210151405 0.00012887739500856146 0.0001306525019433395 0.00013065240360756464 0.0001306521159860509
          0.00011438404845981527 0.00011438271277986155 0.00011437871364758334 0.00011731446213981141 0.00011731306279094332 0.00011730883345049615
          0.00011975140363201061 0.00011975065134866668 0.00011974838034282475 0.00012194377539950045 0.00012194359697651296 0.00012194310335933623
          0.00012407545439557967 0.00012407527680666176 0.00012407473035197807 0.0001261266812971903 0.00012612646267521545 0.00012612581108543023
          0.00012808290520675112 0.00012808267140200537 0.00012808196022790326 0.0001299311477640646 0.00012993098702491045 0.00012993049990447643
          0.00013164949772631355 0.00013164936003133063 0.00013164894066298552 0.00011424768754004075 0.00011424634464662686 0.00011424233578103157
          0.00011788041342250649 0.00011787851350831036 0.00011787281418377392 0.0001208115267389258 0.000120809951999684 0.00012080522286030292
          0.0001231910458757333 0.0001231905162244983 0.00012318898028284298 0.0001253932662530905 0.00012539311548145262 0.00012539269595587138
          0.00012749321730652586 0.0001274929573166036 0.00012749217221051323 0.00012945818028303 0.00012945788192036 0.00012945698583654596
          0.00013124521869345443 0.00013124514571612178 0.0001312449692215716 0.00013281875392031627 0.00013281868742589078 0.00013281850088444166
          0.00011394259963643449 0.00011394119503921306 0.00011393698739155867 0.00011841003530510056 0.00011840759733455445 0.00011840023827563218
          0.00012196083441522323 0.00012195847751413322 0.00012195130363747025 0.00012472893998534857 0.00012472771621035387 0.00012472392566373434
          0.00012708113197534057 0.00012708082354093468 0.00012707991457713957 0.00012928909885269368 0.00012928875789770133 0.00012928774911446237
          0.0001312674131628519 0.00013126682389335423 0.0001312649895894275 0.0001328954556476148 0.00013289517482096102 0.00013289432388252845
          0.00013405333688649648 0.00013405330549640402 0.00013405320037915733 0.00012957454824406468 0.00012962664043563718 0.00012957448024861874
          0.00012962657114987355 0.00012957427753871928 0.00012962636405456428 0.000129786473111143 0.0001297863996767466 0.00012978617996683764
          0.0001300636492072186 0.00013006356955601255 0.00013006333056750726 0.0001304720912181913 0.00013047200340502297 0.00013047173803084635
          0.00013102658761301363 0.0001310264922373918 0.00013102620363468942 0.000131737258612419 0.0001317371503178501 0.00013173681294823914
          0.00013259577268621907 0.000132595676032862 0.00013259538323332634 0.00013355479077679209 0.00013355464935713762 0.00013355416252039585
          0.00013433452420307649 0.00013433482962579995 0.00013433576420711853 0.00013088612069599436 0.00013093353665843383 0.00013088606046052307
          0.00013093347596794186 0.00013088588069251102 0.00013093329493334176 0.00013107858652627158 0.00013107852485326019 0.0001310783415521196
          0.0001313289213535195 0.00013132885886282133 0.00013132867407673066 0.0001316951231221716 0.00013169506148779774 0.00013169488087777157
          0.00013218702098560518 0.00013218696528193016 0.00013218680451610834 0.00013280665835492994 0.00013280661717686456 0.000132806503551275
          0.00013353428100035166 0.00013353429247975497 0.0001335343465631982 0.0001342894185249888 0.00013428951097943132 0.00013428981864147893
          0.00013478670007597952 0.000134787234769834 0.00013478892621991606 0.00013219562306672695 0.00013223768627755215 0.00013219557120965303
          0.00013223763419832317 0.00013219541677509606 0.00013223747887930896 0.00013236607487137204 0.0001323660220532999 0.00013236586438233585
          0.00013258674771023297 0.00013258669447090976 0.00013258653500972773 0.0001329074901283796 0.0001329074384603635 0.0001329072827775432
          0.00013333399393597667 0.0001333339480994742 0.0001333338083199335 0.0001338623799881546 0.0001338623521769571 0.00013386226433959294
          0.00013446323506700045 0.00013446324199473355 0.00013446325374082965 0.0001350424307403401 0.00013504251841994284 0.00013504276041947745
          0.00013536891608084865 0.0001353691510272476 0.0001353698082119605 0.00013350251321271787 0.0001335386095800284 0.00013350247008631893
          0.00013353856635607886 0.0001335023413045767 0.00013353843751206054 0.00013364858976380097 0.00013364854645971625 0.00013364841781790795
          0.00013383696597705458 0.00013383692357013682 0.00013383679767920082 0.00013410919386274399 0.00013410915471617326 0.00013410903863188368
          0.0001344677727130472 0.00013446774215713594 0.00013446765251111137 0.00013490459485013834 0.0001349045825408333 0.00013490454840466256
          0.00013538532277008013 0.00013538534628032992 0.000135385423170213 0.00013582051867273528 0.0001358206052242484 0.00013582087213819894
          0.00013603765812002268 0.00013603784914179256 0.00013603845455634653 0.00013480655228677207 0.0001348361380964633 0.00013480651800272577
          0.00013483610374483149 0.00013480641537266124 0.00013483600127358114 0.00013492615487445463 0.00013492612073488978 0.00013492601927087193
          0.0001350798876800675 0.0001350798549609281 0.00013507975744893083 0.00013530092983396344 0.000135300901001148 0.0001353008145806096
          0.00013558953615568276 0.00013558951577019617 0.00013558945434223867 0.00013593551306256228 0.00013593550919178529 0.0001359354972346618
          0.00013630529276268273 0.00013630531809979225 0.00013630539309752573 0.0001366237563072775 0.00013662382839443256 0.00013662404191999063
          0.00013676816833753494 0.00013676829731010956 0.00013676867695125235 0.00013610781874200874 0.00013613043385141328 0.0001361077930919614
          0.00013613040824855263 0.00013610771643581096 0.00013613033190490093 0.00013619916784152 0.0001361991426173349 0.00013619906767917605
          0.00013631627750812777 0.00013631625374757895 0.00013631618305948146 0.0001364839432634021 0.0001364839230747828 0.0001364838627479065
          0.0001367011776046559 0.00013670116461747195 0.00013670112586383675 0.00013695801243371659 0.00013695801255615554 0.0001369580134165419
          0.0001372260980885718 0.00013722611997967773 0.00013722618720727472 0.0001374485080290387 0.0001374485611265084 0.00013744872212379978
          0.00013754211997594326 0.000137542205912536 0.0001375424718452389 0.00013740669186162956 0.00013742197599667412 0.0001374066746953994
          0.00013742195895382987 0.0001374066237103495 0.00013742190830460662 0.00013746839301011509 0.00013746837640081936 0.00013746832704269798
          0.0001375473403077061 0.00013754732493647152 0.0001375472789957228 0.00013765999695556556 0.00013765998432389178 0.0001376599462059923
          0.0001378050845099117 0.0001378050771113507 0.00013780505446118566 0.0001379748220279143 0.000137974823665446 0.00013797482836748755
          0.00013814898121358192 0.0001381489971676029 0.00013814904546858548 0.00013828977687745428 0.00013828981201803508 0.00013828991803351728
          0.00013834590047184607 0.00013834595453643511 0.00013834611861928656 0.00013870380966052906 0.0001387115150399091 0.000138703800956939
          0.00013871150641145828 0.00013870377539434682 0.0001387114810516316 0.00013873490442504986 0.0001387348961105765 0.00013873487155728552
          0.00013877464210669023 0.00013877463459295106 0.00013877461202025545 0.00013883122873741826 0.0001388312227815567 0.0001388312044690108
          0.00013890382776779843 0.00013890382457316952 0.0001389038143501107 0.00013898820656728277 0.0001389882078807862 0.0001389882115116685
          0.00013907389302654863 0.0001390739011981388 0.00013907392628517435 0.00013914212026493267 0.0001391421374022049 0.00013914218977428868
          0.00013916842155460354 0.00013916844702837404 0.00013916852595387597 0.00014 0.00014 0.00014
          0.00014 0.00014 0.00014 0.00014 0.00014 0.00014
          0.00014 0.00014 0.00014 0.00014 0.00014 0.00014
          0.00014 0.00014 0.00014 0.00014 0.00014 0.00014
          0.00014 0.00014 0.00014 0.00014 0.00014 0.00014
          0.00014 0.00014 0.00014
        </DataArray>
        <DataArray type="Float64" Name="disp_y" format="ascii" RangeMin="-0.000021219361901571853" RangeMax="0">
          -0.000009154315263036958 -0.000011020286204802823 -0.000012616771156073071 -0.00001192079371549779 -0.00000915392588241922 -0.000011020129521779777
          -0.000012616764919525809 -0.000011920780092840931 -0.00000915272953549907 -0.000011019596860597051 -0.00001261677070996341 -0.000011920606609914197
          -0.000011806864087624757 -0.000010808819797222649 -0.000009557714971524852 -0.000010924518696637095 -0.000011807037421841847 -0.000010809014742215884
          -0.000009557623448191163 -0.000010924571673870915 -0.000011807595397419316 -0.000010809520125784232 -0.000009557335699622075 -0.000010924612539689322
          -0.00001008539767187403 -0.000011927559748259519 -0.000010085276713796883 -0.000011927509467603043 -0.000010085121709753728 -0.00001192758327794254
          -0.000008295782744312532 -0.000006861501356938249 -0.000008405002077092213 -0.000008295496947596916 -0.000006860945149034155 -0.0000084046088237266
          -0.000008294717207246807 -0.000006859187395604305 -0.000008403508104811623 -0.000015067403461592518 -0.000016086823595561618 -0.00001681321704237122
          -0.000015222635207678836 -0.000015066964776104634 -0.000016086216101678386 -0.000016812589643386683 -0.000015222191364839284 -0.000015065663268145089
          -0.000016084155457907398 -0.00001681070339466641 -0.000015220560413865579 -0.000016108824273167624 -0.00001700700140879309 -0.000016459903083360158
          -0.000015219584474419302 -0.00001610826156219001 -0.000017006332427234316 -0.000016459257381557944 -0.000015219114113460375 -0.00001610638932664971
          -0.00001700429142949376 -0.0000164574810398908 -0.000015217795715423592 -0.00001203392576202106 -0.00001140179342414193 -0.000009887013832325671
          -0.00001203429080304462 -0.000011402606579250555 -0.000009887324791304552 -0.000012035423552373884 -0.000011405007394917713 -0.000009888305332877028
          -0.000007369105396036827 -0.000007368371141427148 -0.000007366177065670288 -0.00000918383321205087 -0.000010799758099775919 -0.000009184655047014876
          -0.000010800919556936706 -0.00000918730983072078 -0.000010804820476737665 -0.000005705524721014319 -0.000005385038272366975 -0.000005704684559061413
          -0.000005384278114635825 -0.000005702240841386467 -0.000005382094995882739 -0.000019821244118025313 -0.00002022434568331164 -0.00001981994318879124
          -0.000020223362246061685 -0.000019816013309576045 -0.00002022002306933903 -0.000017019615246139985 -0.00001741327376559863 -0.000015766841620162347
          -0.000015505862038068486 -0.000017018869961637632 -0.000017412605621569325 -0.000015766442248390315 -0.000015505292847856985 -0.000017016818103005192
          -0.00001741061134383454 -0.000015765149072045763 -0.000015503714622564294 -0.000013063102573525477 -0.000013063671668785679 -0.00001306575701344403
          -0.00002052890865642857 -0.000020528244201714033 -0.000020526192371885094 -0.000006959236281074952 -0.000006959052399666102 -0.000006958468829560384
          -0.000012344435801690464 -0.000012846935553901595 -0.00001234434886924835 -0.000012846845077610856 -0.000012344297596387558 -0.00001284651233184209
          -0.000014336975749308097 -0.000013879548840470058 -0.000014928608215052532 -0.000015612888067643405 -0.000014337251341096346 -0.000013880084240393055
          -0.000014929337504402392 -0.00001561322945998755 -0.000014337605429736621 -0.000013881353231777908 -0.000014932301999896257 -0.000015614160598088545
          -0.000013596564926504712 -0.000013643612324141076 -0.000013596304788569166 -0.000013643459963700728 -0.000013595589591397767 -0.000013643066576410532
          -0.00001913617003442119 -0.000019135378278381792 -0.00001913308217569387 -0.000017500251398008847 -0.000017499356097401972 -0.000017497044927472596
          -0.000017737970181140845 -0.000018319950906832922 -0.00001773791070064464 -0.00001831937145433695 -0.00001773771655010295 -0.00001831825576037019
          -0.00001480681551289468 -0.00001532573432002861 -0.00001480642640767087 -0.00001532532567244786 -0.000014805613945889568 -0.000015323877116188185
          -0.000014133614842404584 -0.00001356225133093056 -0.000014134023282529266 -0.000013562828382235693 -0.000014135319970766714 -0.000013564744468128233
          -0.000018799188161425654 -0.000018798268609324767 -0.000018795288999177015 -0.000012374562523491948 -0.000012375550832454513 -0.000012378337473015732
          -0.000018447226853038285 -0.000018446195032920524 -0.000018443308952369882 -0.000012670204251795013 -0.000012670859218851208 -0.000012673346157857766
          -0.000017925677536979834 -0.00001792495413466853 -0.00001792263800036233 -0.000021219361901571853 -0.000020881977320170097 -0.000021219173834103394
          -0.000020880662368305742 -0.000021215175305609082 -0.00002087687230299589 -0.000013771544311316667 -0.00001377117052454433 -0.000013770243636763088
          -0.000014063068112013648 -0.000014141251449041905 -0.000014062701327919735 -0.000014141006262965502 -0.000014061704491181727 -0.000014140304810082685
          -0.000014887505658163727 -0.000015901248032553557 -0.000014887252782583192 -0.000015901559587920254 -0.000014886640582229606 -0.000015902641650045167
          -0.00001393502189761755 -0.000014485432786979613 -0.000013934809519641198 -0.000014485241377172149 -0.000013934480400279638 -0.000014484721720716651
          -0.00001688616521455119 -0.000016885708564772247 -0.000016884497228438514 -0.000020486673282002382 -0.000020485183737734294 -0.00002048135959693166
          -0.0000167824114303213 -0.00001678258729473824 -0.000016783477706910052 -0.00001830502186985831 -0.000019213509430046653 -0.000018304001307377813
          -0.00001921237433760427 -0.00001830149112939573 -0.00001920823499646168 -0.00001987856686008973 -0.000020188928292111156 -0.000019876886288216077
          -0.00002018672100638953 -0.000019873289592125776 -0.00002017996169204426 -0.000018508749928337816 -0.00001793355361845262 -0.00001888794499349608
          -0.00001850751283099317 -0.000017932515918450245 -0.000018886713120290478 -0.000018503710862731196 -0.00001792971631310406 -0.000018882088071016896
          -0.00001923163602833709 -0.000019230691932588612 -0.00001922747216056208 -0.00001314537389652807 -0.000013743920457333463 -0.000013145448223087334
          -0.000013743631626513291 -0.000013145271935544006 -0.000013742757312191474 -0.00001360429553434131 -0.000013246718257776372 -0.000013604159084626252
          -0.000013246517516340853 -0.00001360396675762907 -0.000013246100239833435 -0.000018343157083754093 -0.000018342018939925056 -0.00001833911808153146
          -0.00001949780386936859 -0.00001949643703073984 -0.0000194923373244314 -0.000013229459783061355 -0.00001322915590623457 -0.000013228462949493371
          -0.00001591288958776376 -0.000016695056373092523 -0.000015912375419861677 -0.000016694357897105984 -0.000015911070237835537 -0.000016692743687740597
          -0.00001750021387779917 -0.000017499410656793472 -0.000017496917416500898 -0.000015153489439017419 -0.000015153263850328873 -0.000015152974971093072
          -0.000012714374713058407 -0.000012714280822734101 -0.000012714580690589444 -0.000014404213301966537 -0.000014403970040938489 -0.000014403459280717698
          -0.000013660966468661277 -0.000013660408579380515 -0.000013658855121626681 -0.00001292757240910307 -0.000012927198179609608 -0.00001292629630638406
          -0.00000394550294225986 -0.0000039444451745558625 -0.000003941264534793705 -0.000005363896770230244 -0.0000053630214580567 -0.0000053604081753893455
          -0.000006976733326167017 -0.000006976032917616805 -0.000006973983689639342 -0.000008744092283260795 -0.00000874358797754717 -0.000008742120590393081
          -0.000010614667651155748 -0.000010614252705331067 -0.000010613149231580899 -3.273957156346148e-7 0 -3.273710606259864e-7
          0 -3.272943544228171e-7 0 -3.619604657508951e-7 0 -3.619452101991846e-7
          0 -3.619005453803371e-7 0 -4.161326497788199e-7 0 -4.1612217239520163e-7
          0 -4.160896480174358e-7 0 -4.853398625131063e-7 0 -4.85335030130846e-7
          0 -4.85320214509448e-7 0 -5.653115961488209e-7 0 -5.653117747194329e-7
          0 -5.653120817025437e-7 0 -6.523421291998977e-7 0 -6.52347239304463e-7
          0 -6.523619820047818e-7 0 -7.432742310248233e-7 0 -7.432835907044279e-7
          0 -7.433116135048077e-7 0 -8.355779355269603e-7 0 -8.355897146811381e-7
          0 -8.356245009381352e-7 0 -6.55395657930407e-7 -6.553638139917302e-7 -6.552732845262039e-7
          -7.255482059832918e-7 -7.255146627627887e-7 -7.25411708107479e-7 -8.352227360967262e-7 -8.352053920259763e-7 -8.351551484173024e-7
          -9.744045984067714e-7 -9.74398474594017e-7 -9.743794491016728e-7 -0.000001134157117228186 -0.0000011341617142943644 -0.0000011341749593578428
          -0.0000013070040042907691 -0.000001307017306284291 -0.0000013070567749935532 -0.0000014866356276044303 -0.000001486657093384031 -0.0000014867213777942186
          -0.000001667884003392666 -0.0000016679093113621277 -0.000001667984813098977 -9.836692025617716e-7 -9.835786443995234e-7 -9.833032036625587e-7
          -0.0000010910142834298744 -0.0000010909765370640246 -0.0000010908720598898536 -0.000001258060009763374 -0.0000012580326651783221 -0.000001257948554903008
          -0.0000014678666784860533 -0.0000014678601073611524 -0.0000014678411774272268 -0.0000017064975658164257 -0.0000017065066278557228 -0.0000017065326667211825
          -0.000001962822703517488 -0.0000019628454872909397 -0.0000019629128303403747 -0.0000022273863531538313 -0.0000022274220466481523 -0.0000022275277766963096
          -0.000002492014141316204 -0.0000024920552064398356 -0.0000024921764666193026 -0.0000013115622175312082 -0.0000013115044669687064 -0.0000013113191659749864
          -0.0000014585395797694534 -0.000001458461615216377 -0.0000014582188603098638 -0.000001684943172655662 -0.0000016849191083558345 -0.0000016848512908287316
          -0.0000019649249552918677 -0.0000019649198191981947 -0.000001964901172873083 -0.00000227968067840149 -0.0000022796988534499794 -0.0000022797524850225955
          -0.000002615361778579182 -0.00000261539888394647 -0.000002615509392839915 -0.000002959445646050959 -0.0000029595015439933617 -0.0000029596704767076014
          -0.000003299768387032469 -0.0000032998325397698197 -0.0000033000266577976926 -0.0000016361863921095913 -0.0000016361018806627827 -0.0000016359097431079516
          -0.0000018282661410845445 -0.0000018282325413697023 -0.0000018281338690144661 -0.0000021152168505645504 -0.0000021151815715069766 -0.000002115074881043845
          -0.0000024617192164989265 -0.0000024617292165042364 -0.0000024617627890041144 -0.0000028462794312240828 -0.000002846311168565994 -0.0000028464054473761817
          -0.0000032548430497192525 -0.000003254898412636315 -0.0000032550624755091434 -0.0000036715029857379042 -0.0000036715813776527035 -0.000003671812767485404
          -0.0000040779365658537575 -0.000004078020923833663 -0.000004078266142081369 -0.00000204491675826065 -0.00000204358281264042 -0.0000020395059302575482
          -0.000001967895710985458 -0.000001967231562937147 -0.0000019652254309385065 -0.000002197670225675808 -0.000002197595553339477 -0.000002197396971879221
          -0.00000254592964160408 -0.0000025459291386210675 -0.0000025459141940910527 -0.0000029483762139046257 -0.0000029483835442591066 -0.000002948399778971943
          -0.0000033915137867816224 -0.0000033915600587268407 -0.0000033916974381359385 -0.000003863379487807868 -0.00000386346318074072 -0.0000038637141028108296
          -0.000004344348927118179 -0.000004344483344059487 -0.000004344895048028972 -0.0000048057730070386635 -0.0000048059295696330276 -0.000004806409190207995
          -0.000002727679180851984 -0.000002726260129055463 -0.0000027220242187451166 -0.0000024104298525611345 -0.0000024092804597897226 -0.0000024058012936499
          -0.000002568598775435994 -0.000002568265897417543 -0.000002567293733257598 -0.0000029678153029349397 -0.0000029679198427243802 -0.000002968267346777299
          -0.000003407994462092828 -0.0000034080398503795294 -0.000003408168343681331 -0.000003890382120429507 -0.000003890455686222494 -0.0000038906792979709255
          -0.000004410941135858794 -0.00000441104176489313 -0.0000044113380059399644 -0.000004947228404893824 -0.000004947368610324121 -0.000004947780122093566
          -0.0000054508583562905746 -0.000005450981296699276 -0.000005451329620497994 -0.00000375073390644499 -0.000003748910159626741 -0.0000037434397349735788
          -0.000003115510768180456 -0.0000031139348226319165 -0.000003109216168673826 -0.0000030275098325698985 -0.0000030265615647222386 -0.0000030237055639600004
          -0.000003365350897789475 -0.0000033651358985509362 -0.0000033645362409230807 -0.000003821223648250999 -0.000003821266464572912 -0.0000038214085830004285
          -0.00000430537830497359 -0.0000043054267735746745 -0.000004305567815494968 -0.000004844241261341992 -0.000004844408254748515 -0.0000048449130977600515
          -0.000005416853162531967 -0.000005417201162809494 -0.000005418259025780735 -0.000005954909308000461 -0.000005955382967876893 -0.000005956795181019026
          -0.000005177925823819358 -0.000005175306315610794 -0.0000051673784602401475 -0.000004172859170307886 -0.000004170726404505184 -0.0000041642831397852606
          -0.0000037025230291220622 -0.0000037010521544907958 -0.0000036965202081479294 -0.0000037824959355903332 -0.000003781951029653136 -0.000003780225106476921
          -0.000004164649137123503 -0.000004164649178976272 -0.0000041646418313537274 -0.000004581252060578072 -0.000004581247955193905 -0.0000045812235124214065
          -0.000005060647711799433 -0.000005060895765803657 -0.000005061632349675047 -0.000005603231311132297 -0.000005603872539355781 -0.000005605793186580206
          -0.000006221008477111552 -0.000006221950657524641 -0.000006224820820659086 0 -8.659888631220865e-7 0
          -8.660026207811946e-7 0 -8.660437997429232e-7 -0.0000017271840028249929 -0.000001727213068066123 -0.0000017273006611755725
          -0.0000025773448702456605 -0.0000025773915462865556 -0.000002577531009875212 -0.0000034075105435817314 -0.0000034075819975917084 -0.000003407798320375365
          -0.000004204716948923444 -0.0000042048117951884094 -0.000004205093092356847 -0.000004949906668156626 -0.0000049500702690215035 -0.0000049505691171240736
          -0.000005616165656591784 -0.000005616334741140483 -0.000005616835572548589 -0.000006160440616905263 -0.000006160876936191662 -0.000006162196980196148
          -0.000006500987499018939 -0.000006501774817526319 -0.000006504147844068298 0 -8.913589841537565e-7 0
          -8.913734250168782e-7 0 -8.914168066166811e-7 -0.000001776198102298101 -0.0000017762281260501592 -0.0000017763183157365789
          -0.000002646728561025519 -0.000002646776611059568 -0.000002646920809782093 -0.0000034927717428632863 -0.0000034928415124927755 -0.0000034930506714130873
          -0.000004300613046624357 -0.0000043007103597133866 -0.000004301001509870018 -0.000005051419974468314 -0.000005051558021209586 -0.000005051971018739688
          -0.000005719505131695426 -0.000005719681083507269 -0.000005720208055590417 -0.000006258351771719076 -0.0000062586297400677436 -0.000006259453057561874
          -0.0000066300302997134795 -0.000006630388103644472 -0.0000066314585643707895 0 -9.118433307475887e-7 0
          -9.118582487296435e-7 0 -9.119030226892368e-7 -0.0000018153286500240714 -0.0000018153594467402512 -0.0000018154518244164621
          -0.0000027009272560813283 -0.0000027009755779883454 -0.0000027011204651830267 -0.000003556878864226211 -0.0000035569475809942316 -0.0000035571535688619345
          -0.000004368135932303875 -0.000004368228758109735 -0.000004368506431826164 -0.000005115110256774793 -0.000005115232551843493 -0.0000051155986507286006
          -0.000005770590465727028 -0.0000057707433159056885 -0.000005771200375048921 -0.000006297739838551917 -0.000006297924814874072 -0.000006298478093462936
          -0.000006692238773290586 -0.0000066924399057082965 -0.000006693042435575633 0 -9.278250379983403e-7 0
          -9.278401438887875e-7 0 -9.278854597920543e-7 -0.0000018454410062451638 -0.0000018454718720960186 -0.0000018455643686941218
          -0.0000027415098399168146 -0.0000027415575728202273 -0.0000027417005110099812 -0.0000036025433477742504 -0.0000036026095842538834 -0.000003602807697962119
          -0.0000044120053703176705 -0.000004412091570041762 -0.00000441234930791319 -0.000005149282355043785 -0.0000051493892567305805 -0.000005149708401938063
          -0.000005788981271950558 -0.000005789106830137063 -0.0000057894823890487524 -0.000006307865065858865 -0.00000630798849492506 -0.0000063083559505446245
          -0.000006721006820796885 -0.000006721119503089663 -0.000006721452871894831 0 -9.398142414197494e-7 0
          -9.398293332148771e-7 0 -9.398746315233939e-7 -0.0000018676749636289197 -0.0000018677055605464872 -0.000001867797146145823
          -0.000002770517386530152 -0.0000027705640246428427 -0.000002770703475155354 -0.0000036332085549539252 -0.000003633271675372676 -0.0000036334603254972943
          -0.000004437877133241535 -0.0000044379563444745635 -0.000004438193172562954 -0.000005163799121983468 -0.000005163892282595906 -0.000005164170363591131
          -0.000005789629203982036 -0.000005789730684524706 -0.0000057900340249760515 -0.0000063039917902522195 -0.000006304076345586266 -0.000006304327903343283
          -0.0000067322174652250345 -0.000006732282164830537 -0.00000673247228455299 0 -9.483723826190867e-7 0
          -9.48387370625992e-7 0 -9.484323363705002e-7 -0.0000018832789757928323 -0.0000018833091702353223 -0.0000018833993959652862
          -0.000002790156941724811 -0.000002790202336424555 -0.0000027903378781183137 -0.0000036524809162126417 -0.0000036525410053786366 -0.000003652720430729803
          -0.000004451467198257875 -0.000004451540262573539 -0.0000044517586360534924 -0.0000051670906333525184 -0.000005167172531063024 -0.00000516741691751481
          -0.000005782413559863911 -0.00000578249663977738 -0.000005782745046303958 -0.000006294798569948002 -0.000006294858251036785 -0.000006295035626739598
          -0.0000067346200195024775 -0.000006734657739109202 -0.000006734767589654952 0 -9.540349224659257e-7 0
          -9.540498013794242e-7 0 -9.540943653945857e-7 -0.0000018934364821699668 -0.0000018934662655409467 -0.0000018935551798311815
          -0.0000028024896395673224 -0.0000028025339081453746 -0.0000028026660415005404 -0.0000036636451051990273 -0.000003663702708809492 -0.0000036638746892993835
          -0.000004457625425245875 -0.000004457693746435687 -0.000004457898017216287 -0.000005165379917909605 -0.000005165453503863812 -0.000005165673348688416
          -0.0000057735976888205074 -0.000005773667984853753 -0.000005773878674751321 -0.000006285360737996356 -0.000006285405114512838 -0.000006285537330914999
          -0.000006733360136685855 -0.000006733381947407193 -0.000006733445435310133 0 -9.572408090337628e-7 0
          -9.57255585884103e-7 0 -9.57299845062132e-7 -0.000001899111504330391 -0.0000018991409009837158 -0.0000018992288284769182
          -0.000002809174696721186 -0.000002809218090858492 -0.0000028093478610426555 -0.0000036692675611065734 -0.0000036693234547085692 -0.00000366949059601816
          -0.0000044599020364376234 -0.000004459967315361988 -0.00000446016280357825 -0.0000051628031932692734 -0.000005162871686604459 -0.000005163076734739731
          -0.000005766966969476702 -0.000005767029798240239 -0.00000576721872314197 -0.000006278652590764948 -0.000006278688604597525 -0.000006278796279239108
          -0.000006731508765769282 -0.000006731522169742872 -0.00000673156154661396 0 -9.582762363899767e-7 0
          -9.582910220062586e-7 0 -9.583352052766654e-7 -0.0000019009305518099507 -0.0000019009599160861496 -0.0000019010475751129478
          -0.000002811280086304152 -0.0000028113233192666897 -0.00000281145237976665 -0.0000036709592337682397 -0.000003671014609642334 -0.0000036711801610198117
          -0.000004460425909877177 -0.000004460490024537948 -0.000004460682464160411 -0.000005161694547111062 -0.000005161760985990035 -0.000005161960841942229
          -0.000005764545458351082 -0.000005764605458579189 -0.000005764786971137183 -0.000006276251775540384 -0.00000627628490898969 -0.000006276384620293036
          -0.000006730717158046272 -0.000006730727939674297 -0.0000067307597632803356
        </DataArray>
        <DataArray type="Float64" Name="disp_z" format="ascii" RangeMin="-5.387347509660944e-7" RangeMax="0">
          0 0 0 0 -1.907597425527763e-7 -1.955599422965655e-7
          -1.9822439943185584e-7 -1.9832942985541748e-7 -3.8144671187308276e-7 -3.911322326506169e-7 -3.9636016708839314e-7 -3.965073359200033e-7
          0 0 0 0 -1.9365601226858365e-7 -1.9589419218654085e-7
          -1.9552232810681786e-7 -1.955822425016053e-7 -3.874393123381664e-7 -3.9186557305377697e-7 -3.9083890250502043e-7 -3.9103328046342836e-7
          0 0 -1.9745442883571048e-7 -1.961875367357669e-7 -3.947775843045135e-7 -3.923118632820475e-7
          0 0 0 -1.9303205221543093e-7 -1.8475490179288833e-7 -1.928308869158608e-7
          -3.85857880463248e-7 -3.69449015373209e-7 -3.8551272851390597e-7 0 0 0
          0 -2.0056930850774107e-7 -2.0733480987220252e-7 -2.1228580565367574e-7 -2.0167110707488033e-7 -4.013174448542207e-7
          -4.1481138250517683e-7 -4.2481427887250933e-7 -4.035914870023618e-7 0 0 0
          0 -2.070375011271378e-7 -2.1150122053588854e-7 -2.093981173581271e-7 -2.0110373236687062e-7 -4.1427122480940304e-7
          -4.231291332617263e-7 -4.1888852478614833e-7 -4.025046415364508e-7 0 0 0
          -1.9652863064594082e-7 -2.026050280859353e-7 -1.9819654178660042e-7 -3.932951132132332e-7 -4.056372012895026e-7 -3.965267440953508e-7
          0 -1.7829035508265129e-7 -3.5650168302144435e-7 0 0 -2.0888699301652224e-7
          -2.1626387465369588e-7 -4.179340664890932e-7 -4.3284261098990294e-7 0 0 -1.6361937499299148e-7
          -1.7275190374271041e-7 -3.272149762854614e-7 -3.454475856981729e-7 0 0 -2.495537593131615e-7
          -2.579088690567953e-7 -4.990744814645155e-7 -5.160172682662326e-7 0 0 0
          0 -2.1696955461862912e-7 -2.2528003154882745e-7 -2.120985271822123e-7 -2.041065880260899e-7 -4.3414332876013726e-7
          -4.508728689775126e-7 -4.243417751835072e-7 -4.0840125108188984e-7 0 -2.5694195433177356e-7 -5.140582396381364e-7
          0 -2.6945661739209403e-7 -5.387347509660944e-7 0 -1.9086570795784424e-7 -3.817473864350861e-7
          0 0 -1.9474920501492162e-7 -1.932695987427572e-7 -3.895554039471701e-7 -3.8682896288379436e-7
          0 0 0 0 -2.5299285754285344e-7 -2.408975160239778e-7
          -2.341446774107047e-7 -2.5579220539007026e-7 -5.061036828730637e-7 -4.81587313661529e-7 -4.681913296072777e-7 -5.116207221280783e-7
          0 0 -1.9651008277972677e-7 -1.97808847819723e-7 -3.9319044705878993e-7 -3.9575334028865477e-7
          0 -2.4879162141481993e-7 -4.979278731119391e-7 0 -2.1702318944465076e-7 -4.343837443229629e-7
          0 0 -2.483451660724616e-7 -2.456868651916233e-7 -4.973904396776785e-7 -4.917954786716763e-7
          0 0 -1.9900430142016972e-7 -2.0204351019504162e-7 -3.9826328950988804e-7 -4.04357747791239e-7
          0 0 -2.137190833921943e-7 -2.2290576527652666e-7 -4.280354015514619e-7 -4.4633992382056136e-7
          0 -2.384500026518184e-7 -4.772296757243688e-7 0 -2.3337508889049438e-7 -4.669863423320568e-7
          0 -2.31312483155498e-7 -4.6285107206634816e-7 0 -2.0655142882937048e-7 -4.1366995688119683e-7
          0 -2.3346320339681707e-7 -4.6748946831603185e-7 0 0 -2.6066270837767763e-7
          -2.583846152597186e-7 -5.209187529582088e-7 -5.164102567872438e-7 0 -1.953465985085754e-7 -3.9096463215900653e-7
          0 0 -1.956174500496961e-7 -1.991697105204219e-7 -3.9163257195893e-7 -3.9857434635469996e-7
          0 0 -2.1137886678267133e-7 -2.249837297839154e-7 -4.2322265055240453e-7 -4.504873944648173e-7
          0 0 -1.9949512770421696e-7 -1.999352463672904e-7 -3.989692151481505e-7 -3.999391738989839e-7
          0 -2.25412210005003e-7 -4.51332721815377e-7 0 -2.5429359124709326e-7 -5.082137513885938e-7
          0 -2.4941711284747565e-7 -4.991127416156089e-7 0 0 -2.247795598457972e-7
          -2.3900823027410336e-7 -4.499244440891519e-7 -4.784409675607093e-7 0 0 -2.445313089631016e-7
          -2.489181018902151e-7 -4.888835506833104e-7 -5.000748432301846e-7 0 0 0
          -2.2468476115482074e-7 -2.2000860843717647e-7 -2.3085070210337427e-7 -4.497736135792334e-7 -4.4036197225081896e-7 -4.620372322199682e-7
          0 -2.3444691731226015e-7 -4.681156309302319e-7 0 0 -2.00071838145644e-7
          -2.0150936064895934e-7 -4.009030932938957e-7 -4.0322609964326025e-7 0 0 -1.982754686056174e-7
          -1.9705873321531983e-7 -3.967655800863933e-7 -3.9399716333429107e-7 0 -2.233215399382679e-7 -4.4710715363866933e-7
          0 -2.4256325219093156e-7 -4.853490216918784e-7 0 -1.9302248199662322e-7 -3.864624292440817e-7
          0 0 -2.0493083584988452e-7 -2.101382698575421e-7 -4.0995567143107277e-7 -4.202322998408567e-7
          0 -2.1569917907800919e-7 -4.3166966423478493e-7 0 -2.0089834598967447e-7 -4.0189021807021417e-7
          0 -1.9366109405579856e-7 -3.87719853900393e-7 0 -1.9975138344757715e-7 -3.9981360797149913e-7
          0 -2.0036810988706527e-7 -4.0093275945987693e-7 0 -2.0072248103637373e-7 -4.013724110202092e-7
          0 -1.4609274124712189e-7 -2.921610317032702e-7 0 -1.649232275794266e-7 -3.298301222284289e-7
          0 -1.7966833427258866e-7 -3.5928807537103716e-7 0 -1.9103914947702186e-7 -3.820240496963805e-7
          0 -1.9877728734838477e-7 -3.9759401376715456e-7 0 0 -6.091732870976121e-8
          -6.071374288380888e-8 -1.2183393176466616e-7 -1.214397890689384e-7 0 0 -5.951028441207898e-8
          -5.9362087626296085e-8 -1.1902091388410171e-7 -1.1871959773609523e-7 0 0 -5.7750758111678264e-8
          -5.766009350089595e-8 -1.155016623528299e-7 -1.1532146828655783e-7 0 0 -5.578429911418864e-8
          -5.575057026130407e-8 -1.1156888426223498e-7 -1.1150052231489179e-7 0 0 -5.373805032714671e-8
          -5.37599153600703e-8 -1.0747623310252308e-7 -1.0751970052829565e-7 0 0 -5.172236951651852e-8
          -5.1796514580103816e-8 -1.0344504457898213e-7 -1.0359296565258041e-7 0 0 -4.98169136123141e-8
          -4.9940317784533524e-8 -9.96336668675561e-8 -9.988048477598609e-8 0 0 -4.812474269227682e-8
          -4.827070600960061e-8 -9.624949652855752e-8 -9.654147891308129e-8 0 -6.15489470120711e-8 -1.2311468828610661e-7
          0 -5.993338036525359e-8 -1.1985924360384282e-7 0 -5.798891410131041e-8 -1.1598008806286095e-7
          0 -5.583890620825061e-8 -1.1167675828501232e-7 0 -5.3626684679460687e-8 -1.0725308377738365e-7
          0 -5.146412581096994e-8 -1.0292855359697523e-7 0 -4.941528402217408e-8 -9.883022741864713e-8
          0 -4.765534701752142e-8 -9.531135831477638e-8 0 -6.241998585703614e-8 -1.2482352002634218e-7
          0 -6.07006342801529e-8 -1.2141482073684636e-7 0 -5.838360182965061e-8 -1.1676184648502129e-7
          0 -5.5935242289651494e-8 -1.1187328065220431e-7 0 -5.343714405390098e-8 -1.0687329156335566e-7
          0 -5.1014752320525815e-8 -1.0203066443890021e-7 0 -4.87038980447362e-8 -9.74062058870538e-8
          0 -4.680956413627484e-8 -9.361909703773928e-8 0 -6.456532653383923e-8 -1.2912572925806916e-7
          0 -6.153778238644319e-8 -1.2305913240517413e-7 0 -5.8925334735578784e-8 -1.1785799189142519e-7
          0 -5.598314523286432e-8 -1.1196202867892472e-7 0 -5.308797434049863e-8 -1.0617593270924224e-7
          0 -5.028398054864896e-8 -1.0056978598809834e-7 0 -4.7576763686546254e-8 -9.515356338728422e-8
          0 -4.548918706553501e-8 -9.09827033727489e-8 0 -6.49780299910603e-8 -1.3001579503249074e-7
          0 -6.32628083127296e-8 -1.2652562035680813e-7 0 -5.929824806758523e-8 -1.1859357479568026e-7
          0 -5.593450171183826e-8 -1.1187662714962732e-7 0 -5.2477549629340094e-8 -1.0495192389162943e-7
          0 -4.916395866654897e-8 -9.833095043482293e-8 0 -4.588568932143427e-8 -9.176305045340085e-8
          0 -4.352276530051678e-8 -8.704189930176458e-8 0 -9.089156894197653e-8 -1.818523881912729e-7
          0 -7.048428842176806e-8 -1.4106031095073533e-7 0 -6.323279181759562e-8 -1.2649373959591775e-7
          0 -5.995682973692164e-8 -1.198975622632801e-7 0 -5.549067801448756e-8 -1.109753182076868e-7
          0 -5.1525781873132144e-8 -1.0304940013158922e-7 0 -4.7528719261783514e-8 -9.506524897751235e-8
          0 -4.3414989385537655e-8 -8.683489700753466e-8 0 -4.075438902386064e-8 -8.152895712088848e-8
          0 -1.193231655217166e-7 -2.386350430845613e-7 0 -9.026718837545149e-8 -1.806646454509619e-7
          0 -6.689466674478901e-8 -1.3391608866874865e-7 0 -5.8720269869657405e-8 -1.1748423862671273e-7
          0 -5.523389942898327e-8 -1.1046850835205069e-7 0 -5.015405572781477e-8 -1.0030125509196473e-7
          0 -4.52265635058193e-8 -9.046147626472899e-8 0 -3.954602375540985e-8 -7.906305421677081e-8
          0 -3.626106390175086e-8 -7.251101132875767e-8 0 -1.471379971180449e-7 -2.9420060397610557e-7
          0 -1.1484828934509336e-7 -2.296938036766572e-7 0 -7.78135175477665e-8 -1.5577350763526032e-7
          0 -5.760585569758616e-8 -1.1530437589474794e-7 0 -5.371159681934349e-8 -1.0744029817881268e-7
          0 -4.8397995466795387e-8 -9.677006374935682e-8 0 -4.232877588892782e-8 -8.469321079994515e-8
          0 -3.4897370960541275e-8 -6.97763109265448e-8 0 -3.1473446349160404e-8 -6.297546364354693e-8
          0 -1.9280274897665458e-7 -3.8556210687329683e-7 0 -1.5254680298257783e-7 -3.051048973347965e-7
          0 -1.0381226038951856e-7 -2.0783381303806946e-7 0 -6.66445693012792e-8 -1.3346685220306647e-7
          0 -5.3283957946741436e-8 -1.066176579353274e-7 0 -4.804172209044929e-8 -9.606795091539572e-8
          0 -3.707656206564666e-8 -7.417954041083678e-8 0 -2.1526569290405583e-8 -4.3022791365751424e-8
          0 -1.0758688652860528e-8 -2.152805081095916e-8 0 0 -4.721578613550325e-8
          -4.704048697701349e-8 -9.443163003247461e-8 -9.408082823660123e-8 0 -4.648885152995276e-8 -9.297733979487116e-8
          0 -4.5509127711503485e-8 -9.101621015139891e-8 0 -4.4003513771467975e-8 -8.800595027085585e-8
          0 -4.179439114078444e-8 -8.357995886705496e-8 0 -3.870019601635779e-8 -7.73992815909728e-8
          0 -3.374264976835264e-8 -6.746098775523167e-8 0 -2.770890538098851e-8 -5.5381504868117344e-8
          0 -1.014366445847908e-8 -2.0225676143314158e-8 0 0 -4.6267806215462886e-8
          -4.608195767499021e-8 -9.253554496435061e-8 -9.216397541456542e-8 0 -4.550781193876153e-8 -9.101614413086048e-8
          0 -4.450171797119637e-8 -8.900467240129615e-8 0 -4.298221231489533e-8 -8.59672077475746e-8
          0 -4.0834402518487815e-8 -8.167259534570798e-8 0 -3.782883844406933e-8 -7.566782881782064e-8
          0 -3.371155088175138e-8 -6.743407960438377e-8 0 -2.819193034023477e-8 -5.642017349501957e-8
          0 -1.969102417231406e-8 -3.942028941921187e-8 0 0 -4.544229609908833e-8
          -4.5249622364153874e-8 -9.088461722264662e-8 -9.049921190501498e-8 0 -4.465954666834404e-8 -8.931883779352098e-8
          0 -4.3638044247909124e-8 -8.72754011615773e-8 0 -4.212876503713583e-8 -8.425627051651615e-8
          0 -4.004327038117108e-8 -8.008399878205263e-8 0 -3.727633025309294e-8 -7.454903310053167e-8
          0 -3.3703050707502074e-8 -6.739714577183659e-8 0 -2.9362658834199945e-8 -5.8710153214167106e-8
          0 -2.4301895726725242e-8 -4.8545394539411196e-8 0 0 -4.4742666789599354e-8
          -4.454722689050559e-8 -8.948533515040863e-8 -8.909447008294135e-8 0 -4.39527813571328e-8 -8.790565682078329e-8
          0 -4.2937145023358746e-8 -8.587455568303722e-8 0 -4.146552331245244e-8 -8.293154069173526e-8
          0 -3.9495549888554764e-8 -7.899219328274081e-8 0 -3.699963065945364e-8 -7.400042832042244e-8
          0 -3.398628288651823e-8 -6.797658911487828e-8 0 -3.068350054964122e-8 -6.13709628621294e-8
          0 -2.770946934426333e-8 -5.5432477317370526e-8 0 0 -4.4171149960421764e-8
          -4.39754048467834e-8 -8.834231498136267e-8 -8.795081496124245e-8 0 -4.3383846155199846e-8 -8.676765687962512e-8
          0 -4.238519690676015e-8 -8.47703012709675e-8 0 -4.096641585918891e-8 -8.193264917414891e-8
          0 -3.912354841282735e-8 -7.824682032794103e-8 0 -3.6888009685968936e-8 -7.377520154632153e-8
          0 -3.435803465592382e-8 -6.871549902767708e-8 0 -3.185963620960183e-8 -6.371623581895847e-8
          0 -3.0045778909203364e-8 -6.008089704029532e-8 0 0 -4.3727868584026726e-8
          -4.353328545072648e-8 -8.745573454898004e-8 -8.706657700927146e-8 0 -4.294820586674435e-8 -8.58964242828868e-8
          0 -4.197094678460337e-8 -8.394192720104466e-8 0 -4.06065743301064e-8 -8.121316914616045e-8
          0 -3.8880567108377125e-8 -7.776130950129476e-8 0 -3.686555001384408e-8 -7.373090710795579e-8
          0 -3.4716149071252507e-8 -6.943334049821987e-8 0 -3.278263755850566e-8 -6.556449528788204e-8
          0 -3.164372131366199e-8 -6.328780501356824e-8 0 0 -4.341212467303331e-8
          -4.321919477913481e-8 -8.682423963762998e-8 -8.643838109925101e-8 0 -4.2641270715633915e-8 -8.528253317131941e-8
          0 -4.168394705690708e-8 -8.336789757458642e-8 0 -4.0365541722152764e-8 -8.073104772982747e-8
          0 -3.873194015087819e-8 -7.746393092744939e-8 0 -3.688230659832849e-8 -7.376428203583875e-8
          0 -3.5003571447750105e-8 -7.000766611128248e-8 0 -3.343871235396252e-8 -6.687620749042675e-8
          0 -3.269692021874217e-8 -6.539198138621852e-8 0 0 -4.322306235619799e-8
          -4.3031416191212067e-8 -8.644612798590777e-8 -8.606283634348697e-8 0 -4.245886156791782e-8 -8.491772212989425e-8
          0 -4.151544784789583e-8 -8.303090508765365e-8 0 -4.0227415170677764e-8 -8.045479512707704e-8
          0 -3.865248887516685e-8 -7.730505126799345e-8 0 -3.690457148937411e-8 -7.380886710249628e-8
          0 -3.5186131525707565e-8 -7.037290270180182e-8 0 -3.3828038127031135e-8 -6.765512348671325e-8
          0 -3.329477912137681e-8 -6.658888539159747e-8 0 0 -4.3160169731306285e-8
          -4.296899280755691e-8 -8.63203611966313e-8 -8.593800416155942e-8 0 -4.2398386349438206e-8 -8.479677898311676e-8
          0 -4.145991507430076e-8 -8.291983199130878e-8 0 -4.01824404154268e-8 -8.036482445749792e-8
          0 -3.8627579906062457e-8 -7.72552053303514e-8 0 -3.69139497290968e-8 -7.382760704597698e-8
          0 -3.5248595281740695e-8 -7.049778952889832e-8 0 -3.395708676739685e-8 -6.791323210488419e-8
          0 -3.3489456007762716e-8 -6.697809772365791e-8
        </DataArray>
      </PointData>
      <CellData>
        <DataArray type="Int32" Name="libmesh_elem_id" format="ascii" RangeMin="1398" RangeMax="3643">
          1398 1399 1422 1423 1460 1461
          1470 1471 1482 1483 1494 1495
          1502 1503 1506 1507 1520 1521
          1528 1529 1580 1581 1584 1585
          1612 1613 1636 1637 1652 1653
          1722 1723 1798 1799 1850 1851
          2298 2299 2406 2407 2442 2443
          2450 2451 2472 2473 2558 2559
          2610 2611 2646 2647 2648 2649
          2662 2663 2672 2673 2680 2681
          2748 2749 2756 2757 2776 2777
          2808 2809 2814 2815 2822 2823
          2828 2829 2836 2837 2852 2853
          2876 2877 2898 2899 2910 2911
          2926 2927 2936 2937 2950 2951
          2952 2953 2954 2955 2966 2967
          2980 2981 2982 2983 2990 2991
          3006 3007 3014 3015 3026 3027
          3068 3069 3074 3075 3104 3105
          3110 3111 3124 3125 3126 3127
          3168 3169 3194 3195 3204 3205
          3208 3209 3210 3211 3212 3213
          3220 3221 3222 3223 3224 3225
          3226 3227 3234 3235 3236 3237
          3240 3241 3252 3253 3254 3255
          3264 3265 3296 3297 3302 3303
          3308 3309 3314 3315 3324 3325
          3326 3327 3328 3329 3330 3331
          3332 3333 3334 3335 3336 3337
          3342 3343 3344 3345 3346 3347
          3348 3349 3350 3351 3352 3353
          3354 3355 3360 3361 3362 3363
          3364 3365 3366 3367 3368 3369
          3370 3371 3372 3373 3378 3379
          3380 3381 3382 3383 3384 3385
          3386 3387 3388 3389 3390 3391
          3396 3397 3398 3399 3400 3401
          3402 3403 3404 3405 3406 3407
          3408 3409 3414 3415 3416 3417
          3418 3419 3420 3421 3422 3423
          3424 3425 3426 3427 3430 3431
          3432 3433 3434 3435 3436 3437
          3438 3439 3440 3441 3442 3443
          3444 3445 3448 3449 3450 3451
          3452 3453 3454 3455 3456 3457
          3458 3459 3460 3461 3462 3463
          3466 3467 3468 3469 3470 3471
          3472 3473 3474 3475 3476 3477
          3478 3479 3480 3481 3482 3483
          3484 3485 3486 3487 3488 3489
          3490 3491 3492 3493 3494 3495
          3496 3497 3498 3499 3500 3501
          3502 3503 3504 3505 3506 3507
          3508 3509 3510 3511 3512 3513
          3514 3515 3516 3517 3518 3519
          3520 3521 3522 3523 3524 3525
          3526 3527 3528 3529 3530 3531
          3532 3533 3534 3535 3536 3537
          3538 3539 3540 3541 3542 3543
          3544 3545 3546 3547 3548 3549
          3550 3551 3552 3553 3554 3555
          3556 3557 3558 3559 3560 3561
          3562 3563 3564 3565 3566 3567
          3568 3569 3570 3571 3572 3573
          3574 3575 3576 3577 3578 3579
          3580 3581 3582 3583 3584 3585
          3586 3587 3588 3589 3590 3591
          3592 3593 3594 3595 3596 3597
          3598 3599 3600 3601 3602 3603
          3604 3605 3606 3607 3608 3609
          3610 3611 3612 3613 3614 3615
          3616 3617 3618 3619 3620 3621
          3622 3623 3624 3625 3626 3627
          3628 3629 3630 3631 3632 3633
          3634 3635 3636 3637 3638 3639
          3640 3641 3642 3643
        </DataArray>
        <DataArray type="Int32" Name="subdomain_id" format="ascii" RangeMin="107" RangeMax="110">
          107 107 107 107 107 107
          107 107 107 107 107 107
          107 107 107 107 107 107
          107 107 107 107 107 107
          107 107 107 107 107 107
          107 107 107 107 107 107
          107 107 107 107 107 107
          107 107 107 107 107 107
          107 107 107 107 107 107
          107 107 107 107 107 107
          107 107 107 107 107 107
          107 107 107 107 107 107
          107 107 107 107 107 107
          107 107 107 107 107 107
          107 107 107 107 107 107
          107 107 107 107 107 107
          107 107 107 107 107 107
          107 107 107 107 107 107
          107 107 107 107 107 107
          107 107 107 107 107 107
          107 107 107 107 107 107
          107 107 107 107 107 107
          107 107 107 107 107 107
          107 107 107 107 107 107
          107 107 107 107 107 107
          107 107 108 108 108 108
          108 108 108 108 109 109
          109 109 109 109 109 109
          109 109 109 109 109 109
          109 109 109 109 109 109
          109 109 109 109 109 109
          109 109 109 109 109 109
          109 109 109 109 109 109
          109 109 109 109 109 109
          109 109 109 109 109 109
          109 109 109 109 109 109
          109 109 109 109 109 109
          109 109 109 109 109 109
          109 109 109 109 109 109
          109 109 109 109 109 109
          109 109 109 109 109 109
          109 109 109 109 109 109
          109 109 109 109 109 109
          109 109 109 109 109 109
          109 109 109 109 109 109
          109 109 109 109 109 109
          109 109 109 109 109 109
          109 109 109 109 109 109
          109 109 109 109 110 110
          110 110 110 110 110 110
          110 110 110 110 110 110
          110 110 110 110 110 110
          110 110 110 110 110 110
          110 110 110 110 110 110
          110 110 110 110 110 110
          110 110 110 110 110 110
          110 110 110 110 110 110
          110 110 110 110 110 110
          110 110 110 110 110 110
          110 110 110 110 110 110
          110 110 110 110 110 110
          110 110 110 110 110 110
          110 110 110 110 110 110
          110 110 110 110 110 110
          110 110 110 110 110 110
          110 110 110 110 110 110
          110 110 110 110 110 110
          110 110 110 110 110 110
          110 110 110 110 110 110
          110 110 110 110 110 110
          110 110 110 110 110 110
          110 110 110 110 110 110
          110 110 110 110 110 110
          110 110 110 110 110 110
          110 110 110 110 110 110
          110 110 110 110
        </DataArray>
        <DataArray type="Int32" Name="processor_id" format="ascii" RangeMin="0" RangeMax="0">
          0 0 0 0 0 0
          0 0 0 0 0 0
          0 0 0 0 0 0
          0 0 0 0 0 0
          0 0 0 0 0 0
          0 0 0 0 0 0
          0 0 0 0 0 0
          0 0 0 0 0 0
          0 0 0 0 0 0
          0 0 0 0 0 0
          0 0 0 0 0 0
          0 0 0 0 0 0
          0 0 0 0 0 0
          0 0 0 0 0 0
          0 0 0 0 0 0
          0 0 0 0 0 0
          0 0 0 0 0 0
          0 0 0 0 0 0
          0 0 0 0 0 0
          0 0 0 0 0 0
          0 0 0 0 0 0
          0 0 0 0 0 0
          0 0 0 0 0 0
          0 0 0 0 0 0
          0 0 0 0 0 0
          0 0 0 0 0 0
          0 0 0 0 0 0
          0 0 0 0 0 0
          0 0 0 0 0 0
          0 0 0 0 0 0
          0 0 0 0 0 0
          0 0 0 0 0 0
          0 0 0 0 0 0
          0 0 0 0 0 0
          0 0 0 0 0 0
          0 0 0 0 0 0
          0 0 0 0 0 0
          0 0 0 0 0 0
          0 0 0 0 0 0
          0 0 0 0 0 0
          0 0 0 0 0 0
          0 0 0 0 0 0
          0 0 0 0 0 0
          0 0 0 0 0 0
          0 0 0 0 0 0
          0 0 0 0 0 0
          0 0 0 0 0 0
          0 0 0 0 0 0
          0 0 0 0 0 0
          0 0 0 0 0 0
          0 0 0 0 0 0
          0 0 0 0 0 0
          0 0 0 0 0 0
          0 0 0 0 0 0
          0 0 0 0 0 0
          0 0 0 0 0 0
          0 0 0 0 0 0
          0 0 0 0 0 0
          0 0 0 0 0 0
          0 0 0 0 0 0
          0 0 0 0 0 0
          0 0 0 0 0 0
          0 0 0 0 0 0
          0 0 0 0 0 0
          0 0 0 0 0 0
          0 0 0 0 0 0
          0 0 0 0 0 0
          0 0 0 0 0 0
          0 0 0 0 0 0
          0 0 0 0 0 0
          0 0 0 0 0 0
          0 0 0 0 0 0
          0 0 0 0 0 0
          0 0 0 0 0 0
          0 0 0 0 0 0
          0 0 0 0
        </DataArray>
      </CellData>
      <Points>
        <DataArray type="Float64" Name="Points" NumberOfComponents="3" format="ascii" RangeMin="0.019949534490770096" RangeMax="0.057059767276955435">
          0.025 0.010111111111103 0 0.025 0.011555555555552 0
          0.023969654121399 0.011643457228511 0 0.023712354871128 0.010827306146479 0
          0.025 0.010111111111103 0.00015 0.025 0.011555555555552 0.00015
          0.023969654121399 0.011643457228511 0.00015 0.023712354871128 0.010827306146479 0.00015
          0.025 0.010111111111103 0.0003 0.025 0.011555555555552 0.0003
          0.023969654121399 0.011643457228511 0.0003 0.023712354871128 0.010827306146479 0.0003
          0.021832836898909 0.0086447924127183 0 0.021823224979211 0.0078559681587773 0
          0.022737846371709 0.0079006862580081 0 0.022634898807434 0.0088549234284915 0
          0.021832836898909 0.0086447924127183 0.00015 0.021823224979211 0.0078559681587773 0.00015
          0.022737846371709 0.0079006862580081 0.00015 0.022634898807434 0.0088549234284915 0.00015
          0.021832836898909 0.0086447924127183 0.0003 0.021823224979211 0.0078559681587773 0.0003
          0.022737846371709 0.0079006862580081 0.0003 0.022634898807434 0.0088549234284915 0.0003
          0.023595500831214 0.0092794942281182 0 0.023071107871262 0.010124307969263 0
          0.023595500831214 0.0092794942281182 0.00015 0.023071107871262 0.010124307969263 0.00015
          0.023595500831214 0.0092794942281182 0.0003 0.023071107871262 0.010124307969263 0.0003
          0.022679909737796 0.0068405181074087 0 0.023816654948859 0.0069324696013164 0
          0.023805320189621 0.0081867285281858 0 0.022679909737796 0.0068405181074087 0.00015
          0.023816654948859 0.0069324696013164 0.00015 0.023805320189621 0.0081867285281858 0.00015
          0.022679909737796 0.0068405181074087 0.0003 0.023816654948859 0.0069324696013164 0.0003
          0.023805320189621 0.0081867285281858 0.0003 0.021890570917318 0.011219591567605 0
          0.021490495874743 0.011513015985888 0 0.020878683694742 0.011349585571751 0
          0.021380466308845 0.010767094219468 0 0.021890570917318 0.011219591567605 0.00015
          0.021490495874743 0.011513015985888 0.00015 0.020878683694742 0.011349585571751 0.00015
          0.021380466308845 0.010767094219468 0.00015 0.021890570917318 0.011219591567605 0.0003
          0.021490495874743 0.011513015985888 0.0003 0.020878683694742 0.011349585571751 0.0003
          0.021380466308845 0.010767094219468 0.0003 0.022336312736143 0.012467557709352 0
          0.021763745105177 0.012476629724541 0 0.021622459990569 0.011931223094182 0
          0.02233098651665 0.011816769005978 0 0.022336312736143 0.012467557709352 0.00015
          0.021763745105177 0.012476629724541 0.00015 0.021622459990569 0.011931223094182 0.00015
          0.02233098651665 0.011816769005978 0.00015 0.022336312736143 0.012467557709352 0.0003
          0.021763745105177 0.012476629724541 0.0003 0.021622459990569 0.011931223094182 0.0003
          0.02233098651665 0.011816769005978 0.0003 0.021047379294988 0.0079667793778881 0
          0.020813290684512 0.007243328880283 0 0.021666975794544 0.0069715825078724 0
          0.021047379294988 0.0079667793778881 0.00015 0.020813290684512 0.007243328880283 0.00015
          0.021666975794544 0.0069715825078724 0.00015 0.021047379294988 0.0079667793778881 0.0003
          0.020813290684512 0.007243328880283 0.0003 0.021666975794544 0.0069715825078724 0.0003
          0.025 0.0086666666666559 0 0.025 0.0086666666666559 0.00015
          0.025 0.0086666666666559 0.0003 0.021356284292895 0.0061182113295331 0
          0.020489019208248 0.0065103794253073 0 0.021356284292895 0.0061182113295331 0.00015
          0.020489019208248 0.0065103794253073 0.00015 0.021356284292895 0.0061182113295331 0.0003
          0.020489019208248 0.0065103794253073 0.0003 0.025 0.0072222222222063 0
          0.023829479378086 0.0056593315311521 0 0.025 0.0072222222222063 0.00015
          0.023829479378086 0.0056593315311521 0.00015 0.025 0.0072222222222063 0.0003
          0.023829479378086 0.0056593315311521 0.0003 0.019357361519954 0.01157618305141 0
          0.01884046117173 0.011223113854601 0 0.019357361519954 0.01157618305141 0.00015
          0.01884046117173 0.011223113854601 0.00015 0.019357361519954 0.01157618305141 0.0003
          0.01884046117173 0.011223113854601 0.0003 0.020274347850796 0.01080512315655 0
          0.019692191057164 0.010418143528135 0 0.020104676199583 0.0097475599042502 0
          0.020792052735599 0.010316149813733 0 0.020274347850796 0.01080512315655 0.00015
          0.019692191057164 0.010418143528135 0.00015 0.020104676199583 0.0097475599042502 0.00015
          0.020792052735599 0.010316149813733 0.00015 0.020274347850796 0.01080512315655 0.0003
          0.019692191057164 0.010418143528135 0.0003 0.020104676199583 0.0097475599042502 0.0003
          0.020792052735599 0.010316149813733 0.0003 0.018734278863615 0.0068564365277259 0
          0.018734278863615 0.0068564365277259 0.00015 0.018734278863615 0.0068564365277259 0.0003
          0.018384253973557 0.010894663204421 0 0.018384253973557 0.010894663204421 0.00015
          0.018384253973557 0.010894663204421 0.0003 0.022477642087048 0.0055533155338694 0
          0.022477642087048 0.0055533155338694 0.00015 0.022477642087048 0.0055533155338694 0.0003
          0.022333445868241 0.0096250088550796 0 0.021678233976573 0.0092839168226163 0
          0.022333445868241 0.0096250088550796 0.00015 0.021678233976573 0.0092839168226163 0.00015
          0.022333445868241 0.0096250088550796 0.0003 0.021678233976573 0.0092839168226163 0.0003
          0.018696511924608 0.0075816988835645 0 0.019307778433714 0.0076950261479263 0
          0.019244919669154 0.0083241905034728 0 0.018643245907353 0.0082916041839039 0
          0.018696511924608 0.0075816988835645 0.00015 0.019307778433714 0.0076950261479263 0.00015
          0.019244919669154 0.0083241905034728 0.00015 0.018643245907353 0.0082916041839039 0.00015
          0.018696511924608 0.0075816988835645 0.0003 0.019307778433714 0.0076950261479263 0.0003
          0.019244919669154 0.0083241905034728 0.0003 0.018643245907353 0.0082916041839039 0.0003
          0.02247089481133 0.010746063389313 0 0.022956441030322 0.011313723369763 0
          0.02247089481133 0.010746063389313 0.00015 0.022956441030322 0.011313723369763 0.00015
          0.02247089481133 0.010746063389313 0.0003 0.022956441030322 0.011313723369763 0.0003
          0.018817000838468 0.010560792840001 0 0.018817000838468 0.010560792840001 0.00015
          0.018817000838468 0.010560792840001 0.0003 0.021028725472558 0.011993213484042 0
          0.021028725472558 0.011993213484042 0.00015 0.021028725472558 0.011993213484042 0.0003
          0.018719100515555 0.0096191331103102 0 0.018769006148643 0.010016813571171 0
          0.018719100515555 0.0096191331103102 0.00015 0.018769006148643 0.010016813571171 0.00015
          0.018719100515555 0.0096191331103102 0.0003 0.018769006148643 0.010016813571171 0.0003
          0.022845614094026 0.012068678060928 0 0.022870050818517 0.012481997757377 0
          0.022845614094026 0.012068678060928 0.00015 0.022870050818517 0.012481997757377 0.00015
          0.022845614094026 0.012068678060928 0.0003 0.022870050818517 0.012481997757377 0.0003
          0.01980903614198 0.0082923028866096 0 0.019733887771193 0.007830319872041 0
          0.01980903614198 0.0082923028866096 0.00015 0.019733887771193 0.007830319872041 0.00015
          0.01980903614198 0.0082923028866096 0.0003 0.019733887771193 0.007830319872041 0.0003
          0.019287865107188 0.010870204720027 0 0.019287865107188 0.010870204720027 0.00015
          0.019287865107188 0.010870204720027 0.0003 0.019611341590458 0.0069319215290848 0
          0.019611341590458 0.0069319215290848 0.00015 0.019611341590458 0.0069319215290848 0.0003
          0.019793192887703 0.011218191570876 0 0.019793192887703 0.011218191570876 0.00015
          0.019793192887703 0.011218191570876 0.0003 0.02014052068744 0.0075597001530957 0
          0.02014052068744 0.0075597001530957 0.00015 0.02014052068744 0.0075597001530957 0.0003
          0.019142781766586 0.010156284019367 0 0.019142781766586 0.010156284019367 0.00015
          0.019142781766586 0.010156284019367 0.0003 0.019871794871807 0.013 0
          0.019671681078705 0.012567114388191 0 0.019871794871807 0.013 0.00015
          0.019671681078705 0.012567114388191 0.00015 0.019871794871807 0.013 0.0003
          0.019671681078705 0.012567114388191 0.0003 0.02189605775595 0.01024368797285 0
          0.02189605775595 0.01024368797285 0.00015 0.02189605775595 0.01024368797285 0.0003
          0.021306208963658 0.0098107932917518 0 0.020830530356293 0.0093484326970494 0
          0.021306208963658 0.0098107932917518 0.00015 0.020830530356293 0.0093484326970494 0.00015
          0.021306208963658 0.0098107932917518 0.0003 0.020830530356293 0.0093484326970494 0.0003
          0.019927087042343 0.0089401115508047 0 0.019284140679376 0.0089915496868705 0
          0.019927087042343 0.0089401115508047 0.00015 0.019284140679376 0.0089915496868705 0.00015
          0.019927087042343 0.0089401115508047 0.0003 0.019284140679376 0.0089915496868705 0.0003
          0.023272296973232 0.01187913061167 0 0.023408043049707 0.012441583397961 0
          0.023272296973232 0.01187913061167 0.00015 0.023408043049707 0.012441583397961 0.00015
          0.023272296973232 0.01187913061167 0.0003 0.023408043049707 0.012441583397961 0.0003
          0.019291729405334 0.009640079412969 0 0.019291729405334 0.009640079412969 0.00015
          0.019291729405334 0.009640079412969 0.0003 0.019497075330812 0.012129782091497 0
          0.019497075330812 0.012129782091497 0.00015 0.019497075330812 0.012129782091497 0.0003
          0.018655444813331 0.0089912542068827 0 0.018655444813331 0.0089912542068827 0.00015
          0.018655444813331 0.0089912542068827 0.0003 0.020217772280624 0.01161574996656 0
          0.019866459267603 0.011787315550137 0 0.020217772280624 0.01161574996656 0.00015
          0.019866459267603 0.011787315550137 0.00015 0.020217772280624 0.01161574996656 0.0003
          0.019866459267603 0.011787315550137 0.0003 0.020169909004412 0.012559422291794 0
          0.020384615384626 0.013 0 0.020169909004412 0.012559422291794 0.00015
          0.020384615384626 0.013 0.00015 0.020169909004412 0.012559422291794 0.0003
          0.020384615384626 0.013 0.0003 0.02048968364866 0.012063778985416 0
          0.021216890903006 0.012503701361908 0 0.020684692364028 0.012535095885709 0
          0.02048968364866 0.012063778985416 0.00015 0.021216890903006 0.012503701361908 0.00015
          0.020684692364028 0.012535095885709 0.00015 0.02048968364866 0.012063778985416 0.0003
          0.021216890903006 0.012503701361908 0.0003 0.020684692364028 0.012535095885709 0.0003
          0.020897435897446 0.013 0 0.020897435897446 0.013 0.00015
          0.020897435897446 0.013 0.0003 0.020387511226442 0.0081443073342907 0
          0.02056343795537 0.0087688297792787 0 0.020387511226442 0.0081443073342907 0.00015
          0.02056343795537 0.0087688297792787 0.00015 0.020387511226442 0.0081443073342907 0.0003
          0.02056343795537 0.0087688297792787 0.0003 0.023967653117571 0.012391671962311 0
          0.024322147732379 0.012509260561901 0 0.023967653117571 0.012391671962311 0.00015
          0.024322147732379 0.012509260561901 0.00015 0.023967653117571 0.012391671962311 0.0003
          0.024322147732379 0.012509260561901 0.0003 0.021410256410266 0.013 0
          0.021410256410266 0.013 0.00015 0.021410256410266 0.013 0.0003
          0.019993073529409 0.012116879865089 0 0.019993073529409 0.012116879865089 0.00015
          0.019993073529409 0.012116879865089 0.0003 0.02122910202584 0.0090825003429501 0
          0.02122910202584 0.0090825003429501 0.00015 0.02122910202584 0.0090825003429501 0.0003
          0.022948717948721 0.013 0 0.022435897435903 0.013 0
          0.022948717948721 0.013 0.00015 0.022435897435903 0.013 0.00015
          0.022948717948721 0.013 0.0003 0.022435897435903 0.013 0.0003
          0.021923076923085 0.013 0 0.021923076923085 0.013 0.00015
          0.021923076923085 0.013 0.0003 0.023461538461539 0.013 0
          0.023461538461539 0.013 0.00015 0.023461538461539 0.013 0.0003
          0.021171209164951 0.0086229949315581 0 0.021171209164951 0.0086229949315581 0.00015
          0.021171209164951 0.0086229949315581 0.0003 0.023974358974358 0.013 0
          0.023974358974358 0.013 0.00015 0.023974358974358 0.013 0.0003
          0.024487179487177 0.013 0 0.024487179487177 0.013 0.00015
          0.024487179487177 0.013 0.0003 0.025 0.013 0
          0.025 0.013 0.00015 0.025 0.013 0.0003
          0.026666666666667 0.0072222222222063 0 0.026666666666667 0.0072222222222063 0.00015
          0.026666666666667 0.0072222222222063 0.0003 0.026666666666668 0.0086666666666559 0
          0.026666666666668 0.0086666666666559 0.00015 0.026666666666668 0.0086666666666559 0.0003
          0.026666666666669 0.010111111111103 0 0.026666666666669 0.010111111111103 0.00015
          0.026666666666669 0.010111111111103 0.0003 0.026666666666669 0.011555555555552 0
          0.026666666666669 0.011555555555552 0.00015 0.026666666666669 0.011555555555552 0.0003
          0.02666666666667 0.013 0 0.02666666666667 0.013 0.00015
          0.02666666666667 0.013 0.0003 0.033201501647561 0.0014698753983525 0
          0.033179797338052 0 0 0.033201501647561 0.0014698753983525 0.00015
          0.033179797338052 0 0.00015 0.033201501647561 0.0014698753983525 0.0003
          0.033179797338052 0 0.0003 0.034800103200053 0.0015015548376625 0
          0.034769696007096 0 0 0.034800103200053 0.0015015548376625 0.00015
          0.034769696007096 0 0.00015 0.034800103200053 0.0015015548376625 0.0003
          0.034769696007096 0 0.0003 0.03639613666046 0.0015457026119765 0
          0.036359594676111 0 0 0.03639613666046 0.0015457026119765 0.00015
          0.036359594676111 0 0.00015 0.03639613666046 0.0015457026119765 0.0003
          0.036359594676111 0 0.0003 0.037988764334349 0.001602116400018 0
          0.037949493345121 0 0 0.037988764334349 0.001602116400018 0.00015
          0.037949493345121 0 0.00015 0.037988764334349 0.001602116400018 0.0003
          0.037949493345121 0 0.0003 0.039577164134098 0.001670537667151 0
          0.039539392014149 0 0 0.039577164134098 0.001670537667151 0.00015
          0.039539392014149 0 0.00015 0.039577164134098 0.001670537667151 0.0003
          0.039539392014149 0 0.0003 0.041160533348121 0.0017506528505884 0
          0.041129290683195 0 0 0.041160533348121 0.0017506528505884 0.00015
          0.041129290683195 0 0.00015 0.041160533348121 0.0017506528505884 0.0003
          0.041129290683195 0 0.0003 0.042738092320879 0.0018420947973532 0
          0.042719189352233 0 0 0.042738092320879 0.0018420947973532 0.00015
          0.042719189352233 0 0.00015 0.042738092320879 0.0018420947973532 0.0003
          0.042719189352233 0 0.0003 0.044309088021254 0.0019444444444413 0
          0.044309088021254 0 0 0.044309088021254 0.0019444444444413 0.00015
          0.044309088021254 0 0.00015 0.044309088021254 0.0019444444444413 0.0003
          0.044309088021254 0 0.0003 0.033223205957069 0.0029397507967035 0
          0.033223205957069 0.0029397507967035 0.00015 0.033223205957069 0.0029397507967035 0.0003
          0.03483051039301 0.0030031096753234 0 0.03483051039301 0.0030031096753234 0.00015
          0.03483051039301 0.0030031096753234 0.0003 0.036432678644808 0.0030914052239513 0
          0.036432678644808 0.0030914052239513 0.00015 0.036432678644808 0.0030914052239513 0.0003
          0.038028035323577 0.0032042328000343 0 0.038028035323577 0.0032042328000343 0.00015
          0.038028035323577 0.0032042328000343 0.0003 0.039614936254047 0.0033410753343001 0
          0.039614936254047 0.0033410753343001 0.00015 0.039614936254047 0.0033410753343001 0.0003
          0.041191776013048 0.0035013057011749 0 0.041191776013048 0.0035013057011749 0.00015
          0.041191776013048 0.0035013057011749 0.0003 0.042756995289524 0.0036841895947044 0
          0.042756995289524 0.0036841895947044 0.00015 0.042756995289524 0.0036841895947044 0.0003
          0.044309088021254 0.0038888888888803 0 0.044309088021254 0.0038888888888803 0.00015
          0.044309088021254 0.0038888888888803 0.0003 0.033244910266578 0.0044096261950543 0
          0.033244910266578 0.0044096261950543 0.00015 0.033244910266578 0.0044096261950543 0.0003
          0.034860917585967 0.004504664512984 0 0.034860917585967 0.004504664512984 0.00015
          0.034860917585967 0.004504664512984 0.0003 0.036469220629156 0.0046371078359259 0
          0.036469220629156 0.0046371078359259 0.00015 0.036469220629156 0.0046371078359259 0.0003
          0.038067306312805 0.0048063492000502 0 0.038067306312805 0.0048063492000502 0.00015
          0.038067306312805 0.0048063492000502 0.0003 0.039652708373995 0.0050116130014489 0
          0.039652708373995 0.0050116130014489 0.00015 0.039652708373995 0.0050116130014489 0.0003
          0.041223018677975 0.005251958551761 0 0.041223018677975 0.005251958551761 0.00015
          0.041223018677975 0.005251958551761 0.0003 0.04277589825817 0.0055262843920551 0
          0.04277589825817 0.0055262843920551 0.00015 0.04277589825817 0.0055262843920551 0.0003
          0.044309088021254 0.0058333333333189 0 0.044309088021254 0.0058333333333189 0.00015
          0.044309088021254 0.0058333333333189 0.0003 0.033266614576087 0.0058795015934051 0
          0.033266614576087 0.0058795015934051 0.00015 0.033266614576087 0.0058795015934051 0.0003
          0.034891324778924 0.0060062193506447 0 0.034891324778924 0.0060062193506447 0.00015
          0.034891324778924 0.0060062193506447 0.0003 0.036505762613504 0.0061828104479004 0
          0.036505762613504 0.0061828104479004 0.00015 0.036505762613504 0.0061828104479004 0.0003
          0.038106577302032 0.0064084656000662 0 0.038106577302032 0.0064084656000662 0.00015
          0.038106577302032 0.0064084656000662 0.0003 0.039690480493944 0.0066821506685977 0
          0.039690480493944 0.0066821506685977 0.00015 0.039690480493944 0.0066821506685977 0.0003
          0.041254261342902 0.0070026114023471 0 0.041254261342902 0.0070026114023471 0.00015
          0.041254261342902 0.0070026114023471 0.0003 0.042794801226816 0.0073683791894058 0
          0.042794801226816 0.0073683791894058 0.00015 0.042794801226816 0.0073683791894058 0.0003
          0.044309088021254 0.0077777777777574 0 0.044309088021254 0.0077777777777574 0.00015
          0.044309088021254 0.0077777777777574 0.0003 0.033288318885596 0.0073493769917596 0
          0.033288318885596 0.0073493769917596 0.00015 0.033288318885596 0.0073493769917596 0.0003
          0.034921731971881 0.0075077741883091 0 0.034921731971881 0.0075077741883091 0.00015
          0.034921731971881 0.0075077741883091 0.0003 0.036542304597852 0.0077285130598789 0
          0.036542304597852 0.0077285130598789 0.00015 0.036542304597852 0.0077285130598789 0.0003
          0.03814584829126 0.0080105820000862 0 0.03814584829126 0.0080105820000862 0.00015
          0.03814584829126 0.0080105820000862 0.0003 0.039728252613893 0.0083526883357508 0
          0.039728252613893 0.0083526883357508 0.00015 0.039728252613893 0.0083526883357508 0.0003
          0.041285504007829 0.0087532642529377 0 0.041285504007829 0.0087532642529377 0.00015
          0.041285504007829 0.0087532642529377 0.0003 0.042813704195461 0.0092104739867613 0
          0.042813704195461 0.0092104739867613 0.00015 0.042813704195461 0.0092104739867613 0.0003
          0.044309088021254 0.0097222222222011 0 0.044309088021254 0.0097222222222011 0.00015
          0.044309088021254 0.0097222222222011 0.0003 0.031657595460571 0.0087048568522863 0
          0.031657595460571 0.0087048568522863 0.00015 0.031657595460571 0.0087048568522863 0.0003
          0.033310023195106 0.0088192523901195 0 0.033310023195106 0.0088192523901195 0.00015
          0.033310023195106 0.0088192523901195 0.0003 0.034952139164838 0.009009329025979 0
          0.034952139164838 0.009009329025979 0.00015 0.034952139164838 0.009009329025979 0.0003
          0.0365788465822 0.0092742156718627 0 0.0365788465822 0.0092742156718627 0.00015
          0.0365788465822 0.0092742156718627 0.0003 0.038185119280488 0.0096126984001116 0
          0.038185119280488 0.0096126984001116 0.00015 0.038185119280488 0.0096126984001116 0.0003
          0.039766024733842 0.010023226002909 0 0.039766024733842 0.010023226002909 0.00015
          0.039766024733842 0.010023226002909 0.0003 0.041316746672756 0.010503917103534 0
          0.041316746672756 0.010503917103534 0.00015 0.041316746672756 0.010503917103534 0.0003
          0.042832607164107 0.011052568784123 0 0.042832607164107 0.011052568784123 0.00015
          0.042832607164107 0.011052568784123 0.0003 0.044309088021254 0.011666666666651 0
          0.044309088021254 0.011666666666651 0.00015 0.044309088021254 0.011666666666651 0.0003
          0.031668878259163 0.010155666327672 0 0.031668878259163 0.010155666327672 0.00015
          0.031668878259163 0.010155666327672 0.0003 0.033331727504615 0.010289127788478 0
          0.033331727504615 0.010289127788478 0.00015 0.033331727504615 0.010289127788478 0.0003
          0.034982546357795 0.010510883863647 0 0.034982546357795 0.010510883863647 0.00015
          0.034982546357795 0.010510883863647 0.0003 0.036615388566549 0.010819918283845 0
          0.036615388566549 0.010819918283845 0.00015 0.036615388566549 0.010819918283845 0.0003
          0.038224390269716 0.011214814800136 0 0.038224390269716 0.011214814800136 0.00015
          0.038224390269716 0.011214814800136 0.0003 0.039803796853791 0.011693763670067 0
          0.039803796853791 0.011693763670067 0.00015 0.039803796853791 0.011693763670067 0.0003
          0.041347989337683 0.012254569954129 0 0.041347989337683 0.012254569954129 0.00015
          0.041347989337683 0.012254569954129 0.0003 0.042851510132752 0.012894663581483 0
          0.042851510132752 0.012894663581483 0.00015 0.042851510132752 0.012894663581483 0.0003
          0.044309088021254 0.0136111111111 0 0.044309088021254 0.0136111111111 0.00015
          0.044309088021254 0.0136111111111 0.0003 0.031680161057755 0.011606475803059 0
          0.031680161057755 0.011606475803059 0.00015 0.031680161057755 0.011606475803059 0.0003
          0.033353431814124 0.011759003186837 0 0.033353431814124 0.011759003186837 0.00015
          0.033353431814124 0.011759003186837 0.0003 0.035012953550752 0.012012438701317 0
          0.035012953550752 0.012012438701317 0.00015 0.035012953550752 0.012012438701317 0.0003
          0.036651930550897 0.012365620895829 0 0.036651930550897 0.012365620895829 0.00015
          0.036651930550897 0.012365620895829 0.0003 0.038263661258944 0.012816931200161 0
          0.038263661258944 0.012816931200161 0.00015 0.038263661258944 0.012816931200161 0.0003
          0.03984156897374 0.013364301337225 0 0.03984156897374 0.013364301337225 0.00015
          0.03984156897374 0.013364301337225 0.0003 0.04137923200261 0.014005222804725 0
          0.04137923200261 0.014005222804725 0.00015 0.04137923200261 0.014005222804725 0.0003
          0.042870413101398 0.014736758378844 0 0.042870413101398 0.014736758378844 0.00015
          0.042870413101398 0.014736758378844 0.0003 0.044309088021254 0.015555555555549 0
          0.044309088021254 0.015555555555549 0.00015 0.044309088021254 0.015555555555549 0.0003
          0.031691443856347 0.013057285278446 0 0.031691443856347 0.013057285278446 0.00015
          0.031691443856347 0.013057285278446 0.0003 0.033375136123633 0.013228878585196 0
          0.033375136123633 0.013228878585196 0.00015 0.033375136123633 0.013228878585196 0.0003
          0.035043360743709 0.013513993538986 0 0.035043360743709 0.013513993538986 0.00015
          0.035043360743709 0.013513993538986 0.0003 0.036688472535245 0.013911323507812 0
          0.036688472535245 0.013911323507812 0.00015 0.036688472535245 0.013911323507812 0.0003
          0.038302932248172 0.014419047600187 0 0.038302932248172 0.014419047600187 0.00015
          0.038302932248172 0.014419047600187 0.0003 0.039879341093689 0.015034839004384 0
          0.039879341093689 0.015034839004384 0.00015 0.039879341093689 0.015034839004384 0.0003
          0.041410474667538 0.015755875655322 0 0.041410474667538 0.015755875655322 0.00015
          0.041410474667538 0.015755875655322 0.0003 0.042889316070044 0.016578853176207 0
          0.042889316070044 0.016578853176207 0.00015 0.042889316070044 0.016578853176207 0.0003
          0.044309088021254 0.0175 0 0.044309088021254 0.0175 0.00015
          0.044309088021254 0.0175 0.0003 0.045420199132363 0 0
          0.045420199132363 0.0019444444444413 0 0.045420199132363 0 0.00015
          0.045420199132363 0.0019444444444413 0.00015 0.045420199132363 0 0.0003
          0.045420199132363 0.0019444444444413 0.0003 0.045420199132363 0.0038888888888803 0
          0.045420199132363 0.0038888888888803 0.00015 0.045420199132363 0.0038888888888803 0.0003
          0.045420199132363 0.0058333333333189 0 0.045420199132363 0.0058333333333189 0.00015
          0.045420199132363 0.0058333333333189 0.0003 0.045420199132363 0.0077777777777574 0
          0.045420199132363 0.0077777777777574 0.00015 0.045420199132363 0.0077777777777574 0.0003
          0.045420199132363 0.0097222222222011 0 0.045420199132363 0.0097222222222011 0.00015
          0.045420199132363 0.0097222222222011 0.0003 0.045420199132363 0.011666666666651 0
          0.045420199132363 0.011666666666651 0.00015 0.045420199132363 0.011666666666651 0.0003
          0.045420199132363 0.0136111111111 0 0.045420199132363 0.0136111111111 0.00015
          0.045420199132363 0.0136111111111 0.0003 0.045420199132363 0.015555555555549 0
          0.045420199132363 0.015555555555549 0.00015 0.045420199132363 0.015555555555549 0.0003
          0.045420199132363 0.0175 0 0.045420199132363 0.0175 0.00015
          0.045420199132363 0.0175 0.0003 0.046531310243475 0 0
          0.046531310243475 0.0019444444444413 0 0.046531310243475 0 0.00015
          0.046531310243475 0.0019444444444413 0.00015 0.046531310243475 0 0.0003
          0.046531310243475 0.0019444444444413 0.0003 0.046531310243475 0.0038888888888803 0
          0.046531310243475 0.0038888888888803 0.00015 0.046531310243475 0.0038888888888803 0.0003
          0.046531310243475 0.0058333333333189 0 0.046531310243475 0.0058333333333189 0.00015
          0.046531310243475 0.0058333333333189 0.0003 0.046531310243475 0.0077777777777574 0
          0.046531310243475 0.0077777777777574 0.00015 0.046531310243475 0.0077777777777574 0.0003
          0.046531310243475 0.0097222222222011 0 0.046531310243475 0.0097222222222011 0.00015
          0.046531310243475 0.0097222222222011 0.0003 0.046531310243475 0.011666666666651 0
          0.046531310243475 0.011666666666651 0.00015 0.046531310243475 0.011666666666651 0.0003
          0.046531310243475 0.0136111111111 0 0.046531310243475 0.0136111111111 0.00015
          0.046531310243475 0.0136111111111 0.0003 0.046531310243475 0.015555555555549 0
          0.046531310243475 0.015555555555549 0.00015 0.046531310243475 0.015555555555549 0.0003
          0.046531310243475 0.0175 0 0.046531310243475 0.0175 0.00015
          0.046531310243475 0.0175 0.0003 0.04764242135458 0 0
          0.04764242135458 0.0019444444444413 0 0.04764242135458 0 0.00015
          0.04764242135458 0.0019444444444413 0.00015 0.04764242135458 0 0.0003
          0.04764242135458 0.0019444444444413 0.0003 0.04764242135458 0.0038888888888803 0
          0.04764242135458 0.0038888888888803 0.00015 0.04764242135458 0.0038888888888803 0.0003
          0.04764242135458 0.0058333333333189 0 0.04764242135458 0.0058333333333189 0.00015
          0.04764242135458 0.0058333333333189 0.0003 0.04764242135458 0.0077777777777574 0
          0.04764242135458 0.0077777777777574 0.00015 0.04764242135458 0.0077777777777574 0.0003
          0.04764242135458 0.0097222222222011 0 0.04764242135458 0.0097222222222011 0.00015
          0.04764242135458 0.0097222222222011 0.0003 0.04764242135458 0.011666666666651 0
          0.04764242135458 0.011666666666651 0.00015 0.04764242135458 0.011666666666651 0.0003
          0.04764242135458 0.0136111111111 0 0.04764242135458 0.0136111111111 0.00015
          0.04764242135458 0.0136111111111 0.0003 0.04764242135458 0.015555555555549 0
          0.04764242135458 0.015555555555549 0.00015 0.04764242135458 0.015555555555549 0.0003
          0.04764242135458 0.0175 0 0.04764242135458 0.0175 0.00015
          0.04764242135458 0.0175 0.0003 0.048753532465692 0 0
          0.048753532465692 0.0019444444444413 0 0.048753532465692 0 0.00015
          0.048753532465692 0.0019444444444413 0.00015 0.048753532465692 0 0.0003
          0.048753532465692 0.0019444444444413 0.0003 0.048753532465692 0.0038888888888803 0
          0.048753532465692 0.0038888888888803 0.00015 0.048753532465692 0.0038888888888803 0.0003
          0.048753532465692 0.0058333333333189 0 0.048753532465692 0.0058333333333189 0.00015
          0.048753532465692 0.0058333333333189 0.0003 0.048753532465692 0.0077777777777574 0
          0.048753532465692 0.0077777777777574 0.00015 0.048753532465692 0.0077777777777574 0.0003
          0.048753532465692 0.0097222222222011 0 0.048753532465692 0.0097222222222011 0.00015
          0.048753532465692 0.0097222222222011 0.0003 0.048753532465692 0.011666666666651 0
          0.048753532465692 0.011666666666651 0.00015 0.048753532465692 0.011666666666651 0.0003
          0.048753532465692 0.0136111111111 0 0.048753532465692 0.0136111111111 0.00015
          0.048753532465692 0.0136111111111 0.0003 0.048753532465692 0.015555555555549 0
          0.048753532465692 0.015555555555549 0.00015 0.048753532465692 0.015555555555549 0.0003
          0.048753532465692 0.0175 0 0.048753532465692 0.0175 0.00015
          0.048753532465692 0.0175 0.0003 0.0498646435768 0 0
          0.0498646435768 0.0019444444444413 0 0.0498646435768 0 0.00015
          0.0498646435768 0.0019444444444413 0.00015 0.0498646435768 0 0.0003
          0.0498646435768 0.0019444444444413 0.0003 0.0498646435768 0.0038888888888803 0
          0.0498646435768 0.0038888888888803 0.00015 0.0498646435768 0.0038888888888803 0.0003
          0.0498646435768 0.0058333333333189 0 0.0498646435768 0.0058333333333189 0.00015
          0.0498646435768 0.0058333333333189 0.0003 0.0498646435768 0.0077777777777574 0
          0.0498646435768 0.0077777777777574 0.00015 0.0498646435768 0.0077777777777574 0.0003
          0.0498646435768 0.0097222222222011 0 0.0498646435768 0.0097222222222011 0.00015
          0.0498646435768 0.0097222222222011 0.0003 0.0498646435768 0.011666666666651 0
          0.0498646435768 0.011666666666651 0.00015 0.0498646435768 0.011666666666651 0.0003
          0.0498646435768 0.0136111111111 0 0.0498646435768 0.0136111111111 0.00015
          0.0498646435768 0.0136111111111 0.0003 0.0498646435768 0.015555555555549 0
          0.0498646435768 0.015555555555549 0.00015 0.0498646435768 0.015555555555549 0.0003
          0.0498646435768 0.0175 0 0.0498646435768 0.0175 0.00015
          0.0498646435768 0.0175 0.0003 0.050975754687912 0 0
          0.050975754687912 0.0019444444444413 0 0.050975754687912 0 0.00015
          0.050975754687912 0.0019444444444413 0.00015 0.050975754687912 0 0.0003
          0.050975754687912 0.0019444444444413 0.0003 0.050975754687912 0.0038888888888803 0
          0.050975754687912 0.0038888888888803 0.00015 0.050975754687912 0.0038888888888803 0.0003
          0.050975754687912 0.0058333333333189 0 0.050975754687912 0.0058333333333189 0.00015
          0.050975754687912 0.0058333333333189 0.0003 0.050975754687912 0.0077777777777574 0
          0.050975754687912 0.0077777777777574 0.00015 0.050975754687912 0.0077777777777574 0.0003
          0.050975754687912 0.0097222222222011 0 0.050975754687912 0.0097222222222011 0.00015
          0.050975754687912 0.0097222222222011 0.0003 0.050975754687912 0.011666666666651 0
          0.050975754687912 0.011666666666651 0.00015 0.050975754687912 0.011666666666651 0.0003
          0.050975754687912 0.0136111111111 0 0.050975754687912 0.0136111111111 0.00015
          0.050975754687912 0.0136111111111 0.0003 0.050975754687912 0.015555555555549 0
          0.050975754687912 0.015555555555549 0.00015 0.050975754687912 0.015555555555549 0.0003
          0.050975754687912 0.0175 0 0.050975754687912 0.0175 0.00015
          0.050975754687912 0.0175 0.0003 0.052086865799025 0 0
          0.052086865799025 0.0019444444444413 0 0.052086865799025 0 0.00015
          0.052086865799025 0.0019444444444413 0.00015 0.052086865799025 0 0.0003
          0.052086865799025 0.0019444444444413 0.0003 0.052086865799025 0.0038888888888803 0
          0.052086865799025 0.0038888888888803 0.00015 0.052086865799025 0.0038888888888803 0.0003
          0.052086865799025 0.0058333333333189 0 0.052086865799025 0.0058333333333189 0.00015
          0.052086865799025 0.0058333333333189 0.0003 0.052086865799025 0.0077777777777574 0
          0.052086865799025 0.0077777777777574 0.00015 0.052086865799025 0.0077777777777574 0.0003
          0.052086865799025 0.0097222222222011 0 0.052086865799025 0.0097222222222011 0.00015
          0.052086865799025 0.0097222222222011 0.0003 0.052086865799025 0.011666666666651 0
          0.052086865799025 0.011666666666651 0.00015 0.052086865799025 0.011666666666651 0.0003
          0.052086865799025 0.0136111111111 0 0.052086865799025 0.0136111111111 0.00015
          0.052086865799025 0.0136111111111 0.0003 0.052086865799025 0.015555555555549 0
          0.052086865799025 0.015555555555549 0.00015 0.052086865799025 0.015555555555549 0.0003
          0.052086865799025 0.0175 0 0.052086865799025 0.0175 0.00015
          0.052086865799025 0.0175 0.0003 0.05319797691014 0 0
          0.05319797691014 0.0019444444444413 0 0.05319797691014 0 0.00015
          0.05319797691014 0.0019444444444413 0.00015 0.05319797691014 0 0.0003
          0.05319797691014 0.0019444444444413 0.0003 0.05319797691014 0.0038888888888803 0
          0.05319797691014 0.0038888888888803 0.00015 0.05319797691014 0.0038888888888803 0.0003
          0.05319797691014 0.0058333333333189 0 0.05319797691014 0.0058333333333189 0.00015
          0.05319797691014 0.0058333333333189 0.0003 0.05319797691014 0.0077777777777574 0
          0.05319797691014 0.0077777777777574 0.00015 0.05319797691014 0.0077777777777574 0.0003
          0.05319797691014 0.0097222222222011 0 0.05319797691014 0.0097222222222011 0.00015
          0.05319797691014 0.0097222222222011 0.0003 0.05319797691014 0.011666666666651 0
          0.05319797691014 0.011666666666651 0.00015 0.05319797691014 0.011666666666651 0.0003
          0.05319797691014 0.0136111111111 0 0.05319797691014 0.0136111111111 0.00015
          0.05319797691014 0.0136111111111 0.0003 0.05319797691014 0.015555555555549 0
          0.05319797691014 0.015555555555549 0.00015 0.05319797691014 0.015555555555549 0.0003
          0.05319797691014 0.0175 0 0.05319797691014 0.0175 0.00015
          0.05319797691014 0.0175 0.0003 0.054309088021254 0 0
          0.054309088021254 0.0019444444444413 0 0.054309088021254 0 0.00015
          0.054309088021254 0.0019444444444413 0.00015 0.054309088021254 0 0.0003
          0.054309088021254 0.0019444444444413 0.0003 0.054309088021254 0.0038888888888803 0
          0.054309088021254 0.0038888888888803 0.00015 0.054309088021254 0.0038888888888803 0.0003
          0.054309088021254 0.0058333333333189 0 0.054309088021254 0.0058333333333189 0.00015
          0.054309088021254 0.0058333333333189 0.0003 0.054309088021254 0.0077777777777574 0
          0.054309088021254 0.0077777777777574 0.00015 0.054309088021254 0.0077777777777574 0.0003
          0.054309088021254 0.0097222222222011 0 0.054309088021254 0.0097222222222011 0.00015
          0.054309088021254 0.0097222222222011 0.0003 0.054309088021254 0.011666666666651 0
          0.054309088021254 0.011666666666651 0.00015 0.054309088021254 0.011666666666651 0.0003
          0.054309088021254 0.0136111111111 0 0.054309088021254 0.0136111111111 0.00015
          0.054309088021254 0.0136111111111 0.0003 0.054309088021254 0.015555555555549 0
          0.054309088021254 0.015555555555549 0.00015 0.054309088021254 0.015555555555549 0.0003
          0.054309088021254 0.0175 0 0.054309088021254 0.0175 0.00015
          0.054309088021254 0.0175 0.0003
          <InformationKey name="L2_NORM_RANGE" location="vtkDataArray" length="2">
            <Value index="0">
              0.019949534491
            </Value>
            <Value index="1">
              0.057059767277
            </Value>
          </InformationKey>
        </DataArray>
      </Points>
      <Cells>
        <DataArray type="Int64" Name="connectivity" format="ascii" RangeMin="0" RangeMax="818">
          0 1 2 3 4 5
          6 7 4 5 6 7
          8 9 10 11 12 13
          14 15 16 17 18 19
          16 17 18 19 20 21
          22 23 24 0 3 25
          26 4 7 27 26 4
          7 27 28 8 11 29
          30 31 32 14 33 34
          35 18 33 34 35 18
          36 37 38 22 39 40
          41 42 43 44 45 46
          43 44 45 46 47 48
          49 50 51 52 53 54
          55 56 57 58 55 56
          57 58 59 60 61 62
          13 63 64 65 17 66
          67 68 17 66 67 68
          21 69 70 71 0 24
          32 72 4 26 35 73
          4 26 35 73 8 28
          38 74 24 15 14 32
          26 19 18 35 26 19
          18 35 28 23 22 38
          13 65 30 14 17 68
          33 18 17 68 33 18
          21 71 36 22 93 94
          95 96 97 98 99 100
          97 98 99 100 101 102
          103 104 72 32 31 81
          73 35 34 83 73 35
          34 83 74 38 37 85
          53 40 39 54 57 44
          43 58 57 44 43 58
          61 48 47 62 31 30
          111 82 34 33 112 84
          34 33 112 84 37 36
          113 86 12 15 114 115
          16 19 116 117 16 19
          116 117 20 23 118 119
          120 121 122 123 124 125
          126 127 124 125 126 127
          128 129 130 131 64 76
          75 65 67 78 77 68
          67 78 77 68 70 80
          79 71 132 133 54 39
          134 135 58 43 134 135
          58 43 136 137 62 47
          53 141 41 40 57 142
          45 44 57 142 45 44
          61 143 49 48 111 30
          65 75 112 33 68 77
          112 33 68 77 113 36
          71 79 54 150 151 51
          58 152 153 55 58 152
          153 55 62 154 155 59
          156 122 121 157 158 126
          125 159 158 126 125 159
          160 130 129 161 162 88
          108 138 163 90 109 139
          163 90 109 139 164 92
          110 140 168 87 88 162
          169 89 90 163 169 89
          90 163 170 91 92 164
          121 165 171 157 125 166
          172 159 125 166 172 159
          129 167 173 161 132 39
          42 183 134 43 46 184
          134 43 46 184 136 47
          50 185 186 96 95 187
          188 100 99 189 188 100
          99 189 190 104 103 191
          192 193 122 156 194 195
          126 158 194 195 126 158
          196 197 130 160 183 42
          96 186 184 46 100 188
          184 46 100 188 185 50
          104 190 151 150 198 199
          153 152 200 201 153 152
          200 201 155 154 202 203
          174 145 144 204 175 147
          146 205 175 147 146 205
          176 149 148 206 193 192
          95 204 195 194 99 205
          195 194 99 205 197 196
          103 206 123 122 193 210
          127 126 195 211 127 126
          195 211 131 130 197 212
          93 96 42 41 97 100
          46 45 97 100 46 45
          101 104 50 49 213 214
          87 168 215 216 89 169
          215 216 89 169 217 218
          91 170 178 219 220 177
          180 221 222 179 180 221
          222 179 182 223 224 181
          225 141 226 227 228 142
          229 230 228 142 229 230
          231 143 232 233 120 105
          165 121 124 106 166 125
          124 106 166 125 128 107
          167 129 210 193 204 144
          211 195 205 146 211 195
          205 146 212 197 206 148
          219 227 234 220 221 230
          235 222 221 230 235 222
          223 233 236 224 94 174
          204 95 98 175 205 99
          98 175 205 99 102 176
          206 103 192 156 237 238
          194 158 239 240 194 158
          239 240 196 160 241 242
          243 2 1 244 245 6
          5 246 245 6 5 246
          247 10 9 248 227 226
          249 234 230 229 250 235
          230 229 250 235 233 232
          251 236 238 187 95 192
          240 189 99 194 240 189
          99 194 242 191 103 196
          252 207 87 214 253 208
          89 216 253 208 89 216
          254 209 91 218 187 255
          115 186 189 256 117 188
          189 256 117 188 191 257
          119 190 94 162 138 174
          98 163 139 175 98 163
          139 175 102 164 140 176
          64 63 237 171 67 66
          239 172 67 66 239 172
          70 69 241 173 41 213
          168 93 45 215 169 97
          45 215 169 97 49 217
          170 101 2 198 133 3
          6 200 135 7 6 200
          135 7 10 202 137 11
          25 114 15 24 27 116
          19 26 27 116 19 26
          29 118 23 28 114 183
          186 115 116 184 188 117
          116 184 188 117 118 185
          190 119 51 151 258 259
          55 153 260 261 55 153
          260 261 59 155 262 263
          226 52 264 249 229 56
          265 250 229 56 265 250
          232 60 266 251 198 150
          54 133 200 152 58 135
          200 152 58 135 202 154
          62 137 64 171 165 76
          67 172 166 78 67 172
          166 78 70 173 167 80
          52 51 259 264 56 55
          261 265 56 55 261 265
          60 59 263 266 171 237
          156 157 172 239 158 159
          172 239 158 159 173 241
          160 161 252 214 213 225
          253 216 215 228 253 216
          215 228 254 218 217 231
          151 199 267 258 153 201
          268 260 153 201 268 260
          155 203 269 262 63 13
          12 270 66 17 16 271
          66 17 16 271 69 21
          20 272 270 255 187 238
          271 256 189 240 271 256
          189 240 272 257 191 242
          199 198 2 243 201 200
          6 245 201 200 6 245
          203 202 10 247 225 213
          41 141 228 215 45 142
          228 215 45 142 231 217
          49 143 52 226 141 53
          56 229 142 57 56 229
          142 57 60 232 143 61
          25 132 183 114 27 134
          184 116 27 134 184 116
          29 136 185 118 252 225
          227 219 253 228 230 221
          253 228 230 221 254 231
          233 223 219 178 207 252
          221 180 208 253 221 180
          208 253 223 182 209 254
          25 3 133 132 27 7
          135 134 27 7 135 134
          29 11 137 136 93 168
          162 94 97 169 163 98
          97 169 163 98 101 170
          164 102 270 12 115 255
          271 16 117 256 271 16
          117 256 272 20 119 257
          199 243 273 267 201 245
          274 268 201 245 274 268
          203 247 275 269 63 270
          238 237 66 271 240 239
          66 271 240 239 69 272
          242 241 243 244 276 273
          245 246 277 274 245 246
          277 274 247 248 278 275
          276 244 1 279 277 246
          5 280 277 246 5 280
          278 248 9 281 285 72
          81 282 286 73 83 283
          286 73 83 283 287 74
          85 284 288 0 72 285
          289 4 73 286 289 4
          73 286 290 8 74 287
          291 1 0 288 292 5
          4 289 292 5 4 289
          293 9 8 290 294 279
          1 291 295 280 5 292
          295 280 5 292 296 281
          9 293 303 297 298 304
          305 299 300 306 305 299
          300 306 307 301 302 308
          309 303 304 310 311 305
          306 312 311 305 306 312
          313 307 308 314 315 309
          310 316 317 311 312 318
          317 311 312 318 319 313
          314 320 321 315 316 322
          323 317 318 324 323 317
          318 324 325 319 320 326
          327 321 322 328 329 323
          324 330 329 323 324 330
          331 325 326 332 333 327
          328 334 335 329 330 336
          335 329 330 336 337 331
          332 338 339 333 334 340
          341 335 336 342 341 335
          336 342 343 337 338 344
          348 345 297 303 349 346
          299 305 349 346 299 305
          350 347 301 307 351 348
          303 309 352 349 305 311
          352 349 305 311 353 350
          307 313 354 351 309 315
          355 352 311 317 355 352
          311 317 356 353 313 319
          357 354 315 321 358 355
          317 323 358 355 317 323
          359 356 319 325 360 357
          321 327 361 358 323 329
          361 358 323 329 362 359
          325 331 363 360 327 333
          364 361 329 335 364 361
          329 335 365 362 331 337
          366 363 333 339 367 364
          335 341 367 364 335 341
          368 365 337 343 372 369
          345 348 373 370 346 349
          373 370 346 349 374 371
          347 350 375 372 348 351
          376 373 349 352 376 373
          349 352 377 374 350 353
          378 375 351 354 379 376
          352 355 379 376 352 355
          380 377 353 356 381 378
          354 357 382 379 355 358
          382 379 355 358 383 380
          356 359 384 381 357 360
          385 382 358 361 385 382
          358 361 386 383 359 362
          387 384 360 363 388 385
          361 364 388 385 361 364
          389 386 362 365 390 387
          363 366 391 388 364 367
          391 388 364 367 392 389
          365 368 396 393 369 372
          397 394 370 373 397 394
          370 373 398 395 371 374
          399 396 372 375 400 397
          373 376 400 397 373 376
          401 398 374 377 402 399
          375 378 403 400 376 379
          403 400 376 379 404 401
          377 380 405 402 378 381
          406 403 379 382 406 403
          379 382 407 404 380 383
          408 405 381 384 409 406
          382 385 409 406 382 385
          410 407 383 386 411 408
          384 387 412 409 385 388
          412 409 385 388 413 410
          386 389 414 411 387 390
          415 412 388 391 415 412
          388 391 416 413 389 392
          420 417 393 396 421 418
          394 397 421 418 394 397
          422 419 395 398 423 420
          396 399 424 421 397 400
          424 421 397 400 425 422
          398 401 426 423 399 402
          427 424 400 403 427 424
          400 403 428 425 401 404
          429 426 402 405 430 427
          403 406 430 427 403 406
          431 428 404 407 432 429
          405 408 433 430 406 409
          433 430 406 409 434 431
          407 410 435 432 408 411
          436 433 409 412 436 433
          409 412 437 434 410 413
          438 435 411 414 439 436
          412 415 439 436 412 415
          440 437 413 416 447 444
          417 420 448 445 418 421
          448 445 418 421 449 446
          419 422 450 447 420 423
          451 448 421 424 451 448
          421 424 452 449 422 425
          453 450 423 426 454 451
          424 427 454 451 424 427
          455 452 425 428 456 453
          426 429 457 454 427 430
          457 454 427 430 458 455
          428 431 459 456 429 432
          460 457 430 433 460 457
          430 433 461 458 431 434
          462 459 432 435 463 460
          433 436 463 460 433 436
          464 461 434 437 465 462
          435 438 466 463 436 439
          466 463 436 439 467 464
          437 440 471 468 441 444
          472 469 442 445 472 469
          442 445 473 470 443 446
          474 471 444 447 475 472
          445 448 475 472 445 448
          476 473 446 449 477 474
          447 450 478 475 448 451
          478 475 448 451 479 476
          449 452 480 477 450 453
          481 478 451 454 481 478
          451 454 482 479 452 455
          483 480 453 456 484 481
          454 457 484 481 454 457
          485 482 455 458 486 483
          456 459 487 484 457 460
          487 484 457 460 488 485
          458 461 489 486 459 462
          490 487 460 463 490 487
          460 463 491 488 461 464
          492 489 462 465 493 490
          463 466 493 490 463 466
          494 491 464 467 498 495
          468 471 499 496 469 472
          499 496 469 472 500 497
          470 473 501 498 471 474
          502 499 472 475 502 499
          472 475 503 500 473 476
          504 501 474 477 505 502
          475 478 505 502 475 478
          506 503 476 479 507 504
          477 480 508 505 478 481
          508 505 478 481 509 506
          479 482 510 507 480 483
          511 508 481 484 511 508
          481 484 512 509 482 485
          513 510 483 486 514 511
          484 487 514 511 484 487
          515 512 485 488 516 513
          486 489 517 514 487 490
          517 514 487 490 518 515
          488 491 519 516 489 492
          520 517 490 493 520 517
          490 493 521 518 491 494
          525 522 495 498 526 523
          496 499 526 523 496 499
          527 524 497 500 528 525
          498 501 529 526 499 502
          529 526 499 502 530 527
          500 503 531 528 501 504
          532 529 502 505 532 529
          502 505 533 530 503 506
          534 531 504 507 535 532
          505 508 535 532 505 508
          536 533 506 509 537 534
          507 510 538 535 508 511
          538 535 508 511 539 536
          509 512 540 537 510 513
          541 538 511 514 541 538
          511 514 542 539 512 515
          543 540 513 516 544 541
          514 517 544 541 514 517
          545 542 515 518 546 543
          516 519 547 544 517 520
          547 544 517 520 548 545
          518 521 340 549 550 339
          342 551 552 341 342 551
          552 341 344 553 554 343
          339 550 555 366 341 552
          556 367 341 552 556 367
          343 554 557 368 366 555
          558 390 367 556 559 391
          367 556 559 391 368 557
          560 392 390 558 561 414
          391 559 562 415 391 559
          562 415 392 560 563 416
          414 561 564 438 415 562
          565 439 415 562 565 439
          416 563 566 440 438 564
          567 465 439 565 568 466
          439 565 568 466 440 566
          569 467 465 567 570 492
          466 568 571 493 466 568
          571 493 467 569 572 494
          492 570 573 519 493 571
          574 520 493 571 574 520
          494 572 575 521 519 573
          576 546 520 574 577 547
          520 574 577 547 521 575
          578 548 549 579 580 550
          551 581 582 552 551 581
          582 552 553 583 584 554
          550 580 585 555 552 582
          586 556 552 582 586 556
          554 584 587 557 555 585
          588 558 556 586 589 559
          556 586 589 559 557 587
          590 560 558 588 591 561
          559 589 592 562 559 589
          592 562 560 590 593 563
          561 591 594 564 562 592
          595 565 562 592 595 565
          563 593 596 566 564 594
          597 567 565 595 598 568
          565 595 598 568 566 596
          599 569 567 597 600 570
          568 598 601 571 568 598
          601 571 569 599 602 572
          570 600 603 573 571 601
          604 574 571 601 604 574
          572 602 605 575 573 603
          606 576 574 604 607 577
          574 604 607 577 575 605
          608 578 579 609 610 580
          581 611 612 582 581 611
          612 582 583 613 614 584
          580 610 615 585 582 612
          616 586 582 612 616 586
          584 614 617 587 585 615
          618 588 586 616 619 589
          586 616 619 589 587 617
          620 590 588 618 621 591
          589 619 622 592 589 619
          622 592 590 620 623 593
          591 621 624 594 592 622
          625 595 592 622 625 595
          593 623 626 596 594 624
          627 597 595 625 628 598
          595 625 628 598 596 626
          629 599 597 627 630 600
          598 628 631 601 598 628
          631 601 599 629 632 602
          600 630 633 603 601 631
          634 604 601 631 634 604
          602 632 635 605 603 633
          636 606 604 634 637 607
          604 634 637 607 605 635
          638 608 609 639 640 610
          611 641 642 612 611 641
          642 612 613 643 644 614
          610 640 645 615 612 642
          646 616 612 642 646 616
          614 644 647 617 615 645
          648 618 616 646 649 619
          616 646 649 619 617 647
          650 620 618 648 651 621
          619 649 652 622 619 649
          652 622 620 650 653 623
          621 651 654 624 622 652
          655 625 622 652 655 625
          623 653 656 626 624 654
          657 627 625 655 658 628
          625 655 658 628 626 656
          659 629 627 657 660 630
          628 658 661 631 628 658
          661 631 629 659 662 632
          630 660 663 633 631 661
          664 634 631 661 664 634
          632 662 665 635 633 663
          666 636 634 664 667 637
          634 664 667 637 635 665
          668 638 639 669 670 640
          641 671 672 642 641 671
          672 642 643 673 674 644
          640 670 675 645 642 672
          676 646 642 672 676 646
          644 674 677 647 645 675
          678 648 646 676 679 649
          646 676 679 649 647 677
          680 650 648 678 681 651
          649 679 682 652 649 679
          682 652 650 680 683 653
          651 681 684 654 652 682
          685 655 652 682 685 655
          653 683 686 656 654 684
          687 657 655 685 688 658
          655 685 688 658 656 686
          689 659 657 687 690 660
          658 688 691 661 658 688
          691 661 659 689 692 662
          660 690 693 663 661 691
          694 664 661 691 694 664
          662 692 695 665 663 693
          696 666 664 694 697 667
          664 694 697 667 665 695
          698 668 669 699 700 670
          671 701 702 672 671 701
          702 672 673 703 704 674
          670 700 705 675 672 702
          706 676 672 702 706 676
          674 704 707 677 675 705
          708 678 676 706 709 679
          676 706 709 679 677 707
          710 680 678 708 711 681
          679 709 712 682 679 709
          712 682 680 710 713 683
          681 711 714 684 682 712
          715 685 682 712 715 685
          683 713 716 686 684 714
          717 687 685 715 718 688
          685 715 718 688 686 716
          719 689 687 717 720 690
          688 718 721 691 688 718
          721 691 689 719 722 692
          690 720 723 693 691 721
          724 694 691 721 724 694
          692 722 725 695 693 723
          726 696 694 724 727 697
          694 724 727 697 695 725
          728 698 699 729 730 700
          701 731 732 702 701 731
          732 702 703 733 734 704
          700 730 735 705 702 732
          736 706 702 732 736 706
          704 734 737 707 705 735
          738 708 706 736 739 709
          706 736 739 709 707 737
          740 710 708 738 741 711
          709 739 742 712 709 739
          742 712 710 740 743 713
          711 741 744 714 712 742
          745 715 712 742 745 715
          713 743 746 716 714 744
          747 717 715 745 748 718
          715 745 748 718 716 746
          749 719 717 747 750 720
          718 748 751 721 718 748
          751 721 719 749 752 722
          720 750 753 723 721 751
          754 724 721 751 754 724
          722 752 755 725 723 753
          756 726 724 754 757 727
          724 754 757 727 725 755
          758 728 729 759 760 730
          731 761 762 732 731 761
          762 732 733 763 764 734
          730 760 765 735 732 762
          766 736 732 762 766 736
          734 764 767 737 735 765
          768 738 736 766 769 739
          736 766 769 739 737 767
          770 740 738 768 771 741
          739 769 772 742 739 769
          772 742 740 770 773 743
          741 771 774 744 742 772
          775 745 742 772 775 745
          743 773 776 746 744 774
          777 747 745 775 778 748
          745 775 778 748 746 776
          779 749 747 777 780 750
          748 778 781 751 748 778
          781 751 749 779 782 752
          750 780 783 753 751 781
          784 754 751 781 784 754
          752 782 785 755 753 783
          786 756 754 784 787 757
          754 784 787 757 755 785
          788 758 759 789 790 760
          761 791 792 762 761 791
          792 762 763 793 794 764
          760 790 795 765 762 792
          796 766 762 792 796 766
          764 794 797 767 765 795
          798 768 766 796 799 769
          766 796 799 769 767 797
          800 770 768 798 801 771
          769 799 802 772 769 799
          802 772 770 800 803 773
          771 801 804 774 772 802
          805 775 772 802 805 775
          773 803 806 776 774 804
          807 777 775 805 808 778
          775 805 808 778 776 806
          809 779 777 807 810 780
          778 808 811 781 778 808
          811 781 779 809 812 782
          780 810 813 783 781 811
          814 784 781 811 814 784
          782 812 815 785 783 813
          816 786 784 814 817 787
          784 814 817 787 785 815
          818 788
        </DataArray>
        <DataArray type="Int64" Name="offsets" format="ascii" RangeMin="8" RangeMax="3632">
          8 16 24 32 40 48
          56 64 72 80 88 96
          104 112 120 128 136 144
          152 160 168 176 184 192
          200 208 216 224 232 240
          248 256 264 272 280 288
          296 304 312 320 328 336
          344 352 360 368 376 384
          392 400 408 416 424 432
          440 448 456 464 472 480
          488 496 504 512 520 528
          536 544 552 560 568 576
          584 592 600 608 616 624
          632 640 648 656 664 672
          680 688 696 704 712 720
          728 736 744 752 760 768
          776 784 792 800 808 816
          824 832 840 848 856 864
          872 880 888 896 904 912
          920 928 936 944 952 960
          968 976 984 992 1000 1008
          1016 1024 1032 1040 1048 1056
          1064 1072 1080 1088 1096 1104
          1112 1120 1128 1136 1144 1152
          1160 1168 1176 1184 1192 1200
          1208 1216 1224 1232 1240 1248
          1256 1264 1272 1280 1288 1296
          1304 1312 1320 1328 1336 1344
          1352 1360 1368 1376 1384 1392
          1400 1408 1416 1424 1432 1440
          1448 1456 1464 1472 1480 1488
          1496 1504 1512 1520 1528 1536
          1544 1552 1560 1568 1576 1584
          1592 1600 1608 1616 1624 1632
          1640 1648 1656 1664 1672 1680
          1688 1696 1704 1712 1720 1728
          1736 1744 1752 1760 1768 1776
          1784 1792 1800 1808 1816 1824
          1832 1840 1848 1856 1864 1872
          1880 1888 1896 1904 1912 1920
          1928 1936 1944 1952 1960 1968
          1976 1984 1992 2000 2008 2016
          2024 2032 2040 2048 2056 2064
          2072 2080 2088 2096 2104 2112
          2120 2128 2136 2144 2152 2160
          2168 2176 2184 2192 2200 2208
          2216 2224 2232 2240 2248 2256
          2264 2272 2280 2288 2296 2304
          2312 2320 2328 2336 2344 2352
          2360 2368 2376 2384 2392 2400
          2408 2416 2424 2432 2440 2448
          2456 2464 2472 2480 2488 2496
          2504 2512 2520 2528 2536 2544
          2552 2560 2568 2576 2584 2592
          2600 2608 2616 2624 2632 2640
          2648 2656 2664 2672 2680 2688
          2696 2704 2712 2720 2728 2736
          2744 2752 2760 2768 2776 2784
          2792 2800 2808 2816 2824 2832
          2840 2848 2856 2864 2872 2880
          2888 2896 2904 2912 2920 2928
          2936 2944 2952 2960 2968 2976
          2984 2992 3000 3008 3016 3024
          3032 3040 3048 3056 3064 3072
          3080 3088 3096 3104 3112 3120
          3128 3136 3144 3152 3160 3168
          3176 3184 3192 3200 3208 3216
          3224 3232 3240 3248 3256 3264
          3272 3280 3288 3296 3304 3312
          3320 3328 3336 3344 3352 3360
          3368 3376 3384 3392 3400 3408
          3416 3424 3432 3440 3448 3456
          3464 3472 3480 3488 3496 3504
          3512 3520 3528 3536 3544 3552
          3560 3568 3576 3584 3592 3600
          3608 3616 3624 3632
        </DataArray>
        <DataArray type="UInt8" Name="types" format="ascii" RangeMin="12" RangeMax="12">
          12 12 12 12 12 12
          12 12 12 12 12 12
          12 12 12 12 12 12
          12 12 12 12 12 12
          12 12 12 12 12 12
          12 12 12 12 12 12
          12 12 12 12 12 12
          12 12 12 12 12 12
          12 12 12 12 12 12
          12 12 12 12 12 12
          12 12 12 12 12 12
          12 12 12 12 12 12
          12 12 12 12 12 12
          12 12 12 12 12 12
          12 12 12 12 12 12
          12 12 12 12 12 12
          12 12 12 12 12 12
          12 12 12 12 12 12
          12 12 12 12 12 12
          12 12 12 12 12 12
          12 12 12 12 12 12
          12 12 12 12 12 12
          12 12 12 12 12 12
          12 12 12 12 12 12
          12 12 12 12 12 12
          12 12 12 12 12 12
          12 12 12 12 12 12
          12 12 12 12 12 12
          12 12 12 12 12 12
          12 12 12 12 12 12
          12 12 12 12 12 12
          12 12 12 12 12 12
          12 12 12 12 12 12
          12 12 12 12 12 12
          12 12 12 12 12 12
          12 12 12 12 12 12
          12 12 12 12 12 12
          12 12 12 12 12 12
          12 12 12 12 12 12
          12 12 12 12 12 12
          12 12 12 12 12 12
          12 12 12 12 12 12
          12 12 12 12 12 12
          12 12 12 12 12 12
          12 12 12 12 12 12
          12 12 12 12 12 12
          12 12 12 12 12 12
          12 12 12 12 12 12
          12 12 12 12 12 12
          12 12 12 12 12 12
          12 12 12 12 12 12
          12 12 12 12 12 12
          12 12 12 12 12 12
          12 12 12 12 12 12
          12 12 12 12 12 12
          12 12 12 12 12 12
          12 12 12 12 12 12
          12 12 12 12 12 12
          12 12 12 12 12 12
          12 12 12 12 12 12
          12 12 12 12 12 12
          12 12 12 12 12 12
          12 12 12 12 12 12
          12 12 12 12 12 12
          12 12 12 12 12 12
          12 12 12 12 12 12
          12 12 12 12 12 12
          12 12 12 12 12 12
          12 12 12 12 12 12
          12 12 12 12 12 12
          12 12 12 12 12 12
          12 12 12 12 12 12
          12 12 12 12 12 12
          12 12 12 12 12 12
          12 12 12 12 12 12
          12 12 12 12
        </DataArray>
      </Cells>
    </Piece>
  </UnstructuredGrid>
</VTKFile>
