<?xml version="1.0"?>
<VTKFile type="UnstructuredGrid" version="0.1" byte_order="LittleEndian" header_type="UInt32" compressor="vtkZLibDataCompressor">
  <UnstructuredGrid>
    <Piece NumberOfPoints="795" NumberOfCells="454">
      <PointData>
        <DataArray type="Int32" Name="libmesh_node_id" format="ascii" RangeMin="2220" RangeMax="4979">
          2220 2221 2222 2223 2224 2225
          2226 2227 2228 2229 2230 2231
          2388 2389 2390 2391 2392 2393
          2394 2395 2396 2397 2398 2399
          2402 2405 2408 2409 2410 2411
          2463 2464 2465 2466 2467 2468
          2469 2470 2471 2472 2473 2474
          2475 2476 2477 2478 2479 2480
          2499 2500 2501 2502 2503 2504
          2505 2506 2507 2508 2509 2510
          2511 2512 2513 2514 2515 2516
          2517 2518 2519 2520 2521 2522
          2613 2614 2616 2617 2618 2620
          2621 2622 2624 2652 2653 2654
          2655 2656 2657 2658 2659 2660
          2661 2662 2663 2697 2701 2705
          2721 2722 2723 2724 2725 2726
          2736 2737 2738 2739 2740 2741
          2742 2743 2744 2745 2746 2747
          2748 2749 2750 2751 2752 2753
          2754 2755 2756 2757 2758 2759
          2760 2761 2762 2763 2764 2765
          2778 2779 2780 2781 2782 2783
          2784 2785 2786 2862 2863 2864
          2865 2866 2867 2868 2869 2870
          2871 2872 2873 2922 2923 2924
          2925 2926 2927 2940 2941 2942
          2943 2944 2945 2946 2947 2948
          2958 2959 2960 2961 2962 2963
          2964 2965 2966 2967 2968 2969
          2992 2993 2996 2997 3000 3001
          3018 3019 3020 3021 3022 3023
          3036 3039 3040 3043 3044 3047
          3060 3061 3062 3063 3064 3065
          3066 3067 3068 3069 3070 3071
          3072 3073 3074 3075 3076 3077
          3180 3181 3182 3183 3184 3185
          3204 3205 3206 3207 3208 3209
          3240 3242 3244 3258 3260 3262
          3273 3274 3275 3276 3277 3278
          3279 3280 3281 3282 3283 3284
          3285 3286 3287 3288 3289 3290
          3291 3292 3293 3294 3295 3296
          3297 3298 3299 3348 3349 3350
          3351 3352 3353 3354 3355 3356
          3357 3358 3359 3360 3361 3362
          3363 3364 3365 3369 3370 3371
          3372 3373 3374 3399 3400 3401
          3402 3403 3404 3405 3406 3407
          3408 3409 3410 3411 3412 3413
          3414 3415 3416 3417 3418 3419
          3420 3421 3422 3462 3463 3464
          3486 3487 3488 3489 3490 3491
          3507 3508 3509 3510 3511 3512
          3527 3530 3533 3534 3535 3536
          3555 3556 3557 3558 3559 3560
          3561 3562 3563 3579 3580 3581
          3594 3595 3596 3597 3598 3599
          3603 3604 3605 3606 3607 3608
          3621 3622 3623 3624 3625 3626
          3627 3628 3629 3642 3643 3644
          3645 3646 3647 3648 3649 3650
          3651 3652 3653 3669 3670 3671
          3672 3673 3674 3675 3676 3677
          3678 3679 3680 3681 3682 3683
          3750 3751 3752 3753 3754 3755
          3756 3757 3758 3759 3760 3761
          3780 3781 3782 3783 3784 3785
          3909 3910 3911 3912 3913 3914
          3915 3916 3917 3918 3919 3920
          3951 3952 3953 3966 3967 3968
          3975 3976 3977 3978 3979 3980
          3981 3982 3983 3984 3985 3986
          3987 3988 3989 3990 3991 3992
          4008 4009 4010 4011 4012 4013
          4014 4015 4016 4017 4018 4019
          4020 4021 4022 4023 4024 4025
          4026 4027 4028 4029 4030 4031
          4041 4042 4043 4044 4045 4046
          4047 4048 4049 4050 4051 4052
          4068 4069 4070 4080 4081 4082
          4092 4093 4094 4095 4096 4097
          4098 4099 4100 4101 4102 4103
          4122 4123 4124 4125 4126 4127
          4146 4147 4148 4149 4150 4151
          4152 4153 4154 4155 4156 4157
          4158 4159 4160 4173 4174 4175
          4176 4177 4178 4179 4180 4181
          4182 4183 4184 4188 4189 4190
          4194 4195 4196 4197 4198 4199
          4200 4201 4202 4203 4204 4205
          4218 4219 4220 4221 4222 4223
          4230 4231 4232 4266 4267 4268
          4281 4282 4283 4299 4300 4301
          4305 4306 4307 4308 4309 4310
          4311 4312 4313 4335 4336 4337
          4341 4342 4343 4395 4396 4397
          4455 4456 4457 4473 4474 4475
          4476 4477 4478 4515 4516 4517
          4578 4579 4580 4581 4582 4583
          4614 4615 4616 4704 4705 4706
          4707 4708 4709 4710 4711 4712
          4713 4714 4715 4737 4738 4739
          4740 4741 4742 4821 4822 4823
          4842 4843 4844 4845 4846 4847
          4854 4855 4856 4857 4858 4859
          4860 4861 4862 4863 4864 4865
          4866 4867 4868 4875 4876 4877
          4878 4879 4880 4908 4909 4910
          4914 4915 4916 4932 4933 4934
          4941 4942 4943 4977 4978 4979
          2400 2401 2403 2404 2406 2407
          2615 2619 2623 2698 2699 2700
          2702 2703 2704 2706 2707 2708
          2991 2994 2995 2998 2999 3002
          2331 2330 2335 2334 2339 2338
          3241 3243 3245 3259 3186 3188
          3261 3189 3191 3263 3192 3194
          3448 3450 3452 3525 3526 3528
          3529 3531 3532 3537 3538 3539
          3540 3541 3542 3654 3657 3660
          2328 2332 2336 3852 3853 3854
          3993 3994 3995 4338 4339 4340
          3513 3514 3515 4458 4321 4459
          4324 4460 4327 4584 4585 4586
          4587 4588 4589 4791 4792 4793
          4794 4795 4796 4797 4798 4799
          4431 4432 4433 3495 3187 3499
          3190 3503 3193 3954 3957 3958
          3961 3962 3965 4899 4900 4901
          4968 4969 4970 4911 4912 4913
          3498 3502 3506 4902 4903 4904
          4434 4436 4438
        </DataArray>
        <DataArray type="Float64" Name="resid_x" format="ascii" RangeMin="-1.424364514574961" RangeMax="1.8542920799948703">
          -0.006916530510396868 -0.0019583837894145972 0.4546704468703071 0.1697895737185373 0.0019977049511430423 0.0007841956256600113
          0.9264678732123466 0.35080973591466424 -0.0012399123009698698 -0.0018008196227281559 0.48133267896473697 0.16219188701356835
          0.001494403128392996 -0.0028800061305922497 -0.001910258902974249 0.0030970522123752176 -0.0009472609442378044 -0.013288864712899695
          -0.0029742605666909228 -0.0036043506214786802 -0.0237240077149643 -0.02443541581477149 -0.017224238457453467 -0.023294471334802225
          -0.017536852233327238 -0.027408427744358477 -0.02204260423692439 -0.017626456585174033 -0.021555226199778232 -0.01863329371894462
          0.030419914903634937 -0.7024025674835671 0.07154993563559953 -1.424364514574961 -0.009250674357121569 -0.7719578531452855
          0.004820592772901033 0.006327055732739062 0.0005405016673263319 0.006975598404737937 0.003885046002118253 0.003366813316768358
          -0.00963929695587673 -0.0015740745510490761 -0.014693996203396953 -0.02371554165849732 -0.01824557088056622 -0.01844674526230361
          0.00013050523697799576 0.0016563960400350908 0.0021419717206763167 0.001522158075488722 -0.005444253293359402 -0.000786958015413397
          -0.007832480263330055 -0.00641538488338167 -0.02237700406824228 -0.017886216601652905 -0.016923880977299355 -0.016394263954476074
          -0.0006531586236238063 0.00004139899674360237 0.001580935932620875 0.001486451582056958 -0.005395852455733596 -0.009337097779584802
          -0.0027347534363704185 -0.007822524415788124 -0.019215308775641482 -0.026431202902369222 -0.022553349991608407 -0.024108691517993996
          0.04433451568933933 0.10061358487532068 0.3605272310062615 0.005904278649923711 0.06041278808142847 0.7079544408260574
          -0.043291107588846245 -0.030518690333276588 0.2938483209699072 -0.006578978347797637 0.0004079827232139621 0.007820607826001746
          0.003386117350732576 -0.01140976495881052 -0.006517400957569919 0.004683078403896979 0.003990738211715694 -0.029251606250561224
          -0.018326476024679295 -0.02968921250601808 -0.024050911959196064 -0.025813012455230933 -0.03862651398769845 -0.0288982364841166
          -0.004479521807435827 0.0005279726822795539 -0.0017477383047868056 0.003313115686243151 -0.012252500601084959 -0.014667175947183253
          -0.004065639921158493 -0.005051742099233536 -0.002384213852712591 -0.003592363669074672 -0.0026920584496634703 0.0027573928532849123
          -0.009620821385125211 -0.011520172451191968 -0.005896944730203302 0.002317601114482759 0.0047936634374368126 0.004635408343051317
          0.0028265230632796845 0.0009326048815722077 0.0006931043140401272 -0.0006403103746830396 -0.001992843916589493 -0.013689287125108196
          -0.02112839438323988 -0.025910004450414803 -0.01956150830431541 -0.002539107820123121 -0.007359402030066242 -0.002640612661666708
          -0.0034169713923093425 -0.006317996762790656 -0.007987407322774587 -0.01565332515683604 -0.01259923179899447 -0.019338537828843094
          -0.013502815871889062 -0.009992207646691842 -0.0036279184892320515 -0.008358521838284005 -0.0018740783016459872 -0.0008219668293270033
          -0.007845325192886499 -0.009545036743089597 -0.01700590993427742 -0.015116997052986747 -0.0023701631694938996 0.001922255070459289
          -0.016952643765006492 -0.010671663832397815 -0.002919813736756538 0.0019547226031134124 -0.01705635294911345 -0.030259946483095934
          -0.016276511124588833 -0.015111323803248727 -0.0355982242683297 -0.002197435572471207 -0.003860596720755005 -0.00046305392050260963
          -0.009112824561207766 -0.023982078702569964 -0.02764709300214374 -0.01732126308237536 0.24776035640341743 0.4235547025614306
          -0.019726389548364587 0.5103993003052265 0.8370897219058717 0.042422444542371096 0.10111935348663881 0.12254367681348644
          -0.01391032679412918 0.08434115055856495 -0.0006266997681612096 -0.03544972800841073 -0.07947031261167403 0.1860246926258009
          0.004257958406321372 -0.05211850382405103 -0.1542325681223966 -0.017347660927295117 -0.0060346264633031055 -0.04885778021241194
          -0.013005156962677233 -0.034626804834331004 -0.02684995934430745 -0.07981062419082718 -0.015021343194289827 -0.04875667005463269
          -0.0051207865483196 0.004710419354672979 -0.00119713547906386 -0.0035267438138424367 -0.01124178431991929 -0.016245216807182494
          -0.01719594965494764 -0.01499817921677149 -0.02003851037223825 -0.019218487377223425 -0.014040459436705177 -0.015320344242343076
          0.3568065301176926 0.08529530193183188 -0.06872467633020118 0.06369239970447205 0.7252680109146485 0.15675336342359092
          -0.13448389730624388 0.13733319923794163 0.37395274573237014 0.08242138239579422 -0.08423386795730092 0.03114426845415008
          -0.019423835800832734 0.06193646964156141 -0.03856724229168851 0.12733385178567858 -0.029804958257166447 0.028945843526251736
          -0.0077595413052802265 -0.01662854230598132 0.003223298226134541 -0.021066273935169022 -0.014679417337960743 -0.025067556023084414
          -0.00477279044776413 -0.004620988964527228 0.010134677798373737 -0.005584178456233602 -0.017165391782970163 -0.020321403639790958
          -0.05287284267389225 -0.08791567607055484 -0.0369634763470863 0.24795513635634148 0.5593587360824959 0.13978876645929095
          0.008657129929897422 0.23428849563059284 -0.1380814868342135 -0.06371711141789405 0.03384117954909449 0.5113684618954002
          -0.06315190188189757 -0.09224224969352512 0.009401160702537048 0.3052565164452634 0.11767869218372429 0.10038669640367726
          -0.011185037185970303 -0.0057516452109993566 -0.015625984930432768 -0.008516021473144175 -0.00021012453930691066 -0.011507476875499023
          -0.01076067165316752 -0.015179705929467602 -0.024567441752006314 -0.009229747925077192 -0.010180515341231988 -0.005061251639060682
          -0.005681372440865751 -0.0177837271273521 -0.0227999666806884 -0.07271993259266107 -0.04185048135068925 0.13346989856723113
          -0.0000375795970981585 0.0002829225809177771 -0.009111034608713986 -0.011955946039059917 -0.0013799290151084165 -0.001641077676881153
          -0.017164045575955633 -0.013046993253877481 -0.013771868090566741 -0.017561754969442234 -0.027693587984063406 -0.025085587500258022
          -0.030896688590478227 -0.019126420986981252 -0.01939831064133113 -0.4047119628193343 -0.6444163878365616 -0.22793837094883607
          -0.1207025043247727 -0.21897592382059816 -0.22772358273175008 0.05426725778638275 0.04168839174177208 0.1132525817387755
          0.04843168075848858 0.03431623676515727 0.0021928376720623532 -0.01041503523688192 -0.134154347946013 -0.006967293552662568
          -0.24502396873287857 0.06564109341687185 -0.12067510526324643 -0.010869084172067112 -0.017482488395387907 -0.0012728519293609963
          -0.0013395392190265198 -0.02173567533447418 -0.017293802837208716 -0.020046528851475287 -0.014271898388589221 -0.012328409704550403
          -0.01605775106066787 -0.016941719827767265 -0.004970994656977368 -0.01919673085605611 -0.009233238728147075 -0.02524182239981254
          0.004952475250425081 -0.029804026246270432 0.06302887113028266 -0.01854756189356377 0.05435049565806249 0.013450673143408087
          -0.016779506676548372 -0.009433685474442122 -0.004364236678762401 0.0008530181832160366 -0.01509112661971046 -0.005535458852719444
          -0.011785827289332307 -0.02335652719667891 -0.029510498641885263 -0.018618710882026157 0.028488681919724534 0.014454370557055896
          -0.0181981644527609 -0.008307784596394363 -0.009476901980635333 -0.002717505879194171 -0.013271049497068477 -0.0026387322173944128
          -0.010027291846803621 0.02352525406134731 -0.00638902166858113 0.3797994078120439 0.8261662257932532 0.28533287712026834
          -0.0433143447328721 -0.062185522503527935 0.03496776242919175 -0.013777180807547751 0.00294692512660788 -0.018448588458410242
          -0.025888181949172306 -0.0116180400159136 -0.008479159870618869 -0.0056420749736521 -0.020438787519087676 -0.021881290046779966
          -0.014189118625651531 -0.016075006228059685 -0.013364415103028549 -0.003714169557343716 -0.0074562166726064305 -0.005147345841177042
          -0.008093227211262821 -0.008335864553070671 -0.007330856313804368 -0.0047150114138379 0.002468371617418086 -0.006442842284507755
          -0.016280965421185734 -0.0004942968263579317 0.0017960597038531034 -0.0057606148036066784 -0.018395449453110224 -0.02046322926640798
          -0.012819231642081874 -0.017859212102513844 -0.030930136411495113 -0.0006544612500087865 0.0013764582918813772 -0.003420501840957435
          0.0023522039702967845 -0.005920826498709175 0.002134368311605961 -0.016302962415180033 -0.005322922990223411 -0.02814921960033967
          -0.029263285442385545 -0.03014413760855028 -0.029168960046673575 -0.024624404869865835 -0.0031089135064190643 -0.03158345533410323
          -0.006019186841955015 -0.007749840418346032 -0.0026771915892742637 -0.0009986700129669401 -0.025104647346997577 -0.021523743182765287
          0.03529233069415927 0.007032612082242373 -0.044600276373238046 -0.04206317462190601 -0.044928656961568336 -0.017525837943559885
          -0.004425693130889918 -0.009739774545697022 0.0012580444816521208 -0.0020551213468595064 -0.023619999432699323 -0.028837708254669914
          -0.00965479648982459 -0.023370179210700393 0.005176137100443512 -0.010159233032501547 -0.020397403335673303 -0.027683687073920993
          -0.006835157101083844 -0.006901211905876892 -0.000146203589341809 -0.0014359647692847588 -0.02404610610411595 -0.019191897844550443
          -0.04011170391287422 -0.01766392388177529 -0.028494577712010916 -0.029182068072274525 0.0035131961510637133 -0.011226620981597435
          -0.0032163028384020187 -0.0112913174931899 -0.01448636883831167 -0.010238116238475925 -0.0018297514676088866 -0.01301448468110955
          -0.01435109058859263 -0.007614503718864185 -0.022898311311265296 -0.015307966846132004 -0.02521000339143953 -0.026788593733288124
          0.015320833919438837 0.029843118408948044 0.013375745277956597 0.011433108647708856 -0.027944115074530096 -0.00689708677045342
          -0.024141645413510382 -0.009992879006963662 -0.0002066196734169523 -0.017991030556729903 -0.05188111700100251 -0.023935932111015745
          -0.0007050639659755831 -0.03765863582615925 -0.03246289776354061 -0.022959948003325792 -0.010814027298828854 -0.025302031435587402
          -0.022265424797757838 -0.015779051580020464 -0.015229009947749006 -0.02544540163519393 -0.026377073659185513 -0.020219733329996714
          -0.021604475974005055 -0.017209371968951004 -0.017004887962557724 -0.023381082324573033 -0.0067633715207637835 -0.03568880406706221
          -0.018717374212316784 -0.03324623709518626 -0.0005872913699054294 -0.023607927728106937 -0.013936030425758084 -0.010399674109568657
          -0.03340227338656643 -0.020319635732596097 -0.01062218610483967 -0.004346192876468535 -0.030853708840968608 -0.020315983316034902
          -0.02345619579253544 -0.005617334913230465 -0.027659300349845317 -0.05233790484376577 0.012314249888921935 -0.0031416125683776386
          -0.014696076945496017 -0.00843569963612989 -0.002239883014759414 -0.0068872010991549715 -0.016866836337527946 -0.010548475568771032
          -0.02486318567512491 -0.027391235988473817 -0.012640433456792444 -0.040981880626727474 -0.01768347548278637 -0.02651622252637864
          -0.024155664961970302 -0.020620651317673655 -0.03683526025535411 -0.034378300522035055 -0.026061634376973508 -0.0255724886466826
          -0.017987912236540282 -0.01876623081081341 -0.011947680725094223 -0.02759224858792919 -0.010374674559727737 -0.019626610518802323
          -0.023333045734789337 -0.02075356000739692 -0.01622216370488072 -0.03312189057222792 -0.02708291566720611 -0.019225106887162724
          -0.01526188279125229 -0.028254421381506134 -0.025746589606099768 -0.0206231287360108 -0.013753144088774594 -0.012918683509302475
          -0.007846235075399388 -0.020547601032347984 -0.017422303184657206 -0.020004970152109003 -0.011724985411460942 -0.0052435297597170916
          -0.010092927872868529 -0.015794149572104565 -0.009707753497987248 -0.019552530027974413 -0.02017193456533839 -0.02303282839849974
          -0.004133196190345245 0.001294748859806738 0.012403073417938337 0.007883511390777365 0.00011919655056447098 0.006614068514502414
          0.030416175677584256 0.021146990101852836 -0.00367104211510183 -0.0012017649106770278 0.012917618999853886 0.003201591748455357
          0.005920312941733563 0.0017604457938062978 0.027781708085103496 0.030281079149499845 0.02753226238216211 0.048415214837696396
          -0.007348673369068415 0.0016483111407206152 -0.0038878522228218415 -0.005828391498957863 -0.002270092229990084 -0.007209933003676561
          -0.015470079483542953 -0.0015656907425389832 -0.022166694359881944 -0.013755910818256112 -0.004768029965048548 -0.02230730826956595
          -0.025271801360048585 -0.007996095883379795 -0.021558977540567348 -0.01572081196165609 -0.015159229315167444 -0.004184762752005966
          -0.008323728168269096 -0.016199518405384694 -0.013704256550987282 -0.020814573733396458 -0.005078773472114051 -0.014245192048380595
          0.002578778877176724 0.11843730812963749 0.1663771796014757 -0.024075601038251904 -0.029828547915055736 -0.025705639637628508
          -0.0469269495157123 -0.02786755803087715 -0.005866893099176984 -0.029280096378712095 -0.019877547441428334 -0.03238002022633779
          -0.020366618343928167 -0.027895932138751967 -0.024960479909754696 -0.05834614855185283 0.009697465455319243 0.021005268956525214
          -0.013473635436909603 -0.0036740010340432505 -0.01554813985779635 -0.018843085298549056 -0.006023332730882736 -0.008053483433323017
          -0.012785245733896389 0.012063723980554109 -0.0040954494493501414 -0.5409445372150206 -1.0329876666231872 -0.5076337422845292
          -0.1741911744444149 -0.3135323584328198 -0.09853422749793772 -0.012003170386327255 -0.0022883541985176947 -0.023356577838231196
          0.016483220701989154 0.023450476838388745 0.06669498231554627 -0.010866696423046385 -0.0007934050497437894 -0.004004422569765964
          0.002159433436183633 -0.009194623557476689 -0.0022776439137004445 -0.00433839580198736 -0.0057125429589222065 -0.00635779869354014
          -0.027609486545572715 -0.03546829204824142 -0.023348257535674932 -0.03793373503985187 -0.06724939301920241 -0.05832766183696325
          -0.040378196434978086 -0.003632050650793417 -0.06796850240257246 -0.004880068687897143 -0.023850152327847596 -0.005623083942568385
          0.007962233140442532 -0.004815099833613168 0.006653599601797566 0.014428787663538056 -0.00840930974235743 0.010927074370362888
          0.0025787208533638584 -0.00821253301268765 0.0005650415264142339 0.0011026383861674205 -0.00011350192529224756 0.0033578526976074663
          -0.012842560853141727 0.0025002626953627427 -0.01064658968205201 0.012257809053943802 0.04143171479910457 0.007899003325562148
          -0.014532955915676382 -0.008624539503590434 -0.009678334036210323 -0.0015754510501198027 0.009136981257862331 0.003064554753088977
          -0.026696353680799145 -0.03100958233772033 -0.0360311425812152 -0.015200102677653149 -0.0004349971123001062 -0.007325638305110349
          -0.015677084790375773 -0.004228114852806719 -0.022791374699547617 -0.003868760942934202 -0.02214997885293979 -0.01178454903951387
          -0.02726640152884663 0.007867782462676942 -0.005650349940181876 -0.006344462190094546 -0.010005960359739774 -0.0017153974489856338
          -0.017097754591659964 -0.009759320740405641 0.0007603106437690244 -0.020356008440245432 -0.020448829568340265 -0.01419594788987677
          0.0045298241612030665 -0.0008256877954657682 -0.0016823130586445245 -0.013464048531320216 -0.011446809372092304 -0.010175337170536203
          0.011835262936898738 -0.04198924156570549 -0.037606193784120556 -0.0900471472563611 -0.05628943473554315 -0.06881670950950625
          -0.010855597442033016 -0.026368933398721595 -0.018416351028199607 0.0847560952488502 -0.5350235434213424 -0.3190695700964836
          0.1814790526821124 -0.9230086765987675 -0.6432043772718874 0.06228169956666019 -0.41493385635694136 -0.3524541752957484
          -0.13250546168963684 -0.15616434844721727 -0.06390827692728696 -0.005417504728420397 -0.026422365110859047 -0.015246686483546767
          -0.038821607224232224 -0.017087725153091426 -0.025243089704716226 -0.24733735210022534 -0.0638506271594812 -0.39843131478491145
          -0.08621793760075391 -0.13484092827575012 -0.03606157777795538 -0.0025650312918452656 -0.00942714432251357 -0.017698886491530175
          0.021569772232737705 0.0047694606519890215 -0.0028077639926049613 -0.002693655367266068 -0.01715411448299875 -0.018472812787687864
          -0.009579542976155153 -0.007297793573066258 -0.015652349413119993 -0.0039648722245582135 -0.006256869020599076 -0.017526079578315645
          -0.10461729498294225 -0.18146615528261734 -0.11397814945745299 -0.01834453001222336 -0.011629725406328006 -0.03728231407689542
          -0.029613822016067104 -0.030663436607992978 -0.0284483581314543 -0.11987690893792902 -0.2317536879774229 -0.23499405238520765
          -0.47428557374804825 -0.12492378963488449 -0.2487636421841417 0.005887558034151752 -0.00659926723997728 -0.030006211019177442
          0.10673904961039504 0.15733502764073037 0.19540176054809955 0.26327031618085783 -0.004820254965086868 -0.03303038818734372
          0.032612190710748834 0.0758651007814386 0.03085859604457175 0.7668259159606645 -0.20180559338717963 1.4988174608067197
          -0.32317858879551764 1.0080675387411162 0.04048133429742151 -0.03278673428641099 0.002228758051600277 -0.07245931222243485
          0.009731313693404964 -0.04219544617429882 0.0013082752327715497 -0.0010040919806719728 -0.0037235294006663366 -0.011325134143820748
          -0.019396884870281905 -0.028850771007238762 -0.01895777865283632 0.25240810867611785 0.5645318632800169 0.26362034319441463
          0.9191355255690539 1.8542920799948703 0.9320120764401807 -0.02978347196297193 -0.03935066339460036 -0.01574159524204255
          -0.007710482358243453 0.002055105961346726 0.009655764098592812
        </DataArray>
        <DataArray type="Float64" Name="resid_y" format="ascii" RangeMin="-0.9173529906857354" RangeMax="0.5440548207586654">
          0.006276511726924824 0.003821616847108855 -0.06323710352990106 0.23207604376763558 0.00937028213902888 0.0074975910218926245
          -0.12289328767735817 0.46791557888143587 0.010673479731552166 0.00912950085975181 -0.05866729029884979 0.17205290643477467
          0.00044901827954230145 0.0034371892209094923 0.005472413781213159 0.004101979809934986 -0.00001455574848213681 0.00807614665141232
          0.013647517355594663 0.016683196584727222 0.006993210645617892 0.008424996289810416 0.01260340144524158 0.01596232615092319
          0.009466750233146193 0.017681759854196316 0.011877224269038367 0.011175972081371 0.014352452256217396 0.007427641153199216
          -0.23751338010126424 0.09809053080160915 -0.5021968197497041 0.17162623940359217 -0.22573220738704497 0.05391102871410658
          0.005388274540824949 -0.002209533483651077 -0.0012881651268892291 -0.004254059792936021 0.01273276150705728 -0.002783923173997005
          0.0018120484246474111 -0.005403789871006574 0.006955991049778343 0.012747998298997698 0.005175670639924662 0.0011454007017422108
          -0.0011659881740588296 -0.0005127971484525928 0.00107711013818651 -0.000009219127297753482 0.0024548136669356874 0.003719356797648815
          0.007427369788607058 0.003516659030857884 0.012684445345871348 0.013480223296900878 0.01165353810370287 0.01137879794511152
          -0.0007214369863336456 -0.0005790616716898345 -0.0013398802009901845 -0.0013727429598716645 0.0018237622385425256 0.0030614934060844423
          0.002945715663440346 0.007110227252604628 0.011209189154615856 0.014409789564467812 0.014113635513240075 0.016062641230570246
          0.014776338420454033 0.001189466724507121 0.043568749728953304 0.02208212710611951 -0.026120191198775705 0.03394638015525572
          0.014471837035939392 -0.011592573772452985 -0.0012916532160087701 0.0019503526053718523 -0.0013834875711243172 -0.0000068470608223236695
          -0.0001430911793252887 0.001959862284466471 -0.002601050701404567 0.0018156986485434734 0.007280129587826756 0.009882731104896375
          0.005630298884451823 0.017326336830626787 0.017704435145148856 0.012030164210769079 0.023273089330725028 0.0161619370262171
          0.005138270562015768 0.0008092409271071022 0.010798772502185194 0.0012554419195007702 0.013152086238945648 0.0034008683706659437
          0.003328491295368479 0.005393248701571568 0.005299607545297708 0.003607782444025459 0.010471709356429715 -0.000791811555164959
          0.0073488809620256695 0.011537514307501565 0.005171128542236586 -0.004049619207426816 -0.003923582870624559 -0.0015691460892748137
          -0.0030612100993918923 -0.006122651869563914 0.00007405352064797019 -0.0014183070733407854 -0.0005557271460308738 0.006083624638337504
          0.014020102600414731 0.014734634135960954 0.010647493835639552 0.004462270909439031 0.0035444055994614254 0.00932255479525134
          0.005222856250415374 0.006501268944904368 0.0078448836257268 0.010373982631047732 0.009999285974568329 0.011520958337518927
          0.008580408216389127 0.0034395097795862084 0.003551805353996018 0.006358722969778255 0.0035699131162880773 0.004712253370192029
          0.006472708853376072 0.0069933562818022335 0.014563832947239383 0.025515714635890373 0.0030105859118628245 -0.0010907461658076559
          0.01165520354728504 0.017944398513201686 -0.0000930001863645169 -0.0006588786090821405 0.014775467067679154 0.018454186081139537
          0.007137412314367278 0.01011405349291122 0.022356507869402686 0.005903683517173977 0.010116113806209331 0.003334751794170955
          0.005409033555243109 0.013347006632964273 0.012117308944020994 0.003643625143085416 -0.20379480339903866 0.19222580816359158
          -0.0032278086529684558 -0.3417178454513934 0.35362534034097276 0.007310312258764773 -0.05452145948931769 0.04829851416831604
          -0.09987891129872525 -0.023481304799782887 -0.005849623195425591 -0.0049130745691085 -0.20345253732242935 -0.04887482193081555
          -0.012959816614673603 -0.016612092901209824 -0.09417690038246446 0.006536224434648449 0.005992898762031296 -0.005857284385622413
          0.0019219285748840742 0.025274987778304808 0.003313574834441474 0.048909486318209995 0.0029976713649175757 0.03656419982644733
          0.007145759152085623 0.010083649368516218 0.013889499399943717 0.02071976151317853 0.01287490869572111 0.015297802983260278
          0.012782940455684857 0.004103956875961774 0.0032926487047653594 0.0015639113925474662 0.005418723419027896 0.006359222498538347
          0.0242830371357724 0.07747848842917524 -0.009371091129969894 0.03690121186070294 0.03910214604049239 0.15430447774996603
          -0.029596158196719208 0.06169283848755347 -0.027028873885761168 0.05921011463365829 -0.015289391922153568 -0.016983546633442315
          0.022194749063751518 0.08763109971663252 0.019477985233815803 0.18020107602708646 0.00883331700351997 0.10244722143881319
          0.012224663627898008 0.006905224006242535 0.008852464081037598 0.0010610196020406654 0.012351938300854931 0.005117882973631062
          0.014880055029969863 -0.002535195491518173 0.010209122424182121 -0.01666787002741957 0.011634521559554009 -0.0004684953017306849
          0.019142842226871876 0.033336702613750185 -0.012403257398513556 0.11331950952672565 0.21040608793296656 0.12995731501819074
          0.13715423394311096 0.08501206945060608 0.0025228156649599875 0.04177605537591428 0.27996755278594815 0.16262713462400924
          0.012340849948147214 0.07437789527796246 0.150375966138753 0.11247559725193071 0.010898125229390432 0.06848897515863478
          0.009580791629127165 0.006718859845543233 0.006288104351576104 0.0014037372222849426 0.003282939003277148 0.0010812843990614385
          0.0032775085858161024 0.008255620156524136 0.008796511220280245 0.004365053530891394 0.000036825807702218355 0.007674560321463103
          -0.0007220742182394088 0.010616120149629947 0.011113419576641491 0.29805739940912485 0.5440548207586654 0.1367284044572507
          0.00006115952076636566 -0.0009122445558600936 -0.0010837659468837801 0.002767787031129662 0.0021780504397600348 0.004920939628065224
          0.003115086670007268 0.00693905289426365 0.010877833596100006 0.015381867660777267 0.014258325427200347 0.0168174381195232
          0.004937731563199377 -0.005569881745352612 0.015968151183499812 -0.28328010373740536 -0.5401484109862338 -0.14370354416568537
          -0.005605478854190077 -0.06972150813549695 -0.06354002770224873 -0.0017649099276709768 0.0010103139785183068 -0.017681471023985623
          0.00041154580194013857 -0.0011674249848693252 0.00896552896017433 0.07029686121317213 0.1761189047845404 0.11918682222319776
          0.35862449763467324 0.07115358006306255 0.1819556467941526 0.006370461768659463 0.0027245863169582385 0.000995486512026994
          0.00009059122233820438 0.011798627301151887 0.011530878541353623 -0.010169871792122129 -0.004360784203693282 -0.013260144462116263
          -0.010707373331024077 0.006295796661048243 0.02145722327167377 0.013151074722473038 0.005322036321952939 0.01535162011114688
          0.025662145187872756 0.010564903460826308 0.030630878356817354 0.008515520259051751 0.0678837439434898 0.04257171076550759
          0.0030105252536712784 0.012222344794293419 -0.0024618321494087325 0.015578366259512085 0.008345996821067254 0.015433579320641898
          -0.013308643407677541 -0.030438294193159663 -0.00883420480772898 0.027623098676957614 0.03432284516552392 0.02460265935662803
          0.010301938371171368 0.003438929360630395 -0.0008771722203540847 0.001062819092033285 0.005788157430602868 0.004042489928390472
          0.018608789661770445 0.015956208180382236 0.012472052752899546 -0.08988539210418905 -0.17564029512575963 -0.054813790083065694
          0.001343430449631533 0.0006832816465564551 -0.007070220252652776 -0.025757021305567285 0.0031621773615772425 -0.007947083510911862
          0.011461015866532438 0.006996509746210897 0.0022774844741503403 0.004674569861704794 0.012913624647445783 0.01656485594120395
          0.005549592554694817 0.005152426387357325 0.009553143560172367 0.00495620626856004 -0.003537576902999457 0.0059332775088492
          0.006285611342195657 0.0015173944659617085 0.0069994467485332 0.006621185005610791 0.0013226605328880287 0.008426735970775229
          0.007783396748082511 0.0034071456870693184 0.000053693069304958096 0.009882560903996002 0.012643317028906434 0.00935640075838512
          0.00469372160271142 0.012837870116968242 0.021525107147564337 -0.001331851641104026 0.0037276303696235345 0.00031150895241366383
          -0.002672357367057676 -0.001180364523957006 0.008496477616184118 0.004545268580346158 0.0015969226415083193 0.011323109074771631
          0.024032828636023212 0.01513948308911418 0.013792107468988526 0.013956258132721666 0.0003864036121840331 0.00911891125876578
          0.011542408901266288 0.009872018952228306 0.0027153588058708156 0.0022708147879524562 0.014344981735881446 0.010993009364095405
          0.019206106739964937 0.02691756188885759 0.09807412117850467 0.01691777488082727 0.08980064926381288 -0.012016314360904806
          0.010770148105666788 0.010312544982048422 0.002192471812948127 -0.0031142812679093163 0.012033342358737237 0.008239308409220436
          0.015641946176526422 0.02507725202230432 0.006493392529186515 0.007651842551754912 0.011839786742822989 0.010138268588628596
          0.007947112872046011 0.0012141814289824415 0.0033842468406763693 0.0034331451326138906 0.011639748153907004 0.009555421536045022
          0.011301230540021032 0.005193460794027172 0.015270466956304928 0.013115755229957615 0.006056906193584954 0.012582398279390672
          0.009453337007908694 0.007548686613191288 0.009602143935767637 -0.0008207103130366822 0.006236424334282065 0.010411436440769195
          0.009741490832344872 -0.005523418967193966 0.015523077266171748 0.012685288536319589 0.016247989983933044 0.005967277859451892
          -0.02478258264016015 0.035060157540543826 -0.053762506073639686 0.0434354481345586 -0.023052718918084254 0.014270916396042428
          -0.0012838607393652196 0.002497940772109769 -0.00006052216226049012 -0.0003867676646059151 0.00023418587172233107 0.0034698224893716934
          -0.00022541385022652183 0.006722960430106818 0.0056596930332902945 0.0069953966993397815 0.005657306729787981 0.011470029311437452
          0.014432275100154782 0.010866114205138513 -0.0019901678786107407 0.02192407648591313 0.021146581416575383 -0.0035522994219557014
          0.014878417145184855 0.012727508108941937 0.0024542275098615313 0.00980064351091553 0.0008856241861005532 0.014444227473091487
          0.020725960002923732 0.02861130562098272 0.009980669795081193 0.0310279684219359 0.014184087039477714 0.020008870248198113
          0.018276321930035904 0.004503257882188694 0.006434412076223098 0.0013975475260999404 0.01870182759351773 0.012171737460003551
          0.021783614886387442 0.0032595016695200763 0.009940990088381896 0.018073869508597875 0.003806102696950059 0.011881460389386561
          0.007315997968128929 0.004539571109017482 0.005357336438324589 0.0027554868796789145 0.010028280575422377 0.0034660607824506806
          0.004937948346775703 0.0034090641816786754 0.0015703857478267663 0.006633955175672043 0.006668530246632193 0.008160520404708327
          0.010196573621340091 0.011854268086378059 0.00470485592983913 0.007102979177710356 0.004775397491293104 0.006516225825153071
          0.007918041755675148 0.005461069933780538 -0.001064686358767386 0.0035286627581355423 0.00333191392695803 0.0006936750812694126
          0.0067998301791545035 0.008762953321592992 0.005113286725105609 0.017071744504430275 0.007956880185202436 0.01615300394254851
          0.003018009192582591 0.01948983095398324 0.012613870727539764 0.01281635707671322 0.007654799380225605 0.0074058456612725865
          0.0019312334447841376 0.008852029551967858 0.008238796435610485 0.014732796825976772 0.0024647511282014922 0.009456347277783057
          0.0015698049215449594 0.009900961810818093 0.00268395185513004 0.00545338207464191 -0.0036017761571706247 0.00581010428015695
          0.0004392940883549551 -0.005289173509367667 -0.00014878225265244072 -0.00040331970170014164 0.0014336097517058527 -0.008428551149796543
          0.00002718223955852639 -0.0005666214090215213 -0.0034040330653755946 -0.0031418130548343387 0.0013835835238592553 -0.0015779637779327754
          -0.0014860723957551003 -0.001328154589691266 -0.0011583956083971447 -2.568433054572772e-7 0.0033731762412629873 -0.009943861496495246
          0.0040800470520291204 -0.0007283977708607836 0.002346754913047089 0.00646865327665222 0.00046096785571775323 0.0034648105661563566
          0.014257833962348532 0.002798852039266525 0.011478407850423325 0.01381167455135296 0.017171895696707795 0.012859345491175567
          0.018125381213567188 0.000800585584753849 0.008587599236485444 0.01072830538704081 0.013739222802220466 0.003290534206668805
          0.007334767546195803 0.011025342552401743 0.010878839871746121 0.01998820434802997 0.0073347506875946974 0.009640058946393266
          -0.03524014618758231 -0.10046429209758412 -0.05714782095003268 0.013686404849233141 0.01305325335453661 0.007511217077088683
          0.0025376782010527177 0.009331971866644043 0.010410903639095012 0.012342355087084755 0.005858281924672748 0.01540427363348279
          0.0025636620444987046 0.012673196028279377 0.006928660765383954 0.00017166484212494115 -0.011123634503278898 0.00867630616857562
          0.011586213207993523 0.0013369152807893858 0.005740807950805726 0.0156615082149736 0.007761637053304127 0.007309605939999422
          0.009181373271892224 -0.0012248624319479151 0.002283072694322652 0.00010892206330456733 -0.003998718035197191 0.012524154315595115
          0.11430058321985664 0.17257834050653134 0.0340666938049074 0.007228934696831002 0.016194729434006433 0.0118909388635344
          0.007166487417107847 -0.027150215176765496 0.047610751100730375 0.010071630123913244 0.0014019223669833047 0.006644585354103798
          -0.00026894372812261147 0.00746700258840087 0.0008822301494879892 -0.003411292353454526 -0.010671458839844106 -0.007935459784292442
          0.01188704078019212 0.007287010677666794 0.006936360671383188 -0.00915270981090708 -0.01698101883607367 -0.00374067542749118
          -0.003988845520357276 0.010055861938907923 0.0069224070424361295 0.009960743428135105 0.010294994778620115 0.0012049302091882708
          0.0011101532660020286 0.004495493097975117 0.0036073503875563295 0.00145820887833778 0.005666224490720989 0.004321288510691081
          0.0021568451330222227 0.005015496186826812 0.003925818915430562 0.002170371685737778 0.007557794820330411 -0.001952604522093504
          0.004589527397888932 0.0011967691472204965 0.0009078295006399728 -0.006246957899140759 -0.019621757099269777 -0.008300404626204572
          0.008809584526926456 0.0032688596013999427 0.004774602739364309 0.0036610349887203353 -0.00025605210411315527 0.0008743824289061952
          -0.028316683602355425 -0.043744572844543146 -0.019455112873240338 0.0154572808820162 0.005913533335125121 0.006736094656009037
          0.009280575174797856 0.006862025901785029 0.012029901779452401 0.014431959617641377 0.007282742291966182 0.00786709895312615
          -0.01374147067227871 -0.0005301659527976454 0.00387800225806606 -0.0019021273997185117 0.010964311884845646 0.009822128013968257
          -0.0009634656840440958 0.009507783397756597 0.012577136941567035 0.007333719442939868 0.008039448793132231 0.007031802669508785
          0.005776703942201311 0.002454008214914063 0.015536687692415008 0.0074920260580504175 0.0016163906592455701 0.0007274201987137151
          0.041454545094173595 0.004389081337764722 0.09436385877704001 0.003058016326480395 0.0631047955683668 -0.012731427894658198
          0.0008129086825020126 -0.0008068813453811843 -0.0007588013207458361 -0.05907555321271194 -0.17255924905965647 0.15251395697866016
          -0.14192499777628953 -0.37030953943191075 0.2972669658945274 -0.08779987037509104 -0.22374325339364853 0.16717247536782456
          -0.0929338911196908 -0.14032735320284023 -0.010794391168829659 0.0029653255974504966 0.011120415384393463 0.00805141244648444
          0.01090947625551518 0.008219134001414247 0.0061701057715559116 -0.10070057691507794 -0.00997225675181157 -0.17756351078735505
          -0.014212630271878468 -0.0632029449685153 0.010286777047986417 -0.0018714637457068195 0.001104147721203333 0.004465625542221685
          -0.01599509230478835 -0.03804228543753346 -0.019572200575478954 -0.011956502731637175 -0.02567528809911168 -0.016462373620316217
          0.010830144456650648 0.014833446031431163 0.007760475800438427 0.012942463430395817 0.01793693321344239 0.010616898958727888
          -0.049450198536238166 -0.11898917242767322 -0.05432081088405426 0.012610678335425007 0.0026522628906281986 0.025070040866691734
          0.00785155135952309 0.014230042012349065 0.009745295089583939 0.0009159060463889701 0.04982521941591358 0.00021842854620368612
          0.10157430116040594 -0.004527617852836119 0.05391159532995754 -0.016990346694208062 -0.01628605150384821 -0.010665572282064058
          0.10462189894056143 -0.0396040750960244 0.18798289777861976 -0.05562234604864719 0.03148626652602354 -0.05128633196467572
          0.014354674743367407 0.01856508935942068 0.01739181794142288 -0.489088064897936 -0.12092312056854368 -0.9173529906857354
          -0.21863517283766765 -0.35090642733471084 -0.05164293975671688 -0.0028782495683363635 0.01064190943314372 -0.005353148668137561
          0.009536704128930595 0.0017671915679257355 -0.00501236545723753 -0.0002231522682399345 0.0181231430193676 0.01350423037754006
          0.010450836105253644 0.015521543907629332 0.007376326333466542 0.032093343026934784 0.047913208334856516 0.013709560976658708
          0.1958395354917878 0.3665946500384253 0.16247115533273582 0.0038292636558003024 -0.0016542634847489454 -0.00027266321058241894
          0.010138189192713351 0.016319418479107256 0.004619767436052441
        </DataArray>
        <DataArray type="Float64" Name="resid_z" format="ascii" RangeMin="0" RangeMax="0">
          0 0 0 0 0 0
          0 0 0 0 0 0
          0 0 0 0 0 0
          0 0 0 0 0 0
          0 0 0 0 0 0
          0 0 0 0 0 0
          0 0 0 0 0 0
          0 0 0 0 0 0
          0 0 0 0 0 0
          0 0 0 0 0 0
          0 0 0 0 0 0
          0 0 0 0 0 0
          0 0 0 0 0 0
          0 0 0 0 0 0
          0 0 0 0 0 0
          0 0 0 0 0 0
          0 0 0 0 0 0
          0 0 0 0 0 0
          0 0 0 0 0 0
          0 0 0 0 0 0
          0 0 0 0 0 0
          0 0 0 0 0 0
          0 0 0 0 0 0
          0 0 0 0 0 0
          0 0 0 0 0 0
          0 0 0 0 0 0
          0 0 0 0 0 0
          0 0 0 0 0 0
          0 0 0 0 0 0
          0 0 0 0 0 0
          0 0 0 0 0 0
          0 0 0 0 0 0
          0 0 0 0 0 0
          0 0 0 0 0 0
          0 0 0 0 0 0
          0 0 0 0 0 0
          0 0 0 0 0 0
          0 0 0 0 0 0
          0 0 0 0 0 0
          0 0 0 0 0 0
          0 0 0 0 0 0
          0 0 0 0 0 0
          0 0 0 0 0 0
          0 0 0 0 0 0
          0 0 0 0 0 0
          0 0 0 0 0 0
          0 0 0 0 0 0
          0 0 0 0 0 0
          0 0 0 0 0 0
          0 0 0 0 0 0
          0 0 0 0 0 0
          0 0 0 0 0 0
          0 0 0 0 0 0
          0 0 0 0 0 0
          0 0 0 0 0 0
          0 0 0 0 0 0
          0 0 0 0 0 0
          0 0 0 0 0 0
          0 0 0 0 0 0
          0 0 0 0 0 0
          0 0 0 0 0 0
          0 0 0 0 0 0
          0 0 0 0 0 0
          0 0 0 0 0 0
          0 0 0 0 0 0
          0 0 0 0 0 0
          0 0 0 0 0 0
          0 0 0 0 0 0
          0 0 0 0 0 0
          0 0 0 0 0 0
          0 0 0 0 0 0
          0 0 0 0 0 0
          0 0 0 0 0 0
          0 0 0 0 0 0
          0 0 0 0 0 0
          0 0 0 0 0 0
          0 0 0 0 0 0
          0 0 0 0 0 0
          0 0 0 0 0 0
          0 0 0 0 0 0
          0 0 0 0 0 0
          0 0 0 0 0 0
          0 0 0 0 0 0
          0 0 0 0 0 0
          0 0 0 0 0 0
          0 0 0 0 0 0
          0 0 0 0 0 0
          0 0 0 0 0 0
          0 0 0 0 0 0
          0 0 0 0 0 0
          0 0 0 0 0 0
          0 0 0 0 0 0
          0 0 0 0 0 0
          0 0 0 0 0 0
          0 0 0 0 0 0
          0 0 0 0 0 0
          0 0 0 0 0 0
          0 0 0 0 0 0
          0 0 0 0 0 0
          0 0 0 0 0 0
          0 0 0 0 0 0
          0 0 0 0 0 0
          0 0 0 0 0 0
          0 0 0 0 0 0
          0 0 0 0 0 0
          0 0 0 0 0 0
          0 0 0 0 0 0
          0 0 0 0 0 0
          0 0 0 0 0 0
          0 0 0 0 0 0
          0 0 0 0 0 0
          0 0 0 0 0 0
          0 0 0 0 0 0
          0 0 0 0 0 0
          0 0 0 0 0 0
          0 0 0 0 0 0
          0 0 0 0 0 0
          0 0 0 0 0 0
          0 0 0 0 0 0
          0 0 0 0 0 0
          0 0 0 0 0 0
          0 0 0 0 0 0
          0 0 0 0 0 0
          0 0 0 0 0 0
          0 0 0 0 0 0
          0 0 0 0 0 0
          0 0 0 0 0 0
          0 0 0 0 0 0
          0 0 0 0 0 0
          0 0 0 0 0 0
          0 0 0 0 0 0
          0 0 0 0 0 0
          0 0 0
        </DataArray>
        <DataArray type="Float64" Name="stress_zz" format="ascii" RangeMin="-3055080.832355341" RangeMax="6135153.527752928">
          1082969.9968049207 1743663.0220626853 218568.85971675604 -1346304.9988616083 1113096.227163137 1389327.6017655383
          321899.76505384943 -930127.4442803054 1143222.4575213538 1034992.1814683907 425230.67039094283 -513949.8896990026
          -1290338.670270389 -1014263.691944368 -1179641.259919247 -404994.5194913343 -1376682.9538807475 -1109872.6396440594
          -1231021.3783835755 -511495.9278251007 -1463027.2374911061 -1205481.5873437505 -1282401.4968479043 -617997.336158867
          -777715.6626592235 -784962.7813004801 -792209.899941737 -1292479.6088557 -1221710.3283337825 -1150941.0478118653
          -1058269.652839133 -402002.37087477883 -759199.0793986912 -135086.79624024947 -460128.5059582485 131828.77839427965
          2453861.407503238 2208417.601970066 4280653.553581875 3771227.4705808065 2477270.992779807 2204715.2389537697
          4055486.6851773504 3788178.976697208 2500680.5780563764 2201012.8759374735 3830319.8167728265 3805130.4828136093
          131279.20716452974 32092.52433690872 1486263.789456082 2704466.124462394 63522.491068370044 96114.10079182367
          1613898.4294820765 2791596.1366396463 -4234.225027789653 160135.67724673863 1741533.069508071 2878726.148816897
          -2479775.191361767 -1099741.4971284985 718987.2248808744 566843.4379416866 -2535177.01506206 -1160261.9350579698
          683418.7555988999 521752.1552774672 -2590578.8387623527 -1220782.3729874408 647850.2863169254 476660.8726132477
          2947079.995313434 2608948.358604025 1291420.4247528051 2853477.4390001823 2457087.3991461447 1247409.2535942192
          2759874.8826869307 2305226.4396882653 1203398.0824356328 1773796.1700583664 2554593.8237617207 1539291.3623742727
          803125.043685535 1851779.9778492027 2642018.5139592527 1598374.4016015274 808799.0699797771 1929763.785640039
          2729443.204156785 1657457.4408287818 814473.0962740198 1364248.8158147 1367174.3497423583 1370099.8836700164
          1439370.5276237885 1286531.3779507251 1234869.7415620778 1125013.5352502984 1030368.9555003671 963495.6925498717
          799355.5857652458 1457065.0025839265 -976777.1493984307 790820.0641393005 1494286.1710551644 -956093.4421559889
          782284.5425133548 1531507.3395264023 -935409.7349135472 1381.0777451386675 324324.81280906196 1575901.5068173804
          1120332.01160989 43484.020643886295 342358.0739591082 1560665.4484456081 1105085.5251468578 85586.96354263392
          360391.3351091544 1545429.390073836 1089839.0386838256 1165210.8193472796 3236589.187716987 113266.41699947312
          1229360.91902013 3357043.8649098 22282.9022148457 1293511.0186929808 3477498.5421026116 -68700.61256978172
          5687559.245040284 3627070.0040205293 3204866.9260788034 5911356.386396606 3649413.3667146843 3111646.0177746313
          6135153.527752928 3671756.729408839 3018425.109470458 -303959.97560393496 -1417537.7061606848 -1140425.1024572898
          24478.324871446704 -218223.74532781277 -1577447.8725536151 -1214510.1083164392 34354.346546426095 -132487.51505169045
          -1737358.0389465452 -1288595.1141755888 44230.368221405544 473889.01956040825 1349651.2770919658 582036.9144685098
          1273630.1090234343 690184.8093766113 1197608.9409549031 3436540.2749195034 3031425.656937626 5174023.90056644
          3248700.301769575 2824032.371544991 4846962.594803192 3060860.3286196482 2616639.0861523566 4519901.289039943
          3564021.711201693 1273408.8627673206 1865278.844699401 3940984.409433422 3376183.4732463555 1236061.4193016621
          1838629.3379855317 3820190.7241031993 3188345.235291019 1198713.9758360041 1811979.8312716624 3699397.0387729765
          -194299.67982683136 -599819.6353216086 -330525.09867746 -692639.0942536966 -466750.5175280886 -785458.5531857844
          413135.86833279865 72845.55358183105 388181.88472275384 117423.88315279751 363227.9011127087 162002.21272376398
          -291807.75616608374 -211983.47574804403 -204950.1004687426 -135061.97266881575 -118092.44477140157 -58140.46958958742
          -494515.918819807 -647666.4519087973 3016523.986722718 1512143.4995365448 -167415.10585321044 -469852.2650845476
          2859782.1081126756 1565544.6575711416 159685.70711338636 -292038.07826029795 2703040.229502633 1618945.8156057382
          1579753.899691267 458451.61682796595 1535348.7601426307 439868.4273381612 1490943.6205939944 421285.2378483562
          1825383.5203558877 1900296.8586317482 1794243.6770767116 1855585.707042492 1763103.8337975354 1810874.5554532357
          1789148.0809869429 1391534.9699560055 1750579.4547239183 1347251.036724681 1712010.8284608938 1302967.1034933564
          1206846.3570923237 1035795.3251699503 864744.2932475775 560816.5342572094 733901.2713192708 906986.0083813327
          981730.0498566674 1507822.552134921 2103421.70959174 897030.3785287559 915717.4142212289 1471185.9180450686
          2028640.2675572452 840124.9407087386 849704.7785857907 1434549.2839552164 1953858.8255227504 783219.5028887218
          1992024.1439222314 2627099.546945115 2786137.3675305857 1990102.6118676823 2664130.5378751224 2808310.281950615
          1988181.079813133 2701161.528805129 2830483.196370644 579345.5653714213 689885.4217269248 306866.42095774825
          592784.6525088509 34387.27654407515 495683.883290777 5197953.863878611 4954301.351424211 4710648.83896981
          359898.16387111385 -193960.91092863327 -1026407.3196980532 269228.4420263232 374192.73080985807 -179085.17077430128
          -889334.9254304599 304670.79487438593 388487.29774860234 -164209.43061996927 -752262.5311628664 340113.1477224487
          930448.820116332 848062.1370219857 765675.4539276395 3826747.72496159 3547396.3169931336 3268044.9090246772
          542274.3916109096 414415.6794026283 286556.9671943469 -322759.9535544397 -1367653.1281063615 -319895.23342450464
          -1467727.5538535963 -317030.51329456957 -1567801.9796008307 3887214.1448451583 4802774.85461472 3787490.9439707194
          4751211.33260685 3687767.743096281 4699647.810598982 908263.5292739554 1296088.1326496718 732892.6802500519
          1219592.9927971854 557521.8312261484 1143097.8529446993 -66801.1572767797 -220009.30795055724 -28345.249035583663
          -234571.75936743894 10110.659205612406 -249134.21078432072 1873034.625096439 1884489.092939537 1895943.5607826356
          1353138.0547685311 1774522.4342339346 1162093.345336005 1561356.1705994923 971048.6359034793 1348189.9069650501
          -139320.3259216008 1272019.9777582688 -152750.56209486068 920765.2378738266 -166180.79826812062 569510.4979893845
          940887.0818843925 925820.7864507042 910754.4910170159 1188345.2455278472 1173738.0236263573 1159130.8017248674
          -1429199.5555455382 -2180651.5050980407 -1399874.1383403488 -2448978.2308912664 -1370548.7211351595 -2717304.956684492
          1823016.2363509305 1850115.314419767 1877214.3924886025 2313387.3604855044 2230789.178288084 2148190.9960906627
          1831958.8590234828 2030402.9333815163 1858698.4417431566 2041026.453885863 1885438.0244628298 2051649.9743902101
          1770072.280079099 -500877.14509258576 1793567.1856666484 -478917.06852912164 1817062.0912541975 -456956.9919656575
          2966772.8180884416 346114.74245203653 -1507308.6931879646 3018367.0278754737 380330.8502369201 -1720314.9359739532
          3069961.237662506 414546.95802180376 -1933321.1787599418 -669846.0556615051 496459.83905326424 1652577.2097453508
          -590984.0030258724 -645940.3724106501 309234.59342175856 1465622.889823193 -576259.250113378 -622034.6891597951
          122009.34779025282 1278668.5699010352 -561534.4972008836 387661.2586865589 452232.61091804097 999994.5479860975
          848521.773639946 457056.98326466646 420352.5655586684 968591.9379316345 855875.1836581831 526452.7078427741
          388472.5201992957 937189.3278771713 863228.5936764202 1746570.1809179094 1668532.8217472567 1590495.462576604
          917499.5545203659 38855.38254401309 917294.1506291745 -129938.04268957675 917088.7467379833 -298731.46792316664
          2263089.679230149 1392635.5615997459 2161515.7082404625 1201751.304811289 2059941.737250775 1010867.0480228327
          1767293.6834683141 751732.9612758823 1655945.9377245028 660627.6452748682 1544598.1919806912 569522.3292738543
          247968.7416109493 802537.5492284431 340254.7623799968 886096.5109809625 432540.7831490444 969655.472733482
          -566144.424138379 -135477.3186778054 -615638.6426320615 -181066.06912958075 -665132.8611257441 -226654.81958135602
          1806479.7335489036 1874684.4174885263 1942889.1014281493 1833631.7882707003 1860280.815273124 1886929.8422755473
          -332856.04286641255 -1989695.0287096761 -144248.27171217802 433754.55931549193 -316616.8408423808 -2016161.9911736117
          -54353.012985508714 490413.4274134641 -300377.6388183492 -2042628.953637547 35542.24574116059 547072.2955114363
          1013935.6569883293 1744525.585705141 1005179.9524967062 1749549.2526654238 996424.248005083 1754572.9196257063
          408218.7060676742 93589.84087268554 7558.5031111553835 685399.254316428 370568.336158885 101409.1146064664
          10369.03320511579 656332.3629320245 332917.96625009575 109228.38834024724 13179.563299076268 627265.4715476212
          -195108.08887393924 -637289.6109207053 -1085710.531865349 -201184.92243120688 -667780.8961417752 -1180872.3611893128
          -207261.75598847453 -698272.1813628449 -1276034.190513276 -204695.50052997775 -115752.40940880966 -26809.318287641276
          932681.3539487089 -381082.1754300753 914741.7488497543 -251843.34191395133 896802.1437507998 -122604.50839782739
          342427.2084085757 696043.125485926 377828.9331548934 749419.5667498882 413230.6579012113 802796.0080138508
          1069622.5887724718 1045407.4884145337 1021192.3880565959 1747827.9008386214 1848939.3152598583 1950050.7296810946
          2011921.256055441 3181702.287714726 2038128.2097408418 2983710.5798333124 2064335.1634262435 2785718.8719518986
          209842.21419097122 580905.8049570972 170660.8537786221 572795.3569011546 131479.49336627306 564684.9088452118
          1953533.3461243273 2050133.0514659663 1911133.0634100523 2024940.4869061324 1868732.7806957774 1999747.9223462986
          2181376.786309585 1376495.896742988 2801571.2759749424 2216180.9172701803 1345726.6272987037 2848055.9087647484
          2250985.0482307756 1314957.3578544194 2894540.541554554 367327.0241470507 -32644.68597074166 393637.73357273825
          85191.2967326635 419948.4429984258 203027.27943606855 -1265079.9729909066 -1152936.556778979 -1431711.299421645
          -1315306.2018292956 -1598342.6258523834 -1477675.8468796122 2052155.4120202628 3912367.2570675192 1912464.9410086037
          3890819.4514863477 1772774.4699969445 3869271.645905176 391049.37205774296 407121.7197859987 423194.06751425436
          2730659.085890829 1416803.4927817143 2711279.9718142464 3394207.2352113756 2660195.4339343533 1405179.4392262266
          2690544.441892471 3346831.9204051844 2589731.781977877 1393555.3856707392 2669808.9119706964 3299456.6055989936
          1213159.7672938472 816279.2146321302 1368703.003645953 927468.9484441727 1524246.239998059 1038658.6822562155
          -1604437.0555754174 -1647925.6300141208 -1691414.2044528245 4781176.903508898 4754642.335897645 4728107.76828639
          -114977.41662051628 -84807.03596954668 -54636.65531857702 699308.5125589579 816367.9954244772 933427.4782899959
          348016.8035326133 362367.90961714316 376719.01570167305 -1603494.478547519 -1427814.0314656696 -1565521.6362636194
          -1560681.2638308404 -1527548.7939797197 -1693548.496196011 -1640741.6834046387 -1718300.4514933554 -1795859.219582073
          1330884.0487343408 1323817.0083062563 1316749.9678781722 -1364821.6081922692 -1485917.692407576 -1607013.776622883
          3373930.150040811 3347539.380509269 3321148.6109777284 334306.1014447401 1842356.6011104595 204076.83292052566
          1735420.5428826674 73847.56439631124 1628484.4846548755 2693952.586998826 2686793.9366931515 2679635.286387477
          3075972.640844237 2969098.2155853417 2862223.7903264463 -2502912.767514887 -2778996.7999351136 -3055080.832355341
          2386790.5999730304 2631421.1896310165 2876051.7792890025 3453983.8439357257 3481736.206511746 3509488.569087767
          4249413.302803273 4105773.6383522144 3962133.9739011554 1432496.9696985038 2235809.01314077 1375175.1897581636
          2131448.9439526293 1317853.4098178232 2027088.8747644895 1645432.1446894302 4339167.467773864 1600932.772277952
          4409503.340049963 1556433.3998664743 4479839.212326063 1228494.42558119 1140239.8250104752 1051985.224439761
          1148481.2776258655 1130395.4056335015 1112309.5336411374 1537960.3944792077 1515383.5957697437 1492806.7970602794
          91012.66802245079 -448057.404909242 25145.992430741564 -362549.9646565949 -40720.68316096778 -277042.52440394775
          1789863.6134659725 507050.22168945684 2143461.4908702923 1835893.2787847961 523500.2783713939 2149179.4972821404
          1881922.9441036193 539950.3350533311 2154897.5036939885 2482387.0231401483 2607616.043711591 2402459.93232334
          2511786.018301267 2322532.8415065315 2415955.9928909433 -495540.1515683967 -480441.4179550705 -465342.68434174417
          282840.6079492939 276252.2792878405 269663.95062638714 2337540.471235824 2370908.3966744496 2404276.3221130758
          1092146.9848651248 1131165.5743566002 1170184.1638480756 -1261343.6462947642 -1260626.6500517963 -1259909.6538088282
          -1422826.1660073306 -504674.03163789003 -1515208.2435171974 -451889.643589308 -1607590.3210270642 -399105.25554072583
          431039.955088097 312871.8270569104 194703.69902572362 1723329.789728866 1803576.7748209764 3619169.2496688766
          1677820.0845687161 1724748.3146443511 3747987.860567704 1632310.3794085663 1645919.854467726 3876806.471466531
          -1053346.5105784142 66458.73234824208 -1056337.7601038266 61831.05679275663 -1059329.0096292389 57203.38123727121
          774258.2510665439 -659361.8060312357 612028.8790173838 -722425.2330165782 449799.50696822384 -785488.6600019208
          2617119.5233809706 2417361.9609597027 2217604.3985384353 -301150.3646536325 402174.4505923704 1013134.0151693677
          -114554.91608825725 618367.5893092331 1262847.6164314738 72040.53247711822 834560.7280260955 1512561.2176935798
          -393270.4137562375 -541709.2759035476 -690148.1380508578 -32216.551296961552 418745.8912941974 -131102.9255111601
          420693.97000376147 -229989.29972535878 422642.0487133254 -209619.53433361882 -768800.1042108359 -463794.9677894676
          -926904.9341324782 -717970.4012453164 -1085009.7640541203 1766415.3571975352 1815061.5665499142 1863707.775902293
          723873.9487020165 597122.7745279862 470371.6003539561 52297.48153778893 45491.48509712066 38685.48865645239
          738211.3180370468 717828.5103536567 697445.7026702669 809242.249151522 795496.6711404952 781751.0931294684
          -2084248.875762857 -2222893.62332939 -2361538.3708959226 776134.5107557271 894574.5492321893 860391.7490664516
          890664.8552413956 944648.987377176 886755.1612506018 1103993.4250060811 1022733.7148589495 1475899.970117232
          1331948.4118853097 1847806.5152283832 1641163.10891167 2045916.4456958144 1987867.2800897546 1929818.1144836945
          1152988.3984833676 104452.07368889137 1123190.0865007201 120679.09371407935 1093391.7745180724 136906.11373926728
          1683458.3271425036 1597904.4351621512 1512350.5431817994 3199828.91809667 2432528.437542822 3190767.0181534574
          2417591.766814447 3181705.118210245 2402655.096086071 1109636.0970134102 1448526.4423806837 1243476.064045481
          1435839.1665771445 1377316.0310775514 1423151.890773605 -1310202.226378966 -1287147.4463237145 -1264092.666268463
          3939371.435281442 4241917.906404837 4544464.3775282325 -1556286.4873616984 -1353353.1990581146 -1150419.9107545307
          -196758.77705549542 -201375.09504493792 -205991.41303437995 -111453.63950656861 -72323.70408556459 -33193.76866456051
          -105986.43371939952 10956.969485113019 127900.37268962554
        </DataArray>
        <DataArray type="Float64" Name="peeq" format="ascii" RangeMin="0.004533590453611297" RangeMax="0.009865974647251384">
          0.0067058237469048545 0.007464655690779674 0.0071744805273326415 0.006510260363875257 0.006703577947952004 0.007458486244291605
          0.007172547547880056 0.006511689642512817 0.006701332148999155 0.007452316797803536 0.007170614568427472 0.006513118921150376
          0.005811718426312736 0.005277316569384307 0.0053565627005677545 0.00597805476369452 0.005811364243644455 0.0052756914199664235
          0.005355627588353996 0.005977579451133052 0.005811010060976173 0.00527406627054854 0.005354692476140235 0.005977104138571583
          0.004732908572877841 0.00473288387010064 0.00473285916732344 0.004728630632892206 0.004729018828768231 0.004729407024644255
          0.006804501237272031 0.006229193008313106 0.006805813753320083 0.006231493323268328 0.006807126269368136 0.006233793638223551
          0.00925125938073944 0.009464948882917677 0.009195226042565004 0.009128424962959757 0.009248164592995139 0.00946180004162565
          0.009191068876843537 0.009124585748246804 0.009245069805250835 0.00945865120033362 0.009186911711122072 0.00912074653353385
          0.006367183487852306 0.0068433502969224725 0.007091674803839948 0.006659242166435578 0.0063652124008690995 0.006840592616155656
          0.007089902852539363 0.006657799961899778 0.006363241313885893 0.006837834935388841 0.007088130901238779 0.006656357757363978
          0.005461233037413222 0.005787480786453557 0.0053418963022271015 0.005111140037842644 0.005462245068207916 0.005786991511829926
          0.005342330858399892 0.005112215706003632 0.005463257099002611 0.005786502237206294 0.005342765414572683 0.005113291374164621
          0.009400690481802126 0.009298012487927877 0.009112737055154578 0.009399110923564552 0.009296945423272644 0.00911356006569774
          0.009397531365326978 0.009295878358617412 0.009114383076240903 0.008965514737902022 0.00936657941763991 0.009339936918262567
          0.008807611811463101 0.00896341723086571 0.009363352070510212 0.009335911879262693 0.008805275410529223 0.008961319723829402
          0.009360124723380514 0.009331886840262822 0.008802939009595346 0.008362543384804844 0.008361058598482718 0.008359573812160587
          0.007888467271585351 0.007603536893055217 0.007882861662116488 0.0076008721216538995 0.007877256052647625 0.007598207350252581
          0.0064974409175550425 0.0070661259353504815 0.006196092128368266 0.006495218730869293 0.007061784691100593 0.006195270423496633
          0.006492996544183544 0.007057443446850704 0.0061944487186250015 0.008683085774010205 0.008527412370705229 0.008767577191549782
          0.008951835160010578 0.008679394192149028 0.008525276454256494 0.008765922823974788 0.008949241052347838 0.00867570261028785
          0.008523140537807759 0.008764268456399795 0.008946646944685098 0.007652365117022046 0.007247286414302066 0.007505798321577301
          0.007651989836011768 0.007246307091862311 0.007503428665564282 0.007651614555001491 0.0072453277694225545 0.007501059009551259
          0.006918934560085527 0.006755873067743345 0.006106506208683383 0.006917593042814456 0.006753669281370206 0.006105309932355806
          0.006916251525543385 0.006751465494997067 0.00610411365602823 0.00811738134986478 0.00782581139926481 0.007989088782193007
          0.008416122632814362 0.008116397638239944 0.007822641932724963 0.007985994689870855 0.008413989816543515 0.008115413926615106
          0.007819472466185112 0.007982900597548704 0.008411857000272669 0.009038955269684365 0.008661515296796776 0.009035460812214015
          0.008657554905780542 0.009031966354743666 0.008653594514764306 0.009242782003608252 0.008763359411857052 0.00875585760070711
          0.00923973602809197 0.008764360691721559 0.008755384729644312 0.009236690052575684 0.008765361971586064 0.008754911858581516
          0.008343694528389936 0.008509730920103204 0.008922460131581777 0.008826318694219945 0.008342965817174981 0.008506754264241072
          0.008919160780292104 0.008823766015827796 0.008342237105960024 0.008503777608378942 0.008915861429002431 0.008821213337435645
          0.005188064235976377 0.005493589476907533 0.005188566816049409 0.00549344292997029 0.005189069396122439 0.005493296383033047
          0.005818307598493436 0.006215184719785618 0.005818395657962922 0.00621565061972942 0.005818483717432407 0.006216116519673223
          0.004573429090039052 0.004680421876659551 0.004574741455461969 0.004681560185754366 0.0045760538208848844 0.004682698494849181
          0.005933079094008874 0.00557477690811849 0.005954505592963508 0.0064238499298189125 0.005936659535507975 0.005578635826969581
          0.0059563976664676 0.006425892326473312 0.005940239977007077 0.005582494745820671 0.005958289739971693 0.006427934723127713
          0.009535112685187037 0.009215531523854636 0.009533410335944743 0.00921490238362183 0.00953170798670245 0.009214273243389024
          0.009692650163332046 0.009465921399217515 0.009687943694662242 0.009461712507406945 0.009683237225992437 0.009457503615596375
          0.009865974647251384 0.009708269405300167 0.009861532378308552 0.009703053835949774 0.009857090109365719 0.00969783826659938
          0.005871854056862801 0.005872325336254143 0.005872796615645485 0.00798965754891643 0.007991185183735728 0.007992712818555027
          0.008862091378308446 0.00851807032242554 0.008397870654777205 0.008829994368906722 0.008862633828169864 0.00851913089011923
          0.008398586120750527 0.008830466541355102 0.008863176278031284 0.00852019145781292 0.008399301586723851 0.008830938713803483
          0.009180921079396972 0.009163110115506986 0.009364974085435233 0.009177778380074046 0.009160909924139558 0.009362981565449999
          0.009174635680751124 0.009158709732772129 0.00936098904546476 0.009557813352605693 0.009331153593004134 0.009551470200814366
          0.009326610991220681 0.009545127049023043 0.009322068389437227 0.008225533837515115 0.008227684645188154 0.00822983545286119
          0.004798512478080539 0.005060454953815412 0.005228321224190069 0.004927300412349727 0.004799273935833817 0.0050610567109342485
          0.005230772216401934 0.004928986407449483 0.004800035393587095 0.005061658468053085 0.0052332232086138 0.004930672402549239
          0.00925852750882512 0.009257112495404687 0.009255697481984257 0.008267384195866336 0.008269575128472609 0.00827176606107888
          0.008850456271620443 0.008852519048817602 0.008854581826014762 0.006028227409794663 0.005712917723135403 0.006028877802236682
          0.00571213005576884 0.0060295281946786995 0.005711342388402279 0.007716987660304606 0.007652884792431406 0.007717089645363337
          0.007654136909062032 0.007717191630422068 0.007655389025692658 0.00975762855811985 0.009535970517498868 0.009752459476994494
          0.009532591170509374 0.00974729039586914 0.009529211823519882 0.008365233932953835 0.008217405821928621 0.008359785584481874
          0.008213171077450596 0.008354337236009911 0.008208936332972571 0.008990905189117143 0.008989058262228431 0.008987211335339721
          0.00797694863894987 0.007214699232072089 0.007974540654457608 0.007214397575992374 0.007972132669965349 0.007214095919912658
          0.008313498584717778 0.008012780153400866 0.008308685673159157 0.008005377224730522 0.008303872761600535 0.00799797429606018
          0.009720288671647783 0.009715814796318157 0.00971134092098853 0.009610415154104952 0.009608408612543919 0.009606402070982884
          0.00803528861633024 0.007941688131347022 0.00803257839771963 0.007935395313945522 0.008029868179109022 0.007929102496544023
          0.009796501913462461 0.009794005515414053 0.009791509117365644 0.007796548277704424 0.007797491199820746 0.007798434121937069
          0.009850325974130011 0.009736843051548528 0.00984726929551133 0.009734959009987483 0.009844212616892648 0.009733074968426434
          0.009248585405828305 0.009025549348336902 0.009246329126672254 0.009022484026737162 0.009244072847516202 0.00901941870513742
          0.007238984888026548 0.007663676940890993 0.007578610216989767 0.007236350356908565 0.007661802592015933 0.007572897151123283
          0.0072337158257905826 0.007659928243140874 0.007567184085256801 0.008398236051615202 0.008136250614693842 0.00845823993310239
          0.008782219084041441 0.00839406310847684 0.008130109865317968 0.008452468504891663 0.008778043667723837 0.008389890165338478
          0.008123969115942094 0.008446697076680935 0.008773868251406233 0.005837536159266385 0.005352614789494192 0.005220589682554844
          0.0055865897864169605 0.005839568965213257 0.005353003769284087 0.005219536581913269 0.00558687162362763 0.005841601771160131
          0.005353392749073982 0.005218483481271694 0.005587153460838297 0.009804353261844135 0.009798761271269973 0.009793169280695808
          0.007861501572874317 0.007592131510619621 0.00785766693165975 0.00758830386806978 0.007853832290445182 0.007584476225519938
          0.00948009457928133 0.009329814522913807 0.00947880233355491 0.009328357092475073 0.009477510087828494 0.009326899662036342
          0.007230554952072738 0.006912644434369514 0.007227751435750071 0.006912324862794744 0.007224947919427403 0.006912005291219972
          0.005960733039729621 0.006320118796653908 0.0059627071414549634 0.006321933623354133 0.005964681243180307 0.006323748450054359
          0.005574932468258328 0.005286121828546634 0.005574193644808709 0.005284845784678527 0.005573454821359092 0.005283569740810422
          0.009581754930029511 0.00958006365259804 0.009578372375166568 0.009580566178767833 0.009577874915392644 0.009575183652017455
          0.006194178591716075 0.005704437393548103 0.005578319142554095 0.006050844453065191 0.006193461844614661 0.005705504448012132
          0.005580698289253682 0.006052131926434099 0.006192745097513248 0.005706571502476161 0.005583077435953269 0.006053419399803009
          0.009627286408987665 0.009673076830188612 0.00962420922817742 0.009671788332466659 0.009621132047367177 0.009670499834744703
          0.004533984149266541 0.004538386156209594 0.004629134816329101 0.004583812971312228 0.004533787301438919 0.0045387378524777665
          0.00462917922930368 0.004584047655608599 0.004533590453611297 0.004539089548745941 0.004629223642278258 0.004584282339904971
          0.00496411712606591 0.004703284168761365 0.004976993928525325 0.004963468998974711 0.004703831533216838 0.004976039611260216
          0.004962820871883511 0.004704378897672311 0.0049750852939951075 0.006476030133967449 0.006478686394912768 0.006481342655858087
          0.008983485942752377 0.008637270806121086 0.008980004304651828 0.008633534193465686 0.008976522666551278 0.008629797580810283
          0.008606156996801383 0.00799944830166647 0.008603596868223196 0.007996904336592295 0.008601036739645006 0.007994360371518119
          0.006621385153202447 0.0066205878664924375 0.006619790579782429 0.009770331457659414 0.009768229799453045 0.009766128141246676
          0.007320403997534191 0.007859493600912402 0.00732047464830649 0.007855006197037185 0.00732054529907879 0.00785051879316197
          0.0047091937573866555 0.004614202023112274 0.0047088859229477385 0.004614638421999132 0.004708578088508821 0.00461507482088599
          0.004783788115182028 0.004924217420037716 0.004784948600912719 0.0049253046054127236 0.00478610908664341 0.004926391790787731
          0.0051074951479109735 0.00560588116622646 0.005344193851615707 0.005108249868054177 0.0056054176437149725 0.0053438147763343125
          0.00510900458819738 0.005604954121203485 0.005343435701052917 0.006111034535360285 0.006573078462112731 0.006109797968962101
          0.00657110954972581 0.006108561402563916 0.006569140637338888 0.00489153667464069 0.004985527810707867 0.004889950030369238
          0.0049838668910498875 0.004888363386097787 0.004982205971391906 0.005844746050338457 0.005572952115728339 0.005843151084275279
          0.00557120583953062 0.005841556118212101 0.0055694595633329 0.004895907975298925 0.004895484762227408 0.004895061549155892
          0.005658272237566207 0.005512326996812212 0.0054593275367999655 0.005572880102160879 0.0056567796369214746 0.005510734764646341
          0.0054573360063454625 0.0055709911645102205 0.005655287036276744 0.005509142532480469 0.005455344475890958 0.00556910222685956
          0.005235833036385901 0.005283950094592607 0.005234884841701859 0.005282937543888186 0.005233936647017818 0.005281924993183765
          0.004794952775477383 0.004794429214711575 0.004793905653945766 0.00566142742734123 0.005660473817794834 0.005659520208248436
          0.006836185312048637 0.006834624348900808 0.006833063385752979 0.0066007214381327345 0.0066030758046651955 0.006605430171197657
          0.007415058553550534 0.007413062235696956 0.0074110659178433765 0.007028940529348474 0.007263586115792142 0.00702707701285608
          0.0072603024040842085 0.0070252134963636895 0.007257018692376276 0.007519208267444894 0.007516687552144318 0.007514166836843744
          0.006710226060365543 0.006711915511823656 0.00671360496328177 0.005158930331023497 0.00515727449093704 0.005155618650850584
          0.009508253992183602 0.009506695908683074 0.009505137825182546 0.008304619620029235 0.008144940447970523 0.008302295219019004
          0.008142321838878318 0.008299970818008776 0.008139703229786114 0.009610401981370056 0.009608803467630846 0.00960720495389164
          0.007965213940278524 0.00796208848653663 0.007958963032794735 0.0075636013069018794 0.007559699624424345 0.007555797941946813
          0.007291640756596726 0.007293818388856817 0.007295996021116911 0.0073413922770499684 0.0073428238623622355 0.0073442554476745026
          0.007025705642789159 0.007026737226347641 0.007027768809906123 0.005012308512803056 0.004963298449392462 0.005011258684787622
          0.004961867603469418 0.0050102088567721866 0.004960436757546373 0.005883215216144905 0.0055809413139297805 0.005882837672478118
          0.005581095480577198 0.0058824601288113305 0.005581249647224618 0.005833726127526366 0.005833178987745382 0.005832631847964398
          0.004675956961754323 0.004676755368703184 0.004677553775652045 0.009294079227760606 0.009292267624739076 0.00929045602171755
          0.005111384276027892 0.00538130998155755 0.005111264535378304 0.005380531894606683 0.005111144794728717 0.0053797538076558165
          0.0054288576453312195 0.005566313836718535 0.005500987457464518 0.005429880960467865 0.0055673366810657 0.005500898182339866
          0.005430904275604508 0.0055683595254128635 0.005500808907215213 0.005557594032786254 0.005642010410620085 0.005556786252098983
          0.005641306289133163 0.005555978471411711 0.005640602167646245 0.005622010978306858 0.005620929881331922 0.0056198487843569876
          0.005695261381270919 0.005695782714226236 0.005696304047181553 0.005444065339706079 0.005444771239612863 0.0054454771395196465
          0.009473468799021952 0.009471246992922651 0.009469025186823351 0.004722961629269423 0.0047225944090639165 0.004722227188858409
          0.004723867279951636 0.005390295050353263 0.004722949957935831 0.005390160734285356 0.004722032635920026 0.005390026418217451
          0.008996510617439616 0.008998289623905463 0.00900006863037131 0.007802781854033261 0.00787034506247292 0.008392596471613605
          0.007800848039095596 0.007868564661699733 0.008391464874066203 0.007798914224157929 0.007866784260926546 0.0083903332765188
          0.004926132700529816 0.00526123299557196 0.004927454158255702 0.005262297132667201 0.004928775615981588 0.005263361269762443
          0.009222062320390953 0.008953665851566229 0.009221717092576966 0.008954397314498682 0.00922137186476298 0.008955128777431137
          0.005615438225938893 0.005616658904181178 0.005617879582423465 0.008234797470926515 0.00809335731995615 0.007679095803559114
          0.008237009284838894 0.008095571921200681 0.007681620932388262 0.008239221098751276 0.008097786522445208 0.00768414606121741
          0.008857170150290972 0.008859494115045337 0.0088618180797997 0.00941031197008035 0.009512450781749053 0.00940534400064548
          0.009506356813659446 0.009400376031210609 0.009500262845569842 0.00864415607905893 0.008776115435508318 0.008645758442691472
          0.008776450352687197 0.008647360806324018 0.008776785269866076 0.009103861017450539 0.009100983093797758 0.009098105170144977
          0.009092812748929494 0.009092600059552262 0.00909238737017503 0.0053127410555244324 0.005315702882183287 0.00531866470884214
          0.006083900743250771 0.006083863139351246 0.0060838255354517205 0.006786553032897111 0.006787262356304809 0.006787971679712507
          0.00852579670112174 0.008527361799379116 0.00852892689763649 0.007490552008059943 0.0076798218675479335 0.007491112068370749
          0.0076786081447522084 0.0074916721286815546 0.0076773944219564825 0.005547450980276727 0.005372611838373381 0.005551882761182772
          0.005377264942845149 0.005556314542088818 0.005381918047316915 0.005219656192530525 0.005222368061956629 0.005225079931382734
          0.004675509729296685 0.00472808797993088 0.004677675903459631 0.004729897934512314 0.004679842077622577 0.004731707889093748
          0.009079213942369066 0.009078300127828173 0.00907738631328728 0.006890522958922193 0.00745688080856146 0.00689251455300368
          0.007457512967582526 0.006894506147085166 0.007458145126603592 0.009178509310976201 0.008984976172262918 0.0091761292227124
          0.008983378766910905 0.0091737491344486 0.008981781361558892 0.00482834685946043 0.0048297634204156744 0.00483117998137092
          0.008772995247564546 0.008771843227534127 0.008770691207503711 0.005905886692731714 0.0059096547753967115 0.005913422858061708
          0.0063617439781195545 0.006364544121683942 0.006367344265248331 0.009492330757983303 0.009486946840471107 0.009481562922958911
          0.009357225618785131 0.009353660278257424 0.009350094937729715
        </DataArray>
        <DataArray type="Float64" Name="pe11" format="ascii" RangeMin="0.00453340803060591" RangeMax="0.00986427048232388">
          0.006704790839405464 0.007463665078624067 0.0071735308263259825 0.006509332943776601 0.006702533845977224 0.007457514499924018
          0.007171587740861329 0.006510730499512666 0.0067002768525489835 0.007451363921223972 0.007169644655396674 0.00651212805524873
          0.005810941370995755 0.005276779396505112 0.0053559448388296816 0.005977217475586801 0.005810574137377399 0.005275146271963151
          0.005355003688390791 0.005976724426876223 0.005810206903759043 0.005273513147421192 0.0053540625379519015 0.005976231378165643
          0.004732366733094183 0.004732329614211063 0.004732292495327943 0.00472820424245928 0.004728576844427579 0.004728949446395878
          0.00680355732929068 0.00622833850498567 0.006804860678466328 0.006230628267878403 0.0068061640276419755 0.006232918030771136
          0.009250419633247601 0.009463984463668512 0.009193628369449014 0.009127009575789049 0.009247331811836804 0.009460837061829585
          0.00918947260615516 0.009123182162119615 0.009244243990426006 0.00945768965999066 0.009185316842861302 0.009119354748450182
          0.006366469923425871 0.00684274600272782 0.00709105872387886 0.006658425418592386 0.006364503308973277 0.006839991260470147
          0.007089286422585704 0.00665697572817361 0.006362536694520682 0.006837236518212476 0.007087514121292544 0.0066555260377548315
          0.005460535728366326 0.005786673955579615 0.0053409277864412755 0.005110442055175463 0.005461523804889334 0.0057861770245329165
          0.005341338665437103 0.005111489321463183 0.0054625118814123404 0.005785680093486217 0.005341749544432931 0.005112536587750902
          0.009396869931580665 0.009293268904443822 0.009107749451475501 0.009395251937140242 0.00929215191320485 0.009108503466926288
          0.009393633942699818 0.009291034921965877 0.009109257482377075 0.00896449901226314 0.009365310743464016 0.009338554080566363
          0.008806592931515707 0.008962389373403995 0.009362101437873934 0.009334542690489295 0.008804273330592806 0.00896027973454485
          0.009358892132283853 0.009330531300412228 0.008801953729669906 0.00836174224277486 0.008360260343169251 0.008358778443563645
          0.007887844156176448 0.00760273961676637 0.007882241691102028 0.007600056553869392 0.007876639226027608 0.0075973734909724165
          0.006496375059174123 0.007065180363896671 0.006194976110420686 0.006494156157712284 0.007060851128962205 0.006194133522365095
          0.006491937256250444 0.007056521894027741 0.006193290934309504 0.008682775112223772 0.008527047682031922 0.00876722272352107
          0.008951560106687878 0.008679080444024228 0.00852491556409352 0.008765568316478657 0.008948960885641889 0.008675385775824683
          0.008522783446155115 0.008763913909436243 0.0089463616645959 0.007651826371680812 0.007246749887106943 0.0075051832698036745
          0.007651455487344189 0.007245758860767429 0.007502830152300044 0.007651084603007568 0.007244767834427917 0.007500477034796416
          0.0069181756741638865 0.006755001375095515 0.006104889818173563 0.00691681094255097 0.006752784081100003 0.006103673719567207
          0.0069154462109380565 0.006750566787104492 0.006102457620960849 0.00811683444538827 0.00782513074396437 0.007988265220074255
          0.008415509554096907 0.008115862850196828 0.00782198925871291 0.007985195701134368 0.008413386250019951 0.008114891255005382
          0.007818847773461451 0.007982126182194483 0.008411262945942997 0.009037667244753966 0.00866052846123161 0.009034186644741066
          0.008656600787850304 0.009030706044728169 0.008652673114468996 0.009240730641999791 0.008760828746994173 0.008753974086236398
          0.009237666184631114 0.008761796322499984 0.008753492120295775 0.009234601727262438 0.008762763898005791 0.008753010154355149
          0.00834248087574006 0.008509011320463316 0.008921637038945676 0.00882495155620873 0.008341739833940834 0.008506026611670221
          0.008918340238536705 0.008822402645082151 0.008340998792141608 0.008503041902877127 0.00891504343812773 0.008819853733955572
          0.005187536872292291 0.005493030780066038 0.005188031435618618 0.005492871554277129 0.005188525998944944 0.0054927123284882196
          0.005817486418832359 0.006214363458651825 0.0058175389563353335 0.006214793330296217 0.005817591493838307 0.00621522320194061
          0.004573153426919481 0.004679968564805418 0.004574442605731916 0.004681085117702408 0.004575731784544353 0.004682201670599399
          0.005931748094332609 0.005573752430289135 0.0059535729360122094 0.00642283455762243 0.005935331583309172 0.005577629560277414
          0.005955478572293986 0.0064248745890976774 0.005938915072285735 0.005581506690265694 0.005957384208575764 0.006426914620572927
          0.009532234407224683 0.009211916125802992 0.009530502040667067 0.00921124046166252 0.009528769674109453 0.009210564797522046
          0.009691259388307354 0.009464635959859666 0.009686582228073694 0.009460438397898657 0.009681905067840033 0.009456240835937648
          0.00986427048232388 0.009706730353092888 0.009859859956285523 0.009701560210990435 0.009855449430247167 0.009696390068887981
          0.005871071169620211 0.005871528464269714 0.005871985758919215 0.007986510121962009 0.007988035639971816 0.007989561157981624
          0.00885838951552452 0.008514762524457395 0.008394517751902699 0.008826667620257 0.008858896593909982 0.008515803846675218
          0.008395222876181068 0.008827107817095241 0.008859403672295443 0.008516845168893044 0.008395928000459437 0.008827548013933482
          0.009180419988359995 0.009162752671881972 0.009364500246315244 0.009177279073047375 0.009160552084707242 0.009362512874112687
          0.009174138157734754 0.009158351497532516 0.00936052550191013 0.00955627491691006 0.009329789439966993 0.009549955402071349
          0.00932527001027362 0.009543635887232636 0.009320750580580246 0.00822365973616939 0.008225794405082362 0.008227929073995333
          0.004798190246010864 0.005060082823223974 0.005227889854426004 0.004926885393811626 0.004798942354257919 0.005060673405754869
          0.0052303204197269955 0.004928550028431075 0.004799694462504974 0.005061263988285763 0.005232750985027986 0.004930214663050522
          0.00925568880107285 0.009254241374527843 0.009252793947982833 0.008264611892425732 0.008266785414017557 0.008268958935609381
          0.008845916221734033 0.00884790196288005 0.008849887704026067 0.00602750506787214 0.005712400615840493 0.0060281225210207495
          0.005711586378350121 0.00602873997416936 0.0057107721408597495 0.007715774102155337 0.007651109971853937 0.007715854372741078
          0.0076523458043227435 0.007715934643326815 0.007653581636791549 0.009756597022056574 0.009535097815350635 0.009751447035552061
          0.0095317437564872 0.009746297049047545 0.009528389697623766 0.008364859050028327 0.008216937058588992 0.008359408149137887
          0.00821268669635694 0.008353957248247446 0.008208436334124885 0.008990438734232655 0.008988595856926986 0.008986752979621315
          0.007976132625140029 0.007213695596236315 0.007973703038498033 0.007213365837287418 0.00797127345185604 0.00721303607833852
          0.008313090878460584 0.008012209087834298 0.008308290271943854 0.008004832218734664 0.008303489665427124 0.00799745534963503
          0.00971868936270152 0.009714248523664334 0.009709807684627147 0.009608419459704295 0.009606395015216915 0.009604370570729534
          0.008034741018309564 0.007941127803756718 0.008032052896438506 0.007934872077016831 0.008029364774567449 0.007928616350276944
          0.009794427122412696 0.009791944839941747 0.009789462557470797 0.007793703055293184 0.00779465357244867 0.007795604089604158
          0.009848911194285716 0.009734515130796132 0.009845855852779209 0.009732622768917018 0.009842800511272702 0.009730730407037905
          0.00924795905687838 0.00902432787860992 0.009245715317879303 0.009021282132046527 0.009243471578880225 0.009018236385483134
          0.00723841241980733 0.007663092950363644 0.007577803099481123 0.007235769615101515 0.007661230062105815 0.0075721226578010035
          0.007233126810395703 0.007659367173847987 0.007566442216120885 0.008397039571783232 0.008135579681405972 0.008457365077101245
          0.008780924644501423 0.00839289089330142 0.008129457941558307 0.008451631478807614 0.0087767770791297 0.008388742214819608
          0.008123336201710643 0.008445897880513985 0.008772629513757978 0.005836807913457235 0.005352125789162572 0.005220072482652407
          0.005585992228257234 0.005838808675494897 0.0053524946698106975 0.005219003665021449 0.005586253343334518 0.0058408094375325586
          0.005352863550458825 0.005217934847390493 0.0055865144584118015 0.009803145137654639 0.009797570875214523 0.009791996612774405
          0.007860471941710759 0.007591324840960144 0.007856652453660608 0.0075875039902865375 0.007852832965610455 0.0075836831396129305
          0.00947683235419131 0.009326024943311457 0.009475512983986148 0.009324535462484516 0.009474193613780987 0.009323045981657577
          0.007229541350188449 0.006911664911579629 0.007226748394244463 0.006911341415719282 0.007223955438300476 0.006911017919858934
          0.005960071052370354 0.0063192246805313865 0.005962021534626512 0.006321013128931862 0.005963972016882671 0.006322801577332339
          0.005574400525130505 0.0052855793612465694 0.005573649928850988 0.005284291182713369 0.005572899332571472 0.005283003004180166
          0.00958119656491482 0.009579508927513577 0.009577821290112334 0.009579251784777238 0.009576556364588885 0.00957386094440053
          0.006193413683432979 0.005703741614665296 0.005577733246903943 0.006050034517665153 0.006192688895004777 0.005704787331793249
          0.005580090805237531 0.006051297816499754 0.006191964106576573 0.0057058330489212035 0.0055824483635711205 0.006052561115334354
          0.00962556016548927 0.009670557841439165 0.009622490587320587 0.009669259870150604 0.009619421009151903 0.009667961898862045
          0.004533833474197165 0.004538201678918864 0.00462889734907864 0.004583623869847997 0.004533620752401537 0.0045385338910124695
          0.004628914726977485 0.004583834610186265 0.00453340803060591 0.004538866103106075 0.004628932104876329 0.004584045350524535
          0.004963596194089169 0.004702908468431905 0.004976586069286821 0.00496293290227676 0.004703436102635579 0.004975617590997814
          0.004962269610464351 0.004703963736839253 0.004974649112708807 0.00647522596318435 0.006477865733791272 0.006480505504398193
          0.008983033192773465 0.008636849682330597 0.00897955079874352 0.008633109357079376 0.008976068404713572 0.008629369031828154
          0.008605084956381823 0.007998419278805874 0.008602540328797346 0.007995893506107582 0.008599995701212868 0.007993367733409291
          0.006620436795389848 0.006619630324425312 0.006618823853460775 0.009769559625030972 0.009767456945973701 0.00976535426691643
          0.00731988608149201 0.007859053503059802 0.0073199432414140396 0.007854563493550857 0.007320000401336068 0.007850073484041912
          0.0047088898693480805 0.004613955852794593 0.004708565231970358 0.004614375210118599 0.004708240594592637 0.004614794567442605
          0.004783342221498907 0.004923512738098389 0.004784482325775519 0.004924567220206489 0.004785622430052131 0.004925621702314589
          0.005106431016700445 0.005604738990915375 0.005342718376352645 0.0051071466385547645 0.005604251168030101 0.005342285956403196
          0.005107862260409084 0.005603763345144825 0.005341853536453747 0.006110328062621852 0.006572431200988283 0.006109095297153237
          0.006570464602324074 0.006107862531684622 0.006568498003659863 0.004891136586993815 0.004985048892674928 0.004889530987983509
          0.004983369061757295 0.004887925388973203 0.00498168923083966 0.005843455274186812 0.0055712135832479606 0.005841834748037207
          0.005569405959016091 0.005840214221887602 0.00556759833478422 0.004895384242646665 0.004894943817988483 0.0048945033933303
          0.005657910543316881 0.005512018366599523 0.005459058104559593 0.005572521820985747 0.005656381225192348 0.005510398415661006
          0.0054570400594113515 0.005570590180111559 0.005654851907067816 0.00550877846472249 0.005455022014263112 0.005568658539237371
          0.005235514047734846 0.005283609624455232 0.005234546125980948 0.005282579615717508 0.005233578204227051 0.005281549606979782
          0.004794458543052858 0.004793913255615795 0.004793367968178735 0.00565897185168476 0.005657970602176 0.0056569693526672404
          0.006835346437784715 0.006833789791878059 0.006832233145971404 0.006599991359878238 0.006602325602258903 0.006604659844639569
          0.00741415535616319 0.007412175736506307 0.007410196116849423 0.0070281998060312805 0.007262882006698137 0.0070263445322364965
          0.007259616475740765 0.007024489258441715 0.007256350944783393 0.007518385655415625 0.007515888542323883 0.0075133914292321415
          0.006708908542586173 0.006710580195225848 0.006712251847865525 0.005158486037791741 0.005156820115824584 0.0051551541938574235
          0.009504758735069783 0.00950317768859811 0.009501596642126438 0.008303944184069772 0.00814428955189854 0.008301641368821175
          0.008141694673596288 0.00829933855357258 0.008139099795294036 0.009607368848519813 0.00960575323110131 0.00960413761368281
          0.007964660505617805 0.007961544758570058 0.007958429011522312 0.0075628169856054245 0.007558948021854468 0.00755507905810351
          0.007291209600758299 0.00729336949516807 0.00729552938957784 0.007338876553405246 0.007340312030842771 0.0073417475082802955
          0.007024173414055657 0.0070251899315986275 0.0070262064491415956 0.0050119365868424234 0.004962975699171859 0.005010877534200039
          0.0049615357060113765 0.005009818481557654 0.004960095712850894 0.005881247799949233 0.005578237000035256 0.005880849067216308
          0.005578341188843802 0.005880450334483383 0.00557844537765235 0.005833194060023624 0.00583261197976778 0.005832029899511935
          0.004675652244363719 0.004676440243758408 0.004677228243153095 0.009291141265914087 0.009289306679041123 0.00928747209216816
          0.005110964437200792 0.005380959542215479 0.0051108362856883876 0.005380166878771062 0.005110708134175984 0.005379374215326645
          0.005427766233690116 0.0055651356443436675 0.005500218104387586 0.0054287445916911 0.0055661078358857806 0.005500104685020035
          0.005429722949692083 0.005567080027427893 0.0054999912656524845 0.005557040276414451 0.005641542941816573 0.005556186577214413
          0.005640797177916867 0.005555332878014375 0.005640051414017162 0.005621616633435002 0.005620505659999667 0.005619394686564333
          0.005693718301633541 0.0056941904752059284 0.005694662648778315 0.005442256399154303 0.005442894283264495 0.005443532167374687
          0.009471514045920924 0.00946927494007407 0.009467035834227217 0.004722611002886374 0.004722216568936436 0.0047218221349864965
          0.004723282317121975 0.00538972231347876 0.004722356123572635 0.005389578965788868 0.004721429930023296 0.005389435618098977
          0.008990359531192404 0.008992045890751891 0.008993732250311378 0.00780203908415422 0.007869622876657628 0.00839165563625627
          0.007800121086814963 0.007867850620242929 0.008390516045146828 0.007798203089475707 0.00786607836382823 0.008389376454037386
          0.0049255522119913695 0.005260502481475327 0.00492686441685259 0.005261558274530608 0.00492817662171381 0.005262614067585889
          0.009216915922328062 0.008947508141819289 0.009216518365654874 0.008948154243269606 0.009216120808981688 0.008948800344719923
          0.005614601288945811 0.0056158221477666794 0.005617043006587548 0.008231784898415095 0.008090831117065518 0.0076763393037775594
          0.008233969625436054 0.008093023105328093 0.0076788530579386515 0.008236154352457017 0.00809521509359067 0.007681366812099745
          0.008852067207761195 0.008854300361056066 0.008856533514350935 0.009409210691958625 0.009511407840762683 0.00940427184207902
          0.009505342756772832 0.009399332992199413 0.009499277672782983 0.008640955447444804 0.008772758279001473 0.00864249806844488
          0.008773020087264376 0.008644040689444953 0.00877328189552728 0.009102692463002686 0.009099808824241336 0.009096925185479984
          0.009087729564156138 0.00908747247014276 0.009087215376129384 0.005311988528700916 0.0053149557979565824 0.005317923067212248
          0.00608325158327302 0.006083193038233627 0.006083134493194233 0.006785919069228586 0.006786612012367202 0.006787304955505819
          0.008523022506592374 0.008524551317549112 0.00852608012850585 0.007490028844901454 0.007679199576418798 0.007490587933637302
          0.007677999188382219 0.0074911470223731486 0.007676798800345642 0.00554604690040349 0.005371605128539052 0.005550494126351115
          0.005376277466437128 0.005554941352298739 0.005380949804335206 0.005218912584940521 0.005221633268436646 0.00522435395193277
          0.004675243275832436 0.004727768439053256 0.004677381552395894 0.0047295558820261195 0.004679519828959354 0.004731343324998983
          0.00907515810466325 0.009074232795698682 0.00907330748673411 0.006888374978232016 0.0074544278624659914 0.006890362736173371
          0.00745505712482558 0.006892350494114725 0.007455686387185167 0.009176707794198435 0.008982256261413846 0.009174315348711236
          0.008980662549925418 0.009171922903224036 0.008979068838436988 0.0048279402836132876 0.00482934306939146 0.004830745855169632
          0.008771959870030759 0.008770769821453998 0.008769579772877236 0.00590439326051774 0.005908163489225274 0.005911933717932808
          0.006360344279916519 0.006363134249934052 0.006365924219951586 0.009491203157591853 0.00948583933377858 0.009480475509965308
          0.009355964351978566 0.009352398751635207 0.009348833151291846
        </DataArray>
        <DataArray type="Float64" Name="pe22" format="ascii" RangeMin="-0.004902202201687604" RangeMax="-0.002270089226984894">
          -0.0033393757295053566 -0.0037029606919854363 -0.00358166018212092 -0.003260316082941259 -0.003340041586963637 -0.003703460325562016
          -0.003582869455702338 -0.003262023752230584 -0.003340707444421917 -0.0037039599591385964 -0.003584078729283757 -0.0032637314215199094
          -0.0028701417710900027 -0.002603508990145635 -0.00264112379550244 -0.002950523754846608 -0.002869897828532783 -0.002602984084831863
          -0.002640801806490529 -0.0029500194700538963 -0.002869653885975563 -0.0026024591795180893 -0.0026404798174786176 -0.002949515185261185
          -0.002337727252192598 -0.0023372735524069045 -0.002336819852621211 -0.0023423591952745617 -0.002341853248303565 -0.002341347301332568
          -0.003406723511674237 -0.003135367314371009 -0.0034081890851726704 -0.0031363036325314543 -0.003409654658671105 -0.003137239950691899
          -0.004612926406288627 -0.004713956729402003 -0.00458312915749542 -0.004551829175806348 -0.004613847917539103 -0.0047145548654273775
          -0.00458283381976823 -0.004552049102680678 -0.00461476942878958 -0.004715153001452751 -0.0045825384820410405 -0.004552269029555006
          -0.003160690609025062 -0.003397094044260076 -0.0035403378658252077 -0.0033311511958373057 -0.003161757768116126 -0.003396517198108338
          -0.003540254985865205 -0.0033320776844513776 -0.00316282492720719 -0.0033959403519566007 -0.0035401721059052024 -0.0033330041730654488
          -0.0027141406326444103 -0.0028721071586496113 -0.002674066586140132 -0.00256073235874203 -0.0027147271392512643 -0.0028731213685664523
          -0.0026761521280546053 -0.002562055254573042 -0.0027153136458581183 -0.0028741355784832937 -0.002678237669969079 -0.0025633781504040554
          -0.004723085079784141 -0.004685948120600434 -0.004565566776422487 -0.004722572698571307 -0.004685299856344786 -0.00456547765708173
          -0.004722060317358472 -0.00468465159208914 -0.004565388537740975 -0.004407077024256783 -0.004597458749767542 -0.004578471724531275
          -0.0043231334099275605 -0.004406959869598723 -0.004598029872997406 -0.004579182278133122 -0.004323606419383648 -0.004406842714940663
          -0.00459860099622727 -0.004579892831734967 -0.004324079428839734 -0.004121839950855401 -0.004122248554467553 -0.004122657158079706
          -0.003936406357847317 -0.0038063551104256126 -0.003937059580401416 -0.0038073415172232513 -0.003937712802955514 -0.0038083279240208913
          -0.003235796351727252 -0.0035140010002610708 -0.003082221900589362 -0.003237262549133314 -0.0035139675547876934 -0.003084024434484301
          -0.003238728746539377 -0.003513934109314317 -0.0030858269683792404 -0.004334005425610612 -0.004247642232910747 -0.004379059428019312
          -0.004478857694128582 -0.004334728508110944 -0.004248720951207684 -0.004379641632553223 -0.004479580655944105 -0.0043354515906112775
          -0.00424979966950462 -0.004380223837087134 -0.004480303617759626 -0.0038048758604033936 -0.003629636575706604 -0.0037190247679909933
          -0.003806669059995382 -0.003630326576979681 -0.0037202429982584563 -0.003808462259587369 -0.003631016578252759 -0.003721461228525919
          -0.0034818912043985055 -0.00338309016038155 -0.003058273041982727 -0.0034826377474849617 -0.0033843486392239647 -0.003061383509829527
          -0.003483384290571418 -0.003385607118066379 -0.0030644939776763268 -0.004022962489473982 -0.003858725430957467 -0.003941704224979489
          -0.0041762394615722145 -0.004024813875217818 -0.003860459939175883 -0.003942635165042147 -0.004176863653643337 -0.004026665260961654
          -0.003862194447394299 -0.003943566105104808 -0.004177487845714458 -0.004432547733371288 -0.004254888872589343 -0.00443387957951926
          -0.004255820520777619 -0.004435211425667231 -0.004256752168965898 -0.004607088608604946 -0.004385476715605103 -0.004382532805180914
          -0.004606930797804791 -0.004386167243449699 -0.004382849828037525 -0.004606772987004636 -0.004386857771294293 -0.004383166850894137
          -0.0041841696547691805 -0.00425207692143417 -0.004455401405084481 -0.004413157662113656 -0.004184714269479779 -0.004253101753315256
          -0.004456317757883906 -0.00441342418269141 -0.004185258884190376 -0.004254126585196343 -0.004457234110683331 -0.004413690703269163
          -0.0025912712295008355 -0.002747803502616415 -0.0025911575378323956 -0.0027477798606993626 -0.002591043846163956 -0.0027477562187823096
          -0.002900987268439467 -0.0031008382622521266 -0.0029032644767453364 -0.0031025922752226857 -0.002905541685051206 -0.0031043462881932445
          -0.002288359197267757 -0.0023326668280609078 -0.0022885069689948597 -0.002332801307430384 -0.0022886547407219623 -0.002332935786799859
          -0.002986086205973883 -0.002814373505624267 -0.0030075166066224402 -0.0032274183767693775 -0.0029863384278170204 -0.0028144608384059033
          -0.0030072740236368523 -0.003227921621667035 -0.002986590649660159 -0.0028145481711875386 -0.0030070314406512636 -0.003228424866564693
          -0.004768630617852697 -0.00460602180097424 -0.004769218961266305 -0.004606600683849094 -0.004769807304679913 -0.004607179566723949
          -0.004785595607587153 -0.0046799439351914605 -0.004786588454795343 -0.004680225689637254 -0.004787581302003535 -0.004680507444083048
          -0.004891804756441279 -0.004809655694366697 -0.004893123907408565 -0.004810928317068663 -0.00489444305837585 -0.004812200939770628
          -0.002955191491619452 -0.002955104482822112 -0.0029550174740247716 -0.0040178871786760995 -0.004018637720741099 -0.004019388262806099
          -0.004425371790496624 -0.004258094528561185 -0.0042118095960863335 -0.004415262302065005 -0.004426429301733455 -0.004259150466185896
          -0.00421263645106122 -0.004415993852071231 -0.004427486812970285 -0.004260206403810607 -0.0042134633060361085 -0.004416725402077458
          -0.004589911922413213 -0.004581359053877959 -0.004667658615165233 -0.004590774657945406 -0.004581986885313605 -0.004668711116029494
          -0.0045916373934776 -0.004582614716749252 -0.004669763616893755 -0.004681653692769443 -0.004574460121840641 -0.004682956081140949
          -0.0045759282232681366 -0.004684258469512454 -0.004577396324695633 -0.004137131524020125 -0.00413773446268648 -0.004138337401352836
          -0.002400870926796131 -0.0025227360148567025 -0.0026116114553507556 -0.0024711137386332813 -0.0024016702101279206 -0.0025231744907736856
          -0.0026122156470438185 -0.002472223167688978 -0.0024024694934597097 -0.002523612966690669 -0.002612819838736881 -0.0024733325967446753
          -0.004619982914969744 -0.004620528697725702 -0.004621074480481661 -0.004157485991484191 -0.004158304541832014 -0.004159123092179838
          -0.004419831091961934 -0.004420857256720095 -0.004421883421478255 -0.0030156267427497467 -0.002849271289053179 -0.0030169231790537847
          -0.0028498114683783906 -0.003018219615357823 -0.0028503516477036022 -0.0038846436455532785 -0.0038627783199211554 -0.003885266391324436
          -0.0038626770331227464 -0.003885889137095594 -0.0038625757463243374 -0.004820923264019078 -0.004710209377287715 -0.0048225797682743985
          -0.004712032938298832 -0.00482423627252972 -0.004713856499309952 -0.004175668570187288 -0.0041079356612464014 -0.004176296315495772
          -0.004108951892610815 -0.004176924060804258 -0.00410996812397523 -0.004478482855692288 -0.004478675217936788 -0.004478867580181288
          -0.004001609882409357 -0.003623994608488444 -0.004002749522525774 -0.003624960402978458 -0.004003889162642192 -0.003625926197468472
          -0.004129101050685135 -0.003972929546033657 -0.004130277640302377 -0.003973923368010049 -0.00413145422991962 -0.003974917189986443
          -0.004819144060223893 -0.004820616585886386 -0.004822089111548878 -0.004791522002217611 -0.00479261841307378 -0.0047937148239299504
          -0.003973946582951359 -0.003918732893382012 -0.0039759908405586014 -0.0039205121276218 -0.003978035098165843 -0.00392229136186159
          -0.0048687800529245975 -0.004870047996259673 -0.004871315939594748 -0.003935971604886504 -0.003935999072289486 -0.00393602653969247
          -0.004899154820362657 -0.0048575048606757576 -0.0049006785110251305 -0.004858460990505983 -0.004902202201687604 -0.004859417120336209
          -0.004585233956080993 -0.004448708601580264 -0.004585868196497242 -0.00444942220667925 -0.004586502436913491 -0.004450135811778235
          -0.0036133975613008456 -0.003801828723529421 -0.00374306951109611 -0.003613901342936871 -0.003803529041725956 -0.003744104315077495
          -0.0036144051245728965 -0.0038052293599224905 -0.00374513911905888 -0.004153422129911528 -0.004026658900025198 -0.004161407424463652
          -0.004322606772173005 -0.004154396839197095 -0.004027268416371814 -0.004162645771946496 -0.004324143175719311 -0.004155371548482662
          -0.004027877932718431 -0.00416388411942934 -0.004325679579265617 -0.002918863452423701 -0.0026695328208726386 -0.0026000414924346694
          -0.0027877031807606646 -0.002918677900594453 -0.002669436350907065 -0.002599238211424035 -0.002787173778036108 -0.002918492348765205
          -0.0026693398809414896 -0.002598434930413401 -0.0027866443753115505 -0.004843819087067448 -0.004844838130240076 -0.004845857173412703
          -0.0038931506248850523 -0.0037694243262293525 -0.003893423895715683 -0.003769744601057381 -0.0038936971665463147 -0.0037700648758854103
          -0.004771819578429717 -0.004704318725583346 -0.004772402197150772 -0.004705301368165924 -0.004772984815871826 -0.004706284010748502
          -0.003570727735537967 -0.0034245122830850547 -0.003570732099308497 -0.0034249800721928856 -0.003570736463079026 -0.0034254478613007164
          -0.0029626401173476714 -0.003143774980077716 -0.002962608152846084 -0.003143718585700945 -0.0029625761883444964 -0.0031436621913241746
          -0.0027601597198239425 -0.0026240501523522226 -0.0027597702795096736 -0.002623383311131939 -0.0027593808391954047 -0.0026227164699116554
          -0.004770626508080318 -0.004772275641587687 -0.004773924775095055 -0.004772681973711402 -0.004773380355948145 -0.004774078738184886
          -0.00306879878594957 -0.0028253748414580893 -0.002777213899463961 -0.003009508322712144 -0.0030684193286879173 -0.0028251444603081682
          -0.002777221660293738 -0.0030090641210364375 -0.003068039871426264 -0.0028249140791582468 -0.0027772294211235145 -0.00300861991936073
          -0.004799329375012679 -0.0048362144802665905 -0.004800263674706867 -0.0048371006338352885 -0.004801197974401055 -0.0048379867874039865
          -0.0022706121528099543 -0.0022735371609245276 -0.002316901979983708 -0.002298323481169519 -0.0022703506898974243 -0.0022733894961849306
          -0.0023170877191015992 -0.0022985726535144522 -0.002270089226984894 -0.0022732418314453332 -0.0023172734582194905 -0.0022988218258593856
          -0.002466425211332917 -0.0023391126930795998 -0.002469127031551028 -0.0024656598706610596 -0.002338862413974701 -0.002468718444247584
          -0.0024648945299892027 -0.0023386121348698027 -0.0024683098569441408 -0.003211527890194945 -0.0032120331618712555 -0.0032125384335475677
          -0.004489303122575906 -0.004308424424295841 -0.004490270246476771 -0.004309552819830161 -0.004491237370377637 -0.0043106812153644826
          -0.004262782638449285 -0.003957521997162679 -0.004262983258941173 -0.003957954094655321 -0.004263183879433059 -0.003958386192147965
          -0.003282468963176749 -0.0032820546386104115 -0.0032816403140440735 -0.0048659769095161075 -0.004867754484627424 -0.004869532059738741
          -0.0036464815222864207 -0.003904887929496078 -0.003646613414105856 -0.003904555321993783 -0.003646745305925291 -0.003904222714491488
          -0.002352769284442332 -0.0023129597818700664 -0.002353177304418089 -0.002313551764737517 -0.002353585324393845 -0.002314143747604968
          -0.0024076927171523127 -0.002482257675010838 -0.00240901891899084 -0.0024837719598713014 -0.002410345120829368 -0.002485286244731765
          -0.0025774112887312437 -0.002809529573248656 -0.0027047227820798 -0.002579630906504171 -0.0028123365924511844 -0.002707638861281437
          -0.0025818505242770984 -0.002815143611653713 -0.0027105549404830747 -0.0030380927968549683 -0.0032603794054051616 -0.0030394471715141365
          -0.0032601379666094125 -0.0030408015461733046 -0.0032598965278136634 -0.002431174455995776 -0.0024741681623355913 -0.002431346888774376
          -0.002474064552308811 -0.002431519321552976 -0.002473960942282031 -0.0029256742523568417 -0.002822939224541685 -0.002928550771113333
          -0.0028259714643398518 -0.0029314272898698242 -0.002829003704138019 -0.0024330881401822086 -0.002432579639346443 -0.002432071138510678
          -0.0028350026029122697 -0.002759031523585527 -0.0027367470390876353 -0.002795076740406496 -0.0028366565543853518 -0.0027597239084159886
          -0.0027373129833150236 -0.0027969977623261157 -0.0028383105058584343 -0.0027604162932464505 -0.002737878927542411 -0.0027989187842457353
          -0.0026228441769296615 -0.0026431680378362797 -0.002623296733035044 -0.002643506644632075 -0.0026237492891404268 -0.00264384525142787
          -0.0023833170722370196 -0.0023835986399065637 -0.0023838802075761075 -0.0028588382248820885 -0.0028627140370475375 -0.0028665898492129865
          -0.003377811290490647 -0.003377685976761608 -0.0033775606630325685 -0.0032766159961037395 -0.0032763143745730906 -0.003276012753042442
          -0.003658859760866316 -0.003659462130734004 -0.0036600645006016914 -0.0034677876447127007 -0.0035841845399479976 -0.0034681140191738682
          -0.0035847144021610507 -0.0034684403936350357 -0.003585244264374103 -0.0037036069396122777 -0.003704780608677409 -0.0037059542777425395
          -0.003378389902163488 -0.003378943460659977 -0.003379497019156466 -0.0025497703261474955 -0.002549263352110929 -0.0025487563780743623
          -0.00479327645091956 -0.004793270368429818 -0.0047932642859400765 -0.004096932816366673 -0.004025557380524247 -0.00409813779053009
          -0.004026518258956697 -0.004099342764693507 -0.004027479137389148 -0.004822959827595123 -0.004823197608672692 -0.0048234353897502625
          -0.003945834274153605 -0.003946049342904555 -0.003946264411655505 -0.003718292448755489 -0.0037198171005976967 -0.0037213417524399038
          -0.003635951718969893 -0.003635890708088029 -0.0036358296972061653 -0.003704850316283521 -0.003704928578953271 -0.0037050068416230215
          -0.0035452633404293847 -0.0035453802999069377 -0.0035454972593844903 -0.0025069348230268387 -0.00248559424148273 -0.002506484135435764
          -0.0024850757720517513 -0.002506033447844689 -0.002484557302620773 -0.002938481003137443 -0.0028114754200581076 -0.0029422308974288596
          -0.002815804514491309 -0.002945980791720277 -0.0028201336089245096 -0.0029168820079138362 -0.0029183389435612052 -0.0029197958792085755
          -0.002346907341888169 -0.0023479255879839543 -0.0023489438340797398 -0.004682808039963814 -0.0046837056879158664 -0.004684603335867919
          -0.0025520825949417224 -0.0026869773366161387 -0.002551882453977994 -0.0026872384301905167 -0.0025516823130142655 -0.0026874995237648946
          -0.0027114723825302422 -0.0027756080211789546 -0.0027364686987857018 -0.002715690202246665 -0.0027794124283215473 -0.0027390938822024337
          -0.002719908021963087 -0.0027832168354641404 -0.0027417190656191656 -0.0027732995628930593 -0.002819575313145259 -0.0027762719688313488
          -0.002822238965387889 -0.0027792443747696382 -0.0028249026176305203 -0.0028059227972131355 -0.0028066637775935677 -0.002807404757973999
          -0.002841519854396867 -0.0028454162686695926 -0.0028493126829423183 -0.002733378766597778 -0.002738063720499938 -0.002742748674402098
          -0.004749955946357795 -0.004750644960710752 -0.0047513339750637085 -0.002354454844288055 -0.002354681129452377 -0.0023549074146166984
          -0.0023327081232525156 -0.002659423397173042 -0.0023321106432493684 -0.0026589178604022714 -0.002331513163246221 -0.002658412323631501
          -0.004508212781549267 -0.004507452674434748 -0.004506692567320228 -0.0038645799825988555 -0.003897939837145827 -0.004134667215346631
          -0.003865715266708071 -0.003898488624719829 -0.004134496883549345 -0.0038668505508172874 -0.0038990374122938316 -0.00413432655175206
          -0.0024604383697349936 -0.0026378908881309697 -0.0024604409888025263 -0.002637486165893181 -0.0024604436078700586 -0.0026370814436553914
          -0.004651537476715713 -0.004491480222156766 -0.0046519253612543054 -0.004491534618189203 -0.004652313245792899 -0.004491589014221641
          -0.002831565707981056 -0.00283104410223703 -0.002830522496493004 -0.004119876249901857 -0.004036749163374724 -0.0038562523345263807
          -0.0041205326267582335 -0.004037167595249887 -0.003856707245430701 -0.00412118900361461 -0.00403758602712505 -0.0038571621563350212
          -0.004425650862785826 -0.004425517001811218 -0.004425383140836611 -0.0046621732577446055 -0.004715271043304553 -0.004663664262171818
          -0.004716673686664741 -0.00466515526659903 -0.004718076330024928 -0.004310976631271167 -0.004373598345750516 -0.004312131008374924
          -0.004373747965069137 -0.004313285385478683 -0.004373897584387758 -0.00450186773448598 -0.004502209300398584 -0.004502550866311187
          -0.004596234537313571 -0.0045970830821224825 -0.0045979316269313935 -0.0026702380782751825 -0.002670350453635771 -0.0026704628289963596
          -0.0030054404989685317 -0.0030046629747221987 -0.003003885450475866 -0.0033704603296214847 -0.0033702318934360673 -0.0033700034572506504
          -0.004247458751160796 -0.004247998651809935 -0.004248538552459073 -0.003728357624481364 -0.003809137060456239 -0.003729187951822379
          -0.0038106853022552125 -0.0037300182791633945 -0.0038122335440541858 -0.0027999502568183485 -0.0027122271425294047 -0.0028001693931993766
          -0.0027123578344253447 -0.0028003885295804056 -0.0027124885263212837 -0.002625812349987621 -0.002625695784120245 -0.0026255792182528683
          -0.0023423969385987274 -0.002367915073560991 -0.002343303391409227 -0.0023686529614799405 -0.0023442098442197257 -0.0023693908493988896
          -0.004600655343123126 -0.004601485098366836 -0.004602314853610547 -0.0034538852673104223 -0.003715122234583449 -0.003454812916877168
          -0.0037150756363077404 -0.003455740566443914 -0.0037150290380320323 -0.004619502361671879 -0.004560460023554733 -0.004620077688559512
          -0.004560731916442112 -0.004620653015447144 -0.00456100380932949 -0.002415171506534544 -0.002415539522737582 -0.00241590753894062
          -0.004316261683127448 -0.004315806503963536 -0.004315351324799626 -0.0029708815551137474 -0.002971776537546017 -0.0029726715199782866
          -0.003190002211214463 -0.0031915641493296936 -0.003193126087444924 -0.004725610641332248 -0.004726804804813726 -0.004727998968295207
          -0.004678166033782177 -0.004679287333140082 -0.0046804086324979885
        </DataArray>
        <DataArray type="Float64" Name="pe33" format="ascii" RangeMin="-0.0049724657258826" RangeMax="-0.0022632213213872113">
          -0.0033654151099001056 -0.00376070438663863 -0.003591870644205063 -0.003249016860835341 -0.0033624922590135865 -0.0037540541743620033
          -0.00358871828515899 -0.003248706747282081 -0.0033595694081270675 -0.0037474039620853765 -0.003585565926112918 -0.0032483966337288205
          -0.002940799599905751 -0.0026732704063594757 -0.0027148210433272403 -0.003026693720740192 -0.002940676308844615 -0.0026721621871312893
          -0.0027142018819002623 -0.0030267049568223248 -0.0029405530177834794 -0.0026710539679031028 -0.002713582720473284 -0.0030267161929044576
          -0.0023946394809015847 -0.0023950560618041577 -0.002395472642706731 -0.002385845047184718 -0.0023867235961240146 -0.002387602145063311
          -0.003396833817616443 -0.0030929711906146603 -0.0033966715932936577 -0.0030943246353469485 -0.003396509368970872 -0.003095678080079237
          -0.0046374932269589745 -0.004750027734266508 -0.0046104992119535915 -0.0045751803999827005 -0.0046334838942977 -0.004746282196402208
          -0.004606638786386926 -0.004571133059438936 -0.004629474561636425 -0.0047425366585379086 -0.004602778360820261 -0.004567085718895172
          -0.003205779314400808 -0.0034456519584677428 -0.0035507208580536505 -0.003327274222755079 -0.003202745540857149 -0.003443474062361808
          -0.0035490314367204955 -0.003324898043722231 -0.0031997117673134906 -0.0034412961662558736 -0.003547342015387341 -0.003322521864689382
          -0.002746395095721915 -0.0029145667969300033 -0.002666861200301143 -0.002549709696433433 -0.0027467966656380687 -0.0029130556559664625
          -0.002665186537382497 -0.00254943406689014 -0.0027471982355542226 -0.0029115445150029212 -0.002663511874463851 -0.0025491584373468464
          -0.004673784851796525 -0.004607320783843387 -0.004542182675053013 -0.0046726792385689345 -0.004606852056860062 -0.004543025809844556
          -0.004671573625341345 -0.004606383329876736 -0.0045438689446361 -0.0045574219880063545 -0.00476785199369647 -0.0047600823560350865
          -0.004483459521588145 -0.00455542950380527 -0.0047640715648765266 -0.004755360412356173 -0.004480666911209158 -0.004553437019604188
          -0.004760291136056583 -0.00475063846867726 -0.004477874300830171 -0.004239902291919458 -0.004238011788701698 -0.004236121285483939
          -0.00395143779832913 -0.003796384506340757 -0.003945182110700611 -0.0037927150366461413 -0.003938926423072094 -0.0037890455669515252
          -0.0032605787074468707 -0.003551179363635602 -0.0031127542098313248 -0.0032568936085789688 -0.0035468835741745133 -0.003110109087880793
          -0.0032532085097110672 -0.0035425877847134247 -0.0031074639659302615 -0.004348769686613161 -0.004279405449121174 -0.0043881632955017555
          -0.004472702412559294 -0.004344351935913282 -0.004276194612885835 -0.004385926683925432 -0.004469380229697784 -0.004339934185213404
          -0.004272983776650496 -0.00438369007234911 -0.004466058046836275 -0.0038469505112774163 -0.003617113311400337 -0.003786158501812681
          -0.0038447864273488076 -0.003615432283787747 -0.003782587154041589 -0.003842622343420199 -0.0036137512561751567 -0.0037790158062704967
          -0.0034362844697653793 -0.003371911214713965 -0.003046616776190836 -0.0034341731950660085 -0.0033684354418760387 -0.0030422902097376795
          -0.003432061920366637 -0.003364959669038113 -0.003037963643284522 -0.004093871955914288 -0.003966405313006903 -0.004046560995094766
          -0.004239270092524691 -0.004091048974979007 -0.003961529319537027 -0.004042560536092221 -0.004236522596376614 -0.004088225994043727
          -0.003956653326067152 -0.004038560077089675 -0.004233775100228538 -0.004605119511382679 -0.00440563958864227 -0.004600307065221808
          -0.004400780267072684 -0.004595494619060938 -0.004395920945503099 -0.004633642033394843 -0.004375352031389068 -0.004371441281055483
          -0.004630735386826323 -0.0043756290790502835 -0.004370642292258247 -0.004627828740257802 -0.004375906126711499 -0.004369843303461011
          -0.0041583112209708775 -0.004256934399029147 -0.004466235633861195 -0.004411793894095073 -0.004157025564461055 -0.004252924858354964
          -0.0044620224806527975 -0.004408978462390739 -0.0041557399079512345 -0.0042489153176807825 -0.004457809327444399 -0.004406163030686407
          -0.0025962656427914554 -0.0027452272774496234 -0.0025968738977862208 -0.0027450916935777667 -0.0025974821527809866 -0.0027449561097059095
          -0.0029164991503928934 -0.003113525196399698 -0.002914274479589996 -0.0031122010550735314 -0.0029120498087870992 -0.003110876913747365
          -0.0022847942296517227 -0.0023473017367445096 -0.0022859356367370565 -0.002348283810272024 -0.00228707704382239 -0.0023492658837995384
          -0.0029456618883587256 -0.002759378924664867 -0.002946056329389767 -0.0031954161808530526 -0.00294899315549215 -0.0027631687218715117
          -0.002948204548657134 -0.003196952967430643 -0.0029523244226255753 -0.0027669585190781562 -0.0029503527679245 -0.0031984897540082327
          -0.004763603789371986 -0.004605894324828752 -0.004761283079400763 -0.004604639777813424 -0.004758962369429539 -0.004603385230798097
          -0.004905663780720199 -0.004784692024668203 -0.004899993773278349 -0.004780212708261402 -0.004894323765836499 -0.004775733391854599
          -0.0049724657258826 -0.004897074658726191 -0.004966736048876957 -0.004890631893921771 -0.004961006371871314 -0.00488418912911735
          -0.002915879678000759 -0.0029164239814476007 -0.002916968284894443 -0.00396862294328591 -0.003969397919230717 -0.003970172895175523
          -0.004433017725027895 -0.004256667995896209 -0.004182708155816365 -0.004411405318191992 -0.004432467292176526 -0.004256653380489322
          -0.004182586425119846 -0.004411113965024008 -0.004431916859325156 -0.004256638765082436 -0.004182464694423328 -0.004410822611856023
          -0.004590508065946781 -0.004581393618004012 -0.004696841631150008 -0.0045865044151019675 -0.004578565199393637 -0.004693801758083191
          -0.004582500764257153 -0.004575736780783262 -0.0046907618850163734 -0.004874621224140616 -0.004755329318126354 -0.004866999320930398
          -0.004749341787005482 -0.00485937741772018 -0.004743354255884612 -0.004086528212149265 -0.004088059942395881 -0.004089591672642496
          -0.002397319319214732 -0.0025373468083672713 -0.0026162783990752486 -0.0024557716551783437 -0.0023972721441299976 -0.0025374989149811824
          -0.0026181047726831766 -0.0024563268607420948 -0.0023972249690452628 -0.0025376510215950935 -0.002619931146291105 -0.002456882066305846
          -0.004635705886103105 -0.0046337126768021385 -0.004631719467501172 -0.0041071259009415415 -0.004108480872185543 -0.004109835843429544
          -0.0044260851297720965 -0.004427044706159955 -0.0044280042825478125 -0.003011878325122393 -0.002863129326787313 -0.0030111993419669643
          -0.002861774909971729 -0.003010520358811536 -0.0028604204931561455 -0.0038311304566020577 -0.003788331651932781 -0.0038305879814166397
          -0.003789668771199997 -0.0038300455062312217 -0.003791005890467212 -0.004935673758037495 -0.00482488843806292 -0.00492886726727766
          -0.0048197108181883665 -0.004922060776517825 -0.004814533198313813 -0.00418919047984104 -0.004109001397342591 -0.0041831118336421134
          -0.004103734803746124 -0.004177033187443188 -0.0040984682101496556 -0.004511955878540365 -0.004509920638990196 -0.0045078853994400285
          -0.00397452274273067 -0.0035897009877478713 -0.003970953515972259 -0.0035884054343089593 -0.003967384289213847 -0.003587109880870047
          -0.00418398982777545 -0.0040392795418006415 -0.004178012631641476 -0.004030908850724613 -0.0041720354355075035 -0.004022538159648585
          -0.004899545302477626 -0.004893631937777947 -0.004887718573078267 -0.0048168974574866845 -0.004813776602143134 -0.004810655746799582
          -0.004060794435358204 -0.0040223949103747065 -0.004056062055879904 -0.004014359949395029 -0.004051329676401604 -0.004006324988415352
          -0.004925647069488098 -0.004921896843682072 -0.004918146617876046 -0.0038577314504066812 -0.0038586545001591853 -0.0038595775499116886
          -0.004949756373923057 -0.004877010270120373 -0.004945177341754077 -0.004874161778411033 -0.0049405983095850954 -0.004871313286701693
          -0.004662725100797386 -0.004575619277029656 -0.00465984712138206 -0.004571859925367277 -0.004656969141966733 -0.004568100573704898
          -0.0036250148585064835 -0.003861264226834223 -0.0038347335883850125 -0.003621868272164645 -0.003857701020379858 -0.003828018342723507
          -0.0036187216858228066 -0.003854137813925494 -0.003821303097062003 -0.004243617441871704 -0.004108920781380773 -0.004295957652637594
          -0.004458317872328418 -0.004238494054104326 -0.004102189525186492 -0.0042889857068611195 -0.004452633903410389 -0.004233370666336948
          -0.004095458268992213 -0.004282013761084646 -0.0044469499344923615 -0.0029179444610335334 -0.002682592968289933 -0.0026200309902177383
          -0.00279828904749657 -0.0029201307749004432 -0.002683058318903634 -0.0026197654535974144 -0.0027990795652984095 -0.002922317088767352
          -0.0026835236695173332 -0.0026194999169770906 -0.0027998700831002496 -0.004959326050587189 -0.0049527327449744455 -0.004946139439361702
          -0.0039673213168257065 -0.0038219005147307897 -0.003963228557944924 -0.003817759389229155 -0.003959135799064141 -0.003813618263727521
          -0.00470501277576159 -0.004621706217728109 -0.0047031107868353746 -0.004619234094318592 -0.00470120879790916 -0.004616761970909074
          -0.003658813614650481 -0.003487152628494572 -0.003656016294935966 -0.0034863613435263947 -0.0036532189752214506 -0.003485570058558217
          -0.002997430935022681 -0.0031754497004536685 -0.0029994133817804274 -0.0031772945432309166 -0.0030013958285381734 -0.003179139386008164
          -0.002814240805306562 -0.0026615292088943455 -0.0028138796493413143 -0.002660907871581428 -0.002813518493376066 -0.0026602865342685105
          -0.004810570056834501 -0.004807233285925889 -0.004803896515017276 -0.004806569811065835 -0.0048031760086407384 -0.004799782206215644
          -0.003124614897483408 -0.0028783667732072056 -0.0028005193474399813 -0.0030405261949530086 -0.0031242695663168583 -0.0028796428714850807
          -0.0028028691449437934 -0.0030422336954633155 -0.0031239242351503082 -0.002880918969762956 -0.0028052189424476056 -0.0030439411959736224
          -0.004826230790476591 -0.004834343361172573 -0.004822226912613719 -0.0048321592363153145 -0.004818223034750845 -0.004829975111458056
          -0.0022632213213872113 -0.0022646645179943362 -0.002311995369094931 -0.002285300388678477 -0.0022632700625041134 -0.0022651443948275393
          -0.002311827007875885 -0.0022852619566718136 -0.0022633188036210164 -0.0022656242716607424 -0.002311658646656839 -0.00228522352466515
          -0.0024971709827562513 -0.002363795775352304 -0.002507459037735792 -0.002497273031615699 -0.0023645736886608766 -0.002506899146750229
          -0.002497375080475147 -0.0023653516019694495 -0.002506339255764666 -0.0032636980729894042 -0.0032658325719200146 -0.0032679670708506254
          -0.004493730070197559 -0.004328425258034757 -0.004489280552266746 -0.004323556537249214 -0.004484831034335934 -0.004318687816463671
          -0.0043423023179325355 -0.004040897281643195 -0.004339557069856173 -0.004037939411452261 -0.00433681182177981 -0.0040349815412613265
          -0.0033379678322130973 -0.0033375756858148994 -0.003337183539416702 -0.004903582715514863 -0.004899702461346276 -0.004895822207177688
          -0.003673404559205588 -0.003954165573563723 -0.0036733298273081824 -0.003950008171557073 -0.0036732550954107776 -0.003945850769550423
          -0.002356120584905747 -0.002300996070924526 -0.0023553879275522694 -0.0023008234453810814 -0.002354655270198791 -0.0023006508198376375
          -0.0023756495043465954 -0.002441255063087551 -0.0023754634067846784 -0.0024407952603351874 -0.002375277309222762 -0.0024403354575828237
          -0.002529019727969201 -0.0027952094176667192 -0.002637995594272846 -0.0025275157320505935 -0.002791914575578916 -0.002634647095121759
          -0.002526011736131986 -0.0027886197334911125 -0.0026312985959706723 -0.0030722352657668837 -0.0033120517955831214 -0.0030696481256390997
          -0.0033103266357146608 -0.003067060985511316 -0.0033086014758461997 -0.0024599621309980384 -0.0025108807303393372 -0.002458184099209133
          -0.002509304509448483 -0.0024564060674202273 -0.002507728288557628 -0.0029177810218299705 -0.002748274358706276 -0.002913283976923873
          -0.002743434494676239 -0.0029087869320177763 -0.0027385946306462015 -0.002462296102464457 -0.00246236417864204 -0.0024624322548196225
          -0.0028229079404046087 -0.0027529868430139952 -0.002722311065471956 -0.002777445080579248 -0.0028197246708069946 -0.002750674507245017
          -0.0027197270760963284 -0.0027735924177854417 -0.002816541401209381 -0.0027483621714760394 -0.0027171430867207005 -0.0027697397549916354
          -0.002612669870805184 -0.0026404415866189516 -0.002611249392945904 -0.0026390729710854322 -0.0026098289150866243 -0.002637704355551913
          -0.0024111414708158376 -0.002410314615709232 -0.002409487760602626 -0.0028001336268026703 -0.002795256565128462 -0.002790379503454254
          -0.0034575351472940674 -0.0034561038151164516 -0.0034546724829388354 -0.003323375363774499 -0.0033260112276858127 -0.0033286470915971263
          -0.0037552955952968744 -0.0037527136057723025 -0.003750131616247732 -0.003560412161318579 -0.0036786974667501384 -0.0035582305130626283
          -0.003674902073579714 -0.0035560488648066777 -0.0036711066804092883 -0.0038147787158033476 -0.003811107933646474 -0.0038074371514896007
          -0.0033305186404226847 -0.0033316367345658715 -0.0033327548287090574 -0.002608715711644246 -0.0026075567637136535 -0.002606397815783062
          -0.004711482284150221 -0.004709907320168291 -0.004708332356186361 -0.004207011367703097 -0.004118732171374292 -0.004203503578291085
          -0.00411517641463959 -0.004199995788879073 -0.004111620657904887 -0.004784409020924689 -0.004782555622428617 -0.004780702223932546
          -0.0040188262314642 -0.004015495415665503 -0.004012164599866807 -0.0038445245368499345 -0.00383913092125677 -0.0038337373056636054
          -0.0036552578817884073 -0.0036574787870800414 -0.0036596996923716754 -0.003634026237121727 -0.0036353834518895 -0.003636740666657274
          -0.003478910073626273 -0.0034798096316916885 -0.0034807091897571044 -0.0025050017638155843 -0.0024773814576891286 -0.0025043933987642752
          -0.0024764599339596243 -0.0025037850337129657 -0.00247553841023012 -0.002942766796811788 -0.002766761579977148 -0.0029386181697874467
          -0.0027625366743524934 -0.0029344695427631056 -0.0027583117687278395 -0.0029163120521097877 -0.002914273036206573 -0.0029122340203033585
          -0.0023287449024755507 -0.0023285146557744524 -0.002328284409073354 -0.00460833322595027 -0.004605600991125255 -0.004602868756300241
          -0.002558881842259069 -0.0026939822055993407 -0.0025589538317103942 -0.002692928448580546 -0.002559025821161719 -0.0026918746915617505
          -0.0027162938511598746 -0.002789527623164714 -0.002763749405601885 -0.002713054389444436 -0.002786695407564233 -0.002761010802817601
          -0.0027098149277289965 -0.002783863191963752 -0.0027582722000333176 -0.002783740713521391 -0.0028219676286713132 -0.002779914608383063
          -0.002818558212528977 -0.002776088503244736 -0.0028151487963866406 -0.0028156938362218654 -0.0028138418824060992 -0.002811989928590333
          -0.0028521984472366733 -0.002848774206536335 -0.0028453499658359967 -0.002708877632556524 -0.0027048305627645564 -0.002700783492972589
          -0.004721558099563127 -0.004718629979363316 -0.004715701859163508 -0.002368156158598319 -0.002367535439484058 -0.0023669147203697967
          -0.0023905741938694603 -0.0027302989163057187 -0.0023902454803232673 -0.0027306611053865976 -0.0023899167667770747 -0.0027310232944674764
          -0.004482146749643136 -0.004484593216317143 -0.004487039682991151 -0.003937459101555364 -0.0039716830395118 -0.004256988420909638
          -0.003934405820106892 -0.0039693619955231 -0.004256019161597482 -0.003931352538658421 -0.003967040951534399 -0.004255049902285326
          -0.002465113842256375 -0.0026226115933443567 -0.0024664234280500625 -0.0026240721086374266 -0.00246773301384375 -0.002625532623930497
          -0.0045653784456123475 -0.004456027919662521 -0.004564593004400567 -0.004456619625080401 -0.004563807563188788 -0.0044572113304982815
          -0.0027830355809647543 -0.002784778045529649 -0.0027865205100945437 -0.004111908648513237 -0.004054081953690793 -0.003820086969251179
          -0.004113436998677822 -0.004055855510078205 -0.0038221458125079514 -0.004114965348842406 -0.004057629066465618 -0.003824204655764724
          -0.0044264163449753684 -0.004428783359244848 -0.004431150373514325 -0.004747037434214017 -0.004796136797458128 -0.004740607579907199
          -0.00478866907010809 -0.004734177725600379 -0.0047812013427580525 -0.004329978816173637 -0.004399159933250957 -0.004330367060069953
          -0.004399272122195239 -0.004330755303966269 -0.004399384311139522 -0.0046008247285167034 -0.0045975995238427495 -0.004594374319168796
          -0.0044914950268425645 -0.0044903893880202765 -0.0044892837491979885 -0.0026417504504257323 -0.00264460534432081 -0.0026474602382158883
          -0.003077811084304487 -0.0030785300635114273 -0.003079249042718368 -0.003415458739607101 -0.003416380118931134 -0.0034173014982551674
          -0.004275563755431577 -0.004276552665739175 -0.004277541576046772 -0.00376167122042009 -0.0038700625159625583 -0.0037613999818149222
          -0.0038673138861270067 -0.003761128743209755 -0.003864565256291455 -0.002746096643585142 -0.0026593779860096447 -0.0027503247331517374
          -0.002663919632011784 -0.002754552822718333 -0.0026684612780139227 -0.0025931002349529 -0.0025959374843164 -0.002598774733679901
          -0.002332846337233707 -0.0023598533654922635 -0.0023340781609866674 -0.002360902920546179 -0.002335309984739628 -0.0023619524756000937
          -0.004474502761540123 -0.0044727476973318425 -0.004470992633123561 -0.003434489710921595 -0.003739305627882543 -0.0034355498192962025
          -0.0037399814885178385 -0.0034366099276708093 -0.003740657349153134 -0.004557205432526553 -0.004421796237859111 -0.004554237660151722
          -0.004419930633483304 -0.004551269887776892 -0.004418065029107498 -0.0024127687770787425 -0.002413803546653877 -0.0024148383162290116
          -0.004455698186903311 -0.004454963317490459 -0.00445422844807761 -0.0029335117054039932 -0.002936386951679257 -0.002939262197954521
          -0.003170342068702056 -0.003171570100604359 -0.0031727981325066616 -0.004765592516259604 -0.004759034528964853 -0.004752476541670101
          -0.004677798318196386 -0.004673111418495122 -0.004668424518793858
        </DataArray>
        <DataArray type="Float64" Name="disp_x" format="ascii" RangeMin="0.00005921285936256456" RangeMax="0.0001412404168360098">
          0.00011567090553077758 0.00011494652114981874 0.00011954357378298066 0.00012117655093324228 0.00011566595622723163 0.00011494077746726752
          0.00011953459469448413 0.00012117043659763896 0.00011565200360665611 0.0001149228719219678 0.00011950496099208757 0.00012115128198163867
          0.00006898337764912517 0.00006544471432294631 0.00006388003101875169 0.00006737247374322975 0.00006898868729031967 0.00006545103391754063
          0.00006388752465515113 0.00006737830267495182 0.00006900468129483765 0.00006547099700461848 0.0000639104114925307 0.0000673969454148081
          0.000060918503405040135 0.0000609260885653746 0.000060949151542214225 0.00006260676543889231 0.00006261407964505831 0.00006263559458864479
          0.0001241430243283948 0.000125655941187618 0.0001241349796521418 0.0001256513567194177 0.00012410960477465637 0.00012564058988120882
          0.00010982514865018033 0.00010812692101679915 0.00011348029589992154 0.00011366896385704847 0.0001098221864268379 0.00010812379664952432
          0.0001134749686454267 0.00011366428335391776 0.00010981332660665731 0.00010811596120531715 0.00011346021924561944 0.00011364974908907107
          0.00009705993416049961 0.00009605281414447252 0.0000995477911434565 0.0001006505541501025 0.00009706145467665891 0.00009605493548295636
          0.00009954917623498417 0.00010065176503505708 0.0000970676511608857 0.0000960620622897617 0.00009955311849323348 0.00010065375929226663
          0.00008652033716113784 0.00008974470291342861 0.00009097282661060329 0.00008770288790394122 0.00008652390285139575 0.00008974813675096394
          0.0000909751895248026 0.00008770483621037683 0.00008653632800938678 0.00008975733628269445 0.0000909831846269281 0.00008771171929987739
          0.00010541823077822326 0.00010372127207079083 0.00011149388351698564 0.00010541499165583098 0.00010371781049976323 0.00011149018172028033
          0.00010540665951246278 0.00010371089789072777 0.0001114803610265707 0.00008087107339487045 0.00008562909080233636 0.0000874511083755616
          0.00008138105566220244 0.00008087691178311127 0.00008563400729563048 0.00008745523485912121 0.00008138682466111622 0.00008089586528251373
          0.00008564691110298548 0.00008747187750681839 0.00008140106804065302 0.00007549083960707204 0.00007549766953292151 0.00007551835929004236
          0.00011752131270954339 0.00012210450147932133 0.00011751487182580035 0.00012209608602414812 0.00011749612901998416 0.00012207110472613265
          0.00010879320910852859 0.0001102886824060057 0.00011270816847062373 0.00010879222509773994 0.00011028705144906435 0.00011270649921938615
          0.0001087867838543814 0.00011028151274758079 0.00011270227338530075 0.0001110792139155132 0.00010682005296271564 0.00010293673584185761
          0.00010755300833310415 0.00011107717868300959 0.00010682016037770233 0.00010293651883612888 0.00010755176238731093 0.00011107158707757748
          0.00010682134273454468 0.0001029364223998569 0.00010754920438917061 0.00010273618709847219 0.00010287100318599469 0.00009879263500844032
          0.00010273698745333519 0.00010287208080325832 0.00009879392608829637 0.00010273894037116892 0.00010287568792735621 0.00009879689629662631
          0.00010287069777599211 0.00010518710588821694 0.00010248805999303512 0.00010287183696603456 0.00010518706076907636 0.0001024880523728992
          0.0001028746756519991 0.00010518813406358319 0.00010248868872730701 0.00010253133708132643 0.00009740787139843869 0.0000943822708464205
          0.0000982507744304283 0.00010253217604231282 0.0000974095766496313 0.00009438463367955312 0.0000982516534047341 0.0001025334350683289
          0.00009741283225311691 0.00009439297459011712 0.00009825391061847689 0.00008688825841561891 0.00008184822653029885 0.00008689250055134538
          0.00008185406770716886 0.00008690407453700864 0.00008186989997981479 0.00011317733484143894 0.0001188145060041931 0.00011861183466057143
          0.00011317215827246665 0.00011880801561189175 0.0001186036214177791 0.00011315631616105728 0.00011878878222502964 0.0001185770630538245
          0.00012210782046423801 0.00011899032752248777 0.00011468377909203883 0.00011720274280672502 0.00012210033725654258 0.00011898489969772252
          0.00011467962286648021 0.00011719774737895832 0.0001220788846954452 0.00011896926323398351 0.00011466634969126705 0.0001171835257260976
          0.00013288008738639103 0.00012966529735835547 0.00013287644511941112 0.00012966162348330588 0.0001328670124112219 0.00012965059533177404
          0.00011674070597196562 0.00011850709335327218 0.0001167401398072838 0.0001185035193510851 0.0001167382508295058 0.00011849214223175388
          0.00007241562133583905 0.00007229652621868804 0.00007241836401932195 0.00007230001027135115 0.0000724248292739405 0.00007230989169334166
          0.0001330042042488933 0.0001338095682121628 0.00013006384290499277 0.00012869644173845284 0.00013299723389163017 0.00013380469854238185
          0.00013005912690517056 0.00012868883963947737 0.0001329759089376857 0.00013378969892586864 0.0001300449732286577 0.000128665662221411
          0.00010596567894758491 0.00011210524426508175 0.00010596305756342442 0.00011210172485808626 0.00010595526415184551 0.00011209159731179426
          0.0000883241025449456 0.00008382812160909127 0.0000883277538744796 0.00008383371283992476 0.0000883387497553019 0.00008384935146777646
          0.00009170738572696633 0.00008626726162164008 0.00009170812118683042 0.00008626972210977098 0.00009170912172375022 0.00008627849759089373
          0.00012754711929344558 0.00012754434413059438 0.00012753531855914252 0.00012990294371106873 0.00012989876592915821 0.00012988614979045308
          0.00011799848823511335 0.00012381055706233666 0.00012426900880514128 0.00011852324395212009 0.00011799491072403301 0.00012380641283279143
          0.0001242660226755728 0.00011851939019875472 0.00011798294665988656 0.00012379398645252258 0.00012425419651812428 0.00011850706988959933
          0.00010862518149868582 0.00010493998636647638 0.00010349018896683597 0.00010862352175690936 0.00010493955974169103 0.00010348916544459544
          0.00010861835408190768 0.0001049374079172264 0.00010348610763602365 0.00009168203350291115 0.00009190386306688314 0.0000916842608126687
          0.00009190596361597561 0.00009169291205116407 0.00009191347678574818 0.00012386878868626163 0.0001238641976127402 0.0001238478472934243
          0.00008160035283979437 0.00008035689336529332 0.00008349177532379322 0.00008464951996509071 0.00008160081665574266 0.00008035825765855213
          0.00008349428949042712 0.00008465117080793686 0.00008160333489660434 0.00008036062730653905 0.00008350269237477837 0.00008465558387728065
          0.00011267625358808994 0.00011267294435133265 0.00011265959362468465 0.00012442139673676778 0.00012441802946547268 0.00012440550234265593
          0.00011769356243142329 0.00011769122941022962 0.0001176839681246721 0.00012294501469198717 0.00012607774470117472 0.00012294239799774627
          0.00012607477078624052 0.0001229346161128166 0.00012606542175672893 0.0001269309980437533 0.0001289196643173285 0.00012692386179511845
          0.0001289152720835415 0.00012690017147844754 0.00012890225673039662 0.00009535625180478468 0.00009689917790890181 0.00009535605692332476
          0.00009689957354385207 0.00009535098241039628 0.00009689767876952858 0.00011459946492509775 0.00011901299321709088 0.00011459647866556726
          0.00011900742348243854 0.00011458552983214482 0.00011899204558595491 0.00009987929661832618 0.00009987976065933844 0.00009988061101480887
          0.00012339769075201478 0.00012682358339870318 0.00012339126441631354 0.00012681499999866045 0.00012337217171393735 0.00012678600940868197
          0.00011052760801758074 0.00011334831778606248 0.00011052717757005327 0.0001133456056407851 0.00011052480152947041 0.00011333598331231876
          0.00008790671746923845 0.00008790745767700659 0.0000879091523364031 0.00010644088485142744 0.0001064380054959061 0.00010642886718668153
          0.00010780427467708063 0.00011062274642645558 0.0001078051185489958 0.00011062240911517505 0.00010780835973963112 0.00011062034384166828
          0.00009355221909034203 0.0000935520387470959 0.00009354888812811389 0.00012974641313776144 0.00012974173226376094 0.00012972768354795622
          0.00009847420403103337 0.00009970455963435491 0.00009847304300113482 0.00009970385655524561 0.00009846729452375414 0.00009969917787389047
          0.0000980207840105122 0.00009246963341355941 0.00009802150991754852 0.00009247095135008462 0.00009802085227908155 0.00009247440411900105
          0.00010634927646770835 0.00010679432407334502 0.00011073540776240105 0.00010634995984975161 0.00010679539450238758 0.00011073478923444834
          0.00010635011992779049 0.00010679851357407886 0.00011073250381702005 0.00008633941221083491 0.00008162082835800659 0.00008203272739431929
          0.00008693937167257712 0.00008634308529489475 0.00008162708167755188 0.00008203977935149915 0.00008694265874117097 0.00008635351496317312
          0.00008164514272537943 0.00008205877718725951 0.00008695233998460465 0.0000784194036236398 0.00007815463825530456 0.00007360492221946992
          0.00007413440432041185 0.00007842348985384098 0.00007815694119414315 0.00007360828474735566 0.00007413791184445754 0.00007843499256923869
          0.00007816372738109014 0.00007361946866492729 0.00007414935921845928 0.00009246416667182975 0.00009246656724133843 0.00009247159023575785
          0.00008489671774329272 0.00008036673450914683 0.00008490155755070235 0.00008037447177307732 0.00008491470215882289 0.0000803967779658169
          0.00009543804393273148 0.00009351643130594688 0.00009543610376748892 0.00009351509642167831 0.00009543230835235552 0.00009351277320140639
          0.00008364360669377538 0.00007912611807577592 0.00008364946773870653 0.00007913376955318096 0.00008366582723595482 0.00007915778984220886
          0.00007420642782518602 0.000078616221603274 0.00007421149732149446 0.00007862288841668936 0.00007422535876040303 0.00007864242245610041
          0.00007010431497945729 0.0000703766162208815 0.00007010931510663886 0.00007038136762673511 0.00007012295604597187 0.00007039510204150435
          0.00010237942699512509 0.00010237839469159674 0.00010237309110241059 0.00010712718570348774 0.00010712545525133403 0.00010711894405941735
          0.00008745512231136032 0.0000854881996007599 0.00008273065327430042 0.00008269955467948567 0.0000874596766324803 0.00008549250806467182
          0.00008273434946059586 0.00008270476449087622 0.00008747353554999986 0.00008550596391059997 0.00008274455480375835 0.00008272026623183185
          0.00008891814473039044 0.00009435908777912445 0.00008891762374019153 0.00009435807573137327 0.00008891738525462103 0.00009435528737298664
          0.00007366289520351376 0.00007303330650229494 0.00007593412625582899 0.00007666609415296181 0.00007366291365144768 0.00007303406821161525
          0.00007593484671858978 0.00007666613201058261 0.00007366273896779172 0.00007303673471116831 0.00007593797862328141 0.00007666493432424408
          0.00006998478289652792 0.00006682876620474018 0.00006717876265746993 0.00006998993106024298 0.00006683389877888731 0.00006718474256291797
          0.00007000376525931937 0.00006684977669552864 0.0000672014283857609 0.00007383716912552742 0.00007384428417651238 0.00007386432909367304
          0.00011145744742205778 0.00011526005179143515 0.00011145552527757618 0.00011525713385722025 0.0001114475737351991 0.00011524531507355419
          0.00009320328499454335 0.00008986884247938727 0.00009320576231143444 0.00008987282754121803 0.00009321180839965914 0.0000898836750821646
          0.00008304780025488664 0.00008305438533793742 0.00008307353094311381 0.00010097992338164577 0.00010097911901236902 0.00010097307413491583
          0.00007683950387463983 0.0000787250497991958 0.00007684872064307301 0.00007873362922375663 0.00007687811618656413 0.00007876067573000053
          0.00007879830414956105 0.00007965664368599365 0.0000787997295052947 0.00007965703598151753 0.00007880247345440503 0.00007965667592645883
          0.00008566871082354179 0.00008874301119826672 0.00008566982157724938 0.00008874457701395975 0.0000856722669252368 0.00008874747426196886
          0.00009187166380195301 0.00009433269418503971 0.00009507913567470247 0.00009187387932917095 0.00009433533827608506 0.00009508117686925311
          0.00009187801095455468 0.00009434353945426713 0.00009508634344596041 0.00009329214098341877 0.00009221268156366022 0.00009329556189719271
          0.00009221662911807663 0.00009330419015548738 0.00009222694809176519 0.00007753073586715559 0.00007561639047446365 0.00007753274626116521
          0.00007561954980335734 0.00007753731467027199 0.0000756284676900173 0.00009802633458220936 0.00009840090938184514 0.00009802864401883969
          0.00009840195803694706 0.00009803344262983521 0.00009840521598094575 0.00007278833173642884 0.00007279253926011478 0.00007280469549283112
          0.00012179082878769639 0.0001255523668303612 0.00012566123806875666 0.00012216864089370787 0.00012179071856936223 0.00012555000334211772
          0.0001256593140476796 0.0001221682287117833 0.00012178774744357991 0.0001255439575191981 0.00012565321480615017 0.0001221686201302819
          0.00012905442097660284 0.00012900102772946747 0.0001290517122124936 0.00012899887843572584 0.0001290433929738025 0.0001289912332584782
          0.00007439949489044831 0.00007440288096199485 0.00007441383720003049 0.00010178858029158644 0.00010178874498086673 0.00010178716781041222
          0.00008745247612307302 0.00008745763138100102 0.00008747117156783671 0.00007105671255964722 0.00007106356650863768 0.0000710802898274009
          0.00008815685831805692 0.00008816186815576573 0.00008817452496354667 0.00009160294196535512 0.00009524684491927478 0.00009160735010064097
          0.00009524989204654023 0.00009161977367342672 0.00009525896071407946 0.00009218538238310959 0.00009218966829154756 0.0000922024596610712
          0.00013209726952720472 0.00013208970674565167 0.00013206581026664206 0.00006666803927930334 0.0000666744239530689 0.00006669285270316961
          0.00009977244052951203 0.00009977293409794859 0.00009976767371403205 0.00007634838594229587 0.00007714935626772268 0.00007635552378794842
          0.00007715699586384792 0.00007637611707279014 0.00007718094020479693 0.00009981003435762178 0.00009981018462204017 0.00009980488567399135
          0.00007803187175734573 0.00007804132973509105 0.00007807077952659765 0.00009482106358319233 0.00009482475434757163 0.00009483384444959637
          0.00007454245697029348 0.00007455196619688484 0.00007457847163759736 0.0001348655213079749 0.0001348635491254561 0.0001348523056469605
          0.00013385849138777465 0.00013385361137129462 0.0001338397977552358 0.00013234492167637943 0.000132317317145179 0.00013234138342660659
          0.00013231487747000344 0.0001323317500286808 0.00013230757455279726 0.00010686643410507821 0.00010515987414051751 0.00010686644638001482
          0.00010515988252841345 0.0001068652343519151 0.00010516021288118179 0.00012198436862627933 0.00012198263387434295 0.00012197763321625672
          0.00008264428093677364 0.00008264559588566558 0.00008264687744964638 0.00008978565683457324 0.0000897856234516 0.00008978618316564545
          0.00013259391507088132 0.00012920082847369437 0.00013259016780974725 0.0001291978644860822 0.00013258033812981991 0.00012918975948351155
          0.00011184797749894857 0.00011277989160628008 0.00011523678009925174 0.00011184860350604714 0.00011278036038194065 0.0001152379216191119
          0.00011185268397841823 0.00011277932633020485 0.00011524242722326582 0.00011867147266772098 0.00011929757797559514 0.00011867171973918683
          0.00011929719731925392 0.00011867324341495999 0.00011929748140766497 0.00012577735217828397 0.00012577536427797547 0.0001257671131629395
          0.00011073629465591636 0.00011073567144330539 0.00011073371285560516 0.00010850834339438602 0.000108508958597261 0.00010851009824124878
          0.00008944723761061865 0.00008944760776475096 0.00008944685841554376 0.00007503792079258902 0.00007504109834541685 0.00007504977010010964
          0.00005921285936256456 0.00006222726410813975 0.000059220899833154195 0.00006223472658520952 0.00005924289650160653 0.00006225671311107313
          0.00011064380045123451 0.000110641127353178 0.0001106340375691725 0.00007098921735829772 0.0000703227737168886 0.00007473548090640107
          0.00007099667417520866 0.00007033006969796407 0.00007474300062328461 0.00007101930918962238 0.00007035157435205319 0.00007475864674931332
          0.00013635847561771042 0.00013398318225383174 0.00013635525750131606 0.00013397972546852588 0.00013634502833654303 0.00013396970207339202
          0.00010040514602195715 0.00010514592950596376 0.00010040357461698258 0.0001051449357571876 0.00010039828231948177 0.00010514304855104962
          0.0001317460004189651 0.0001317416357022739 0.00013172765570056643 0.0001296127092707342 0.0001356488452061297 0.00013540648699459547
          0.00012960983284573453 0.00013565113673055812 0.00013540384008759506 0.00012960338943384642 0.00013565470860505904 0.00013539803826790445
          0.00011840227587495016 0.00011840514403547918 0.00011840875103052725 0.0000813400372847817 0.00008266799379559432 0.00008134528892000264
          0.00008267166737625759 0.00008135901309459978 0.00008268265793973097 0.00012346190857808422 0.0001240502250104536 0.00012346201996693811
          0.0001240513863370404 0.0001234604214517191 0.00012405254099496097 0.00007947543341900248 0.0000794813264984996 0.00007950194293831846
          0.00009607059325317177 0.00009606931198894654 0.00009606675510427343 0.00013546067302770915 0.0001354577464140687 0.0001354489800135226
          0.00006566362797440725 0.00006567150537864429 0.0000656955680222953 0.00006924208561865061 0.00006924997344621807 0.00006927329764841523
          0.00012899428828099936 0.00012899444889893786 0.0001289922834114787 0.00007300179170365977 0.00007187708481352432 0.00007300990741618504
          0.00007188519234935925 0.00007303455100811939 0.00007191028577722955 0.0001368825201256617 0.00013633503413889453 0.00013687959133497918
          0.0001363319969265087 0.00013687179334329394 0.00013632475511444307 0.0001384875148873028 0.00013848625385886972 0.00013848274356937943
          0.00013543412061067084 0.00013550187583964457 0.00013542755162070092 0.00013549795452515566 0.00013541567776100097 0.00013548559280130744
          0.00009052927093331218 0.00009052930249763716 0.0000905277070673764 0.00014012960310146123 0.00014123819397787908 0.00014012667180074055
          0.00014123886583774587 0.00014011790913888824 0.0001412404168360098 0.00008499382670994733 0.00008580707370424593 0.00008499451611150526
          0.0000858075019452469 0.0000849972523990939 0.00008580872107879149 0.00013567227376305797 0.00013567014132128853 0.00013566083946741842
          0.00007816951660562581 0.00007817607590784326 0.00007819671176278031 0.00013776953274723062 0.00013776486565952441 0.00013774870389806845
          0.00013884957244480957 0.00013884377893388998 0.00013882488737976405 0.00008374487459218263 0.00008374703837310309 0.0000837511269018153
          0.00008449688378937934 0.00008449775758608648 0.0000844997135021969
        </DataArray>
        <DataArray type="Float64" Name="disp_y" format="ascii" RangeMin="-0.000060492161463248644" RangeMax="-0.00001674340900306805">
          -0.000054235348129868654 -0.00005227710062016822 -0.00005046675792686355 -0.00005147572251235702 -0.00005424109638476261 -0.000052282446729106586
          -0.00005047111866716485 -0.00005147915492848481 -0.000054258083633680535 -0.000052299984721913564 -0.00005048663394458448 -0.00005148830916099124
          -0.000041878578319436964 -0.000040448471866769924 -0.00003881521793839265 -0.000039944338475569854 -0.000041881044519224896 -0.0000404501026048675
          -0.00003881678565652254 -0.00003994622213981244 -0.00004188892785720916 -0.00004045520481464939 -0.00003882128123317362 -0.00003995241759160506
          -0.00003777624773876257 -0.000037777742126708605 -0.00003778304458689674 -0.00003927698146745042 -0.00003927834946097301 -0.00003928219495216592
          -0.000048332657013988784 -0.00004917167535104326 -0.00004833682364002577 -0.00004917415584217865 -0.000048349592580606316 -0.0000491811066185524
          -0.000040665809475591304 -0.000037870541843759004 -0.00003714326492488974 -0.00003905839743678934 -0.000040667466881360974 -0.00003787144742363717
          -0.000037143565755414413 -0.00003905904168485656 -0.00004067237330389427 -0.00003787452775321305 -0.00003714558885448307 -0.00003906239495928267
          -0.00005682688339873508 -0.00005512866171495981 -0.000055253696815964034 -0.00005689115331778897 -0.00005683335116418024 -0.00005513460520830353
          -0.000055259834101955915 -0.000056898280147184364 -0.000056851348663477344 -0.000055153267274390654 -0.000055279898419372375 -0.00005691677711345377
          -0.00005439218930683686 -0.00005545577551405351 -0.00005699939334774433 -0.00005575356472845786 -0.00005439700612335056 -0.0000554614138013412
          -0.000057006354070849906 -0.000055758960507901836 -0.000054411712387598115 -0.000055478019097090134 -0.00005702808378077621 -0.000055775842141489485
          -0.000025295807515633382 -0.000022586469349192344 -0.000025105477974451452 -0.00002529342308341007 -0.000022584547008378107 -0.000025104592215313646
          -0.000025285707380180527 -0.00002257849511514421 -0.000025102052847321752 -0.00003450713046866086 -0.000035171590831427314 -0.00003744799663461534
          -0.00003731846206665137 -0.00003450906047170776 -0.00003517276848796928 -0.00003745001744046429 -0.000037319811316563526 -0.00003451313981861755
          -0.000035179413311244 -0.000037455894940425606 -0.00003732468933026691 -0.00003483286707708162 -0.000034834348417712676 -0.00003483690739988426
          -0.00004915046364505751 -0.00004713571877919491 -0.000049154554793998743 -0.000047139504499873386 -0.00004916579818686147 -0.00004715334328695614
          -0.000056995568072732435 -0.00005509708795691149 -0.00005671585889090109 -0.000057003245736198544 -0.00005510413312952829 -0.00005672260687857164
          -0.000057024252195260804 -0.00005512825290730898 -0.000056742079939772595 -0.000046805005476523474 -0.00004875850096923045 -0.00004720707832305427
          -0.0000455169280378344 -0.000046807490903387006 -0.0000487615244152536 -0.00004721021342682368 -0.000045519494505523283 -0.000046815685232138777
          -0.00004877144020415481 -0.00004722027956693343 -0.00004552731814876652 -0.00005342847870176456 -0.00005519151330743129 -0.000053542177618137046
          -0.000053434115724996857 -0.000055197662127510806 -0.000053548423382629556 -0.00005345053211022662 -0.00005521783415803045 -0.00005356754465068778
          -0.000056382945775424946 -0.00005686563340293098 -0.00005855907271537373 -0.00005639007213461221 -0.00005687294381068354 -0.00005856748102757419
          -0.000056410228158029366 -0.00005689373179431448 -0.00005859250524002102 -0.00005103143071101967 -0.00005181607815940834 -0.00005012201692100397
          -0.000048778132222689076 -0.00005103604849817224 -0.00005182152056518184 -0.00005012642356927795 -0.000048782096831585544 -0.00005104926348087451
          -0.00005183614694411982 -0.0000501394644372224 -0.000048793389097460434 -0.00004030597353972657 -0.00003975747490167781 -0.000040308755208902265
          -0.000039759991100445084 -0.00004031514210222917 -0.00003976573130706788 -0.00003431335579826135 -0.00003449426930296252 -0.00003719641382634895
          -0.000034313557622512165 -0.000034494113329778686 -0.00003719687276604675 -0.00003431257028911682 -0.00003449396092634255 -0.0000371976033372152
          -0.00004036110080298624 -0.00004269299995788571 -0.000041764618501599426 -0.00003961307871614621 -0.000040360821463934927 -0.00004269347432091945
          -0.0000417659790784737 -0.000039613617368100484 -0.00004035920620264836 -0.00004269663202421402 -0.00004176966893875812 -0.00003961417276874156
          -0.00004874678899327738 -0.00004958953923505379 -0.000048747035657212825 -0.00004958991926926172 -0.00004874701207860402 -0.000049591045837705376
          -0.00005629455008736389 -0.000054270313566646566 -0.00005629962580779448 -0.00005427360442964405 -0.000056313735719612925 -0.000054285433332373734
          -0.00004711046032895404 -0.000046842465640737655 -0.00004711112864740021 -0.00004684350710708514 -0.00004711201293043552 -0.00004684612305284409
          -0.000043998878974070186 -0.00004497593295668067 -0.00004686478962122523 -0.00004602247460249691 -0.000044001227169245825 -0.00004497625885372443
          -0.00004686619243762065 -0.00004602559469682954 -0.00004400817069525205 -0.00004497443853056354 -0.000046869010871116034 -0.00004603543928521477
          -0.00002832289494152382 -0.0000282263309264839 -0.000028321379333743828 -0.00002822487001919479 -0.000028315956950760857 -0.000028219924736243704
          -0.00003360573603967535 -0.00003226942048246693 -0.00003360638204275729 -0.00003227088935547955 -0.00003360891040498841 -0.00003227522347767339
          -0.00003101476689765559 -0.000029924495832449463 -0.00003101479022558143 -0.00002992515283867995 -0.00003101339430447662 -0.000029925388831280744
          -0.000049600860032870955 -0.00004960118632537401 -0.000049602592406864134 -0.000032561119266232926 -0.00003256285818650014 -0.000032566498933116074
          -0.000028415869111405817 -0.000029009723427254133 -0.00003201207416734254 -0.0000314214273841836 -0.000028415322682650465 -0.000029010799850712185
          -0.000032013212887411096 -0.000031422237277293386 -0.000028413384889190317 -0.000029014106979029853 -0.00003201593882657211 -0.000031425203024054076
          -0.00004287524241462106 -0.00004386276918393683 -0.000041691481589042324 -0.000042877696784591745 -0.000043865580291241634 -0.000041693858578679936
          -0.00004288442795563408 -0.000043873480033429054 -0.000041701529108476026 -0.00003874079242125425 -0.000040706414574439786 -0.00003874260726162122
          -0.00004070928717458062 -0.00003874851901520902 -0.00004072093054561525 -0.00003780773465373526 -0.0000378087490330323 -0.00003781104137645272
          -0.00005281194439244412 -0.000051609548066228204 -0.000053106714035806674 -0.00005436199860305975 -0.00005281531860332125 -0.00005161249487650276
          -0.000053110496787713226 -0.000054366198481411456 -0.00005282546499516471 -0.0000516218049191572 -0.000053121559562332954 -0.000054377667569997516
          -0.000031227465254449697 -0.00003122686188050122 -0.000031224749119688846 -0.000035037148918043685 -0.000035038535742751396 -0.00003504270218892692
          -0.000025533179577312687 -0.00002553325840750706 -0.000025532483842856865 -0.0000523166826277713 -0.00005150640859802731 -0.00005231830289638524
          -0.0000515072125611428 -0.000052320825454222005 -0.000051511323406668885 -0.000041156706039862626 -0.00003843800269712432 -0.00004115782357491023
          -0.0000384388770566343 -0.00004115980494736106 -0.000038440962364506164 -0.000037732724034999006 -0.00004024647898917312 -0.00003773460312840487
          -0.00004024975975901985 -0.00003773908318574995 -0.000040259867450688884 -0.00004795401311765375 -0.000045916798254892734 -0.00004795667728856187
          -0.0000459193928835504 -0.00004796324076475343 -0.000045926649165838584 -0.00004511442784014515 -0.00004511836368786337 -0.000045128858497307666
          -0.00004365688893495999 -0.00004484832950353815 -0.000043658792761563936 -0.00004485133688879588 -0.00004366269403644463 -0.00004486079626319284
          -0.00004985042509129766 -0.00005090212398039883 -0.00004985377095056077 -0.00005090672341422044 -0.00004986279465734 -0.00005091831773905849
          -0.000027352345714489427 -0.000027351138881334224 -0.000027347400204281303 -0.00003162484533313769 -0.00003162415908630312 -0.0000316220383589185
          -0.000051625038418158115 -0.00005196162303626733 -0.00005162994232494922 -0.00005196698711803295 -0.000051643830712663195 -0.00005198105707933557
          -0.000028068169887602643 -0.000028066975500604267 -0.000028062229328193452 -0.00003555124846866672 -0.00003555266600155121 -0.00003555904609233667
          -0.000032507971696327675 -0.000028496822751950885 -0.00003250768050804177 -0.000028495354446798403 -0.00003250648662884863 -0.000028490426192132204
          -0.000042793947900677135 -0.00004322183468892789 -0.00004279785826735809 -0.00004322608926665921 -0.00004280895519008991 -0.000043238461015761057
          -0.000055249296611069404 -0.00005345661869985372 -0.000053280988695477226 -0.00005525639611910582 -0.00005346302893860501 -0.0000532875594164357
          -0.00005527659386348431 -0.000053480549959090315 -0.000053308927032822406 -0.00004498095841436581 -0.00004375784279345373 -0.00004195530261987293
          -0.00004278345749473676 -0.00004498544154048765 -0.0000437620553678605 -0.000041958489744296367 -0.00004278703196220008 -0.00004500044915124675
          -0.000043774973114720414 -0.00004196779522919507 -0.000042797005431127225 -0.000048696623352424856 -0.0000496972717857352 -0.00004689369699793314
          -0.00004642432267210453 -0.00004870001123808409 -0.00004969988706214401 -0.00004689560294071222 -0.00004642684768681129 -0.00004870967272707105
          -0.000049707872268841795 -0.00004690171017353965 -0.00004643432429291156 -0.00003541416470122579 -0.000035416141186061385 -0.0000354194501962297
          -0.00004678837347823842 -0.000045116203231890375 -0.000046793534899073606 -0.00004512097976873555 -0.00004680848701961341 -0.00004513462379777175
          -0.00002210653124601634 -0.00001991633572036591 -0.00002210314599339091 -0.00001991389582676567 -0.000022095124910163753 -0.000019906047993031477
          -0.00004826800413674042 -0.000046325172426871176 -0.000048273341787588625 -0.000046330256585590535 -0.00004828889897116689 -0.00004634557688668682
          -0.000045411076985369844 -0.00004757372347044057 -0.000045414210429897536 -0.000047578578227693974 -0.000045423156242079904 -0.000047591878770236624
          -0.0000434383849100495 -0.000044370319316371674 -0.000043441060849152194 -0.00004437262062220915 -0.00004344861197811166 -0.0000443796120054868
          -0.000039052798936123935 -0.00003905481922950767 -0.000039059239563141067 -0.00003491589542167028 -0.00003491642678443652 -0.000034917545258871194
          -0.000053280695191253384 -0.00005323295886332637 -0.00005190891279684422 -0.00005086643121929884 -0.00005328583974638552 -0.00005323771421458103
          -0.00005191310474578945 -0.00005087136010339771 -0.00005330085148962714 -0.00005325093913930771 -0.0000519256825775547 -0.000050885920925205816
          -0.000024679075379164298 -0.00002518052960445228 -0.000024677030024066567 -0.00002517877200864079 -0.000024669962712772467 -0.000025172266513972213
          -0.00004822013018168343 -0.000047670108983110415 -0.000049506898891615395 -0.00005013434447559182 -0.00004821915390868596 -0.00004766987384037298
          -0.00004950814622437503 -0.00005013487988712411 -0.00004821630077032386 -0.00004766876817879952 -0.000049511735771894475 -0.0000501375865966242
          -0.00004472228309986162 -0.00004280312758095089 -0.000042592433043221116 -0.00004472423233587047 -0.000042804216146333496 -0.000042594118609336083
          -0.00004472985976836121 -0.00004280794930046344 -0.000042599816404683254 -0.00004367346314434767 -0.00004367682504981599 -0.00004368615787547008
          -0.000043720085443315964 -0.000044842825371603754 -0.000043722501928509036 -0.000044844935115008525 -0.00004372821466505425 -0.00004485047749717328
          -0.00004629997468013766 -0.00004843116990000706 -0.00004630448806593072 -0.00004843597002648313 -0.00004631715617018764 -0.0000484496681941128
          -0.000049651291602268824 -0.000049656949368215796 -0.00004967344331597096 -0.00003611722949349878 -0.000036118306797359214 -0.00003612096290845027
          -0.00004326985096211923 -0.00004283477173268462 -0.00004327360711886871 -0.0000428391185511939 -0.00004328249875995305 -0.00004285167825491504
          -0.00005124515862807045 -0.00005201286851467785 -0.000051248243893444274 -0.00005201574615884489 -0.00005125739119458987 -0.00005202472951625558
          -0.00005545002887802999 -0.00005696904205673714 -0.000055454689620037136 -0.00005697540743687871 -0.00005546887271999639 -0.000056993716984603966
          -0.00005829253576827652 -0.00005793351174790356 -0.00005935235010311146 -0.00005830107782085783 -0.00005794141398454834 -0.00005936155830213566
          -0.00005832661982213147 -0.00005796496391522133 -0.000059391554432569125 -0.00005629074151049272 -0.000054515443859761454 -0.00005629734287782592
          -0.00005452147465077504 -0.00005631489563281155 -0.00005453966961533485 -0.00005017633400188048 -0.000048743100128470054 -0.00005017885332969537
          -0.00004874514640391665 -0.00005018672058709374 -0.000048749650200544905 -0.000058536885964738486 -0.000060096256438812346 -0.00005854558784135895
          -0.00006010661604756282 -0.000058571619911642674 -0.00006014019720116484 -0.00004687173320410948 -0.000046873338465068937 -0.000046876764144969885
          -0.000054881823655954386 -0.00005331949317561783 -0.00005405052350457327 -0.00005554998316693664 -0.00005488452769200647 -0.00005332049059299315
          -0.00005405123904418764 -0.00005555154810563011 -0.00005489132344737939 -0.00005332376108399197 -0.000054054580125489396 -0.00005555768575500366
          -0.00005251889933677495 -0.000051831226211457036 -0.000052519768639984516 -0.00005183164199907854 -0.00005252277241289258 -0.000051832533402774784
          -0.000048170115372548566 -0.00004817183039721432 -0.0000481762772710599 -0.00006044804398548126 -0.00006045894377363384 -0.000060492161463248644
          -0.00005145784980110557 -0.00005146341629155903 -0.000051479955910711026 -0.00004088237669891079 -0.0000408858342965878 -0.00004089534431159924
          -0.000049946551975719864 -0.00004995224189663536 -0.00004996820362959603 -0.00005277399211490493 -0.0000534402793619873 -0.00005278038109185366
          -0.00005344651000253399 -0.0000527988024205293 -0.00005346602770483149 -0.000051334101599365206 -0.00005133998101939558 -0.00005135589064678494
          -0.0000420355964127118 -0.000042038982088986685 -0.000042049704670360796 -0.000041778261780933714 -0.00004178048157519309 -0.00004178541622725064
          -0.000023435532043706717 -0.000023433484576616383 -0.000023425998825436155 -0.00003709932343700317 -0.00003937140620337601 -0.000037101507292973405
          -0.00003937468824545824 -0.0000371077631071274 -0.000039384447731422495 -0.00002546096316875701 -0.000025459151078305527 -0.000025452957613453638
          -0.00004142359479722366 -0.0000414282213886415 -0.000041439306465493554 -0.00005219097359660337 -0.00005219707907599924 -0.00005221334129169353
          -0.000041256412416943416 -0.00004126002187671588 -0.00004127126717684407 -0.00003573979462663309 -0.00003574221080787776 -0.00003574857715983856
          -0.00003864874828669974 -0.00003865221142035482 -0.00003866200928103444 -0.00005032407821785687 -0.00005097704215569529 -0.000050324775948623194
          -0.0000509766432351016 -0.00005032646644774347 -0.00005097582956167155 -0.00005877130767236058 -0.00006042227612630822 -0.000058780771995265914
          -0.00006043421312130593 -0.000058810169118228876 -0.000060473828187457844 -0.00005396419689733476 -0.000053966004085993017 -0.000053971793740952924
          -0.00005379400807661631 -0.000053798268157061344 -0.00005381041357040066 -0.000019629798220350384 -0.00001962651210733388 -0.00001961719824124619
          -0.00004948976641074415 -0.000050927066351733646 -0.00004949004863687688 -0.000050927481251776245 -0.00004949194288681654 -0.00005092878529458368
          -0.00005925297791704439 -0.00005815679740692097 -0.00005819220017305131 -0.00005926198969485734 -0.0000581643921402127 -0.00005819825559109172
          -0.000059295176539135646 -0.000058188938240435945 -0.000058213944139691226 -0.00005697440290907662 -0.00005604169826290765 -0.000056979134646321976
          -0.00005604587131885672 -0.00005699940423374809 -0.000056058166227658555 -0.00005237509171133498 -0.00005237628742316982 -0.000052379315410701715
          -0.00005841629622266417 -0.000058425330497434626 -0.00005844994215025341 -0.00005996988308109501 -0.00005998070350329393 -0.00006001323425736752
          -0.000022052101751079318 -0.000022049917009720933 -0.000022042587431183622 -0.000048746802025324094 -0.00004874874466203332 -0.0000487529109793581
          -0.000036208997440038844 -0.000037055058547215514 -0.00003621071419750098 -0.000037056566043363087 -0.0000362150658137013 -0.000037060493861870636
          -0.00002156411372398701 -0.00002156261119239013 -0.00002155910589171713 -0.000034787561868818755 -0.000032700982033398816 -0.000032697776676527734
          -0.00003478930980369565 -0.00003270263020432313 -0.00003269960685544681 -0.00003479631583444009 -0.00003270566153470703 -0.00003270421616105774
          -0.00004694484694542658 -0.00004722312699320042 -0.00004694494344261157 -0.0000472233996996807 -0.00004694498886872884 -0.000047223260011709014
          -0.000020263872772190435 -0.00001875751972248708 -0.000020261358387557337 -0.000018756520383472815 -0.00002025432182010063 -0.000018751730054614845
          -0.00004731592087765499 -0.000047316039091595364 -0.000047316708299384014 -0.000029539358940149277 -0.000029731873381556916 -0.000032824175230042156
          -0.000029542438231308046 -0.000029735686313319058 -0.000032827804048548874 -0.000029551597480113994 -0.000029747980513722995 -0.00003283762705075255
          -0.000022875681855731074 -0.000022875563034804164 -0.00002287648166224974 -0.000029102066781996183 -0.000026763366189428408 -0.000029103227882062517
          -0.000026763128272917147 -0.00002910717003842361 -0.000026761509406601733 -0.00002628087145036067 -0.000023930831828931226 -0.00002628184142193594
          -0.000023932261996018915 -0.000026285305369956484 -0.0000239369585794331 -0.000031240987213704765 -0.00003124237657783392 -0.000031250009609617065
          -0.000017982902625239724 -0.000017979413756865583 -0.00001796800072248618 -0.00004527036499864243 -0.00004527051003682845 -0.00004527113696192846
          -0.00003795458249914099 -0.000037956833834179784 -0.000037962880739748026 -0.00003865871024999607 -0.00003866220877893107 -0.00003867260569558395
          -0.000026666556719903703 -0.000026669778899162495 -0.0000266817935492576 -0.00003907680034034336 -0.00003689434173297307 -0.00003908043435254053
          -0.00003689751464502611 -0.00003909393823543798 -0.000036906380225097435 -0.00004257019304862821 -0.00004370386543768764 -0.00004257220542614788
          -0.000043704182455012965 -0.00004257889116418545 -0.00004370460532759173 -0.00004334803628014202 -0.00004334883586483308 -0.00004335139725804922
          -0.00004943465528804282 -0.000048845267965612736 -0.00004943729214540247 -0.00004884580409724881 -0.00004944133093840562 -0.00004884700269194992
          -0.000017382713066521225 -0.000017379160156139928 -0.00001736724983725065 -0.00003561282213087001 -0.000032690914586923306 -0.00003561720440644205
          -0.00003269654754168251 -0.00003562993746945126 -0.000032715220530106865 -0.000019282636448143034 -0.0000167566291071684 -0.00001927957032779044
          -0.000016753320788751137 -0.00001927066333411501 -0.00001674340900306805 -0.00004812522980758593 -0.0000481252475313881 -0.00004812583668068013
          -0.00003272306921751472 -0.000032725013043605275 -0.00003273011259319758 -0.00004064148084778403 -0.00004064546242478222 -0.000040658652503224754
          -0.00003826631531558296 -0.00003827020690172521 -0.000038281889069960334 -0.00002427252040904168 -0.000024271309916740598 -0.000024266132507885016
          -0.00002177623633142507 -0.000021773713827204045 -0.000021765896059317833
        </DataArray>
        <DataArray type="Float64" Name="disp_z" format="ascii" RangeMin="-0.0000016339295661552317" RangeMax="0">
          0 0 0 0 -5.670000768806301e-7 -6.347013884422017e-7
          -6.002901921019735e-7 -5.308298061995744e-7 -0.0000011333392323079645 -0.000001267137974974509 -0.0000012009701897200292 -0.0000010611548117477139
          0 0 0 0 -5.000444368484861e-7 -4.6057542923931645e-7
          -4.6801848768577846e-7 -5.182905413497742e-7 -9.999631258371126e-7 -9.20163508237346e-7 -9.355913888046536e-7 -0.000001035913789122003
          0 -4.173729596069466e-7 -8.350996413133674e-7 0 -4.148569696702295e-7 -8.304579651891639e-7
          0 0 -5.554001986149959e-7 -5.1348391156947e-7 -0.0000011101973195342663 -0.0000010285641726902326
          0 0 0 0 -7.57132894674264e-7 -7.744787379921204e-7
          -7.549638982172762e-7 -7.401600889358026e-7 -0.0000015129648872968153 -0.0000015479958477147718 -0.0000015076666904646106 -0.000001478833287432308
          0 0 0 0 -5.426764848402248e-7 -5.753221654269266e-7
          -5.883953170467836e-7 -5.531221024279488e-7 -0.0000010837594681988825 -0.0000011503762927802857 -0.0000011765563831711137 -0.000001105837944144036
          0 0 0 0 -4.722516465943684e-7 -4.990919633706825e-7
          -4.597767070566077e-7 -4.399294332613077e-7 -9.442623926767184e-7 -9.974156575401077e-7 -9.19040820044724e-7 -8.798207906269571e-7
          0 0 0 -7.562535069818992e-7 -7.443520759168562e-7 -7.35687537336232e-7
          -0.0000015123923055043061 -0.000001487468072690138 -0.0000014712656825286189 0 0 0
          0 -7.465545406797833e-7 -7.705004987652037e-7 -7.67202939611147e-7 -7.299858078428668e-7 -0.0000014928965486684533
          -0.000001539478873597148 -0.0000015335814352494467 -0.000001459582973262003 0 -6.947287287838344e-7 -0.0000013891737209559963
          0 0 -6.60402646041066e-7 -6.325893868219911e-7 -0.0000013183726767249322 -0.0000012639705856388208
          0 0 0 -5.479850141189057e-7 -5.904792214649797e-7 -5.198847768974141e-7
          -0.0000010947199359900207 -0.0000011795526287339233 -0.0000010391217366916786 0 0 0
          0 -7.157761907231579e-7 -6.996818025870051e-7 -7.160387793550952e-7 -7.319402931370902e-7 -0.0000014302084514510678
          -0.0000013986031552400192 -0.0000014317282820844878 -0.0000014629341707128272 0 0 0
          -6.333508987071192e-7 -5.991506788054083e-7 -6.298799626926541e-7 -0.0000012662690195547088 -0.0000011980068132899388 -0.0000012582797145525424
          0 0 0 -5.62924510135308e-7 -5.655294125059995e-7 -5.218510627348797e-7
          -0.0000011244668951515876 -0.0000011297851187922564 -0.0000010420725145105268 0 0 0
          0 -6.715518420889775e-7 -6.584907430775225e-7 -6.686723935936146e-7 -6.982534628394196e-7 -0.0000013427292530373688
          -0.0000013148539328538275 -0.0000013356826574275338 -0.000001395591379522482 0 0 -7.449598642873307e-7
          -7.24833455508804e-7 -0.0000014888672603315453 -0.0000014481694823071096 0 0 0
          -7.576501186349593e-7 -7.048866959477428e-7 -7.109790130833806e-7 -0.000001513495804004377 -0.0000014113972970394783 -0.0000014225076345057167
          0 0 0 0 -6.842428744106251e-7 -6.952996057642414e-7
          -7.29781595249584e-7 -7.184664902032237e-7 -0.0000013687414910409049 -0.0000013889414977601888 -0.0000014584637908387886 -0.0000014354147387182657
          0 0 -4.529386928666454e-7 -4.713167819130096e-7 -9.072166215090868e-7 -9.420041090100168e-7
          0 0 -4.94157931945343e-7 -5.324883006892866e-7 -9.870020248254598e-7 -0.0000010656576332674256
          0 0 -3.978482914671731e-7 -4.0772350902700825e-7 -7.964104516999429e-7 -8.159464979029545e-7
          0 0 0 0 -4.832431179345878e-7 -4.658904011384106e-7
          -5.013027018587187e-7 -5.290339787539284e-7 -9.675011033078701e-7 -9.330917183992204e-7 -0.0000010037151664352834 -0.0000010594341617330474
          0 0 -7.749051988133564e-7 -7.513578805258903e-7 -0.000001548709887108284 -0.0000015024527794713987
          0 0 -7.973183898384082e-7 -7.837698378277128e-7 -0.000001592525889860413 -0.0000015664213919750945
          0 0 -8.110961455529536e-7 -7.987370958693609e-7 -0.0000016200715410897882 -0.0000015952945302605495
          0 -4.977654753812013e-7 -9.959125432071162e-7 0 -6.502579385875025e-7 -0.0000013002062564073014
          0 0 0 0 -7.245892916248936e-7 -6.928619179127384e-7
          -6.830290026034567e-7 -7.185755395500406e-7 -0.0000014491251423272302 -0.0000013854962454457714 -0.0000013657557537494668 -0.0000014370975098609109
          0 0 0 -7.463975049808842e-7 -7.432854850163044e-7 -7.633067982793113e-7
          -0.000001491450327859906 -0.00000148590661996191 -0.0000015255953643803362 0 0 -8.091430514684684e-7
          -7.743628939843815e-7 -0.000001615136457194321 -0.0000015461722317369018 0 -6.556113043049189e-7 -0.0000013136814306911319
          0 0 0 0 -4.1745012620497816e-7 -4.361578338572891e-7
          -4.4413496587960783e-7 -4.2587391021048783e-7 -8.348972073031653e-7 -8.723422570007518e-7 -8.891361493196721e-7 -8.521888217799003e-7
          0 -7.543768869330178e-7 -0.0000015080696071544228 0 -6.706555993108198e-7 -0.0000013427640338179723
          0 -7.183160674878856e-7 -0.000001437046416459351 0 0 -5.082240901672156e-7
          -4.934161633700685e-7 -0.0000010170169405092627 -9.8608965751403e-7 0 0 -6.296807224447882e-7
          -6.158918957811703e-7 -0.0000012587661766971865 -0.0000012322410821031752 0 0 -8.061718857586852e-7
          -7.8781161226144e-7 -0.0000016097019613867375 -0.0000015739890956340948 0 0 -6.913370922888812e-7
          -6.752935541961616e-7 -0.0000013806775398910515 -0.0000013480713528468844 0 -7.356312921681995e-7 -0.000001470757962106914
          0 0 -6.614631216845857e-7 -6.023335994793661e-7 -0.0000013211603566166374 -0.0000012046648402231077
          0 0 -6.920055050862459e-7 -6.71261363343612e-7 -0.000001382046077101142 -0.0000013382646782959628
          0 -7.991185564631782e-7 -0.000001596174018468357 0 -7.856194290270955e-7 -0.000001570272864399392
          0 0 -6.692475820944595e-7 -6.697718669245434e-7 -0.0000013370288737380267 -0.0000013367126122246556
          0 -7.975746648535424e-7 -0.000001594317268999686 0 -6.309610974317426e-7 -0.00000126156665515864
          0 0 -8.061116446933044e-7 -7.892071252313944e-7 -0.0000016107648209796569 -0.0000015777982388530216
          0 0 -7.555227407550574e-7 -7.48857633196634e-7 -0.000001510437986259652 -0.0000014971091064906896
          0 0 0 -6.045878698412744e-7 -6.3654532217634e-7 -6.442518604043533e-7
          -0.0000012083258282043524 -0.0000012722635741626607 -0.0000012850814474502615 0 0 0
          0 -6.961726578781162e-7 -6.788879291859025e-7 -7.088529403024689e-7 -7.340096967473429e-7 -0.0000013910176200150603
          -0.0000013548933973929803 -0.0000014145884591527987 -0.0000014658106460808356 0 0 0
          0 -4.934717981022774e-7 -4.6166645480221467e-7 -4.5044541384023254e-7 -4.785565425373975e-7 -9.881464958924656e-7
          -9.232942632448022e-7 -9.003120298529725e-7 -9.573882674929599e-7 0 -8.183006408139446e-7 -0.0000016339295661552317
          0 0 -6.531652310861403e-7 -6.385605927574682e-7 -0.0000013051485981327539 -0.0000012748496634826367
          0 0 -7.631767682380234e-7 -7.542544473890923e-7 -0.0000015261348882177294 -0.0000015077535762621903
          0 0 -6.103435960790781e-7 -5.838164352631281e-7 -0.0000012190891722180799 -0.000001167407842453885
          0 0 -5.027300447205748e-7 -5.281981782584706e-7 -0.0000010062455344390212 -0.000001057635605319623
          0 0 -4.828195562842718e-7 -4.573736833833015e-7 -9.65433472052641e-7 -9.141360793940399e-7
          0 -7.793701240238492e-7 -0.000001557869424386342 0 -7.819835477147885e-7 -0.000001562776575769881
          0 0 0 0 -5.28654939371976e-7 -4.908083464083894e-7
          -4.7531166421665995e-7 -5.085220573887047e-7 -0.0000010570267959892041 -9.824067670455433e-7 -9.519854731900658e-7 -0.0000010178170031855923
          0 0 -7.825480303393989e-7 -7.843937784568443e-7 -0.0000015641303675502395 -0.0000015685418597645332
          0 0 0 0 -3.991520585805622e-7 -3.956221111965673e-7
          -4.035030868250151e-7 -3.9611468594707296e-7 -7.983153609401159e-7 -7.913503843368911e-7 -8.072152600198156e-7 -7.920453327067404e-7
          0 0 0 -4.328446516281058e-7 -4.116416980285448e-7 -4.36128024129999e-7
          -8.658083544523963e-7 -8.23604878200681e-7 -8.718775058034141e-7 0 -5.417723688407099e-7 -0.0000010848738036570773
          0 0 -7.353502035854712e-7 -7.10530726485927e-7 -0.000001469037764961275 -0.0000014197745021454783
          0 0 -7.101161407889296e-7 -6.646215741263885e-7 -0.0000014194550164790471 -0.0000013287096696559884
          0 -5.620880233855792e-7 -0.0000011236966836585222 0 -7.888575708767621e-7 -0.0000015772712023807674
          0 0 -6.035442399129777e-7 -6.554582695696095e-7 -0.000001207499018480832 -0.0000013096798076813589
          0 0 -4.1118050798152785e-7 -3.9225539592104596e-7 -8.220169110700346e-7 -7.846527504464339e-7
          0 0 -3.9765038096929095e-7 -4.030640237832367e-7 -7.946909437155686e-7 -8.06006259080455e-7
          0 0 0 -4.087682273067051e-7 -4.815351852493156e-7 -4.203165697385143e-7
          -8.168855137989455e-7 -9.62006000610864e-7 -8.393590051904887e-7 0 0 -5.171536696283615e-7
          -5.537845884379505e-7 -0.0000010332547619027775 -0.0000011071609793567832 0 0 -4.3170030044047864e-7
          -4.4042957761983895e-7 -8.621064519673388e-7 -8.800924435751622e-7 0 0 -5.042103175772374e-7
          -4.311919546836648e-7 -0.00000100688898214894 -8.599566676195701e-7 0 -4.2616019423866653e-7 -8.52307689754161e-7
          0 0 0 0 -4.825577779035541e-7 -4.73263402289027e-7
          -4.6011852967796854e-7 -4.6749504875663495e-7 -9.63663885734505e-7 -9.463828267981526e-7 -9.190739930053803e-7 -9.339970464312962e-7
          0 0 -4.431995544743049e-7 -4.5542278179907417e-7 -8.85711280930324e-7 -9.103000472478333e-7
          0 -4.209769403730931e-7 -8.414344006919718e-7 0 -4.362146210676484e-7 -8.709123094865978e-7
          0 -5.792908136323093e-7 -0.0000011581279103129848 0 -5.526852503069816e-7 -0.0000011066586525498132
          0 -6.209219858455047e-7 -0.0000012412978246398271 0 0 -5.917543881856466e-7
          -6.135242937148349e-7 -0.0000011830869140207916 -0.0000012254731794169869 0 -6.308277392683772e-7 -0.0000012604046415624318
          0 -5.478326201795485e-7 -0.0000010960045415484983 0 -4.5298473900251374e-7 -9.051914662530572e-7
          0 -7.650413773698701e-7 -0.000001529561208587 0 0 -6.958748525864329e-7
          -6.781027669921427e-7 -0.0000013898824066612786 -0.000001354787212442646 0 -7.774923836074105e-7 -0.0000015540544214216124
          0 -6.63428727658824e-7 -0.0000013256861448805759 0 -6.426192751876534e-7 -0.0000012834832113136932
          0 -5.90403819977514e-7 -0.0000011828247284859604 0 -5.986655318719493e-7 -0.00000119773130281019
          0 -5.83247560267518e-7 -0.000001166643647646859 0 0 -4.3488248325764614e-7
          -4.240410526464187e-7 -8.695457432446788e-7 -8.473937402999868e-7 0 0 -5.080657458832253e-7
          -4.261764869682161e-7 -0.0000010149093178373226 -8.5038837759237e-7 0 -4.939824924845308e-7 -9.86931465010636e-7
          0 -3.930888896916916e-7 -7.858908850586215e-7 0 -7.486192001216449e-7 -0.0000014959113091365326
          0 0 -4.43497028151048e-7 -4.595428114133487e-7 -8.867487305316842e-7 -9.184470031803438e-7
          0 0 0 -4.3481128064992864e-7 -4.888652494473212e-7 -4.5366208112257433e-7
          -8.662474449915096e-7 -9.784217551559551e-7 -9.079329990754557e-7 0 0 -4.5783603322418234e-7
          -4.901731027940687e-7 -9.116776845053812e-7 -9.810315845231123e-7 0 -4.804323600450585e-7 -9.604040308696557e-7
          0 -4.894448669673296e-7 -9.775213591424689e-7 0 -4.3309640643022875e-7 -8.651806437938131e-7
          0 -7.671513485727451e-7 -0.0000015332823538179764 0 -4.1259837054154987e-7 -8.248656774157553e-7
          0 0 -4.2125400180160747e-7 -4.6491859051805105e-7 -8.420876124626095e-7 -9.300276518581742e-7
          0 -7.273782753540732e-7 -0.000001457630102311257 0 0 0
          -6.486479614532016e-7 -6.620890674827846e-7 -6.9209601069771e-7 -0.0000012959981376079442 -0.0000013230182020377324 -0.0000013850422908436143
          0 0 -4.2701742122429537e-7 -4.4769907254282105e-7 -8.541857439244333e-7 -8.960726002190859e-7
          0 0 -7.444255763761195e-7 -7.255251744879876e-7 -0.0000014892195398747427 -0.0000014502991052310447
          0 -4.720735846731851e-7 -9.444451250191803e-7 0 0 0
          -6.599466986421378e-7 -6.585339523905255e-7 -6.22273551295686e-7 -0.0000013209330507368204 -0.0000013181955296223866 -0.000001245932480064775
          0 -7.169806754416159e-7 -0.000001435903460194573 0 0 -7.698529249059422e-7
          -7.855989570955396e-7 -0.0000015365628656267998 -0.0000015684245343261013 0 0 -7.053371676874339e-7
          -7.114149906336434e-7 -0.000001412360599367763 -0.0000014217260434485537 0 -7.503590915939112e-7 -0.0000015003435666597359
          0 -7.332628711487063e-7 -0.0000014659584510072787 0 -4.476428983870862e-7 -8.96127495278639e-7
          0 -5.181416505757579e-7 -0.0000010366970916619943 0 -5.707368398118995e-7 -0.0000011416534851852111
          0 -7.023483662880809e-7 -0.000001405148227918043 0 0 -6.208979851841632e-7
          -6.390105510740568e-7 -0.0000012418587779400706 -0.0000012769365379288643 0 0 -4.5654057039516563e-7
          -4.486046817645088e-7 -9.152193804558716e-7 -8.995907413073349e-7 0 -4.4309320709695925e-7 -8.871709751676455e-7
          0 0 -3.9824379300430747e-7 -4.093630274766917e-7 -7.969711494555773e-7 -8.193244265635426e-7
          0 -7.30319273093359e-7 -0.0000014600376741554116 0 0 -5.590628107666879e-7
          -6.164995231873897e-7 -0.0000011189615356373865 -0.0000012339706309322023 0 0 -7.388222682112154e-7
          -7.231730581038603e-7 -0.0000014770981079213815 -0.0000014455680079927053 0 -4.1773219060721825e-7 -8.356110374800686e-7
          0 -7.054640170895214e-7 -0.000001410055552141562 0 -4.862407087231035e-7 -9.73811377861365e-7
          0 -5.342031017265775e-7 -0.0000010689101758799654 0 -7.733329109799251e-7 -0.0000015443806316948712
          0 -7.604173705066296e-7 -0.000001519740282163667
        </DataArray>
      </PointData>
      <CellData>
        <DataArray type="Int32" Name="libmesh_elem_id" format="ascii" RangeMin="1380" RangeMax="3259">
          1380 1381 1412 1413 1414 1415
          1416 1417 1428 1429 1430 1431
          1438 1439 1440 1441 1464 1465
          1472 1473 1480 1481 1484 1485
          1488 1489 1490 1491 1492 1493
          1496 1497 1516 1517 1534 1535
          1538 1539 1544 1545 1548 1549
          1556 1557 1562 1563 1568 1569
          1574 1575 1576 1577 1604 1605
          1610 1611 1620 1621 1626 1627
          1632 1633 1640 1641 1642 1643
          1644 1645 1646 1647 1660 1661
          1664 1665 1666 1667 1668 1669
          1670 1671 1674 1675 1676 1677
          1688 1689 1690 1691 1692 1693
          1694 1695 1706 1707 1716 1717
          1720 1721 1724 1725 1732 1733
          1736 1737 1738 1739 1742 1743
          1744 1745 1756 1757 1758 1759
          1768 1769 1776 1777 1780 1781
          1784 1785 1786 1787 1788 1789
          1792 1793 1796 1797 1800 1801
          1806 1807 1808 1809 1812 1813
          1820 1821 1822 1823 1826 1827
          1842 1843 1844 1845 1860 1861
          1870 1871 1886 1887 1898 1899
          1912 1913 1934 1935 1938 1939
          1940 1941 1954 1955 1958 1959
          1962 1963 1964 1965 1966 1967
          1974 1975 1976 1977 1978 1979
          1980 1981 1984 1985 1990 1991
          1992 1993 1994 1995 2002 2003
          2012 2013 2016 2017 2022 2023
          2032 2033 2034 2035 2036 2037
          2042 2043 2056 2057 2066 2067
          2072 2073 2076 2077 2080 2081
          2086 2087 2090 2091 2094 2095
          2098 2099 2104 2105 2108 2109
          2114 2115 2118 2119 2122 2123
          2142 2143 2152 2153 2156 2157
          2168 2169 2172 2173 2174 2175
          2182 2183 2188 2189 2190 2191
          2192 2193 2194 2195 2198 2199
          2210 2211 2240 2241 2272 2273
          2280 2281 2300 2301 2322 2323
          2326 2327 2338 2339 2376 2377
          2378 2379 2380 2381 2384 2385
          2386 2387 2388 2389 2394 2395
          2428 2429 2438 2439 2446 2447
          2454 2455 2492 2493 2508 2509
          2514 2515 2516 2517 2528 2529
          2536 2537 2538 2539 2544 2545
          2548 2549 2552 2553 2576 2577
          2604 2605 2606 2607 2614 2615
          2618 2619 2626 2627 2630 2631
          2632 2633 2652 2653 2654 2655
          2674 2675 2676 2677 2686 2687
          2692 2693 2698 2699 2706 2707
          2712 2713 2718 2719 2728 2729
          2730 2731 2732 2733 2744 2745
          2752 2753 2758 2759 2770 2771
          2784 2785 2786 2787 2792 2793
          2812 2813 2816 2817 2818 2819
          2820 2821 2842 2843 2856 2857
          2866 2867 2882 2883 2894 2895
          2900 2901 2906 2907 2914 2915
          2942 2943 2970 2971 2976 2977
          2992 2993 3010 3011 3012 3013
          3016 3017 3046 3047 3056 3057
          3058 3059 3070 3071 3078 3079
          3084 3085 3094 3095 3098 3099
          3118 3119 3122 3123 3128 3129
          3134 3135 3152 3153 3180 3181
          3192 3193 3196 3197 3200 3201
          3202 3203 3214 3215 3244 3245
          3248 3249 3258 3259
        </DataArray>
        <DataArray type="Int32" Name="subdomain_id" format="ascii" RangeMin="107" RangeMax="107">
          107 107 107 107 107 107
          107 107 107 107 107 107
          107 107 107 107 107 107
          107 107 107 107 107 107
          107 107 107 107 107 107
          107 107 107 107 107 107
          107 107 107 107 107 107
          107 107 107 107 107 107
          107 107 107 107 107 107
          107 107 107 107 107 107
          107 107 107 107 107 107
          107 107 107 107 107 107
          107 107 107 107 107 107
          107 107 107 107 107 107
          107 107 107 107 107 107
          107 107 107 107 107 107
          107 107 107 107 107 107
          107 107 107 107 107 107
          107 107 107 107 107 107
          107 107 107 107 107 107
          107 107 107 107 107 107
          107 107 107 107 107 107
          107 107 107 107 107 107
          107 107 107 107 107 107
          107 107 107 107 107 107
          107 107 107 107 107 107
          107 107 107 107 107 107
          107 107 107 107 107 107
          107 107 107 107 107 107
          107 107 107 107 107 107
          107 107 107 107 107 107
          107 107 107 107 107 107
          107 107 107 107 107 107
          107 107 107 107 107 107
          107 107 107 107 107 107
          107 107 107 107 107 107
          107 107 107 107 107 107
          107 107 107 107 107 107
          107 107 107 107 107 107
          107 107 107 107 107 107
          107 107 107 107 107 107
          107 107 107 107 107 107
          107 107 107 107 107 107
          107 107 107 107 107 107
          107 107 107 107 107 107
          107 107 107 107 107 107
          107 107 107 107 107 107
          107 107 107 107 107 107
          107 107 107 107 107 107
          107 107 107 107 107 107
          107 107 107 107 107 107
          107 107 107 107 107 107
          107 107 107 107 107 107
          107 107 107 107 107 107
          107 107 107 107 107 107
          107 107 107 107 107 107
          107 107 107 107 107 107
          107 107 107 107 107 107
          107 107 107 107 107 107
          107 107 107 107 107 107
          107 107 107 107 107 107
          107 107 107 107 107 107
          107 107 107 107 107 107
          107 107 107 107 107 107
          107 107 107 107 107 107
          107 107 107 107 107 107
          107 107 107 107 107 107
          107 107 107 107 107 107
          107 107 107 107 107 107
          107 107 107 107 107 107
          107 107 107 107 107 107
          107 107 107 107 107 107
          107 107 107 107 107 107
          107 107 107 107 107 107
          107 107 107 107 107 107
          107 107 107 107
        </DataArray>
        <DataArray type="Int32" Name="processor_id" format="ascii" RangeMin="3" RangeMax="3">
          3 3 3 3 3 3
          3 3 3 3 3 3
          3 3 3 3 3 3
          3 3 3 3 3 3
          3 3 3 3 3 3
          3 3 3 3 3 3
          3 3 3 3 3 3
          3 3 3 3 3 3
          3 3 3 3 3 3
          3 3 3 3 3 3
          3 3 3 3 3 3
          3 3 3 3 3 3
          3 3 3 3 3 3
          3 3 3 3 3 3
          3 3 3 3 3 3
          3 3 3 3 3 3
          3 3 3 3 3 3
          3 3 3 3 3 3
          3 3 3 3 3 3
          3 3 3 3 3 3
          3 3 3 3 3 3
          3 3 3 3 3 3
          3 3 3 3 3 3
          3 3 3 3 3 3
          3 3 3 3 3 3
          3 3 3 3 3 3
          3 3 3 3 3 3
          3 3 3 3 3 3
          3 3 3 3 3 3
          3 3 3 3 3 3
          3 3 3 3 3 3
          3 3 3 3 3 3
          3 3 3 3 3 3
          3 3 3 3 3 3
          3 3 3 3 3 3
          3 3 3 3 3 3
          3 3 3 3 3 3
          3 3 3 3 3 3
          3 3 3 3 3 3
          3 3 3 3 3 3
          3 3 3 3 3 3
          3 3 3 3 3 3
          3 3 3 3 3 3
          3 3 3 3 3 3
          3 3 3 3 3 3
          3 3 3 3 3 3
          3 3 3 3 3 3
          3 3 3 3 3 3
          3 3 3 3 3 3
          3 3 3 3 3 3
          3 3 3 3 3 3
          3 3 3 3 3 3
          3 3 3 3 3 3
          3 3 3 3 3 3
          3 3 3 3 3 3
          3 3 3 3 3 3
          3 3 3 3 3 3
          3 3 3 3 3 3
          3 3 3 3 3 3
          3 3 3 3 3 3
          3 3 3 3 3 3
          3 3 3 3 3 3
          3 3 3 3 3 3
          3 3 3 3 3 3
          3 3 3 3 3 3
          3 3 3 3 3 3
          3 3 3 3 3 3
          3 3 3 3 3 3
          3 3 3 3 3 3
          3 3 3 3 3 3
          3 3 3 3 3 3
          3 3 3 3 3 3
          3 3 3 3 3 3
          3 3 3 3 3 3
          3 3 3 3 3 3
          3 3 3 3
        </DataArray>
      </CellData>
      <Points>
        <DataArray type="Float64" Name="Points" NumberOfComponents="3" format="ascii" RangeMin="0.013166738443807365" RangeMax="0.02374822585851783">
          0.016451229180203 0.011589607556601 0 0.016255198485848 0.011015934042219 0
          0.016728572005863 0.010757201031786 0 0.017039955631379 0.011194422572054 0
          0.016451229180203 0.011589607556601 0.00015 0.016255198485848 0.011015934042219 0.00015
          0.016728572005863 0.010757201031786 0.00015 0.017039955631379 0.011194422572054 0.00015
          0.016451229180203 0.011589607556601 0.0003 0.016255198485848 0.011015934042219 0.0003
          0.016728572005863 0.010757201031786 0.0003 0.017039955631379 0.011194422572054 0.0003
          0.011186406523754 0.0095188731742926 0 0.010689703280164 0.0094649590365737 0
          0.010634679710187 0.008964429555675 0 0.011131650337527 0.0089687060727404 0
          0.011186406523754 0.0095188731742926 0.00015 0.010689703280164 0.0094649590365737 0.00015
          0.010634679710187 0.008964429555675 0.00015 0.011131650337527 0.0089687060727404 0.00015
          0.011186406523754 0.0095188731742926 0.0003 0.010689703280164 0.0094649590365737 0.0003
          0.010634679710187 0.008964429555675 0.0003 0.011131650337527 0.0089687060727404 0.0003
          0.010158980545183 0.0089928081418126 0 0.010158980545183 0.0089928081418126 0.00015
          0.010158980545183 0.0089928081418126 0.0003 0.010234809282542 0.0094751596931164 0
          0.010234809282542 0.0094751596931164 0.00015 0.010234809282542 0.0094751596931164 0.0003
          0.017215305681839 0.010421173498473 0 0.017538322616078 0.010852535251392 0
          0.017215305681839 0.010421173498473 0.00015 0.017538322616078 0.010852535251392 0.00015
          0.017215305681839 0.010421173498473 0.0003 0.017538322616078 0.010852535251392 0.0003
          0.015522227276376 0.0083950727535023 0 0.015339273065407 0.0078314073000753 0
          0.015832583415208 0.0077039482324782 0 0.015871156677641 0.0080932538621961 0
          0.015522227276376 0.0083950727535023 0.00015 0.015339273065407 0.0078314073000753 0.00015
          0.015832583415208 0.0077039482324782 0.00015 0.015871156677641 0.0080932538621961 0.00015
          0.015522227276376 0.0083950727535023 0.0003 0.015339273065407 0.0078314073000753 0.0003
          0.015832583415208 0.0077039482324782 0.0003 0.015871156677641 0.0080932538621961 0.0003
          0.014182404182597 0.012030933394166 0 0.014112697634716 0.011586899500601 0
          0.01453762000082 0.011541498939039 0 0.014647727851392 0.011956202120878 0
          0.014182404182597 0.012030933394166 0.00015 0.014112697634716 0.011586899500601 0.00015
          0.01453762000082 0.011541498939039 0.00015 0.014647727851392 0.011956202120878 0.00015
          0.014182404182597 0.012030933394166 0.0003 0.014112697634716 0.011586899500601 0.0003
          0.01453762000082 0.011541498939039 0.0003 0.014647727851392 0.011956202120878 0.0003
          0.012718807262617 0.012100913225318 0 0.01318790653826 0.012081424726463 0
          0.013223560157694 0.012548837560718 0 0.012721969255655 0.012547975923311 0
          0.012718807262617 0.012100913225318 0.00015 0.01318790653826 0.012081424726463 0.00015
          0.013223560157694 0.012548837560718 0.00015 0.012721969255655 0.012547975923311 0.00015
          0.012718807262617 0.012100913225318 0.0003 0.01318790653826 0.012081424726463 0.0003
          0.013223560157694 0.012548837560718 0.0003 0.012721969255655 0.012547975923311 0.0003
          0.015037276113604 0.0053883886132418 0 0.014872829902632 0.0048660088618751 0
          0.015610482342583 0.0052949834846695 0 0.015037276113604 0.0053883886132418 0.00015
          0.014872829902632 0.0048660088618751 0.00015 0.015610482342583 0.0052949834846695 0.00015
          0.015037276113604 0.0053883886132418 0.0003 0.014872829902632 0.0048660088618751 0.0003
          0.015610482342583 0.0052949834846695 0.0003 0.012853333735139 0.0071862564407273 0
          0.013298874998351 0.0073010052974168 0 0.013468505581478 0.0077481198485017 0
          0.012879769579272 0.0077824950988095 0 0.012853333735139 0.0071862564407273 0.00015
          0.013298874998351 0.0073010052974168 0.00015 0.013468505581478 0.0077481198485017 0.00015
          0.012879769579272 0.0077824950988095 0.00015 0.012853333735139 0.0071862564407273 0.0003
          0.013298874998351 0.0073010052974168 0.0003 0.013468505581478 0.0077481198485017 0.0003
          0.012879769579272 0.0077824950988095 0.0003 0.012310751390795 0.0073009210446318 0
          0.012310751390795 0.0073009210446318 0.00015 0.012310751390795 0.0073009210446318 0.0003
          0.016440539131042 0.010340248821358 0 0.016895401758078 0.0099970418145034 0
          0.016440539131042 0.010340248821358 0.00015 0.016895401758078 0.0099970418145034 0.00015
          0.016440539131042 0.010340248821358 0.0003 0.016895401758078 0.0099970418145034 0.0003
          0.015674284513358 0.012057735082989 0 0.015799992883172 0.011590312491375 0
          0.01620648935985 0.012173309797103 0 0.015674284513358 0.012057735082989 0.00015
          0.015799992883172 0.011590312491375 0.00015 0.01620648935985 0.012173309797103 0.00015
          0.015674284513358 0.012057735082989 0.0003 0.015799992883172 0.011590312491375 0.0003
          0.01620648935985 0.012173309797103 0.0003 0.015719396244314 0.0096761034796614 0
          0.015317179218416 0.010039615829248 0 0.014916285335657 0.0096823062625427 0
          0.015356151892906 0.0093633130446295 0 0.015719396244314 0.0096761034796614 0.00015
          0.015317179218416 0.010039615829248 0.00015 0.014916285335657 0.0096823062625427 0.00015
          0.015356151892906 0.0093633130446295 0.00015 0.015719396244314 0.0096761034796614 0.0003
          0.015317179218416 0.010039615829248 0.0003 0.014916285335657 0.0096823062625427 0.0003
          0.015356151892906 0.0093633130446295 0.0003 0.014911939516014 0.011080222539295 0
          0.01492908374418 0.011511002202991 0 0.014470673144967 0.011122308960465 0
          0.014911939516014 0.011080222539295 0.00015 0.01492908374418 0.011511002202991 0.00015
          0.014470673144967 0.011122308960465 0.00015 0.014911939516014 0.011080222539295 0.0003
          0.01492908374418 0.011511002202991 0.0003 0.014470673144967 0.011122308960465 0.0003
          0.014927498433442 0.011816834084778 0 0.015214955739546 0.01195124117686 0
          0.014868481741766 0.012398226678167 0 0.014927498433442 0.011816834084778 0.00015
          0.015214955739546 0.01195124117686 0.00015 0.014868481741766 0.012398226678167 0.00015
          0.014927498433442 0.011816834084778 0.0003 0.015214955739546 0.01195124117686 0.0003
          0.014868481741766 0.012398226678167 0.0003 0.014887382940214 0.010512753679506 0
          0.01433465747601 0.010724165901292 0 0.014030150330029 0.010370439204794 0
          0.01444626395613 0.010022024912649 0 0.014887382940214 0.010512753679506 0.00015
          0.01433465747601 0.010724165901292 0.00015 0.014030150330029 0.010370439204794 0.00015
          0.01444626395613 0.010022024912649 0.00015 0.014887382940214 0.010512753679506 0.0003
          0.01433465747601 0.010724165901292 0.0003 0.014030150330029 0.010370439204794 0.0003
          0.01444626395613 0.010022024912649 0.0003 0.013388886812482 0.0083497293814167 0
          0.012899574253998 0.0083038014764745 0 0.013388886812482 0.0083497293814167 0.00015
          0.012899574253998 0.0083038014764745 0.00015 0.013388886812482 0.0083497293814167 0.0003
          0.012899574253998 0.0083038014764745 0.0003 0.015784016264429 0.0071345425111119 0
          0.016328429431772 0.0071626451349231 0 0.016328043288569 0.0077322573762078 0
          0.015784016264429 0.0071345425111119 0.00015 0.016328429431772 0.0071626451349231 0.00015
          0.016328043288569 0.0077322573762078 0.00015 0.015784016264429 0.0071345425111119 0.0003
          0.016328429431772 0.0071626451349231 0.0003 0.016328043288569 0.0077322573762078 0.0003
          0.016727166785252 0.0084386331054829 0 0.01644772366367 0.0089064975551763 0
          0.016002189190704 0.0086574712541786 0 0.016221340977963 0.0082297464535469 0
          0.016727166785252 0.0084386331054829 0.00015 0.01644772366367 0.0089064975551763 0.00015
          0.016002189190704 0.0086574712541786 0.00015 0.016221340977963 0.0082297464535469 0.00015
          0.016727166785252 0.0084386331054829 0.0003 0.01644772366367 0.0089064975551763 0.0003
          0.016002189190704 0.0086574712541786 0.0003 0.016221340977963 0.0082297464535469 0.0003
          0.018901908985383 0.011783468628847 0 0.018328257152057 0.011560564570719 0
          0.018901908985383 0.011783468628847 0.00015 0.018328257152057 0.011560564570719 0.00015
          0.018901908985383 0.011783468628847 0.0003 0.018328257152057 0.011560564570719 0.0003
          0.016817438697449 0.012401495631919 0 0.016895899239308 0.011880939878953 0
          0.016817438697449 0.012401495631919 0.00015 0.016895899239308 0.011880939878953 0.00015
          0.016817438697449 0.012401495631919 0.0003 0.016895899239308 0.011880939878953 0.0003
          0.010475172867508 0.012102844227475 0 0.010669582432454 0.011743114144408 0
          0.010475172867508 0.012102844227475 0.00015 0.010669582432454 0.011743114144408 0.00015
          0.010475172867508 0.012102844227475 0.0003 0.010669582432454 0.011743114144408 0.0003
          0.018198082784875 0.0097658337520035 0 0.018455934862008 0.010221918525687 0
          0.018019877493881 0.01050989807829 0 0.017698489924893 0.010066971919266 0
          0.018198082784875 0.0097658337520035 0.00015 0.018455934862008 0.010221918525687 0.00015
          0.018019877493881 0.01050989807829 0.00015 0.017698489924893 0.010066971919266 0.00015
          0.018198082784875 0.0097658337520035 0.0003 0.018455934862008 0.010221918525687 0.0003
          0.018019877493881 0.01050989807829 0.0003 0.017698489924893 0.010066971919266 0.0003
          0.015096658749896 0.0059763609132825 0 0.015666288430535 0.0059190759170471 0
          0.015096658749896 0.0059763609132825 0.00015 0.015666288430535 0.0059190759170471 0.00015
          0.015096658749896 0.0059763609132825 0.0003 0.015666288430535 0.0059190759170471 0.0003
          0.013546901289865 0.0069836782833127 0 0.013134929749538 0.0067248500217048 0
          0.013546901289865 0.0069836782833127 0.00015 0.013134929749538 0.0067248500217048 0.00015
          0.013546901289865 0.0069836782833127 0.0003 0.013134929749538 0.0067248500217048 0.0003
          0.013831418153218 0.0064982603089606 0 0.013338214474932 0.0062766362868091 0
          0.013831418153218 0.0064982603089606 0.00015 0.013338214474932 0.0062766362868091 0.00015
          0.013831418153218 0.0064982603089606 0.0003 0.013338214474932 0.0062766362868091 0.0003
          0.017908784385217 0.011229685010797 0 0.017908784385217 0.011229685010797 0.00015
          0.017908784385217 0.011229685010797 0.0003 0.017460830811305 0.0067242961174433 0
          0.017460830811305 0.0067242961174433 0.00015 0.017460830811305 0.0067242961174433 0.0003
          0.016232724398465 0.0059010997942707 0 0.016810957053741 0.0059693958220605 0
          0.016865945400018 0.0066157033945985 0 0.016287343165999 0.0065221003589061 0
          0.016232724398465 0.0059010997942707 0.00015 0.016810957053741 0.0059693958220605 0.00015
          0.016865945400018 0.0066157033945985 0.00015 0.016287343165999 0.0065221003589061 0.00015
          0.016232724398465 0.0059010997942707 0.0003 0.016810957053741 0.0059693958220605 0.0003
          0.016865945400018 0.0066157033945985 0.0003 0.016287343165999 0.0065221003589061 0.0003
          0.015434451036398 0.0088351663483508 0 0.015091649000167 0.0090065479673052 0
          0.0149386527618 0.008562942865766 0 0.015434451036398 0.0088351663483508 0.00015
          0.015091649000167 0.0090065479673052 0.00015 0.0149386527618 0.008562942865766 0.00015
          0.015434451036398 0.0088351663483508 0.0003 0.015091649000167 0.0090065479673052 0.0003
          0.0149386527618 0.008562942865766 0.0003 0.013851103268646 0.0079817773379183 0
          0.013864053371773 0.0083733293390323 0 0.013851103268646 0.0079817773379183 0.00015
          0.013864053371773 0.0083733293390323 0.00015 0.013851103268646 0.0079817773379183 0.0003
          0.013864053371773 0.0083733293390323 0.0003 0.016873832756735 0.0078915607150548 0
          0.016873832756735 0.0078915607150548 0.00015 0.016873832756735 0.0078915607150548 0.0003
          0.011740832768399 0.012550565772382 0 0.011781425344485 0.012080160842703 0
          0.012267797740114 0.012087686226532 0 0.012238354096222 0.012547223275944 0
          0.011740832768399 0.012550565772382 0.00015 0.011781425344485 0.012080160842703 0.00015
          0.012267797740114 0.012087686226532 0.00015 0.012238354096222 0.012547223275944 0.00015
          0.011740832768399 0.012550565772382 0.0003 0.011781425344485 0.012080160842703 0.0003
          0.012267797740114 0.012087686226532 0.0003 0.012238354096222 0.012547223275944 0.0003
          0.015724816214821 0.0065169349202822 0 0.015724816214821 0.0065169349202822 0.00015
          0.015724816214821 0.0065169349202822 0.0003 0.016904663245172 0.0072759580116152 0
          0.016904663245172 0.0072759580116152 0.00015 0.016904663245172 0.0072759580116152 0.0003
          0.016212759806586 0.0053000490100875 0 0.016212759806586 0.0053000490100875 0.00015
          0.016212759806586 0.0053000490100875 0.0003 0.017422284858474 0.011679101640391 0
          0.017908527792884 0.011814582379248 0 0.017422284858474 0.011679101640391 0.00015
          0.017908527792884 0.011814582379248 0.00015 0.017422284858474 0.011679101640391 0.0003
          0.017908527792884 0.011814582379248 0.0003 0.017261702763099 0.0086939606584207 0
          0.017434489396122 0.0080779876667089 0 0.017261702763099 0.0086939606584207 0.00015
          0.017434489396122 0.0080779876667089 0.00015 0.017261702763099 0.0086939606584207 0.0003
          0.017434489396122 0.0080779876667089 0.0003 0.014181033506022 0.0077713348891544 0
          0.014325604474543 0.0082610969383043 0 0.014181033506022 0.0077713348891544 0.00015
          0.014325604474543 0.0082610969383043 0.00015 0.014181033506022 0.0077713348891544 0.0003
          0.014325604474543 0.0082610969383043 0.0003 0.016099115219063 0.0099899847281115 0
          0.016520689982407 0.0096278486407962 0 0.016099115219063 0.0099899847281115 0.00015
          0.016520689982407 0.0096278486407962 0.00015 0.016099115219063 0.0099899847281115 0.0003
          0.016520689982407 0.0096278486407962 0.0003 0.014613026918956 0.0092413149543641 0
          0.014613026918956 0.0092413149543641 0.00015 0.014613026918956 0.0092413149543641 0.0003
          0.016937453954769 0.0092095292918499 0 0.017364558514239 0.0096012653805297 0
          0.016937453954769 0.0092095292918499 0.00015 0.017364558514239 0.0096012653805297 0.00015
          0.016937453954769 0.0092095292918499 0.0003 0.017364558514239 0.0096012653805297 0.0003
          0.015712843676617 0.010331364913168 0 0.016032046384524 0.010629553115583 0
          0.015712843676617 0.010331364913168 0.00015 0.016032046384524 0.010629553115583 0.00015
          0.015712843676617 0.010331364913168 0.0003 0.016032046384524 0.010629553115583 0.0003
          0.01346343572409 0.0057857389411653 0 0.01346343572409 0.0057857389411653 0.00015
          0.01346343572409 0.0057857389411653 0.0003 0.015150761096164 0.0066142159223768 0
          0.015150761096164 0.0066142159223768 0.00015 0.015150761096164 0.0066142159223768 0.0003
          0.015453261139866 0.010697023165802 0 0.015761290368715 0.010819971207646 0
          0.015453261139866 0.010697023165802 0.00015 0.015761290368715 0.010819971207646 0.00015
          0.015453261139866 0.010697023165802 0.0003 0.015761290368715 0.010819971207646 0.0003
          0.013975551316416 0.0059398855735222 0 0.013975551316416 0.0059398855735222 0.00015
          0.013975551316416 0.0059398855735222 0.0003 0.017479032913359 0.0074088673936633 0
          0.017479032913359 0.0074088673936633 0.00015 0.017479032913359 0.0074088673936633 0.0003
          0.014439802315681 0.0067889662935499 0 0.014530319307898 0.006021518089632 0
          0.014439802315681 0.0067889662935499 0.00015 0.014530319307898 0.006021518089632 0.00015
          0.014439802315681 0.0067889662935499 0.0003 0.014530319307898 0.006021518089632 0.0003
          0.014431521900925 0.0087663339265048 0 0.013899975831329 0.0088854517032459 0
          0.014431521900925 0.0087663339265048 0.00015 0.013899975831329 0.0088854517032459 0.00015
          0.014431521900925 0.0087663339265048 0.0003 0.013899975831329 0.0088854517032459 0.0003
          0.015334349753872 0.011547922560075 0 0.015363465895193 0.011114260619116 0
          0.015801980011793 0.011137474992711 0 0.015334349753872 0.011547922560075 0.00015
          0.015363465895193 0.011114260619116 0.00015 0.015801980011793 0.011137474992711 0.00015
          0.015334349753872 0.011547922560075 0.0003 0.015363465895193 0.011114260619116 0.0003
          0.015801980011793 0.011137474992711 0.0003 0.01326617738197 0.0093680808515997 0
          0.012793423392144 0.00921210926252 0 0.012882512800283 0.0087881474090036 0
          0.013365259810227 0.0088714473068585 0 0.01326617738197 0.0093680808515997 0.00015
          0.012793423392144 0.00921210926252 0.00015 0.012882512800283 0.0087881474090036 0.00015
          0.013365259810227 0.0088714473068585 0.00015 0.01326617738197 0.0093680808515997 0.0003
          0.012793423392144 0.00921210926252 0.0003 0.012882512800283 0.0087881474090036 0.0003
          0.013365259810227 0.0088714473068585 0.0003 0.011993243876189 0.010936510200926 0
          0.011726815341297 0.011491075647124 0 0.011222013645511 0.011097826594996 0
          0.011481744371717 0.010688234667639 0 0.011993243876189 0.010936510200926 0.00015
          0.011726815341297 0.011491075647124 0.00015 0.011222013645511 0.011097826594996 0.00015
          0.011481744371717 0.010688234667639 0.00015 0.011993243876189 0.010936510200926 0.0003
          0.011726815341297 0.011491075647124 0.0003 0.011222013645511 0.011097826594996 0.0003
          0.011481744371717 0.010688234667639 0.0003 0.013923252507151 0.0073329122207352 0
          0.013923252507151 0.0073329122207352 0.00015 0.013923252507151 0.0073329122207352 0.0003
          0.013063793506476 0.0098271989985527 0 0.012601634550352 0.009590277262082 0
          0.013063793506476 0.0098271989985527 0.00015 0.012601634550352 0.009590277262082 0.00015
          0.013063793506476 0.0098271989985527 0.0003 0.012601634550352 0.009590277262082 0.0003
          0.014102855237989 0.0047969187863067 0 0.013905759673286 0.0043612537888552 0
          0.014102855237989 0.0047969187863067 0.00015 0.013905759673286 0.0043612537888552 0.00015
          0.014102855237989 0.0047969187863067 0.0003 0.013905759673286 0.0043612537888552 0.0003
          0.012852488428802 0.010265076045094 0 0.012374691983482 0.010000797580735 0
          0.012852488428802 0.010265076045094 0.00015 0.012374691983482 0.010000797580735 0.00015
          0.012852488428802 0.010265076045094 0.0003 0.012374691983482 0.010000797580735 0.0003
          0.011668611956603 0.010219239111219 0 0.012182731119778 0.010462377133106 0
          0.011668611956603 0.010219239111219 0.00015 0.012182731119778 0.010462377133106 0.00015
          0.011668611956603 0.010219239111219 0.0003 0.012182731119778 0.010462377133106 0.0003
          0.011158560753842 0.010029990414111 0 0.011017968815575 0.010465683342369 0
          0.011158560753842 0.010029990414111 0.00015 0.011017968815575 0.010465683342369 0.00015
          0.011158560753842 0.010029990414111 0.0003 0.011017968815575 0.010465683342369 0.0003
          0.014820390261339 0.0080402105998384 0 0.014820390261339 0.0080402105998384 0.00015
          0.014820390261339 0.0080402105998384 0.0003 0.015228397699353 0.0072512250897894 0
          0.015228397699353 0.0072512250897894 0.00015 0.015228397699353 0.0072512250897894 0.0003
          0.0130361735465 0.011522072885309 0 0.012689359184487 0.011761634268536 0
          0.012340499111532 0.011632501505239 0 0.012497431968462 0.011183651982421 0
          0.0130361735465 0.011522072885309 0.00015 0.012689359184487 0.011761634268536 0.00015
          0.012340499111532 0.011632501505239 0.00015 0.012497431968462 0.011183651982421 0.00015
          0.0130361735465 0.011522072885309 0.0003 0.012689359184487 0.011761634268536 0.0003
          0.012340499111532 0.011632501505239 0.0003 0.012497431968462 0.011183651982421 0.0003
          0.013528941600065 0.0052742966774397 0 0.014027103455945 0.0053875982273864 0
          0.013528941600065 0.0052742966774397 0.00015 0.014027103455945 0.0053875982273864 0.00015
          0.013528941600065 0.0052742966774397 0.0003 0.014027103455945 0.0053875982273864 0.0003
          0.010128205128219 0.013 0 0.010310686327751 0.012539165738252 0
          0.010788384596096 0.012564579045747 0 0.01064102564104 0.013 0
          0.010128205128219 0.013 0.00015 0.010310686327751 0.012539165738252 0.00015
          0.010788384596096 0.012564579045747 0.00015 0.01064102564104 0.013 0.00015
          0.010128205128219 0.013 0.0003 0.010310686327751 0.012539165738252 0.0003
          0.010788384596096 0.012564579045747 0.0003 0.01064102564104 0.013 0.0003
          0.010783127360108 0.010836567412064 0 0.010385522435479 0.010608007769118 0
          0.010601303654319 0.010290632654442 0 0.010783127360108 0.010836567412064 0.00015
          0.010385522435479 0.010608007769118 0.00015 0.010601303654319 0.010290632654442 0.00015
          0.010783127360108 0.010836567412064 0.0003 0.010385522435479 0.010608007769118 0.0003
          0.010601303654319 0.010290632654442 0.0003 0.011818930007254 0.009602160287834 0
          0.011818930007254 0.009602160287834 0.00015 0.011818930007254 0.009602160287834 0.0003
          0.015715008716269 0.0090308288850156 0 0.01610853428864 0.0093166480881369 0
          0.015715008716269 0.0090308288850156 0.00015 0.01610853428864 0.0093166480881369 0.00015
          0.015715008716269 0.0090308288850156 0.0003 0.01610853428864 0.0093166480881369 0.0003
          0.013952831965685 0.0095243725467762 0 0.013572358856734 0.010071658883703 0
          0.013952831965685 0.0095243725467762 0.00015 0.013572358856734 0.010071658883703 0.00015
          0.013952831965685 0.0095243725467762 0.0003 0.013572358856734 0.010071658883703 0.0003
          0.012677817340078 0.010719835797972 0 0.012677817340078 0.010719835797972 0.00015
          0.012677817340078 0.010719835797972 0.0003 0.014678664229456 0.0074733115324236 0
          0.014678664229456 0.0074733115324236 0.00015 0.014678664229456 0.0074733115324236 0.0003
          0.012261506677236 0.0092701804285872 0 0.012499922412859 0.0090879994978671 0
          0.012261506677236 0.0092701804285872 0.00015 0.012499922412859 0.0090879994978671 0.00015
          0.012261506677236 0.0092701804285872 0.0003 0.012499922412859 0.0090879994978671 0.0003
          0.011270478587413 0.012561768236337 0 0.011153846153863 0.013 0
          0.011270478587413 0.012561768236337 0.00015 0.011153846153863 0.013 0.00015
          0.011270478587413 0.012561768236337 0.0003 0.011153846153863 0.013 0.0003
          0.012179487179506 0.013 0 0.012692307692328 0.013 0
          0.012179487179506 0.013 0.00015 0.012692307692328 0.013 0.00015
          0.012179487179506 0.013 0.0003 0.012692307692328 0.013 0.0003
          0.013205128205151 0.013 0 0.013721380024409 0.012538570920528 0
          0.013717948717973 0.013 0 0.013205128205151 0.013 0.00015
          0.013721380024409 0.012538570920528 0.00015 0.013717948717973 0.013 0.00015
          0.013205128205151 0.013 0.0003 0.013721380024409 0.012538570920528 0.0003
          0.013717948717973 0.013 0.0003 0.013680323008888 0.01206206640945 0
          0.0136362676363 0.011582155921186 0 0.013680323008888 0.01206206640945 0.00015
          0.0136362676363 0.011582155921186 0.00015 0.013680323008888 0.01206206640945 0.0003
          0.0136362676363 0.011582155921186 0.0003 0.011306940297591 0.012129646322267 0
          0.011212076662234 0.01173976422044 0 0.011306940297591 0.012129646322267 0.00015
          0.011212076662234 0.01173976422044 0.00015 0.011306940297591 0.012129646322267 0.0003
          0.011212076662234 0.01173976422044 0.0003 0.014247558447628 0.012512499343239 0
          0.014230769230793 0.013 0 0.014247558447628 0.012512499343239 0.00015
          0.014230769230793 0.013 0.00015 0.014247558447628 0.012512499343239 0.0003
          0.014230769230793 0.013 0.0003 0.010925822172272 0.011428925131881 0
          0.010925822172272 0.011428925131881 0.00015 0.010925822172272 0.011428925131881 0.0003
          0.017598702187272 0.012594388856786 0 0.018138509806267 0.012585421267124 0
          0.018333333333352 0.013 0 0.017820512820533 0.013 0
          0.017598702187272 0.012594388856786 0.00015 0.018138509806267 0.012585421267124 0.00015
          0.018333333333352 0.013 0.00015 0.017820512820533 0.013 0.00015
          0.017598702187272 0.012594388856786 0.0003 0.018138509806267 0.012585421267124 0.0003
          0.018333333333352 0.013 0.0003 0.017820512820533 0.013 0.0003
          0.01884615384617 0.013 0 0.018647619061649 0.012577247456601 0
          0.01884615384617 0.013 0.00015 0.018647619061649 0.012577247456601 0.00015
          0.01884615384617 0.013 0.0003 0.018647619061649 0.012577247456601 0.0003
          0.010939820280367 0.01187760398484 0 0.010939820280367 0.01187760398484 0.00015
          0.010939820280367 0.01187760398484 0.0003 0.014743589743616 0.013 0
          0.014743589743616 0.013 0.00015 0.014743589743616 0.013 0.0003
          0.013168261777023 0.010955167755454 0 0.013168261777023 0.010955167755454 0.00015
          0.013168261777023 0.010955167755454 0.0003 0.011620435633551 0.0089440866322713 0
          0.011620435633551 0.0089440866322713 0.00015 0.011620435633551 0.0089440866322713 0.0003
          0.01333281098878 0.010501143990949 0 0.01333281098878 0.010501143990949 0.00015
          0.01333281098878 0.010501143990949 0.0003 0.013640766026071 0.011115210745046 0
          0.014063261910082 0.011165191959691 0 0.013640766026071 0.011115210745046 0.00015
          0.014063261910082 0.011165191959691 0.00015 0.013640766026071 0.011115210745046 0.0003
          0.014063261910082 0.011165191959691 0.0003 0.013761635093034 0.010714997264381 0
          0.013761635093034 0.010714997264381 0.00015 0.013761635093034 0.010714997264381 0.0003
          0.01790845301636 0.0090613468730877 0 0.01790845301636 0.0090613468730877 0.00015
          0.01790845301636 0.0090613468730877 0.0003 0.010691300612525 0.0099168298135774 0
          0.010691300612525 0.0099168298135774 0.00015 0.010691300612525 0.0099168298135774 0.0003
          0.014509683505008 0.0050450954358061 0 0.014509683505008 0.0050450954358061 0.00015
          0.014509683505008 0.0050450954358061 0.0003 0.012373637985884 0.0077974643404521 0
          0.012419274731686 0.0083019280664676 0 0.012373637985884 0.0077974643404521 0.00015
          0.012419274731686 0.0083019280664676 0.00015 0.012373637985884 0.0077974643404521 0.0003
          0.012419274731686 0.0083019280664676 0.0003 0.014523119140279 0.0054383897453177 0
          0.014523119140279 0.0054383897453177 0.00015 0.014523119140279 0.0054383897453177 0.0003
          0.012468015808598 0.0087643938641043 0 0.012468015808598 0.0087643938641043 0.00015
          0.012468015808598 0.0087643938641043 0.0003 0.014041697947841 0.010862771985015 0
          0.014041697947841 0.010862771985015 0.00015 0.014041697947841 0.010862771985015 0.0003
          0.012067821946234 0.0088387705315247 0 0.012067821946234 0.0088387705315247 0.00015
          0.012067821946234 0.0088387705315247 0.0003 0.018063704813091 0.0075049932447581 0
          0.018063704813091 0.0075049932447581 0.00015 0.018063704813091 0.0075049932447581 0.0003
          0.01801805728244 0.008218173104411 0 0.01801805728244 0.008218173104411 0.00015
          0.01801805728244 0.008218173104411 0.0003 0.019162849649621 0.012571706415164 0
          0.019358974358988 0.013 0 0.019162849649621 0.012571706415164 0.00015
          0.019358974358988 0.013 0.00015 0.019162849649621 0.012571706415164 0.0003
          0.019358974358988 0.013 0.0003 0.015469042768348 0.012527612124711 0
          0.015256410256436 0.013 0 0.015469042768348 0.012527612124711 0.00015
          0.015256410256436 0.013 0.00015 0.015469042768348 0.012527612124711 0.0003
          0.015256410256436 0.013 0.0003 0.017482035345823 0.012218317378284 0
          0.017482035345823 0.012218317378284 0.00015 0.017482035345823 0.012218317378284 0.0003
          0.011666666666685 0.013 0 0.011666666666685 0.013 0.00015
          0.011666666666685 0.013 0.0003 0.013552812333296 0.0042895499786344 0
          0.013552812333296 0.0042895499786344 0.00015 0.013552812333296 0.0042895499786344 0.0003
          0.019003973493589 0.012129001566083 0 0.018491681451249 0.012137078785851 0
          0.019003973493589 0.012129001566083 0.00015 0.018491681451249 0.012137078785851 0.00015
          0.019003973493589 0.012129001566083 0.0003 0.018491681451249 0.012137078785851 0.0003
          0.016282051282076 0.013 0 0.016335894010033 0.012686725241599 0
          0.016794871794894 0.013 0 0.016282051282076 0.013 0.00015
          0.016335894010033 0.012686725241599 0.00015 0.016794871794894 0.013 0.00015
          0.016282051282076 0.013 0.0003 0.016335894010033 0.012686725241599 0.0003
          0.016794871794894 0.013 0.0003 0.017307692307713 0.013 0
          0.017281329535555 0.012689387511733 0 0.017307692307713 0.013 0.00015
          0.017281329535555 0.012689387511733 0.00015 0.017307692307713 0.013 0.0003
          0.017281329535555 0.012689387511733 0.0003 0.017996855365792 0.012159940978259 0
          0.017996855365792 0.012159940978259 0.00015 0.017996855365792 0.012159940978259 0.0003
          0.016023960213719 0.012601258532672 0 0.016023960213719 0.012601258532672 0.00015
          0.016023960213719 0.012601258532672 0.0003 0.015769230769256 0.013 0
          0.015769230769256 0.013 0.00015 0.015769230769256 0.013 0.0003
          0.013549428097692 0.0047645614477775 0 0.013549428097692 0.0047645614477775 0.00015
          0.013549428097692 0.0047645614477775 0.0003 0.010881954871342 0.01216105032025 0
          0.010881954871342 0.01216105032025 0.00015 0.010881954871342 0.01216105032025 0.0003
          0.010057653370411 0.0084974472595183 0 0.01054988842507 0.0084422245958245 0
          0.010057653370411 0.0084974472595183 0.00015 0.01054988842507 0.0084422245958245 0.00015
          0.010057653370411 0.0084974472595183 0.0003 0.01054988842507 0.0084422245958245 0.0003
          0.015535554193674 0.0045828394817383 0 0.015535554193674 0.0045828394817383 0.00015
          0.015535554193674 0.0045828394817383 0.0003 0.011832021157187 0.0073476785459853 0
          0.011779780861271 0.0068646395959748 0 0.012243708910156 0.0068324173193727 0
          0.011832021157187 0.0073476785459853 0.00015 0.011779780861271 0.0068646395959748 0.00015
          0.012243708910156 0.0068324173193727 0.00015 0.011832021157187 0.0073476785459853 0.0003
          0.011779780861271 0.0068646395959748 0.0003 0.012243708910156 0.0068324173193727 0.0003
          0.019357361519954 0.01157618305141 0 0.01884046117173 0.011223113854601 0
          0.019357361519954 0.01157618305141 0.00015 0.01884046117173 0.011223113854601 0.00015
          0.019357361519954 0.01157618305141 0.0003 0.01884046117173 0.011223113854601 0.0003
          0.014554004584986 0.0044253882271801 0 0.015005639561329 0.0040763460944633 0
          0.014554004584986 0.0044253882271801 0.00015 0.015005639561329 0.0040763460944633 0.00015
          0.014554004584986 0.0044253882271801 0.0003 0.015005639561329 0.0040763460944633 0.0003
          0.018384253973557 0.010894663204421 0 0.018384253973557 0.010894663204421 0.00015
          0.018384253973557 0.010894663204421 0.0003 0.017413401850906 0.0060417176080878 0
          0.018057579772584 0.0060827128421873 0 0.018070157245618 0.0068021820766994 0
          0.017413401850906 0.0060417176080878 0.00015 0.018057579772584 0.0060827128421873 0.00015
          0.018070157245618 0.0068021820766994 0.00015 0.017413401850906 0.0060417176080878 0.0003
          0.018057579772584 0.0060827128421873 0.0003 0.018070157245618 0.0068021820766994 0.0003
          0.016291762387835 0.0047307906783276 0 0.016291762387835 0.0047307906783276 0.00015
          0.016291762387835 0.0047307906783276 0.0003 0.012879713087233 0.0060908484912964 0
          0.012982043505355 0.0056371881930815 0 0.012879713087233 0.0060908484912964 0.00015
          0.012982043505355 0.0056371881930815 0.00015 0.012879713087233 0.0060908484912964 0.0003
          0.012982043505355 0.0056371881930815 0.0003 0.01678493258985 0.0053840721103251 0
          0.016848637368385 0.0048798435935376 0 0.01678493258985 0.0053840721103251 0.00015
          0.016848637368385 0.0048798435935376 0.00015 0.01678493258985 0.0053840721103251 0.0003
          0.016848637368385 0.0048798435935376 0.0003 0.012723582323863 0.006509831652106 0
          0.012723582323863 0.006509831652106 0.00015 0.012723582323863 0.006509831652106 0.0003
          0.014128459199836 0.0039835282877348 0 0.014128459199836 0.0039835282877348 0.00015
          0.014128459199836 0.0039835282877348 0.0003 0.018817000838468 0.010560792840001 0
          0.018817000838468 0.010560792840001 0.00015 0.018817000838468 0.010560792840001 0.0003
          0.011043213382792 0.0084269911709333 0 0.011043213382792 0.0084269911709333 0.00015
          0.011043213382792 0.0084269911709333 0.0003 0.011511795106494 0.0083968566041475 0
          0.011511795106494 0.0083968566041475 0.00015 0.011511795106494 0.0083968566041475 0.0003
          0.017341722495578 0.0054175123203669 0 0.017341722495578 0.0054175123203669 0.00015
          0.017341722495578 0.0054175123203669 0.0003 0.01196380743939 0.0083394019710021 0
          0.011894488312007 0.0078344841271679 0 0.01196380743939 0.0083394019710021 0.00015
          0.011894488312007 0.0078344841271679 0.00015 0.01196380743939 0.0083394019710021 0.0003
          0.011894488312007 0.0078344841271679 0.0003 0.018719100515555 0.0096191331103102 0
          0.018769006148643 0.010016813571171 0 0.018719100515555 0.0096191331103102 0.00015
          0.018769006148643 0.010016813571171 0.00015 0.018719100515555 0.0096191331103102 0.0003
          0.018769006148643 0.010016813571171 0.0003 0.019142781766586 0.010156284019367 0
          0.019142781766586 0.010156284019367 0.00015 0.019142781766586 0.010156284019367 0.0003
          0.019871794871807 0.013 0 0.019671681078705 0.012567114388191 0
          0.019871794871807 0.013 0.00015 0.019671681078705 0.012567114388191 0.00015
          0.019871794871807 0.013 0.0003 0.019671681078705 0.012567114388191 0.0003
          0.013590285783394 0.0038446716816234 0 0.013590285783394 0.0038446716816234 0.00015
          0.013590285783394 0.0038446716816234 0.0003 0.018696511924608 0.0075816988835645 0
          0.018734278863615 0.0068564365277259 0 0.018696511924608 0.0075816988835645 0.00015
          0.018734278863615 0.0068564365277259 0.00015 0.018696511924608 0.0075816988835645 0.0003
          0.018734278863615 0.0068564365277259 0.0003 0.013091675611077 0.0041736873632184 0
          0.013121586466294 0.0036708577033715 0 0.013091675611077 0.0041736873632184 0.00015
          0.013121586466294 0.0036708577033715 0.00015 0.013091675611077 0.0041736873632184 0.0003
          0.013121586466294 0.0036708577033715 0.0003 0.019497075330812 0.012129782091497 0
          0.019497075330812 0.012129782091497 0.00015 0.019497075330812 0.012129782091497 0.0003
          0.012592651705639 0.0068198098450163 0 0.012592651705639 0.0068198098450163 0.00015
          0.012592651705639 0.0068198098450163 0.0003 0.018655444813331 0.0089912542068827 0
          0.018655444813331 0.0089912542068827 0.00015 0.018655444813331 0.0089912542068827 0.0003
          0.018643245907353 0.0082916041839039 0 0.018643245907353 0.0082916041839039 0.00015
          0.018643245907353 0.0082916041839039 0.0003 0.013048655853798 0.0051555709380823 0
          0.013048655853798 0.0051555709380823 0.00015 0.013048655853798 0.0051555709380823 0.0003
          0.013084530633285 0.0046685927017207 0 0.013084530633285 0.0046685927017207 0.00015
          0.013084530633285 0.0046685927017207 0.0003
          <InformationKey name="L2_NORM_RANGE" location="vtkDataArray" length="2">
            <Value index="0">
              0.013166738444
            </Value>
            <Value index="1">
              0.023748225859
            </Value>
          </InformationKey>
        </DataArray>
      </Points>
      <Cells>
        <DataArray type="Int64" Name="connectivity" format="ascii" RangeMin="0" RangeMax="794">
          0 1 2 3 4 5
          6 7 4 5 6 7
          8 9 10 11 12 13
          14 15 16 17 18 19
          16 17 18 19 20 21
          22 23 666 667 14 24
          668 669 18 25 668 669
          18 25 670 671 22 26
          24 14 13 27 25 18
          17 28 25 18 17 28
          26 22 21 29 30 31
          3 2 32 33 7 6
          32 33 7 6 34 35
          11 10 36 37 38 39
          40 41 42 43 40 41
          42 43 44 45 46 47
          48 49 50 51 52 53
          54 55 52 53 54 55
          56 57 58 59 60 61
          62 63 64 65 66 67
          64 65 66 67 68 69
          70 71 72 73 672 74
          75 76 673 77 75 76
          673 77 78 79 674 80
          81 82 83 84 85 86
          87 88 85 86 87 88
          89 90 91 92 93 675
          676 677 94 678 679 680
          94 678 679 680 95 681
          682 683 2 96 97 30
          6 98 99 32 6 98
          99 32 10 100 101 34
          102 103 0 104 105 106
          4 107 105 106 4 107
          108 109 8 110 111 112
          113 114 115 116 117 118
          115 116 117 118 119 120
          121 122 123 124 50 125
          126 127 54 128 126 127
          54 128 129 130 58 131
          132 133 134 51 135 136
          137 55 135 136 137 55
          138 139 140 59 141 142
          143 144 145 146 147 148
          145 146 147 148 149 150
          151 152 112 141 144 113
          116 145 148 117 116 145
          148 117 120 149 152 121
          84 83 153 154 88 87
          155 156 88 87 155 156
          92 91 157 158 159 160
          161 38 162 163 164 42
          162 163 164 42 165 166
          167 46 168 169 170 171
          172 173 174 175 172 173
          174 175 176 177 178 179
          684 180 181 685 686 182
          183 687 686 182 183 687
          688 184 185 689 186 104
          0 187 188 107 4 189
          188 107 4 189 190 110
          8 191 690 691 672 73
          692 693 673 76 692 693
          673 76 694 695 674 79
          198 199 200 201 202 203
          204 205 202 203 204 205
          206 207 208 209 210 72
          74 211 212 75 77 213
          212 75 77 213 214 78
          80 215 216 82 81 217
          218 86 85 219 218 86
          85 219 220 90 89 221
          222 216 217 223 224 218
          219 225 224 218 219 225
          226 220 221 227 171 39
          38 161 175 43 42 164
          175 43 42 164 179 47
          46 167 228 696 685 181
          229 697 687 183 229 697
          687 183 230 698 689 185
          231 699 700 701 232 702
          703 704 232 702 703 704
          233 705 706 707 31 30
          201 200 33 32 205 204
          33 32 205 204 35 34
          209 208 234 235 236 237
          238 239 240 241 238 239
          240 241 242 243 244 245
          36 246 247 248 40 249
          250 251 40 249 250 251
          44 252 253 254 83 255
          256 153 87 257 258 155
          87 257 258 155 91 259
          260 157 235 699 231 236
          239 702 232 240 239 702
          232 240 243 705 233 244
          168 171 161 261 172 175
          164 262 172 175 164 262
          176 179 167 263 171 170
          36 39 175 174 40 43
          175 174 40 43 179 178
          44 47 264 265 266 267
          268 269 270 271 268 269
          270 271 272 273 274 275
          237 276 211 234 241 277
          213 238 241 277 213 238
          245 278 215 242 279 160
          237 236 280 163 241 240
          280 163 241 240 281 166
          245 244 234 211 74 282
          238 213 77 283 238 213
          77 283 242 215 80 284
          285 228 181 286 287 229
          183 288 287 229 183 288
          289 230 185 290 291 168
          261 292 293 172 262 294
          293 172 262 294 295 176
          263 296 297 298 256 255
          299 300 258 257 299 300
          258 257 301 302 260 259
          303 304 97 96 305 306
          99 98 305 306 99 98
          307 308 101 100 309 247
          114 113 310 250 118 117
          310 250 118 117 311 253
          122 121 304 312 313 97
          306 314 315 99 306 314
          315 99 308 316 317 101
          282 74 672 708 283 77
          673 709 283 77 673 709
          284 80 674 710 318 303
          96 319 320 305 98 321
          320 305 98 321 322 307
          100 323 285 187 0 3
          287 189 4 7 287 189
          4 7 289 191 8 11
          223 711 712 324 225 713
          714 325 225 713 714 325
          227 715 716 326 327 210
          211 276 328 212 213 277
          328 212 213 277 329 214
          215 278 717 282 708 718
          719 283 709 720 719 283
          709 720 721 284 710 722
          276 237 160 159 277 241
          163 162 277 241 163 162
          278 245 166 165 330 318
          319 331 332 320 321 333
          332 320 321 333 334 322
          323 335 324 336 222 223
          325 337 224 225 325 337
          224 225 326 338 226 227
          292 261 279 339 294 262
          280 340 294 262 280 340
          296 263 281 341 342 343
          210 327 344 345 212 328
          344 345 212 328 346 347
          214 329 696 228 31 200
          697 229 33 204 697 229
          33 204 698 230 35 208
          298 348 349 256 300 350
          351 258 300 350 351 258
          302 352 353 260 336 343
          342 222 337 345 344 224
          337 345 344 224 338 347
          346 226 96 2 1 319
          98 6 5 321 98 6
          5 321 100 10 9 323
          103 354 355 356 106 357
          358 359 106 357 358 359
          109 360 361 362 339 279
          236 231 340 280 240 232
          340 280 240 232 341 281
          244 233 363 364 365 366
          367 368 369 370 367 368
          369 370 371 372 373 374
          375 376 377 378 379 380
          381 382 379 380 381 382
          383 384 385 386 169 168
          291 312 173 172 293 314
          173 172 293 314 177 176
          295 316 216 222 342 387
          218 224 344 388 218 224
          344 388 220 226 346 389
          223 217 723 711 225 219
          724 713 225 219 724 713
          227 221 725 715 160 279
          261 161 163 280 262 164
          163 280 262 164 166 281
          263 167 356 355 330 331
          359 358 332 333 359 358
          332 333 362 361 334 335
          363 390 391 364 367 392
          393 368 367 392 393 368
          371 394 395 372 396 397
          726 690 398 399 727 692
          398 399 727 692 400 401
          728 694 390 402 403 391
          392 404 405 393 392 404
          405 393 394 406 407 395
          235 234 282 717 239 238
          283 719 239 238 283 719
          243 242 284 721 313 201
          30 97 315 205 32 99
          315 205 32 99 317 209
          34 101 248 247 309 348
          251 250 310 350 251 250
          310 350 254 253 311 352
          200 199 729 696 204 203
          730 697 204 203 730 697
          208 207 731 698 408 409
          375 378 410 411 379 382
          410 411 379 382 412 413
          383 386 153 256 349 366
          155 258 351 370 155 258
          351 370 157 260 353 374
          414 408 378 415 416 410
          382 417 416 410 382 417
          418 412 386 419 420 248
          348 298 421 251 350 300
          421 251 350 300 422 254
          352 302 423 327 276 159
          424 328 277 162 424 328
          277 162 425 329 278 165
          426 427 428 429 430 431
          432 433 430 431 432 433
          434 435 436 437 336 324
          438 439 337 325 440 441
          337 325 440 441 338 326
          442 443 667 732 15 14
          669 733 19 18 669 733
          19 18 671 734 23 22
          444 445 446 447 448 449
          450 451 448 449 450 451
          452 453 454 455 415 456
          457 458 417 459 460 461
          417 459 460 461 419 462
          463 464 12 465 408 414
          16 466 410 416 16 466
          410 416 20 467 412 418
          465 403 409 408 466 405
          411 410 466 405 411 410
          467 407 413 412 376 375
          429 428 380 379 433 432
          380 379 433 432 384 383
          437 436 114 468 469 111
          118 470 471 115 118 470
          471 115 122 472 473 119
          37 423 159 38 41 424
          162 42 41 424 162 42
          45 425 165 46 474 475
          390 363 476 477 392 367
          476 477 392 367 478 479
          394 371 429 375 409 480
          433 379 411 481 433 379
          411 481 437 383 413 482
          342 483 297 387 344 484
          299 388 344 484 299 388
          346 485 301 389 348 309
          474 349 350 310 476 351
          350 310 476 351 352 311
          478 353 480 409 403 402
          481 411 405 404 481 411
          405 404 482 413 407 406
          266 265 376 428 270 269
          380 432 270 269 380 432
          274 273 384 436 486 487
          364 391 488 489 368 393
          488 489 368 393 490 491
          372 395 447 446 492 493
          451 450 494 495 451 450
          494 495 455 454 496 497
          483 420 298 297 484 421
          300 299 484 421 300 299
          485 422 302 301 498 267
          63 499 500 271 67 501
          500 271 67 501 502 275
          71 503 378 377 456 415
          382 381 459 417 382 381
          459 417 386 385 462 419
          504 62 505 506 507 66
          508 509 507 66 508 509
          510 70 511 512 513 61
          426 514 515 65 430 516
          515 65 430 516 517 69
          434 518 499 63 62 504
          501 67 66 507 501 67
          66 507 503 71 70 510
          474 363 366 349 476 367
          370 351 476 367 370 351
          478 371 374 353 519 520
          376 265 521 522 380 269
          521 522 380 269 523 524
          384 273 506 505 525 526
          509 508 527 528 509 508
          527 528 512 511 529 530
          531 377 376 520 532 381
          380 522 532 381 380 522
          533 385 384 524 534 535
          536 537 538 539 540 541
          538 539 540 541 542 543
          544 545 546 536 535 547
          548 540 539 549 548 540
          539 549 550 544 543 551
          141 330 355 123 145 332
          358 126 145 332 358 126
          149 334 361 129 327 423
          483 342 328 424 484 344
          328 424 484 344 329 425
          485 346 193 531 520 552
          195 532 522 553 195 532
          522 553 197 533 524 554
          134 555 526 525 137 556
          528 527 137 556 528 527
          140 557 530 529 480 558
          426 429 481 559 430 433
          481 559 430 433 482 560
          434 437 391 403 465 486
          393 405 466 488 393 405
          466 488 395 407 467 490
          465 12 15 561 466 16
          19 562 466 16 19 562
          467 20 23 563 402 390
          475 564 404 392 477 565
          404 392 477 565 406 394
          479 566 567 568 49 514
          569 570 53 516 569 570
          53 516 571 572 57 518
          558 567 514 426 559 569
          516 430 559 569 516 430
          560 571 518 434 564 475
          143 573 565 477 147 574
          565 477 147 574 566 479
          151 575 561 15 732 735
          562 19 733 736 562 19
          733 736 563 23 734 737
          228 285 3 31 229 287
          7 33 229 287 7 33
          230 289 11 35 576 198
          201 313 577 202 205 315
          577 202 205 315 578 206
          209 317 356 331 319 1
          359 333 321 5 359 333
          321 5 362 335 323 9
          1 0 103 356 5 4
          106 359 5 4 106 359
          9 8 109 362 558 480
          402 564 559 481 404 565
          559 481 404 565 560 482
          406 566 699 235 717 738
          702 239 719 739 702 239
          719 739 705 243 721 740
          73 582 396 690 76 583
          398 692 76 583 398 692
          79 584 400 694 741 742
          585 586 743 744 587 588
          743 744 587 588 745 746
          589 590 72 210 343 591
          75 212 345 592 75 212
          345 592 78 214 347 593
          439 591 343 336 441 592
          345 337 441 592 345 337
          443 593 347 338 576 313
          312 291 577 315 314 293
          577 315 314 293 578 317
          316 295 469 169 312 304
          471 173 314 306 471 173
          314 306 473 177 316 308
          594 365 364 487 595 369
          368 489 595 369 368 489
          596 373 372 491 591 439
          396 582 592 441 398 583
          592 441 398 583 593 443
          400 584 564 573 567 558
          565 574 569 559 565 574
          569 559 566 575 571 560
          573 597 568 567 574 598
          570 569 574 598 570 569
          575 599 572 571 747 748
          199 198 749 750 203 202
          749 750 203 202 751 752
          207 206 420 483 423 37
          421 484 424 41 421 484
          424 41 422 485 425 45
          600 486 465 561 601 488
          466 562 601 488 466 562
          602 490 467 563 561 735
          741 600 562 736 743 601
          562 736 743 601 563 737
          745 602 37 36 248 420
          41 40 251 421 41 40
          251 421 45 44 254 422
          594 487 486 600 595 489
          488 601 595 489 488 601
          596 491 490 602 468 170
          169 469 470 174 173 471
          470 174 173 471 472 178
          177 473 264 492 519 265
          268 494 521 269 268 494
          521 269 272 496 523 273
          414 579 13 12 416 580
          17 16 416 580 17 16
          418 581 21 20 154 153
          366 365 156 155 370 369
          156 155 370 369 158 157
          374 373 339 231 701 603
          340 232 704 604 340 232
          704 604 341 233 707 605
          591 582 73 72 592 583
          76 75 592 583 76 75
          593 584 79 78 606 292
          339 603 607 294 340 604
          607 294 340 604 608 296
          341 605 547 609 610 546
          549 611 612 548 549 611
          612 548 551 613 614 550
          60 427 426 61 64 431
          430 65 64 431 430 65
          68 435 434 69 576 291
          292 606 577 293 294 607
          577 293 294 607 578 295
          296 608 615 616 555 134
          617 618 556 137 617 618
          556 137 619 620 557 140
          586 594 600 741 588 595
          601 743 588 595 601 743
          590 596 602 745 83 387
          297 255 87 388 299 257
          87 388 299 257 91 389
          301 259 144 143 475 474
          148 147 477 476 148 147
          477 476 152 151 479 478
          111 469 304 303 115 471
          306 305 115 471 306 305
          119 473 308 307 753 729
          199 748 754 730 203 750
          754 730 203 750 755 731
          207 752 505 62 61 513
          508 66 65 515 508 66
          65 515 511 70 69 517
          756 610 609 757 758 612
          611 759 758 612 611 759
          760 614 613 761 216 387
          83 82 218 388 87 86
          218 388 87 86 220 389
          91 90 285 621 186 187
          287 622 188 189 287 622
          188 189 289 623 190 191
          264 624 493 492 268 625
          495 494 268 625 495 494
          272 626 497 496 726 397
          627 762 727 399 628 763
          727 399 628 763 728 401
          629 764 630 631 181 180
          632 633 183 182 632 633
          183 182 634 635 185 184
          586 154 365 594 588 156
          369 595 588 156 369 595
          590 158 373 596 765 603
          701 766 767 604 704 768
          767 604 704 768 769 605
          707 770 636 637 186 638
          639 640 188 641 639 640
          188 641 642 643 190 644
          125 50 49 568 128 54
          53 570 128 54 53 570
          131 58 57 572 645 638
          186 646 647 641 188 648
          647 641 188 648 649 644
          190 650 534 646 186 621
          538 648 188 622 538 648
          188 622 542 650 190 623
          93 585 742 675 94 587
          744 678 94 587 744 678
          95 589 746 681 48 51
          134 525 52 55 137 527
          52 55 137 527 56 59
          140 529 627 771 772 762
          628 773 774 763 628 773
          774 763 629 775 776 764
          630 180 684 777 632 182
          686 778 632 182 686 778
          634 184 688 779 154 586
          585 84 156 588 587 88
          156 588 587 88 158 590
          589 92 651 286 181 631
          652 288 183 633 652 288
          183 633 653 290 185 635
          186 637 654 104 188 640
          655 107 188 640 655 107
          190 643 656 110 474 309
          113 144 476 310 117 148
          476 310 117 148 478 311
          121 152 63 267 266 60
          67 271 270 64 67 271
          270 64 71 275 274 68
          616 615 654 657 618 617
          655 658 618 617 655 658
          620 619 656 659 627 397
          396 660 628 399 398 661
          628 399 398 661 629 401
          400 662 579 414 415 458
          580 416 417 461 580 416
          417 461 581 418 419 464
          651 631 547 535 652 633
          549 539 652 633 549 539
          653 635 551 543 723 217
          81 780 724 219 85 781
          724 219 85 781 725 221
          89 782 663 446 445 192
          664 450 449 194 664 450
          449 194 665 454 453 196
          142 597 573 143 146 598
          574 147 146 598 574 147
          150 599 575 151 783 747
          198 576 784 749 202 577
          784 749 202 577 785 751
          206 578 48 513 514 49
          52 515 516 53 52 515
          516 53 56 517 518 57
          318 330 141 112 320 332
          145 116 320 332 145 116
          322 334 149 120 651 621
          285 286 652 622 287 288
          652 622 287 288 653 623
          289 290 60 266 428 427
          64 270 432 431 64 270
          432 431 68 274 436 435
          354 124 123 355 357 127
          126 358 357 127 126 358
          360 130 129 361 303 318
          112 111 305 320 116 115
          305 320 116 115 307 322
          120 119 630 777 757 609
          632 778 759 611 632 778
          759 611 634 779 761 613
          468 246 36 170 470 249
          40 174 470 249 40 174
          472 252 44 178 615 102
          104 654 617 105 107 655
          617 105 107 655 619 108
          110 656 786 783 576 606
          787 784 577 607 787 784
          577 607 788 785 578 608
          519 492 446 663 521 494
          450 664 521 494 450 664
          523 496 454 665 637 636
          657 654 640 639 658 655
          640 639 658 655 643 642
          659 656 663 192 193 552
          664 194 195 553 664 194
          195 553 665 196 197 554
          789 438 324 712 790 440
          325 714 790 440 325 714
          791 442 326 716 102 133
          354 103 105 136 357 106
          105 136 357 106 108 139
          360 109 646 534 537 645
          648 538 541 647 648 538
          541 647 650 542 545 649
          525 505 513 48 527 508
          515 52 527 508 515 52
          529 511 517 56 660 396
          439 438 661 398 441 440
          661 398 441 440 662 400
          443 442 765 786 606 603
          767 787 607 604 767 787
          607 604 769 788 608 605
          624 264 267 498 625 268
          271 500 625 268 271 500
          626 272 275 502 468 114
          247 246 470 118 250 249
          470 118 250 249 472 122
          253 252 535 534 621 651
          539 538 622 652 539 538
          622 652 543 542 623 653
          93 81 84 585 94 85
          88 587 94 85 88 587
          95 89 92 589 438 789
          792 660 440 790 793 661
          440 790 793 661 442 791
          794 662 124 132 51 50
          127 135 55 54 127 135
          55 54 130 138 59 58
          663 552 520 519 664 553
          522 521 664 553 522 521
          665 554 524 523 609 547
          631 630 611 549 633 632
          611 549 633 632 613 551
          635 634 125 142 141 123
          128 146 145 126 128 146
          145 126 131 150 149 129
          102 615 134 133 105 617
          137 136 105 617 137 136
          108 619 140 139 142 125
          568 597 146 128 570 598
          146 128 570 598 150 131
          572 599 124 354 133 132
          127 357 136 135 127 357
          136 135 130 360 139 138
          660 792 771 627 661 793
          773 628 661 793 773 628
          662 794 775 629 81 93
          677 780 85 94 680 781
          85 94 680 781 89 95
          683 782
        </DataArray>
        <DataArray type="Int64" Name="offsets" format="ascii" RangeMin="8" RangeMax="3632">
          8 16 24 32 40 48
          56 64 72 80 88 96
          104 112 120 128 136 144
          152 160 168 176 184 192
          200 208 216 224 232 240
          248 256 264 272 280 288
          296 304 312 320 328 336
          344 352 360 368 376 384
          392 400 408 416 424 432
          440 448 456 464 472 480
          488 496 504 512 520 528
          536 544 552 560 568 576
          584 592 600 608 616 624
          632 640 648 656 664 672
          680 688 696 704 712 720
          728 736 744 752 760 768
          776 784 792 800 808 816
          824 832 840 848 856 864
          872 880 888 896 904 912
          920 928 936 944 952 960
          968 976 984 992 1000 1008
          1016 1024 1032 1040 1048 1056
          1064 1072 1080 1088 1096 1104
          1112 1120 1128 1136 1144 1152
          1160 1168 1176 1184 1192 1200
          1208 1216 1224 1232 1240 1248
          1256 1264 1272 1280 1288 1296
          1304 1312 1320 1328 1336 1344
          1352 1360 1368 1376 1384 1392
          1400 1408 1416 1424 1432 1440
          1448 1456 1464 1472 1480 1488
          1496 1504 1512 1520 1528 1536
          1544 1552 1560 1568 1576 1584
          1592 1600 1608 1616 1624 1632
          1640 1648 1656 1664 1672 1680
          1688 1696 1704 1712 1720 1728
          1736 1744 1752 1760 1768 1776
          1784 1792 1800 1808 1816 1824
          1832 1840 1848 1856 1864 1872
          1880 1888 1896 1904 1912 1920
          1928 1936 1944 1952 1960 1968
          1976 1984 1992 2000 2008 2016
          2024 2032 2040 2048 2056 2064
          2072 2080 2088 2096 2104 2112
          2120 2128 2136 2144 2152 2160
          2168 2176 2184 2192 2200 2208
          2216 2224 2232 2240 2248 2256
          2264 2272 2280 2288 2296 2304
          2312 2320 2328 2336 2344 2352
          2360 2368 2376 2384 2392 2400
          2408 2416 2424 2432 2440 2448
          2456 2464 2472 2480 2488 2496
          2504 2512 2520 2528 2536 2544
          2552 2560 2568 2576 2584 2592
          2600 2608 2616 2624 2632 2640
          2648 2656 2664 2672 2680 2688
          2696 2704 2712 2720 2728 2736
          2744 2752 2760 2768 2776 2784
          2792 2800 2808 2816 2824 2832
          2840 2848 2856 2864 2872 2880
          2888 2896 2904 2912 2920 2928
          2936 2944 2952 2960 2968 2976
          2984 2992 3000 3008 3016 3024
          3032 3040 3048 3056 3064 3072
          3080 3088 3096 3104 3112 3120
          3128 3136 3144 3152 3160 3168
          3176 3184 3192 3200 3208 3216
          3224 3232 3240 3248 3256 3264
          3272 3280 3288 3296 3304 3312
          3320 3328 3336 3344 3352 3360
          3368 3376 3384 3392 3400 3408
          3416 3424 3432 3440 3448 3456
          3464 3472 3480 3488 3496 3504
          3512 3520 3528 3536 3544 3552
          3560 3568 3576 3584 3592 3600
          3608 3616 3624 3632
        </DataArray>
        <DataArray type="UInt8" Name="types" format="ascii" RangeMin="12" RangeMax="12">
          12 12 12 12 12 12
          12 12 12 12 12 12
          12 12 12 12 12 12
          12 12 12 12 12 12
          12 12 12 12 12 12
          12 12 12 12 12 12
          12 12 12 12 12 12
          12 12 12 12 12 12
          12 12 12 12 12 12
          12 12 12 12 12 12
          12 12 12 12 12 12
          12 12 12 12 12 12
          12 12 12 12 12 12
          12 12 12 12 12 12
          12 12 12 12 12 12
          12 12 12 12 12 12
          12 12 12 12 12 12
          12 12 12 12 12 12
          12 12 12 12 12 12
          12 12 12 12 12 12
          12 12 12 12 12 12
          12 12 12 12 12 12
          12 12 12 12 12 12
          12 12 12 12 12 12
          12 12 12 12 12 12
          12 12 12 12 12 12
          12 12 12 12 12 12
          12 12 12 12 12 12
          12 12 12 12 12 12
          12 12 12 12 12 12
          12 12 12 12 12 12
          12 12 12 12 12 12
          12 12 12 12 12 12
          12 12 12 12 12 12
          12 12 12 12 12 12
          12 12 12 12 12 12
          12 12 12 12 12 12
          12 12 12 12 12 12
          12 12 12 12 12 12
          12 12 12 12 12 12
          12 12 12 12 12 12
          12 12 12 12 12 12
          12 12 12 12 12 12
          12 12 12 12 12 12
          12 12 12 12 12 12
          12 12 12 12 12 12
          12 12 12 12 12 12
          12 12 12 12 12 12
          12 12 12 12 12 12
          12 12 12 12 12 12
          12 12 12 12 12 12
          12 12 12 12 12 12
          12 12 12 12 12 12
          12 12 12 12 12 12
          12 12 12 12 12 12
          12 12 12 12 12 12
          12 12 12 12 12 12
          12 12 12 12 12 12
          12 12 12 12 12 12
          12 12 12 12 12 12
          12 12 12 12 12 12
          12 12 12 12 12 12
          12 12 12 12 12 12
          12 12 12 12 12 12
          12 12 12 12 12 12
          12 12 12 12 12 12
          12 12 12 12 12 12
          12 12 12 12 12 12
          12 12 12 12 12 12
          12 12 12 12 12 12
          12 12 12 12 12 12
          12 12 12 12 12 12
          12 12 12 12 12 12
          12 12 12 12 12 12
          12 12 12 12 12 12
          12 12 12 12
        </DataArray>
      </Cells>
    </Piece>
  </UnstructuredGrid>
</VTKFile>
