<?xml version="1.0"?>
<VTKFile type="UnstructuredGrid" version="0.1" byte_order="LittleEndian" header_type="UInt32" compressor="vtkZLibDataCompressor">
  <UnstructuredGrid>
    <Piece NumberOfPoints="756" NumberOfCells="468">
      <PointData>
        <DataArray type="Int32" Name="libmesh_node_id" format="ascii" RangeMin="120" RangeMax="2168">
          120 121 122 123 124 125
          126 127 128 129 130 131
          132 133 134 135 136 137
          138 139 140 141 142 143
          144 145 146 147 148 149
          150 151 152 153 154 155
          156 157 158 159 160 161
          162 163 164 165 166 167
          168 169 170 171 172 173
          174 175 176 177 178 179
          240 241 242 243 244 245
          246 247 248 249 250 251
          252 253 254 255 256 257
          258 259 260 261 262 263
          264 265 266 267 268 269
          330 331 332 333 334 335
          336 337 338 339 340 341
          342 343 344 345 346 347
          348 349 350 351 352 353
          354 355 356 357 358 359
          420 421 422 423 424 425
          426 427 428 429 430 431
          432 433 434 435 436 437
          438 439 440 441 442 443
          444 445 446 447 448 449
          510 511 512 513 514 515
          516 517 518 519 520 521
          522 523 524 525 526 527
          528 529 530 531 532 533
          534 535 536 537 538 539
          600 601 602 603 604 605
          606 607 608 609 610 611
          612 613 614 615 616 617
          618 619 620 621 622 623
          624 625 626 627 628 629
          690 691 692 693 694 695
          696 697 698 699 700 701
          702 703 704 705 706 707
          708 709 710 711 712 713
          714 715 716 717 718 719
          780 781 782 783 784 785
          786 787 788 789 790 791
          792 793 794 795 796 797
          798 799 800 801 802 803
          804 805 806 807 808 809
          876 877 878 879 880 881
          882 883 884 885 886 887
          888 889 890 891 892 893
          894 895 896 897 898 899
          900 901 902 903 904 905
          906 907 908 909 910 911
          912 913 914 915 916 917
          918 919 920 921 922 923
          924 925 926 927 928 929
          930 931 932 933 934 935
          936 937 938 939 940 941
          942 943 944 945 946 947
          948 949 950 951 952 953
          954 955 956 957 958 959
          960 961 962 963 964 965
          966 967 968 969 970 971
          972 973 974 975 976 977
          978 979 980 981 982 983
          984 985 986 987 988 989
          990 991 992 993 994 995
          996 997 998 999 1000 1001
          1002 1003 1004 1005 1006 1007
          1008 1009 1010 1011 1012 1013
          1014 1015 1016 1017 1018 1019
          1020 1021 1022 1023 1024 1025
          1026 1027 1028 1029 1030 1031
          1032 1033 1034 1035 1036 1037
          1038 1039 1040 1041 1042 1043
          1044 1045 1046 1047 1048 1049
          1050 1051 1052 1053 1054 1055
          1056 1057 1058 1059 1060 1061
          1062 1063 1064 1065 1066 1067
          1068 1069 1070 1071 1072 1073
          1074 1075 1076 1077 1078 1079
          1080 1081 1082 1083 1084 1085
          1086 1087 1088 1089 1090 1091
          1092 1093 1094 1095 1096 1097
          1098 1099 1100 1101 1102 1103
          1104 1105 1106 1107 1108 1109
          1110 1111 1112 1113 1114 1115
          1116 1117 1118 1119 1120 1121
          1122 1123 1124 1125 1126 1127
          1128 1129 1130 1131 1132 1133
          1134 1135 1136 1137 1138 1139
          1140 1141 1142 1143 1144 1145
          1146 1147 1148 1149 1150 1151
          1152 1153 1154 1155 1156 1157
          1158 1159 1160 1161 1162 1163
          1164 1165 1166 1167 1168 1169
          1170 1171 1172 1173 1174 1175
          1176 1177 1178 1179 1180 1181
          1182 1183 1184 1185 1186 1187
          1188 1189 1190 1191 1192 1193
          1194 1195 1196 1197 1198 1199
          1200 1201 1202 1203 1204 1205
          1206 1207 1208 1209 1210 1211
          1212 1213 1214 1215 1216 1217
          1218 1219 1220 1221 1222 1223
          1224 1225 1226 1227 1228 1229
          1230 1231 1232 1233 1234 1235
          1236 1237 1238 1239 1240 1241
          1242 1243 1244 1245 1246 1247
          1248 1249 1250 1251 1252 1253
          1254 1255 1256 1257 1258 1259
          1260 1261 1262 1263 1264 1265
          1266 1267 1268 1269 1270 1271
          1893 1894 1895 1896 1897 1898
          1920 1921 1922 1923 1924 1925
          1947 1948 1949 1974 1975 1976
          2001 2002 2003 2028 2029 2030
          2055 2056 2057 2112 2113 2114
          2115 2116 2117 2124 2125 2126
          2127 2128 2129 2130 2131 2132
          2133 2134 2135 2148 2149 2150
          2151 2152 2153 2164 2166 2168
          1926 1899 1927 1900 1928 1901
          1950 1951 1952 1953 1954 1955
          1977 1978 1979 2004 2005 2006
          2031 2032 2033 2058 2059 2060
          2142 2144 2146 2163 2143 2096
          2165 2145 2100 2167 2147 2104
        </DataArray>
        <DataArray type="Float64" Name="resid_x" format="ascii" RangeMin="-19.826056354029237" RangeMax="3.9494595827981676">
          -0.03710730664818351 -7.647367335289888 -0.1936806266595017 -15.399468573119767 -0.15284897324913604 -7.834829799443925
          0.1300643701816493 -7.99007676308771 -0.07111752404811167 -16.096461194276984 -0.18697076439456062 -8.23905158301913
          -0.06829783214538843 -8.284776807774035 -0.07846646408335456 -16.850458259287223 -0.025903213360237487 -8.82565722065172
          0.00010379924391124007 -8.543402304197887 0.0006137261749046274 -17.31372784752488 -0.0013250424928319404 -9.21971834668966
          0.0002304131243233698 -8.774808342958828 -0.00046677613223877756 -17.71998470956442 -0.002558791706372965 -9.510792616426805
          -0.000367858844636082 -9.009084070033168 -0.0008450455130972756 -18.089580925823057 -0.0019368163859718734 -9.641807501209717
          -0.0007425802446903162 -9.205073104866845 -0.0012631193085459458 -18.417369757525346 -0.0007990556576560337 -9.590581677076278
          -0.0016769645202989736 -9.45619208967301 -0.0015849443045947709 -18.8453705343517 0.0028294018538019827 -9.355397203033096
          0.00644493290688164 -9.989018413647006 0.011340104195535439 -19.826056354029237 0.011358306787233818 -8.876723339555706
          0.027700035984468463 -6.229965291276491 0.04160156341779209 -12.274458851837768 0.014479928130960523 -4.783142081499799
          -0.18706856528804305 -0.4682311867124809 -0.2820299199441685 -0.18188418549674612 -0.38505197293853044 -0.106373129208019
          -0.017664878133526685 -0.03112249503417619 -0.003916898123357271 0.0011286799023633165 0.002191085727362818 -0.0021765279474639243
          0.0012402974492804475 0.0005960855770377194 -0.004201383484057963 0.0004648629890153799 -0.000210890930121721 -0.0035459032647455757
          -0.0000951329800624734 -0.0004980192961676622 -0.0007048653775907354 -0.0010901076338925009 -0.00047618990041886633 0.005888027308380117
          0.010519205785306518 0.019752330835646426 0.022668786673626595 0.028674022360798856 0.047588986152721224 0.030066283782896108
          -0.31190580251846445 -0.4976762310187093 -0.11300554848325728 -0.1239236756719233 -0.10595097184112579 -0.010859721513029719
          -0.002750659310589043 -0.002928080651048326 -0.0027089701746172423 0.0010513644597409666 0.002218769677942767 -0.0030467393701050227
          -0.00044033218023020737 -0.0012318348763074027 -0.005866785621626569 -0.0009479156010545609 -0.0022517833819639677 -0.005137688127979878
          -0.0011348371702570859 -0.0019854077503858036 -0.0010214080736012932 -0.0012988272471607942 -0.0012165054953099386 0.006755876172898745
          0.012039157947049794 0.023105350362481403 0.028111514208593036 0.030106994627754468 0.056522062033302886 0.04381243244539142
          -0.08312696748726633 -0.07020820734347755 0.0014877720854515886 -0.0023002421539226603 0.0003861565854936799 -0.00040142504390239253
          -0.0032937541131818904 -0.003992685424055509 -0.0034709735136626563 0.001438502137609099 0.0030614251198937126 -0.004815373228619357
          -0.0006843702425536335 -0.0017709742620910518 -0.0073380965275182675 -0.0014100804698520264 -0.0028560680950384665 -0.005664172780021737
          -0.0008955607593117421 -0.0014405115327091877 -0.000336178857680558 0.00021141586592410277 0.0004881861457359804 0.007509984701797201
          0.01150130342733835 0.02183614756891039 0.02733046916836024 0.027118705023514433 0.05299952546468556 0.044581098191834645
          -0.001891026739666124 0.005629241411639896 -0.0014538830722488072 -0.005633587699613862 -0.0052975127222758545 -0.002612247260741718
          -0.0011107362871314308 -0.002674385853270067 -0.006356558146043412 0.0007381143539451074 0.002456265282649639 -0.006729172856799082
          -0.0009150134423938638 -0.002201437917312532 -0.008086709579533391 -0.0015373600834873713 -0.0028587511366620078 -0.00538893778713323
          -0.0001532481364545646 -0.00019920592145350469 0.0007591844046350715 0.0025461733617149207 0.0035081612243121896 0.008065042024094193
          0.009109416693175554 0.016822168274876148 0.02523697260198965 0.01298887875492083 0.02830183099628769 0.037140414885713735
          0.00001008444657646379 0.009452998414760216 -0.004024633174106285 -0.0043422735374427646 -0.004537981258788015 -0.010483997642132259
          0.0001112630952775362 -0.002703650307794625 -0.009960338681354486 -0.00028483887664432217 -0.00028004661950564724 -0.008123648921925408
          -0.0011575424901453246 -0.002647895572330583 -0.008346727229893602 -0.0012520547923617897 -0.0024227434524961566 -0.004475735116140633
          0.0013473615591088617 0.0015151566526503402 0.001725467595180774 0.004538764099783599 0.006574081657043429 0.0084564942295553
          0.008085663622200201 0.014226948889905167 0.023387598374831953 0.0003166529289093667 0.003224144742464685 0.02641645950573457
          0.0014495207507838614 0.004381015301876623 -0.004526585665029614 -0.002328139464975898 -0.0022914719218007917 -0.011087577223144685
          -0.00046157157513349034 -0.0016977721536024504 -0.010362438153912024 -0.001524416333159806 -0.001981060039929261 -0.009498765673269016
          -0.0019013852405009857 -0.0030048858485525187 -0.007397298001730501 -0.0005329580624291452 -0.0018002539999510958 -0.0036512895115992094
          0.003519025628945016 0.004279459600002866 0.002286875704039737 0.004611349323939251 0.00924504736131393 0.009068188893629703
          0.007390132545316064 0.015603007649686695 0.01953629179705363 0.000339510469740012 0.0000021564890071434917 0.017649241972255703
          -0.013481060610772921 -0.024158130240842013 -0.01687325983248389 -0.009481994399436644 -0.012179025182483372 -0.007069229263011678
          -0.004146404234736778 -0.006485590572939515 -0.005614940825432235 -0.0032343598983715083 -0.004527283940183757 -0.009347004895549293
          -0.0029588971643246254 -0.005069605369144803 -0.0052613916909818315 0.0008341591345333299 0.0009694270888331857 -0.0038399558496720054
          0.00537817857082068 0.008351738831522404 0.0033850628510885272 0.0024348379017959942 0.007667095299990656 0.0142446049749827
          0.003023251396766291 0.015088977403255655 0.022217540522551538 0.0004969142193387288 -0.00007710164291130361 0.00946699129014883
          0.005713530001156819 0.008423823994540669 -0.018418548752462627 0.0007612024144556528 -0.0022557495001098715 -0.008992960868078548
          -0.002756570456006191 -0.006178396853053769 -0.007786622185373737 0.0020077603492110185 0.004168575747309333 0.006691207318605397
          0.007135873129680448 0.013553128327173702 0.020261475093784398 -0.003810201140845848 -0.006272097569526736 0.02908044109160368
          -0.008089508940392065 -0.011047076308073223 0.04913826593056658 -0.0024614906622941746 -0.0073301038277233665 0.024196200451161776
          -0.0087970720832856 0.018164322930698695 0.006343956016010767 -0.011434877381077235 -0.011377148317053415 0.039773745213421696
          0.03952434349292543 -0.01817931138341189 -0.0032776314434827883 0.008096820488799839 0.04568285404718281 -0.009995444343905757
          -0.0014328255892979702 -0.0024578176686319807 -0.003056258763206393 -0.004957609955980155 -0.002437497510609732 -0.0026188038257785873
          -0.001427884455395989 -0.0012182333325363656 -0.0016941490968900783 -0.0026713500324551387 -0.0022687678998080663 -0.003840760929851403
          -0.00006925408222421825 -0.000668850022098641 -0.002566649223740572 0.019095230866611246 0.04397422149382424 0.007789774793915183
          0.009261349260479446 0.01871125161945797 0.03716870793482929 -0.002102264626298145 0.00725392155316365 -0.004983219200569211
          -0.0065167308842116745 -0.01691283807599664 -0.005852632229790655 0.01578023263631101 -0.01262071501756179 0.001058535361401436
          0.0029161049424317187 -0.02757578037190833 -0.026274362341849322 -0.003427617892086232 -0.0035251953380919243 0.01556760944234914
          0.004037560245192862 0.005342589729397718 0.007125100998450706 -0.004297633148641067 -0.000039353623940141524 0.006246667090083258
          0.0008700967662509385 -0.008223866567053095 -0.00396519557559194 0.008145420424027883 -0.004723880584492912 0.006830446554172642
          0.008057885104493012 0.008683553319330128 0.0016167417608539125 -0.0004365374649942799 0.003547744839712319 -0.0008563192929503805
          -0.00009858429648806899 -0.0019783699424973378 0.00632486517574915 0.0010692462458334329 -0.0020324370990687513 0.006020936606453642
          0.013619096602638159 0.013543474660269061 0.0066070966534784725 -0.0004113990594905026 0.002258863969406333 -0.0014308547051247178
          0.0035285016483805887 0.006803033207391618 0.00952665566456945 0.005507592700914388 0.007232296935882676 0.005769753490739937
          0.01095440127451508 0.003390153574321819 0.008144280615772437 -0.0025989133820218304 -0.0009562403390684111 0.0012042204379415777
          -0.001760116270562273 -0.005595989122662404 -0.0023612085406112485 0.0014241785344277363 -0.0041296995252010915 -0.004101370022604939
          -0.0016833709152810211 -0.0003572541061759582 -0.0026131086896422906 0.004930087789757676 0.017458346580101702 0.011529289112746977
          -1.7637979766289662 0.007211746159063059 0.019891547439818913 0.013613855046817447 -3.3426402159582724 0.0014385373832519477
          0.0012426003611061276 -0.0022244070619596434 -1.1952975855024501 0.025198547306575447 0.1059509191911171 0.01257963113759808
          0.08993235868944083 -0.014085804439055827 -0.03590311311973926 -0.015467675464297503 0.0024018961721021803 0.027822567309838675
          -0.021381811317738197 -0.03324240401825129 -0.01722685678347302 0.04203186395345798 -0.04401547200046663 -0.006427023030569634
          -0.019165515341529327 0.013897585897014009 -0.028264298384617748 0.13149201058541404 -0.047166660132427984 -0.08830224850595297
          0.053594675664479285 0.14662700880671486 0.007105059065633412 0.006482961001525178 0.6475198537744563 -0.04550034612028919
          0.033560516411757724 0.036057318385914694 0.09916562917596339 0.00004140039012622519 -0.0003401959104349164 -0.0020252255033231595
          -0.0008348773077645547 -0.00004326942265589495 -0.0001335397427214436 -0.003638471019323117 -0.0013312681669914866 -0.0006189616359070366
          0.001494256011944528 -0.0011424575814365373 -0.0003830141410729182 0.003590344751860375 0.0010294878545217268 0.006814321140829804
          0.004797023958541424 0.009859857918383064 0.013796740989889367 0.02455947767374922 0.029651126445737974 0.008902568609516659
          -0.0011764845645241273 0.01007869224391078 -0.007699082390536738 0.0035285255925374126 -0.008400784598629363 -0.004365074264218921
          0.0003160499179231113 -0.0005573488821060124 0.0020186763345978465 -0.004404476126461443 -0.00849279858466423 0.0025353381951080944
          0.000967224992632465 -0.0035801621441069464 0.0012395866072205663 -0.029772771485009286 -0.04053445366649605 -0.8273941045578848
          0.035822530072087855 -0.020900236292901886 -0.03510428407654873 -0.5652410142435453 0.02535235118078727 0.027049797152804422
          0.022991180473087125 -0.07214975323340744 0.03850117322967661 -1.332293751396373 0.007899317826524643 -1.6408276953455783
          -2.62220669907969 0.011248112586163372 -3.072736423847493 -0.9657481542733387 0.0012684187583642537 -1.1072479793139025
          -0.00031896519308585725 0.0038615795221996763 -0.0036723803298684132 -0.0011819756317164032 0.006963782205786737 0.006720947155211432
          0.000522856517401471 -0.011260213028671529 0.0006899262810389217 -0.016430358672264 0.003923667387726926 -0.0020332016152528887
          -0.007871607116537033 -0.0018939213750644255 -0.01605788801086397 -0.0022153519952326783 0.000022416420521476077 0.006047133272424787
          -1.4827345745297427 -0.013055229007359115 -0.017142853978310252 -1.7100475223025464 -2.835080611062041 -0.007790887487987064
          -0.01873064532625815 -3.299993781836161 -1.1882154049533296 0.0011314959886504772 -0.0013003257200281115 -1.3265251901820585
          -0.003048148245602733 -0.01037468668008068 0.0010601859983929707 -0.0016925745756615207 -0.002668600507595542 0.005445595162250183
          0.013269070819440176 0.022675199488001674 0.025432966544941427 0.005695637620234589 0.0022675729752681395 0.00587523590425168
          -0.0014473324304560276 0.0035339366720728016 0.0027902645660664582 -0.007350886439598692 -0.0012456560003180073 -0.005550070643946525
          -0.0033286003382444473 0.014114365980397503 0.008752151228837324 -0.014026381223930573 -0.00630081323854681 -0.02085599403725114
          -0.025145682994235002 0.014063914533137184 0.0029771234738980024 -0.0009661889777085042 0.004800308794853492 -0.0009656864151790234
          0.004879109201001874 0.009188598563563133 0.008931597183648554 -0.000005161469977199573 -0.0008772131041685297 -0.00011942285104132866
          -0.00017569305253913037 -0.0019679120525582863 -0.00042560157049307407 -0.00003857058263025126 -0.0009711124748213191 -0.0002629080020411234
          0.0007383747359896997 0.004932092194275595 -0.0060062832758819296 -0.001991004844646982 0.006469402202677055 -0.010800255574456519
          0.0038336796330602496 -0.004267036879354813 0.0001856859567567204 -0.005469013270630874 -0.0035479486204085253 -1.50711572410844
          -0.0036986108178330146 -0.0011397896420425324 -2.8450613432448293 -0.0026316761449289017 0.0022067172980644867 -1.0436841902656733
          -1.3957208368505354 -2.697666458126965 -1.1089463589590889 -0.00006660788971021674 -0.0005142170413228869 -0.0016105209169705315
          -0.0013300216945891265 -0.00022453459575472352 -0.0011604283001981006 -0.0031034458218390515 -0.002636234797392273 -0.00009910069378455191
          -0.0005522440627424019 -0.001544626049355291 -0.0013142543398788993 -0.010764922573643698 -0.004223987240555116 -0.0071360793634566155
          0.012879355341404025 -0.005625646949778851 0.003667622983347385 -0.001955524262834789 -0.00033746912611768223 -0.003798037551462033
          -0.0006785194453077445 -0.0019027328591735351 -0.00032860161091659984 0.002107862921095327 0.013770742697683275 0.026007500071783873
          0.05177539439490575 0.017146516059047268 -0.007033293577224528 0.45837370900986407 3.9494595827981676 0.4806829547417646
          1.047803653751246 0.0770490271752764 -0.16592428826254002 -0.0023294784146513994 -0.00450280044861652 -0.002212221858312227
          -0.0009743651495593975 -0.0008258446752230642 0.008317293404605852 -2.5561133207186932 -0.12235767593787883 -1.0412554929219722
          -0.06607072248758505 0.016025853488088382 0.014360628820791588 -0.0003691330302382223 -0.001502028702257574 0.0022019963251020958
          -0.005490665429683628 -0.01066002552443801 0.0002294875721685491 -0.000324854260951149 -0.0005036741640458489 0.000002377276107579096
          0.0008706368502424677 0.0020279417236923614 -0.008327343430066803 -0.007835759483530103 -0.01362734437544666 -0.005345108032515977
          -0.0013136212485943717 -0.0032758448416903008 -0.0055767159444722325 -1.1648691946214456 -0.39847327517088216 -0.0570247864558695
          -1.2794352736648291 -2.4714028336660814 -1.0275759552080233 -1.6451693929741409 -3.1650167621160428 -1.1303583148057916
          -0.004928483402780404 -0.00957647411554316 -0.00475434243663958 0.0008916344715278243 0.0009465159081772367 0.000033619471469334417
          0.0001970811421383445 0.0018518838314416364 0.00014991365046279626 -0.0020237922689432253 -0.004421357485899335 -0.00011294037876030671
          -0.006183929943769151 -0.014856064671023184 -0.008624866643047291 -0.0011514519372477494 -0.002318971155677474 0.003931568180383316
          0.0053275813114472825 0.010073974095600846 0.013559468857557988 0.0127716403221374 0.020760941050951942 0.025284347250837946
          -0.0022628419747947603 0.00027328448400609773 0.029346818964179455 -0.00395289218398176 0.0035876092330457965 0.04344722313890337
          -0.0054460894541266125 -0.015900592570886385 0.009440288451879386 -0.00581034520644641 -0.0028696821128182393 -0.008820163769275968
          0.003196909650795471 -0.0026482155722042933 0.005909095297411016 0.052382514572995476 0.07313084435808603 -0.006210250194225608
          -0.005073222200518757 0.09496907634901988 0.1648183068881104 -0.010199194638831122 -0.006528884830434345 0.02169576445852406
          0.07536027561318814 -0.016246967524550238 -0.004700722427163129 -0.008351371946023756 -0.012366894465947686 -0.005911723826257653
          0.011216758506632729 0.003897874675435009 -0.0075225244546117676 -0.01680746415940998 -0.03135804470577375 -0.012958458495593406
          -0.0047415541446085285 0.0010619768922950357 -0.009701056807951858 0.0020050550105299436 0.004143045683472124 0.006639022249218307
          0.00034095349696183774 0.0012277172863619512 0.010555824646264256 0.0017686293401890651 0.0027757167648552183 0.011190915138369562
          0.004595698629572098 0.008411561565626613 0.01679023522721579 -0.001748806363245592 -0.0017919656536413697 0.014528466684139651
          0.003101303465333771 0.023531994729925287 0.029400951858294277 0.00354541683595766 0.009166488697442077 0.0042025628729955855
          -0.03993289076533735 -0.054863695112761235 0.005834284401167622 -0.012626631448605874 -0.08583019543539017 -0.017198807919886594
          -0.025598677766046407 -0.1766477988568278 -0.051139184539220395 -0.01161371515878118 -0.0466287822271334 -0.019633201590167904
        </DataArray>
        <DataArray type="Float64" Name="resid_y" format="ascii" RangeMin="-1.4371611872634253" RangeMax="1.6834422137419844">
          0.012342670571328169 0.01654205136272055 0.02428043116319621 0.012822014275992083 0.01727984307972078 0.0042186817784756955
          0.05562879864958427 0.017795999723585195 0.09511418095904421 0.04429124279883278 0.03663504550253538 0.017307637312354032
          0.01271157630046681 0.006293514480688107 0.02436074539202057 0.011837584562157014 0.006946442744487441 0.0058521137599377715
          -0.00029306526405219885 -0.0007608265119904284 0.000025227482921566513 -0.0016961010689132139 0.00041215221442983396 -0.000900448171006929
          -0.0010511945990907823 -0.0008698315966115533 -0.0010958985641902896 -0.0018902575687850254 -0.002121528778253501 -0.002478996567800318
          -0.0009484454528094766 -0.0007077287650728015 -0.0023529759162579933 -0.002131776104195182 -0.003944431361650402 -0.0028225465983585107
          -0.0008791983986822238 -0.0008684292297740925 -0.0017149869787099203 -0.001913744304088194 -0.004127022629195343 -0.0028372271955822703
          -0.00037850011142331885 -0.0003312076146550491 -0.0008290213702348836 -0.0012989049512582285 -0.0045717406573443364 -0.0032886488028243677
          -0.0033360867385147652 -0.0029311095625949024 -0.0007517510679949102 -0.0027125137257349996 0.0012448154930025934 -0.0004694476728382968
          -0.01051367670161707 -0.00932118755621425 -0.0038071255053406805 -0.007327285631946623 0.002794174472223021 0.000897705515453262
          0.016742055411451337 0.044686548794483326 0.021972316193140683 0.05515900388219597 0.07732581415203842 0.018864405439956815
          0.006792694589258269 0.006773152658243638 -0.0008560171327613303 -0.0016828758140806825 -0.0023059690012790166 -0.0008238222757020741
          -0.0018082777264313565 -0.0022422891972508074 -0.002343777890929044 -0.0016834270885354718 -0.003295624133746178 -0.003874990970250791
          -0.001613877692826171 -0.0029390550120617087 -0.004375320488443302 -0.0016882200900580902 -0.0024425028357735745 -0.0042134017170575855
          -0.0007640843195976244 0.00222971160528318 0.0011780795687218737 0.004565123352187284 0.013288075107795977 0.0028253283231819415
          0.03862117432996991 0.05392925294215111 0.009671754468332877 0.02763208381983978 0.02609964228990752 -0.00048759785798416916
          0.001104325710642562 0.00006713812043034062 -0.0017559188709617701 -0.0007366655074926703 -0.001527216909495326 -0.0014105104139145314
          -0.00008920429843860267 0.0001427779730368145 -0.0012735016976740399 -0.0007966064714709786 -0.0013392576773568754 -0.0024116233595193326
          -0.000841596822902857 -0.001264916926884685 -0.002885064944466942 -0.00003686585408146925 0.0012297444770620336 -0.0011347226337560246
          0.0008597885494736612 0.004872358089421741 0.0011076788474844307 0.0029868974244747215 0.010128105368298113 -0.002327429009589821
          0.013111312589449767 0.009309783873256261 0.0001528908616914848 -0.0023493012364831645 -0.0038613445012324055 0.001107832674417282
          0.000038284765052826186 -0.0020238086806278477 -0.003932243372563607 -0.0013650032589686764 -0.003303144226687947 -0.0032668671155399454
          -0.0003218340038092238 -0.00047111686403526754 -0.001028184078362207 -0.0008418651509685404 -0.0009900128665393526 -0.0014912953266202622
          -0.0004046356827015485 -0.0004758762684739515 -0.0018702668048692916 0.0013862128641007887 0.004081686663826772 0.0009973091421723035
          0.0029999788312871922 0.008175005345025188 0.0012632178420855372 0.0003185895195386701 0.002837292847745476 -0.005601997914072676
          -0.0041946659421130406 -0.0005891121127065413 0.0022722244657562563 0.0017371857663074086 -0.0036212367656821842 0.000981435883811721
          -0.0032640888443202093 -0.008308788586027668 -0.006045950758080631 -0.0022821792753051004 -0.004081324226046151 -0.0022578719765325647
          -0.0007221186785808936 -0.0013076042697915402 -0.0011732710265120426 -0.0007105429558646459 -0.00077999389852626 -0.0007501137931609919
          0.0003542820939215763 0.0008602151874613495 -0.0008545016585284337 0.002314708438728774 0.0057581389704086106 0.0018679777616877336
          0.0059597022543851075 0.012759236962625625 0.0025721610618523183 0.008743272301947713 0.014983228110733549 0.000762709637685488
          -0.006842385699821277 -0.006730157659282088 0.0011438838954344055 -0.0026533630618791743 -0.004487274698493998 -0.0017077259718310256
          -0.00451171916050308 -0.007954247148962285 -0.004357753598517297 -0.002309429090200543 -0.0036118086036461966 -0.001688352763748291
          -0.0010914895543508232 -0.0018915382644599417 -0.0010206906020104461 -0.0005540661807476865 -0.0006473673745628072 -0.0003665668614035748
          0.0013857703626204143 0.0026752432592039993 -0.00003149868653197496 0.0033975420187570826 0.007163652290261183 0.0015901680281258657
          0.0030845478534877457 0.007789918348830915 0.0018121613801977687 0.009227919680117214 0.011828649341891928 0.0017546372145581524
          -0.008378099168784625 -0.012693532077967529 -0.0027093282208077163 -0.010019802830745037 -0.013948183946239898 -0.0045484675268507024
          -0.001816413502803177 -0.0037933864735646416 -0.0022162919565347217 -0.0020964987945748005 -0.0031029484232209664 -0.0017731400672293396
          -0.0009870524892368424 -0.0019817785177803256 -0.0006847576526331917 -0.0005166725936349634 -0.0008479608812795997 -0.0006690046090273571
          0.002807272352522483 0.0053287918816351185 0.0006623466777589231 0.003628708926422669 0.00755695303336866 0.0008223486828549953
          0.0016096758467320504 0.0039009713836035548 -0.0010562309588832974 -0.0013982920988162562 0.0008000644443700855 0.0031647916374221152
          -0.020392169086792478 -0.03463236551864424 -0.012425678791718298 -0.00958201219457322 -0.022512303030298275 -0.012356624299111774
          -0.0010392982270822637 -0.004562819258974171 -0.004628051816435663 -0.0009940566381391623 -0.0007236889995679598 0.001140937476475229
          -0.0022010514939045864 -0.0030193845568439823 -0.0008176124125719164 -0.00037900494985263974 -0.00037643574460100027 -0.0011612615163200668
          0.004559742662095995 0.009070073690407639 0.0018787451225976692 0.005334028092623153 0.010192113036649235 0.0017247865705996707
          -0.0005507841253828971 0.0022969396026447653 -0.004535149206098071 -0.0013237838478984965 -0.0005230604914695514 -0.002181431258141603
          0.004301693390084127 0.001987823064929839 -0.006094827260201052 0.0018902352616401163 0.0038225152726245604 0.0000072774562918098695
          0.0019656695929674006 0.0035776828078696865 -0.0026464117725857883 0.004571748929749542 0.008966063632433574 0.0005158019525550728
          -0.0002443992204277379 0.0007111579071346907 -0.0010775769888777265 0.0054101280514699535 0.008308316394851967 0.0032245468277886102
          0.010992690441191 0.01852552255372686 0.007519589287152795 0.000482641247461002 -0.0008536426188798796 0.0009995264808300153
          0.013388836503622919 -0.008961066967148112 -0.0030516286792769687 0.004168169732815918 0.012412140036305974 -0.0030080913558654387
          0.005328405670095862 0.007545167014374507 0.00019037265150771698 -0.0042685698475161404 0.019347092397889162 0.005749213897279476
          -0.0017803044037179444 -0.0009221975625206729 -0.003769000989882837 -0.0016450818828273699 -0.0022834222942401533 -0.0005040076866320783
          -0.0011989996643151923 -0.00047413854347030135 -0.0006658013843494417 -0.002223265006737217 -0.0012920878913163375 -0.0016188932761888597
          0.0006664598798755729 -0.0008248808771819799 -0.0009872438308149434 -0.010468102860866746 -0.013639025364381663 -0.03030755965242868
          -0.015722154976208325 -0.005367950276876643 -0.003915074938884211 -0.016916311252551136 -0.015205665303261118 0.001228683529638619
          -0.005937833346167487 0.005062908571483921 -0.0014660509033719016 -0.06014608985881953 -0.007805768934347368 0.008890632689452685
          0.01603639115555433 -0.022605502902707908 -0.00429528134085555 0.003053147389445912 -0.001557435021965925 -0.007527879109758828
          0.009994853354083288 0.010878132743403657 0.004116223625973192 -0.007030021499944777 0.009533876805760344 0.01585900712803412
          0.006627642796950897 -0.012567002039339553 0.01531550100752549 0.018325407234392355 0.008126385131386638 -0.01445403679041829
          -0.005202047218691663 -0.0028301837579195466 -0.005823103889939146 -0.004152365968378424 -0.0035662797825196657 0.008922753853544102
          -0.0037599611776154562 -0.010939245839344885 -0.0046313810643259234 0.00959603735805023 -0.011551001155202079 -0.005148562432691572
          -0.0022587733807870602 0.003473875309042737 -0.004617743718905304 0.0012135708894489838 -0.0064144663710546945 0.0065535570576321645
          -0.01167041579375211 0.006532310435589245 -0.0050468342144205924 -0.003132726994528462 0.018622176735706597 -0.005821670571333877
          0.006940943493943003 -0.005751526867612128 -0.011463195518207 -0.0024302698709644122 -0.0023768985254475072 0.0010195676296042289
          0.0008957894558553892 -0.0045321746602235286 -0.004862040713168425 0.00005746569943049229 -0.0030504202977434947 -0.0017153945442509033
          -0.0027445572626288994 -0.0017920681835300878 -0.0064864139892998884 -0.004598973931079952 -0.012762497873078593 -0.02081634791525725
          -0.007463118916714362 -0.0029054624074316554 -0.014197843407079636 -0.019728618408372145 -0.006780401483580001 0.004176444849109725
          -0.0009538859735390703 0.004826178017761082 0.0007341722846426063 -0.019249707638055003 -0.10191450971843585 -0.0022057045725816238
          -0.08645043741907336 -0.006588123481124142 -0.01458695060804005 -0.012553055310927486 0.017838545361361646 -0.008908985883672893
          0.004218760270328026 -0.01996324098696417 0.029941964428885186 -0.011777449076963792 0.004735835346898698 -0.010573565337446189
          0.010626279707002834 -0.001673182904735726 -0.0033353342972328726 0.23994260242011123 0.015393868720241732 0.03960350763245604
          0.040330537735622285 0.2662376580599515 -0.01798902624398635 0.058495823094701416 0.20427090535178455 0.07716955170903184
          -0.03453235149224376 -0.0033336474620503653 0.047665209464573054 -0.00007571166182031991 -0.0004532520277231375 -0.000004621627368590897
          -0.00005048550698116133 -0.0003196878465212688 -0.0006260027114601569 -0.00008169738413746006 -0.0005026594675963773 -0.0003040733367676851
          0.0005795530876341604 0.0007781947142404405 -0.0010521586134537766 -0.002853404007195137 -0.003722044905446635 -0.007046011671929142
          -0.009752580620830648 -0.0037606046674922844 -0.004669907406444046 -0.0041585309400153925 -0.006391658639706199 -0.00991858962696962
          -0.000059080624222829226 -0.0005586353338932204 -0.005025583478126927 -0.0004295596059158968 -0.006083635911568519 0.0071042048777219535
          0.007167035393597421 0.0035453094495588866 0.003553337237085362 0.003084196443039852 0.005874336603344854 0.004607940026482543
          0.005223763683622679 0.010274430115165045 -0.0019932030672487056 -0.01508733580006387 -0.04811122945963067 -1.4371611872634253
          0.046392036876875736 0.00524929978324401 -0.018118548217589903 -0.630126530046962 0.0328056421436917 0.0061345414669494724
          0.005576690542928531 -0.019940434614978964 -0.02850626477442025 -0.00463292184022851 -0.0059473455829170685 -0.005262044154822912
          -0.004320160150111552 -0.0033700607207076683 -0.004823850290487874 0.0020378799518790403 0.002762352992776683 0.0033485307625767124
          -0.0019426011527917102 0.006261527739656825 -0.003979262116784568 0.004111259545765689 0.00021191561348538057 -0.0030952954730874005
          0.000014036078531065588 -0.0012011080405013308 -0.008131308133158877 -0.016004990953913223 0.0005646211332576145 -0.0029923481563307597
          0.0002417093983315688 -0.003177596264785254 -0.005279979464573037 -0.005189621435587544 -0.0016031078138470933 0.002735553423523489
          0.015824508002238412 0.017218021292567665 0.018913405114841075 0.018263131790365678 0.0184581612407773 0.017909849680600415
          0.02135800120721143 0.02196857850059436 0.0009577573449985437 0.0056431088742952 -0.00006198009422209161 -0.0012466476138213237
          -0.0026840693388750503 -0.0013677341979332902 0.009248444095631081 -0.0033400814256384637 0.00640408797384262 0.019010705477308668
          -0.0014104711643378384 0.0034099217605195464 -0.0011884897711875037 -0.0008224673882516464 -0.004297249448278528 -0.012985565740784244
          -0.01649324323717133 -0.004728763703159972 -0.004832060589865406 -0.005425304422147226 -0.009193743116630348 -0.010918746267158552
          -0.014352168306300706 -0.012090246702188862 -0.011342557651943641 -0.013502213776256156 -0.024836415934263112 -0.014877519188205346
          -0.005339807991876 -0.0020611613199324474 0.009266188304660222 -0.006481579687999173 -0.00782196459703477 -0.013009922626309123
          -0.012833511344449766 -0.002717082976498947 -0.0012083517890366657 -0.0002138982596657504 -0.0007925550965986565 -0.00012699233341224685
          -0.0005964713472036256 -0.00156145761620044 -0.00031420820376032443 -0.0003152632349934885 -0.0008415005275873751 -0.00012879305971793056
          0.00048004183016614466 -0.007821518740060984 -0.0009090421284124739 0.0026000182335440547 -0.01668204904487891 -0.006630023881482372
          0.0038219459783521703 -0.013592450476794804 -0.002920357338261126 0.0003957368428705865 0.005153545012864136 0.0026516114467818735
          0.0050861414596091725 0.008440742612739527 0.0033445832419983917 0.00370208944339509 0.006034376431332103 0.002164086451515541
          0.009269375589586445 0.011356585821659965 0.000233032125483517 0.000014802537175581318 -0.00015771256046821086 -0.00042622303219069096
          -0.0004963044827836984 -0.00013405784248439814 -0.0003970816566671864 -0.0008206547773306483 -0.0011459980674755586 -0.00016346532983607664
          -0.00013177164597161228 -0.00026211223783300514 -0.0007030677863785265 -0.00032223686965442144 -0.0028306597763242403 0.008590120168665852
          0.011116430240345032 0.0064320175109363635 0.007612766362184886 -0.0002636111860053053 -0.0006720640040648544 -0.000520782341301193
          -0.001438563086840594 -0.0002584075181712858 -0.0008251189675490961 0.0027854161844854675 -0.017746592168656594 0.005365666323606355
          -0.011042304299338168 -0.008899757364795868 -0.017753353972408847 -0.011229158774063108 1.6834422137419844 -0.1374791518691332
          0.6536191738103695 -0.06171639494396658 0.012845831651165263 -0.0032531609835362713 -0.005914467090068974 -0.002641339861224553
          0.0011625208052794544 0.0011265028546962874 0.0018266082098947756 -1.3149478645855086 0.03830423191571353 -0.5306004742359436
          -0.01561356734400643 -0.03544139080614439 -0.020786438352139558 -0.0018127080770630466 -0.0023847520100964414 -0.0013724556015362044
          -0.004772245340069453 -0.011042793006110621 -0.006056260649568462 -0.0003677882908554818 -0.0008658764352970673 -0.000489605314089616
          -0.009689810691753453 -0.03286220458318623 -0.017144122900671965 0.008665756236119072 0.013403895562662277 0.004552174235133238
          0.0013513558965896344 -0.0014250169023543036 -0.0012040988763415972 0.6581650371213844 0.3166478162354433 -0.01186456998639318
          -0.029338570920412255 -0.05229053470464935 -0.0485934787829739 -0.004907073918772542 -0.008306956901569823 -0.0018094972125479447
          -0.0014486629412563123 -0.002946671482016147 -0.0017083980125652404 -0.00040612199027096826 -0.0006789361775488417 -0.0007294259478662669
          -0.0013796148259754837 -0.003965826047933385 -0.004915142012829554 -0.0023546814180992887 -0.007391418391765825 -0.0061268705282650215
          0.0027812421547114136 0.0071477089527533216 0.00042710652472816024 0.00016757136379319526 0.0024978328257235782 0.0013363011956040172
          -0.0026952496309843865 -0.002507982775383777 -0.0024916547709861736 -0.0014355804526448024 -0.00043837778693001095 -0.0009582180809210028
          -0.010178597369105535 -0.017778099518012125 -0.007088359250185139 -0.0061350415049477025 -0.011011738097549628 -0.002753458734817471
          -0.005817707960034779 -0.00499359247471276 -0.008958023791256153 0.000002710002762307262 -0.0020243491083667964 -0.0036944137279369405
          0.0008609235990235664 -0.0047328357967658385 0.0005654939144871252 -0.022377095732160568 0.006409294087657322 -0.010316730970557852
          -0.013600873017654669 -0.04198067568261982 0.00944013936185753 -0.018087951578043826 -0.00005588020720559417 -0.01650726125464652
          0.0028117005322513267 -0.00910363184660462 0.0029533351566023436 0.005871165200049294 0.007893467578529961 0.0023952803232212827
          -0.00018852652707213036 0.009046569941651317 0.006892878867615526 0.030235767173912187 0.06460436263278735 0.03669534729332333
          -0.002370639856571946 0.0004058338414750784 -0.0043021057927194045 -0.002220709261099185 -0.0036727587645853793 -0.002318907706971962
          -0.004672765503208609 -0.010097197457589413 -0.006072537245047194 -0.006944257971313428 -0.011790814571567276 -0.008330576972055581
          0.004643998604911076 0.011009535968320772 0.005875511949914758 -0.002278657790094618 0.00014733764311469777 0.00026775748699381374
          0.00241544084004075 0.008437303955293629 0.000017575928246138517 0.0040492468918442714 0.018723573496248314 0.0020343366781778727
          -0.03439559011426718 -0.07622664906622267 -0.027180940505106 0.014860727008214114 -0.01778605616327957 0.01460319192681847
          0.026862916104928525 -0.029347319148385148 0.031140216079753813 0.009111040067437293 -0.013348423309900673 0.015827215119782245
        </DataArray>
        <DataArray type="Float64" Name="resid_z" format="ascii" RangeMin="0" RangeMax="0">
          0 0 0 0 0 0
          0 0 0 0 0 0
          0 0 0 0 0 0
          0 0 0 0 0 0
          0 0 0 0 0 0
          0 0 0 0 0 0
          0 0 0 0 0 0
          0 0 0 0 0 0
          0 0 0 0 0 0
          0 0 0 0 0 0
          0 0 0 0 0 0
          0 0 0 0 0 0
          0 0 0 0 0 0
          0 0 0 0 0 0
          0 0 0 0 0 0
          0 0 0 0 0 0
          0 0 0 0 0 0
          0 0 0 0 0 0
          0 0 0 0 0 0
          0 0 0 0 0 0
          0 0 0 0 0 0
          0 0 0 0 0 0
          0 0 0 0 0 0
          0 0 0 0 0 0
          0 0 0 0 0 0
          0 0 0 0 0 0
          0 0 0 0 0 0
          0 0 0 0 0 0
          0 0 0 0 0 0
          0 0 0 0 0 0
          0 0 0 0 0 0
          0 0 0 0 0 0
          0 0 0 0 0 0
          0 0 0 0 0 0
          0 0 0 0 0 0
          0 0 0 0 0 0
          0 0 0 0 0 0
          0 0 0 0 0 0
          0 0 0 0 0 0
          0 0 0 0 0 0
          0 0 0 0 0 0
          0 0 0 0 0 0
          0 0 0 0 0 0
          0 0 0 0 0 0
          0 0 0 0 0 0
          0 0 0 0 0 0
          0 0 0 0 0 0
          0 0 0 0 0 0
          0 0 0 0 0 0
          0 0 0 0 0 0
          0 0 0 0 0 0
          0 0 0 0 0 0
          0 0 0 0 0 0
          0 0 0 0 0 0
          0 0 0 0 0 0
          0 0 0 0 0 0
          0 0 0 0 0 0
          0 0 0 0 0 0
          0 0 0 0 0 0
          0 0 0 0 0 0
          0 0 0 0 0 0
          0 0 0 0 0 0
          0 0 0 0 0 0
          0 0 0 0 0 0
          0 0 0 0 0 0
          0 0 0 0 0 0
          0 0 0 0 0 0
          0 0 0 0 0 0
          0 0 0 0 0 0
          0 0 0 0 0 0
          0 0 0 0 0 0
          0 0 0 0 0 0
          0 0 0 0 0 0
          0 0 0 0 0 0
          0 0 0 0 0 0
          0 0 0 0 0 0
          0 0 0 0 0 0
          0 0 0 0 0 0
          0 0 0 0 0 0
          0 0 0 0 0 0
          0 0 0 0 0 0
          0 0 0 0 0 0
          0 0 0 0 0 0
          0 0 0 0 0 0
          0 0 0 0 0 0
          0 0 0 0 0 0
          0 0 0 0 0 0
          0 0 0 0 0 0
          0 0 0 0 0 0
          0 0 0 0 0 0
          0 0 0 0 0 0
          0 0 0 0 0 0
          0 0 0 0 0 0
          0 0 0 0 0 0
          0 0 0 0 0 0
          0 0 0 0 0 0
          0 0 0 0 0 0
          0 0 0 0 0 0
          0 0 0 0 0 0
          0 0 0 0 0 0
          0 0 0 0 0 0
          0 0 0 0 0 0
          0 0 0 0 0 0
          0 0 0 0 0 0
          0 0 0 0 0 0
          0 0 0 0 0 0
          0 0 0 0 0 0
          0 0 0 0 0 0
          0 0 0 0 0 0
          0 0 0 0 0 0
          0 0 0 0 0 0
          0 0 0 0 0 0
          0 0 0 0 0 0
          0 0 0 0 0 0
          0 0 0 0 0 0
          0 0 0 0 0 0
          0 0 0 0 0 0
          0 0 0 0 0 0
          0 0 0 0 0 0
          0 0 0 0 0 0
          0 0 0 0 0 0
          0 0 0 0 0 0
          0 0 0 0 0 0
          0 0 0 0 0 0
          0 0 0 0 0 0
          0 0 0 0 0 0
        </DataArray>
        <DataArray type="Float64" Name="stress_zz" format="ascii" RangeMin="-112529279.09253997" RangeMax="213249648.63170066">
          10690776.94663981 11364668.92092482 9418431.730354972 10403936.705971908 8146086.5140701365 9443204.491018994
          5939882.8395791575 7373634.328887768 4800343.41796506 6310464.22737765 3660803.9963509627 5247294.125867532
          108569.64420068881 1039033.755267547 -339604.98466830835 453124.75557122636 -787779.6135373057 -132784.24412509438
          -2778367.947232647 -2987240.262784973 -2408212.991596307 -2588637.561519672 -2038058.0359599667 -2190034.860254372
          -2781680.836619272 -3009615.033860323 -2116845.2806327334 -2315243.3955969205 -1452009.7246461953 -1620871.7573335185
          -1845104.852172657 -2096346.0556282066 -1230458.306962177 -1448498.275282414 -615811.7617516967 -800650.4949366215
          -424548.8903039159 -854712.3319855351 -96942.99589321918 -522540.583140927 230662.89851747744 -190368.83429631894
          1745653.0773122215 333775.6510031393 1733645.175339514 141487.40213657607 1721637.2733668066 -50800.8467299872
          4652213.58845923 3680436.827435918 3337232.1765212105 2397929.7501587356 2022250.764583192 1115422.6728815527
          31527144.678866696 11958714.042068025 25296046.302477844 7953838.863899767 19064947.926088996 3948963.6857315097
          8429826.802246608 6551561.194006633 4673295.58576666 2926979.1748250397 1820085.2181639923 713191.2615029444
          -1385721.3368692358 -1449538.15224805 -1513354.9676268643 -2351561.8652131734 -2008186.6645407588 -1664811.4638683444
          -2241794.3143223827 -1644963.8162317974 -1048133.3181412119 -1122193.9412461668 -595351.6975559787 -68509.45386579057
          1005432.2146884273 1325417.7413696267 1645403.268050826 3979752.8090805453 4311956.702526323 4644160.595972099
          5985955.462859695 4771550.979009114 3557146.4951585345 -899538.8108880995 -3824115.109144004 -6748691.4073999105
          4247502.677501814 2612043.4188499013 976584.1601979876 30960.810966657707 -490957.81125677103 -1012876.4334801998
          -2009975.2409310488 -1763570.5759623526 -1517165.9109936566 -2053646.9013942357 -1637174.2923047678 -1220701.6832152992
          -1612226.6320139524 -1076668.0282793164 -541109.4245446803 80878.09379516123 469465.291531845 858052.4892685286
          3078898.0433126763 3372414.612717814 3665931.18212295 5318517.124616901 5953114.465254207 6587711.805891513
          2759662.9339178 1966891.1981801866 1174119.4624425732 -1805211.7846258164 -3289670.2768896795 -4774128.769153545
          -262911.7777895136 -661336.84624509 -1059761.9147006664 -2167985.8416292393 -1863909.886984552 -1559833.9323398652
          -2534864.202956574 -1945705.9793582123 -1356547.7557598501 -2063853.1951133504 -1429890.7121724137 -795928.2292314768
          -929055.7033920165 -437104.36219978315 54846.9789924502 1555851.8920624326 1763273.5749508115 1970695.2578391903
          5062444.227303261 5258594.440123855 5454744.652944448 5819169.020099621 6619772.287471442 7420375.554843263
          -694431.3603209489 -1357546.1101422363 -2020660.8599635246 -5657106.551633963 -7979602.08686634 -10302097.622098716
          -4247863.969626168 -3137699.3473171606 -2027534.7250081538 -4556645.969098747 -3214962.385461654 -1873278.8018245616
          -3807684.5293348967 -2500016.1203862126 -1192347.711437529 -2312802.4295502766 -1361228.454366329 -409654.4791823811
          -193002.43065320374 252198.9496278388 697400.3299088812 2957077.240816892 2950193.0479226336 2943308.855028375
          6485266.94611421 6447225.34932086 6409183.752527509 6109235.647363599 6617252.365825816 7125269.084288034
          -1342962.1940777428 -2400259.241265412 -3457556.2884530807 -18200142.4030488 -21060090.57173169 -23920038.740414582
          -8753326.995220404 -5826010.413456129 -2898693.8316918537 -7662178.816712626 -4904149.197700594 -2146119.578688562
          -5412645.480017083 -3267141.776350476 -1121638.0726838696 -2623207.540442595 -1357989.149224719 -92770.75800684381
          514448.5438965853 900690.4061889055 1286932.2684812257 4068560.4003590844 3784309.40447175 3500058.408584417
          7430661.0904261675 6925332.5463181045 6420004.002210041 6628082.377096204 6232973.897122168 5837865.417148134
          -1498797.4908545811 -3297607.5620409586 -5096417.633227335 -7643914.712362632 -11804580.904253462 -15965247.09614429
          -12342764.717122875 -8334312.41799083 -4325860.118858784 -9760957.272081036 -6404742.419552067 -3048527.5670230985
          -6353468.009012539 -4008810.4101177626 -1664152.811222986 -2689188.169030753 -1468348.699073707 -247509.229116661
          1176037.560609891 1360748.594707191 1545459.6288044911 4894666.415114077 4255139.697536399 3615612.97995872
          7960675.000509493 6842152.813645663 5723630.626781831 7881106.595334113 6330481.183022025 4779855.770709937
          2210184.782595571 -408893.0926211377 -3027970.967837847 -2100397.0357364058 -4960945.903956067 -7821494.772175731
          -9865241.892390262 -10024640.55438419 -10184039.216378119 -6493248.444766324 -7497973.738946117 -8502699.033125907
          -3266411.2235447355 -4839734.25813348 -6413057.292722223 -131371.0290752313 -1961795.136680757 -3792219.2442862825
          3134932.437738973 1359756.5971271128 -415419.2434847474 5956265.909212829 4657344.171024274 3358422.43283572
          7212896.481568969 6924469.930246521 6636043.378924073 7225070.58733182 8144621.928326005 9064173.269320194
          5237442.87139579 7517781.60904321 9798120.34669063 -2364033.8081451296 2363044.1053708266 7090122.018886782
          -121419.5763285766 -4000668.9779180163 -7879918.379507456 1964299.2622734332 -1412935.4786286056 -4790170.219530644
          4054466.2154901065 1549895.4967134146 -954675.2220632773 5612939.791890394 4445485.451256093 3278031.11062179
          5512023.904126115 6265239.605276888 7018455.306427663 4495633.631110494 7177339.761084179 9859045.891057866
          8463921.765404176 13631200.034317786 18798478.303231396 6313890.299065095 12241011.37191267 18168132.444760244
          166995.01118137315 -31467125.314595666 -20750101.76355256 -1819574.317236558 -4092132.775755723 -29691830.77053558
          -17277561.150551815 -4073852.761382015 -8351260.562692818 -27916536.226475496 -13805020.537551062 -6328131.205527471
          22913860.819687784 17261948.77874763 13807335.55222712 12216767.801886063 4700810.284766458 7171586.825024491
          24286605.517858654 40894702.14678919 51747357.90716662 16045316.79932631 26813441.12877984 40128816.12052548
          7804028.080793965 12732180.110770484 28510274.333884336 28987236.765834175 14058269.330956448 84323348.06611583
          36076705.822757706 23338323.906623036 11503169.456621386 70765708.73414479 27571083.957154125 17689411.047411893
          8948069.582286324 57208069.40217376 19065462.091550548 23607392.35361939 -26237577.252492644 -33913579.496922724
          -10543937.805007743 18115617.955770917 -18187924.04792217 -19909949.909840018 -3686535.6134500913 12623843.557922449
          -10138270.8433517 -5906320.322757309 3170866.578107564 8396656.360266306 3511808.699265767 39772530.10866116
          10927774.035164574 8956908.658609426 2285595.2857881812 36330003.3958963 9766178.378555737 9517160.956952542
          1059381.8723105937 32887476.683131438 8604582.721946903 -24007873.25427483 17790352.540090945 -9720648.57219172
          -19603394.46975665 -18157382.471027575 24745387.48335729 -5843211.904742631 -15024290.284276983 -12306891.687780317
          31700422.426623635 -1965775.2372935428 -10445186.098797318 2199603.859363459 -747812.7375893006 8161770.92208691
          -1972063.994078874 14123937.98481036 -3196315.2505684476 31251617.236910153 5612520.898840512 29656426.436557826
          1456746.7835147819 28061235.63620549 -2699027.3318109466 -11883905.980852172 19762815.231949992 26088397.608616214
          -70545576.86927675 -5907021.388108838 12137061.499213513 1948390.1808996536 -52627434.553773426 69863.20463449601
          4511307.766477032 -22191617.246816903 -34709292.238270104 38074492.19796825 50602127.883120894 28767336.469322592
          11685807.253165802 27909808.599800922 42673578.488392256 22052700.03570438 5210875.773068304 17745125.001633596
          34745029.09366361 15338063.602086166 -1264055.7070291962 -68656278.99855934 -21510929.325113494 -65034983.940327734
          -28123375.21937825 -61413688.88209611 -34735821.113643005 -17363745.652831703 -6830207.298710245 91600.02155390964
          -1652699.0214005043 -16056738.32998486 -5051664.761088921 135560.61843302124 -2907231.9236357687 -14749731.007138014
          -3273122.2234675987 179521.2153121326 -4161764.8258710327 154116742.51207525 213249648.63170066 78405799.02062401
          82920468.03977823 95601994.40213174 179036711.95390654 63902984.56988351 48744594.26821563 37087246.29218821
          144823775.27611238 49400170.119143 14568720.496653026 70729204.2146602 59457528.67306328 57725706.766232714
          77298101.42125195 34490775.39124742 24466951.25231604 36975253.2304306 50583680.31658772 -1747653.4321653666
          -10523626.16843121 16224799.6946285 23869259.211923484 17593799.95988061 -17180217.03103779 26747044.380594134
          -9940141.435035076 35900288.80130765 -2700065.839032365 7398933.695938918 5729702.116379778 4060470.536820639
          -34107885.10314709 -49675118.575295985 -21398948.427809834 -42236045.69296112 -8690011.752472576 -34796972.81062627
          -50499940.14332116 -55435774.36448688 -47544444.44767435 -34781211.584079996 -42789623.09483633 -42480883.0708924
          -19062483.024838835 -30143471.82518578 -37417321.69411043 -13827629.43194989 9042977.344708685 18094419.66628797
          11988248.853682378 -35355462.50034651 -23518797.940746598 19618866.386322953 11057247.860336417 -56883295.56874314
          -56080573.22620188 21143313.106357925 10126246.866990456 27866904.754227012 18534700.067456767 33776492.93262587
          20516921.08893487 9244820.227197034 22147644.488242757 13166937.423642721 -45059.61306269956 10518796.04385964
          7412088.810734163 -12151244.998402126 12637085.464108655 -15135354.613314398 17862082.11748315 -18119464.22822667
          -64024299.4250682 -30512803.666230574 -40122950.822766036 -24012381.431992743 -16221602.220463872 -17511959.197754923
          -37146241.82014996 -36299930.48407406 -18287839.532826994 -28738185.805397168 570562.7544959703 -21176441.126720276
          95252687.21919136 110720686.72318177 97465042.11147913 77780205.22080705 83067071.9576501 94974236.56103459
          83251752.4265162 67090581.3211253 70881456.69610885 79227786.3988874 69038462.74155328 56400957.42144355
          -11368951.779142901 10578411.820841724 9456687.402178138 -8731192.286962088 6325065.656436308 3930529.203849041
          -6093432.794781275 2071719.4920308925 -1595628.9944800604 -23760824.118210457 -24143527.06652729 -20280149.338933762
          -16896865.39820625 -16799474.55965707 -9650203.72988521 -1351152.1270159266 1829.3769294889644 592534.9231237464
          1030643.5864509922 2536221.97326342 2059457.7959724925 -28085695.752523717 -27285647.87809161 -24175927.979394525
          -43547532.37501109 -20266160.206265334 -59809416.871930555 -20427936.15550771 -15285732.548697907 -18141004.383934226
          -7509141.432587964 -15854072.612360736 267449.6835219762 49686788.54736477 31137705.87514714 37392449.41163849
          31434288.85228171 20152078.940559153 24095469.694506265 13181789.157198647 9166452.005971164 10798489.97737404
          -5401787.209994443 -5539154.612287832 9698366.83194492 -3505886.16878142 -1202830.3766256464 21293325.537896745
          -1609985.1275683967 3133493.859036539 32888284.24384857 16066144.98470371 25425600.3047432 -7358121.501509622
          9895556.555093857 21415614.72988708 -11396823.088838052 3724968.1254840037 17405629.155030966 -15435524.676166486
          35279595.33001169 30112167.91089983 24944740.491787978 18433976.041865535 15760074.243985917 9580815.101439595
          8778532.007584916 10789739.142662968 9644317.343198344 4975794.900294265 2881170.038843466 3145502.243460399
          3528560.4424107717 370774.6991489361 -3016191.9298979854 60088693.86265717 19325835.07023789 51154772.23927236
          6643637.827902195 42220850.61588757 -6038559.414433506 23492877.629262462 27775847.096752197 15145988.386959484
          17153346.5639614 6799099.144656503 6530846.031170612 83394234.02467509 -5395222.974260384 72376275.47187887
          -11277307.512786245 61358316.91908264 -17159392.05131212 84003621.69528234 -68732026.7879466 75295932.84361905
          -77701643.59287646 66588243.991955794 -86671260.39780632 11637589.551591735 7969435.073583622 4301280.59557551
          -4374041.366663097 -1722412.4863737747 929216.3939155466 60273570.80851893 129951736.06137826 55790094.79172993
          105225103.57003498 51306618.77494089 80498471.0786917 -5577765.326807122 6030672.831014755 17639110.98883664
          -76882920.22936511 -50292464.3027894 -23702008.37621369 65517700.20382334 45605029.5483238 25692358.892824262
          -20812145.75709741 -15090328.116034297 -9368510.474971188 5969102.413531912 2995874.473641665 22646.533751419
          -112529279.09253997 -89871867.04586138 -67214454.99918279 71459173.701037 49626833.65483579 27794493.60863456
          133249091.85480845 116531065.92812683 99813040.0014452 -6763099.195410939 -13703981.68968546 -20644864.183959983
          7057250.773436947 2728611.946586869 -1600026.8802632084 60416815.350948304 23598056.429084655 -13220702.492778996
          2213368.420859351 2242263.6048065545 2271158.7887537587 4395889.118499102 5384863.690654993 6373838.262810882
          3291725.8070052764 3407471.4851481845 3523217.163291093 3854082.33449719 4650061.033940514 5446039.733383835
          3766301.918627807 3941631.914777923 4116961.9109280393 3035193.1374692842 3296817.7662018742 3558442.3949344642
          2070868.8243341062 1621306.0936230086 1171743.3629119112 4061675.440241497 3546564.88920529 3031454.338169083
          6334468.200702644 5768274.994668057 5202081.788633471 -1198376.288483631 -5831032.988971935 -4420223.056474318
          -8480183.35056917 -7642069.824465007 -11129333.712166402 -1092092.2527730726 -215379.55186149187 3622593.8303555697
          -2261195.8007088373 -1548808.7306386079 -638958.8895440539 3908627.85493479 -2659721.518912161 -2005525.208504143
          -1062538.2272266163 4194661.879514011 -3058247.2371154837 4760475.982945387 3325535.711386521 1890595.4398276545
          4497174.88072662 4093492.047584443 3689809.214442265 3255246.512219254 2402577.8924863813 1549909.2727535095
          3421658.0454475274 5190141.594476076 3253792.632029076 4985990.056321831 3085927.2186106252 4781838.518167588
          2373678.3433988094 2801759.23998632 3229840.1365738306 528774.1823048624 389306.2696507658 249838.35699666897
          -338079.6562791858 -448484.34907989064 -558889.0418805958 -3760912.801778147 -5033131.111468454 -6305349.421158763
          -5938614.5218861345 -7721575.793031121 -9504537.064176107 3131579.139374586 2871730.626575823 2611882.1137770605
          7504657.587191653 7674112.596780303 7843567.606368953 1897115.1957913882 2552923.551768207 2571345.246768118
          1698622.716979005 2004716.8228591634 2215226.439611835 1500130.2381666214 1456510.093950119 1859107.6324555518
        </DataArray>
        <DataArray type="Float64" Name="peeq" format="ascii" RangeMin="0" RangeMax="0.08661888119127917">
          0 0 0 0 0 0
          0.0000027233869528956723 0 0.000011037427831930927 0.000004149966282129009 0.00001935146871096618 0.000008299932564258019
          0.00010479041052579884 0.00007262121405491703 0.00014372122187502316 0.00010645256265762292 0.0001826520332242475 0.0001402839112603288
          0.0005496972655473158 0.00047540780084231234 0.0006270134412429553 0.0005517343543806341 0.0007043296169385949 0.0006280609079189558
          0.0016327745589857987 0.0015325374666510603 0.0017351999362555872 0.0016366918730363065 0.0018376253135253752 0.0017408462794215526
          0.0036845842791115883 0.0035732235683890194 0.0037829258690057206 0.003676309371718462 0.003881267458899853 0.003779395175047904
          0.007079352781302012 0.00698320302644383 0.007115816915097565 0.0070241294067435785 0.007152281048893116 0.007065055787043327
          0.01231024567896661 0.012276361587308236 0.01219662066505732 0.012161065746530093 0.01208299565114803 0.01204576990575195
          0.02093605270152661 0.021221253047185654 0.02052635428015185 0.020782089078921453 0.020116655858777095 0.020342925110657252
          0.032491544129855686 0.031816559101851126 0.03162746868311895 0.030989705983084793 0.03076339323638222 0.03016285286431846
          0 0.000003012875710131155 0.00000602575142026231 0.000027759257905823877 0.00005015351623985704 0.0000725477745738902
          0.00021930794415766906 0.0002723572151008934 0.0003254064860441177 0.0007738470179139189 0.0008539458366918963 0.0009340446554698737
          0.0019316723630943286 0.0020284472703686915 0.0021252221776430547 0.004012301699461207 0.0040968780932555075 0.004181454487049808
          0.0073591912729200045 0.007382624383946948 0.007406057494973892 0.012392691643124917 0.012284955918590457 0.012177220194056
          0.02012263531648563 0.019789404456251044 0.01945617359601645 0.028849565986867408 0.028244224311189274 0.027638882635511144
          0.000013830242573024015 0.00003346991931165224 0.00005310959605028047 0.0001185931033032466 0.0001646088542164992 0.0002106246051297518
          0.00045093347263480156 0.0005192719090537104 0.0005876103454726195 0.00115319857972695 0.0012357942099044312 0.0013183898400819123
          0.002423257359328996 0.0025089096864665543 0.002594562013604112 0.0045371586947502065 0.004599863696036741 0.004662568697323277
          0.007788859985096917 0.007792730648222466 0.007796601311348016 0.012476495390650263 0.012378781471454357 0.01228106755225845
          0.0188822511013568 0.018655031329602372 0.018427811557847944 0.025515290675799975 0.025231228299001728 0.02494716592220348
          0.00009242219655090418 0.00013906008626999266 0.00018569797598908113 0.0003214822498318347 0.00038984145303331457 0.00045820065623479456
          0.0008195541054645483 0.0008987727813339681 0.0009779914572033877 0.0016945668985936463 0.0017745862313183398 0.0018546055640430333
          0.003094186124629101 0.003160859772975852 0.0032275334213226026 0.005223476714324992 0.005257411610130786 0.005291346505936583
          0.00830615696135124 0.008288091261241522 0.008270025561131806 0.012487234516048214 0.012403166393591965 0.012319098271135713
          0.017400781771562554 0.017286057749266847 0.017171333726971136 0.020671728318990914 0.020642788817516255 0.020613849316041596
          0.00028369319986250584 0.00034945014178124143 0.00041520708369997703 0.0006633966021447233 0.0007423925217816788 0.0008213884414186341
          0.0013425485810770114 0.0014219754521274182 0.001501402323177825 0.002401312479902039 0.0024657676261268663 0.0025302227723516934
          0.003919474653134666 0.003956247293947388 0.003993019934760108 0.006017051602651471 0.006017487860825479 0.006017924118999485
          0.008828258028612397 0.008791120258749598 0.008753982488886798 0.012346594673370629 0.012283365584871116 0.012220136496371603
          0.015808080512364247 0.01579450669669016 0.015780932881016077 0.01730920670829411 0.017463782530262196 0.017618358352230287
          0.0006158606233760318 0.0006775337897213586 0.0007392069560666854 0.0011742926394612962 0.0012380682135154958 0.0013018437875696957
          0.0020460133452117383 0.0020972370919592675 0.0021484608387067968 0.003269522628477076 0.0032941869706971214 0.0033188513129171664
          0.004860360273350897 0.004853014623917093 0.004845668974483286 0.00684850566626664 0.006814314571092154 0.006780123475917668
          0.009265892251703524 0.009220039755123415 0.009174187258543305 0.011990715314082526 0.011964392759192253 0.011938070204301977
          0.0141037168581318 0.014189799372914418 0.014275881887697035 0.014388104884701481 0.014686505075484474 0.014984905266267466
          0.0011260450585631292 0.0011425332428111716 0.0011590214270592138 0.0018869553684887697 0.0018894396166793939 0.0018919238648700178
          0.0029397443897114612 0.00291986438871909 0.0028999843877267188 0.004278301167654246 0.004232381099711214 0.004186461031768181
          0.005862596775753187 0.005797846459009699 0.005733096142266211 0.007640048967406183 0.007576109928928993 0.007512170890451803
          0.00954001562917859 0.009505793819095318 0.009471572009012047 0.011370621973188617 0.01140917840149162 0.011447734829794623
          0.01230751293760536 0.012503687103412264 0.012699861269219168 0.01171227125992378 0.012113620916322985 0.012514970572722191
          0.001810139619737496 0.0017736361079838136 0.0017371325962301308 0.0027740437186459096 0.002713125250255112 0.0026522067818643144
          0.003974925837275172 0.003890155834377838 0.0038053858314805035 0.0053606226590848715 0.0052596202287376785 0.005158617798390487
          0.006844310574868045 0.006743921763973826 0.006643532953079607 0.00830924867524671 0.00823677819898827 0.008164307722729833
          0.00960238809815501 0.009592660597893227 0.009582933097631445 0.01049898390683946 0.010595619329836253 0.01069225475283305
          0.010469486584914065 0.01072201829585697 0.010974550006799878 0.00938304680359122 0.009770098089852523 0.010157149376113823
          0.004973925646852593 0.004895177866313289 0.004816430085773986 0.006296398934859774 0.006210226460060971 0.006124053985262168
          0.007580625679486924 0.007501485610284955 0.007422345541082987 0.00867499570021124 0.008623220170343969 0.008571444640476702
          0.009387738410106022 0.009387917911846812 0.009388097413587603 0.009482361331956037 0.009562566874943435 0.009642772417930835
          0.008674764244490134 0.008850055167214228 0.00902534608993832 0.007402496080754509 0.007650529843484179 0.007898563606213847
          0 0.00012827318383547048 0.00016863409396398137 0 0.00048596406147489047 0.0014890123846225075
          0.00029487357753081676 0 0.0009719281229497809 0.002849751585409545 0.0004211130610976522 0
          0 0 0.00012114051787522787 0 0.00024228103575045574 0
          0 0 0 0.00027982565640908576 0.00003733473050451098 0.00012099967038415829
          0.0005596513128181715 0.00007466946100902196 0.00024199934076831657 0.043401775362759125 0.039660274963246575 0.05046892192062648
          0.05076749667954662 0.042181426381239416 0.03895855603620378 0.04904001383920229 0.04905068848258706 0.04096107739971971
          0.03825683710916098 0.047611105757778105 0.0473338802856275 0.014600442260096299 0.009173279180741071 0.0073938626402133036
          0.009821395324991114 0.0174264726114422 0.01122546409289849 0.009685365850576347 0.012300307374094073 0.020252502962788105
          0.013277649005055911 0.011976869060939392 0.01477921942319703 0.025547684065189966 0.025490755117833566 0.030686336689503248
          0.029770636651724754 0.025495276695812218 0.025633997022466923 0.030460857312662314 0.029437544147624933 0.025442869326434466
          0.025777238927100276 0.03023537793582138 0.029104451643525108 0.012491750374088343 0.013597198844702944 0.009717418646870696
          0.008188200803991963 0.0132359542693678 0.014187202466752417 0.010325756476851668 0.008898265396201702 0.013980158164647257
          0.01477720608880189 0.010934094306832641 0.00960832998841144 0.007956639314965307 0.010055263332574647 0.008382258458223539
          0.010570515241519352 0.00880787760148177 0.011085767150464058 0.03503222422922773 0.032053262349623475 0.03445281714800389
          0.03190591900261302 0.03387341006678007 0.03175857565560257 0.000007264178620147327 0 0
          0.00035593084216720513 0.0006683594415630955 0.00047844781729246906 0.0005565711305669099 0.0020605592831352275 0.0013294547045060437
          0.0009568956345849381 0.0011131422611338198 0.0037651877241032506 0.03980048021472826 0.03913377256890895 0.04675359589220475
          0.04437889966489192 0.03861485794906307 0.03794732169501605 0.04507647708818665 0.0428882983364726 0.03742923568339786
          0.03676087082112316 0.04339935828416855 0.04139769700805327 0.04102197867123254 0.05467059840537114 0.04036418428134633
          0.05310740878881942 0.03970638989146013 0.05154421917226769 0.0003481166879258057 0.0006572655735890348 0.00013550651833308292
          0.000038551737388123744 0.0004417487319577775 0.0007427303949763975 0.00014594939117138528 0.00004290048789656938 0.0005353807759897493
          0.0008281952163637602 0.00015639226400968764 0.00004724923840501501 0.07417315976160291 0.08658458541310277 0.08137698260232504
          0.06667068696694138 0.07238552652626516 0.08343339563306167 0.0781986219573067 0.06497371419156903 0.07059789329092742
          0.08028220585302057 0.07502026131228837 0.06327674141619666 0 0 0
          0 0.0007713887970630779 0.0007973612367663793 0.0005517357550557048 0.000511488572265624 0.0015427775941261558
          0.0015947224735327586 0.0011034715101114097 0.001022977144531248 0.016334991586035724 0.016483744174892997 0.016872000027037367
          0.01715540307498448 0.01740900846803901 0.017827061975075963 0.035534955129742876 0.03472842480789342 0.03392189448604396
          0.00014417350942185666 0.0005258335165113271 0.002342598554680459 0.004159826028297074 0.004541023599939061 0.0077938185400828214
          0.0036765426300856244 0.003684812164312953 0.0009440683774405041 0.007264986206259927 0.006171883249840809 0.0028439693229921894
          0.01085342978243423 0.008658954335368667 0.004743870268543875 0.02198698770806307 0.020336504105011068 0.035763280376715126
          0.032108830349568046 0.023102556876168474 0.022303824145090117 0.037119005615144654 0.032285312690922996 0.024218126044273872
          0.024271144185169163 0.03847473085357418 0.03246179503227795 0.05034759956330517 0.05315966241834539 0.056876629686672786
          0.04835244746683181 0.05106127604449756 0.05438983834371989 0.046357295370358445 0.04896288967064974 0.05190304700076701
          0.007107887536201183 0.012631489829460555 0.007564188680587608 0.013124175243891836 0.008020489824974034 0.01361686065832312
          0.0062370609379589804 0.0074738979877426006 0.007514186856740137 0.009098908465095173 0.008791312775521294 0.010723918942447746
          0.007865979628176804 0.004078620751592935 0.008945154291659272 0.004873683103762066 0.010024328955141742 0.005668745455931196
          0.0727222042757974 0.0701677808304467 0.07707805591078241 0.07877245157357057 0.0689138014389761 0.0667339151053032
          0.07350499315638041 0.07490001213322388 0.0651053986021548 0.06330004938015969 0.06993193040197843 0.07102757269287718
          0.02057304601999891 0.021001286231175927 0.026330903391194045 0.02101149444029331 0.02175020584801311 0.02670452935319413
          0.021449942860587705 0.02249912546485029 0.02707815531519421 0.0012314014599525047 0.0006924388726173488 0.0015873476267602125
          0.0010492254139160273 0.0019432937935679206 0.0014060119552147057 0.020032132587680846 0.015838924926887023 0.020275676172395264
          0.016219234096843803 0.020519219757109675 0.01659954326680058 0.013203141134611414 0.015766714577644076 0.014157950744954162
          0.01715002888209606 0.015112760355296906 0.01853334318654804 0.007828254213857341 0.004436770861865318 0.008689460821941499
          0.00498822357811257 0.009550667430025661 0.005539676294359819 0 0 0
          0.000005681076951731729 0 0 0.000011362153903463459 0 0
          0.004437012500889781 0.0024694271862314076 0.005137888611482961 0.004714010778614216 0.0026879113002822043 0.005580092475535019
          0.004991009056338651 0.002906395414333001 0.006022296339587078 0.058816697490607646 0.06459224141921949 0.06464069288367452
          0.056254317634455486 0.06153179100242321 0.06148592611461866 0.05369193777830332 0.05847134058562692 0.058331159345562794
          0.06781776454814226 0.06439070028515723 0.06096363602217218 0 0 0
          0 0 0 0 0 0
          0 0 0 0.05846445240211018 0.06485316166197314 0.05614934900272093
          0.062145531187942735 0.05383424560333168 0.05943790071391232 0 0 0
          0 0 0 0.08402328609743193 0.07040361185656417 0.08059322999181866
          0.06759323818812892 0.0771631738862054 0.06478286451969364 0.04720695402778298 0.054461634071276695 0.04663650775062975
          0.05484798549923726 0.04606606147347652 0.055234336927197814 0 0 0
          0.006063024074067083 0.006347092907684442 0.006631161741301801 0.028277413389113243 0.01783168509394923 0.03139457603425827
          0.02096739433560278 0.03451173867940329 0.024103103577256316 0.00699755915824048 0.007584850778135494 0.00817214239803051
          0.0025729380562342042 0.004987877339433088 0.007402816622631972 0 0.000005681076951731729 0.000011362153903463459
          0.001857407585385433 0.0021584458494655523 0.0024594841135456716 0 0 0
          0.003043324131896629 0.005036138123117621 0.007028952114338611 0.04843542319902586 0.05006915611095799 0.05170288902289014
          0.08661888119127917 0.08305394544072815 0.07948900969017715 0.039162004763855694 0.0380656736707183 0.03696934257758091
          0 0 0 0 0.0005198004495949076 0.0010396008991898152
          0.006924249251068631 0.0068895368815301995 0.006854824511991769 0.0072671186910843325 0.007262382543951021 0.00725764639681771
          0.007898145590571507 0.007866970782610484 0.007835795974649463 0.007826989903388152 0.007823371237090062 0.007819752570791972
          0.008582102873230153 0.008562104340369275 0.008542105807508398 0.008780866559697193 0.008781012778770258 0.008781158997843323
          0.008271558150711447 0.008302291021514778 0.00833302389231811 0.006840520392047616 0.006902973819106154 0.0069654272461646925
          0.0045830662388087594 0.004670797743766589 0.004758529248724419 0.004451357831953538 0.0028839650484077115 0.004622366054351813
          0.0030124447824702396 0.0047933742767500885 0.0031409245165327686 0.0009866462108112637 0.0003047357695185279 0.0003841320285921311
          0.0014064410067575247 0.0010007819006877367 0.00030656123709354186 0.0003996584023151688 0.0014682242614126929 0.00101491759056421
          0.0003083867046685559 0.0004151847760382064 0.001530007516067861 0.000005869646424585451 0.000005632488233312129 0.000005395330042038806
          0.0020368569559167777 0.0020723714828610705 0.0021078860098053625 0.00003384084531756572 0.00003236415980740615 0.000030887474297246576
          0.007352426489593962 0.007255275934589482 0.0073511154772064585 0.007251914152622407 0.007349804464818954 0.007248552370655332
          0.008030198025908045 0.008028952414055993 0.008027706802203943 0.007054822444906374 0.007056313896015468 0.007057805347124561
          0.007706449630980691 0.007709750039032589 0.0077130504470844866 0.006687790373050075 0.006699225443141788 0.006710660513233499
          0.004908066874655323 0.004925170985827636 0.004942275096999949 0.002826674073537208 0.002838255923488891 0.0028498377734405738
          0.001191805747959637 0.0011970822453129264 0.001202358742666216 0.0000024151651010867316 0.000272514842599464 0.00021798298464947917
          0.0000027139496430113208 0.0002726039792124625 0.00021965803568111812 0.0000030127341849359103 0.000272693115825461 0.0002213330867127571
        </DataArray>
        <DataArray type="Float64" Name="pe11" format="ascii" RangeMin="-0.0009859790137074634" RangeMax="0.08500183408268375">
          0 0 0 0 0 0
          0.0000027156593098180185 0 0.000010995613805573411 0.0000041326230317169 0.000019275568301328804 0.0000082652460634338
          0.00010410755047867157 0.00007228911770797138 0.00014233530556773328 0.00010551122635415039 0.00018056306065679497 0.0001387333350003294
          0.0005423051395636972 0.00046935303336581775 0.000615471594080314 0.0005415984905595939 0.000688638048596931 0.0006138439477533701
          0.0015961514042513781 0.0014980482277532085 0.0016865777343092955 0.0015899177717318882 0.0017770040643672132 0.001681787315710568
          0.003565673162768083 0.0034551386272842245 0.0036434947014386027 0.0035369414404300232 0.003721316240109122 0.003618744253575823
          0.006785671050906649 0.00668402321124565 0.006799016825247537 0.006700941513502906 0.006812362599588425 0.006717859815760163
          0.011697729286819647 0.01163962967869365 0.011567331673514947 0.011506297899196848 0.011436934060210248 0.011372966119700045
          0.019652837478253686 0.01984317495769622 0.019234548659255116 0.01939544625295523 0.018816259840256547 0.01894771754821424
          0.030362750116300297 0.029529168225751593 0.029480666513649455 0.02867190222952347 0.02859858291099862 0.027814636233295345
          0 0.0000030083201161886975 0.000006016640232377395 0.00002758585925366777 0.00004987712878103043 0.0000721683983083931
          0.000217077670510512 0.00026921003222983895 0.0003213423939491659 0.0007619199838780543 0.0008377845131270389 0.0009136490423760237
          0.0018884386425641827 0.0019740540547356334 0.002059669466907084 0.0038908286355849755 0.003956960373019256 0.004023092110453537
          0.007081542381588222 0.0070842955698730255 0.00708704875815783 0.011846495031738857 0.011724672804487388 0.011602850577235924
          0.01906775445390914 0.018730043020649744 0.018392331587390356 0.027166257616663254 0.02658187830932282 0.025997499001982394
          0.00001377804677139187 0.000033374930034711085 0.000052971813298030307 0.0001175996357308197 0.00016336206563593144 0.00020912449554104316
          0.00044489052546693226 0.000512065047296086 0.0005792395691252399 0.0011325902496997348 0.0012110031237936923 0.0012894159978876496
          0.0023686513373838486 0.0024444410029546486 0.0025202306685254486 0.004411403452778961 0.004458523746652291 0.004505644040525622
          0.007536023456302932 0.007522485887287395 0.00750894831827186 0.012024193041801936 0.011915240991847823 0.01180628894189371
          0.018094070196574663 0.017869946707424894 0.017645823218275125 0.024248285174616663 0.024005613274454492 0.023762941374292322
          0.00009198152077669926 0.00013845789671964334 0.00018493427266258746 0.0003181495945675521 0.0003859759123050835 0.000453802230042615
          0.0008063350706473281 0.0008840636076216337 0.0009617921445959391 0.0016606195676368025 0.0017366269974688371 0.001812634427300872
          0.00302395371174196 0.0030823128649465114 0.003140672018151062 0.00509262697534346 0.005114013307571457 0.005135399639799453
          0.008083986064195607 0.008051788572264105 0.008019591080332605 0.012139711801148288 0.012047246799359774 0.011954781797571258
          0.016868082242586895 0.016761716934995646 0.016655351627404398 0.019877719442841894 0.019889427127682595 0.019901134812523296
          0.0002818046264429278 0.0003471491167124766 0.0004124936069820254 0.0006547788183477368 0.0007328726463427506 0.0008109664743377641
          0.0013174405131660704 0.0013951297850962182 0.0014728190570263658 0.00234920130100955 0.002410108237436081 0.002471015173862611
          0.003830855499364648 0.0038610653804611868 0.0038912752615577265 0.005882244215473607 0.005872935184105247 0.005863626152736888
          0.008640384017238288 0.008591999265644629 0.00854361451405097 0.012100191862901403 0.012030998556848204 0.011961805250795005
          0.015482199434390751 0.015479194596553239 0.015476189758715727 0.016799939197771455 0.01698576973788772 0.017171600278003987
          0.0006095454590763231 0.0006707574015269112 0.0007319693439774991 0.0011547045124136776 0.001217825247035044 0.0012809459816564106
          0.0020023139656247654 0.002052524034598786 0.0021027341035728068 0.003194472888802075 0.0032170398374839816 0.0032396067861658884
          0.004752821524336285 0.0047411640192106695 0.004729506514085054 0.006713338346064617 0.006671922680148382 0.0066305070142321475
          0.009114905228251736 0.0090600953463571 0.009005285464462465 0.011832336204735582 0.011801422745740583 0.011770509286745588
          0.013913434527731604 0.014008997807393689 0.014104561087055776 0.01403454276855793 0.014354672863180803 0.01467480295780368
          0.001108251200724263 0.0011254998029864296 0.0011427484052485965 0.0018467037630722426 0.0018506251758461153 0.0018545465886199884
          0.0028687362246976045 0.0028505117663823356 0.002832287308067067 0.004176228969265491 0.004131143040626303 0.004086057111987115
          0.005738372898526695 0.005672176565151135 0.005605980231775576 0.00751069565892735 0.007441789700593018 0.0073728837422586905
          0.009427352773724392 0.00938550821996002 0.009343663666195648 0.011280999716607655 0.011314810167713704 0.011348620618819753
          0.012191087868704145 0.01239313446036671 0.012595181052029279 0.0114314327562848 0.011844555541990527 0.012257678327696258
          0.0017722203692994707 0.0017353173655345086 0.0016984143617695463 0.002704573998183104 0.0026435909714982884 0.0025826079448134733
          0.0038716309702360794 0.003787120687060018 0.003702610403883956 0.00523248754483646 0.005131651027257191 0.005030814509677924
          0.006710260550438744 0.006608843181546666 0.0065074258126545876 0.008194164456325976 0.00811791473304933 0.008041665009772686
          0.009527355428719585 0.009510635153948977 0.009493914879178365 0.010454669034218213 0.010544019189913021 0.01063336934560783
          0.010359361578555567 0.010611469105630749 0.010863576632705936 0.009047798364405144 0.009438494853708852 0.00982919134301256
          0.0048724341826852195 0.004792075786022514 0.004711717389359808 0.0061862694615917825 0.006098842732864096 0.00601141600413641
          0.007481960888238383 0.007401622517777661 0.00732128414731694 0.008606699131675282 0.008553036357343093 0.008499373583010901
          0.00935281000375078 0.009349949483889343 0.009347088964027906 0.009444676527665417 0.00952142808670643 0.009598179645747443
          0.0085236102077844 0.008698107887132283 0.008872605566480169 0.006997021752233044 0.00724478531745653 0.007492548882680012
          0 0.00011935848484754646 0.00015700610517396929 0 0.0000166749794507731 -0.00010468331670487679
          0.00022860182562568733 0 0.0000333499589015462 -0.00032872511825730004 0.0003001975460774054 0
          0 0 -0.00002197766154885681 0 -0.00004395532309771362 0
          0 0 0 0.00009313307184285249 -0.000009327985621370348 0.000013058660974721167
          0.00018626614368570497 -0.000018655971242740696 0.000026117321949442333 0.04141920003834088 0.03732205630214837 0.04825796916031609
          0.04890474719395339 0.040139443734788255 0.03670701996852978 0.04681270980468577 0.04710751462307347 0.038859687431235634
          0.03609198363491119 0.04536745044905546 0.04531028205219354 0.009865100883777659 0.005823865157055713 0.0016376581051439493
          0.004955133751896566 0.011173661190823676 0.006250296359309089 0.0024969905588639193 0.00640484410883813 0.012482221497869697
          0.006676727561562465 0.0033563230125838893 0.007854554465779692 0.024333790547856556 0.02411764547342781 0.02885456451032279
          0.028126621456262706 0.024352981955040515 0.024360835619644326 0.028762088686749857 0.027876763862174747 0.02437217336222447
          0.02460402576586084 0.028669612863176923 0.02762690626808679 0.011446093483949687 0.012846645951328405 0.008922796761707865
          0.007171434374988637 0.012177842256475148 0.013443651920799106 0.00950951540237941 0.007831802104971166 0.012909591029000609
          0.014040657890269807 0.010096234043050958 0.008492169834953696 0.007422466436357339 0.009598291660244033 0.007840400047495762
          0.010118734467737126 0.008258333658634183 0.010639177275230218 0.032981428843251365 0.02984658189205376 0.03253421211195861
          0.02992260158107377 0.03208699538066587 0.02999862127009379 0.0000021029317005415544 0 0
          0.000011473751672471943 0.00006305340485876848 0.00022505913601745045 0.00012129445454898812 -0.0004872526310174958 0.0001240038780169954
          0.00045011827203490085 0.00024258890909797625 -0.0009859790137074634 0.037498288787185634 0.03698403075266311 0.04508937519982821
          0.04252739408950764 0.03623064932472686 0.03575904619238056 0.04328803681681363 0.04090441056887977 0.0349630098622681
          0.034534061632098004 0.041486698433799055 0.03928142704825191 0.03776976738357437 0.051670672524146234 0.037343833233285446
          0.05032009105863257 0.03691789908299651 0.0489695095931189 0.00031943277527776226 0.0006192514601228471 0.00012680364653174037
          0.000036147552144282055 0.00038187042318682296 0.0006834196839576721 0.00013436400832882915 0.000039182851236846634 0.00044430807109588355
          0.000747587907792497 0.00014192437012591793 0.00004221815032941121 0.063265332655345 0.08216765307343356 0.07812814477526034
          0.05970459472861898 0.06224959809908132 0.07913260121105828 0.07496281608741001 0.05862027474049976 0.06123386354281765
          0.07609754934868299 0.07179748739955966 0.057535954752380526 0 0 0
          0 -0.00021278408153463843 -0.00001812886179490043 0.00003169162729581865 -0.00016698082744283352 -0.00042556816306927686
          -0.00003625772358980086 0.0000633832545916373 -0.00033396165488566704 0.015595502582132692 0.01546713127087401 0.016172385203346722
          0.0161684949605402 0.01674926782456076 0.01686985865020639 0.03354699628951294 0.03278376159425371 0.03202052689899447
          0.0000346531404007863 0.0002763644882944378 0.000028258630963655428 -0.000292998070225511 0.00002186412152652454 -0.0008623606287454596
          0.0003740495091377717 0.0018826831316531517 0.0007494008357876262 0.00022190802703366387 0.0016528391469907912 0.0005089106844336927
          0.00006976654492955609 0.001422995162328431 0.0002684205330797591 0.019635370278751223 0.016556620584144636 0.028069715161036395
          0.0285560253771238 0.02080662273964971 0.0178681370754769 0.02945219457755608 0.029122041840385682 0.021977875200548204
          0.019179653566809167 0.030834673994075763 0.029688058303647572 0.049035046582087835 0.05174323449099494 0.05577881107064864
          0.046872399808455825 0.04946917880437579 0.05308511170056065 0.04470975303482381 0.047195123117756636 0.05039141233047267
          0.006516386870941128 0.012083823296645195 0.006946032661549632 0.012592067617023483 0.007375678452158138 0.013100311937401767
          -0.000033651392448782666 0.0021521877119915567 0.0016398185731166467 0.003656284173659484 0.003313288538682076 0.0051603806353274105
          0.006291565698644658 0.0033524841385260116 0.0071170939926645015 0.0039560362768344 0.007942622286684348 0.004559588415142789
          0.07172086352706683 0.0690398683996173 0.07574197471574899 0.07752759026511968 0.06772053457881883 0.06546721683487387
          0.07192952274661155 0.07343528852424104 0.06372020563057083 0.061894565270130444 0.0681170707774741 0.0693429867833624
          0.019442640238029406 0.019353128245207955 0.024544538740154515 0.019979656801008824 0.020221528462074638 0.025089416782169277
          0.020516673363988245 0.021089928678941317 0.02563429482418404 0.0010769562836330693 0.000618337544229683 0.0013268896115135364
          0.0008409688956242142 0.0015768229393940034 0.0010636002470187456 0.01917039570604013 0.015193780636978004 0.019483200979081523
          0.015607060801744472 0.01979600625212292 0.016020340966510938 0.01164546197428986 0.013272398664196078 0.012525809470876744
          0.014319932951217178 0.01340615696746363 0.015367467238238277 0.006577995688687458 0.0037970858574947557 0.007331217320402546
          0.004253246776188067 0.008084438952117634 0.0047094076948813795 0 0 0
          0.000002473822161007212 0 0 0.000004947644322014424 0 0
          0.003928429548279917 0.002165532818002832 0.004534564284829994 0.004172842920384074 0.0023392842973506767 0.004914207486195674
          0.004417256292488231 0.002513035776698521 0.005293850687561355 0.05775453442877859 0.06376879422514871 0.06395644656438394
          0.054995030113837225 0.06050219497966789 0.06055049536875427 0.05223552579889587 0.05723559573418706 0.05714454417312461
          0.06699271688547025 0.0633193749179033 0.05964603295033635 0 0 0
          0 0 0 0 0 0
          0 0 0 0.05697775780309287 0.06308458872773459 0.0545961005202336
          0.0604153046486338 0.052214443237374356 0.05774602056953302 0 0 0
          0 0 0 0.0824942249713525 0.06807359956555917 0.0787093547023738
          0.06534960031437913 0.07492448443339507 0.06262560106319909 0.04176715297663064 0.042104643444130924 0.04185186228306028
          0.04306364184340671 0.04193657158948992 0.04402264024268251 0 0 0
          0.005484992204842562 0.0057564800311250075 0.006027967857407452 0.017449026531008934 0.009249877648834927 0.019520900487823206
          0.011109485543938683 0.021592774444637475 0.012969093439042442 0.006229107998011391 0.0067632824189377575 0.0072974568398641235
          -0.00028912006042008866 -0.000024721346021784765 0.00023967736837651925 0 0.000002473822161007212 0.000004947644322014424
          0.0015975400674696685 0.0018221430865207559 0.002046746105571843 0 0 0
          -0.00042004708587436973 -0.00045727036782562127 -0.0004944936497768729 0.03264603081694287 0.034214129334294276 0.03578222785164569
          0.08500183408268375 0.08114063897319194 0.07727944386370014 0.036741753266938855 0.03555204359980957 0.03436233393268029
          0 0 0 0 -0.00009160650818360981 -0.00018321301636721961
          0.006876040938707376 0.0068411591843405865 0.006806277429973799 0.007257917899811778 0.007253013278341745 0.007248108656871711
          0.007864754901477079 0.007833419724964857 0.0078020845484526365 0.007819983398757403 0.007816333336190253 0.0078126832736231
          0.008563553512690263 0.00854348869764586 0.008523423882601458 0.008758383171146052 0.008758880124001337 0.00875937707685662
          0.008200220628180387 0.008232011740606494 0.0082638028530326 0.006660646329528033 0.006723348686603069 0.006786051043678106
          0.004325011699278026 0.004408995571452153 0.00449297944362628 0.004073546188271634 0.0026531989388155135 0.004234529804984702
          0.0027671714060886585 0.00439551342169777 0.002881143873361804 0.000946579839559554 0.00029723206086173826 0.00036752487697095987
          0.0013140491619456343 0.0009573080752917246 0.00029826228339038986 0.00037965549020464625 0.0013646624298547841 0.0009680363110238953
          0.0002992925059190415 0.0003917861034383327 0.0014152756977639342 0.000005854449933645792 0.000005619868201412351 0.0000053852864691789085
          0.0019357361996335423 0.001965615412073451 0.00199549462451336 0.00003325229357386426 0.00003178665729158322 0.000030321021009302167
          0.007335123007890403 0.007248971204836189 0.007333885506918281 0.007245534797678184 0.007332648005946158 0.007242098390520178
          0.008013239715759452 0.008012061946483578 0.008010884177207706 0.007015642558711654 0.0070172506952313925 0.007018858831751133
          0.007658553240327852 0.007661814698324471 0.007665076156321088 0.006588018709322785 0.00659867784501472 0.006609336980706659
          0.004765408355407224 0.00477992001940963 0.004794431683412036 0.0027220342047906253 0.002730736984300845 0.002739439763811064
          0.0011555272876760208 0.0011591228072327232 0.001162718326789426 0.000002408909123986451 0.0002687071136123156 0.00021575197676401936
          0.0000027060181853134825 0.0002684799359443506 0.00021722796571114073 0.000003003127246640514 0.00026825275827638555 0.00021870395465826205
        </DataArray>
        <DataArray type="Float64" Name="pe22" format="ascii" RangeMin="-0.03717371474096144" RangeMax="0.0006113127934410342">
          0 0 0 0 0 0
          -0.00000128896901486954 0 -0.0000048597601947555185 -0.00000177167307182328 -0.000008430551374641498 -0.00000354334614364656
          -0.000044419317962906265 -0.00003079686939774599 -0.00005680876815060027 -0.00004176459748744627 -0.00006919821833829427 -0.00005273232557714654
          -0.00020336478105997122 -0.0001742546443546825 -0.00021444806720789472 -0.00018626294049448012 -0.00022553135335581827 -0.00019827123663427768
          -0.0005201324247369594 -0.0004826586782152836 -0.0005101732065663329 -0.0004733797458590727 -0.0005002139883957063 -0.0004641008135028617
          -0.001008491455231834 -0.0009622694780114279 -0.0009696066815287524 -0.0009231125309899596 -0.0009307219078256709 -0.0008839555839684913
          -0.0016842517631505509 -0.0016234625914065051 -0.0016188621226518797 -0.001556704944499525 -0.0015534724821532088 -0.001489947297592545
          -0.002577658622991185 -0.0024814465022363597 -0.0024863644520022425 -0.0023843294889949527 -0.0023950702810132994 -0.002287212475753546
          -0.0036671830557693944 -0.0034854229523977615 -0.0035355171961274443 -0.0033397694101628744 -0.0034038513364854943 -0.003194115867927988
          -0.0054327883826715846 -0.004642919178084474 -0.0051472245532159806 -0.004371989891212814 -0.004861660723760378 -0.0041010606043411545
          0 -0.0000014137223617392076 -0.000002827444723478415 -0.000012891483181677898 -0.00002216385372751311 -0.00003143622427334832
          -0.00009265720008790476 -0.00010853966119712754 -0.00012442212230635033 -0.0002903348703916129 -0.0002991469577932414 -0.0003079590451948699
          -0.000632096804047087 -0.0006203876550021011 -0.0006086785059571152 -0.0011456043920250007 -0.0011077399883379375 -0.0010698755846508742
          -0.0018648203569066645 -0.0018036978581041513 -0.0017425753593016378 -0.0028460143794699494 -0.002769605445517259 -0.0026931965115645686
          -0.004086590603280539 -0.003994343216914716 -0.003902095830548892 -0.0056099312562933 -0.0054643205750595615 -0.005318709893825821
          -0.000006774181358796103 -0.000015595908119909107 -0.000024417634881022114 -0.00005423425326120916 -0.00007173903169321846 -0.00008924381012522775
          -0.00018877286720986848 -0.000206151949781657 -0.0002235310323534455 -0.00043535329065918284 -0.0004409021614794127 -0.0004464510322996426
          -0.0008165086636252141 -0.000802676746497607 -0.0007888448293700002 -0.0013689267148895244 -0.001333288779999824 -0.0012976508451101236
          -0.0021520159732149238 -0.0020981091110387237 -0.002044202248862523 -0.0032326479117507365 -0.003176273063813148 -0.00311989821587556
          -0.004531496615494056 -0.004495623624139094 -0.0044597506327841326 -0.006092793162558438 -0.006123450147010482 -0.006154107131462524
          -0.000044106390028269 -0.00006324275136981423 -0.00008237911271135946 -0.00014303148398959933 -0.0001651622802364843 -0.00018729307648336933
          -0.0003356504940673651 -0.00035080285308570884 -0.0003659552121040526 -0.0006372408114318823 -0.0006387009086312738 -0.0006401610058306654
          -0.001068385360005164 -0.0010529778021858029 -0.001037570244366442 -0.0016691937458334434 -0.001637333826866634 -0.0016054739078998244
          -0.0025153308366613098 -0.0024714055429701457 -0.0024274802492789817 -0.003660705708058039 -0.003627208717527798 -0.003593711726997556
          -0.004934810445646182 -0.004951141751505115 -0.00496747305736405 -0.005971970995068913 -0.006080402322022836 -0.006188833648976759
          -0.00012892476284425124 -0.00015199882269109123 -0.0001750728825379312 -0.0002812076089806742 -0.0003012494019377507 -0.0003212911948948272
          -0.0005300405637598593 -0.0005403597831929092 -0.0005506790026259592 -0.0008910664976888344 -0.0008881965791240608 -0.0008853266605592873
          -0.0013789526566122341 -0.0013632028834160014 -0.0013474531102197693 -0.0020301102277871953 -0.0020037023680619355 -0.0019772945083366754
          -0.0029147884963035007 -0.0028833004257520626 -0.0028518123552006237 -0.00405623258447314 -0.004045024542122129 -0.004033816499771118
          -0.005238057991694831 -0.005287111999732556 -0.005336166007770281 -0.006009436977701966 -0.006140310392124039 -0.006271183806546114
          -0.00025898549696123734 -0.00027677669395357864 -0.0002945678909459199 -0.00046375428827142104 -0.0004758538640418041 -0.00048795343981218706
          -0.0007684436240702851 -0.0007713234041971282 -0.0007742031843239713 -0.0011885054960267666 -0.001181785667089773 -0.0011750658381527797
          -0.0017344279243099894 -0.0017200673147794586 -0.0017057067052489278 -0.0024281134633226432 -0.002408978879124519 -0.002389844294926395
          -0.0033109074216871345 -0.0032933721905534204 -0.0032758369594197067 -0.004366911489971282 -0.004374362878121834 -0.0043818142662723865
          -0.0053458509438124545 -0.005412083659355694 -0.005478316374898935 -0.0058667255033588335 -0.005998837169181805 -0.006130948835004776
          -0.0004291958515349092 -0.00043333156249686263 -0.000437467273458816 -0.0006850979168400232 -0.0006842064348815261 -0.0006833149529230291
          -0.0010427061744134572 -0.0010368410488742102 -0.0010309759233349627 -0.0015178652551635862 -0.001508493853868613 -0.0014991224525736399
          -0.0021154578643254604 -0.0021046190168700473 -0.0020937801694146337 -0.0028351782589551952 -0.002825331068394809 -0.0028154838778344233
          -0.0036706231280115823 -0.0036678530541037957 -0.003665082980196009 -0.004561445426456765 -0.004584136123569428 -0.004606826820682093
          -0.005274254799031968 -0.005346849430731735 -0.005419444062431502 -0.005487201544233832 -0.005613974535600644 -0.005740747526967452
          -0.0006313484165658529 -0.0006189398639923477 -0.0006065313114188424 -0.0009374274841769562 -0.000921571658442005 -0.0009057158327070536
          -0.0013452314174512807 -0.0013290320606651218 -0.0013128327038789626 -0.0018675616137394623 -0.0018541247077422905 -0.001840687801745119
          -0.002501107604206293 -0.002492757845746184 -0.0024844080872860755 -0.0032222971348651428 -0.003221470502919901 -0.00322064387097466
          -0.003972097021603257 -0.003984765553763513 -0.003997434085923768 -0.0046359824090656705 -0.004674782039767536 -0.004713581670469402
          -0.005034572993095183 -0.005111206605337593 -0.005187840217580003 -0.0049484277577627285 -0.005062001640039773 -0.0051755755223168165
          -0.001788942958433618 -0.001773175284489468 -0.0017574076105453175 -0.0023547528166224844 -0.0023444889173241364 -0.002334225018025789
          -0.002996100515920937 -0.002993584559012566 -0.0029910686021041954 -0.003660946245297509 -0.003668287734920885 -0.003675629224544261
          -0.004246146839103754 -0.0042684599353383515 -0.00429077303157295 -0.004589230860846753 -0.004632375678992507 -0.0046755204971382636
          -0.004548680244299692 -0.0046106885450667035 -0.004672696845833715 -0.004217092198379002 -0.004289580761391415 -0.004362069324403827
          0 -0.00006850349054670832 -0.00008536499574002143 0 -0.00011727944512876741 -0.00010945596952875265
          -0.00008466740184387565 0 -0.00023455889025753482 -0.00015040844851079704 -0.00008396980794772986 0
          0 0 0.000013277203941289917 0 0.000026554407882579834 0
          0 0 0 -0.00009159393739282043 0.000009704425422596045 -0.00001448604186194634
          -0.00018318787478564086 0.00001940885084519209 -0.000028972083723892676 -0.01108608778279616 -0.010034354227117733 -0.01521036619229067
          -0.015054528737792169 -0.010385725175845519 -0.009777707311341513 -0.014211025947956682 -0.013860898487489346 -0.009685362568894879
          -0.009521060395565294 -0.013211685703622692 -0.012667268237186523 -0.0021587044618478672 -0.002072830564325295 -0.0006449720562629716
          -0.0010365099500668784 -0.0027553062260750848 -0.0018380385190378736 -0.0006564703457891682 -0.0014086945032041655 -0.0033519079903023023
          -0.0016032464737504523 -0.0006679686353153647 -0.0017808790563414527 -0.007043831426856037 -0.007250147517660189 -0.007383613278055455
          -0.006986275912171977 -0.007228186424614814 -0.007529354552583406 -0.007532955529273071 -0.007057936905076406 -0.007412541422373589
          -0.007808561587506623 -0.007682297780490686 -0.007129597897980834 -0.005761870569018826 -0.005955968275396114 -0.004792285426692683
          -0.003951890062208661 -0.00602775537019302 -0.006220838007257675 -0.004943102156220154 -0.004087127235974585 -0.006293640171367216
          -0.006485707739119235 -0.0050939188857476265 -0.004222364409740506 -0.004405017151895195 -0.005167560565088186 -0.004518299296614992
          -0.005307885096356353 -0.004631581441334789 -0.005448209627624518 -0.008153501227738358 -0.008042265751676372 -0.008107882861401109
          -0.008262874389674072 -0.008062264495063858 -0.008483483027671775 -8.002151732069353e-7 0 0
          0.000039387330370159514 -0.00012074745917286264 -0.00023252167924535844 -0.00010594660956619456 -5.073936170238088e-7 -0.00024069470317251838
          -0.0004650433584907169 -0.00021189321913238913 -0.000040402117604207125 -0.007500090193751726 -0.007982021888719859 -0.012621395517309961
          -0.010638583713499529 -0.006941795840442187 -0.007461127697662835 -0.0115483861150539 -0.009741334677815258 -0.006383501487132648
          -0.006940233506605813 -0.010475376712797838 -0.008844085642130987 -0.010977598972784256 -0.019098827056465904 -0.010763369095598592
          -0.018009105866273106 -0.010549139218412926 -0.016919384676080316 -0.0001788507967391953 -0.00035303001344362913 -0.0000722712629048099
          -0.00002085308704219905 -0.00018103562017913308 -0.00035441468863113806 -0.00007172601899870953 -0.00002082059140896482 -0.00018322044361907084
          -0.00035579936381864693 -0.00007118077509260915 -0.000020788095775730593 -0.02732878581486233 -0.03717371474096144 -0.03513097657846867
          -0.025378061680690855 -0.026208715912348083 -0.03440075881814196 -0.032359507944795446 -0.024425561774668005 -0.025088646009833834
          -0.03162780289532248 -0.029588039311122222 -0.023473061868645156 0 0 0
          0 0.0003027027834901099 0.00003911891078866532 -0.000044352777808323254 0.00020369979625955016 0.0006054055669802198
          0.00007823782157733064 -0.00008870555561664651 0.0004073995925191003 -0.006481762419538457 -0.006881037183945499 -0.006820038256072146
          -0.00724338924305259 -0.007158314092605835 -0.007605741302159681 -0.007768884780806199 -0.007523409843140862 -0.007277934905475525
          -0.00003441798258310411 -0.000171438134840577 -0.0005744005553936077 -0.00037330749738309513 -0.0011143831282041112 -0.0005751768599256131
          -0.00027014543473997173 -0.0008518248787869769 -0.00036126893460941274 -0.000392197899329738 -0.0003086990232675254 -0.00013761132407798433
          -0.0005142503639195041 0.0002344268322519261 0.00008604628645344408 -0.006336077669963698 -0.004690200433564802 -0.008339517527340443
          -0.00761909578498558 -0.006859641936853892 -0.005244169674858021 -0.009407749177289901 -0.008095530430706111 -0.007383206203744086
          -0.0057981389161512395 -0.010475980827239361 -0.00857196507642664 -0.014968659997238214 -0.016617943058342154 -0.019433531277013385
          -0.013597204702580827 -0.015035993898416835 -0.017447972719155738 -0.012225749407923443 -0.013454044738491516 -0.015462414161298088
          -0.0038378240459506752 -0.005719807701620673 -0.003929029852668823 -0.005883618490739215 -0.00402023565938697 -0.006047429279857757
          0.00014874847456384835 -0.0004190297704421183 -0.001030832696705432 -0.0011010391930961864 -0.002210413867974713 -0.0017830486157502546
          -0.002641504151634756 -0.001666624883207979 -0.0029473559566941822 -0.0017714981111093386 -0.003253207761753609 -0.0018763713390106977
          -0.029452982739068517 -0.027831192005462992 -0.03129254968954845 -0.031053422040584883 -0.026125710920047538 -0.024903640872679052
          -0.027983438895077036 -0.027446823789147794 -0.022798439101026552 -0.02197608973989511 -0.024674328100605613 -0.023840225537710702
          -0.007071606476915921 -0.00682258489407671 -0.007082740283745929 -0.007425101552773668 -0.0073528711455712655 -0.007548251445644969
          -0.007778596628631415 -0.007883157397065821 -0.008013762607544009 -0.0005796563786819079 -0.0003160754926726066 -0.0006030567126621643
          -0.0003285534209973488 -0.0006264570466424206 -0.00034103134932209105 -0.006637356675904807 -0.0060818479496239685 -0.006892021548943342
          -0.006295840564944814 -0.007146686421981878 -0.00650983318026566 -0.005141873740468243 -0.0049585473974919905 -0.005503342361811066
          -0.005278359585046083 -0.00586481098315389 -0.005598171772600176 -0.003304142535977129 -0.002286512247752049 -0.003444161794813206
          -0.002347856053007794 -0.003584181053649283 -0.0024091998582635387 0 0 0
          -0.000002154644445845406 0 0 -0.000004309288891690812 0 0
          -0.0024864533856980846 -0.0013461397116836568 -0.002771511696550672 -0.002524350235075636 -0.0013640712119695833 -0.00283518844087744
          -0.0025622470844531876 -0.0013820027122555096 -0.002898865185204207 -0.020893865307701494 -0.025148561785470574 -0.025758349708258924
          -0.0188428606236719 -0.02256672513522609 -0.022982708637766382 -0.016791855939642303 -0.019984888484981606 -0.020207067567273845
          -0.027381319748439964 -0.024343826231312784 -0.021306332714185604 0 0 0
          0 0 0 0 0 0
          0 0 0 -0.02041023536638127 -0.024925902826280568 -0.018664045605301376
          -0.02271557336387951 -0.01691785584422148 -0.020505243901478443 0 0 0
          0 0 0 -0.03548692810864189 -0.029252657566753243 -0.03208533017205537
          -0.026941112371700437 -0.028683732235468842 -0.02462956717664763 -0.01420180388565044 -0.01634284719303671 -0.014392460967649335
          -0.017057523520418703 -0.014583118049648226 -0.017772199847800693 0 0 0
          -0.00350505244979823 -0.00356560947480593 -0.0036261664998136307 -0.003872411269994138 -0.0005454364281608805 -0.005501333627907691
          -0.0017566371956052927 -0.007130255985821245 -0.002967837963049705 -0.0036924858537450422 -0.003798594960185593 -0.003904704066626144
          0.0002484187485031301 -0.0006550503391619525 -0.001558519426827035 0 -0.000002154644445845406 -0.000004309288891690812
          -0.0009402202974218758 -0.0009612113140976011 -0.0009822023307733264 0 0 0
          0.0006113127934410342 -0.0001560458921732861 -0.0009234045777876063 -0.011088666144970139 -0.012311664143779703 -0.01353466214258927
          -0.03613555571800234 -0.032609047544189106 -0.029082539370375873 -0.00686022269309243 -0.006327277023068524 -0.005794331353044618
          0 0 0 0 0.00019800597446111945 0.0003960119489222389
          -0.003020183296422535 -0.0030232517301236337 -0.003026320163824733 -0.0035569128883677953 -0.003566129509538692 -0.0035753461307095878
          -0.0035960436366715446 -0.0036043933392140115 -0.0036127430417564783 -0.003954701265735227 -0.003966931767909626 -0.003979162270084025
          -0.004092050638314231 -0.004106236805310871 -0.004120422972307511 -0.004378949553420902 -0.004401080637180444 -0.004423211720939986
          -0.004293167966825192 -0.004322319770470125 -0.004351471574115058 -0.003717773770846042 -0.0037433017915193493 -0.0037688298121926565
          -0.00263202469691751 -0.0026409997628728536 -0.0026499748288281964 -0.0026297594796011446 -0.0016515261310695777 -0.0026458686854101605
          -0.0016555691356192619 -0.0026619778912191764 -0.0016596121401689463 -0.0005390839405909598 -0.00016227577575090663 -0.00021102869269385148
          -0.000791581858831532 -0.0005315546533082847 -0.00015857710349451336 -0.00020784975421188698 -0.0007887281268544103 -0.0005240253660256095
          -0.00015487843123812003 -0.0002046708157299224 -0.0007858743948772884 -0.0000031553305274900128 -0.0000029948653538849973 -0.000002834400180279982
          -0.001138669557596132 -0.0011266456280106002 -0.001114621698425069 -0.000019054687038637845 -0.000018062814969747626 -0.000017070942900857406
          -0.0038886623659697807 -0.003742333008394343 -0.0038985260741592346 -0.0037503323402364856 -0.0039083897823486875 -0.0037583316720786277
          -0.004177699389293959 -0.0041925420690369026 -0.004207384748779847 -0.0038122434742469276 -0.0038230810862695756 -0.003833918698292224
          -0.004104896935562775 -0.0041217098734850225 -0.00413852281140727 -0.0036171051700412374 -0.0036319389539792783 -0.0036467727379173196
          -0.002684017438725068 -0.002687527979361215 -0.0026910385199973626 -0.0015582000998524926 -0.0015492314290355988 -0.0015402627582187054
          -0.0006467450280565328 -0.0006382786222642401 -0.0006298122164719472 -0.0000011606152750967223 -0.00013784116890038216 -0.00010793138593524627
          -0.0000013005860017886057 -0.00013545604196891906 -0.00010764135291160465 -0.0000014405567284804891 -0.000133070915037456 -0.00010735131988796305
        </DataArray>
        <DataArray type="Float64" Name="pe33" format="ascii" RangeMin="-0.04886627836468127" RangeMax="0.0014375374886754007">
          0 0 0 0 0 0
          -0.000001426690294948478 0 -0.000006135853610817892 -0.0000023609499598936204 -0.000010845016926687305 -0.000004721899919787241
          -0.00005968823251576532 -0.0000414922483102254 -0.00008552653741713303 -0.00006374662886670414 -0.00011136484231850073 -0.00008600100942318289
          -0.00033894035850372587 -0.0002950983890111352 -0.0004010235268724193 -0.0003553355500651137 -0.00046310669524111275 -0.00041557271111909233
          -0.0010760189795144183 -0.0010153895495379245 -0.0011764045277429624 -0.001116538025872815 -0.0012767900759715065 -0.001217686502207706
          -0.0025571817075362487 -0.0024928691492727955 -0.00267388801990985 -0.0026138289094400635 -0.0027905943322834503 -0.002734788669607331
          -0.005101419287756098 -0.005060560619839144 -0.005180154702595656 -0.005144236569003381 -0.005258890117435215 -0.005227912518167617
          -0.009120070663828458 -0.009158183176457288 -0.009080967221512703 -0.009121968410201893 -0.009041863779196947 -0.009085753643946497
          -0.015985654422484286 -0.016357752005298452 -0.01569903146312767 -0.01605567684279235 -0.015412408503771048 -0.01575360168028625
          -0.02492996173362869 -0.024886249047667112 -0.024333441960433456 -0.024299912338310654 -0.023736922187238222 -0.023713575628954195
          0 -0.0000015945977544494895 -0.000003189195508898979 -0.000014694376071989866 -0.000027713275053517316 -0.00004073217403504476
          -0.00012442047042260726 -0.0001606703710327114 -0.00019692027164281553 -0.0004715851134864413 -0.0005386375553337974 -0.0006056899971811536
          -0.0012563418385170956 -0.0013536663997335318 -0.0014509909609499681 -0.0027452242435599744 -0.0028492203846813176 -0.0029532165258026612
          -0.005216722024681556 -0.0052805977117688745 -0.005344473398856192 -0.009000480652268904 -0.008955067358970127 -0.008909654065671352
          -0.014981163850628587 -0.014735699803735021 -0.014490235756841453 -0.021556326360369873 -0.021117557734263156 -0.02067878910815644
          -0.0000070038654125957685 -0.00001777902191480198 -0.000028554178417008193 -0.0000633653824696105 -0.00009162303394271295 -0.00011988068541581541
          -0.0002561176582570637 -0.00030591309751442904 -0.00035570853677179443 -0.0006972369590405522 -0.0007701009623142795 -0.0008429649655880068
          -0.0015521426737586347 -0.0016417642564570411 -0.0017313858391554476 -0.0030424767378894363 -0.003125234966652467 -0.0032079931954154977
          -0.0053840074830880085 -0.005424376776248672 -0.005464746069409336 -0.008791545130051199 -0.008738967928034672 -0.008686390726018149
          -0.013562573581080591 -0.013374323083285776 -0.013186072585490967 -0.01815549201205805 -0.017882163127443777 -0.01760883424282949
          -0.00004787513074843026 -0.00007521514534982913 -0.000102555159951228 -0.00017511811057795276 -0.00022081363206859924 -0.0002665091535592457
          -0.00047068457657996283 -0.0005332607545359247 -0.0005958369324918864 -0.00102337875620492 -0.0010979260888375631 -0.0011724734214702062
          -0.0019555683517367963 -0.002029335062760708 -0.0021031017737846193 -0.003423433229510017 -0.0034766794807048226 -0.0035299257318996274
          -0.005568655227534296 -0.00558038302929396 -0.005592110831053623 -0.008479006093090246 -0.008420038081831971 -0.008361070070573696
          -0.011933271796940684 -0.011810575183490494 -0.011687878570040304 -0.013905748447772825 -0.01380902480565956 -0.013712301163546294
          -0.00015287986359867654 -0.00019515029402138536 -0.00023742072444409414 -0.00037357120936706254 -0.00043162324440499983 -0.0004896752794429371
          -0.000787399949406211 -0.0008547700019033088 -0.0009221400544004066 -0.001458134803320715 -0.0015219116583120194 -0.0015856885133033235
          -0.002451902842752413 -0.002497862497045185 -0.0025438221513379563 -0.0038521339876864116 -0.0038692328160433113 -0.00388633164440021
          -0.005725595520934787 -0.005708698839892564 -0.005691802158850344 -0.008043959278428253 -0.007985974014726066 -0.007927988751023879
          -0.010244141442695887 -0.010192082596820643 -0.010140023750945403 -0.010790502220069387 -0.010845459345763551 -0.010900416471457716
          -0.0003505599621150857 -0.00039398070757333244 -0.0004374014530315792 -0.0006909502241422565 -0.0007419713829932399 -0.0007929925418442235
          -0.0012338703415544802 -0.0012812006304016577 -0.0013285309192488353 -0.0020059673927753084 -0.002035254170394208 -0.002064540948013108
          -0.0030183936000262946 -0.00302109670443121 -0.0030237998088361254 -0.004285224882741973 -0.004262943801023863 -0.004240662719305752
          -0.0058039978065646 -0.005766723155803677 -0.005729448505042754 -0.0074654247147642894 -0.007427059867618739 -0.00738869502047319
          -0.00856758358391912 -0.008596914148037961 -0.008626244712156802 -0.008167817265199044 -0.008355835693998932 -0.00854385412279882
          -0.0006790553491893535 -0.0006921682404895668 -0.0007052811317897804 -0.001161605846232219 -0.0011664187409645892 -0.001171231635696959
          -0.0018260300502841473 -0.0018136707175081255 -0.001801311384732104 -0.0026583637141019056 -0.00262264918675769 -0.002586934659413474
          -0.003622915034201234 -0.003567557548281088 -0.003512200062360942 -0.004675517399972152 -0.004616458632198209 -0.004557399864424266
          -0.0057567296457128065 -0.00571765516585622 -0.005678580685999634 -0.006719554290150878 -0.006730674044144262 -0.006741793798137643
          -0.006916833069672152 -0.007046285029634951 -0.00717573698959775 -0.005944231212050939 -0.006230581006389852 -0.0065169308007287634
          -0.0011408719527336178 -0.0011163775015421607 -0.0010918830503507035 -0.0017671465140061471 -0.0017220193130562831 -0.0016768921121064193
          -0.0025263995527847983 -0.002458088626394896 -0.0023897777000049933 -0.0033649259310969968 -0.0032775263195149004 -0.0031901267079328046
          -0.00420915294623245 -0.0041160853358004805 -0.004023017725368511 -0.004971867321460831 -0.004896444230129427 -0.0048210211387980225
          -0.005555258407116324 -0.005525869600185458 -0.005496480793254592 -0.0058186866251525304 -0.0058692371501454735 -0.0059197876751384175
          -0.005324788585460366 -0.00550026250029314 -0.0056757364151259135 -0.0040993706066424045 -0.004376493213669065 -0.004653615820695724
          -0.003083491224251602 -0.0030189005015330457 -0.0029543097788144903 -0.0038315166449692972 -0.003754353815539959 -0.0036771909861106206
          -0.004485860372317444 -0.004408037958765093 -0.004330215545212743 -0.004945752886377771 -0.0048847486224222044 -0.004823744358466638
          -0.005106663164647024 -0.005081489548550987 -0.005056315932454952 -0.004855445666818656 -0.004889052407713916 -0.004922659148609173
          -0.0039749299634846995 -0.004087419342065572 -0.004199908720646444 -0.002779929553854038 -0.0029552045560651084 -0.003130479558276179
          0 -0.00005085499430083815 -0.00007164110943394784 0 0.00010060446567675718 0.00021413928622436806
          -0.0001439344237818116 0 0.00020120893135351436 0.00047913356674957427 -0.00021622773812967537 0
          0 0 0.000008700457607566887 0 0.000017400915215133774 0
          0 0 0 -0.0000015391344500335622 -3.764398012256918e-7 0.0000014273808872250506
          -0.000003078268900067123 -7.528796024513836e-7 0.0000028547617744501017 -0.030333112255544567 -0.02728770207503019 -0.033047602968025204
          -0.033850218456161194 -0.02975371855894253 -0.026929312657187298 -0.032601683856728646 -0.03324661613558409 -0.029174324862340485
          -0.0265709232393444 -0.03215576474543208 -0.032643013815007 -0.007706396421926882 -0.0037510345927300064 -0.0009926860488791158
          -0.003918623801828427 -0.008418354964736354 -0.0044122578402588705 -0.0018405202130537994 -0.004996149605624313 -0.009130313507545826
          -0.005073481087787736 -0.0026883543772284833 -0.006073675409420199 -0.017289959121000186 -0.01686749795576703 -0.021470951232266725
          -0.021140345544090368 -0.017124795530425216 -0.016831481067060006 -0.021229133157475842 -0.02081882695709783 -0.016959631939850242
          -0.01679546417835298 -0.020987315082684962 -0.020497308370105292 -0.005684222914930766 -0.006890677675932202 -0.00413051133501516
          -0.003219544312779962 -0.006150086886281967 -0.0072228139135412945 -0.004566413246159225 -0.0037446748689965613 -0.00661595085763317
          -0.007554950151150386 -0.00500231515730329 -0.0042698054252131605 -0.0030174492844621337 -0.0044307310951558244 -0.003322100750880756
          -0.004810849371380743 -0.0036267522172993786 -0.005190967647605661 -0.024827927615512557 -0.021804316140376364 -0.024426329250556794
          -0.021659727191398078 -0.02402473088560103 -0.021515138242419792 -0.0000013027165273346131 0 0
          -0.00005086108204263042 0.00005769405431421833 0.000007462543227906169 -0.0000153478449827936 0.00048776002463490523 0.00011669082515577129
          0.000014925086455812336 -0.0000306956899655872 0.0010263811313124408 -0.029998198593433893 -0.029002008863943208 -0.03246797968251821
          -0.0318888103760081 -0.02928885348428468 -0.028297918494717682 -0.031739650701759735 -0.031163075891064523 -0.028579508375135464
          -0.027593828125492145 -0.031011321721001257 -0.03043734140612094 -0.026792168410789113 -0.032571845467679834 -0.026580464137684168
          -0.03231098519235812 -0.02636875986457923 -0.032050124917036404 -0.000140581978538567 -0.0002662214466792179 -0.00005453238362693047
          -0.000015294465102083003 -0.00020083480300768988 -0.000329004995326534 -0.00006263798933011962 -0.00001836225982788181 -0.00026108762747681277
          -0.00039178854397385013 -0.00007074359503330877 -0.000021430054553680617 -0.03593654684048212 -0.044993938332471894 -0.0429971681967915
          -0.034326533047927724 -0.036040882186734215 -0.04473184239294338 -0.04260330814262887 -0.03419471296583132 -0.03614521753298631
          -0.04446974645341486 -0.042209448088466245 -0.034062892883734916 0 0 0
          0 -0.00008991870195547309 -0.000020990048993765815 0.000012661150512504098 -0.00003671896881671766 -0.00017983740391094619
          -0.00004198009798753163 0.00002532230102500819 -0.00007343793763343533 -0.009113740162594095 -0.008586094086928339 -0.009352346947274359
          -0.008925105717487308 -0.00959095373195462 -0.009264117348046278 -0.02577811150870648 -0.025260351751112492 -0.024742591993518498
          -2.3515781768294093e-7 -0.00010492635345386155 0.0005461419244261558 0.0006663055676107696 0.0010925190066699945 0.0014375374886754007
          -0.00010390407439698488 -0.0010308582528667787 -0.0003881319011782133 0.00017028987231919434 -0.0013441401237019083 -0.0003712993603508392
          0.00044448381903537356 -0.0016574219945370379 -0.00035446681952346515 -0.013299292608786404 -0.011866420150577407 -0.019730197633693655
          -0.02093692959213689 -0.013946980802793552 -0.012623967400613037 -0.020044445400251073 -0.02102651140967637 -0.0145946689968007
          -0.013381514650648667 -0.020358693166808488 -0.021116093227215835 -0.03406638658484962 -0.03512529143265278 -0.03634527979363523
          -0.033275195105875024 -0.034433184905958994 -0.035637138981404956 -0.03248400362690043 -0.03374107837926522 -0.03492899816917468
          -0.002678562824990443 -0.006364015595024473 -0.003017002808880798 -0.006708449126284201 -0.003355442792771153 -0.007052882657543929
          -0.00011509708211306904 -0.001733157941549334 -0.0006089858764034646 -0.002555244980561092 -0.00110287467069386 -0.0033773320195728492
          -0.0036500615470098797 -0.0016858592553180287 -0.004169738035970265 -0.0021845381657250554 -0.00468941452493065 -0.0026832170761320814
          -0.04226788078799831 -0.041208676394154306 -0.04444942502620057 -0.04647416822453483 -0.041594823658774635 -0.04056357596219694
          -0.04394608385154345 -0.045988464735108696 -0.04092176652955096 -0.039918475530239556 -0.043442742676886324 -0.04550276124568256
          -0.012371033761113162 -0.0125305433511307 -0.01746179845640746 -0.01255455524823463 -0.012868657316502392 -0.01754116533652261
          -0.012738076735356096 -0.013206771281874084 -0.017620532216637758 -0.0004972999049511612 -0.00030226205155707634 -0.0007238328988513718
          -0.0005124154746268653 -0.0009503658927515826 -0.0007225688976966541 -0.012533039030135093 -0.009111932687353911 -0.012591179430137864
          -0.009311220236799492 -0.012649319830140632 -0.00951050778624507 -0.0065035882338214486 -0.008313851266703686 -0.007022467109065361
          -0.009041573366170093 -0.007541345984309272 -0.009769295465636502 -0.003273853152710317 -0.0015105736097427039 -0.0038870555255893177
          -0.0019053907231802699 -0.0045002578984683185 -0.002300207836617836 0 0 0
          -3.1917771516180463e-7 0 0 -6.383554303236093e-7 0 0
          -0.001441976162581831 -0.0008193931063191747 -0.0017630525882793187 -0.0016484926853084364 -0.000975213085381093 -0.00207901904531823
          -0.0018550092080350422 -0.0011310330644430109 -0.002394985502357142 -0.03686066912107709 -0.038620232439678125 -0.03819809685612502
          -0.036152169490165385 -0.037935469844441974 -0.037567786730987957 -0.03544366985925368 -0.03725070724920581 -0.03693747660585091
          -0.039611397137030276 -0.03897554868659074 -0.038339700236151214 0 0 0
          0 0 0 0 0 0
          0 0 0 -0.03656752243671159 -0.03815868590145401 -0.03593205491493236
          -0.03769973128475492 -0.035296587393153125 -0.03724077666805582 0 0 0
          0 0 0 -0.047007296862710525 -0.03882094199880588 -0.04662402453033884
          -0.03840848794267958 -0.04624075219796716 -0.03799603388655329 -0.0275653490909795 -0.02576179625109308 -0.027459401315407705
          -0.026006118322964785 -0.02735345353983591 -0.026250440394836483 0 0 0
          -0.0019799397550443304 -0.002190870556319074 -0.0024018013575938177 -0.013576615261012268 -0.00870444122067339 -0.014019566859894752
          -0.00935284834832694 -0.014462518458777232 -0.010001255475980493 -0.002536622144266341 -0.0029646874587521536 -0.003392752773237966
          0.00004070131191815818 0.0006797716851854102 0.001318842058452662 0 -3.1917771516180463e-7 -6.383554303236093e-7
          -0.0006573197700477924 -0.0008609317724231542 -0.001064543774798516 0 0 0
          -0.0001912657075665055 0.0006133162599993081 0.001417898227565122 -0.021557364671971432 -0.021902465190486473 -0.02224756570900151
          -0.04886627836468127 -0.048531591429031816 -0.048196904493382355 -0.029881530573846418 -0.029224766576741053 -0.02856800257963569
          0 0 0 0 -0.00010639946627751086 -0.00021279893255502172
          -0.0038558576422848406 -0.003817907454216953 -0.003779957266149065 -0.003701005011443982 -0.0036868837688030526 -0.003672762526162123
          -0.004268711264805531 -0.004229026385750844 -0.004189341506696157 -0.003865282133022175 -0.0038494015682806236 -0.003833521003539073
          -0.004471502874376029 -0.004437251892334986 -0.004403000910293943 -0.004379433617725149 -0.00435779948682089 -0.004336165355916631
          -0.003907052661355192 -0.003909691970136366 -0.003912331278917538 -0.0029428725586819887 -0.002980046895083718 -0.0030172212314854476
          -0.0016929870023605145 -0.001767995808579298 -0.0018430046147980817 -0.0014437867086704893 -0.001001672807745936 -0.0015886611195745403
          -0.0011116022704693964 -0.0017335355304785912 -0.0012215317331928568 -0.00040749589896859435 -0.0001349562851108316 -0.00015649618427710836
          -0.0005224673031141022 -0.00042575342198344007 -0.00013968517989587653 -0.0001718057359927593 -0.0005759343030003739 -0.0004440109449982858
          -0.00014441407468092143 -0.00018711528770841025 -0.0006294013028866456 -0.000002699119406155777 -0.000002625002847527352 -0.0000025508862888989275
          -0.0007970666420374106 -0.0008389697840628506 -0.0008808729260882908 -0.000014197606535226415 -0.000013723842321835585 -0.000013250078108444756
          -0.003446460641920621 -0.003506638196441843 -0.0034353594327590454 -0.003495202457441696 -0.003424258223597469 -0.003483766718441549
          -0.0038355403264654893 -0.003819519877446673 -0.0038034994284278575 -0.0032033990844647256 -0.003194169608961817 -0.003184940133458908
          -0.0035536563047650757 -0.0035401048248394464 -0.003526553344913817 -0.002970913539281546 -0.002966738891035442 -0.002962564242789338
          -0.002081390916682156 -0.0020923920400484153 -0.0021033931634146736 -0.0011638341049381323 -0.0011815055552652455 -0.0011991770055923584
          -0.0005087822596194877 -0.0005208441849684833 -0.0005329061103174787 -0.0000012482938488897286 -0.00013086594471193338 -0.00010782059082877305
          -0.000001405432183524877 -0.00013302389397543146 -0.00010958661279953603 -0.0000015625705181600254 -0.00013518184323892953 -0.00011135263477029896
        </DataArray>
        <DataArray type="Float64" Name="disp_x" format="ascii" RangeMin="0" RangeMax="0.000029086175202494787">
          1.2587390501016178e-7 0 1.2721217920671982e-7 0 1.3147334862077369e-7 0
          1.3531994987909486e-7 0 1.341141481987773e-7 0 1.370705417288918e-7 0
          1.3718728459746916e-7 0 1.4274159109916463e-7 0 1.5879288005174262e-7 0
          1.7653462032247151e-7 0 1.8442203207419518e-7 0 2.112314543971565e-7 0
          2.811236056977983e-7 0 2.920002805944937e-7 0 3.2655991824826726e-7 0
          4.907573519956456e-7 0 5.010754699106392e-7 0 5.33546802911438e-7 0
          8.446799174041578e-7 0 8.484622617447773e-7 0 8.617019057406823e-7 0
          0.0000013879157677499096 0 0.0000013749074552028106 0 0.0000013419159541009454 0
          0.0000022083306091119304 0 0.000002167762508635527 0 0.0000020414695046972633 0
          0.0000038055979314852947 0 0.000003702470723450799 0 0.000003363810208309351 0
          2.5358023045297396e-7 2.570068433105592e-7 2.6663574797880077e-7 2.65901062126377e-7 2.6845529490756143e-7 2.829086481270753e-7
          2.837624796135637e-7 2.9451395377422406e-7 3.286962456047691e-7 3.689821644977871e-7 3.85596528204504e-7 4.4000122699617567e-7
          5.849669425797574e-7 6.062691221291134e-7 6.742861368693688e-7 0.000001007725276847719 0.0000010274357264726521 0.000001089410493138619
          0.000001714819774056097 0.0000017209699772664598 0.000001743644737674722 0.000002791427715380225 0.0000027665980540110252 0.000002700898200656045
          0.000004412908903663859 0.000004332877031196898 0.000004093618098012034 0.000007419013556556182 0.000007228526903232539 0.0000066133065330642455
          3.8508453723890347e-7 3.913035987174625e-7 4.103104319144774e-7 4.016768390916446e-7 4.113385374820585e-7 4.4261131364395533e-7
          4.484393121865839e-7 4.6591211608250447e-7 5.223104699810838e-7 5.942056185693897e-7 6.201368918039761e-7 7.035465470325672e-7
          9.336950751748951e-7 9.648615286199577e-7 0.0000010635959739257365 0.0000015758801092633533 0.0000016029587000877552 0.0000016883400172379432
          0.0000026328443123992975 0.00000263917905092236 0.000002664729977493566 0.000004225888793948225 0.000004189766614257189 0.000004091150894470047
          0.000006586375864792402 0.0000064732689398616074 0.00000614468145729743 0.00001067830844790259 0.000010430084150980136 0.000009637119567640695
          5.234223752982334e-7 5.347135465929909e-7 5.684698641004991e-7 5.538349586234333e-7 5.71400319226052e-7 6.258545783986783e-7
          6.434996647518126e-7 6.697397156957896e-7 7.533184005516284e-7 8.697200377108747e-7 9.055229121666406e-7 0.0000010181112097711739
          0.0000013491687862432266 0.0000013888015171080518 0.0000015131505598725726 0.0000022172060406539975 0.000002248649745638511 0.0000023484017730816394
          0.0000036163089162081217 0.0000036201633949140875 0.000003640214284987852 0.000005694240037734288 0.00000564690306276272 0.0000055158283667424
          0.000008699227931728829 0.000008563545231640042 0.000008172482818650702 0.000013458203641778517 0.00001318773857235916 0.000012336450905336937
          6.752405914736393e-7 6.943254108130281e-7 7.496651664648703e-7 7.331268211600791e-7 7.607495929438272e-7 8.446418641208765e-7
          8.846836660408971e-7 9.213733094516122e-7 0.0000010355266441144737 0.0000012144718943534646 0.0000012594224697058838 0.000001398611335797117
          0.0000018516253685847624 0.0000018969125354079553 0.0000020384628112067624 0.000002949272445423853 0.0000029813146683704914 0.0000030840943893933965
          0.0000046731992162571144 0.000004671645932101601 0.0000046775627196338406 0.000007186536485022691 0.00000712971862808398 0.0000069683086576745925
          0.000010708158716746712 0.000010558932115850574 0.000010134027678095218 0.00001580530650682746 0.0000155433222306434 0.000014723405437921906
          8.52467100701495e-7 8.807438198181582e-7 9.632627493399334e-7 9.570053860743027e-7 9.94959701628262e-7 0.0000011101845529090136
          0.0000011923350989439755 0.00000123820372205941 0.0000013806322349046051 0.0000016485382319384941 0.000001699039252269705 0.0000018567134951261584
          0.000002458303299175744 0.000002504457598219077 0.0000026507519214448605 0.00000378264173293619 0.0000038109577201529826 0.000003904230893310336
          0.0000058008154230180445 0.0000057921049502381505 0.000005777070033075019 0.00000867788959392309 0.000008614388643158424 0.000008428326324321097
          0.0000125752788196059 0.000012425107018329937 0.000011993895799331984 0.000017738069088432226 0.000017505821769847265 0.00001677942168084074
          0.0000010752289416667116 0.000001108689389703353 0.000001215226736324487 0.0000012501773107743602 0.000001292289805528105 0.0000014294451910744446
          0.0000015912167266047902 0.0000016387209680311565 0.0000017956389354901211 0.0000021920485937586873 0.000002239999501809312 0.0000023989493607894562
          0.0000031814579481259338 0.0000032215420582736246 0.000003355558813015154 0.0000047191684200823924 0.000004739672040468962 0.000004811235650254383
          0.000006984559794464032 0.0000069695471537425135 0.00000693134396410618 0.000010134142589570122 0.000010070138780773066 0.00000987183481529223
          0.00001425734880848841 0.000014123035794814392 0.000013716725652405722 0.000019293095906661935 0.000019111785889613332 0.000018522092498558895
          0.000001369496014062291 0.0000013963678448761564 0.000001506718161741566 0.000001639743379545106 0.0000016725703246956074 0.0000018043225171061384
          0.00000210572357862009 0.0000021414710530387743 0.0000022826953107260105 0.000002861007949499913 0.000002895279910822614 0.0000030274060907940352
          0.0000040257623426197 0.000004052344852716528 0.0000041529764747260155 0.00000575036427315371 0.000005760782690900236 0.000005800821715180359
          0.000008201091137737925 0.000008184186553654633 0.000008128422632732343 0.00001151297702485814 0.000011460352570534263 0.000011273815514830111
          0.00001571800952357755 0.00001561840293931886 0.0000152790251651225 0.0000205317181149601 0.000020414616460554158 0.000019992079351056556
          0.0000027397046761585453 0.000002768830667873298 0.000002861988911571009 0.000003652283154330884 0.0000036781002375297106 0.0000037596007084989926
          0.000004979367417983517 0.000004997216915244843 0.000005051693070714097 0.000006855615245257143 0.000006859308177028136 0.000006867736075037966
          0.000009424991548985254 0.00000940677069275812 0.000009346763719921896 0.000012791375669675143 0.000012745403616015641 0.000012596402562423245
          0.000016946402680770063 0.000016867927508036246 0.000016626249730657635 0.00002150804049285373 0.00002142331782696954 0.000021158968236928103
          0.000027420271979026267 0.000026881257533988634 0.00002688328163320379 0.000027424247824344285 0.000027423524444087934 0.000026865893408284867
          0.000026887532339778966 0.000027424504322525642 0.000027391521974934673 0.00002696215294281579 0.000026894784909011285 0.000027427598113617973
          0.000027931038158064494 0.000027966436265189152 0.000027924478633126614 0.00002796574865023298 0.00002795360067593563 0.00002797608432191429
          0.00002789534111995439 0.00002828811826031381 0.00002830059395716674 0.000027877783311775534 0.000028282369407698202 0.000028285938079082987
          0.000027914381338221567 0.000028300844069615546 0.000028326481066251822 0.00000738758953601769 0.000011163996171277258 0.00000897998005418825
          0.000006427338383896553 0.0000070803789530113335 0.000010756754833282929 0.000008581033713309518 0.000006120721064692386 0.000006180589168261692
          0.000009483925931349606 0.0000073977453694774454 0.000005266780801155422 0.000024099303882063292 0.00002470589364592852 0.000025796533646011866
          0.000025378936472936455 0.00002398197483692298 0.00002457447634612138 0.000025926063723228414 0.000025391881628316543 0.000023215212468441533
          0.000023827910425131315 0.0000262247891873437 0.00002532850375296577 0.000014019693341275636 0.000015470052797194323 0.000012959045633855184
          0.000011518305006616652 0.00001370036781248534 0.000015087068767388336 0.000012572971293125659 0.000011217164378955502 0.00001267437380396386
          0.00001390092093499232 0.00001138770404550107 0.000010246964793147401 0.00002173740800396164 0.00002031411922945014 0.000022002158277895704
          0.000023317284007440172 0.000021513096539505538 0.00002005980464465377 0.000021831956947486193 0.000023179286548223503 0.000020740722797133945
          0.000019269431259020138 0.000021274564377154975 0.00002262985690468465 0.000021955682414838467 0.000020922305304258373 0.000021845927922836864
          0.00002076597282507365 0.000021474150279329882 0.00002023709707493941 0.000010967030142101756 0.000014149039597511708 0.000010603600617268736
          0.000013726429902655614 0.000009476303041679787 0.000012388340740094022 0.00002763244095999324 0.000028037639228140715 0.000028129953757932415
          0.00002759650260017173 0.000027628210336417466 0.000028025508251339138 0.00002811089683722699 0.00002759085482819046 0.000027548165394227236
          0.000027971281486217494 0.000028035868669190827 0.00002750735089519055 0.0000021272652037504153 0.000004694292710308298 0.000003557233541427664
          0 0.0000020724045343163465 0.0000045504549679962265 0.000003404074903589635 0 0.0000018451163867978077
          0.000004052462808616686 0.000002955737509392107 0 0.000013215923078032535 0.00001170688151842379 0.00001273453816337472
          0.000011217315955444367 0.000011201966360616843 0.000009641134176447894 0.000026766939329165192 0.00002651300146130505 0.000027257764043736316
          0.00002745941557809751 0.000026770464922353474 0.000026509030673995983 0.000027256875802343484 0.00002745914214469577 0.00002675404337485216
          0.00002648710940071574 0.00002725417478525188 0.000027459595351232627 0.000016855818253225675 0.00000910022929152626 0.000008819923256672338
          0.000014853790300134029 0.000016507401509590085 0.000008911442259336151 0.000008588011886534307 0.000014356532500296962 0.000014691095807311908
          0.000007616929148291592 0.000007158766503774288 0.00001214721314955694 0.00002867420462413258 0.000028412480524170217 0.00002835118370532706
          0.000028649410550467547 0.000028630266260745005 0.000028377879431152575 0.000028324022865904657 0.000028632148056690747 0.00002875397032941889
          0.000028412862397216852 0.000028400766460365468 0.000028582931774001555 0.00001923236644294663 0.000019954628497051236 0.00001894348332580741
          0.000019661024673120484 0.000018012893074977092 0.000018680006979491665 0.000008439985205600264 0.000008167232944077488 0.000007312004065616945
          0.000027154395214441053 0.00002664375695194883 0.000027148347216280696 0.000026649875951307296 0.00002703442308199841 0.00002701751204049722
          0.000026219726598986183 0.000025744297078305657 0.00002629908061734345 0.00002630679253726018 0.000025620552829623546 0.000026270283482737797
          0.00002688576009937189 0.00002524482062184709 0.000026132330379724256 0.000020184390574246985 0.000021873819912475095 0.00002008087786943412
          0.000016829839604581438 0.000019727169929466744 0.000021477696484267332 0.000019539633928652532 0.0000162907535769696 0.000018366416079713198
          0.000020219043583353046 0.000017831204523814913 0.000014600737169247192 0 0.0000034607860820284845 0
          0 0.0000032904184072887186 0 0 0.0000028323621377892458 0
          0.00002306622199149609 0.000019871548543104887 0.000022960678612058888 0.00001964479205840942 0.000022599257885561418 0.000018959123365267914
          0.000026385378757416366 0.00002656121031136008 0.000026444172003428986 0.000026421389249055832 0.000026418410931376238 0.000025901712329809455
          0.000024213793033707733 0.000025283430228369327 0.000024061495237719688 0.000025192707698056673 0.00002335875470913303 0.000024836646554045685
          0 0.0000036018264789079665 0.00000440816185413455 0 0 0.000003424111008555088
          0.000004244384321776006 0 0 0.000002808436917626801 0.000003408910709504489 0
          0.0000180137442979483 0.000019307004115623857 0.000016782466940499402 0.00001766209157672348 0.000018943912528138286 0.000016360169028634692
          0.000016545436696100774 0.000017732796401735428 0.000015048131216097511 0.000026161336724385048 0.00002642599185849697 0.000026150695998733668
          0.000026421332630925513 0.000026059537122190667 0.000026356395301755915 0.000016745140861406445 0.0000183210745415588 0.00001643136089334109
          0.000018050880076706046 0.00001543910172189778 0.000017211447919789602 0.00002243394657648121 0.000022654840985913003 0.00002219346249211039
          0.000022347515927305067 0.000021278772282259984 0.000021270308646427794 0.000023775747691953797 0.000024878586811199162 0.000023619338564551152
          0.000024805266332900206 0.000022998778918436074 0.00002452031774111912 0.000028607436282028864 0.000028316176183298546 0.000028589760775616017
          0.000028593915268798156 0.00002831190143276019 0.000028581437723240696 0.000028596309111515385 0.00002832896103649738 0.00002859029978049983
          0.000024503625363218982 0.000025699673047538515 0.00002431474218204477 0.0000244493710138327 0.000025677741612149293 0.000024233375646407453
          0.000024275965150551192 0.000025601843680912653 0.000023941523162095364 0.0000031427089209622376 0.000002557705338454499 0
          0.000002992471073934827 0.000002432500370866295 0 0.0000025019909156820653 0.0000020088625110347694 0
          0 0 0 0.000028569368682024434 0.000028297759294223596 0.0000282020070968081
          0.000028564130236806314 0.000028566413759690464 0.00002829698021993848 0.00002820203166964411 0.000028562367310110565 0.000028576183953682662
          0.000028308898228391603 0.000028212764059706265 0.00002857212462407795 0.000005918027476259156 0.000006917593397027528 0.000005635818004920361
          0.000006597509809048835 0.000004744364111451177 0.000005557866443852518 0.000028319865498489112 0.000028576917356269895 0.00002831798831540874
          0.000028571949281667048 0.000028331116343287943 0.000028582477043377533 0.000004776541165516618 0.000009403810776544048 0.000004659054020057447
          0.000009043307640010854 0.0000038368461940918835 0.000007394672120706532 0.00001622353345789317 0.000019338238050710227 0.000015647853828992268
          0.0000186474059097721 0.000013649944130742729 0.000016756613301510905 0.000027965717215765633 0.00002796592974088416 0.000027976034405184815
          0.00002307149904954394 0.000022982001332361387 0.00002273800893449105 0.000023452505940819583 0.00002514739286019846 0.000023410224638833872
          0.000025125514826571725 0.00002210644000221371 0.000024647666812900936 0.00002350186973597422 0.000023400370899099712 0.000022979236518736625
          0.000026786032954872342 0.000026800703650192483 0.000026904090541087813 0.0000286287529787289 0.00002861108163670628 0.00002859313304709718
          0.00002582952674107675 0.000025808336172172372 0.00002569684671807952 0.00002793977391689149 0.00002794144649010555 0.000027948606621724916
          0.00002687863112218791 0.00002706525397361474 0.000027233587010637156 0.00002294364126779903 0.000022958040135606762 0.000021226645332778497
          0 0 0 0 0 0
          0.000028562638641566743 0.000028562143559927084 0.000028571583694083188 0.000028686068416253758 0.00002862132321765416 0.000028798288981241735
          0.000007199111301654703 0.000007200721347807279 0.000007186143401214092 0.000010986609775523548 0.00001097721570495471 0.000010960944671094769
          0.000009071096027160323 0.000009065890798300325 0.000009033959421643499 0.000013231634210907851 0.00001321688761470066 0.000013182830389322478
          0.000011385304545238834 0.000011372278313736383 0.000011323459796419985 0.000014181258089164164 0.00001415946818182585 0.000014095277024965272
          0.00001744246168203928 0.000017412067264132878 0.00001733627056355082 0.00002099415231918629 0.00002095961285882434 0.000020884376064018212
          0.000024449647340457757 0.00002443437832649876 0.000024392052719414337 0.000024429575018204485 0.000025401207406651725 0.000024392093831868785
          0.000025393279468511337 0.000024291085871225697 0.000025335936877661056 0.000026851576012620723 0.000027580253367823555 0.00002723309673070279
          0.000026364039768458197 0.000026848606462673078 0.00002758139561646981 0.00002723271011852608 0.000026357891827102773 0.000026838045550925194
          0.0000275827829003211 0.000027231661464483258 0.00002633924015208546 0.000027930269823138085 0.000027931550196166978 0.000027938731906981256
          0.00002597719284236046 0.000025972564871320507 0.000025945592410502205 0.0000287432974272131 0.000028744382144630777 0.000028749958847260385
          0.000017274255688609046 0.000014873105950542673 0.000017262748939953486 0.000014867049458544805 0.000017227652746323755 0.00001484778285509056
          0.00001577038745370511 0.000015751376214306167 0.000015701141003007895 0.0000197901516332194 0.00001977383125762672 0.000019724141665074263
          0.000018548201751284962 0.00001852723507148937 0.00001846431872367554 0.00002143446950444701 0.000021413565833763375 0.000021344818010233275
          0.000024186178536912246 0.000024173278979432238 0.00002411236528772542 0.000026292449116296356 0.000026286605540745854 0.000026261246233495045
          0.00002710222057779285 0.000027098232919640224 0.00002709069827559658 0.000029082595959612464 0.000027968909293415713 0.00002853788311378401
          0.00002908372925797266 0.000027968402193843975 0.00002853790332158113 0.000029086175202494787 0.000027967878969140174 0.000028538868034831558
        </DataArray>
        <DataArray type="Float64" Name="disp_y" format="ascii" RangeMin="-0.000020786750909863336" RangeMax="-0.0000028820805597643577">
          -0.000002886905313862091 -0.0000028845622583449148 -0.000002885704140192468 -0.0000028843358738634354 -0.0000028828899410530922 -0.0000028820805597643577
          -0.0000030318424671021767 -0.0000030290612089007406 -0.0000030287912646452225 -0.000003025771460924817 -0.000003021881539647858 -0.0000030199924323792768
          -0.000003178205967640208 -0.000003171838106242883 -0.0000031705284163482476 -0.0000031642644735545856 -0.000003152530038281002 -0.0000031470501707923775
          -0.0000033386187754320877 -0.0000033231052715111007 -0.0000033244518197031686 -0.000003309057250153787 -0.0000032819545121015116 -0.0000032676540604994075
          -0.000003559835652062182 -0.0000035311147967076057 -0.0000035331845293218094 -0.000003504355363933314 -0.0000034477732757184495 -0.0000034190789023311928
          -0.0000039072354538094164 -0.000003860564368765321 -0.0000038621858827812755 -0.000003815102257082939 -0.0000037137653623574727 -0.000003665440139596371
          -0.0000044618180993557495 -0.000004392181306874991 -0.000004392604539592413 -0.000004322385638989379 -0.000004164826659667235 -0.000004091586002149635
          -0.000005314087787916342 -0.000005213432795495726 -0.000005214282903049459 -0.000005112346789790891 -0.000004888279993839897 -0.00000478127079525328
          -0.0000065608833135764585 -0.000006406966893801056 -0.000006426785979345581 -0.000006265205272680309 -0.000005957708822430916 -0.0000057761521256752984
          -0.000008241538600679996 -0.000007966315589911806 -0.000008063576532181095 -0.000007779866100577897 -0.0000073749893492753415 -0.000007028751793611301
          -0.000002891642767218588 -0.0000028894613102670518 -0.000002885433859042894 -0.0000030420897933278418 -0.0000030381329008052155 -0.0000030286513944316586
          -0.000003199445564412054 -0.0000031920439381297596 -0.000003171155658583313 -0.000003387030517341473 -0.000003372416714911877 -0.000003327346873510786
          -0.000003648002676810125 -0.000003621729961615209 -0.0000035361331940222548 -0.000004048838898951938 -0.00000400496075463421 -0.000003860103897548342
          -0.000004671358481307335 -0.000004604280387549761 -0.000004385475957402608 -0.000005616792703932793 -0.0000055209877410377544 -0.000005211584849711224
          -0.000007012874603382769 -0.000006894140856807221 -0.0000064752015629907 -0.000009012084094672174 -0.000008855817878383533 -0.000008297296429199584
          -0.0000028990322461484514 -0.0000028960244733796275 -0.0000028897706496299282 -0.0000030610232725630873 -0.0000030561884091329963 -0.0000030430142269235747
          -0.0000032419857810592415 -0.0000032340037118790905 -0.0000032080438760732217 -0.000003473539985452058 -0.0000034587314995873966 -0.000003410061232604683
          -0.000003801352726941754 -0.0000037754824681547703 -0.000003689696764047303 -0.000004289340845875822 -0.000004247521762520358 -0.000004108885801706767
          -0.000005021479747012581 -0.000004958009373345478 -0.000004754380742471369 -0.000006119434861153187 -0.000006031376156572735 -0.00000574970124684317
          -0.000007721849280230305 -0.000007622597122049778 -0.000007270874895206839 -0.000009876605674178212 -0.000009772787923245936 -0.000009415361438612916
          -0.0000029116465242085505 -0.0000029077341111823356 -0.0000028978394365144856 -0.0000030935011141021794 -0.0000030877291357910847 -0.000003069195004763812
          -0.0000033118946361569828 -0.0000033027831569085363 -0.000003270749437021853 -0.0000036064316027799403 -0.0000035913124420554335 -0.0000035382589558566145
          -0.0000040268263290208694 -0.000004001746048231009 -0.0000039163625809115825 -0.000004633620362558373 -0.0000045945563793566266 -0.000004465281775163362
          -0.000005512694096981415 -0.000005454905379661243 -0.000005272297984833815 -0.000006796409247463038 -0.0000067182938152126525 -0.000006474374630637073
          -0.000008612384973041304 -0.00000853712625752464 -0.000008266808888181403 -0.000010939814301586316 -0.00001088961239308768 -0.000010726952478233016
          -0.000002933497176123187 -0.000002928457607855931 -0.000002913559443061606 -0.000003145277384141448 -0.000003138454970526379 -0.0000031136090669136667
          -0.0000034166441048444808 -0.00000340657419434445 -0.000003368160726084048 -0.0000037938630815124016 -0.0000037784945301557064 -0.000003721625015052442
          -0.0000043305734705587955 -0.000004306467758709331 -0.0000042234645212818306 -0.000005084302392466896 -0.000005048607368585478 -0.000004931946483943955
          -0.000006138003792204129 -0.000006087229092415642 -0.0000059304811900979695 -0.000007613927734832332 -0.000007549484346252827 -0.000007352701770195672
          -0.000009607310155061086 -0.000009557102169019422 -0.000009373731780155882 -0.00001208539749845752 -0.000012061756129209489 -0.00001202320838366736
          -0.0000029700587265109923 -0.0000029637183490073345 -0.0000029422684199487024 -0.0000032242431635174587 -0.000003216006302353904 -0.000003184401904430249
          -0.0000035650573157112665 -0.000003553827570636305 -0.000003509456093205979 -0.00000404417577777043 -0.000004028179129989266 -0.000003968555526346039
          -0.0000047168059699634104 -0.000004693681946847934 -0.0000046151684419033366 -0.000005638658339383134 -0.000005606614473268834 -0.0000055054152257333225
          -0.000006880266399759734 -0.000006837674988136024 -0.000006710914791494515 -0.000008534713068960424 -0.00000848618507982938 -0.000008341394066221257
          -0.00001065463638124984 -0.000010623446161075287 -0.000010517436208867095 -0.000013120707210444084 -0.000013130216644253472 -0.000013187941750569994
          -0.000003028372903943757 -0.0000030203665634058146 -0.000002991405550184943 -0.0000033393883967263646 -0.000003329110099178298 -0.0000032900604365757424
          -0.0000037660218350741735 -0.0000037527532556075194 -0.0000037026898850641646 -0.0000043628554290657155 -0.000004345423632866363 -0.000004284360561460552
          -0.000005184980509520637 -0.000005162525424661723 -0.000005090311419572366 -0.000006285333280272119 -0.0000062572133894185 -0.0000061735654691114615
          -0.000007714612537667745 -0.0000076812472764097 -0.00000758700527008577 -0.000009517999135003101 -0.000009485715257482104 -0.000009392756365464443
          -0.000011695809420563119 -0.000011683761267411867 -0.000011646360687415873 -0.000014092710675803465 -0.000014116569145406463 -0.00001422381225637823
          -0.000003117788662748959 -0.0000031067967979335474 -0.000003069133697999309 -0.0000034999357599497945 -0.0000034861571853170578 -0.000003438640369405627
          -0.000004026399992658306 -0.000004009536005993527 -0.000003953354662729661 -0.000004751187501340085 -0.00000473166444831339 -0.0000046694415372191545
          -0.000005727830219762501 -0.000005706438234554001 -0.000005641444701912474 -0.000007002403462006489 -0.000006980215221499305 -0.000006915669215385054
          -0.000008605281719206148 -0.000008584545105544693 -0.000008524588545048775 -0.000010525122257537512 -0.00001051256377983813 -0.000010470717916055856
          -0.00001269552251881367 -0.000012700148684333926 -0.00001271765137802039 -0.000015013948707072137 -0.0000150390533087752 -0.000015170657735783026
          -0.000004347615281083918 -0.000004328225172281206 -0.0000042670724110828095 -0.00000520422604166364 -0.000005183286450990463 -0.000005122586850938679
          -0.0000063304602866846524 -0.0000063098535518057775 -0.0000062556799810052645 -0.000007763460128824079 -0.000007744969084191698 -0.000007704050144990282
          -0.000009512584077420713 -0.000009498896605821883 -0.000009478151741279269 -0.000011527052169381885 -0.000011525237880451306 -0.000011538706625414058
          -0.000013663838373105288 -0.00001367578196289646 -0.000013746211185415249 -0.000015732086290327857 -0.00001577058774566773 -0.000015884280877021266
          -0.000015948247861584302 -0.000015953409094930327 -0.00001638065257351325 -0.000016501118325416532 -0.000016006422493252594 -0.00001601405972597175
          -0.00001642863185882802 -0.000016544554583370542 -0.000016139200841418965 -0.000016182123862137468 -0.00001657647641184821 -0.000016637445850286825
          -0.00001613639160739417 -0.000016567391523671037 -0.00001618887544566982 -0.00001660318937904943 -0.00001627180304827533 -0.00001668659561778122
          -0.00001567060848400883 -0.000016151744405781847 -0.000015784159284014082 -0.000015728106721880742 -0.00001620118752038087 -0.000015844360951523556
          -0.000015942596346131572 -0.00001628785752383067 -0.00001599743327721265 -0.000009905392082725678 -0.000010775808830562444 -0.000010890713143590258
          -0.000010516637296308903 -0.000009671785460755598 -0.000010600638195303216 -0.000010644406865603305 -0.000010218457610809942 -0.000008743580630924943
          -0.00000982635524875798 -0.000009546943731261364 -0.000009030367538812524 -0.00001390210699220752 -0.000014547138869905226 -0.000014534936852019278
          -0.000013971635105006918 -0.00001397154032262821 -0.00001481078010278372 -0.0000147151165729264 -0.000014016858131044448 -0.000014225816185212438
          -0.000015268494869978248 -0.000014776053738553662 -0.000014447454616812043 -0.000011050413587404934 -0.00001164727795846475 -0.00001080350023167941
          -0.00001033087878420726 -0.000010992095283255252 -0.000011613914201123503 -0.000010720372204417666 -0.000010223790154644002 -0.000010784058508665012
          -0.000011439802449767933 -0.000010360221653559035 -0.000009815474556810698 -0.00001454314075455949 -0.000014077883740962392 -0.000015078738920167053
          -0.00001537031229788434 -0.00001460503187632954 -0.000014109023260610582 -0.000015117421652042967 -0.0000154302391485204 -0.000014841923521590443
          -0.00001428152905722392 -0.000015318749472913257 -0.000015682960800028137 -0.00001568858962263221 -0.000014840695137255184 -0.000015726466043358054
          -0.00001486956701026812 -0.000015902149030348532 -0.00001502788676366449 -0.00001036490480453669 -0.000011185047276575796 -0.000010215482791366616
          -0.000011113487603732429 -0.000009621577503210978 -0.000010801742984436482 -0.000015211034336380377 -0.000015241243382734282 -0.000014761942353041037
          -0.000014556357190188867 -0.000015304611313220196 -0.000015310771343208765 -0.000014848871466125113 -0.000014640526465237999 -0.00001546238791370208
          -0.000015539363705950392 -0.000015144369127474995 -0.000015165649198499632 -0.00000843310912983258 -0.000008838297787760338 -0.00000930086663646111
          -0.000008728973710034098 -0.000008239715976696193 -0.000008637223954162356 -0.000009064756956406493 -0.000008502899255120108 -0.000007434708974188732
          -0.00000783603225384986 -0.000008070010488734371 -0.000007560740401914684 -0.000011578425861906806 -0.0000118721281971863 -0.000011432903865890022
          -0.000011618660155815793 -0.000010700420049033331 -0.000010456292016192919 -0.00001683337721320165 -0.000017425819968909567 -0.000017521743109701876
          -0.0000170610328510852 -0.000016874647938566676 -0.000017457218281766945 -0.000017548977504375555 -0.00001709187986410227 -0.000016998092552475414
          -0.00001754909023990564 -0.000017615134406837165 -0.000017169542208159807 -0.000017072626103592368 -0.00001854499496937272 -0.00001659307846996436
          -0.000014640569397866888 -0.00001648962850841267 -0.00001777192001648017 -0.00001590478665009634 -0.000014278523495982651 -0.000014722353837377376
          -0.000014374423470265756 -0.000013130968325711718 -0.000012998294670985348 -0.000015191033352699421 -0.000015149056176242615 -0.000015413625015766206
          -0.000015548441403260918 -0.00001526207344935635 -0.000015220354704885782 -0.000015468654680242918 -0.000015608713626965867 -0.000015475102737654054
          -0.00001553463170475723 -0.000015753875358064286 -0.000015833502627768097 -0.000013301911281026603 -0.000013512882565607326 -0.000013324397308166254
          -0.000013557706342113672 -0.00001344110986537325 -0.000013731755709724918 -0.00000953554145502944 -0.000009349657691742955 -0.00000868051403646454
          -0.000015368055267986252 -0.000015513595164449603 -0.00001547186350646169 -0.00001557417063659261 -0.000015654410629291782 -0.00001557376274110314
          -0.000015121952852086197 -0.000015242419651489462 -0.00001579633248863124 -0.000015023976308602346 -0.00001529798369993707 -0.000015830614810140473
          -0.000015041671501947336 -0.000015751849062715144 -0.000016147211447162517 -0.00001307989134204396 -0.000013440457643554661 -0.00001253474726295469
          -0.000011982548578679701 -0.000013186445533242168 -0.00001353131833224956 -0.000012472878863401124 -0.000011938808532614397 -0.00001335919351900158
          -0.000013743078730045599 -0.000012767833464757988 -0.00001178706799119972 -0.000009546232015390324 -0.000010289814115865196 -0.000010429779071575538
          -0.000009256893893391986 -0.000009962119201113434 -0.00001006406224009122 -0.000008103936018260267 -0.00000869438113523484 -0.000008669739952025947
          -0.00001598500650381635 -0.000014122180100733512 -0.00001602965171399907 -0.0000141515732822707 -0.000016235310391140676 -0.000014294572999517437
          -0.000014445813529100991 -0.000013831627648337577 -0.000014597233991349603 -0.000013808326206487021 -0.00001489236235762375 -0.000014625546461980885
          -0.000014902829860437367 -0.000015718774219743347 -0.00001499663389759376 -0.000015756163913097328 -0.00001537559724577638 -0.000016079305314057696
          -0.000015182329246107172 -0.000013740443343057687 -0.000015422053449841344 -0.000016936047577420714 -0.000014410091515227716 -0.000013120588403653324
          -0.000014708974343057014 -0.000016045031424870037 -0.000011421436947899125 -0.000010834333116784486 -0.000011870240664786956 -0.000012368608024171944
          -0.00001273415806139742 -0.000012996946463927668 -0.000012072752636987902 -0.00001274793090289808 -0.00001305639735277139 -0.000012050254714526621
          -0.000012766482879429045 -0.000013149679108351179 -0.000011885828187230542 -0.000016434101974285003 -0.000016218796969060133 -0.000016484802822739294
          -0.000016267294539517818 -0.000016676531060630425 -0.00001647297652618666 -0.000012238053366791865 -0.000013175630822878949 -0.000012219070147040536
          -0.000013172290754317433 -0.00001218990395381251 -0.00001324657843415296 -0.0000144498397716383 -0.000014028425239284276 -0.000014540534960091638
          -0.0000141728446271849 -0.000014841785516241262 -0.000014503089859822162 -0.000015209557701161729 -0.000016169288882490805 -0.000015270415771902866
          -0.0000162199330797547 -0.00001556812572648444 -0.000016447323559848595 -0.00001621559491364178 -0.00001646645416605728 -0.000016524448555458506
          -0.000016260783661806834 -0.00001650434520369736 -0.000016559525148493256 -0.000016342194377607906 -0.00001657838529965081 -0.000016630865918367858
          -0.00001688292963601518 -0.00001726869975588787 -0.000016313859155983348 -0.00001692181815227164 -0.000017306035349610016 -0.000016362992455969474
          -0.000017062834491237183 -0.000017436860039574504 -0.00001657556251366211 -0.000011085316372156738 -0.000012327855337945307 -0.000011934581061034383
          -0.000010670760883602424 -0.00001181275951239545 -0.000011436719068412183 -0.000009153123696807856 -0.000009909918122159631 -0.00000956875955627837
          -0.000013502704790620307 -0.00001286846262559338 -0.000010481894038390078 -0.00001709444138827149 -0.00001699003457253867 -0.000017245512921386494
          -0.000017361615602692623 -0.000017119586810478085 -0.00001701774874523884 -0.000017270191527893035 -0.000017383306332372127 -0.00001717954403922294
          -0.000017081829597336727 -0.00001732934560871695 -0.000017436172722821543 -0.000011611738955253575 -0.000012836075868836033 -0.000011197921111168306
          -0.000012357158137059552 -0.00000969059637431041 -0.000010620669465517361 -0.000016746254074426617 -0.000016816010353629947 -0.00001677744849914816
          -0.000016845223283148426 -0.000016847725835412468 -0.000016910817238405037 -0.000016618001093679054 -0.000014274739859993687 -0.000015844602093737975
          -0.000013745013790325294 -0.000012629192018231995 -0.000011749147687359918 -0.000012566206876038506 -0.000013581245907239954 -0.000012435400644587802
          -0.000013542987985169235 -0.000011682653017697934 -0.000013360930214608001 -0.000016967573760745538 -0.000016997371826482537 -0.000017064567768624946
          -0.00001636079028409284 -0.000016408424857631273 -0.00001653204783228452 -0.000012948824842360732 -0.000012979401368415214 -0.000013042900684895676
          -0.00001306951988777074 -0.000013868889896470207 -0.000014612551731352659 -0.000015708409626223724 -0.00001575045619687565 -0.000015965615013433095
          -0.000014767444050817458 -0.000014842722042688688 -0.000015372127010434645 -0.000015889921748211916 -0.000015945573018025642 -0.000016069165368378254
          -0.00001673645874663761 -0.000016786323165768514 -0.00001695787540335273 -0.000017587099997291585 -0.000017609229602600282 -0.000017660596556412078
          -0.00001413632500415546 -0.000014378669497669724 -0.000015054422868228874 -0.000014510614203574848 -0.000014503617063187183 -0.00001485637183467911
          -0.00001865145034563047 -0.000017670851366765344 -0.000013266988531384335 -0.000008250779362572138 -0.000008051144638983976 -0.00000723434598768638
          -0.000017616932826453704 -0.00001763571055867093 -0.00001768215031797678 -0.000014834126628473128 -0.000014916221049892365 -0.000015145443406253658
          -0.0000072575499847208865 -0.000007245003311233086 -0.000007207063022895583 -0.000009575369600961226 -0.000009569170755293261 -0.000009550420765113786
          -0.000008810221729798642 -0.000008802199666929042 -0.000008776930408123545 -0.000011347614463767638 -0.000011345659743131446 -0.000011340049807327796
          -0.000010623449357235285 -0.000010621812321145005 -0.00001061498549652194 -0.00001263556699210396 -0.00001264227335361793 -0.000012659977918329689
          -0.000014711909699300554 -0.00001473229929633994 -0.00001478450975335884 -0.000016651827548705788 -0.000016680002303614086 -0.000016779764324940456
          -0.00001825055103121632 -0.000018280047106806274 -0.000018390801661277205 -0.000017431657871325985 -0.00001788044540802938 -0.000017465901369174212
          -0.0000179066865472816 -0.00001758525107508224 -0.000018017558585252956 -0.000018916257546478854 -0.000019058414167524603 -0.000018228110118016535
          -0.000018118160555617102 -0.00001893534512841763 -0.000019072406612900068 -0.000018248649706260975 -0.000018143858159728184 -0.00001898865208212258
          -0.000019111636247729497 -0.000018304933037199466 -0.000018228631415210738 -0.000018297933785388783 -0.000018314772446876927 -0.000018356512492773583
          -0.000018726233073495257 -0.000018751918802361566 -0.000018823121047212248 -0.000019341860674188393 -0.000019352197417006245 -0.000019376814206874027
          -0.000013747775041263492 -0.000011937350325819168 -0.000013751988048335329 -0.000011936987681138853 -0.000013764256536637447 -0.000011935898519144928
          -0.000013274157235650339 -0.00001327807757083818 -0.000013290261399486619 -0.000015588288447059322 -0.000015597899680044456 -0.000015626165585808556
          -0.000015252519245259671 -0.00001526361365122133 -0.00001529839246730532 -0.000017123508423056882 -0.00001714408252412538 -0.00001720536440103486
          -0.000018681460916047472 -0.000018707008193104692 -0.000018792957869105366 -0.000019712195661288458 -0.000019733600325316173 -0.000019802766386278577
          -0.000019824237298540246 -0.000019841038865388906 -0.00001988656227956466 -0.000020489327147163353 -0.000019908085344426093 -0.000020752589000633277
          -0.00002049784588248876 -0.000019918819411081835 -0.000020761148614559207 -0.000020522054960944203 -0.000019952149005640666 -0.000020786750909863336
        </DataArray>
        <DataArray type="Float64" Name="disp_z" format="ascii" RangeMin="-0.000016056069919355004" RangeMax="5.959557000608853e-7">
          0 0 -4.4183447172414575e-8 -4.3580931196362857e-8 -9.212692358077076e-8 -9.041692334928374e-8
          0 0 -5.090158800764812e-8 -5.253850546617388e-8 -1.0539248269562705e-7 -1.0415139825545275e-7
          0 0 -5.98809994392481e-8 -5.623548193602476e-8 -1.3201934214381347e-7 -1.2469884928796913e-7
          0 0 -9.977305685610092e-8 -9.333728284172147e-8 -2.2226989389245885e-7 -2.0826086277121176e-7
          0 0 -2.0395116454984438e-7 -1.9443046477171792e-7 -4.4353303905057985e-7 -4.2503113470036647e-7
          0 0 -4.187634839593194e-7 -4.084208623176293e-7 -8.792239640594848e-7 -8.59988676627741e-7
          0 0 -7.925193600241026e-7 -7.846101018480492e-7 -0.0000016151513680283205 -0.0000016013198322830424
          0 0 -0.0000013707294095092897 -0.0000013736452014154701 -0.0000027385408420745184 -0.0000027449899471617922
          0 0 -0.000002265241566575724 -0.0000022901731728054443 -0.000004463303471709134 -0.0000045156701877349275
          0 0 -0.000004052538188366399 -0.000004245231674540383 -0.000007909805950804667 -0.000008265769577612887
          0 -4.616051685665665e-8 -9.778636225105042e-8 0 -5.167840364485684e-8 -1.1287378903108773e-7
          0 -7.077006227759214e-8 -1.5604736503922958e-7 0 -1.1967943652423723e-7 -2.6415467552049207e-7
          0 -2.3208346508461446e-7 -4.986196745838931e-7 0 -4.4944711427967117e-7 -9.35984490441426e-7
          0 -8.140370744159668e-7 -0.0000016523355562284472 0 -0.0000013646666928139135 -0.000002724693615001825
          0 -0.000002175920122111744 -0.000004283129652203246 0 -0.000003591725257580513 -0.00000704008321200122
          0 -5.059091916124919e-8 -1.0939191378187259e-7 0 -6.02078865313723e-8 -1.3404822602825867e-7
          0 -9.067330845630892e-8 -2.0002129007403368e-7 0 -1.5414019980119225e-7 -3.351401134649975e-7
          0 -2.785437627594725e-7 -5.889243447349007e-7 0 -4.981547832413109e-7 -0.000001025507444545585
          0 -8.462052158161566e-7 -0.000001708326118173299 0 -0.0000013474809141285673 -0.000002684572886938241
          0 -0.000002049444823291754 -0.000004041405490569929 0 -0.0000029990686389814674 -0.000005906901364254554
          0 -5.970434180947556e-8 -1.3169891153074819e-7 0 -7.743885806502525e-8 -1.7399104812102362e-7
          0 -1.2290259263110654e-7 -2.692285705325535e-7 0 -2.0480627151389033e-7 -4.366545017200724e-7
          0 -3.4253786034977576e-7 -7.113063595321281e-7 0 -5.609429278410921e-7 -0.0000011404093596021797
          0 -8.824767998624581e-7 -0.0000017703284217285257 0 -0.0000013187731984354795 -0.0000026233419218547205
          0 -0.0000018779923319813174 -0.0000037046937389287435 0 -0.000002374123811658953 -0.000004720699038686713
          0 -7.712106621853393e-8 -1.710946825814686e-7 0 -1.0806941138260476e-7 -2.3968989499682594e-7
          0 -1.7159111095925673e-7 -3.6862472506315283e-7 0 -2.726484297258919e-7 -5.687357253191427e-7
          0 -4.217150296488569e-7 -8.599511902899104e-7 0 -6.320593397137081e-7 -0.0000012700253079470223
          0 -9.152288795669391e-7 -0.0000018252210672879757 0 -0.0000012726653540415 -0.0000025282803875225733
          0 -0.0000016698823540059085 -0.000003302990697339765 0 -0.0000018110308467886688 -0.000003654375198819802
          0 -1.091415369782065e-7 -2.3571213763769472e-7 0 -1.58977606253095e-7 -3.3885650360343736e-7
          0 -2.4129598522021874e-7 -5.018122727222631e-7 0 -3.5876652618223043e-7 -7.295711001560973e-7
          0 -5.12343056506484e-7 -0.0000010265870047789952 0 -7.044744781388565e-7 -0.0000014013606693167575
          0 -9.365479641697065e-7 -0.0000018600921368133812 0 -0.00000119924250475359 -0.000002383435825711753
          0 -0.0000014424423176434704 -0.0000028744711118222866 0 -0.0000013291361530318727 -0.000002724518111644967
          0 -1.6304907000344119e-7 -3.319099617200245e-7 0 -2.35207753706921e-7 -4.742120689843414e-7
          0 -3.353473139889922e-7 -6.690670810657584e-7 0 -4.6235912505101083e-7 -9.142797804609957e-7
          0 -6.095336992585409e-7 -0.000001201183892071228 0 -7.70544179900003e-7 -0.0000015208591224296423
          0 -9.3765228970092e-7 -0.0000018611904029325178 0 -0.0000010948810929613867 -0.000002187906170142047
          0 -0.0000011900054965142988 -0.0000024062933119030067 0 -9.319806304128762e-7 -0.000001976387056574381
          0 -2.402803735941637e-7 -4.6241196664738607e-7 0 -3.3564002870401334e-7 -6.447195562920365e-7
          0 -4.506668979938222e-7 -8.667890022008647e-7 0 -5.78056677574855e-7 -0.0000011163524923425442
          0 -7.06527637465007e-7 -0.0000013740369063056293 0 -8.228227657220486e-7 -0.000001616441560056369
          0 -9.121669459927535e-7 -0.0000018169699028954237 0 -9.568285689373423e-7 -0.0000019383675224692775
          0 -9.148621866592808e-7 -0.0000019054354621213892 0 -6.031600964208415e-7 -0.0000013384235918808667
          0 -5.621327814042266e-7 -0.0000011113151039661807 0 -6.834758510008141e-7 -0.0000013486725223528254
          0 -7.857887132026882e-7 -0.000001550882414546572 0 -8.512458872687364e-7 -0.0000016843346020670878
          0 -8.609747198268227e-7 -0.0000017112827624762656 0 -8.032701049721046e-7 -0.0000016060899067929056
          0 -6.554698614015525e-7 -0.0000013321817891723532 0 -3.758332002373551e-7 -7.859925561544297e-7
          0 0 0 0 -1.7011109670448026e-8 -5.893711722118697e-8
          -6.276754599145238e-8 -2.654514239204583e-8 -6.267950220466703e-8 -1.199704498055848e-7 -1.3810441764213545e-7 -6.286411336272446e-8
          0 0 5.010129068220058e-9 -8.814555376046574e-10 4.5415749083687934e-9 -1.2541802255595296e-8
          0 0 0 1.1320990398629105e-8 2.5870451839961884e-8 3.86294203207945e-8
          1.8888796450975924e-8 3.79454793481426e-8 3.9868280474432326e-8 0 0 0
          0 -0.000004606308877698594 -0.0000040938331206978285 -0.0000050305242236187345 -0.000005155393434107009 -0.00000903599555328754
          -0.000008100342286575348 -0.000009991090531219875 -0.000010169558431234596 0 0 0
          0 -0.0000010259267395145923 -6.436901500911882e-7 2.5406931629996333e-7 -7.345322469830294e-7 -0.000002175163111260841
          -0.0000012445173323658468 -2.68134342763219e-7 -0.000001773327204649552 0 0 0
          0 -0.0000026064134219818476 -0.00000253787696620708 -0.0000032779775912895386 -0.0000032806511135850133 -0.0000051462722638705
          -0.000005068662380691565 -0.000006500878770134266 -0.0000064808246286075766 0 0 0
          0 -8.478111010225819e-7 -0.0000010300344495944583 -6.42100323095851e-7 -5.007167581191083e-7 -0.0000017785534208133592
          -0.0000021261239348406265 -0.0000014695681113803107 -0.000001224576630532481 0 0 -4.6512423281192155e-7
          -7.107546713133875e-7 -9.861066311597836e-7 -0.0000015685580683591005 0 0 -0.000003684738819739966
          -0.000003389975716344371 -0.000007198293439831357 -0.000006781283008746674 0 0 0
          0 -8.475872636268507e-9 2.4063479710184007e-8 1.712361813911746e-8 8.772586627447653e-10 -1.0157515351782169e-7
          6.45014816829084e-8 4.32237901559425e-8 -1.0252150463133062e-7 0 0 0
          0 -0.000004554057633916397 -0.00000437371331048459 -0.000004931840953362326 -0.000004911880310631089 -0.000008915142261793788
          -0.000008502591328592401 -0.000009653531636218778 -0.000009644899612620381 0 0 -0.000004010603212952127
          -0.000004963488309491233 -0.000007891690984243738 -0.000010003808227750055 0 0 0
          0 -6.96230545018984e-8 -8.090317233829842e-8 -4.964724287476784e-8 -3.309815496144436e-8 -1.5262737195617015e-7
          -1.7118571921741427e-7 -1.0796663603384719e-7 -7.346445167567181e-8 0 0 0
          0 -0.000005783066022135603 -0.000007096552062211013 -0.000006281466838684807 -0.00000517865357535445 -0.000011916405619719171
          -0.000014229618210418586 -0.000012253940429856565 -0.000010348315256723577 0 0 0
          0 7.221831294069831e-8 3.409010205510664e-8 4.9047768476289884e-8 7.534940859105658e-8 -6.535502337324385e-8
          2.06767877791292e-8 9.109883116276957e-8 1.4585513905870315e-7 0 0 -0.0000014103927244300451
          -0.0000013736401936035653 -0.000002879053895644852 -0.0000028888207080837384 0 -0.000003914407905305299 -0.000007707715304284028
          0 0 -3.163702459150615e-8 -5.869972891433896e-8 -1.3301602963314151e-7 5.959557000608853e-7
          0 0 0 -1.8352244954120308e-8 -2.3743370309021895e-7 -9.769948425008107e-8
          2.3623807015235652e-7 -7.691637031469683e-7 -3.1941133777129037e-7 0 0 0
          0 -0.000002090660776681903 -0.0000017979734537635404 -0.0000029411829651775964 -0.0000031280911255580415 -0.000004390848541158464
          -0.0000041771430080598695 -0.000006019198536124987 -0.000006273047629796733 0 0 0
          -0.00000511325615468137 -0.000005343278630649423 -0.000005470587629750092 -0.000009928989972431878 -0.000010555488651246694 -0.000010739714533699625
          0 0 -3.837486359995744e-7 -0.0000010007064544569187 -8.834306661322746e-7 -0.0000021203723259948325
          0 0 -1.1251591818836677e-8 -2.124496014619177e-7 -3.789923863338663e-7 -8.86605192288434e-7
          0 0 -5.451744528520519e-7 -2.560260910722973e-7 -0.0000011606752518071208 -6.758107996245706e-7
          0 0 0 0 -0.000006235659756711233 -0.000006062612642841388
          -0.000006685871200416469 -0.000007021829635397053 -0.00001227105404074725 -0.000011954506684503707 -0.00001327117577902887 -0.000013921330952008963
          0 0 0 -0.000001919290433660699 -0.000001924819919636962 -0.0000025947198853051643
          -0.000003900345839014806 -0.000003931216540836905 -0.000005246879714450699 0 0 -1.0364859525771788e-7
          -9.066978430757494e-8 -2.8337405166381195e-7 -2.5080678000809856e-7 0 0 -0.0000019189432115981405
          -0.0000013923422746278346 -0.000003859548657587415 -0.000002836845420922104 0 0 -9.543277889455544e-7
          -0.0000012571399435522745 -0.0000020710784383099834 -0.000002828316065527695 0 0 -5.123697113166169e-7
          -2.35283782212792e-7 -0.000001327104800933914 -5.722950698843885e-7 0 0 0
          4.9995739523417167e-8 1.993958309284643e-8 3.663841613531298e-8 6.594734961362486e-8 2.5743997022759297e-8 5.045425556586329e-8
          0 0 0 -2.3074786581098305e-7 -1.3151612501735785e-7 -2.484908627708628e-7
          -5.444459593011381e-7 -3.0601869872045867e-7 -5.706140024939499e-7 0 0 0
          -0.0000055215130869835965 -0.000005782057640034117 -0.000005690044017163813 -0.000010827145997217572 -0.00001138602830698755 -0.00001124225740845629
          0 -0.000005855268073490154 -0.000011524158107416814 0 0 0
          0 1.8508985262691872e-8 5.6642944889508596e-9 -4.7654519446400385e-9 1.0696982145080922e-8 2.493744684340381e-8
          3.5770152611232005e-9 -1.591762966046935e-8 1.3701806009668792e-8 0 0 -0.0000054414709630962426
          -0.000005798828586237867 -0.000010599692638660082 -0.00001150545319265418 0 0 1.3248321934606743e-8
          2.6822521473133772e-8 1.50892708623965e-8 3.696287662046828e-8 0 0 -0.0000069796121953622645
          -0.000005876180800660003 -0.000014109984685624995 -0.000011633099361721084 0 0 -0.000004080599984693541
          -0.000004118384355663219 -0.000008100129710496383 -0.000008436452391926068 0 -9.5068496630969e-9 -2.479180371237485e-8
          0 -3.264699174227039e-7 -7.126243845819183e-7 0 0 -0.000001895236071989659
          -0.0000011325187307691067 -0.00000378327633720091 -0.000002486591511302532 0 -3.9885573547193394e-7 -8.47757679538866e-7
          0 -1.0962591408216006e-7 3.8316924940005857e-7 0 6.795309962119016e-8 1.0062353968883755e-7
          0 -1.2918710230871127e-7 -3.419345585766247e-7 0 -2.2577621727949065e-8 -5.2679362931906834e-8
          0 -1.2322935442651927e-7 2.9836053563360443e-7 0 -0.000003215490348350706 -0.0000068174776897657765
          0 -0.000008060736134489786 -0.000016056069919355004 0 -0.000004581789043157853 -0.000009021076745185484
          0 3.6193476423965872e-9 -1.163950495741754e-9 0 6.307920542858187e-8 -1.7683505025367846e-9
          0 -6.404837125395732e-7 -0.0000012656796252103343 0 -6.163725612738905e-7 -0.0000012323880332757382
          0 -7.014079825851075e-7 -0.0000013880300211191719 0 -6.409179374824398e-7 -0.0000012801521467715275
          0 -7.3220442663651e-7 -0.0000014525684072364585 0 -7.211837633311185e-7 -0.0000014362093730061396
          0 -6.561705269217374e-7 -0.0000013123061518091423 0 -5.170101661409501e-7 -0.000001053645038612514
          0 -2.460934126056569e-7 -5.156942700200374e-7 0 0 -2.535001046688044e-7
          -1.8353393461412822e-7 -5.992037951608623e-7 -4.023054779891992e-7 0 0 0
          0 -1.0351807591208548e-7 -6.476864237086692e-8 -6.126089539266694e-8 -1.0824263223082447e-7 -2.204353796948612e-7
          -1.2696629749022383e-7 -1.3334634678962142e-7 -2.3132622874160236e-7 0 -3.4305750846683086e-8 -6.483013560482559e-8
          0 -1.3936409670298574e-7 -2.77022109319495e-7 0 -2.4070743553890483e-8 -5.287081049805227e-8
          0 0 -5.790474961220849e-7 -5.896263669550617e-7 -0.0000011538564273976486 -0.0000011749481649656438
          0 -6.374155771282611e-7 -0.0000012715420921832603 0 -5.403428677097796e-7 -0.0000010770048689928201
          0 -5.961400978732505e-7 -0.0000011874163490378405 0 -5.073055141053341e-7 -0.0000010081549863637298
          0 -3.63804531551502e-7 -7.281890754518004e-7 0 -1.844015694235151e-7 -3.704459355129968e-7
          0 -1.1884302821288522e-7 -2.476959616200405e-7 0 0 0
          -3.151649565421438e-8 -6.876207015788734e-8 -6.53854787516044e-8 -6.334512759386213e-8 -1.3670753417300244e-7 -1.3204936144300006e-7
        </DataArray>
      </PointData>
      <CellData>
        <DataArray type="Int32" Name="libmesh_elem_id" format="ascii" RangeMin="40" RangeMax="1373">
          40 41 42 43 44 45
          46 47 48 49 50 51
          52 53 54 55 56 57
          98 99 100 101 102 103
          104 105 106 107 108 109
          110 111 112 113 114 115
          156 157 158 159 160 161
          162 163 164 165 166 167
          168 169 170 171 172 173
          214 215 216 217 218 219
          220 221 222 223 224 225
          226 227 228 229 230 231
          272 273 274 275 276 277
          278 279 280 281 282 283
          284 285 286 287 288 289
          330 331 332 333 334 335
          336 337 338 339 340 341
          342 343 344 345 346 347
          388 389 390 391 392 393
          394 395 396 397 398 399
          400 401 402 403 404 405
          446 447 448 449 450 451
          452 453 454 455 456 457
          458 459 460 461 462 463
          508 509 510 511 512 513
          514 515 516 517 518 519
          520 521 522 523 524 525
          526 527 528 529 530 531
          532 533 534 535 536 537
          538 539 540 541 542 543
          544 545 546 547 548 549
          550 551 552 553 554 555
          556 557 558 559 560 561
          562 563 564 565 566 567
          568 569 570 571 572 573
          574 575 576 577 578 579
          580 581 582 583 584 585
          586 587 588 589 590 591
          592 593 594 595 596 597
          598 599 600 601 602 603
          604 605 606 607 608 609
          610 611 612 613 614 615
          616 617 618 619 620 621
          622 623 624 625 626 627
          628 629 630 631 632 633
          634 635 636 637 638 639
          640 641 642 643 644 645
          646 647 648 649 650 651
          652 653 654 655 656 657
          658 659 660 661 662 663
          664 665 666 667 668 669
          670 671 672 673 674 675
          676 677 678 679 680 681
          682 683 684 685 686 687
          688 689 690 691 692 693
          694 695 696 697 698 699
          700 701 702 703 704 705
          706 707 708 709 710 711
          712 713 714 715 716 717
          718 719 720 721 722 723
          724 725 726 727 728 729
          730 731 732 733 734 735
          736 737 738 739 740 741
          742 743 744 745 746 747
          748 749 750 751 752 753
          754 755 756 757 758 759
          760 761 762 763 764 765
          766 767 768 769 770 771
          1186 1187 1188 1189 1190 1191
          1204 1205 1206 1207 1208 1209
          1222 1223 1224 1225 1240 1241
          1242 1243 1258 1259 1260 1261
          1276 1277 1278 1279 1300 1301
          1304 1305 1306 1307 1314 1315
          1316 1317 1326 1327 1328 1329
          1330 1331 1338 1339 1344 1345
          1348 1349 1356 1357 1358 1359
          1360 1361 1366 1367 1372 1373
        </DataArray>
        <DataArray type="Int32" Name="subdomain_id" format="ascii" RangeMin="103" RangeMax="143">
          103 103 103 103 103 103
          103 103 103 103 103 103
          103 103 103 103 103 103
          103 103 103 103 103 103
          103 103 103 103 103 103
          103 103 103 103 103 103
          103 103 103 103 103 103
          103 103 103 103 103 103
          103 103 103 103 103 103
          103 103 103 103 103 103
          103 103 103 103 103 103
          103 103 103 103 103 103
          103 103 103 103 103 103
          103 103 103 103 103 103
          103 103 103 103 103 103
          103 103 103 103 103 103
          103 103 103 103 103 103
          103 103 103 103 103 103
          103 103 103 103 103 103
          103 103 103 103 103 103
          103 103 103 103 103 103
          103 103 103 103 103 103
          103 103 103 103 103 103
          103 103 103 103 103 103
          103 103 103 103 103 103
          103 103 103 103 103 103
          103 103 104 104 104 104
          104 104 104 104 104 104
          104 104 104 104 104 104
          104 104 104 104 104 104
          104 104 104 104 104 104
          104 104 104 104 104 104
          104 104 104 104 104 104
          104 104 104 104 104 104
          104 104 104 104 104 104
          104 104 104 104 104 104
          104 104 104 104 104 104
          104 104 104 104 104 104
          104 104 104 104 104 104
          104 104 104 104 104 104
          104 104 104 104 104 104
          104 104 104 104 104 104
          104 104 104 104 104 104
          104 104 104 104 104 104
          104 104 104 104 104 104
          104 104 104 104 104 104
          104 104 104 104 104 104
          104 104 104 104 104 104
          104 104 104 104 104 104
          104 104 104 104 104 104
          104 104 104 104 104 104
          104 104 104 104 104 104
          104 104 104 104 104 104
          104 104 104 104 104 104
          104 104 104 104 104 104
          104 104 104 104 104 104
          104 104 104 104 104 104
          104 104 104 104 104 104
          104 104 104 104 104 104
          141 141 141 141 141 141
          141 141 141 141 141 141
          141 141 141 141 141 141
          141 141 141 141 141 141
          141 141 141 141 141 141
          141 141 141 141 141 141
          141 141 141 141 141 141
          141 141 141 141 141 141
          141 141 141 141 141 141
          105 105 105 105 105 105
          105 105 105 105 105 105
          105 105 105 105 105 105
          105 105 105 105 105 105
          105 105 105 105 106 106
          106 106 106 106 106 106
          106 106 106 106 106 106
          106 106 106 106 106 106
          106 106 106 106 106 106
          143 143 143 143 143 143
        </DataArray>
        <DataArray type="Int32" Name="processor_id" format="ascii" RangeMin="5" RangeMax="5">
          5 5 5 5 5 5
          5 5 5 5 5 5
          5 5 5 5 5 5
          5 5 5 5 5 5
          5 5 5 5 5 5
          5 5 5 5 5 5
          5 5 5 5 5 5
          5 5 5 5 5 5
          5 5 5 5 5 5
          5 5 5 5 5 5
          5 5 5 5 5 5
          5 5 5 5 5 5
          5 5 5 5 5 5
          5 5 5 5 5 5
          5 5 5 5 5 5
          5 5 5 5 5 5
          5 5 5 5 5 5
          5 5 5 5 5 5
          5 5 5 5 5 5
          5 5 5 5 5 5
          5 5 5 5 5 5
          5 5 5 5 5 5
          5 5 5 5 5 5
          5 5 5 5 5 5
          5 5 5 5 5 5
          5 5 5 5 5 5
          5 5 5 5 5 5
          5 5 5 5 5 5
          5 5 5 5 5 5
          5 5 5 5 5 5
          5 5 5 5 5 5
          5 5 5 5 5 5
          5 5 5 5 5 5
          5 5 5 5 5 5
          5 5 5 5 5 5
          5 5 5 5 5 5
          5 5 5 5 5 5
          5 5 5 5 5 5
          5 5 5 5 5 5
          5 5 5 5 5 5
          5 5 5 5 5 5
          5 5 5 5 5 5
          5 5 5 5 5 5
          5 5 5 5 5 5
          5 5 5 5 5 5
          5 5 5 5 5 5
          5 5 5 5 5 5
          5 5 5 5 5 5
          5 5 5 5 5 5
          5 5 5 5 5 5
          5 5 5 5 5 5
          5 5 5 5 5 5
          5 5 5 5 5 5
          5 5 5 5 5 5
          5 5 5 5 5 5
          5 5 5 5 5 5
          5 5 5 5 5 5
          5 5 5 5 5 5
          5 5 5 5 5 5
          5 5 5 5 5 5
          5 5 5 5 5 5
          5 5 5 5 5 5
          5 5 5 5 5 5
          5 5 5 5 5 5
          5 5 5 5 5 5
          5 5 5 5 5 5
          5 5 5 5 5 5
          5 5 5 5 5 5
          5 5 5 5 5 5
          5 5 5 5 5 5
          5 5 5 5 5 5
          5 5 5 5 5 5
          5 5 5 5 5 5
          5 5 5 5 5 5
          5 5 5 5 5 5
          5 5 5 5 5 5
          5 5 5 5 5 5
          5 5 5 5 5 5
        </DataArray>
      </CellData>
      <Points>
        <DataArray type="Float64" Name="Points" NumberOfComponents="3" format="ascii" RangeMin="0.0082758620689774" RangeMax="0.013139935358843113">
          0.00011111111111123 0.0082758620689751 0 0 0.0082758620689774 0
          0.00011111111111123 0.0082758620689751 0.00015 0 0.0082758620689774 0.00015
          0.00011111111111123 0.0082758620689751 0.0003 0 0.0082758620689774 0.0003
          0.00011111111111125 0.0086896551724226 0 0 0.0086896551724246 0
          0.00011111111111125 0.0086896551724226 0.00015 0 0.0086896551724246 0.00015
          0.00011111111111125 0.0086896551724226 0.0003 0 0.0086896551724246 0.0003
          0.00011111111111126 0.0091034482758696 0 0 0.0091034482758716 0
          0.00011111111111126 0.0091034482758696 0.00015 0 0.0091034482758716 0.00015
          0.00011111111111126 0.0091034482758696 0.0003 0 0.0091034482758716 0.0003
          0.00011111111111128 0.0095172413793168 0 0 0.0095172413793185 0
          0.00011111111111128 0.0095172413793168 0.00015 0 0.0095172413793185 0.00015
          0.00011111111111128 0.0095172413793168 0.0003 0 0.0095172413793185 0.0003
          0.00011111111111129 0.0099310344827632 0 0 0.0099310344827645 0
          0.00011111111111129 0.0099310344827632 0.00015 0 0.0099310344827645 0.00015
          0.00011111111111129 0.0099310344827632 0.0003 0 0.0099310344827645 0.0003
          0.00011111111111131 0.01034482758621 0 0 0.01034482758621 0
          0.00011111111111131 0.01034482758621 0.00015 0 0.01034482758621 0.00015
          0.00011111111111131 0.01034482758621 0.0003 0 0.01034482758621 0.0003
          0.00011111111111132 0.010758620689657 0 0 0.010758620689657 0
          0.00011111111111132 0.010758620689657 0.00015 0 0.010758620689657 0.00015
          0.00011111111111132 0.010758620689657 0.0003 0 0.010758620689657 0.0003
          0.00011111111111134 0.011172413793104 0 0 0.011172413793104 0
          0.00011111111111134 0.011172413793104 0.00015 0 0.011172413793104 0.00015
          0.00011111111111134 0.011172413793104 0.0003 0 0.011172413793104 0.0003
          0.00011111111111135 0.011586206896551 0 0 0.011586206896551 0
          0.00011111111111135 0.011586206896551 0.00015 0 0.011586206896551 0.00015
          0.00011111111111135 0.011586206896551 0.0003 0 0.011586206896551 0.0003
          0.00011111111111137 0.012 0 0 0.012 0
          0.00011111111111137 0.012 0.00015 0 0.012 0.00015
          0.00011111111111137 0.012 0.0003 0 0.012 0.0003
          0.00022222222222243 0.0082758620689727 0 0.00022222222222243 0.0082758620689727 0.00015
          0.00022222222222243 0.0082758620689727 0.0003 0.00022222222222246 0.0086896551724206 0
          0.00022222222222246 0.0086896551724206 0.00015 0.00022222222222246 0.0086896551724206 0.0003
          0.00022222222222249 0.0091034482758676 0 0.00022222222222249 0.0091034482758676 0.00015
          0.00022222222222249 0.0091034482758676 0.0003 0.00022222222222253 0.0095172413793151 0
          0.00022222222222253 0.0095172413793151 0.00015 0.00022222222222253 0.0095172413793151 0.0003
          0.00022222222222256 0.0099310344827619 0 0.00022222222222256 0.0099310344827619 0.00015
          0.00022222222222256 0.0099310344827619 0.0003 0.0002222222222226 0.010344827586209 0
          0.0002222222222226 0.010344827586209 0.00015 0.0002222222222226 0.010344827586209 0.0003
          0.00022222222222263 0.010758620689656 0 0.00022222222222263 0.010758620689656 0.00015
          0.00022222222222263 0.010758620689656 0.0003 0.00022222222222266 0.011172413793103 0
          0.00022222222222266 0.011172413793103 0.00015 0.00022222222222266 0.011172413793103 0.0003
          0.0002222222222227 0.011586206896551 0 0.0002222222222227 0.011586206896551 0.00015
          0.0002222222222227 0.011586206896551 0.0003 0.00022222222222273 0.012 0
          0.00022222222222273 0.012 0.00015 0.00022222222222273 0.012 0.0003
          0.00033333333333363 0.0082758620689704 0 0.00033333333333363 0.0082758620689704 0.00015
          0.00033333333333363 0.0082758620689704 0.0003 0.00033333333333368 0.0086896551724185 0
          0.00033333333333368 0.0086896551724185 0.00015 0.00033333333333368 0.0086896551724185 0.0003
          0.00033333333333373 0.0091034482758657 0 0.00033333333333373 0.0091034482758657 0.00015
          0.00033333333333373 0.0091034482758657 0.0003 0.00033333333333379 0.0095172413793133 0
          0.00033333333333379 0.0095172413793133 0.00015 0.00033333333333379 0.0095172413793133 0.0003
          0.00033333333333384 0.0099310344827607 0 0.00033333333333384 0.0099310344827607 0.00015
          0.00033333333333384 0.0099310344827607 0.0003 0.00033333333333389 0.010344827586208 0
          0.00033333333333389 0.010344827586208 0.00015 0.00033333333333389 0.010344827586208 0.0003
          0.00033333333333394 0.010758620689656 0 0.00033333333333394 0.010758620689656 0.00015
          0.00033333333333394 0.010758620689656 0.0003 0.000333333333334 0.011172413793103 0
          0.000333333333334 0.011172413793103 0.00015 0.000333333333334 0.011172413793103 0.0003
          0.00033333333333405 0.011586206896551 0 0.00033333333333405 0.011586206896551 0.00015
          0.00033333333333405 0.011586206896551 0.0003 0.0003333333333341 0.012 0
          0.0003333333333341 0.012 0.00015 0.0003333333333341 0.012 0.0003
          0.00044444444444486 0.0082758620689681 0 0.00044444444444486 0.0082758620689681 0.00015
          0.00044444444444486 0.0082758620689681 0.0003 0.00044444444444493 0.0086896551724165 0
          0.00044444444444493 0.0086896551724165 0.00015 0.00044444444444493 0.0086896551724165 0.0003
          0.00044444444444501 0.0091034482758637 0 0.00044444444444501 0.0091034482758637 0.00015
          0.00044444444444501 0.0091034482758637 0.0003 0.00044444444444508 0.0095172413793116 0
          0.00044444444444508 0.0095172413793116 0.00015 0.00044444444444508 0.0095172413793116 0.0003
          0.00044444444444516 0.0099310344827594 0 0.00044444444444516 0.0099310344827594 0.00015
          0.00044444444444516 0.0099310344827594 0.0003 0.00044444444444523 0.010344827586207 0
          0.00044444444444523 0.010344827586207 0.00015 0.00044444444444523 0.010344827586207 0.0003
          0.00044444444444531 0.010758620689655 0 0.00044444444444531 0.010758620689655 0.00015
          0.00044444444444531 0.010758620689655 0.0003 0.00044444444444538 0.011172413793103 0
          0.00044444444444538 0.011172413793103 0.00015 0.00044444444444538 0.011172413793103 0.0003
          0.00044444444444546 0.011586206896551 0 0.00044444444444546 0.011586206896551 0.00015
          0.00044444444444546 0.011586206896551 0.0003 0.00044444444444553 0.012 0
          0.00044444444444553 0.012 0.00015 0.00044444444444553 0.012 0.0003
          0.00055555555555597 0.0082758620689657 0 0.00055555555555597 0.0082758620689657 0.00015
          0.00055555555555597 0.0082758620689657 0.0003 0.00055555555555605 0.0086896551724145 0
          0.00055555555555605 0.0086896551724145 0.00015 0.00055555555555605 0.0086896551724145 0.0003
          0.00055555555555613 0.0091034482758618 0 0.00055555555555613 0.0091034482758618 0.00015
          0.00055555555555613 0.0091034482758618 0.0003 0.00055555555555621 0.0095172413793099 0
          0.00055555555555621 0.0095172413793099 0.00015 0.00055555555555621 0.0095172413793099 0.0003
          0.00055555555555629 0.0099310344827581 0 0.00055555555555629 0.0099310344827581 0.00015
          0.00055555555555629 0.0099310344827581 0.0003 0.00055555555555636 0.010344827586206 0
          0.00055555555555636 0.010344827586206 0.00015 0.00055555555555636 0.010344827586206 0.0003
          0.00055555555555644 0.010758620689655 0 0.00055555555555644 0.010758620689655 0.00015
          0.00055555555555644 0.010758620689655 0.0003 0.00055555555555652 0.011172413793102 0
          0.00055555555555652 0.011172413793102 0.00015 0.00055555555555652 0.011172413793102 0.0003
          0.0005555555555566 0.011586206896551 0 0.0005555555555566 0.011586206896551 0.00015
          0.0005555555555566 0.011586206896551 0.0003 0.00055555555555667 0.012 0
          0.00055555555555667 0.012 0.00015 0.00055555555555667 0.012 0.0003
          0.00066666666666675 0.0082758620689634 0 0.00066666666666675 0.0082758620689634 0.00015
          0.00066666666666675 0.0082758620689634 0.0003 0.00066666666666679 0.0086896551724125 0
          0.00066666666666679 0.0086896551724125 0.00015 0.00066666666666679 0.0086896551724125 0.0003
          0.00066666666666684 0.0091034482758598 0 0.00066666666666684 0.0091034482758598 0.00015
          0.00066666666666684 0.0091034482758598 0.0003 0.00066666666666688 0.0095172413793081 0
          0.00066666666666688 0.0095172413793081 0.00015 0.00066666666666688 0.0095172413793081 0.0003
          0.00066666666666693 0.0099310344827568 0 0.00066666666666693 0.0099310344827568 0.00015
          0.00066666666666693 0.0099310344827568 0.0003 0.00066666666666697 0.010344827586205 0
          0.00066666666666697 0.010344827586205 0.00015 0.00066666666666697 0.010344827586205 0.0003
          0.00066666666666701 0.010758620689654 0 0.00066666666666701 0.010758620689654 0.00015
          0.00066666666666701 0.010758620689654 0.0003 0.00066666666666706 0.011172413793102 0
          0.00066666666666706 0.011172413793102 0.00015 0.00066666666666706 0.011172413793102 0.0003
          0.0006666666666671 0.01158620689655 0 0.0006666666666671 0.01158620689655 0.00015
          0.0006666666666671 0.01158620689655 0.0003 0.00066666666666715 0.012 0
          0.00066666666666715 0.012 0.00015 0.00066666666666715 0.012 0.0003
          0.00077777777777787 0.0082758620689611 0 0.00077777777777787 0.0082758620689611 0.00015
          0.00077777777777787 0.0082758620689611 0.0003 0.00077777777777791 0.0086896551724104 0
          0.00077777777777791 0.0086896551724104 0.00015 0.00077777777777791 0.0086896551724104 0.0003
          0.00077777777777794 0.0091034482758578 0 0.00077777777777794 0.0091034482758578 0.00015
          0.00077777777777794 0.0091034482758578 0.0003 0.00077777777777797 0.0095172413793064 0
          0.00077777777777797 0.0095172413793064 0.00015 0.00077777777777797 0.0095172413793064 0.0003
          0.000777777777778 0.0099310344827555 0 0.000777777777778 0.0099310344827555 0.00015
          0.000777777777778 0.0099310344827555 0.0003 0.00077777777777803 0.010344827586205 0
          0.00077777777777803 0.010344827586205 0.00015 0.00077777777777803 0.010344827586205 0.0003
          0.00077777777777806 0.010758620689654 0 0.00077777777777806 0.010758620689654 0.00015
          0.00077777777777806 0.010758620689654 0.0003 0.00077777777777809 0.011172413793101 0
          0.00077777777777809 0.011172413793101 0.00015 0.00077777777777809 0.011172413793101 0.0003
          0.00077777777777813 0.01158620689655 0 0.00077777777777813 0.01158620689655 0.00015
          0.00077777777777813 0.01158620689655 0.0003 0.00077777777777816 0.012 0
          0.00077777777777816 0.012 0.00015 0.00077777777777816 0.012 0.0003
          0.0008888888888888 0.0082758620689588 0 0.0008888888888888 0.0082758620689588 0.00015
          0.0008888888888888 0.0082758620689588 0.0003 0.00088888888888881 0.0086896551724084 0
          0.00088888888888881 0.0086896551724084 0.00015 0.00088888888888881 0.0086896551724084 0.0003
          0.00088888888888882 0.0091034482758559 0 0.00088888888888882 0.0091034482758559 0.00015
          0.00088888888888882 0.0091034482758559 0.0003 0.00088888888888883 0.0095172413793047 0
          0.00088888888888883 0.0095172413793047 0.00015 0.00088888888888883 0.0095172413793047 0.0003
          0.00088888888888884 0.0099310344827542 0 0.00088888888888884 0.0099310344827542 0.00015
          0.00088888888888884 0.0099310344827542 0.0003 0.00088888888888885 0.010344827586204 0
          0.00088888888888885 0.010344827586204 0.00015 0.00088888888888885 0.010344827586204 0.0003
          0.00088888888888885 0.010758620689653 0 0.00088888888888885 0.010758620689653 0.00015
          0.00088888888888885 0.010758620689653 0.0003 0.00088888888888886 0.011172413793101 0
          0.00088888888888886 0.011172413793101 0.00015 0.00088888888888886 0.011172413793101 0.0003
          0.00088888888888887 0.01158620689655 0 0.00088888888888887 0.01158620689655 0.00015
          0.00088888888888887 0.01158620689655 0.0003 0.00088888888888888 0.012 0
          0.00088888888888888 0.012 0.00015 0.00088888888888888 0.012 0.0003
          0.001 0.0091034482758539 0 0.001 0.0091034482758539 0.00015
          0.001 0.0091034482758539 0.0003 0.001 0.0095172413793029 0
          0.001 0.0095172413793029 0.00015 0.001 0.0095172413793029 0.0003
          0.001 0.0099310344827529 0 0.001 0.0099310344827529 0.00015
          0.001 0.0099310344827529 0.0003 0.001 0.010344827586203 0
          0.001 0.010344827586203 0.00015 0.001 0.010344827586203 0.0003
          0.001 0.010758620689653 0 0.001 0.010758620689653 0.00015
          0.001 0.010758620689653 0.0003 0.001 0.0111724137931 0
          0.001 0.0111724137931 0.00015 0.001 0.0111724137931 0.0003
          0.001 0.01158620689655 0 0.001 0.01158620689655 0.00015
          0.001 0.01158620689655 0.0003 0.001 0.012 0
          0.001 0.012 0.00015 0.001 0.012 0.0003
          0.00067947077571632 0.012798245728111 0 0.00068678568032061 0.012710429785181 0
          0.00076344362314339 0.012698069087358 0 0.00078000626700894 0.012788238676479 0
          0.00067947077571632 0.012798245728111 0.00015 0.00068678568032061 0.012710429785181 0.00015
          0.00076344362314339 0.012698069087358 0.00015 0.00078000626700894 0.012788238676479 0.00015
          0.00067947077571632 0.012798245728111 0.0003 0.00068678568032061 0.012710429785181 0.0003
          0.00076344362314339 0.012698069087358 0.0003 0.00078000626700894 0.012788238676479 0.0003
          0.0007101811699723 0.012881232243155 0 0.00078737528777453 0.012884598822829 0
          0.0007101811699723 0.012881232243155 0.00015 0.00078737528777453 0.012884598822829 0.00015
          0.0007101811699723 0.012881232243155 0.0003 0.00078737528777453 0.012884598822829 0.0003
          0.00063149088332091 0.012876508075697 0 0.00071156048039536 0.012943694476106 0
          0.00064992343237843 0.012944046337553 0 0.00063149088332091 0.012876508075697 0.00015
          0.00071156048039536 0.012943694476106 0.00015 0.00064992343237843 0.012944046337553 0.00015
          0.00063149088332091 0.012876508075697 0.0003 0.00071156048039536 0.012943694476106 0.0003
          0.00064992343237843 0.012944046337553 0.0003 0.00014271480927744 0.012184528409521 0
          0.00021074182908597 0.012239195039162 0 0.00014617236906556 0.012274772666576 0
          0.00010836971036758 0.0122326927564 0 0.00014271480927744 0.012184528409521 0.00015
          0.00021074182908597 0.012239195039162 0.00015 0.00014617236906556 0.012274772666576 0.00015
          0.00010836971036758 0.0122326927564 0.00015 0.00014271480927744 0.012184528409521 0.0003
          0.00021074182908597 0.012239195039162 0.0003 0.00014617236906556 0.012274772666576 0.0003
          0.00010836971036758 0.0122326927564 0.0003 0.00040316247653445 0.012523054457121 0
          0.00050524235438491 0.012516470580574 0 0.00047556583290331 0.012611926172403 0
          0.00040677839563254 0.01259579728731 0 0.00040316247653445 0.012523054457121 0.00015
          0.00050524235438491 0.012516470580574 0.00015 0.00047556583290331 0.012611926172403 0.00015
          0.00040677839563254 0.01259579728731 0.00015 0.00040316247653445 0.012523054457121 0.0003
          0.00050524235438491 0.012516470580574 0.0003 0.00047556583290331 0.012611926172403 0.0003
          0.00040677839563254 0.01259579728731 0.0003 0.00038389728538556 0.012111104172094 0
          0.00037958632650406 0.012195366170904 0 0.00029855370140418 0.012181148574691 0
          0.00029802321336891 0.012105931916082 0 0.00038389728538556 0.012111104172094 0.00015
          0.00037958632650406 0.012195366170904 0.00015 0.00029855370140418 0.012181148574691 0.00015
          0.00029802321336891 0.012105931916082 0.00015 0.00038389728538556 0.012111104172094 0.0003
          0.00037958632650406 0.012195366170904 0.0003 0.00029855370140418 0.012181148574691 0.0003
          0.00029802321336891 0.012105931916082 0.0003 0.00062435778703091 0.012280526392523 0
          0.00063694887874418 0.012191685157308 0 0.00075163746499696 0.012211869018538 0
          0.0007101306235237 0.012330652999586 0 0.00062435778703091 0.012280526392523 0.00015
          0.00063694887874418 0.012191685157308 0.00015 0.00075163746499696 0.012211869018538 0.00015
          0.0007101306235237 0.012330652999586 0.00015 0.00062435778703091 0.012280526392523 0.0003
          0.00063694887874418 0.012191685157308 0.0003 0.00075163746499696 0.012211869018538 0.0003
          0.0007101306235237 0.012330652999586 0.0003 0.00090036231429234 0.012108977226849 0
          0.00080269198720626 0.012096984730608 0 0.00090036231429234 0.012108977226849 0.00015
          0.00080269198720626 0.012096984730608 0.00015 0.00090036231429234 0.012108977226849 0.0003
          0.00080269198720626 0.012096984730608 0.0003 0.00023865656240352 0.012177237347116 0
          0.00029061852669854 0.01224857812735 0 0.00023865656240352 0.012177237347116 0.00015
          0.00029061852669854 0.01224857812735 0.00015 0.00023865656240352 0.012177237347116 0.0003
          0.00029061852669854 0.01224857812735 0.0003 0.00056164385173704 0.012835416164401 0
          0.00056508360468666 0.012898794448667 0 0.00049240387645224 0.012913175910861 0
          0.00046984631090009 0.012828989929731 0 0.00056164385173704 0.012835416164401 0.00015
          0.00056508360468666 0.012898794448667 0.00015 0.00049240387645224 0.012913175910861 0.00015
          0.00046984631090009 0.012828989929731 0.00015 0.00056164385173704 0.012835416164401 0.0003
          0.00056508360468666 0.012898794448667 0.0003 0.00049240387645224 0.012913175910861 0.0003
          0.00046984631090009 0.012828989929731 0.0003 0.000050495613361417 0.012066083920595 0
          0.00011131843390441 0.012086989142678 0 0.000069577205110887 0.012153607960951 0
          0 0.012111111111109 0 0.000050495613361417 0.012066083920595 0.00015
          0.00011131843390441 0.012086989142678 0.00015 0.000069577205110887 0.012153607960951 0.00015
          0 0.012111111111109 0.00015 0.000050495613361417 0.012066083920595 0.0003
          0.00011131843390441 0.012086989142678 0.0003 0.000069577205110887 0.012153607960951 0.0003
          0 0.012111111111109 0.0003 0.00022470825547396 0.012306913365418 0
          0.00017103954025546 0.012340304715306 0 0.00022470825547396 0.012306913365418 0.00015
          0.00017103954025546 0.012340304715306 0.00015 0.00022470825547396 0.012306913365418 0.0003
          0.00017103954025546 0.012340304715306 0.0003 0.00085640575367095 0.012657655614724 0
          0.001 0.012571428571438 0 0.001 0.012714285714292 0
          0.00089085524488654 0.012778191533234 0 0.00085640575367095 0.012657655614724 0.00015
          0.001 0.012571428571438 0.00015 0.001 0.012714285714292 0.00015
          0.00089085524488654 0.012778191533234 0.00015 0.00085640575367095 0.012657655614724 0.0003
          0.001 0.012571428571438 0.0003 0.001 0.012714285714292 0.0003
          0.00089085524488654 0.012778191533234 0.0003 0.00017101007138246 0.012530153689505 0
          0.000086824088695593 0.01250759612347 0 0.00010015626416536 0.012463076177022 0
          0.00018026894988108 0.012457509098897 0 0.00017101007138246 0.012530153689505 0.00015
          0.000086824088695593 0.01250759612347 0.00015 0.00010015626416536 0.012463076177022 0.00015
          0.00018026894988108 0.012457509098897 0.00015 0.00017101007138246 0.012530153689505 0.0003
          0.000086824088695593 0.01250759612347 0.0003 0.00010015626416536 0.012463076177022 0.0003
          0.00018026894988108 0.012457509098897 0.0003 0.00055555555555552 0.013 0
          0.00054972466987376 0.012958523613261 0 0.00059017772624368 0.012950117696029 0
          0.00061111111111072 0.013 0 0.00055555555555552 0.013 0.00015
          0.00054972466987376 0.012958523613261 0.00015 0.00059017772624368 0.012950117696029 0.00015
          0.00061111111111072 0.013 0.00015 0.00055555555555552 0.013 0.0003
          0.00054972466987376 0.012958523613261 0.0003 0.00059017772624368 0.012950117696029 0.0003
          0.00061111111111072 0.013 0.0003 0.00056012017374448 0.012193168747791 0
          0.00054338833040714 0.012250054231166 0 0.00056012017374448 0.012193168747791 0.00015
          0.00054338833040714 0.012250054231166 0.00015 0.00056012017374448 0.012193168747791 0.0003
          0.00054338833040714 0.012250054231166 0.0003 0.00020164702899907 0.012111009853496 0
          0.00020164702899907 0.012111009853496 0.00015 0.00020164702899907 0.012111009853496 0.0003
          0.00058698867508036 0.01276393301723 0 0.00061242021253103 0.012689969395149 0
          0.00058698867508036 0.01276393301723 0.00015 0.00061242021253103 0.012689969395149 0.00015
          0.00058698867508036 0.01276393301723 0.0003 0.00061242021253103 0.012689969395149 0.0003
          0.00054704952286259 0.01264760123259 0 0.00058547756026548 0.012574831423214 0
          0.00066845126455385 0.012625352450745 0 0.00054704952286259 0.01264760123259 0.00015
          0.00058547756026548 0.012574831423214 0.00015 0.00066845126455385 0.012625352450745 0.00015
          0.00054704952286259 0.01264760123259 0.0003 0.00058547756026548 0.012574831423214 0.0003
          0.00066845126455385 0.012625352450745 0.0003 0.00040316497174951 0.012375710115571 0
          0.00038996592658543 0.012448925709731 0 0.00030251984068288 0.012451026681152 0
          0.00030273327950676 0.012339921797294 0 0.00040316497174951 0.012375710115571 0.00015
          0.00038996592658543 0.012448925709731 0.00015 0.00030251984068288 0.012451026681152 0.00015
          0.00030273327950676 0.012339921797294 0.00015 0.00040316497174951 0.012375710115571 0.0003
          0.00038996592658543 0.012448925709731 0.0003 0.00030251984068288 0.012451026681152 0.0003
          0.00030273327950676 0.012339921797294 0.0003 0 0.012166666666663 0
          0.000060257043043922 0.012213388328671 0 0 0.012222222222217 0
          0 0.012166666666663 0.00015 0.000060257043043922 0.012213388328671 0.00015
          0 0.012222222222217 0.00015 0 0.012166666666663 0.0003
          0.000060257043043922 0.012213388328671 0.0003 0 0.012222222222217 0.0003
          0.00086766031505541 0.012218873949421 0 0.00070802748250363 0.01210226547145 0
          0.00086766031505541 0.012218873949421 0.00015 0.00070802748250363 0.01210226547145 0.00015
          0.00086766031505541 0.012218873949421 0.0003 0.00070802748250363 0.01210226547145 0.0003
          0.00045681564832724 0.012667985356076 0 0.00038302222240927 0.012678606196169 0
          0.00045681564832724 0.012667985356076 0.00015 0.00038302222240927 0.012678606196169 0.00015
          0.00045681564832724 0.012667985356076 0.0003 0.00038302222240927 0.012678606196169 0.0003
          0.00057343997443155 0.012462111372123 0 0.00067467937701806 0.012497336760124 0
          0.00057343997443155 0.012462111372123 0.00015 0.00067467937701806 0.012497336760124 0.00015
          0.00057343997443155 0.012462111372123 0.0003 0.00067467937701806 0.012497336760124 0.0003
          0 0.012388888888886 0 0.00004805763346656 0.012364070531781 0
          0.000052775834931525 0.012418323433379 0 0 0.012444444444443 0
          0 0.012388888888886 0.00015 0.00004805763346656 0.012364070531781 0.00015
          0.000052775834931525 0.012418323433379 0.00015 0 0.012444444444443 0.00015
          0 0.012388888888886 0.0003 0.00004805763346656 0.012364070531781 0.0003
          0.000052775834931525 0.012418323433379 0.0003 0 0.012444444444443 0.0003
          0.0004655657017567 0.012222981448331 0 0.0004403524252846 0.012306679111378 0
          0.00036518397892919 0.012268658791136 0 0.0004655657017567 0.012222981448331 0.00015
          0.0004403524252846 0.012306679111378 0.00015 0.00036518397892919 0.012268658791136 0.00015
          0.0004655657017567 0.012222981448331 0.0003 0.0004403524252846 0.012306679111378 0.0003
          0.00036518397892919 0.012268658791136 0.0003 0.00079059026611164 0.012574208252283 0
          0.00074033738884001 0.012629472897336 0 0.00079059026611164 0.012574208252283 0.00015
          0.00074033738884001 0.012629472897336 0.00015 0.00079059026611164 0.012574208252283 0.0003
          0.00074033738884001 0.012629472897336 0.0003 0.00049134001885305 0.012124425854677 0
          0.00060162315338905 0.012101782274206 0 0.00049134001885305 0.012124425854677 0.00015
          0.00060162315338905 0.012101782274206 0.00015 0.00049134001885305 0.012124425854677 0.0003
          0.00060162315338905 0.012101782274206 0.0003 0.00055165526617401 0.012365152711649 0
          0.00046621557592763 0.012427373679685 0 0.00055165526617401 0.012365152711649 0.00015
          0.00046621557592763 0.012427373679685 0.00015 0.00055165526617401 0.012365152711649 0.0003
          0.00046621557592763 0.012427373679685 0.0003 0.00065175768920993 0.012395993188634 0
          0.00078658012555766 0.01242031863996 0 0.00065175768920993 0.012395993188634 0.00015
          0.00078658012555766 0.01242031863996 0.00015 0.00065175768920993 0.012395993188634 0.0003
          0.00078658012555766 0.01242031863996 0.0003 0.00072222222222142 0.013 0
          0.00076767785213736 0.012949407633443 0 0.00077777777777722 0.013 0
          0.00072222222222142 0.013 0.00015 0.00076767785213736 0.012949407633443 0.00015
          0.00077777777777722 0.013 0.00015 0.00072222222222142 0.013 0.0003
          0.00076767785213736 0.012949407633443 0.0003 0.00077777777777722 0.013 0.0003
          0.001 0.01228571428572 0 0.001 0.012428571428581 0
          0.00085243404696798 0.012340254950119 0 0.001 0.01228571428572 0.00015
          0.001 0.012428571428581 0.00015 0.00085243404696798 0.012340254950119 0.00015
          0.001 0.01228571428572 0.0003 0.001 0.012428571428581 0.0003
          0.00085243404696798 0.012340254950119 0.0003 0.000047305708530005 0.012255757186949 0
          0.000035989657241992 0.012305788523607 0 0 0.012277777777773 0
          0.000047305708530005 0.012255757186949 0.00015 0.000035989657241992 0.012305788523607 0.00015
          0 0.012277777777773 0.00015 0.000047305708530005 0.012255757186949 0.0003
          0.000035989657241992 0.012305788523607 0.0003 0 0.012277777777773 0.0003
          0 0.01233333333333 0 0 0.01233333333333 0.00015
          0 0.01233333333333 0.0003 0.00088888888888861 0.013 0
          0.00086852226729803 0.012945143609779 0 0.00092105077811413 0.012923509600428 0
          0.0009444444444442 0.013 0 0.00088888888888861 0.013 0.00015
          0.00086852226729803 0.012945143609779 0.00015 0.00092105077811413 0.012923509600428 0.00015
          0.0009444444444442 0.013 0.00015 0.00088888888888861 0.013 0.0003
          0.00086852226729803 0.012945143609779 0.0003 0.00092105077811413 0.012923509600428 0.0003
          0.0009444444444442 0.013 0.0003 0.000088322519872331 0.012287262323421 0
          0.000098057359918883 0.01234321954228 0 0.000088322519872331 0.012287262323421 0.00015
          0.000098057359918883 0.01234321954228 0.00015 0.000088322519872331 0.012287262323421 0.0003
          0.000098057359918883 0.01234321954228 0.0003 0.00082037799021753 0.012949927278989 0
          0.00083333333333302 0.013 0 0.00082037799021753 0.012949927278989 0.00015
          0.00083333333333302 0.013 0.00015 0.00082037799021753 0.012949927278989 0.0003
          0.00083333333333302 0.013 0.0003 0.000055423585756317 0.01245648439217 0
          0.00011750487062481 0.01240389197138 0 0.000055423585756317 0.01245648439217 0.00015
          0.00011750487062481 0.01240389197138 0.00015 0.000055423585756317 0.01245648439217 0.0003
          0.00011750487062481 0.01240389197138 0.0003 0.00022703795328819 0.012397087263253 0
          0.00024412512388832 0.012487409031957 0 0.00022703795328819 0.012397087263253 0.00015
          0.00024412512388832 0.012487409031957 0.00015 0.00022703795328819 0.012397087263253 0.0003
          0.00024412512388832 0.012487409031957 0.0003 0.00086622784349606 0.012879340816766 0
          0.00086622784349606 0.012879340816766 0.00015 0.00086622784349606 0.012879340816766 0.0003
          0.001 0.01214285714286 0 0.001 0.01214285714286 0.00015
          0.001 0.01214285714286 0.0003 0.00032807036377433 0.012530514194312 0
          0.00032139380548758 0.012616977778981 0 0.00032807036377433 0.012530514194312 0.00015
          0.00032139380548758 0.012616977778981 0.00015 0.00032807036377433 0.012530514194312 0.0003
          0.00032139380548758 0.012616977778981 0.0003 0.00078653837511981 0.012300730611142 0
          0.00078653837511981 0.012300730611142 0.00015 0.00078653837511981 0.012300730611142 0.0003
          0.00050187285486533 0.012723776617989 0 0.00050187285486533 0.012723776617989 0.00015
          0.00050187285486533 0.012723776617989 0.0003 0.00066666666666612 0.013 0
          0.00066666666666612 0.013 0.00015 0.00066666666666612 0.013 0.0003
          0.00086640285866826 0.012499721374928 0 0.00086640285866826 0.012499721374928 0.00015
          0.00086640285866826 0.012499721374928 0.0003 0.001 0.012857142857146 0
          0.001 0.012857142857146 0.00015 0.001 0.012857142857146 0.0003
          0.00043301270230906 0.012750000000722 0 0.00043301270230906 0.012750000000722 0.00015
          0.00043301270230906 0.012750000000722 0.0003 0.00025000000019401 0.01256698729822 0
          0.00025000000019401 0.01256698729822 0.00015 0.00025000000019401 0.01256698729822 0.0003
          0 0.0125 0 0 0.0125 0.00015
          0 0.0125 0.0003 0 0.012055555555554 0
          0 0.012055555555554 0.00015 0 0.012055555555554 0.0003
          0.001 0.013 0 0.001 0.013 0.00015
          0.001 0.013 0.0003 0.0005 0.013 0
          0.0005 0.013 0.00015 0.0005 0.013 0.0003
          0.0014444444444451 0.0095172413793029 0 0.0014444444444451 0.0095172413793029 0.00015
          0.0014444444444451 0.0095172413793029 0.0003 0.0018888888888902 0.0095172413793029 0
          0.0018888888888902 0.0095172413793029 0.00015 0.0018888888888902 0.0095172413793029 0.0003
          0.0014444444444452 0.0099310344827529 0 0.0014444444444452 0.0099310344827529 0.00015
          0.0014444444444452 0.0099310344827529 0.0003 0.0018888888888903 0.0099310344827529 0
          0.0018888888888903 0.0099310344827529 0.00015 0.0018888888888903 0.0099310344827529 0.0003
          0.0014444444444452 0.010344827586203 0 0.0014444444444452 0.010344827586203 0.00015
          0.0014444444444452 0.010344827586203 0.0003 0.0014444444444453 0.010758620689653 0
          0.0014444444444453 0.010758620689653 0.00015 0.0014444444444453 0.010758620689653 0.0003
          0.0014444444444453 0.0111724137931 0 0.0014444444444453 0.0111724137931 0.00015
          0.0014444444444453 0.0111724137931 0.0003 0.0014444444444454 0.01158620689655 0
          0.0014444444444454 0.01158620689655 0.00015 0.0014444444444454 0.01158620689655 0.0003
          0.0014444444444455 0.012 0 0.0014444444444455 0.012 0.00015
          0.0014444444444455 0.012 0.0003 0.0011659770658264 0.012184916069452 0
          0.0011978981211319 0.012291694091132 0 0.0011659770658264 0.012184916069452 0.00015
          0.0011978981211319 0.012291694091132 0.00015 0.0011659770658264 0.012184916069452 0.0003
          0.0011978981211319 0.012291694091132 0.0003 0.0014134281085546 0.012468353283698 0
          0.001412897365997 0.01265802692797 0 0.0011710921098332 0.012660749606473 0
          0.0011928404820732 0.012464476127519 0 0.0014134281085546 0.012468353283698 0.00015
          0.001412897365997 0.01265802692797 0.00015 0.0011710921098332 0.012660749606473 0.00015
          0.0011928404820732 0.012464476127519 0.00015 0.0014134281085546 0.012468353283698 0.0003
          0.001412897365997 0.01265802692797 0.0003 0.0011710921098332 0.012660749606473 0.0003
          0.0011928404820732 0.012464476127519 0.0003 0.0011801499871676 0.012824831216028 0
          0.0011801499871676 0.012824831216028 0.00015 0.0011801499871676 0.012824831216028 0.0003
          0.0014335559245349 0.012265987585326 0 0.0014335559245349 0.012265987585326 0.00015
          0.0014335559245349 0.012265987585326 0.0003 0.0014444444444455 0.013 0
          0.0014444444444455 0.013 0.00015 0.0014444444444455 0.013 0.0003
          0.0023333333333355 0.0099310344827529 0 0.0023333333333353 0.0095172413793029 0
          0.0023333333333355 0.0099310344827529 0.00015 0.0023333333333353 0.0095172413793029 0.00015
          0.0023333333333355 0.0099310344827529 0.0003 0.0023333333333353 0.0095172413793029 0.0003
          0.0018888888888904 0.010344827586203 0 0.0018888888888904 0.010344827586203 0.00015
          0.0018888888888904 0.010344827586203 0.0003 0.0023333333333357 0.010344827586203 0
          0.0023333333333357 0.010344827586203 0.00015 0.0023333333333357 0.010344827586203 0.0003
          0.0018888888888905 0.010758620689653 0 0.0018888888888905 0.010758620689653 0.00015
          0.0018888888888905 0.010758620689653 0.0003 0.0018888888888907 0.0111724137931 0
          0.0018888888888907 0.0111724137931 0.00015 0.0018888888888907 0.0111724137931 0.0003
          0.0018888888888908 0.01158620689655 0 0.0018888888888908 0.01158620689655 0.00015
          0.0018888888888908 0.01158620689655 0.0003 0.0018888888888909 0.012 0
          0.0018888888888909 0.012 0.00015 0.0018888888888909 0.012 0.0003
          0.0017386847932316 0.012348636106575 0 0.0017386847932316 0.012348636106575 0.00015
          0.0017386847932316 0.012348636106575 0.0003 0.0018888888888909 0.013 0
          0.001702980389272 0.012655949584096 0 0.0020604062010233 0.012679406151259 0
          0.0018888888888909 0.013 0.00015 0.001702980389272 0.012655949584096 0.00015
          0.0020604062010233 0.012679406151259 0.00015 0.0018888888888909 0.013 0.0003
          0.001702980389272 0.012655949584096 0.0003 0.0020604062010233 0.012679406151259 0.0003
          <InformationKey name="L2_NORM_RANGE" location="vtkDataArray" length="2">
            <Value index="0">
              0.008275862069
            </Value>
            <Value index="1">
              0.013139935359
            </Value>
          </InformationKey>
        </DataArray>
      </Points>
      <Cells>
        <DataArray type="Int64" Name="connectivity" format="ascii" RangeMin="0" RangeMax="755">
          1 0 6 7 3 2
          8 9 3 2 8 9
          5 4 10 11 7 6
          12 13 9 8 14 15
          9 8 14 15 11 10
          16 17 13 12 18 19
          15 14 20 21 15 14
          20 21 17 16 22 23
          19 18 24 25 21 20
          26 27 21 20 26 27
          23 22 28 29 25 24
          30 31 27 26 32 33
          27 26 32 33 29 28
          34 35 31 30 36 37
          33 32 38 39 33 32
          38 39 35 34 40 41
          37 36 42 43 39 38
          44 45 39 38 44 45
          41 40 46 47 43 42
          48 49 45 44 50 51
          45 44 50 51 47 46
          52 53 49 48 54 55
          51 50 56 57 51 50
          56 57 53 52 58 59
          0 60 63 6 2 61
          64 8 2 61 64 8
          4 62 65 10 6 63
          66 12 8 64 67 14
          8 64 67 14 10 65
          68 16 12 66 69 18
          14 67 70 20 14 67
          70 20 16 68 71 22
          18 69 72 24 20 70
          73 26 20 70 73 26
          22 71 74 28 24 72
          75 30 26 73 76 32
          26 73 76 32 28 74
          77 34 30 75 78 36
          32 76 79 38 32 76
          79 38 34 77 80 40
          36 78 81 42 38 79
          82 44 38 79 82 44
          40 80 83 46 42 81
          84 48 44 82 85 50
          44 82 85 50 46 83
          86 52 48 84 87 54
          50 85 88 56 50 85
          88 56 52 86 89 58
          60 90 93 63 61 91
          94 64 61 91 94 64
          62 92 95 65 63 93
          96 66 64 94 97 67
          64 94 97 67 65 95
          98 68 66 96 99 69
          67 97 100 70 67 97
          100 70 68 98 101 71
          69 99 102 72 70 100
          103 73 70 100 103 73
          71 101 104 74 72 102
          105 75 73 103 106 76
          73 103 106 76 74 104
          107 77 75 105 108 78
          76 106 109 79 76 106
          109 79 77 107 110 80
          78 108 111 81 79 109
          112 82 79 109 112 82
          80 110 113 83 81 111
          114 84 82 112 115 85
          82 112 115 85 83 113
          116 86 84 114 117 87
          85 115 118 88 85 115
          118 88 86 116 119 89
          90 120 123 93 91 121
          124 94 91 121 124 94
          92 122 125 95 93 123
          126 96 94 124 127 97
          94 124 127 97 95 125
          128 98 96 126 129 99
          97 127 130 100 97 127
          130 100 98 128 131 101
          99 129 132 102 100 130
          133 103 100 130 133 103
          101 131 134 104 102 132
          135 105 103 133 136 106
          103 133 136 106 104 134
          137 107 105 135 138 108
          106 136 139 109 106 136
          139 109 107 137 140 110
          108 138 141 111 109 139
          142 112 109 139 142 112
          110 140 143 113 111 141
          144 114 112 142 145 115
          112 142 145 115 113 143
          146 116 114 144 147 117
          115 145 148 118 115 145
          148 118 116 146 149 119
          120 150 153 123 121 151
          154 124 121 151 154 124
          122 152 155 125 123 153
          156 126 124 154 157 127
          124 154 157 127 125 155
          158 128 126 156 159 129
          127 157 160 130 127 157
          160 130 128 158 161 131
          129 159 162 132 130 160
          163 133 130 160 163 133
          131 161 164 134 132 162
          165 135 133 163 166 136
          133 163 166 136 134 164
          167 137 135 165 168 138
          136 166 169 139 136 166
          169 139 137 167 170 140
          138 168 171 141 139 169
          172 142 139 169 172 142
          140 170 173 143 141 171
          174 144 142 172 175 145
          142 172 175 145 143 173
          176 146 144 174 177 147
          145 175 178 148 145 175
          178 148 146 176 179 149
          150 180 183 153 151 181
          184 154 151 181 184 154
          152 182 185 155 153 183
          186 156 154 184 187 157
          154 184 187 157 155 185
          188 158 156 186 189 159
          157 187 190 160 157 187
          190 160 158 188 191 161
          159 189 192 162 160 190
          193 163 160 190 193 163
          161 191 194 164 162 192
          195 165 163 193 196 166
          163 193 196 166 164 194
          197 167 165 195 198 168
          166 196 199 169 166 196
          199 169 167 197 200 170
          168 198 201 171 169 199
          202 172 169 199 202 172
          170 200 203 173 171 201
          204 174 172 202 205 175
          172 202 205 175 173 203
          206 176 174 204 207 177
          175 205 208 178 175 205
          208 178 176 206 209 179
          180 210 213 183 181 211
          214 184 181 211 214 184
          182 212 215 185 183 213
          216 186 184 214 217 187
          184 214 217 187 185 215
          218 188 186 216 219 189
          187 217 220 190 187 217
          220 190 188 218 221 191
          189 219 222 192 190 220
          223 193 190 220 223 193
          191 221 224 194 192 222
          225 195 193 223 226 196
          193 223 226 196 194 224
          227 197 195 225 228 198
          196 226 229 199 196 226
          229 199 197 227 230 200
          198 228 231 201 199 229
          232 202 199 229 232 202
          200 230 233 203 201 231
          234 204 202 232 235 205
          202 232 235 205 203 233
          236 206 204 234 237 207
          205 235 238 208 205 235
          238 208 206 236 239 209
          210 240 243 213 211 241
          244 214 211 241 244 214
          212 242 245 215 213 243
          246 216 214 244 247 217
          214 244 247 217 215 245
          248 218 216 246 249 219
          217 247 250 220 217 247
          250 220 218 248 251 221
          219 249 252 222 220 250
          253 223 220 250 253 223
          221 251 254 224 222 252
          255 225 223 253 256 226
          223 253 256 226 224 254
          257 227 225 255 258 228
          226 256 259 229 226 256
          259 229 227 257 260 230
          228 258 261 231 229 259
          262 232 229 259 262 232
          230 260 263 233 231 261
          264 234 232 262 265 235
          232 262 265 235 233 263
          266 236 234 264 267 237
          235 265 268 238 235 265
          268 238 236 266 269 239
          246 270 273 249 247 271
          274 250 247 271 274 250
          248 272 275 251 249 273
          276 252 250 274 277 253
          250 274 277 253 251 275
          278 254 252 276 279 255
          253 277 280 256 253 277
          280 256 254 278 281 257
          255 279 282 258 256 280
          283 259 256 280 283 259
          257 281 284 260 258 282
          285 261 259 283 286 262
          259 283 286 262 260 284
          287 263 261 285 288 264
          262 286 289 265 262 286
          289 265 263 287 290 266
          264 288 291 267 265 289
          292 268 265 289 292 268
          266 290 293 269 294 295
          296 297 298 299 300 301
          298 299 300 301 302 303
          304 305 306 294 297 307
          308 298 301 309 308 298
          301 309 310 302 305 311
          312 306 313 314 315 308
          316 317 315 308 316 317
          318 310 319 320 321 322
          323 324 325 326 327 328
          325 326 327 328 329 330
          331 332 333 334 335 336
          337 338 339 340 337 338
          339 340 341 342 343 344
          345 346 347 348 349 350
          351 352 349 350 351 352
          353 354 355 356 357 358
          359 360 361 362 363 364
          361 362 363 364 365 366
          367 368 267 369 370 237
          268 371 372 238 268 371
          372 238 269 373 374 239
          375 347 376 322 377 351
          378 326 377 351 378 326
          379 355 380 330 381 382
          383 384 385 386 387 388
          385 386 387 388 389 390
          391 392 393 394 395 396
          397 398 399 400 397 398
          399 400 401 402 403 404
          323 322 405 406 327 326
          407 408 327 326 407 408
          331 330 409 410 411 412
          413 414 415 416 417 418
          415 416 417 418 419 420
          421 422 423 424 425 426
          427 428 429 430 427 428
          429 430 431 432 433 434
          435 436 437 438 439 440
          441 442 439 440 441 442
          443 444 445 446 447 358
          357 448 449 362 361 450
          449 362 361 450 451 366
          365 452 54 87 453 394
          56 88 454 398 56 88
          454 398 58 89 455 402
          456 457 295 294 458 459
          299 298 458 459 299 298
          460 461 303 302 457 462
          463 464 459 465 466 467
          459 465 466 467 461 468
          469 470 456 294 312 381
          458 298 315 385 458 298
          315 385 460 302 318 389
          471 472 473 474 475 476
          477 478 475 476 477 478
          479 480 481 482 483 395
          484 485 486 399 487 488
          486 399 487 488 489 403
          490 491 370 492 359 493
          372 494 363 495 372 494
          363 495 374 496 367 497
          237 370 493 207 238 372
          495 208 238 372 495 208
          239 374 497 209 336 335
          498 499 340 339 500 501
          340 339 500 501 344 343
          502 503 463 334 504 505
          466 338 506 507 466 338
          506 507 469 342 508 509
          510 511 512 513 514 515
          516 517 514 515 516 517
          518 519 520 521 522 523
          524 346 525 526 527 350
          525 526 527 350 528 529
          530 354 531 532 464 505
          533 534 467 507 533 534
          467 507 535 536 470 509
          537 147 177 538 539 148
          178 540 539 148 178 540
          541 149 179 542 523 543
          544 471 526 545 546 475
          526 545 546 475 529 547
          548 479 549 360 550 505
          551 364 552 507 551 364
          552 507 553 368 554 509
          555 313 556 557 558 316
          559 560 558 316 559 560
          561 319 562 563 564 565
          566 492 567 568 569 494
          567 568 569 494 570 571
          572 496 573 574 575 485
          576 577 578 488 576 577
          578 488 579 580 581 491
          582 574 511 510 583 577
          515 514 583 577 515 514
          584 580 519 518 87 117
          348 453 88 118 352 454
          88 118 352 454 89 119
          356 455 504 334 544 543
          506 338 546 545 506 338
          546 545 508 342 548 547
          585 586 587 588 589 590
          591 592 589 590 591 592
          593 594 595 596 574 597
          598 511 577 599 600 515
          577 599 600 515 580 601
          602 519 375 322 321 453
          377 326 325 454 377 326
          325 454 379 330 329 455
          557 556 603 604 560 559
          605 606 560 559 605 606
          563 562 607 608 425 609
          512 610 429 611 516 612
          429 611 516 612 433 613
          520 614 207 493 538 177
          208 495 540 178 208 495
          540 178 209 497 542 179
          615 473 616 426 617 477
          618 430 617 477 618 430
          619 481 620 434 297 414
          621 307 301 418 622 309
          301 418 622 309 305 422
          623 311 492 369 624 564
          494 371 625 567 494 371
          625 567 496 373 626 570
          627 333 336 628 629 337
          340 630 629 337 340 630
          631 341 344 632 360 633
          566 550 364 634 569 552
          364 634 569 552 368 635
          572 554 457 456 636 462
          459 458 637 465 459 458
          637 465 461 460 638 468
          357 360 549 543 361 364
          551 545 361 364 551 545
          365 368 553 547 295 464
          532 296 299 467 534 300
          299 467 534 300 303 470
          536 304 639 314 313 555
          640 317 316 558 640 317
          316 558 641 320 319 561
          471 474 524 523 475 478
          527 526 475 478 527 526
          479 482 530 529 426 610
          406 615 430 612 408 617
          430 612 408 617 434 614
          410 619 504 543 549 505
          506 545 551 507 506 545
          551 507 508 547 553 509
          566 565 642 550 569 568
          643 552 569 568 643 552
          572 571 644 554 610 512
          511 598 612 516 515 600
          612 516 515 600 614 520
          519 602 621 414 645 587
          622 418 646 591 622 418
          646 591 623 422 647 595
          405 474 615 406 407 478
          617 408 407 478 617 408
          409 482 619 410 381 384
          636 456 385 388 637 458
          385 388 637 458 389 392
          638 460 648 499 498 636
          649 501 500 637 649 501
          500 637 650 503 502 638
          616 651 423 426 618 652
          427 430 618 652 427 430
          620 653 431 434 324 597
          573 484 328 599 576 487
          328 599 576 487 332 601
          579 490 642 412 411 531
          643 416 415 533 643 416
          415 533 644 420 419 535
          538 358 447 537 540 362
          449 539 540 362 449 539
          542 366 451 541 524 376
          347 346 527 378 351 350
          527 378 351 350 530 380
          355 354 627 651 616 473
          629 652 618 477 629 652
          618 477 631 653 620 481
          405 322 376 474 407 326
          378 478 407 326 378 478
          409 330 380 482 306 307
          556 313 308 309 559 316
          308 309 559 316 310 311
          562 319 345 117 147 537
          349 118 148 539 349 118
          148 539 353 119 149 541
          414 297 296 411 418 301
          300 415 418 301 300 415
          422 305 304 419 621 586
          603 307 622 590 605 309
          622 590 605 309 623 594
          607 311 544 334 333 472
          546 338 337 476 546 338
          337 476 548 342 341 480
          348 347 375 453 352 351
          377 454 352 351 377 454
          356 355 379 455 531 505
          550 642 533 507 552 643
          533 507 552 643 535 509
          554 644 321 324 484 395
          325 328 487 399 325 328
          487 399 329 332 490 403
          598 597 323 406 600 599
          327 408 600 599 327 408
          602 601 331 410 447 448
          522 537 449 450 525 539
          449 450 525 539 451 452
          528 541 513 512 609 654
          517 516 611 655 517 516
          611 655 521 520 613 656
          604 603 586 585 606 605
          590 589 606 605 590 589
          608 607 594 593 463 462
          335 334 466 465 339 338
          466 465 339 338 469 468
          343 342 438 437 314 639
          442 441 317 640 442 441
          317 640 446 445 320 641
          436 383 382 437 440 387
          386 441 440 387 386 441
          444 391 390 445 393 657
          55 54 397 658 57 56
          397 658 57 56 401 659
          59 58 312 314 437 382
          315 317 441 386 315 317
          441 386 318 320 445 390
          346 345 537 522 350 349
          539 525 350 349 539 525
          354 353 541 528 498 335
          462 636 500 339 465 637
          500 339 465 637 502 343
          468 638 369 267 291 624
          371 268 292 625 371 268
          292 625 373 269 293 626
          358 538 493 359 362 540
          495 363 362 540 495 363
          366 542 497 367 394 453
          321 395 398 454 325 399
          398 454 325 399 402 455
          329 403 587 645 660 588
          591 646 661 592 591 646
          661 592 595 647 662 596
          448 543 523 522 450 545
          526 525 450 545 526 525
          452 547 529 528 472 333
          627 473 476 337 629 477
          476 337 629 477 480 341
          631 481 436 435 663 383
          440 439 664 387 440 439
          664 387 444 443 665 391
          411 296 532 531 415 300
          534 533 415 300 534 533
          419 304 536 535 609 425
          424 654 611 429 428 655
          611 429 428 655 613 433
          432 656 492 566 633 359
          494 569 634 363 494 569
          634 363 496 572 635 367
          393 394 54 397 398 56
          397 398 56 401 402 58
          413 414 645 417 418 646
          417 418 646 421 422 647
          628 627 651 630 629 652
          630 629 652 632 631 653
          117 348 345 118 352 349
          118 352 349 119 356 353
          565 642 412 568 643 416
          568 643 416 571 644 420
          457 295 464 459 299 467
          459 299 467 461 303 470
          463 464 505 466 467 507
          466 467 507 469 470 509
          499 336 628 501 340 630
          501 340 630 503 344 632
          384 636 648 388 637 649
          388 637 649 392 638 650
          492 369 370 494 371 372
          494 371 372 496 373 374
          473 474 615 477 478 617
          477 478 617 481 482 619
          381 382 312 385 386 315
          385 386 315 389 390 318
          471 472 544 475 476 546
          475 476 546 479 480 548
          582 574 575 583 577 578
          583 577 578 584 580 581
          312 306 294 315 308 298
          315 308 298 318 310 302
          524 376 474 527 378 478
          527 378 478 530 380 482
          396 393 657 400 397 658
          400 397 658 404 401 659
          483 395 396 486 399 400
          486 399 400 489 403 404
          357 448 543 361 450 545
          361 450 545 365 452 547
          485 573 484 488 576 487
          488 576 487 491 579 490
          621 586 587 622 590 591
          622 590 591 623 594 595
          324 597 323 328 599 327
          328 599 327 332 601 331
          603 307 556 605 309 559
          605 309 559 607 311 562
          610 425 426 612 429 430
          612 429 430 614 433 434
          360 633 359 364 634 363
          364 634 363 368 635 367
          598 610 406 600 612 408
          600 612 408 602 614 410
          574 597 573 577 599 576
          577 599 576 580 601 579
          672 276 273 666 673 277
          274 667 673 277 274 667
          674 278 275 668 675 672
          666 669 676 673 667 670
          676 673 667 670 677 674
          668 671 720 675 669 721
          722 676 670 723 722 676
          670 723 724 677 671 725
          678 279 276 672 679 280
          277 673 679 280 277 673
          680 281 278 674 726 678
          672 675 727 679 673 676
          727 679 673 676 728 680
          674 677 729 726 675 720
          730 727 676 722 730 727
          676 722 731 728 677 724
          681 282 279 678 682 283
          280 679 682 283 280 679
          683 284 281 680 732 681
          678 726 733 682 679 727
          733 682 679 727 734 683
          680 728 684 285 282 681
          685 286 283 682 685 286
          283 682 686 287 284 683
          735 684 681 732 736 685
          682 733 736 685 682 733
          737 686 683 734 687 288
          285 684 688 289 286 685
          688 289 286 685 689 290
          287 686 738 687 684 735
          739 688 685 736 739 688
          685 736 740 689 686 737
          690 291 288 687 691 292
          289 688 691 292 289 688
          692 293 290 689 741 690
          687 738 742 691 688 739
          742 691 688 739 743 692
          689 740 693 694 564 624
          695 696 567 625 695 696
          567 625 697 698 570 626
          699 700 701 702 703 704
          705 706 703 704 705 706
          707 708 709 710 702 701
          412 565 706 705 416 568
          706 705 416 568 710 709
          420 571 413 701 711 645
          417 705 712 646 417 705
          712 646 421 709 713 647
          690 741 744 714 691 742
          745 715 691 742 745 715
          692 743 746 716 714 699
          702 694 715 703 706 696
          715 703 706 696 716 707
          710 698 694 702 565 564
          696 706 568 567 696 706
          568 567 698 710 571 570
          747 717 748 749 750 718
          751 752 750 718 751 752
          753 719 754 755 699 744
          748 700 703 745 751 704
          703 745 751 704 707 746
          754 708 711 701 700 717
          712 705 704 718 712 705
          704 718 713 709 708 719
          714 694 693 690 715 696
          695 691 715 696 695 691
          716 698 697 692 291 690
          693 624 292 691 695 625
          292 691 695 625 293 692
          697 626 711 717 660 645
          712 718 661 646 712 718
          661 646 713 719 662 647
          714 699 744 715 703 745
          715 703 745 716 707 746
          748 700 717 751 704 718
          751 704 718 754 708 719
          413 701 412 417 705 416
          417 705 416 421 709 420
        </DataArray>
        <DataArray type="Int64" Name="offsets" format="ascii" RangeMin="8" RangeMax="3624">
          8 16 24 32 40 48
          56 64 72 80 88 96
          104 112 120 128 136 144
          152 160 168 176 184 192
          200 208 216 224 232 240
          248 256 264 272 280 288
          296 304 312 320 328 336
          344 352 360 368 376 384
          392 400 408 416 424 432
          440 448 456 464 472 480
          488 496 504 512 520 528
          536 544 552 560 568 576
          584 592 600 608 616 624
          632 640 648 656 664 672
          680 688 696 704 712 720
          728 736 744 752 760 768
          776 784 792 800 808 816
          824 832 840 848 856 864
          872 880 888 896 904 912
          920 928 936 944 952 960
          968 976 984 992 1000 1008
          1016 1024 1032 1040 1048 1056
          1064 1072 1080 1088 1096 1104
          1112 1120 1128 1136 1144 1152
          1160 1168 1176 1184 1192 1200
          1208 1216 1224 1232 1240 1248
          1256 1264 1272 1280 1288 1296
          1304 1312 1320 1328 1336 1344
          1352 1360 1368 1376 1384 1392
          1400 1408 1416 1424 1432 1440
          1448 1456 1464 1472 1480 1488
          1496 1504 1512 1520 1528 1536
          1544 1552 1560 1568 1576 1584
          1592 1600 1608 1616 1624 1632
          1640 1648 1656 1664 1672 1680
          1688 1696 1704 1712 1720 1728
          1736 1744 1752 1760 1768 1776
          1784 1792 1800 1808 1816 1824
          1832 1840 1848 1856 1864 1872
          1880 1888 1896 1904 1912 1920
          1928 1936 1944 1952 1960 1968
          1976 1984 1992 2000 2008 2016
          2024 2032 2040 2048 2056 2064
          2072 2080 2088 2096 2104 2112
          2120 2128 2136 2144 2152 2160
          2168 2176 2184 2192 2200 2208
          2216 2224 2232 2240 2248 2256
          2264 2272 2280 2288 2296 2304
          2312 2320 2328 2336 2344 2352
          2360 2368 2376 2384 2392 2400
          2408 2416 2424 2432 2440 2448
          2456 2464 2472 2480 2488 2496
          2504 2512 2520 2528 2536 2544
          2552 2560 2568 2576 2584 2592
          2600 2608 2616 2624 2632 2640
          2648 2656 2664 2672 2680 2688
          2696 2704 2712 2720 2728 2736
          2744 2752 2760 2768 2776 2784
          2792 2800 2808 2816 2824 2832
          2838 2844 2850 2856 2862 2868
          2874 2880 2886 2892 2898 2904
          2910 2916 2922 2928 2934 2940
          2946 2952 2958 2964 2970 2976
          2982 2988 2994 3000 3006 3012
          3018 3024 3030 3036 3042 3048
          3054 3060 3066 3072 3078 3084
          3090 3096 3102 3108 3114 3120
          3126 3132 3138 3144 3150 3156
          3164 3172 3180 3188 3196 3204
          3212 3220 3228 3236 3244 3252
          3260 3268 3276 3284 3292 3300
          3308 3316 3324 3332 3340 3348
          3356 3364 3372 3380 3388 3396
          3404 3412 3420 3428 3436 3444
          3452 3460 3468 3476 3484 3492
          3500 3508 3516 3524 3532 3540
          3548 3556 3564 3572 3580 3588
          3594 3600 3606 3612 3618 3624
        </DataArray>
        <DataArray type="UInt8" Name="types" format="ascii" RangeMin="12" RangeMax="13">
          12 12 12 12 12 12
          12 12 12 12 12 12
          12 12 12 12 12 12
          12 12 12 12 12 12
          12 12 12 12 12 12
          12 12 12 12 12 12
          12 12 12 12 12 12
          12 12 12 12 12 12
          12 12 12 12 12 12
          12 12 12 12 12 12
          12 12 12 12 12 12
          12 12 12 12 12 12
          12 12 12 12 12 12
          12 12 12 12 12 12
          12 12 12 12 12 12
          12 12 12 12 12 12
          12 12 12 12 12 12
          12 12 12 12 12 12
          12 12 12 12 12 12
          12 12 12 12 12 12
          12 12 12 12 12 12
          12 12 12 12 12 12
          12 12 12 12 12 12
          12 12 12 12 12 12
          12 12 12 12 12 12
          12 12 12 12 12 12
          12 12 12 12 12 12
          12 12 12 12 12 12
          12 12 12 12 12 12
          12 12 12 12 12 12
          12 12 12 12 12 12
          12 12 12 12 12 12
          12 12 12 12 12 12
          12 12 12 12 12 12
          12 12 12 12 12 12
          12 12 12 12 12 12
          12 12 12 12 12 12
          12 12 12 12 12 12
          12 12 12 12 12 12
          12 12 12 12 12 12
          12 12 12 12 12 12
          12 12 12 12 12 12
          12 12 12 12 12 12
          12 12 12 12 12 12
          12 12 12 12 12 12
          12 12 12 12 12 12
          12 12 12 12 12 12
          12 12 12 12 12 12
          12 12 12 12 12 12
          12 12 12 12 12 12
          12 12 12 12 12 12
          12 12 12 12 12 12
          12 12 12 12 12 12
          12 12 12 12 12 12
          12 12 12 12 12 12
          12 12 12 12 12 12
          12 12 12 12 12 12
          12 12 12 12 12 12
          12 12 12 12 12 12
          13 13 13 13 13 13
          13 13 13 13 13 13
          13 13 13 13 13 13
          13 13 13 13 13 13
          13 13 13 13 13 13
          13 13 13 13 13 13
          13 13 13 13 13 13
          13 13 13 13 13 13
          13 13 13 13 13 13
          12 12 12 12 12 12
          12 12 12 12 12 12
          12 12 12 12 12 12
          12 12 12 12 12 12
          12 12 12 12 12 12
          12 12 12 12 12 12
          12 12 12 12 12 12
          12 12 12 12 12 12
          12 12 12 12 12 12
          13 13 13 13 13 13
        </DataArray>
      </Cells>
    </Piece>
  </UnstructuredGrid>
</VTKFile>
