<?xml version="1.0"?>
<VTKFile type="UnstructuredGrid" version="0.1" byte_order="LittleEndian" header_type="UInt32" compressor="vtkZLibDataCompressor">
  <UnstructuredGrid>
    <Piece NumberOfPoints="795" NumberOfCells="454">
      <PointData>
        <DataArray type="Int32" Name="libmesh_node_id" format="ascii" RangeMin="2220" RangeMax="4979">
          2220 2221 2222 2223 2224 2225
          2226 2227 2228 2229 2230 2231
          2388 2389 2390 2391 2392 2393
          2394 2395 2396 2397 2398 2399
          2402 2405 2408 2409 2410 2411
          2463 2464 2465 2466 2467 2468
          2469 2470 2471 2472 2473 2474
          2475 2476 2477 2478 2479 2480
          2499 2500 2501 2502 2503 2504
          2505 2506 2507 2508 2509 2510
          2511 2512 2513 2514 2515 2516
          2517 2518 2519 2520 2521 2522
          2613 2614 2616 2617 2618 2620
          2621 2622 2624 2652 2653 2654
          2655 2656 2657 2658 2659 2660
          2661 2662 2663 2697 2701 2705
          2721 2722 2723 2724 2725 2726
          2736 2737 2738 2739 2740 2741
          2742 2743 2744 2745 2746 2747
          2748 2749 2750 2751 2752 2753
          2754 2755 2756 2757 2758 2759
          2760 2761 2762 2763 2764 2765
          2778 2779 2780 2781 2782 2783
          2784 2785 2786 2862 2863 2864
          2865 2866 2867 2868 2869 2870
          2871 2872 2873 2922 2923 2924
          2925 2926 2927 2940 2941 2942
          2943 2944 2945 2946 2947 2948
          2958 2959 2960 2961 2962 2963
          2964 2965 2966 2967 2968 2969
          2992 2993 2996 2997 3000 3001
          3018 3019 3020 3021 3022 3023
          3036 3039 3040 3043 3044 3047
          3060 3061 3062 3063 3064 3065
          3066 3067 3068 3069 3070 3071
          3072 3073 3074 3075 3076 3077
          3180 3181 3182 3183 3184 3185
          3204 3205 3206 3207 3208 3209
          3240 3242 3244 3258 3260 3262
          3273 3274 3275 3276 3277 3278
          3279 3280 3281 3282 3283 3284
          3285 3286 3287 3288 3289 3290
          3291 3292 3293 3294 3295 3296
          3297 3298 3299 3348 3349 3350
          3351 3352 3353 3354 3355 3356
          3357 3358 3359 3360 3361 3362
          3363 3364 3365 3369 3370 3371
          3372 3373 3374 3399 3400 3401
          3402 3403 3404 3405 3406 3407
          3408 3409 3410 3411 3412 3413
          3414 3415 3416 3417 3418 3419
          3420 3421 3422 3462 3463 3464
          3486 3487 3488 3489 3490 3491
          3507 3508 3509 3510 3511 3512
          3527 3530 3533 3534 3535 3536
          3555 3556 3557 3558 3559 3560
          3561 3562 3563 3579 3580 3581
          3594 3595 3596 3597 3598 3599
          3603 3604 3605 3606 3607 3608
          3621 3622 3623 3624 3625 3626
          3627 3628 3629 3642 3643 3644
          3645 3646 3647 3648 3649 3650
          3651 3652 3653 3669 3670 3671
          3672 3673 3674 3675 3676 3677
          3678 3679 3680 3681 3682 3683
          3750 3751 3752 3753 3754 3755
          3756 3757 3758 3759 3760 3761
          3780 3781 3782 3783 3784 3785
          3909 3910 3911 3912 3913 3914
          3915 3916 3917 3918 3919 3920
          3951 3952 3953 3966 3967 3968
          3975 3976 3977 3978 3979 3980
          3981 3982 3983 3984 3985 3986
          3987 3988 3989 3990 3991 3992
          4008 4009 4010 4011 4012 4013
          4014 4015 4016 4017 4018 4019
          4020 4021 4022 4023 4024 4025
          4026 4027 4028 4029 4030 4031
          4041 4042 4043 4044 4045 4046
          4047 4048 4049 4050 4051 4052
          4068 4069 4070 4080 4081 4082
          4092 4093 4094 4095 4096 4097
          4098 4099 4100 4101 4102 4103
          4122 4123 4124 4125 4126 4127
          4146 4147 4148 4149 4150 4151
          4152 4153 4154 4155 4156 4157
          4158 4159 4160 4173 4174 4175
          4176 4177 4178 4179 4180 4181
          4182 4183 4184 4188 4189 4190
          4194 4195 4196 4197 4198 4199
          4200 4201 4202 4203 4204 4205
          4218 4219 4220 4221 4222 4223
          4230 4231 4232 4266 4267 4268
          4281 4282 4283 4299 4300 4301
          4305 4306 4307 4308 4309 4310
          4311 4312 4313 4335 4336 4337
          4341 4342 4343 4395 4396 4397
          4455 4456 4457 4473 4474 4475
          4476 4477 4478 4515 4516 4517
          4578 4579 4580 4581 4582 4583
          4614 4615 4616 4704 4705 4706
          4707 4708 4709 4710 4711 4712
          4713 4714 4715 4737 4738 4739
          4740 4741 4742 4821 4822 4823
          4842 4843 4844 4845 4846 4847
          4854 4855 4856 4857 4858 4859
          4860 4861 4862 4863 4864 4865
          4866 4867 4868 4875 4876 4877
          4878 4879 4880 4908 4909 4910
          4914 4915 4916 4932 4933 4934
          4941 4942 4943 4977 4978 4979
          2400 2401 2403 2404 2406 2407
          2615 2619 2623 2698 2699 2700
          2702 2703 2704 2706 2707 2708
          2991 2994 2995 2998 2999 3002
          2331 2330 2335 2334 2339 2338
          3241 3243 3245 3259 3186 3188
          3261 3189 3191 3263 3192 3194
          3448 3450 3452 3525 3526 3528
          3529 3531 3532 3537 3538 3539
          3540 3541 3542 3654 3657 3660
          2328 2332 2336 3852 3853 3854
          3993 3994 3995 4338 4339 4340
          3513 3514 3515 4458 4321 4459
          4324 4460 4327 4584 4585 4586
          4587 4588 4589 4791 4792 4793
          4794 4795 4796 4797 4798 4799
          4431 4432 4433 3495 3187 3499
          3190 3503 3193 3954 3957 3958
          3961 3962 3965 4899 4900 4901
          4968 4969 4970 4911 4912 4913
          3498 3502 3506 4902 4903 4904
          4434 4436 4438
        </DataArray>
        <DataArray type="Float64" Name="resid_x" format="ascii" RangeMin="-0.06255222596792187" RangeMax="0.2362118787046832">
          -0.01055347309841359 0.004213681601114239 0.007532117645572711 0.013793192145390876 -0.02234595698050601 0.008075258220789472
          0.010774926752867842 0.024077087574280398 -0.01224569271236664 0.003588100666985561 0.004922253819873212 0.013480986658128913
          0.0010152513410970343 -0.0034219509460662323 -0.002593319868202215 -0.0004271773379329602 0.00008649304938490587 -0.012901898070124318
          -0.007563600803780268 -0.008483962112991073 -0.018815600729648274 -0.020542467179842205 -0.01742554901709603 -0.02160481960815286
          -0.01846048692254776 -0.027611801070428044 -0.020798264053897952 -0.019687975128944935 -0.024264151563119896 -0.017868000335175438
          0.00012833781255194854 -0.003212733565406134 0.006167572278198752 0.001032534331495305 -0.003145070320927812 -0.007981203003579962
          -0.001975411513182257 -0.0010397861835116373 -0.0002958877290195616 -0.0007294328794158478 -0.004075568171727273 -0.006242278829777792
          -0.009200194066307787 -0.010147604436844926 -0.01787156753903596 -0.02422799542759746 -0.020513714108854053 -0.015017720094898435
          -0.0008697385279843317 -0.00017951727583742638 0.0005667681477037334 0.001325757373319636 -0.0044448818660196565 -0.002054412049937504
          -0.0050085876255803186 -0.001640157585299118 -0.011779299502965301 -0.01054642312498455 -0.009051134189296484 -0.006439513323499124
          -0.0003675349414673512 0.0007880992261659614 0.0014003010189833631 0.0009098908719780141 -0.003330842003647305 -0.005572226968904914
          -0.0015907809708135545 -0.0046950852659923825 -0.014608930851189417 -0.017470417587710507 -0.01374586727328797 -0.016319443847587323
          -0.001030449263131672 -0.008302137682499655 0.003984808414235097 -0.00467297318545512 -0.016781824908711496 -0.005148330921371347
          -0.018207506748858293 -0.01792946167108589 -0.02488294836168059 0.0002284873563942469 0.001820120876070419 0.0029965529274200153
          0.00413321906162345 -0.0015112338141047843 -0.002142379759877855 0.0033523603027011406 -0.002725820317125205 -0.019811462080071784
          -0.014217174320998005 -0.021781938396817635 -0.026033623369755787 -0.021678444510181194 -0.03205375397369936 -0.024971773001981834
          0.002220783780313429 0.0009174025800131602 0.005664844675028924 0.00344806048884827 -0.00042321156463764886 -0.005255106354773886
          -0.0030015218960706136 -0.007350409281191794 -0.01512531798439376 -0.006239557159658737 -0.012367808990115137 -0.03106362864508938
          -0.0031101231041779087 -0.008911545283388556 -0.01722227304704127 0.0016761467557735443 0.00037808092840929675 0.0003440651012196483
          0.00280740065277435 0.0014070133298349496 -0.0029721074645667755 -0.0038088186999107876 -0.00012973022521206579 -0.008366803176342863
          -0.0128794747214247 -0.017777193094819843 -0.01394702703059647 -0.0018673477539605798 -0.0028920953792752613 -0.0022218988080036084
          -0.00489879945053584 -0.001000022690364144 -0.005658726316203122 -0.009732221250266626 -0.0033605849469520166 -0.011328622848647996
          -0.004645491324524187 -0.004032077848207916 -0.0028504881030766427 -0.001484025227526331 -0.005859357582610247 -0.004686094729131618
          -0.0004961215908112493 -0.004045395947677832 -0.006482725897881458 -0.009666034160424442 -0.001075553762851289 -0.0006861530710631225
          -0.011966765766348475 -0.008759276619449974 -0.001312747240072909 -0.0024053152377943032 -0.01208323028448266 -0.01910211626622127
          -0.00964403924079793 -0.013593802499100277 -0.02709895948192176 0.0008147623819434457 -0.0017401489017236926 0.001709975806738484
          -0.007131756467231298 -0.021058705246923992 -0.025204172153981297 -0.010108505384672561 -0.005793583721041884 -0.013531971117815011
          -0.011079262812493162 -0.009927708889445164 -0.008262669774836695 -0.02309666466814786 -0.020968050747643296 -0.015244316975404182
          -0.002344854831143106 -0.0016203364580169577 -0.0031338554676469954 -0.013063981739744435 -0.0052761727460604035 -0.006721082666617306
          -0.006264269108873677 -0.012089325317722555 -0.009439420864755022 -0.012575592553598192 -0.01379766432968399 -0.01868235786593786
          -0.01268459839019176 -0.004453650367881146 -0.03312571811282705 -0.01031062866612853 -0.021744732925844446 -0.014803404437703893
          -0.0035804805674839457 -0.02085075048784457 -0.007302727113494889 -0.04010880925930316 -0.025283309192888126 -0.02428542188049576
          -0.015472710373705567 -0.01256192984806681 -0.018841938812681036 -0.01631340348575172 -0.013517286177682664 -0.013024808174598057
          -0.00787453822018147 -0.004676305346063003 -0.004285236938608605 -0.0022376133793124975 -0.01673456669065132 -0.009603883407645064
          0.0019348737809288252 0.006920587994547089 -0.0016444013554819392 0.00033538116221443204 0.005720876396009267 0.008279477997353846
          -0.007366375080239074 0.000027521814966569025 -0.007467769171531913 -0.004528936046659382 -0.026014383985690337 -0.02694658426809582
          -0.0073293969768064016 -0.009607183040532874 -0.00019616613154388451 -0.01674848493457226 -0.014886525211591728 -0.021918834381940755
          -0.00664595866701978 -0.01176810107966908 0.006265840786737531 -0.021147376999662626 -0.011587052912217732 -0.023160508757452902
          -0.00948612048704156 -0.007289047087672529 -0.00861747440403704 -0.013746959995439845 -0.028253561060088472 -0.02167020912573836
          -0.02181094381938209 -0.0145608125503216 -0.024033849263656926 -0.01566484806443391 -0.014475093208552892 -0.029204239110257824
          -0.01828028864878206 -0.005393271888729956 -0.01598243727137927 -0.017432161128694723 -0.01441634655134294 -0.011338860034675768
          -0.007170234386405627 -0.003271310875893718 -0.010931158804673657 -0.004168840844922417 0.0005593523869471539 -0.005118132756337435
          -0.009841605800755882 -0.012332078468804575 -0.01910798859734264 -0.008791832121155058 -0.007997437776367633 -0.0017861664153394352
          -0.0018591192562809056 -0.010355503373897124 -0.01743609369360577 -0.012647644584408368 -0.00025482844276236705 -0.00834562861775101
          -0.0008257141470648932 0.00058344708186997 -0.0066449849389362825 -0.008667191745113989 -0.0023198037897955714 0.00004289385583611249
          -0.013032763376957135 -0.009581273253036926 -0.01171320461513048 -0.013877324528204227 -0.02207260938712352 -0.019435888637850063
          -0.025578546908627153 -0.013343068456515894 -0.022386272788888384 -0.024443233730577774 -0.003413864932142907 -0.011978122474679331
          -0.033301169698218835 -0.03429442790344872 -0.02565040980599953 -0.02510719770849157 -0.020031322760637238 -0.03546445597115433
          -0.030852344819758848 -0.01640117336021696 -0.0179119686499547 -0.005006408142278929 -0.012198151280935932 0.00022904179260763158
          -0.006940000739157348 -0.00484041596005369 -0.010748101200926286 -0.011541396806247661 -0.013401341964774716 -0.002298261780468991
          -0.00008764865496813101 -0.017368379600896766 -0.0158329686568095 -0.005953689192145006 -0.005708259114202363 -0.0015191195747439323
          -0.0036632711333481893 -0.005180715090097543 -0.008430119748346954 -0.01353017388846589 -0.005335651322944779 -0.019114576223913105
          -0.013132116844331243 -0.008782716216087172 -0.005763966072726667 0.0010058928430860536 -0.006836712038976067 0.0011795107328471666
          -0.008370601679996703 -0.004701506001161704 -0.006250986979629558 -0.002684556595546006 -0.008551786565334563 -0.00289894893649123
          -0.014738201966166375 -0.024117873532631506 -0.022385432330011223 -0.024958375022530177 -0.011866507138944549 -0.024768603600410444
          -0.010401534765894338 -0.0037774207992242737 -0.009097718977727487 -0.0026742084150033207 -0.008901291106009346 -0.002137863193500067
          -0.014080411137873838 -0.002738633770159815 -0.014794817706239805 -0.019194900812517623 -0.011978196980269473 -0.013884828579889152
          -0.03222389270183612 -0.035588383501425014 0.0005467197660653511 -0.007267746945203157 -0.01777339752178264 -0.01802628906904946
          -0.01788049020299054 -0.007922324640548872 -0.0009176605281635553 -0.0011702392949883844 -0.015189079025803576 -0.017356958272154444
          -0.004166821622022532 -0.008661571657385458 -0.007120176044843163 -0.0062062724794333946 -0.010253906217074338 -0.006806398779010792
          -0.0043536788196298914 -0.00703238647235338 -0.004934359711038283 -0.004918406424784472 0.0006349768612055051 -0.003254988293901917
          -0.011107164047178486 -0.0025127297856935016 -0.0005749766766904862 -0.0023887188524343017 -0.01387592745280486 -0.01941499737040875
          -0.011833483260257793 -0.015531757895904441 -0.02700814057144907 0.00009565252162069271 0.0001610997403709291 -0.0032409589405277828
          0.0025719470145455503 -0.002674755244049365 0.0003555418762095641 -0.014402203800571556 -0.0028167590541245957 -0.021365376348574827
          -0.025482695919740728 -0.025651838341725686 -0.02295769387154767 -0.026579325268219378 -0.0019093610432534547 -0.018685926075860948
          -0.0063323543537188165 -0.00825089944904267 -0.0018812145746291975 -0.004817256723796071 -0.02136830799631184 -0.020403150101282463
          -0.008663929027728834 -0.012329573062367594 -0.013953462852827059 -0.025538395493938992 -0.019922049911774486 -0.01745613803215207
          -0.005671247124522161 -0.009798672609554249 -0.0006285285482827696 -0.0035798534416729144 -0.0200414570208709 -0.02352208546319723
          -0.009940297983476398 -0.020670641094692854 -0.00020822882939519616 -0.010510172764746528 -0.019246255012273394 -0.02353883568081816
          -0.007342803228929995 -0.005348089702471803 -0.0005013408100227323 -0.0009818507686798483 -0.018834166061307833 -0.015330940547577665
          -0.030275623528488893 -0.009293601373568272 -0.02021695124532652 -0.026265487615150906 -0.011482573852396705 -0.02560957195952085
          -0.0011508002323337152 -0.008581019943099122 -0.011704087501247074 -0.007846676445023348 -0.00031903110304076776 -0.010276061982586349
          -0.01112028899719153 -0.004761349036227713 -0.016987939176044797 -0.011931353423040747 -0.019949444718200482 -0.020017677178577387
          -0.019671127241120523 -0.00921186387595263 -0.03057563389007978 -0.0016504461471917864 -0.023843042307403195 -0.01245208121382202
          -0.01787484637200798 -0.0096688949267687 -0.0003956996291272219 -0.012479336821224152 -0.03821027206727301 -0.022167330469379465
          -0.0008688404909431569 -0.026031593570746026 -0.023954692794267984 -0.020007140796840517 -0.009034637964759895 -0.01841963283005299
          -0.020943129147278583 -0.014113471829040769 -0.015455320659324201 -0.02457241761905493 -0.022940100442356837 -0.019676919771519863
          -0.019463699514290944 -0.014303755013072461 -0.014233462756764403 -0.02047520937207148 -0.007991680789618538 -0.03007062065576971
          -0.017454709501646626 -0.014821285474410084 -0.009397667588637582 -0.006157772240264148 -0.011238084061039544 -0.008117140100504072
          -0.025565335031717318 -0.017674140572289332 -0.008109443565286867 -0.006450739840747843 -0.025953015901476917 -0.018521371331628345
          -0.018280210232934024 -0.0028222734551288653 -0.021114767637550713 -0.03785724870577578 -0.008150569252880047 -0.014610102400871128
          -0.013977301926291652 -0.008333020318463724 -0.004090719961070022 -0.00669519204002178 -0.014139405255373383 -0.009289977864373355
          -0.02142722672770958 -0.02077762869067712 -0.010393759881271336 -0.029620888415425206 -0.014788634688271962 -0.020019562623382114
          -0.017339020439561814 -0.014201845877392039 -0.026019681714387843 -0.02400092801351228 -0.018719183316829202 -0.017527864601649235
          -0.011284103536742585 -0.007907054457509943 -0.0066035394026418 -0.01869728270660076 -0.005844725294578801 -0.01257589273545534
          -0.014868914840324265 -0.010612330831031969 -0.009404131773620428 -0.0194092933211909 -0.017195096040198976 -0.014851392229833671
          -0.011242326043723772 -0.01569893826664792 -0.016552789137016966 -0.016951378122509908 -0.012452870176573594 -0.00971716064389394
          -0.00942590947269073 -0.017176065929469964 -0.016694476515398016 -0.006897635961838233 -0.006096005530036308 0.0008026837591224023
          -0.008044013742527056 -0.004604564815812395 -0.005369589291059462 -0.01634408802302012 -0.01613576368910863 -0.018270651543050853
          0.027929805712018307 0.013321118505853491 0.018002056480701967 0.012084845995469884 0.03626229054418184 0.01748458607268244
          0.030028045269425263 0.0004749943395605527 0.015448516182829497 -0.01193194679622156 0.003959897673875723 -0.0034863582592832287
          0.017107637924579144 -0.00616823510714859 0.03890389887554946 0.0025923876858700012 0.02228477724091782 0.007104845161231665
          -0.006326190786690056 -0.0007359763041954182 -0.004572268821879 -0.0039010959373246834 -0.007887994965960488 -0.005698399192234582
          -0.011355766353527308 -0.0009553839872822323 -0.017357489977088747 -0.01614204541253894 -0.01080600421366995 -0.0196856634015532
          -0.021330705400366856 -0.007752931415167197 -0.018382873623694618 -0.011431057394967858 -0.009256442528167597 -0.004102282945408042
          -0.00517687114593901 -0.011492145111875018 -0.008391913556113462 -0.016435337056952548 -0.005614926793601427 -0.011219598061932068
          -0.01383235257708293 -0.012164730500052734 -0.000610010513146797 -0.023078688841188466 -0.030581703753085776 -0.02334106036698813
          -0.022752262978040783 -0.014718379482658861 -0.01347723502779985 -0.026895404792178113 -0.021980153449161932 -0.03356405339469326
          -0.02644935966717643 -0.02635267944738917 -0.023469662163360105 -0.030761179975647757 -0.007530135933313087 -0.013976379996002208
          -0.013429129263494488 -0.0059127235256744015 -0.01482399473989826 -0.013012630853728169 -0.005047210080311615 -0.005497773201742717
          -0.013327766141915554 0.0031183956607465646 -0.007064981155799899 -0.01914406770000543 -0.023826853737303644 -0.009974627614337983
          -0.03200682845811009 -0.04099147631897537 -0.017181213360641934 -0.01099191639370467 0.003957137901931418 -0.012809030026174284
          0.012670143247821564 -0.025476504309313697 -0.006071139808645931 -0.004189920815215853 0.002538545942143422 -0.007399535024519288
          0.005287601484649684 -0.003606078601458229 0.0021130536048374893 -0.005063152717090347 -0.015415760577917048 -0.02428623641098504
          -0.0208197496867637 -0.025131374043515287 -0.01706451202752568 -0.022594955927465854 -0.038403051520535136 -0.022280551958550276
          -0.021545900755668868 -0.00845726044358841 -0.03681684369094018 -0.0001380749908346246 -0.0261101264575494 -0.0030087458981684634
          0.01186701281870528 0.0013190235944415818 0.027376067438009244 0.021699152621435847 0.0029926720733337575 0.05938853190584492
          0.011488266898078692 0.0010627001461758212 0.022012092887248258 -0.001712163035609393 -0.009674285587958131 -0.006248408181141141
          -0.003691492511994632 -0.01067025384982001 -0.013123210793344775 -0.02009159691979212 -0.015201685612907134 -0.017341098709819036
          -0.001695779496792671 -0.0028844075934264524 -0.0005821575652742439 0.005344764360708076 0.010989347470268918 0.00532061598354705
          -0.026185106810519 -0.03126777758833921 -0.02084131969981584 -0.012252021610483332 -0.001027353258107322 -0.00671420878097706
          -0.017266434699644506 -0.0030886619696115503 -0.023895688684095973 -0.004774209888845249 -0.020443591278317186 -0.01141347213278543
          -0.012309828365374642 -0.014230518621149102 -0.028120868738903404 -0.010039527015987204 -0.011529602821585883 -0.005096948622650643
          -0.0198234230304557 -0.007952329788736279 -0.0014631940644109775 -0.0199457862436212 -0.016903275204473545 -0.010696984617643679
          -0.0036603169033142535 -0.0016838767519153919 -0.007512255871812812 -0.004917915980342968 -0.008932111931384767 -0.0033361928805568652
          -0.009158503852100486 0.0024797379439280842 -0.025378609241496264 -0.00046358288759762445 -0.022753612994983463 -0.016677000499128125
          -0.006478179024558273 -0.014462592775796423 -0.0025127877844832724 -0.030053853631411442 -0.026891986391119893 -0.03328416508609067
          -0.03221181954339691 -0.02459977300574323 -0.059820796898314654 -0.019938399086393943 -0.030702343339335414 -0.030339071176060273
          -0.01507974806023471 -0.01419624993722124 -0.024885100409814065 -0.011768694133003521 -0.0157712628365676 -0.02623333842580422
          -0.02292756709344701 -0.0216361886952825 -0.017634664453712645 -0.02691338855600911 -0.023773657253410185 -0.030909575536913536
          -0.019392829763582142 -0.021394956622243555 -0.016792178822787385 -0.005750883020272823 -0.013698919141598154 -0.016102509631696016
          -0.010123782950283378 -0.021402066972356693 -0.01892918107697561 0.002711930799197404 0.004496293957418018 0.0005410146617563782
          -0.011990823035572973 -0.011706104909730897 -0.015357047508540944 -0.005054412338752812 -0.00591962272744162 -0.01444797678547527
          -0.028588387822966688 -0.02476914472970293 -0.022819787371959777 -0.017563886319480027 -0.013602863408870292 -0.03495180122707531
          -0.029493995577574594 -0.02789173022541913 -0.02673487855212109 -0.008291145248954024 -0.005335016366706746 -0.013688389081021768
          -0.010246246952185345 -0.004067828354942904 -0.002526142398242115 -0.01096122513492137 -0.009329368573546049 -0.0029118474894911373
          0.08882400403614366 0.1174886592864155 0.1765957374169833 0.2362118787046832 0.08132419586421857 0.13841149355233107
          -0.016159754594733844 -0.017006518652283198 -0.012596461136526571 -0.010059981552339892 -0.038215867824869854 -0.025940683688379096
          -0.06255222596792187 -0.012913389446460144 -0.033537706440181836 -0.014958349193179288 -0.016983087583721357 -0.031864705878092536
          -0.024685176939698295 -0.02172777329600173 -0.01350782988314414 -0.006894784419392508 0.0008031208029848358 0.013782011399491978
          -0.02019505950167577 -0.028261542852507482 -0.01839732261939364 -0.014286216204789426 -0.016306186957280033 -0.008866380489553904
          -0.012710270832924309 -0.033827667988880705 -0.022619449766610344 -0.022788180093925803 -0.029647984730242882 -0.019153649253858873
          -0.015907999718974608 -0.03169957731484985 -0.02244154984392921
        </DataArray>
        <DataArray type="Float64" Name="resid_y" format="ascii" RangeMin="-0.1073124220776961" RangeMax="0.1802573718264062">
          0.011643097778509102 0.008447568251990653 0.0025929347308649917 -0.009975886632256084 0.021704220954375734 0.017322726780076125
          0.008396503809867215 -0.020135460687150275 0.00999853886015676 0.011245220244105854 0.006272472762111056 -0.014858670522373663
          0.000919600341326432 0.004061056817451475 0.007041838078054585 0.0070690336323574465 0.00188388687896468 0.009093782097110231
          0.017441402794051875 0.02260557610424202 0.00955217203748937 0.009802506007179634 0.014606329555686859 0.019604183794661167
          0.01233924769442385 0.02330067756204196 0.014952986109183775 0.01428748515858752 0.01854494547212404 0.010251014824484428
          0.004454272317270094 0.000151544478112553 0.0034317268281191388 -0.0037592686753357835 0.007166203105198422 0.005370484334673603
          0.00436939754841072 0.0026331922916901507 -0.0001900143793504283 -0.0011572042894344874 0.010595248502835148 0.007912560941182409
          0.005880347332617594 0.004146020294533995 0.016977064315145105 0.017165551257233333 0.012451030938615035 0.010212113221833439
          -0.0004800540486680979 -0.0010350962965435945 0.001186434226670488 0.002580954358117768 0.0022146322773795163 0.0016045448801234458
          0.005348717683973131 0.008561600134211672 0.009093519805850991 0.00858239889472763 0.007444148236397746 0.010884331977619621
          -0.00018089307991550618 -0.0003213183295656258 -0.0009916046048498994 -0.001229339219361747 0.0021708728837029068 0.0027203646245295976
          0.003180720211643173 0.0060236181201738515 0.009759164455967195 0.011807192501326114 0.011570977532620097 0.01339773401127109
          0.007114513111738836 0.006478484224530068 0.007751936551266755 0.014043060936228174 0.015962511521661088 0.01616710767954566
          0.012718200758629748 0.014396659953645918 0.016367611577036048 -0.0006822251120578715 -0.0012672192796950449 -0.002014274396614557
          -0.0015575328086302187 0.0000764732486631392 -0.0012326907969976986 -0.0026375736579414832 0.0039310746115142625 0.010386194362360046
          0.005943805722399248 0.012767956883332487 0.015624553851443762 0.01442116612496075 0.02771554415150984 0.01875680750399089
          0.005786148132083252 0.003383269539371875 0.010160136967548777 0.004984359981534708 0.007707139531380906 0.008125564627870674
          0.0005825954848712456 0.00887455969455671 -0.001259722030800381 -0.0010385920810679211 0.018760614724312372 -0.0030219362026796953
          0.0008427401057771039 0.01238100565595322 -0.000778781936037809 0.003608919749862792 0.0017618617696711879 0.0009019981511758021
          0.0020267446185294052 0.00847507420018613 0.008445742144818143 0.003505449637271077 0.008749808747092067 0.011860606914287385
          0.013569930993531161 0.014292797136646537 0.01412925509765739 0.002919465701188343 0.0036121960531809993 0.007118069836537275
          0.0039678467254854015 0.006519144581194347 0.006900700727620043 0.007221013818867444 0.0073298224834937725 0.00832838794808613
          0.006752878704822524 -0.005250975928919592 -0.0003810846932398998 0.007484562457409409 -0.012562451632543046 -0.00164956613753596
          0.005960715109951824 -0.004298322175496191 0.0051052150039679264 0.017599115323841175 0.0040341813454885175 -0.0009827650360469675
          0.007832782667512694 0.0127217566905021 0.003308802824117954 -0.0007055773850630394 0.009852779203014833 0.013571703509113058
          0.006776802036038254 0.008875525901831636 0.019282587678592793 0.005900609696418077 0.009661898330091845 0.0029498946051829747
          0.004236856690674223 0.013469213531334484 0.0117631618042138 0.010800266154067317 0.0016109260259749014 0.000382517525214357
          0.007251519928027889 -0.003156864590000419 -0.0006505894146821289 0.014066387627209187 0.0074221264680302546 0.010523287286200042
          -0.003199136579057099 0.00035180866701484126 0.0010490697722001507 0.005317407619914838 -0.005831455845439593 0.005219499224093621
          0.00270977060185415 0.008169533417203556 0.005480357139788894 0.01076145005609791 0.009541274707953212 0.014523965359909519
          0.0174908795149267 0.0077221530964151075 0.04117008109686443 0.021087053064816536 0.02177470206836396 0.01914106156010953
          -0.002930153261000046 0.013033749307906947 -0.005674851756076377 0.02572019750930703 -0.0048146558139864765 0.009921769916531
          0.01147736890393071 0.00507251838644017 0.004377981760988463 0.0036628770879110553 0.005056579207134065 0.0062804711492509355
          0.0038011494566391746 0.006837644294221033 0.001553169456157591 0.002263233400604553 0.006442475143113302 0.012918527422494636
          -0.0026108209960347684 -0.0026695316119495494 0.002023170086746101 0.005118164767270249 -0.0019342111434108022 -0.0011088587019544016
          0.011887587429259449 0.0016128300979146304 0.008914600268363606 -0.00292005215927299 0.013597315352672612 0.011804743317491095
          0.013033769256964728 0.004513562489399025 0.011110675874760861 -0.0028824151623772325 0.013815046884763538 0.004907545933028504
          0.008368234622232226 0.001233097314900111 -0.0010462996018621301 -0.009206935380506388 0.00933543918454921 0.0022697405800633542
          -0.003942882230181452 -0.004851417499969181 0.008185400385607965 -0.00007544224497485486 -0.00042082847382535205 0.004174733292423627
          0.0032382558921864382 0.004854419819057862 0.005202153106766805 0.005164249439708168 0.0033279872761589543 0.0105845426177575
          -0.0009198556092063215 -0.004589618179531019 0.01089872769806971 0.007565004384678442 0.0044215827133144425 0.0042357483240643146
          0.011952624377601135 0.01022454816063426 0.008376185872317254 0.008402946072393565 0.009497896517074117 0.006270777608921058
          0.007775195237143903 0.010614725745935335 0.012962395509200128 0.0027304717035791376 -0.00031292061417082656 0.0027149140785621
          -0.0016471251966582307 0.007606439210504651 0.01060464775478731 -0.0009081920816527422 -0.010983118043545265 0.0031122695210907825
          -0.00020925133780684557 -0.0013931102324543088 -0.0006598612939395856 0.001793393210283753 0.0017378085177461727 0.0038439841000612145
          0.0028403127412046925 0.00548655769601912 0.01030074103698942 0.014513477076283962 0.013271523328274623 0.014562782909827265
          0.012006397038436811 -0.0014165895657712313 0.011170983948445179 0.004741928713370758 -0.01628022911291027 -0.0021119519605374837
          0.019199438787907225 0.0253821379677501 0.016028370144848703 -0.02171778783340754 0.006120760863323527 -0.04572854105389581
          0.009637255963688529 -0.02727821883191836 0.008288522899527015 -0.012046471916425161 -0.01072793757243562 -0.022989471587250843
          -0.022393600674471048 -0.003899410298138062 -0.003698316175255567 0.0092064911728338 0.00399761854289106 0.009489824677053213
          0.0024631714488612677 0.015441738567012253 0.012495331549395416 0.004117413597817369 0.006964519716024227 0.008248035423993884
          0.010222523615598757 0.010440107636621326 0.011375469705180219 0.013200888854924958 0.006209380534642039 0.013867260310769805
          0.005357214481129552 -0.0002683375233283516 -0.004917535381113808 -0.01145246643837561 0.0017982523803360823 -0.003526497222385433
          0.007122561095374827 0.008654797029715167 0.008832914972546733 0.011390221843972141 0.009454415637023924 0.007862661668760906
          0.004225448061878467 -0.0006986095721901037 0.006397750990610837 0.015245646241999755 0.0090042180496131 0.015001565659713334
          0.0085680423733418 0.004049408637360688 0.0053335709489938585 0.004519715897916429 0.006685234555961435 0.0035354419391029554
          0.012474685199183655 0.005997958011217663 0.011191260537924824 0.003158256751498556 -0.012968136664946506 -0.0037951034759512448
          0.018479655103074213 0.016574693187637695 0.01188079934836525 0.01562220284832502 0.018373317089511204 0.01680375344649017
          0.013083557166199612 0.007745914364080175 0.003669273829895417 0.003559426549533229 0.012703697081342127 0.014939864648768522
          0.0004704928409697169 0.0040611590155707495 0.010016208102020113 -0.001855278781728302 0.0011016653426851042 0.014458513803172951
          0.0021950654807630747 0.00388492789314461 0.009424408058056166 0.00479869343525835 0.000731388683833295 0.009014722061443964
          0.008607482466273214 0.0010201619909676607 0.00034606843154966205 0.009524899421256922 0.011737699534503765 0.0076395336358502375
          0.005005812824806333 0.012460904412830431 0.020000854176550537 0.00047774138715231396 0.004476800478406394 -0.00021199943153625903
          -0.001927567556771842 0.002078878449221777 0.008791015189481615 0.0029945823251287113 0.002363272658446769 0.012448576538836964
          0.02254636246158504 0.013637725477286887 0.013420431608656858 0.02089373311113525 0.009583881189787341 0.01398211403901875
          0.01130177344671876 0.009816587339484914 0.004158906489896114 0.0045244066054536125 0.013827641321702888 0.01195769131350563
          0.011942762361534368 0.00743448918895135 0.023808661606980353 0.01573162594232279 0.015868747382919865 0.009880683222804942
          0.0103227057812538 0.01060134939031053 0.0018540672243258505 0.0012874085593320705 0.011300082288594887 0.012267179734050504
          0.015203614758764666 0.023905288659839624 0.007102526912786344 0.008406452321240876 0.013437593973761097 0.011971547738326482
          0.010018531288639665 0.0019414438769119885 0.0051761770431563575 0.003482287183129526 0.013074582799179557 0.009355956127524906
          0.014965968610242384 0.011173662930968067 0.01773878267732925 0.01811440423321009 0.008207181632605448 0.014023356685772231
          0.0070310318457718485 0.007454953947818213 0.009830531328093896 0.0005537036108805848 0.0037643569552326256 0.01041612819902138
          0.009887974352577197 -0.0027935694871276395 0.01316808691029539 0.011794818080010497 0.015561091321251538 0.007410522272304598
          0.00847749226160184 0.012898358193157072 0.0033881799562646836 0.004806574066936131 0.006135352341994554 0.007012103375613171
          -0.00090829319344915 0.0018002481451626431 0.00032187382076936943 -0.0001614367983908821 0.0005227780113842839 0.0030799283270661337
          0.0005386043911821681 0.006706118640185506 0.004526189852390609 0.005901375023047599 0.0055097746363300115 0.010739612041963047
          0.01530735000211346 0.013539088849480144 -0.00007726880219929844 0.023030241426056086 0.027039551393022943 -0.0018958520640876275
          0.016949353812512225 0.016051049871348616 0.0022641322328423863 0.010474227795041369 0.0016172169662052038 0.016483351004667135
          0.018349281897857235 0.018676486242842506 0.012836213143669593 0.01863218860495502 0.011486722062081942 0.014922322803692059
          0.017958693288677482 0.0041730139259526094 0.006795938225166699 0.0007604200395286559 0.01786985393838548 0.011489550406112534
          0.021534335614198125 0.004422123639960557 0.010738736486396505 0.023465650714078648 0.009883342197212569 0.01285177053615777
          0.007424036314638255 0.0051613281789423815 0.002694111753371864 0.004277934054752214 0.008518592307529521 0.0047556456223093735
          0.004438258323953823 0.0031744374364972502 0.0009971870770581898 0.006240662483914243 0.006502198506788695 0.007865244494800215
          0.00846299489085875 0.008694110377065786 0.0034388461013246385 0.003967470567718609 0.004107714099316664 0.0044421364709802125
          0.005853865680047032 0.0034876366221628097 -0.000853489522554457 0.0013160759986196036 0.0021806206190715938 -0.00044646960884803244
          0.004309982677179691 0.007254252196757696 0.0034363718591896852 0.010754972815973596 0.005999943034018282 0.008393008514109623
          0.0021493818323278097 0.01281661141168941 0.00966720441999011 0.012032968265495561 0.007593268694039992 0.007084254313685728
          0.002874080267217388 0.008736489595980002 0.008366107180692639 0.0120117593641028 0.0013573283579845774 0.011503952113292734
          0.0007191176071181526 0.010794890943889315 0.0018429525383387435 0.006816098887847753 -0.0005967286007853706 0.006866015281938802
          0.0035086036334863735 0.004273675649678954 -0.001620174670084587 -0.0021979717381985855 0.0006963434562248794 0.005689927044756571
          -0.001565763411077184 0.003072891172521415 0.004244382035648753 0.005447503793081843 0.0017802840227401223 0.010660651165687991
          -0.007153037465734258 -0.004223154178211813 -0.012958242327767266 -0.016146295527382268 -0.007028792487377894 -0.011003124631973546
          0.004660768923579944 0.000574240053622263 0.0026346684078517937 0.0021711334233602553 -0.0026603524690064495 -0.0005312542727840819
          0.013436282708141858 0.003634793908799089 0.010946235425506129 0.01735903569717301 0.021680120156160027 0.0167325729901861
          0.016163996930150873 0.00036159734172115654 0.00777060619265664 0.008494518225554852 0.009705793278310754 0.0020456170684425914
          0.005106227149873396 0.008671730586280187 0.007595109894842023 0.015249771417250688 0.004021858416658884 0.007114901281455928
          -0.008645034853636213 -0.02429926702166063 -0.009282588734077779 0.015607074596514753 0.014197128273146176 0.010126344758351863
          0.011254232929397617 0.013422449634863887 0.008687909152083284 0.011112520365842704 0.005182334565986879 0.014405118555262553
          0.0012664209104448765 0.0134634322878191 0.005795866860228649 0.015556443986270332 0.008195609964327603 0.009443729786274509
          0.011620628016244361 0.0019105975408729714 0.006230897785305223 0.011942519964923126 0.005322223742401766 0.004759433290462349
          0.014060847564614676 0.0064630809695508384 0.006133613399674387 -0.004210383284260433 -0.013295088520954734 -0.0051856638004197375
          -0.00589222553441085 -0.01965177722544706 -0.005717318303631536 0.030482934070998724 0.03171693238000077 0.051966696022111444
          0.058842971313061196 0.033397954915070194 0.030708410443094858 0.0014827303005645054 0.0005792651624495215 -0.0033771722781122254
          -0.0011408732195313798 -0.0007771726168871174 -0.001351181699884324 -0.003063866724735048 -0.0192166574938063 -0.008764833993650328
          0.01079524137440703 0.006805008634687054 0.006480155324382994 0.011060072509224403 0.022650815874121266 0.013738899914072799
          0.018833617766258165 -0.0053891556547088215 0.030680600223635834 -0.016933737264454157 0.017377110112359984 -0.004600543460483969
          0.00020606070487372286 0.00462911596214205 0.004365195652079498 0.0008412786198978561 0.006493134373007331 0.009359664619123572
          -0.0028211643012983623 0.00016462215737544916 0.0038991256551336876 0.005676939599894126 0.002575595260431017 0.014135253573226238
          0.008142252957385993 0.005661515646487772 0.004199979518083527 0.015276248080338006 0.024310642671125926 0.018627915153185903
          -0.0005512735075001718 -0.0052687485785462285 -0.0034832379312941114 0.0019442847987778678 0.002218583778417327 -0.0009609829569489636
          0.009577389987399182 0.006801351747723519 0.005726532534991224 0.014634039012359809 0.006348668665571322 0.006395050292649196
          0.012362564175223856 0.007961545846302542 0.01593511683466331 0.015751475864641595 0.010186385631859085 0.009429447412374281
          0.010615958459416153 0.03166897543634006 0.024592151594937328 -0.0014164017512925953 0.013582754752202053 0.011540940046541256
          -0.0006209927755386202 0.008093038792190255 0.010536878485521567 0.007839465084359898 0.009033157212808673 0.007661073499128757
          0.009743614557173347 0.0036355309705872196 0.022453013424169943 0.008191761989756047 0.010806043661122894 0.002641294473442593
          0.008795985473730561 0.005743753758823404 0.023949610988784814 0.00860677334490828 0.017170272056965988 0.00855079268084609
          0.008527712201812768 0.016788672722973963 0.008177576613176966 0.008120496169913144 0.00351973784144588 -0.0022128749188727592
          0.007305052452614411 -0.005554430424193235 -0.008508285570993201 0.0038853273302625196 0.00020323398932042824 -0.006174669089470605
          0.014773457288941888 0.038929172854450134 0.026748721230899886 -0.0005600990610325068 0.007958473628805321 0.0010266936939102855
          0.005165224057283202 0.0057832843910212706 0.006715898916486426 0.004503930151102106 0.004402888525812526 0.013683812619669541
          0.01024844846996431 0.011588220176465536 0.01081139490045438 -0.0008023362997445355 0.0008884650849640685 0.00525688717855155
          0.01556760448821673 0.03243945976953616 0.01930865412541234 0.00232926380256758 0.002271726928928585 0.0028524154454789077
          0.014357182627850962 0.0207365903329296 0.011576622623078042 0.015236157214166407 0.01965600214261201 0.012632759113780007
          0.009579421711552516 0.009844644622758247 0.009370434821284523 0.01586610655467202 0.003332832405043118 0.02765992967550246
          0.011424581308481369 0.016017921180815298 0.014013197285815626 -0.00022583087442984429 -0.000741734983769532 -0.002908137944044653
          -0.003709754975354418 -0.00019104095744124083 -0.0004673321138235764 0.005936613582329185 0.007329845312397512 0.00714513688254835
          0.084958651168485 -0.058883690045971604 0.1802573718264062 -0.1073124220776961 0.10353080830615857 -0.021463954836981262
          0.012857783505659609 0.021880699204231274 0.012411724157457962 -0.008032089267436843 0.000697904203154881 -0.016687811190542634
          0.0009108413641591984 -0.008588994016819146 -0.000957342957891183 0.006366293876040874 0.011551485764881533 0.013217589009368147
          0.016461088934608348 0.010196644555239054 0.009595831340864586 -0.01813997905281968 -0.04843118258567605 -0.045188462598618875
          0.0151087924650775 0.021036286769082646 0.011651228257786368 0.00244091003836866 0.0010436873247321454 0.004091709503092178
          -0.006039311049795604 -0.009160393767853547 -0.001194624470707728 0.009161844540396945 0.0012231304864220582 0.0032858965550446734
          0.0029705624500638433 0.00419755499440333 0.00634511646143078
        </DataArray>
        <DataArray type="Float64" Name="resid_z" format="ascii" RangeMin="0" RangeMax="0">
          0 0 0 0 0 0
          0 0 0 0 0 0
          0 0 0 0 0 0
          0 0 0 0 0 0
          0 0 0 0 0 0
          0 0 0 0 0 0
          0 0 0 0 0 0
          0 0 0 0 0 0
          0 0 0 0 0 0
          0 0 0 0 0 0
          0 0 0 0 0 0
          0 0 0 0 0 0
          0 0 0 0 0 0
          0 0 0 0 0 0
          0 0 0 0 0 0
          0 0 0 0 0 0
          0 0 0 0 0 0
          0 0 0 0 0 0
          0 0 0 0 0 0
          0 0 0 0 0 0
          0 0 0 0 0 0
          0 0 0 0 0 0
          0 0 0 0 0 0
          0 0 0 0 0 0
          0 0 0 0 0 0
          0 0 0 0 0 0
          0 0 0 0 0 0
          0 0 0 0 0 0
          0 0 0 0 0 0
          0 0 0 0 0 0
          0 0 0 0 0 0
          0 0 0 0 0 0
          0 0 0 0 0 0
          0 0 0 0 0 0
          0 0 0 0 0 0
          0 0 0 0 0 0
          0 0 0 0 0 0
          0 0 0 0 0 0
          0 0 0 0 0 0
          0 0 0 0 0 0
          0 0 0 0 0 0
          0 0 0 0 0 0
          0 0 0 0 0 0
          0 0 0 0 0 0
          0 0 0 0 0 0
          0 0 0 0 0 0
          0 0 0 0 0 0
          0 0 0 0 0 0
          0 0 0 0 0 0
          0 0 0 0 0 0
          0 0 0 0 0 0
          0 0 0 0 0 0
          0 0 0 0 0 0
          0 0 0 0 0 0
          0 0 0 0 0 0
          0 0 0 0 0 0
          0 0 0 0 0 0
          0 0 0 0 0 0
          0 0 0 0 0 0
          0 0 0 0 0 0
          0 0 0 0 0 0
          0 0 0 0 0 0
          0 0 0 0 0 0
          0 0 0 0 0 0
          0 0 0 0 0 0
          0 0 0 0 0 0
          0 0 0 0 0 0
          0 0 0 0 0 0
          0 0 0 0 0 0
          0 0 0 0 0 0
          0 0 0 0 0 0
          0 0 0 0 0 0
          0 0 0 0 0 0
          0 0 0 0 0 0
          0 0 0 0 0 0
          0 0 0 0 0 0
          0 0 0 0 0 0
          0 0 0 0 0 0
          0 0 0 0 0 0
          0 0 0 0 0 0
          0 0 0 0 0 0
          0 0 0 0 0 0
          0 0 0 0 0 0
          0 0 0 0 0 0
          0 0 0 0 0 0
          0 0 0 0 0 0
          0 0 0 0 0 0
          0 0 0 0 0 0
          0 0 0 0 0 0
          0 0 0 0 0 0
          0 0 0 0 0 0
          0 0 0 0 0 0
          0 0 0 0 0 0
          0 0 0 0 0 0
          0 0 0 0 0 0
          0 0 0 0 0 0
          0 0 0 0 0 0
          0 0 0 0 0 0
          0 0 0 0 0 0
          0 0 0 0 0 0
          0 0 0 0 0 0
          0 0 0 0 0 0
          0 0 0 0 0 0
          0 0 0 0 0 0
          0 0 0 0 0 0
          0 0 0 0 0 0
          0 0 0 0 0 0
          0 0 0 0 0 0
          0 0 0 0 0 0
          0 0 0 0 0 0
          0 0 0 0 0 0
          0 0 0 0 0 0
          0 0 0 0 0 0
          0 0 0 0 0 0
          0 0 0 0 0 0
          0 0 0 0 0 0
          0 0 0 0 0 0
          0 0 0 0 0 0
          0 0 0 0 0 0
          0 0 0 0 0 0
          0 0 0 0 0 0
          0 0 0 0 0 0
          0 0 0 0 0 0
          0 0 0 0 0 0
          0 0 0 0 0 0
          0 0 0 0 0 0
          0 0 0 0 0 0
          0 0 0 0 0 0
          0 0 0 0 0 0
          0 0 0 0 0 0
          0 0 0 0 0 0
          0 0 0 0 0 0
          0 0 0
        </DataArray>
        <DataArray type="Float64" Name="stress_zz" format="ascii" RangeMin="-2566638.4003689825" RangeMax="4758996.049420487">
          -83139.34981408654 -619335.5969675756 1181955.622780336 1239457.863630327 -55224.484290977685 -686421.8522487071
          1191328.638631584 1240735.548610035 -27309.618767868913 -753508.1075298386 1200701.6544828322 1242013.2335897433
          -1432115.2025417234 -1160581.186505805 -1236609.223174683 -565502.201603774 -1510223.6366305454 -1229456.1040440528
          -1266119.749322826 -651901.5609528203 -1588332.0707193676 -1298331.0215823008 -1295630.275470969 -738300.9203018671
          -889252.5132616833 -886124.9145540657 -882997.3158464478 -1212042.380987548 -1150630.8792445126 -1089219.377501477
          821533.6491497096 1135963.3314428758 824520.6306895631 1149400.5018140525 827507.6122294164 1162837.6721852287
          1980323.287668726 1619375.5043667052 1804208.8571059909 2293637.1543846703 1939409.3018472139 1585512.9903881964
          1795498.496398213 2312847.829164086 1898495.3160257016 1551650.4764096877 1786788.135690435 2332058.5039435024
          68771.17638585108 263696.84503255296 1424493.4192413536 2101001.107205649 27609.56531133865 307876.34177111986
          1538976.4664126632 2217977.94351747 -13552.04576317377 352055.8385096868 1653459.5135839728 2334954.7798292916
          -2077516.9282969625 -1034696.772237702 336312.2833642016 308705.9388048398 -2109699.027359481 -1091811.263652577
          310341.4199322788 270785.0409858199 -2141881.126421999 -1148925.755067452 284370.5565003562 232864.14316680003
          1590674.7898637746 1741930.612667079 293936.5621026375 1618291.9965792815 1756882.1682539457 309078.5399388055
          1645909.203294788 1771833.7238408118 324220.5177749736 1479141.9042984217 2199508.716094886 1261710.8717495876
          589026.0868739402 1548854.9135299418 2300873.147276824 1335698.1343810477 585548.1742101694 1618567.9227614622
          2402237.578458762 1409685.397012508 582070.2615463987 1054192.5464510922 1062655.8041169264 1071119.0617827605
          749619.9106270727 726903.974464739 707756.3680632148 666101.9674329733 665892.8254993568 605299.9604012074
          169041.00846397947 449702.4528756634 75765.4569890424 154679.93355099653 471957.8867949353 74941.62227728064
          140318.8586380137 494213.3207142071 74117.78756551872 466808.1104596291 163103.98189823228 1224022.5335222855
          1308570.4504534148 458894.89935210894 194645.7004292608 1232632.3029005772 1298363.7885705235 450981.6882445887
          226187.4189602893 1241242.0722788689 1288157.1266876322 1001048.783272538 2533530.030317327 110428.18030143919
          1065567.1846414418 2667411.537077446 -10274.020785625034 1130085.5860103453 2801293.0438375645 -130976.22187268955
          4328142.559534403 2190348.5498512234 2199835.0548171913 4543569.304477444 2181079.156171169 2140796.9802720877
          4758996.049420487 2171809.762491114 2081758.9057269834 -202687.5856669589 -1204138.2656427189 -804352.0670776397
          57413.27112750843 -146062.8132441116 -1380428.4707936526 -866438.8622225133 55636.798536252965 -89438.0408212643
          -1556718.6759445868 -928525.6573673869 53860.32594499756 319595.4717945327 924859.0651942876 439896.43439369276
          853430.3975835821 560197.3969928529 782001.7299728764 1266405.02889704 1291703.817681795 2510511.074706165
          1229614.0024301924 1336421.7555278363 2552957.9613490296 1192822.9759633446 1381139.6933738776 2595404.847991894
          2645225.7409392362 823560.9745075544 1584399.6157893173 2636378.8067357554 2621628.046484089 819672.3286996064
          1543422.9554526065 2658540.8286483698 2598030.3520289413 815783.6828916583 1502446.295115896 2680702.850560985
          -1152630.7399607887 -728888.2149448714 -1246850.3611301023 -752357.3546474956 -1341069.9822994156 -775826.4943501196
          403455.0310935319 -767561.5435774013 394786.9760810389 -786186.2172794305 386118.9210685459 -804810.8909814596
          94401.69229767975 54400.67220215491 159326.99179518723 118477.756737974 224252.29129269475 182554.8412737932
          864577.369523547 673087.6074803087 105554.67441392063 -255477.41359809117 912928.4364411506 709108.4259031345
          98922.98830767907 -204914.90069002172 961279.5033587543 745129.2443259603 92291.30220143753 -154352.38778195222
          861152.0946007275 181901.78195841875 841861.9141756987 170676.9597132111 822571.73375067 159452.13746800346
          1480149.7006299896 1551903.2350365878 1461323.3342049227 1500259.7390965815 1442496.9677798555 1448616.2431565754
          1229097.531435934 992521.496075155 1173660.1474466836 931818.8655176075 1118222.7634574338 871116.2349600603
          306777.2659484044 302044.97924203484 297312.69253566547 305147.3681708723 298395.8183282368 291644.26848560147
          -25219.225865209326 77053.89541194162 442198.5256816768 445231.043058377 -33479.49088670445 82170.2092774917
          448950.1616573356 474253.1475292032 -41739.75590819954 87286.52314304176 455701.79763299436 503275.25200002955
          1969114.927100153 2397311.6178278374 2337285.9272173624 1937780.788678266 2433702.9745769785 2378313.3941079443
          1906446.6502563786 2470094.3313261187 2419340.860998526 484064.00598123687 510046.39585791377 234591.74312909518
          423522.53185081296 -14880.519723046571 336998.66784371214 2929727.0417430704 2914893.6075454727 2900060.1733478745
          111239.85370253742 -187730.45952557994 -829859.0184819782 66926.36652055266 121922.54403130172 -184724.67836657513
          -705671.7926071793 93888.23794056952 132605.23436006607 -181718.8972075702 -581484.5667323803 120850.10936058642
          488192.9986940709 453685.79251201986 419178.5863299689 1442821.7300076308 1431470.9277125762 1420120.125417522
          -439788.1580009175 -474757.1265262934 -509726.0950516694 3742.048439208884 -400301.72124984517 -63103.876920997725
          -495143.75142618315 -129949.80228120441 -589985.7816025211 1956310.265328268 2158900.1913177846 1970245.8896105099
          2233750.0567274657 1984181.513892752 2308599.922137147 835695.2299675329 969346.5529522739 647652.8001557112
          882108.6383368735 459610.3703438898 794870.7237214734 573834.427011121 -60897.51671249379 566642.0570594635
          -81379.60107952445 559449.6871078062 -101861.68544655512 1538060.0778655424 1569919.7634392309 1601779.4490129196
          -25179.01515571715 -505018.67744553904 -87121.1691466347 -546702.5190967582 -149063.32313755224 -588386.3607479774
          -502129.47732924344 -494185.1919178474 -530818.65581187 -626656.2161632633 -559507.8342944967 -759127.2404086792
          639417.3095464283 627872.248991046 616327.1884356634 759514.6146738222 728254.4229111972 696994.2311485724
          -1317197.652376851 -2004140.7357930902 -1329197.1301978985 -2202689.2367234766 -1341196.6080189457 -2401237.7376538627
          1423959.1597048484 1415590.4412152595 1407221.7227256703 810011.8827903701 819146.8521668799 828281.8215433896
          1444585.6460723265 1477583.8556397646 1438242.019163161 1497940.9684028805 1431898.3922539956 1518298.0811659964
          1479939.3082503192 -529355.0178827068 1513948.8519232618 -502682.55975635635 1547958.3955962039 -476010.1016300061
          1783792.8498190334 189276.68730089802 -1540634.591099008 1773709.4690521946 180443.6908172387 -1677276.0602729933
          1763626.0882853556 171610.6943335794 -1813917.5294469788 -773671.4161023468 111388.56863193237 1031852.0551202281
          -734517.3948539916 -769663.4309433282 -87712.33977544725 843149.8079887752 -716726.0019720786 -765655.4457843095
          -286813.2481828269 654447.5608573225 -698934.6090901655 361917.65550184477 456592.32164680155 704588.9947625544
          491459.9605933477 410061.43244304915 416127.4411425797 675869.0389055575 489957.9971157508 458205.20938425354
          375662.56063835777 647149.0830485607 488456.0336381539 1515888.534630084 1445058.293312525 1374228.0519949659
          836117.2852376662 -121567.15162705095 821623.9586176961 -271258.3249310314 807130.6319977257 -420949.4982350117
          1669230.6663823389 974341.1797476228 1641651.3643115694 920905.0521619382 1614072.0622408001 867468.9245762536
          1603148.3685571495 633950.7856139546 1499091.7104211936 569431.0775968293 1395035.0522852382 504911.369579704
          22039.95856289161 754056.9332692354 91315.47892588975 825339.4674977656 160590.99928888792 896622.0017262959
          -873767.056160639 -380579.9145654847 -927244.7481354916 -415420.2244510781 -980722.4401103442 -450260.5343366717
          1546518.6250975789 1616028.473295572 1685538.3214935646 1283438.330755145 1272969.6007262447 1262500.8706973442
          -199054.5881469057 -1556039.3936596669 55677.08687810245 460225.586911391 -197333.52718484888 -1552532.442375064
          147875.2895303805 505618.2452745144 -195612.466222792 -1549025.4910904607 240073.49218265852 551010.903637638
          768488.5156051016 1563355.5723641831 778533.4488932114 1553849.745470897 788578.3821813212 1544343.9185776107
          370965.6146069649 263411.0798316267 109606.0345521275 527720.1356202001 337569.8612074903 265025.25017884286
          110219.91980594471 497877.21637669276 304174.1078080157 266639.42052605905 110833.80505976194 468034.2971331853
          -321343.2713940666 -641311.1038677208 -1131707.9330746518 -320071.06259823224 -666970.8670638073 -1202292.7962407921
          -318798.85380239785 -692630.6302598938 -1272877.6594069328 -430569.28651237243 -340916.1488444737 -251263.01117657515
          1140096.4014118174 54782.95637818409 1080795.573737084 46906.26365526164 1021494.7460623509 39029.57093233918
          193574.99730752193 715754.2290474764 228140.56216799244 776239.9968695574 262706.12702846294 836725.7646916384
          902200.5388620192 866130.2205612698 830059.9022605203 1607883.4043666036 1666337.0881865195 1724790.7720064353
          1369168.0126191238 2340731.1911965436 1425545.6840524045 2161554.225569176 1481923.355485685 1982377.259941808
          79532.34874188909 268465.141438435 49851.451712146794 260848.8099604434 20170.554682404538 253232.47848245176
          1353799.6114562843 1489540.9183545655 1314253.3547356199 1464179.7466183722 1274707.0980149556 1438818.5748821788
          1527627.1072294638 728588.5399034037 1836834.7074711206 1557872.3909041493 706163.3518804379 1875875.7053268733
          1588117.6745788348 683738.1638574724 1914916.7031826256 217275.69693473727 204032.8146051604 235902.27416844026
          301230.16246039927 254528.8514021432 398427.5103156381 -950511.4745753049 -740589.4744356356 -1080580.9353880826
          -866369.0945719864 -1210650.3962008609 -992148.7147083371 1170039.0306028477 2542251.312519389 1063330.2949281246
          2517504.742289817 956621.559253401 2492758.172060245 397554.7230933515 412522.041773528 427489.3604537044
          1695486.6256276814 1301757.1827904899 2236658.3351674713 2132788.15114191 1679569.424219082 1339544.3367014967
          2224308.1338224425 2060571.2859878237 1663652.222810483 1377331.4906125036 2211957.9324774137 1988354.420833738
          1302719.933409668 1216981.914781572 1288213.6205118988 1196789.3111734085 1273707.3076141295 1176596.7075652448
          -958391.060206918 -971071.6683054799 -983752.2764040417 3741517.4333742396 3729257.026800125 3716996.6202260107
          8362.380152527126 30721.651217842373 53080.92228315768 471324.426778552 570784.1063240524 670243.7858695528
          411227.24050975544 447848.33075679996 484469.4210038446 -1102038.450722579 -1078012.3672412601 -1032531.132874397
          -1204402.2043588292 -963023.8150262152 -1330792.0414763982 -1258038.7818023793 -1280072.116993913 -1302105.4521854469
          -15981.543740710104 11752.19387686546 39485.93149444135 -1431412.0093192726 -1520186.2087302567 -1608960.408141241
          2423810.9588753446 2419738.398911437 2415665.838947529 205182.32067636185 1438322.234886527 88605.79989298849
          1350825.0443992107 -27970.720890384866 1263327.8539118941 2143637.3002633373 2157064.147447113 2170490.994630888
          2309240.773187505 2218407.891399448 2127575.009611391 -2084045.9406098407 -2325342.1704894113 -2566638.4003689825
          1885187.0484645925 2126642.3118208745 2368097.575177156 355436.378946851 404130.58007888956 452824.7812109281
          99321.97201902745 148702.42250306575 198082.87298710423 1191858.1978741512 1802676.6063710921 1088807.8074830123
          1639125.9444334763 985757.4170918737 1475575.2824958605 1655745.7823656597 4340661.417960624 1627144.3053058512
          4406536.113987606 1598542.8282460426 4472410.810014587 524596.0950898951 526801.6321962334 529007.1693025716
          641555.5995418924 625770.6247745011 609985.6500071099 1126413.137013338 1126335.824064559 1126258.5111157803
          -375028.9257291134 268852.6001907633 -445713.7288288538 242108.76842484975 -516398.5319285943 215364.9366589362
          2152506.591961265 1516780.560348332 1265369.5787089416 2088715.4970742571 1398043.928357701 1308862.161439632
          2024924.4021872492 1279307.2963670702 1352354.7441703228 1143500.3468732515 1297821.1328428078 1095013.202166032
          1258545.4043005768 1046526.0574588124 1219269.6757583455 238428.6261763441 241903.24960705964 245377.87303777522
          1583056.1679218924 1481804.3296505827 1380552.4913792734 3346337.3031842886 3268383.924454723 3190430.5457251575
          894538.4227435846 930572.3804856114 966606.338227638 -712148.04615792 -699590.6595795087 -687033.2730010977
          -1292861.7170798765 -659124.2803155448 -1369765.5738611668 -614025.5346326592 -1446669.4306424577 -568926.7889497736
          475123.1263640885 486788.28400123055 498453.4416383724 1338054.067582709 1422954.8936777199 2896091.8946608994
          1302800.2199974605 1350734.0292201936 3029544.0991693037 1267546.3724122122 1278513.164762667 3162996.3036777084
          -1225034.1870470503 -780749.8309004208 -1219538.18592172 -713344.8980282478 -1214042.1847963897 -645939.9651560748
          926450.2201341309 -89870.14419419522 890435.6430110119 -85325.73242305934 854421.0658878929 -80781.3206519234
          -235831.68202024518 -193742.45757376144 -151653.23312727766 277941.5656525304 252338.36005982818 620605.3082350619
          298076.44877793465 271409.0762739569 647893.5325129943 318211.33190333884 290479.7924880856 675181.7567909267
          30073.805012557947 37938.48688535753 45803.16875815706 -192736.2608841591 233773.2599266206 -273281.48664179025
          234820.92042014882 -353826.7123994214 235868.58091367708 -557841.2315649628 -609619.822851899 -572318.9317461001
          -604646.5668293345 -586796.6319272375 -599673.3108067699 1348992.0468064765 1406979.1821848205 1464966.3175631645
          873581.2324953141 836650.7836709328 799720.3348465513 -415147.19644658436 -359786.40314840095 -304425.6098502176
          357297.285857121 342001.3708806859 326705.45590425085 553574.9540879079 532299.7197398567 511024.4853918053
          -478469.7115615939 -484757.1997703752 -491044.68797915615 609514.2309523892 604309.8428376517 693558.9255796471
          610120.6815301029 777603.6202069048 615931.5202225538 2439303.8289282313 2218423.470791191 2467193.2407854004
          2297592.4009654713 2495082.6526425686 2376761.331139752 1120523.0023582112 1154946.2184533877 1189369.4345485645
          -1272102.2800849287 -1583605.3476868193 -1076904.5431867475 -1367015.29454974 -881706.8062885664 -1150425.2414126608
          1254125.1030968586 1227332.7485274049 1200540.3939579506 -214279.21301891544 1103915.566864383 -233491.59091891453
          1128555.680241697 -252703.96881891362 1153195.793619011 954266.7562047711 915646.9478545694 1018473.9951750775
          893837.7992305625 1082681.2341453838 872028.6506065557 -1791409.853689271 -1675356.484173752 -1559303.1146582328
          3165970.376869723 3454368.063601537 3742765.7503333515 -170437.7111319496 -187729.11535761002 -205020.51958327054
          -1762140.6356619922 -1829967.2926032934 -1897793.949544595 -90188.34324293761 -72084.68213699025 -53981.02103104285
          21599.699527501085 76546.65093476833 131493.60234203553
        </DataArray>
        <DataArray type="Float64" Name="peeq" format="ascii" RangeMin="0.0029797770340460653" RangeMax="0.00729018939959975">
          0.005104812461738072 0.005616066026036245 0.005561961882279575 0.005129708936652975 0.005103268944286183 0.005612920747014379
          0.005559923655164174 0.005128535263620966 0.005101725426834297 0.005609775467992511 0.005557885428048772 0.005127361590588958
          0.0038481053419021417 0.0034192983032996027 0.003465286443811847 0.0039604816667957055 0.003848111278907214 0.0034185715241931616
          0.003465162631199557 0.003960443383940704 0.003848117215912288 0.003417844745086721 0.0034650388185872667 0.003960405101085703
          0.002993765163241756 0.002994371479619147 0.002994977795996538 0.0030032768186973487 0.0030041373367896834 0.0030049978548820186
          0.0053448194048515306 0.004927551538346438 0.0053438375815781465 0.0049271431375814126 0.0053428557583047615 0.004926734736816386
          0.006974569507462268 0.007087937998399199 0.0068944650578831295 0.006875577679930609 0.006971830821783353 0.00708571120816842
          0.006892090986837374 0.00687286943727261 0.006969092136104441 0.007083484417937641 0.006889716915791617 0.006870161194614611
          0.004538772727672713 0.0049128721304557005 0.005135638946408524 0.004797857676092554 0.004537539337357643 0.004910796297528076
          0.00513429271946984 0.004797106261607518 0.004536305947042573 0.004908720464600454 0.005132946492531154 0.0047963548471224825
          0.0037684195607600997 0.004038776395478463 0.003697862843740659 0.0035140869216652238 0.00376943953063883 0.004038529146334565
          0.003698466938210771 0.00351507954272537 0.00377045950051756 0.004038281897190668 0.0036990710326808823 0.003516072163785517
          0.006898528353979816 0.006790268334482448 0.006714210205663237 0.00689826289881754 0.0067903146309880175 0.006713982177363376
          0.006897997443655265 0.006790360927493586 0.006713754149063518 0.006464730351540814 0.006816280835164065 0.006815981394700616
          0.006336337033204265 0.006463254564038188 0.006814055314200727 0.006813111551256919 0.006334698317278519 0.006461778776535566
          0.006811829793237391 0.006810241707813219 0.006333059601352775 0.005945813906268912 0.005944701409960575 0.005943588913652239
          0.005987781353200788 0.005815813554233658 0.0059844188159234365 0.005813475217428512 0.005981056278646084 0.005811136880623367
          0.004824054081808038 0.005255045041054863 0.004671877831161445 0.00482244542912475 0.005252594052187334 0.004671219455713338
          0.004820836776441462 0.005250143063319804 0.00467056108026523 0.006556962931697917 0.006367859260986174 0.0065331244712850435
          0.006744337810722399 0.006553823898097256 0.006366164655170103 0.006531834644465888 0.006742040695798327 0.006550684864496596
          0.006364470049354033 0.0065305448176467325 0.006739743580874254 0.0056154640266764195 0.005286264694934887 0.0054731176143224605
          0.005615037680819329 0.005285496363523658 0.00547091231666862 0.005614611334962239 0.00528472803211243 0.005468707019014779
          0.005026702822674016 0.004945223654152516 0.0044112625959338006 0.005025812552260838 0.0049435428011307125 0.004410656710547963
          0.00502492228184766 0.00494186194810891 0.004410050825162125 0.005997720165727598 0.00572570451889241 0.005824363570667853
          0.0062049976023424 0.005996774229873587 0.00572280002335261 0.005821949226638204 0.006203226160800851 0.005995828294019576
          0.005719895527812811 0.005819534882608556 0.006201454719259303 0.00657417442388604 0.006223153760670258 0.006571711091192415
          0.006220056305005805 0.00656924775849879 0.006216958849341352 0.006906683595995737 0.006585698497743559 0.006599672341241588
          0.0069048199107270645 0.006585010686008499 0.006598231390742736 0.0069029562254583916 0.0065843228742734385 0.006596790440243887
          0.0062947668539720504 0.006436635877064878 0.006759511018662417 0.006664092538780226 0.006293267476326255 0.0064340863858539914
          0.006756398898399927 0.006661856847576778 0.006291768098680459 0.006431536894643106 0.0067532867781374345 0.0066596211563733285
          0.0038402116032245845 0.004144406124174839 0.0038411906101902663 0.0041446099706834985 0.0038421696171559486 0.00414481381719216
          0.004386555167530337 0.004773148439355764 0.0043864085671309954 0.004772269284848526 0.004386261966731655 0.004771390130341288
          0.0030529023836038064 0.0031093103889146064 0.0030538117197516663 0.003110273349504417 0.003054721055899527 0.0031112363100942266
          0.0046109454061044695 0.004275465891137659 0.004601289643631977 0.004993285161557829 0.004612610055455573 0.004277475951606277
          0.0046021425988633765 0.004993860517938144 0.004614274704806675 0.004279486012074894 0.004602995554094777 0.00499443587431846
          0.007045552668280446 0.006836498221225528 0.007044627542872103 0.006835771032494877 0.007043702417463759 0.006835043843764225
          0.007094129851568633 0.006880298724173709 0.007090522758532096 0.006877107548661259 0.00708691566549556 0.0068739163731488095
          0.007245671496853741 0.0070840204962337675 0.007242020309029689 0.007079905174653625 0.007238369121205638 0.007075789853073482
          0.004530252220227726 0.004530045756081227 0.004529839291934729 0.005942963411722869 0.005944127508026129 0.005945291604329389
          0.0065831663822808915 0.006309928996539577 0.006268496844011753 0.006589592892036146 0.0065827661931185805 0.0063102736111684335
          0.006269001537869637 0.006589233860645762 0.006582366003956269 0.006310618225797289 0.00626950623172752 0.006588874829255377
          0.006938929172094314 0.006880810868367462 0.007013272538221132 0.006936053061424 0.00687908133736968 0.007011823639614898
          0.006933176950753686 0.006877351806371898 0.007010374741008663 0.007037921882759227 0.006861315806847472 0.007032853406800512
          0.006857718308662917 0.007027784930841797 0.0068541208104783615 0.006210938086963293 0.006210547001230561 0.0062101559154978305
          0.003269832101967873 0.003438612892635098 0.003575828655268442 0.0033704581374587985 0.003270385916259985 0.00343906204784782
          0.003577873387024047 0.003371794003347732 0.003270939730552097 0.0034395112030605425 0.003579918118779652 0.003373129869236666
          0.006895936624258194 0.0068947002263505235 0.006893463828442852 0.006219359452606168 0.006219686533783341 0.006220013614960513
          0.00652544075824112 0.006525154069909467 0.006524867381577814 0.004676068505799108 0.0043876534870581204 0.004675111510960319
          0.004386923343308471 0.00467415451612153 0.004386193199558822 0.0057973005784781925 0.0057350621408968905 0.005797437589171506
          0.005736583641139211 0.005797574599864819 0.0057381051413815335 0.0072339964865227304 0.007079222162184517 0.0072295236448995884
          0.0070763504170078 0.007225050803276448 0.007073478671831085 0.0063214310105165665 0.006233152242353695 0.00631765778873328
          0.006230088415879568 0.006313884566949994 0.0062270245894054405 0.006677049707729127 0.006675763777385879 0.00667447784704263
          0.006015798117250065 0.005492560509209334 0.006014023175743448 0.005492126733372352 0.006012248234236831 0.005491692957535371
          0.006205346446651894 0.005979305249695924 0.006202094943051363 0.005975143341539352 0.006198843439450833 0.0059709814333827795
          0.007099998906025381 0.007096371923173804 0.007092744940322226 0.0071409536828620414 0.007139577180645532 0.007138200678429022
          0.005948943962580855 0.005885133985271067 0.005947142367181561 0.005881286842639665 0.005945340771782266 0.005877439700008261
          0.007188018190250707 0.007185686266691592 0.0071833543431324785 0.005827834802086302 0.005829431575099599 0.0058310283481128955
          0.00729018939959975 0.007168782717296224 0.007287628629894742 0.007167490404214829 0.007285067860189734 0.0071661980911334345
          0.006860976160696576 0.006623592568892556 0.006859328190909558 0.006621265956890546 0.006857680221122538 0.006618939344888537
          0.005320164376770447 0.005647989900808089 0.0056224129278449365 0.005318163139949088 0.00564666460993014 0.005619189411848169
          0.005316161903127731 0.005645339319052192 0.005615965895851402 0.006065048312279524 0.005802069213957637 0.006064243949245182
          0.006374948118978492 0.0060616041351775115 0.005796976059139141 0.006059466728390924 0.006371668914336488 0.0060581599580755
          0.005791882904320647 0.006054689507536668 0.006368389709694485 0.0039794419395239745 0.003624567237200503 0.0034793814882498634
          0.0037441137719720083 0.003981178378673262 0.003624942829853841 0.003478803663854106 0.003744489068735543 0.003982914817822551
          0.0036253184225071788 0.003478225839458348 0.0037448643654990777 0.007227948621596853 0.0072233869309021315 0.007218825240207407
          0.005619777911370389 0.005351472042395064 0.005616598404254789 0.005348476720716293 0.005613418897139188 0.005345481399037521
          0.0069157873043741895 0.006784124870699377 0.006914423066211553 0.006782729909338647 0.0069130588280489165 0.0067813349479779175
          0.005106181202182669 0.004805215974837291 0.005103916413278225 0.0048052087373637 0.0051016516243737806 0.004805201499890107
          0.004019436309201989 0.004345785764680196 0.004021208503886301 0.004347460500063152 0.0040229806985706135 0.004349135235446108
          0.003683763707154251 0.0034786467791357843 0.003683483033960043 0.0034780273124589986 0.0036832023607658356 0.003477407845782213
          0.007159115732040047 0.007157739687857082 0.0071563636436741155 0.007144853518044766 0.007143058692721932 0.007141263867399099
          0.0043381853978482566 0.003943368463347843 0.003826537107079458 0.0041846232290708935 0.004337746256120962 0.00394447571213706
          0.0038286114247000434 0.004185803014230132 0.004337307114393668 0.003945582960926276 0.0038306857423206294 0.004186982799389371
          0.0070237196847287835 0.007079012867410762 0.007021275547288963 0.007077341678892461 0.007018831409849142 0.007075670490374161
          0.0030601350170982016 0.0030513349311562213 0.003132872895857854 0.003113351760459627 0.0030598564705668517 0.003051460986794043
          0.0031328156417787284 0.0031133571973690133 0.0030595779240355017 0.0030515870424318646 0.0031327583876996036 0.0031133626342783995
          0.0032536491622198295 0.003036221623172417 0.003221579800669628 0.0032535243648875406 0.00303697213166582 0.0032213807747154544
          0.0032533995675552525 0.003037722640159223 0.0032211817487612805 0.0044057040379287 0.004408141222276254 0.004410578406623807
          0.0068101542197849035 0.006555247598006134 0.006806780367454708 0.006551957780831752 0.006803406515124512 0.0065486679636573685
          0.006300419621534573 0.005782150793960399 0.006298524406852142 0.005780319840386483 0.0062966291921697105 0.005778488886812568
          0.004626742012253537 0.004626164935766064 0.00462558785927859 0.007278139794648235 0.007276188938956886 0.0072742380832655365
          0.005093711284907392 0.005544389765618512 0.0050942387693745485 0.005541025329514682 0.005094766253841706 0.005537660893410853
          0.0031991609382909865 0.003143196247814219 0.0031988910728004702 0.0031434372130876138 0.0031986212073099544 0.003143678178361009
          0.003273501827359128 0.003378244723483763 0.0032743790727822 0.0033791941475662807 0.0032752563182052714 0.003380143571648798
          0.003518474867216041 0.003918156695722018 0.003713808414150372 0.0035193992789250023 0.003918142906423064 0.0037139805554315297
          0.0035203236906339633 0.003918129117124109 0.0037141526967126868 0.0043126713264890525 0.004671918568721489 0.0043118742878136725
          0.004670572217660757 0.004311077249138293 0.004669225866600024 0.0033058262780259417 0.0033470816063640883 0.0033047007788044973
          0.0033460114474972323 0.0033035752795830533 0.003344941288630375 0.0041372350278275245 0.003930427292445187 0.004136475447785891
          0.003929572625547557 0.004135715867744258 0.003928717958649928 0.003251039919141832 0.003250972413971969 0.0032509049088021063
          0.004234271611805339 0.004160455110314428 0.004108795476376709 0.0041421516825650255 0.004233170259027793 0.004158707830355344
          0.004106852582736744 0.004141018090620056 0.004232068906250245 0.004156960550396259 0.004104909689096779 0.004139884498675087
          0.003970865239287006 0.0040028928242120025 0.00396945643434844 0.004001564100907282 0.003968047629409874 0.00400023537760256
          0.0032089076507977204 0.0032087581084650203 0.0032086085661323185 0.004069901125431167 0.004069561341148139 0.004069221556865111
          0.004836497678098942 0.004835408187212613 0.004834318696326285 0.0044743299750294955 0.004476382667164656 0.004478435359299816
          0.005296766958518603 0.005295426571681811 0.005294086184845018 0.005026629850429681 0.00524768149943765 0.005025571531195607
          0.005245087901738997 0.005024513211961533 0.005242494304040344 0.00542165840129029 0.0054200532679675555 0.005418448134644823
          0.005101021787498737 0.005102471163942598 0.005103920540386461 0.0033446626101042475 0.0033439258669305232 0.0033431891237567994
          0.006948086691146073 0.006947337351715123 0.006946588012284173 0.005894405082411517 0.005765199707615119 0.005892588571378635
          0.0057631661651643025 0.005890772060345753 0.005761132622713487 0.007041196521301107 0.007040333012515937 0.0070394695037307685
          0.00562475157391056 0.005622415534257952 0.005620079494605344 0.005487124772163384 0.005483986125167693 0.0054808474781720025
          0.005051541364331698 0.005053675753021217 0.005055810141710736 0.005436220467713043 0.005437652150505825 0.005439083833298608
          0.00525353228362644 0.0052553046590407375 0.005257077034455035 0.003768126779080465 0.0037508020720981375 0.0037681770350001557
          0.003750659383853509 0.0037682272909198467 0.00375051669560888 0.004338486511528003 0.004096526386467602 0.004337899101078313
          0.0040964074124201205 0.004337311690628625 0.004096288438372637 0.004430438216505323 0.004429419352075239 0.004428400487645155
          0.0031919871176726306 0.00319256325576119 0.003193139393849749 0.006751166978563871 0.00674989670661685 0.00674862643466983
          0.0038075607727487176 0.0040694993894601255 0.0038081326630560095 0.004068787137244039 0.0038087045533633014 0.004068074885027953
          0.004068751640385624 0.004184095545309042 0.004087253166232626 0.004068839210705966 0.00418430538602677 0.004087624276090565
          0.0040689267810263075 0.004184515226744495 0.004087995385948505 0.004108286277471526 0.004195150484807517 0.0041084849620294855
          0.004195145248636754 0.004108683646587445 0.004195140012465991 0.004278508185940807 0.0042773464157255985 0.004276184645510389
          0.004267531069034211 0.004267195581175755 0.004266860093317299 0.004068396473339389 0.004067909073738815 0.004067421674138242
          0.006898069100897232 0.006896465725571238 0.006894862350245242 0.003175337046629995 0.0031751584855002927 0.0031749799243705914
          0.0029797791231512437 0.0034850407574162356 0.0029797780785986547 0.0034855816275956124 0.0029797770340460653 0.003486122497774989
          0.006527846559852812 0.006528142215825043 0.006528437871797274 0.005468074077823742 0.005537873544219188 0.005978020146863582
          0.00546651675199579 0.005536433536632761 0.005977266794507706 0.0054649594261678355 0.005534993529046333 0.005976513442151832
          0.003627991511534549 0.00388875396068348 0.0036295343826105693 0.00389021442947198 0.003631077253686589 0.0038916748982604807
          0.006710441349775459 0.0064490988227606134 0.00671020731968367 0.006449612802087569 0.00670997328959188 0.006450126781414526
          0.004222493286181614 0.004223752404400856 0.004225011522620096 0.00602951087878509 0.005758443599727032 0.00560943740513738
          0.006030493944676167 0.0057592578203348975 0.005610341832296764 0.006031477010567243 0.0057600720409427646 0.005611246259456146
          0.006410159333162617 0.006410257731538735 0.006410356129914853 0.006818764979249846 0.006910712183662806 0.006815134692637692
          0.00690618624505988 0.006811504406025538 0.006901660306456955 0.0063177916299638585 0.006284609100090273 0.0063180613290534995
          0.006284701025464215 0.0063183310281431405 0.006284792950838158 0.006567130148272876 0.00656513834491389 0.006563146541554906
          0.006586349239288372 0.006585851117277018 0.006585352995265666 0.003951627756889079 0.003953967772466888 0.003956307788044698
          0.004036260378021905 0.004036619522626064 0.004036978667230222 0.004613468732684718 0.0046141578882710425 0.0046148470438573674
          0.006107168711987909 0.006107878456193552 0.006108588200399197 0.005204410364803929 0.0053593826419219455 0.0052050208965793805
          0.005358454547627032 0.005205631428354831 0.005357526453332119 0.004254900842266871 0.0040843768045465195 0.004256834147053678
          0.004086937500447872 0.004258767451840485 0.004089498196349225 0.0038467991182451465 0.00384900535284334 0.0038512115874415344
          0.003515258344237566 0.0035308807645472876 0.003517772960149261 0.003532962586468345 0.0035202875760609563 0.0035350444083894024
          0.006579941986232853 0.006579233838100251 0.006578525689967649 0.005058628733193044 0.0052624616209539146 0.005058101240065132
          0.005261901134694925 0.005057573746937218 0.005261340648435934 0.0066661675592664 0.006524890322903926 0.006664384905495652
          0.006523604988907981 0.006662602251724903 0.006522319654912034 0.003570651371958881 0.0035723503582973477 0.003574049344635815
          0.006300905055608783 0.006300151381273417 0.006299397706938051 0.004525544435765267 0.004526582911220934 0.004527621386676601
          0.004815422741007061 0.004815489371475144 0.004815556001943227 0.006898344879038506 0.006894465013325049 0.006890585147611591
          0.006798603494970506 0.006796034026047715 0.006793464557124922
        </DataArray>
        <DataArray type="Float64" Name="pe11" format="ascii" RangeMin="0.0029794055173035473" RangeMax="0.007289378857307252">
          0.005104255761470196 0.005615608902970664 0.005561592198350754 0.005129349153703044 0.005102708219704439 0.005612471672661309
          0.0055595448904272975 0.0051281591893578 0.0051011606779386804 0.005609334442351956 0.005557497582503842 0.005126969225012557
          0.0038476385373948435 0.0034189809242088087 0.0034649146786690423 0.003959975338584912 0.0038476319965035505 0.003418245326145546
          0.0034647827084614696 0.003959921695775941 0.0038476254556122583 0.0034175097280822833 0.0034646507382538956 0.003959868052966969
          0.0029934506495844764 0.0029940458539709945 0.0029946410583575125 0.003003031843118038 0.003003880493926037 0.0030047291447340353
          0.00534445587235796 0.00492720253747196 0.005343466166245512 0.004926784440054344 0.005342476460133064 0.004926366342636728
          0.006974105691807395 0.007087403941539963 0.006893554594007306 0.00687481589327979 0.006971372633462744 0.007085180240520916
          0.006891182942799131 0.0068721138669380205 0.006968639575118093 0.007082956539501867 0.006888811291590955 0.006869411840596255
          0.004538233994244578 0.004912409031774284 0.005135146458205637 0.004797217063615045 0.0045370031628067875 0.004910334832556801
          0.005133799693550852 0.004796461152070858 0.004535772331368994 0.004908260633339319 0.005132452928896066 0.004795705240526671
          0.0037679744945342307 0.004038211819056558 0.0036971827512962538 0.0035136359164942713 0.0037689756124173798 0.004037956882081027
          0.003697771355389296 0.003514609611847818 0.0037699767303005292 0.004037701945105495 0.0036983599594823387 0.003515583307201366
          0.006895971192884719 0.0067870147129096715 0.006710572937111234 0.0068956969723301615 0.006787052077794338 0.006710319031500206
          0.006895422751775604 0.006787089442679004 0.00671006512588918 0.0064640438182161945 0.006815480302349679 0.006815125600796039
          0.006335668340059913 0.006462562300319168 0.006813267771002138 0.00681226589531204 0.006334041828037832 0.006461080782422139
          0.0068110552396545955 0.006809406189828041 0.006332415316015751 0.005945264856153615 0.005944156083820093 0.0059430473114865726
          0.005987520725952053 0.005815483394486829 0.005984152643950448 0.0058131357987064505 0.005980784561948844 0.0058107882029260725
          0.004823226856831779 0.0052544421872941305 0.0046711197871326365 0.004821619812046958 0.005251997279575686 0.004670451538539375
          0.004820012767262137 0.00524955237185724 0.0046697832899461125 0.006556782355137975 0.006367606172358589 0.0065328891141597555
          0.006744169190960841 0.006553639319699668 0.006365912882729424 0.006531597600254135 0.00674186602142431 0.00655049628426136
          0.006364219593100259 0.006530306086348513 0.00673956285188778 0.005615056278187245 0.005285853792846629 0.005472662575241278
          0.005614631467523822 0.005285077337441837 0.005470469624051385 0.005614206656860398 0.0052843008820370446 0.005468276672861491
          0.005026102684457 0.004944536593633857 0.0044099936226504235 0.0050251986738311894 0.004942848855134442 0.004409376509455802
          0.005024294663205379 0.0049411611166350275 0.004408759396261183 0.0059973276745445385 0.005725244733341883 0.0058237971436040205
          0.0062045827694345345 0.0059963885907851275 0.005722359915465613 0.0058213993867616805 0.0062028175054451695 0.005995449507025717
          0.005719475097589343 0.005819001629919338 0.006201052241455803 0.00657338330023236 0.006222520632597213 0.006570929357931535
          0.006219444735518457 0.00656847541563071 0.006216368838439703 0.006905398314230823 0.006584085173427141 0.006598596174934806
          0.006903529030522144 0.006583380837244994 0.006597147504666638 0.0069016597468134645 0.006582676501062846 0.0065956988343984675
          0.006294078760261391 0.0064361946844686034 0.006759024527461546 0.006663356649236119 0.006292573703909953 0.006433644451029991
          0.0067559160075573105 0.0066611202277711695 0.006291068647558515 0.006431094217591378 0.006752807487653075 0.00665888380630622
          0.0038399302073175694 0.004144078973764674 0.0038409029800226535 0.004144272596331863 0.0038418757527277376 0.0041444662188990546
          0.004386082768548686 0.004772743613103799 0.00438591764073501 0.004771848010000325 0.004385752512921334 0.0047709524068968515
          0.003052783010796877 0.003109103460217498 0.00305368037902679 0.003110053472662862 0.0030545777472567033 0.0031110034851082264
          0.004610287309495274 0.0042750041365874954 0.004600914694310629 0.004992887133906305 0.004611946483779779 0.004277016298793746
          0.004601766772780196 0.004993457104810856 0.0046136056580642825 0.004279028460999994 0.004602618851249761 0.004994027075715408
          0.007043720129235821 0.006834054105825281 0.007042779881304943 0.006833294047022048 0.007041839633374064 0.006832533988218816
          0.007093300814090282 0.0068794961040252985 0.007089713921698822 0.006876313487371069 0.007086127029307362 0.006873130870716838
          0.007244689907771271 0.007083113198495846 0.00724106160495088 0.00707902805633866 0.007237433302130491 0.007074942914181473
          0.004529873052407734 0.004529656890455061 0.004529440728502388 0.0059409086101457126 0.0059420584225369135 0.005943208234928116
          0.006580508669376259 0.006307480082156868 0.006266254458017837 0.006587362763259239 0.006580073336160796 0.006307801420094582
          0.006266737720813632 0.0065869798216477106 0.006579638002945334 0.006308122758032296 0.006267220983609429 0.006586596880036184
          0.006938645342118345 0.006880607095106464 0.00701301160178051 0.006935768717719602 0.006878874369206986 0.00701156402416316
          0.006932892093320858 0.006877141643307509 0.0070101164465458075 0.007036994557760441 0.006860483674802467 0.007031943544619197
          0.006856902403510622 0.007026892531477954 0.006853321132218778 0.006209820398588421 0.006209417830314883 0.006209015262041344
          0.0032696614797486736 0.0034383989789885834 0.003575558756085149 0.003370212630677332 0.00327020975958005 0.0034388406289804344
          0.003577589686784078 0.0033715351793084333 0.0032707580394114263 0.0034392822789722855 0.0035796206174830065 0.0033728577279395345
          0.006894091737401971 0.006892836104939724 0.006891580472477477 0.006217622167851791 0.006217930476426789 0.006218238785001788
          0.006521988593593593 0.006521662300289258 0.006521336006984922 0.0046757499251705425 0.004387357456129043 0.00467477331561063
          0.004386606429706438 0.004673796706050717 0.004385855403283833 0.005796601350610657 0.005733955541176167 0.005796732685386881
          0.005735470201835482 0.0057968640201631035 0.005736984862494798 0.007233406929422908 0.007078703011089171 0.00722894654161145
          0.0070758472221383924 0.007224486153799989 0.007072991433187613 0.006321246607411878 0.006232902690781016 0.006317467187499112
          0.006229831026732727 0.006313687767586346 0.006226759362684438 0.006676760547324172 0.006675475138589424 0.006674189729854675
          0.006015321013395537 0.005492078487880797 0.0060135416391972115 0.005491637185465281 0.006011762264998886 0.005491195883049763
          0.006205103017199341 0.005979025130869635 0.006201856838820407 0.005974873466411585 0.006198610660441472 0.005970721801953537
          0.007099061535345447 0.007095455180010239 0.007091848824675032 0.007139738208554241 0.007138351702861449 0.0071369651971686585
          0.005948565868192047 0.005884813126479672 0.0059467750937502555 0.005880984509337585 0.005944984319308464 0.005877155892195497
          0.007186798608144873 0.0071844777842016575 0.0071821569602584425 0.005826068478240196 0.005827656738383899 0.0058292449985276025
          0.007289378857307252 0.007167391410704067 0.007286820299672013 0.007166098386893995 0.0072842617420367725 0.007164805363083924
          0.006860587587891573 0.006622826399397411 0.006858945902475705 0.006620513346715281 0.006857304217059837 0.00661820029403315
          0.005319772289673931 0.0056475922899547355 0.005621962491793892 0.0053177651668069965 0.005646270567606616 0.005618755704823046
          0.005315758043940062 0.005644948845258498 0.0056155489178522 0.0060642030101971485 0.005801550053504677 0.006063656982422353
          0.0063741264530168505 0.006060778379403421 0.005796473056485985 0.006058907240116182 0.006370868281785748 0.006057353748609694
          0.005791396059467293 0.006054157497810011 0.006367610110554646 0.003978965832997443 0.003624267210368864 0.0034790916308854716
          0.003743752809958454 0.003980679940427785 0.003624628850517712 0.0034785024494776917 0.003744113256786849 0.003982394047858129
          0.003624990490666562 0.0034779132680699118 0.003744473703615245 0.007227244131832506 0.007222694635189149 0.007218145138545792
          0.005619000198200645 0.005350844458292223 0.005615831155547366 0.005347855408328949 0.005612662112894087 0.005344866358365672
          0.006913642436199227 0.006781501629994353 0.006912258644518015 0.006780086777602923 0.006910874852836801 0.006778671925211495
          0.005105434018502245 0.004804513367099736 0.00510317502909918 0.004804503393639535 0.005100916039696115 0.004804493420179334
          0.0040190027754547246 0.004345177550995165 0.004020757906044499 0.004346833683729903 0.004022513036634273 0.004348489816464643
          0.0036834341099902463 0.003478331795942793 0.0036831432357595922 0.0034777023939900676 0.003682852361528938 0.0034770729920373415
          0.0071588110450882605 0.007157436123281142 0.0071560612014740215 0.007144090843550344 0.0071422952032586225 0.0071404995629669
          0.004337635097276879 0.003942911582974926 0.003826141104437067 0.004184051065278893 0.004337189358144819 0.003944002127620572
          0.0038282002756254746 0.0041852142110902525 0.00433674361901276 0.00394509267226622 0.0038302594468138827 0.0041863773569016105
          0.007022689595400559 0.007077457715604339 0.007020248313333126 0.007075779492165106 0.007017807031265691 0.007074101268725873
          0.003060068932916205 0.0030512548040055607 0.003132773941916245 0.0031132772349700653 0.003059782834786284 0.003051371435020124
          0.0031327027850946917 0.0031132709528181746 0.003059496736656363 0.0030514880660346875 0.0031326316282731395 0.003113264670666284
          0.003253367700905691 0.0030360213673992706 0.003221353215247767 0.0032532318333860204 0.0030367589834081384 0.003221143043623929
          0.0032530959658663506 0.0030374965994170067 0.0032209328720000903 0.0044051784141498585 0.004407602967991554 0.004410027521833251
          0.0068098864215309874 0.006555003387803883 0.006806511100194927 0.0065517115148659155 0.006803135778858868 0.006548419641927948
          0.006299698851572451 0.005781405123213109 0.006297815019987452 0.005779586415537453 0.006295931188402451 0.0057777677078617974
          0.004626063181216998 0.004625479223424722 0.004624895265632447 0.007277718465974411 0.007275765867089969 0.007273813268205528
          0.005093316271504082 0.005544028286806981 0.005093836090790689 0.005540664821419512 0.005094355910077297 0.005537301356032042
          0.0031990214281864267 0.003143088702450986 0.0031987422716542434 0.003143321094138965 0.00319846311512206 0.0031435534858269437
          0.003273246760355275 0.0033777966034137814 0.003274112083960429 0.0033787262206371096 0.003274977407565583 0.0033796558378604382
          0.003517735338684023 0.003917315500324397 0.0037127418473811144 0.0035186367505299046 0.0039172876225882745 0.0037128830318449084
          0.0035195381623757864 0.0039172597448521515 0.003713024216308702 0.004312130444395951 0.00467142683789411 0.004311335511742901
          0.004670081169948522 0.004310540579089848 0.004668735502002935 0.0033056363428039604 0.0033468463400866824 0.003304498543311042
          0.0033457632169074537 0.003303360743818124 0.003344680093728224 0.004136289348573295 0.003929160690936398 0.004135514002145443
          0.003928267445733851 0.004134738655717592 0.003927374200531304 0.003250778711333808 0.003250699476146323 0.003250620240958837
          0.004234041376164967 0.004160247819501653 0.00410862441635383 0.004141927108581122 0.004232918837842562 0.004158482881893053
          0.004106664780650911 0.004140767477216627 0.004231796299520158 0.0041567179442844535 0.004104705144947993 0.004139607845852132
          0.003970645745831156 0.004002645192333332 0.0039692232475211945 0.004001304205919933 0.003967800749211234 0.003999963219506533
          0.003208683885098384 0.0032085205834216472 0.00320835728174491 0.004067996236211688 0.004067626405058499 0.00406725657390531
          0.004835873669487947 0.004834785479328534 0.004833697289169119 0.004473869598658171 0.004475907014735718 0.004477944430813267
          0.005296100384797205 0.0052947689101956906 0.005293437435594177 0.005026095345900468 0.0052471820054735135 0.005025040320492894
          0.005244601022351362 0.005023985295085321 0.00524202003922921 0.005421089121543379 0.005419497921561599 0.0054179067215798194
          0.0051002948739006055 0.005101737147996482 0.005103179422092356 0.003344406481382191 0.0033436601549035874 0.003342913828424984
          0.006945817638093193 0.006945055672209741 0.006944293706326289 0.005893921406053206 0.005764731813848378 0.005892120422172751
          0.005762714450708857 0.005890319438292296 0.005760697087569338 0.0070392840469471595 0.007038413887445244 0.00703754372794333
          0.005624342767559906 0.00562201459992432 0.005619686432288735 0.005486599792086437 0.005483483549258556 0.005480367306430676
          0.005051221719021705 0.0050533447499892924 0.005055467780956882 0.005434732522635673 0.0054361680373820505 0.00543760355212843
          0.00525261455815839 0.0052543835895672705 0.005256152620976148 0.003767902947257015 0.003750612521138192 0.003767945262589086
          0.0037504638979598414 0.0037679875779211562 0.0037503152747814916 0.004336908603459268 0.004094375913117128 0.004336308203328115
          0.004094225067818784 0.0043357078031969615 0.004094074222520441 0.0044301629814178685 0.004429123895826677 0.004428084810235485
          0.003191832403297053 0.003192403142859783 0.0031929738824225127 0.00674916076441927 0.006747877384963188 0.006746594005507105
          0.0038073237943757852 0.004069253554369634 0.003807889095423852 0.004068530831251249 0.0038084543964719197 0.0040678081081328655
          0.0040680286010077536 0.004183373900734541 0.004086755293652992 0.004068088096584304 0.004183554279610317 0.004087112263585433
          0.0040681475921608545 0.004183734658486091 0.004087469233517874 0.004107900063906475 0.0041948293072772815 0.004108071717232617
          0.004194800105225316 0.004108243370558758 0.004194770903173349 0.0042782500820331484 0.004277067483418255 0.004275884884803361
          0.004266421697894662 0.004266056946264371 0.004265692194634081 0.004067019322218245 0.004066489257156372 0.004065959192094499
          0.006896835711417645 0.006895219425733165 0.0068936031400486835 0.0031751844960354646 0.0031749904673269926 0.003174796438618521
          0.0029794264045941076 0.003484672697153915 0.0029794159609488275 0.0034852040161902744 0.0029794055173035473 0.003485735335226634
          0.006523452103436444 0.00652372705491281 0.006524002006389177 0.005467559248592392 0.005537338886645112 0.005977323559634162
          0.005466014305725091 0.005535906593225298 0.0059765669819190044 0.00546446936285779 0.005534474299805485 0.0059758104042038455
          0.0036276515981111005 0.0038882996961149534 0.0036291901250766192 0.003889755863502887 0.0036307286520421375 0.003891212030890822
          0.006706901348086135 0.006444811190107219 0.0067066445286733094 0.0064452937375699074 0.006706387709260485 0.006445776285032594
          0.00422205789631754 0.004223317170692606 0.004224576445067672 0.006027415171492913 0.005756887695597956 0.00560776810349393
          0.006028383372137737 0.005757690857429103 0.005608670842377353 0.0060293515727825615 0.005758494019260248 0.005609573581260776
          0.0064064846637233355 0.0064065458797684 0.006406607095813463 0.006818056005861139 0.006910050503294885 0.006814444106452017
          0.006905539974340428 0.006810832207042894 0.006901029445385971 0.006315427784599999 0.006282323266445479 0.00631566061951778
          0.006282373581876136 0.00631589345443556 0.006282423897306794 0.006566324089923767 0.006564330275071151 0.006562336460218534
          0.006582788904527242 0.006582264165107375 0.0065817394256875075 0.0039512134733186285 0.003953555638467171 0.003955897803615712
          0.004035825046744482 0.004036168270774981 0.00403651149480548 0.004613022263348135 0.004613700700307614 0.004614379137267094
          0.0061053251880109965 0.006106012678090989 0.00610670016817098 0.005204011961897904 0.005358924565243612 0.005204623075159934
          0.005358007064628302 0.005205234188421963 0.005357089564012995 0.004254126129667154 0.0040838544158788405 0.004256060716145035
          0.004086419672273611 0.004257995302622916 0.004088984928668381 0.0038464007094088926 0.003848610608593377 0.0038508205077778606
          0.003515125203680201 0.003530711290736807 0.003517627902226201 0.0035327811339093355 0.003520130600772201 0.0035348509770818633
          0.006577085947169114 0.006576375478922391 0.006575665010675669 0.00505755004991453 0.0052612563935693305 0.005057027744483982
          0.005260696995860108 0.005056505439053434 0.005260137598150886 0.006664933519610549 0.006522927374782822 0.006663142903668175
          0.006521647726611779 0.0066613522877258 0.006520368078440735 0.0035704259846099985 0.0035721167762728092 0.00357380756793562
          0.006300139614004683 0.006299363359616657 0.006298587105228632 0.0045246664236763415 0.004525702865965103 0.004526739308253864
          0.004814590663692723 0.004814657001866554 0.004814723340040386 0.006897643496830922 0.006893773351239753 0.006889903205648586
          0.0067977799760742365 0.006795208840157072 0.0067926377042399075
        </DataArray>
        <DataArray type="Float64" Name="pe22" format="ascii" RangeMin="-0.0036376424975673683" RangeMax="-0.0014740492236770212">
          -0.00254436539703212 -0.002790743458462 -0.002781539851396328 -0.0025704717380332933 -0.002544853390302343 -0.0027915323627553472
          -0.0027822515627188406 -0.002570982610424465 -0.002545341383572565 -0.002792321267048695 -0.0027829632740413537 -0.0025714934828156358
          -0.0019034735056025827 -0.0016906426710352372 -0.0017123289295947186 -0.0019572019515589076 -0.0019031361075075408 -0.001690181870961041
          -0.0017120159433903917 -0.0019566880858930555 -0.0019027987094124984 -0.001689721070886844 -0.0017117029571860646 -0.001956174220227203
          -0.0014825744937595866 -0.0014822987308535799 -0.0014820229679475734 -0.001491060045857561 -0.0014908175778152268 -0.0014905751097728927
          -0.002678850860272122 -0.0024794180299618656 -0.0026792714307757198 -0.00247969204303745 -0.002679692001279317 -0.002479966056113034
          -0.0034822554504708053 -0.00353648107474908 -0.0034387137435889477 -0.0034292928159624357 -0.003483111437629157 -0.003537176088606855
          -0.0034391260518427907 -0.003429870080641065 -0.0034839674247875104 -0.0035378711024646294 -0.003439538360096634 -0.003430447345319695
          -0.0022533825633170588 -0.002439937307007196 -0.0025641752776250325 -0.0023987502133088322 -0.0022538407840599814 -0.0024392143181215264
          -0.0025638428629649167 -0.0023992348689915698 -0.0022542990048029037 -0.002438491329235857 -0.002563510448304801 -0.0023997195246743073
          -0.0018752423704586352 -0.0020068770405470217 -0.001850548854509968 -0.0017601357647668817 -0.0018754370082376128 -0.0020073170882219426
          -0.0018518116631815497 -0.001760870316946597 -0.0018756316460165907 -0.0020077571358968634 -0.0018530744718531313 -0.0017616048691263123
          -0.0034812791810002477 -0.0034399180063739996 -0.0033762649861271473 -0.003481304498124082 -0.0034399778658629606 -0.003376468823728598
          -0.0034813298152479156 -0.0034400377253519217 -0.0033766726613300487 -0.0031834325698968983 -0.003352580483846348 -0.003348192277401899
          -0.003114883360882802 -0.0031834336075135137 -0.0033531110053078694 -0.003348755263019381 -0.003115197491180356 -0.0031834346451301296
          -0.0033536415267693895 -0.003349318248636864 -0.0031155116214779096 -0.0029336793440708758 -0.002934007378460672 -0.0029343354128504684
          -0.0029939004111421467 -0.0029142397278831373 -0.00299471970376832 -0.0029148454669853216 -0.002995538996394494 -0.0029154512060875068
          -0.00240321621265249 -0.00261636956561079 -0.0023256176451704157 -0.002404184541324257 -0.0026165376939346393 -0.0023266233862006156
          -0.0024051528699960234 -0.002616705822258489 -0.0023276291272308156 -0.003279213845927686 -0.0031765814341501576 -0.0032677562635261862
          -0.0033804295538926326 -0.003279792878597646 -0.0031773773187872955 -0.003268315465194627 -0.0033810943169944284 -0.0032803719112676063
          -0.0031781732034244334 -0.003268874666863067 -0.0033817590800962237 -0.002794665531484782 -0.0026467660650063085 -0.0027135339168327787
          -0.002795851132282613 -0.0026471242064353626 -0.0027142968292643973 -0.0027970367330804446 -0.002647482347864417 -0.002715059741696017
          -0.002526407299760051 -0.002474365004340958 -0.0022067932052397977 -0.0025268809311619193 -0.0024752661362826807 -0.0022090399130647235
          -0.0025273545625637875 -0.0024761672682244037 -0.0022112866208896494 -0.002976641327315452 -0.00282659729083474 -0.0028773241732395123
          -0.0030832286460203747 -0.0029778921599889698 -0.0028277092932579846 -0.002877894956627441 -0.003083675193711528 -0.0029791429926624875
          -0.00282882129568123 -0.0028784657400153695 -0.003084121741402681 -0.0032298107609087558 -0.003061392982674676 -0.003230749760535715
          -0.0030618811150614844 -0.0032316887601626745 -0.0030623692474482937 -0.0034482637005447993 -0.0032989150546764764 -0.003302766117488116
          -0.0034486255840097957 -0.003299132036831584 -0.0033030442671527225 -0.0034489874674747925 -0.0032993490189866916 -0.003303322416817329
          -0.0031543150821107405 -0.003216824970007784 -0.00337745132943924 -0.0033310024194114253 -0.0031546270107720865 -0.0032176889980365187
          -0.0033782537315505626 -0.0033315154966355766 -0.0031549389394334333 -0.003218553026065254 -0.003379056133661885 -0.003332028573859728
          -0.0019215946529372474 -0.002075928924823586 -0.001921994595213591 -0.002076399048704651 -0.0019223945374899345 -0.002076869172585717
          -0.0021881836488377555 -0.002381358331002864 -0.0021897758467474336 -0.0023821920554363274 -0.002191368044657111 -0.0023830257798697907
          -0.001528323803611909 -0.0015515884684330816 -0.0015285019950441517 -0.0015517608373335095 -0.0015286801864763944 -0.0015519332062339376
          -0.0023117249146945066 -0.002148730310266916 -0.0023177847528257274 -0.0025061887390276276 -0.0023116978896449724 -0.002148718606228279
          -0.0023179148728413967 -0.0025064341303506557 -0.0023116708645954383 -0.002148706902189642 -0.002318044992857066 -0.002506679521673684
          -0.003537394574009767 -0.003428654582775169 -0.0035381262923619345 -0.0034292689041893996 -0.0035388580107141004 -0.0034298832256036294
          -0.0035098300375050566 -0.0034079098094984567 -0.0035106529287270457 -0.003408272421149919 -0.0035114758199490358 -0.0034086350328013824
          -0.00359934310208989 -0.0035156790603539856 -0.0036003630134526982 -0.003516757979271001 -0.003601382924815506 -0.003517836898188016
          -0.002279068017996384 -0.0022792949295407845 -0.002279521841085186 -0.0029956652429074387 -0.0029957254996262283 -0.0029957857563450187
          -0.0032966776163552603 -0.00316372796087545 -0.003151837928827321 -0.0033016286491858223 -0.003297095160007888 -0.003163916148167224
          -0.003151862134345707 -0.0033018205910536804 -0.0032975127036605164 -0.003164104335458998 -0.0031518863398640926 -0.0033020125329215394
          -0.003474775401409955 -0.0034468880016709793 -0.003503572993257633 -0.003475624950831814 -0.0034475783191961072 -0.003504581426324147
          -0.003476474500253672 -0.0034482686367212356 -0.0035055898593906623 -0.0034562521898919697 -0.003371524478110549 -0.003457165195568622
          -0.0033725260905390375 -0.0034580782012452755 -0.0033735277029675248 -0.003123456668915412 -0.0031232995694890717 -0.003123142470062731
          -0.001635742753046101 -0.001715562228302759 -0.0017875170751860763 -0.0016896423691281654 -0.0016360956461623996 -0.001715643963345853
          -0.001787824399113603 -0.0016902587941302362 -0.0016364485392786976 -0.0017157256983889465 -0.0017881317230411299 -0.0016908752191323066
          -0.0034499185157636034 -0.0034504953774280142 -0.003451072239092425 -0.003132156504692867 -0.003132002183253884 -0.0031318478618149012
          -0.0032683698174335524 -0.0032688225404860307 -0.003269275263538509 -0.002339869077863606 -0.0021917810051161964 -0.002340570740192467
          -0.002192589547359807 -0.002341272402521327 -0.0021933980896034176 -0.002914727202942182 -0.0028954769616324895 -0.0029151617418076274
          -0.0028952603576761857 -0.0029155962806730732 -0.0028950437537198824 -0.003584323075590214 -0.0035063833694073004 -0.003585493042524922
          -0.0035077237114258656 -0.0035866630094596296 -0.0035090640534444317 -0.0031620623707825893 -0.0031204858990719142 -0.00316267822994689
          -0.0031213468687562645 -0.0031632940891111903 -0.0031222078384406144 -0.003331876515322821 -0.00333213108504599 -0.00333238565476916
          -0.003015797193427615 -0.002756267555929697 -0.003016674781180909 -0.0027568992539771793 -0.003017552368934203 -0.0027575309520246616
          -0.0030867506586624194 -0.0029696403599263144 -0.0030875276313319473 -0.002970566327267536 -0.0030883046040014756 -0.002971492294608758
          -0.003527624590613119 -0.0035287858825637807 -0.003529947174514443 -0.0035713169955027156 -0.003572434389651697 -0.003573551783800679
          -0.0029472966818906744 -0.0029101002140988035 -0.002948458561794858 -0.002911121502344853 -0.002949620441699043 -0.0029121427905909026
          -0.003579865208845925 -0.003580821685225121 -0.003581778161604316 -0.002947517384256556 -0.0029471895576748206 -0.002946861731093085
          -0.0036352746042509405 -0.003587297120133341 -0.003636458550909155 -0.003588156516029689 -0.0036376424975673683 -0.003589015911926035
          -0.003409382695916961 -0.003270962820960687 -0.0034098793709842817 -0.0032714326702459554 -0.003410376046051603 -0.003271902519531223
          -0.002655744520271462 -0.0028059598808273392 -0.0027829648987153155 -0.0026560009543122 -0.0028068743340358133 -0.002783711266586953
          -0.002656257388352937 -0.002807788787244287 -0.0027844576344585904 -0.003001390544509749 -0.0028723420025361587 -0.002985906370903023
          -0.00314204738095001 -0.0030020346987182033 -0.002872534125778364 -0.0029865751055498093 -0.003143115982140303 -0.003002678852926658
          -0.002872726249020569 -0.002987243840196596 -0.0031441845833305956 -0.0019907912477816654 -0.0018088519437140765 -0.0017337290244272595
          -0.001869305067604122 -0.00199068184034797 -0.0018086596381555174 -0.0017331295585359993 -0.001868879092928977 -0.001990572432914274
          -0.0018084673325969574 -0.0017325300926447386 -0.0018684531182538316 -0.003579800677377846 -0.0035805107915569574 -0.003581220905736069
          -0.0027829819622739236 -0.0026576027341122977 -0.0027829467308824224 -0.0026575696396376747 -0.002782911499490921 -0.002657536545163051
          -0.0034928862234081767 -0.0034317188599136974 -0.003493544074611378 -0.0034327445132049743 -0.003494201925814581 -0.003433770166496252
          -0.002521617922362572 -0.0023817024204886793 -0.0025213120005052104 -0.002381895937651544 -0.0025210060786478488 -0.002382089454814409
          -0.001999790863865184 -0.0021633358017721918 -0.0019997534521523186 -0.002163306645981503 -0.001999716040439453 -0.0021632774901908145
          -0.0018264487569640997 -0.001728390577432505 -0.001826039847556333 -0.0017278431499772907 -0.0018256309381485668 -0.0017272957225220765
          -0.003573641476837977 -0.0035750192632840187 -0.003576397049730061 -0.0035678094123134294 -0.0035686012321863416 -0.0035693930520592537
          -0.00215160603068298 -0.0019555283440736474 -0.0019065517761499972 -0.0020826460260600587 -0.0021511624849928205 -0.0019552287468742927
          -0.001906524739785005 -0.0020823111895778706 -0.002150718939302662 -0.001954929149674938 -0.0019064977034200126 -0.002081976353095683
          -0.0035090426853097182 -0.003547905961023924 -0.003509880778884479 -0.003548595377042021 -0.00351071887245924 -0.003549284793060118
          -0.001531846358372065 -0.0015283574237745872 -0.0015679724252393914 -0.0015599110904412107 -0.0015316448842961567 -0.0015282694778305716
          -0.0015680200641893303 -0.0015599875632264764 -0.0015314434102202481 -0.0015281815318865565 -0.0015680677031392688 -0.0015600640360117423
          -0.0016180072266780959 -0.001511654837184262 -0.001600368150963387 -0.0016175183330211645 -0.00151156593293086 -0.0016000757814223251
          -0.0016170294393642339 -0.0015114770286774586 -0.0015997834118812633 -0.00218690811468514 -0.0021872511562844215 -0.002187594197883704
          -0.003408560740174524 -0.0032753835438638695 -0.003409362066774445 -0.003276282604916422 -0.003410163393374365 -0.003277181665968974
          -0.003124712894655821 -0.002862402067786735 -0.0031248953353550358 -0.0028626701810648145 -0.0031250777760542512 -0.002862938294342893
          -0.002294911931742269 -0.0022944379621292043 -0.0022939639925161396 -0.003634613037413862 -0.0036359806510476472 -0.003637348264681432
          -0.0025388616776978435 -0.0027559343602818523 -0.002538931814775485 -0.0027555160446891373 -0.0025390019518531266 -0.0027550977290964223
          -0.0015985604177447803 -0.0015743455102913517 -0.0015986564772543558 -0.001574615837137797 -0.001598752536763931 -0.0015748861639842422
          -0.0016453639952741764 -0.0017004409976879979 -0.0016461148442185787 -0.0017013378258787168 -0.0016468656931629808 -0.0017022346540694357
          -0.0017727488395372437 -0.0019624534614151225 -0.00187614675307413 -0.0017741781834646707 -0.0019642554919692325 -0.0018781023243141148
          -0.0017756075273920977 -0.001966057522523343 -0.0018800578955540997 -0.0021456135080054717 -0.0023196217888195943 -0.002146328786039333
          -0.0023192802008153634 -0.0021470440640731937 -0.0023189386128111326 -0.0016452706981203886 -0.0016635262021648253 -0.0016451448139688147
          -0.001663283931652564 -0.0016450189298172408 -0.0016630416611403023 -0.0020689227774400307 -0.0019873257444261165 -0.002070856290150095
          -0.0019894447741136134 -0.0020727898028601597 -0.0019915638038011108 -0.0016175234691798253 -0.0016171955682893725 -0.00161686766739892
          -0.0021207703818860823 -0.002080977617975339 -0.00205717202933155 -0.0020746598005027773 -0.002122244185061563 -0.002081538274353994
          -0.0020575657289389707 -0.002076413734430323 -0.002123717988237043 -0.002082098930732649 -0.0020579594285463918 -0.0020781676683578687
          -0.001989379203367242 -0.002003265069671567 -0.001989352755358413 -0.0020033257298659765 -0.0019893263073495837 -0.002003386390060386
          -0.0015977875874245994 -0.0015979288105630138 -0.0015980700337014288 -0.0020515533387876436 -0.002054417458362284 -0.0020572815779369242
          -0.0023915828791969077 -0.002391285624969365 -0.002390988370741822 -0.002221638611769671 -0.0022213950726600326 -0.0022211515335503933
          -0.002615096607041185 -0.0026153588004127586 -0.0026156209937843317 -0.0024832979616517957 -0.0025919083282733985 -0.002483440478582651
          -0.002592138720133624 -0.0024835829955135065 -0.00259236911199385 -0.002674355508075136 -0.0026751150342060256 -0.0026758745603369144
          -0.0025626063621390785 -0.002562988004259818 -0.002563369646380557 -0.0016563552785394053 -0.0016559281915219024 -0.0016555011045043993
          -0.003517645419778278 -0.0035178671313469754 -0.0035180888429156725 -0.0029106281330754497 -0.0028512442040259833 -0.00291147500032332
          -0.0028518548529124364 -0.0029123218675711914 -0.0028524655017988887 -0.0035464153201515444 -0.0035467676392923514 -0.003547119958433158
          -0.0027875937703306093 -0.002787647460790148 -0.002787701151249687 -0.0027012008242445706 -0.002702155775309474 -0.0027031107263743776
          -0.0025192226848088236 -0.002519310567661518 -0.0025193984505142127 -0.0027426789921672344 -0.0027425934375484183 -0.0027425078829296018
          -0.002649421300955672 -0.0026494747307896603 -0.002649528160623648 -0.001885430689929276 -0.0018785278249381764 -0.0018854634501860325
          -0.0018785352307624443 -0.0018854962104427888 -0.001878542636586712 -0.0021648051141446244 -0.002058998391331709 -0.0021672461658171025
          -0.002061923604607137 -0.00216968721748958 -0.002064848817882565 -0.0022151864826976645 -0.002216369820810837 -0.002217553158924009
          -0.0016004825641753781 -0.0016010153973870847 -0.0016015482305987913 -0.0034094815312587234 -0.003410452317905724 -0.0034114231045527252
          -0.0019035035000797428 -0.002034104335969295 -0.0019037209662637264 -0.002034504247851292 -0.00190393843244771 -0.002034904159733288
          -0.0020317908631563037 -0.0020862696819049795 -0.0020329002298336016 -0.002034249115846567 -0.002088428259995265 -0.00203515485541779
          -0.0020367073685368304 -0.002090586838085551 -0.0020374094810019783 -0.002048427224415318 -0.002096740595985174 -0.002051237852163526
          -0.002099177863438927 -0.0020540484799117338 -0.00210161513089268 -0.0021356900399606277 -0.0021365869322594014 -0.002137483824558175
          -0.0021278144571239906 -0.0021299363250304364 -0.0021320581929368827 -0.0020394533232755145 -0.0020420240122248803 -0.002044594701174246
          -0.003466493149089525 -0.003467269287046156 -0.0034680454250027876 -0.0015847270589818315 -0.001584818008982235 -0.0015849089589826393
          -0.0014749403528334936 -0.0017223419255116778 -0.0014744947882552575 -0.0017219510004980018 -0.0014740492236770212 -0.0017215600754843258
          -0.003285053789346576 -0.00328495244621715 -0.003284851103087724 -0.002709244929249603 -0.0027441303908605046 -0.0029488133694633894
          -0.002710001752248249 -0.00274445424650728 -0.0029487297966029192 -0.002710758575246895 -0.002744778102154056 -0.002948646223742449
          -0.001817491235103199 -0.0019517183651471988 -0.001817804388535587 -0.0019520000407079177 -0.001818117541967975 -0.001952281716268637
          -0.003401417488893624 -0.00325023870382789 -0.003402082478744253 -0.0032505029379210305 -0.003402747468594882 -0.0032507671720141706
          -0.002124804541832773 -0.002125025505913834 -0.002125246469994894 -0.0030241529815040373 -0.0028743041700526996 -0.0028166799004617576
          -0.0030242748562900636 -0.0028745082777380327 -0.0028168261129890276 -0.003024396731076089 -0.002874712385423365 -0.002816972325516299
          -0.003212683545342346 -0.0032126400557408183 -0.0032125965661392916 -0.003384679042017744 -0.0034331165123169206 -0.003385929276960952
          -0.0034342236689394044 -0.0033871795119041607 -0.0034353308255618883 -0.003160168347596348 -0.0031409620122369126 -0.0031605394036816527
          -0.003141076008205192 -0.003160910459766958 -0.003141190004173472 -0.0032531072501984326 -0.003253528800184856 -0.003253950350171279
          -0.003340768127077161 -0.003341576902973667 -0.003342385678870173 -0.001983267825809033 -0.0019835072419382305 -0.001983746658067428
          -0.0019952907832103484 -0.0019946620296943116 -0.001994033276178274 -0.0022908271800504785 -0.0022906267635589336 -0.0022904263470673886
          -0.003052284661636669 -0.0030523804035986176 -0.0030524761455605655 -0.002590103135053125 -0.00265842367473925 -0.0025907924059571353
          -0.002659547743530953 -0.0025914816768611458 -0.002660671812322656 -0.0021359022012307463 -0.002051033346957802 -0.00213550323271908
          -0.0020508785547770224 -0.002135104264207414 -0.0020507237625962426 -0.0019314447899960287 -0.001931401403721937 -0.001931358017447845
          -0.00175964263533159 -0.0017677781216576048 -0.0017602946430716492 -0.0017684649512317444 -0.001760946650811709 -0.001769151780805884
          -0.003342246755636478 -0.0033431610610918285 -0.003344075366547179 -0.00252930402480836 -0.0026174483370928463 -0.0025293502159692604
          -0.0026172016983809707 -0.0025293964071301613 -0.002616955059669095 -0.003360104583813436 -0.003316696303269852 -0.003360670692287574
          -0.003317179645367008 -0.0033612368007617127 -0.003317662987464164 -0.0017884266393428795 -0.0017890208960395456 -0.0017896151527362117
          -0.0031054088939132876 -0.0031051853944780235 -0.0031049618950427602 -0.00226797811369487 -0.002267738125808258 -0.002267498137921646
          -0.0024097653853431835 -0.002409947440171964 -0.002410129495000745 -0.0034413299815081277 -0.003442272668438664 -0.0034432153553692006
          -0.003405724638617065 -0.0034065647007618088 -0.0034074047629065523
        </DataArray>
        <DataArray type="Float64" Name="pe33" format="ascii" RangeMin="-0.0036541042530563103" RangeMax="-0.0015044860517606133">
          -0.0025598903644380756 -0.0028248654445086627 -0.0027800523469544247 -0.0025588774156697497 -0.0025578548294020948 -0.0028209393099059617
          -0.0027772933277084564 -0.0025571765789333353 -0.002555819294366115 -0.0028170131753032603 -0.0027745343084624877 -0.0025554757421969204
          -0.0019441650317922597 -0.0017283382531735711 -0.0017525857490743233 -0.0020027733870260035 -0.0019444958889960097 -0.0017280634551845048
          -0.001752766765071077 -0.0020032336098828847 -0.0019448267461997597 -0.0017277886571954392 -0.0017529477810678306 -0.0020036938327397664
          -0.0015108761558248899 -0.0015117471231174144 -0.0015126180904099392 -0.0015119717972604768 -0.00151306291611081 -0.0015141540349611431
          -0.002665605012085837 -0.002447784507510093 -0.0026641947354697918 -0.0024470923970168934 -0.0026627844588537463 -0.0024464002865236937
          -0.0034918502413365895 -0.0035509228667908836 -0.003454840850418356 -0.0034455230773173524 -0.0034882611958335858 -0.00354800415191406
          -0.003452056890956338 -0.0034422437862969557 -0.003484672150330581 -0.003545085437037237 -0.0034492729314943202 -0.0034389644952765586
          -0.0022848514309275194 -0.002472471724767087 -0.0025709711805806034 -0.0023984668503062123 -0.002283162378746805 -0.0024711205144352746
          -0.002569956830585934 -0.002397226283079288 -0.002281473326566091 -0.0024697693041034613 -0.0025689424805912645 -0.0023959857158523633
          -0.0018927321240755953 -0.002031334778509536 -0.0018466338967862853 -0.001753500151727389 -0.0018935386041797667 -0.0020306397938590834
          -0.0018459596922077459 -0.001753739294901221 -0.001894345084283938 -0.002029944809208631 -0.0018452854876292067 -0.0017539784380750528
          -0.0034146920118844713 -0.003347096706535671 -0.0033343079509840856 -0.0034143924742060794 -0.0033470742119313763 -0.003333850207771608
          -0.0034140929365276884 -0.0033470517173270816 -0.003333392464559131 -0.003280611248319296 -0.0034628998185033282 -0.0034669333233941398
          -0.003220784979177111 -0.0032791286928056523 -0.0034601567656942674 -0.003463510632292658 -0.0032188443368574757 -0.0032776461372920097
          -0.0034574137128852074 -0.0034600879411911764 -0.0032169036945378406 -0.0030115855120827397 -0.0030101487053594213 -0.0030087118986361033
          -0.002993620314809905 -0.0029012436666036906 -0.0029894329401821272 -0.0028982903317211275 -0.0029852455655543482 -0.002895336996838564
          -0.0024200106441792887 -0.0026380726216833415 -0.002345502141962221 -0.002417435270722701 -0.0026354595856410462 -0.002343828152338759
          -0.0024148598972661135 -0.00263284654959875 -0.002342154162715297 -0.003277568509210289 -0.0031910247382084317 -0.0032651328506335684
          -0.003363739637068208 -0.0032738464411020208 -0.0031885355639421284 -0.0032632821350595067 -0.003360771704429882 -0.0032701243729937528
          -0.0031860463896758247 -0.003261431419485445 -0.0033578037717915555 -0.0028203907467024628 -0.0026390877278403193 -0.0027591286584084996
          -0.0028187803352412075 -0.0026379531310064728 -0.0027561727947869865 -0.0028171699237799536 -0.0026368185341726267 -0.0027532169311654748
          -0.002499695384696949 -0.0024701715892928985 -0.002203200417410625 -0.0024983177426692693 -0.0024675827188517614 -0.0022003365963910787
          -0.00249694010064159 -0.0024649938484106234 -0.0021974727753715324 -0.0030206863472290856 -0.0028986474425071423 -0.002946472970364507
          -0.0031213541234141598 -0.0030184964307961573 -0.002894650622207627 -0.0029435044301342377 -0.0031191423117336407 -0.003016306514363229
          -0.0028906538019081132 -0.0029405358899039684 -0.0031169305000531217 -0.003343572539323604 -0.003161127649922536 -0.00334017959739582
          -0.0031575636204569718 -0.0033367866554680358 -0.0031539995909914075 -0.0034571346136860236 -0.0032851701187506634 -0.00329583005744669
          -0.0034549034465123467 -0.0032842488004134088 -0.003294103237513914 -0.003452672279338671 -0.0032833274820761532 -0.0032923764175811377
          -0.0031397636781506488 -0.003219369714460819 -0.003381573198022306 -0.0033323542298246923 -0.003137946693137865 -0.0032159554529934712
          -0.003377662276006748 -0.0033296047311355916 -0.0031361297081250817 -0.0032125411915261237 -0.003373751353991189 -0.0033268552324464914
          -0.0019183355543803222 -0.0020681500489410877 -0.0019189083848090624 -0.0020678735476272127 -0.0019194812152378028 -0.0020675970463133373
          -0.00219789911971093 -0.0023913852821009335 -0.0021961417939875758 -0.0023896559545639965 -0.0021943844682642223 -0.0023879266270270595
          -0.0015244592071849677 -0.0015575149917844162 -0.001525178383982638 -0.0015582926353293522 -0.0015258975607803085 -0.001559070278874288
          -0.0022985623948007673 -0.0021262738263205785 -0.002283129941484901 -0.0024866983948786765 -0.002300248594134805 -0.002128297692565466
          -0.0022838518999387975 -0.0024870229744602 -0.002301934793468844 -0.0021303215588103527 -0.0022845738583926944 -0.0024873475540417227
          -0.003506325555226053 -0.0034053995230501105 -0.0035046535889430084 -0.003404025142832649 -0.003502981622659964 -0.0034026507626151873
          -0.003583470776585224 -0.0034715862945268413 -0.003579060992971776 -0.003468041066221149 -0.0035746512093583283 -0.003464495837915456
          -0.0036453468056813795 -0.0035674341381418595 -0.0036406985914981824 -0.0035622700770676584 -0.003636050377314985 -0.0035571060159934565
          -0.0022508050344113495 -0.0022503619609142754 -0.0022499188874172014 -0.002945243367238274 -0.002946332922910686 -0.0029474224785830975
          -0.003283831053020998 -0.0031437521212814177 -0.003114416529190516 -0.003285734114073415 -0.003282978176152907 -0.0031438852719273564
          -0.003114875586467926 -0.003285159230594029 -0.0032821252992848173 -0.003144018422573297 -0.0031153346437453357 -0.0032845843471146436
          -0.0034638699407083897 -0.0034337190934354846 -0.0035094386085228776 -0.003460143766887787 -0.0034312960500108777 -0.0035069825978390106
          -0.003456417593067185 -0.0034288730065862713 -0.003504526587155144 -0.0035807423678684714 -0.0034889591966919195 -0.003574778349050575
          -0.003484376312971586 -0.0035688143302326785 -0.003479793429251253 -0.0030863637296730095 -0.003086118260825812 -0.0030858727919786137
          -0.001633918726702572 -0.001722836750685824 -0.0017880416808990721 -0.001680570261549166 -0.0016341141134176502 -0.001723196665634581
          -0.001789765287670474 -0.0016812763851781964 -0.0016343095001327282 -0.0017235565805833381 -0.0017914888944418762 -0.001681982508807227
          -0.003444173221638367 -0.0034423407275117088 -0.0034405082333850505 -0.003085465663158925 -0.0030859282931729056 -0.003086390923186887
          -0.0032536187761600405 -0.003252839759803227 -0.003252060743446413 -0.002335880847306936 -0.0021955764510128467 -0.0023342025754181624
          -0.0021940168823466307 -0.0023325243035293894 -0.0021924573136804146 -0.0028818741476684742 -0.002838478579543677 -0.0028815709435792525
          -0.002840209844159296 -0.0028812677394900303 -0.002841941108774915 -0.0036490838538326947 -0.0035723196416818713 -0.003643453499086526
          -0.0035681235107125264 -0.0036378231443403588 -0.003563927379743182 -0.003159184236629288 -0.003112416791709101 -0.00315478895755222
          -0.0031084841579764612 -0.003150393678475153 -0.0031045515242438225 -0.003344884032001351 -0.003343344053543432 -0.0033418040750855136
          -0.0029995238199679217 -0.002735810931951099 -0.0029968668580163025 -0.0027347379314881003 -0.0029942098960646837 -0.002733664931025101
          -0.0031183523585369215 -0.003009384770943319 -0.003114329207488458 -0.0030043071391440486 -0.003110306056439995 -0.0029992295073447777
          -0.003571436944732327 -0.003566669297446457 -0.0035619016501605874 -0.0035684212130515256 -0.0035659173132097516 -0.0035634134133679784
          -0.0030012691863013723 -0.002974712912380868 -0.0029983165319553964 -0.002969863006992731 -0.00299536387760942 -0.002965013101604594
          -0.003606933399298947 -0.0036036560989765364 -0.0036003787986541255 -0.0028785510939836395 -0.002880467180709078 -0.0028823832674345173
          -0.0036541042530563103 -0.0035800942905707244 -0.0036503617487628577 -0.0035779418708643063 -0.003646619244469404 -0.0035757894511578873
          -0.0034512048919746125 -0.003351863578436725 -0.003449066531491423 -0.003349080676469326 -0.0034469281710082338 -0.0033462977745019264
          -0.002664027769402469 -0.002841632409127396 -0.0028389975930785774 -0.0026617642124947966 -0.0028393962335708026 -0.002835044438236093
          -0.002659500655587124 -0.00283716005801421 -0.0028310912833936085 -0.003062812465687398 -0.0029292080509685185 -0.003077750611519329
          -0.003232079072066839 -0.0030587436806852174 -0.002923938930707621 -0.0030723321345663716 -0.003227752299645445 -0.0030546748956830363
          -0.002918669810446724 -0.0030669136576134148 -0.0032234255272240507 -0.0019881745852157766 -0.0018154152666547871 -0.0017453626064582123
          -0.0018744477423543317 -0.0019899981000798157 -0.001815969212362195 -0.0017453728909416922 -0.0018752341638578723 -0.001991821614943854
          -0.0018165231580696036 -0.001745383175425172 -0.0018760205853614125 -0.0036474434544546594 -0.003642183843632191 -0.0036369242328097217
          -0.0028360182359267196 -0.0026932417241799255 -0.0028328844246649438 -0.0026902857686912736 -0.002829750613403167 -0.002687329813202622
          -0.0034207562127910505 -0.003349782770080655 -0.0034187145699066347 -0.003347342264397948 -0.0034166729270222198 -0.003344901758715242
          -0.0025838160961396714 -0.002422810946611056 -0.0025818630285939694 -0.0024226074559879907 -0.0025799099610482675 -0.002422403965364926
          -0.002019211911589541 -0.0021818417492229726 -0.00202100445389218 -0.0021835270377484005 -0.0020227969961948192 -0.002185212326273828
          -0.0018569853530261465 -0.0017499412185102876 -0.0018571033882032587 -0.001749859244012776 -0.0018572214233803707 -0.001749777269515264
          -0.0035851695682502832 -0.003582416859997121 -0.0035796641517439596 -0.0035762814312369144 -0.0035736939710722796 -0.003571106510907646
          -0.0021860290665938983 -0.0019873832389012782 -0.0019195893282870696 -0.002101405039218834 -0.002186026873151998 -0.0019887733807462797
          -0.0019216755358404695 -0.0021029030215123806 -0.0021860246797100976 -0.001990163522591281 -0.0019237617433938699 -0.0021044010038059275
          -0.003513646910090839 -0.0035295517545804143 -0.003510367534448645 -0.0035271841151230847 -0.0035070881588064504 -0.003524816475665755
          -0.0015282225745441396 -0.001522897380230973 -0.0015648015166768528 -0.0015533661445288542 -0.001528137950490127 -0.0015231019571895518
          -0.0015646827209053614 -0.0015532833895916976 -0.0015280533264361146 -0.0015233065341481306 -0.0015645639251338707 -0.0015532006346545407
          -0.0016353604742275953 -0.0015243665302150083 -0.0016209850642843794 -0.001635713500364856 -0.001525193050477278 -0.0016210672622016028
          -0.0016360665265021162 -0.0015260195707395472 -0.0016211494601188266 -0.0022182702994647183 -0.0022203518117071327 -0.0022224333239495475
          -0.0034013256813564623 -0.0032796198439400126 -0.0033971490334204824 -0.003275428909949492 -0.003392972385484502 -0.0032712379759589727
          -0.003174985956916629 -0.0029190030554263734 -0.0031729196846324143 -0.0029169162344726387 -0.0031708534123482 -0.002914829413518904
          -0.0023311512494747283 -0.0023310412612955176 -0.0023309312731163065 -0.0036431054285605484 -0.003639785216042321 -0.0036364650035240944
          -0.002554454593806238 -0.0027880939265251294 -0.002554904276015204 -0.0027851487767303743 -0.00255535395822417 -0.002782203626935619
          -0.0016004610104416457 -0.0015687431921596342 -0.0016000857943998875 -0.0015687052570011676 -0.0015997105783581288 -0.001568667321842701
          -0.0016278827650810985 -0.0016773556057257822 -0.00162799723974185 -0.001677388394758392 -0.0016281117144026015 -0.0016774211837910014
          -0.001744986499146779 -0.001954862038909274 -0.0018365950943069844 -0.0017444585670652337 -0.0019530321306190416 -0.0018347807075307931
          -0.0017439306349836881 -0.0019512022223288088 -0.0018329663207546018 -0.0021665169363904798 -0.0023518050490745155 -0.0021650067257035673
          -0.002350800969133159 -0.0021634965150166543 -0.002349796889191802 -0.001660365644683572 -0.0016833201379218574 -0.001659353729342227
          -0.001682479285254889 -0.0016583418140008823 -0.001681638432587921 -0.0020673665711332632 -0.0019418349465102802 -0.0020646577119953474
          -0.0019388226716202362 -0.0020619488528574315 -0.0019358103967301926 -0.001633255242153983 -0.00163350390785695 -0.001633752573559917
          -0.0021132709942788836 -0.002079270201526314 -0.002051452387022279 -0.0020672673080783417 -0.002110674652780999 -0.0020769446075390584
          -0.00204909905171194 -0.002064353742786302 -0.002108078311283114 -0.0020746190135518035 -0.0020467457164016004 -0.0020614401774942627
          -0.0019812665424639134 -0.001999380122661766 -0.0019798704921627818 -0.0019979784760539563 -0.00197847444186165 -0.0019965768294461467
          -0.0016108962976737844 -0.001610591772858632 -0.00161028724804348 -0.0020164428974240433 -0.0020132089466962143 -0.0020099749959683853
          -0.0024442907902910388 -0.002443499854359167 -0.0024427089184272965 -0.0022522309868884998 -0.0022545119420756864 -0.002256792897262873
          -0.002681003777756019 -0.0026794101097829316 -0.0026778164418098447 -0.002542797384248672 -0.0026552736772001147 -0.002541599841910243
          -0.0026524623022177378 -0.0025404022995718146 -0.0026496509272353605 -0.0027467336134682423 -0.0027443828873555736 -0.0027420321612429046
          -0.002537688511761527 -0.002538749143736662 -0.0025398097757117983 -0.0016880512028427856 -0.0016877319633816848 -0.0016874127239205842
          -0.0034281722183149136 -0.003427188540862765 -0.0034262048634106164 -0.0029832932729777573 -0.002913487609822394 -0.0029806454218494318
          -0.0029108595977964205 -0.0029779975707211054 -0.002908231585770447 -0.0034928687267956142 -0.003491646248152894 -0.003490423769510173
          -0.0028367489972292957 -0.0028343671391341707 -0.002831985281039047 -0.002785398967841866 -0.0027813277739490824 -0.002777256580056299
          -0.002531999034212881 -0.0025340341823277745 -0.002536069330442668 -0.002692053530468438 -0.002693574599833633 -0.002695095669198828
          -0.002603193257202718 -0.0026049088587776093 -0.0026066244603525006 -0.0018824722573277386 -0.0018720846962000154 -0.0018824818124030531
          -0.0018719286671973975 -0.0018824913674783676 -0.0018717726381947794 -0.0021721034893146442 -0.0020353775217854184 -0.0021690620375110123
          -0.002032301463211647 -0.002166020585707381 -0.0020292254046378752 -0.0022149764987202045 -0.0022127540750158403 -0.0022105316513114756
          -0.0015913498391216746 -0.001591387745472698 -0.001591425651823721 -0.0033396792331605463 -0.003337425067057463 -0.0033351709009543794
          -0.0019038202942960425 -0.002035149218400338 -0.0019041681291601265 -0.0020340265833999577 -0.00190451596402421 -0.0020329039483995776
          -0.0020362377378514507 -0.0020971042188295624 -0.00205385506381939 -0.0020338389807377367 -0.002095126019615051 -0.002051957408167643
          -0.0020314402236240228 -0.0020931478204005392 -0.002050059752515895 -0.002059472839491156 -0.002098088711292107 -0.00205683386506909
          -0.002095622241786388 -0.0020541948906470237 -0.002093155772280669 -0.0021425600420725208 -0.002140480551158853 -0.002138401060245186
          -0.002138607240770671 -0.0021361206212339346 -0.0021336340016971976 -0.002027565998942731 -0.0020244652449314914 -0.002021364490920252
          -0.0034303425623281193 -0.003427950138687008 -0.0034255577150458967 -0.001590457437053633 -0.001590172458344757 -0.001589887479635881
          -0.0015044860517606133 -0.001762330771642237 -0.0015049211726935695 -0.0017632530156922724 -0.0015053562936265257 -0.0017641752597423077
          -0.003238398314089868 -0.0032387746086956597 -0.0032391509033014515 -0.0027583143193427883 -0.0027932084957846062 -0.003028510190170772
          -0.0027560125534768416 -0.002791452346718018 -0.003027837185316084 -0.002753710787610895 -0.0027896961976514286 -0.003027164180461396
          -0.001810160363007902 -0.0019365813309677542 -0.0018113857365410324 -0.0019377558227949695 -0.0018126111100741625 -0.0019389303146221844
          -0.0033054838591925094 -0.0031945724862793273 -0.0033045620499290553 -0.003194790799648875 -0.003303640240665601 -0.0031950091130184223
          -0.002097253354484766 -0.0020982916647787715 -0.0020993299750727773 -0.003003262189988875 -0.002882583525545256 -0.0027910882030321733
          -0.0030041085158476737 -0.0028831825796910688 -0.0027918447293883257 -0.0030049548417064712 -0.0028837816338368816 -0.002792601255744478
          -0.0031938011183809895 -0.0031939058240275805 -0.0031940105296741714 -0.0034333769638433937 -0.0034769339909779626 -0.003428514829491063
          -0.0034713163054010216 -0.0034236526951387323 -0.0034656986198240806 -0.00315525943700365 -0.003141361254208566 -0.0031551212158361253
          -0.0031412975736709436 -0.0031549829946686016 -0.003141233893133321 -0.0033132168397253343 -0.0033108014748862947 -0.0033083861100472547
          -0.0032420207774500804 -0.0032406872621337074 -0.003239353746817335 -0.001967945647509595 -0.0019700483965289393 -0.001972151145548284
          -0.0020405342635341334 -0.0020415062410806695 -0.002042478218627206 -0.0023221950832976552 -0.0023230739367486796 -0.0023239527901997045
          -0.003053040526374327 -0.0030536322744923695 -0.003054224022610412 -0.0026139088268447783 -0.002700500890504361 -0.002613830669202798
          -0.0026984593210973495 -0.0026137525115608176 -0.002696417751690339 -0.0021182239284364083 -0.00203282106892104 -0.002120557483425955
          -0.0020355411174965894 -0.002122891038415502 -0.0020382611660721387 -0.001914955919412864 -0.0019172092048714397 -0.0019194624903300151
          -0.0017554825683486108 -0.0017629331690792024 -0.0017573332591545514 -0.001764316182677591 -0.0017591839499604919 -0.0017656991962759798
          -0.003234839191532635 -0.0032332144178305626 -0.0032315896441284893 -0.0025282460251061702 -0.0026438080564764846 -0.002527677528514721
          -0.002643495297479137 -0.002527109031923272 -0.00264318253848179 -0.003304828935797112 -0.0032062310715129704 -0.0033024722113806004
          -0.00320446808124477 -0.003300115486964088 -0.00320270509097657 -0.0017819993452671192 -0.0017830958802332636 -0.0017841924151994083
          -0.0031947307200913947 -0.0031941779651386334 -0.003193625210185872 -0.0022566883099814725 -0.002257964740156845 -0.0022592411703322175
          -0.0024048252783495402 -0.0024047095616945907 -0.0024045938450396407 -0.0034563135153227926 -0.003451500682801089 -0.003446687850279385
          -0.0033920553374571704 -0.0033886441393952632 -0.003385232941333355
        </DataArray>
        <DataArray type="Float64" Name="disp_x" format="ascii" RangeMin="0.000047493883879696465" RangeMax="0.00011049921951304721">
          0.00008942859774823355 0.00008891190973568375 0.00009258020837374488 0.00009391153443753951 0.00008942662182751614 0.00008890943746357833
          0.00009257591426639695 0.00009390804725599261 0.00008942209696639494 0.00008890092392399378 0.00009256311773204387 0.00009389759957070583
          0.00005432771495962896 0.000051790696020733253 0.000050742480763190336 0.000053245323348903184 0.000054332061904771444 0.0000517957449166123
          0.00005074838558696153 0.00005325024221789768 0.000054345185121519875 0.00005181153573722463 0.000050766311155747294 0.00005326596874205405
          0.00004863263958639831 0.00004863821658160423 0.000048655155495924175 0.000049763235613158444 0.00004976873924389153 0.00004978485488062009
          0.00009643628150520268 0.00009773540179298677 0.0000964309605035424 0.00009773065982643997 0.00009641440458961692 0.0000977166277921273
          0.0000856155777669455 0.00008446201581517831 0.00008866317654567421 0.00008871239885806582 0.00008561395216982958 0.0000844598137514699
          0.00008865988971201395 0.00008870916096698741 0.00008560915509020587 0.00008445474318565253 0.00008864969016308713 0.00008869930676184322
          0.00007493498306597714 0.00007422598250823281 0.000076901601587267 0.0000776804068390039 0.00007493666502238888 0.00007422809542480213
          0.00007690314653389234 0.00007768197325726213 0.00007494245211952472 0.00007423503909547436 0.00007690734671677377 0.00007768532003789123
          0.00006697534546590805 0.00006939579495390242 0.00007028531349810891 0.00006783234601009682 0.00006697837944875842 0.00006939875898874576
          0.00007028733589690645 0.00006783396205732698 0.00006698868052401163 0.00006940683588965959 0.0000702939865155183 0.00006783945428697936
          0.00008323481816975442 0.0000821782602126532 0.00008792043632791656 0.00008323321176835946 0.00008217684342628741 0.00008791880333616362
          0.00008322865387308492 0.00008217235243319892 0.00008791552586326479 0.00006375556250957524 0.00006731864170664771 0.00006852870930231742
          0.00006392356421626186 0.000063760567231246 0.00006732305216556603 0.00006853278805016271 0.00006392841387540538 0.00006377671058092737
          0.00006733464508952599 0.00006854821976014507 0.0000639406677947885 0.000059670244468833885 0.00005967592876619092 0.00005969312783342228
          0.00009110792213540041 0.00009487058465300012 0.00009110436004274106 0.00009486536071960345 0.00009109368712250254 0.00009485009035821783
          0.00008396783829873263 0.00008518339066530082 0.00008705628677026104 0.00008396778108318606 0.00008518299633963921 0.00008705552654028128
          0.00008396562685831072 0.00008518086356973884 0.00008705359340954708 0.00008623934999414598 0.00008281780167021589 0.00007987684858648788
          0.00008355590813957531 0.00008623837793963153 0.00008281844949321774 0.00007987738189746189 0.00008355569961294715 0.00008623590555080398
          0.00008282076937029022 0.00007987921275726241 0.00008355612401454382 0.00007943548285543249 0.00007945629739308846 0.00007639016248546827
          0.00007943637158360009 0.0000794576325367053 0.00007639156704041405 0.00007943844579917124 0.00007946198020027041 0.00007639492943234765
          0.00007940344497750834 0.0000811669578480322 0.00007902582912982985 0.00007940477594968745 0.00008116773207795073 0.00007902671843154972
          0.00007940992420106163 0.00008117119274091582 0.00007903014031495087 0.00007938777519998162 0.00007539102268660632 0.00007312953346205744
          0.00007617385378495473 0.00007938860544338373 0.00007539287025169589 0.00007313218190058108 0.00007617517060723909 0.00007939027030230574
          0.00007539714549777366 0.00007314117950699145 0.00007617886358153449 0.00006790477321143239 0.00006410108845212087 0.00006790870849016768
          0.00006410613770097489 0.00006791954668849415 0.0000641201294143675 0.00008859728905749176 0.00009298371065030552 0.00009265274828124498
          0.00008859399317666837 0.00009297953638535346 0.00009264867757274039 0.00008858391699535152 0.00009296725389408091 0.00009263568120838602
          0.00009526456771239068 0.00009270034259335844 0.00008936889420599106 0.00009145850789864329 0.00009525942369148747 0.00009269604656132075
          0.00008936576842458443 0.0000914547181101879 0.00009524457629079538 0.00009268373690188574 0.00008935575854577795 0.00009144291927955356
          0.00010333015415424196 0.00010084215781200624 0.00010332709570900593 0.00010083844632310005 0.0001033183551310508 0.00010082718628190741
          0.00009027800328364895 0.00009171998748618909 0.00009027755630387474 0.0000917183793650582 0.00009027601847288209 0.00009171270421092768
          0.000056487478962393194 0.00005645724316651223 0.00005648951384437232 0.00005645988615396396 0.00005649441683163478 0.000056467350319850385
          0.00010368413055486456 0.00010436426996085789 0.00010132567624072045 0.00010016710196771618 0.0001036789798426741 0.00010435957921043692
          0.0001013207236653949 0.00010016133233670814 0.00010366467054948519 0.00010434533202143791 0.00010130580264851104 0.00010014316666696638
          0.00008342488780294145 0.00008817900575674065 0.00008342324864163855 0.00008817659345739854 0.00008341859938055268 0.0000881695409911763
          0.00006949528328307962 0.00006618550514097296 0.00006949868738693241 0.000066190305588301 0.00006950922995492357 0.00006620394130856204
          0.00007228116390343368 0.00006822863832372676 0.00007228221515966944 0.00006823104674747317 0.00007228418865478392 0.00006823941008454875
          0.00009921328588991939 0.00009920902517920549 0.00009919563767431805 0.00010176812226825943 0.00010176543947782278 0.00010175673586030256
          0.00009274202188257179 0.00009721783026926405 0.00009739942879047796 0.00009295819229903001 0.00009273960715296116 0.00009721471060056135
          0.00009739633731933925 0.00009295506006801894 0.00009273135383610529 0.0000972060811775638 0.0000973864286832267 0.0000929449007713028
          0.00008455180319836701 0.00008161221174043296 0.00008061554725198204 0.00008455122247654117 0.0000816126555962495 0.00008061551671118958
          0.00008454959289790622 0.00008161362451753397 0.00008061550522518206 0.00007168345793032677 0.00007172521771415422 0.0000716861060102099
          0.00007172760758913513 0.00007169598061623265 0.0000717359567545247 0.00009677141005720718 0.00009676660460786611 0.00009675102258923895
          0.00006326228387586387 0.00006238141917527152 0.00006471516891210004 0.00006554465588307525 0.00006326270428652929 0.0000623825017383483
          0.00006471722193800953 0.00006554594763092785 0.00006326480856593558 0.00006238460056313559 0.00006472389890534492 0.00006554950605849168
          0.00008842026598644883 0.00008841803100287772 0.00008840889925035437 0.00009737089498462943 0.0000973674522172959 0.00009735537924587229
          0.00009272006056441883 0.00009271878092463622 0.00009271375364861622 0.00009534187227442928 0.00009787315516849763 0.00009533924994431011
          0.00009787004025040703 0.00009533088548651165 0.00009785985736804585 0.000098988350699629 0.00010071462500461028 0.00009898271402947279
          0.00010070996941051524 0.00009896421570590332 0.00010069588868993753 0.00007458164658165253 0.00007560680352537745 0.00007458213126815162
          0.00007560754700774155 0.00007458005702948485 0.00007560758724699686 0.00008891762872206461 0.00009252970016632416 0.0000889155510708288
          0.00009252574500485253 0.00008890851387877572 0.0000925140380679575 0.0000776147638538775 0.0000776158140891688 0.00007761868061015706
          0.00009609582155061258 0.00009869506565162047 0.00009609066502759054 0.00009868904733077849 0.00009607527091182194 0.00009866901317549478
          0.00008563677205864799 0.00008775474244201553 0.0000856367690006373 0.00008775326311150762 0.00008563635840446831 0.00008774779208079017
          0.00006970424760186845 0.00006970515468368093 0.0000697074312219517 0.00008355952672097074 0.00008355748899769069 0.00008355131501686626
          0.00008343643079312814 0.00008559417515588193 0.00008343728288552586 0.00008559418918941838 0.00008344039377862043 0.00008559380738241391
          0.00007393708481403056 0.00007393689698703274 0.00007393483766768215 0.0001015048898548528 0.00010150014258653268 0.00010148818365106185
          0.00007734919395963516 0.00007860526062464888 0.0000773484373410326 0.00007860481771960414 0.00007734481320645855 0.00007860170602276795
          0.00007631111043394054 0.00007201145192368918 0.00007631222465562895 0.00007201303779970064 0.00007631367066407319 0.00007201728876826247
          0.00008213065709446847 0.00008256048419730972 0.00008560858794907386 0.00008213147691514304 0.00008256146475241298 0.00008560841440293708
          0.00008213331105632266 0.00008256493087599097 0.00008560754817402307 0.00006721199267308588 0.00006368365818164643 0.00006410100224608408
          0.00006779244082720253 0.00006721536797316131 0.00006368939519314006 0.0000641071017423275 0.00006779546637977365 0.0000672249573039708
          0.00006370598888872447 0.00006412379405990258 0.00006780459784106012 0.00006104712131232847 0.0000608009319316534 0.000057493362735388614
          0.000057922167403217636 0.00006105056377261882 0.00006080286625555316 0.00005749625398833424 0.000057925206452898456 0.00006106022493264917
          0.00006080866568487416 0.000057505733493152364 0.000057935027051292494 0.00007251869861840012 0.0000725213316981018 0.00007252763335136339
          0.00006602333519176123 0.00006266666145745183 0.00006602767225299646 0.0000626734788037937 0.00006603970980498196 0.00006269362393295296
          0.00007590794345476996 0.00007466575316246099 0.00007590702083219951 0.00007466518938250477 0.00007590419691385978 0.00007466368064358721
          0.00006501205605415929 0.0000616786761442276 0.00006501715739338177 0.00006168540476255547 0.00006503163429162357 0.00006170632330852905
          0.00005802724288067857 0.00006124058678758716 0.000058031454964740856 0.00006124620005096232 0.00005804319056249307 0.00006126275074940292
          0.0000550667210200004 0.00005521252595106866 0.00005507084261260432 0.00005521640583984673 0.000055082315051923276 0.00005522777843922018
          0.00007992660146990809 0.00007992623904836446 0.00007992334394578058 0.00008387422289888868 0.00008387284369177423 0.00008386769765659883
          0.00006772147503731317 0.00006622809026883859 0.00006418418432794948 0.00006419783541220622 0.00006772540253520972 0.00006623173364100398
          0.00006418723036698562 0.00006420223728834812 0.00006773742330852906 0.00006624348377053219 0.0000641954783697908 0.00006421549492565482
          0.00007071419534344628 0.00007480564153334008 0.00007071434074512713 0.00007480504864254652 0.00007071554048566076 0.00007480287604992361
          0.00005723743965037077 0.00005686373473040644 0.00005902323963209269 0.000059491498696017536 0.00005723774329171561 0.000056864495418266655
          0.00005902390140533432 0.000059491688664218835 0.00005723848618733694 0.00005686703316080196 0.000059026545757714066 0.000059491314454997804
          0.000054886592479790295 0.00005263464631841291 0.000052926837554073054 0.000054890606106984506 0.00005263848732297008 0.00005293146742913041
          0.000054901498639450106 0.0000526503580583196 0.000052944398492836277 0.000057839032355913535 0.00005784492640392831 0.00005786168788146349
          0.00008672385378589177 0.00008964854083224947 0.00008672287073957575 0.00008964614943542257 0.00008671839077911674 0.00008963713880433688
          0.00007240345834631508 0.00006974232297471513 0.00007240588757062505 0.00006974595794567187 0.00007241232900060444 0.0000697561271585593
          0.00006450641895007475 0.00006451199127542206 0.00006452848134944739 0.0000790354620762014 0.00007903487248969483 0.00007903104047171238
          0.000060104067334347414 0.00006154518765559262 0.00006011212313837392 0.00006155277865425109 0.00006013751374304417 0.00006157719498344409
          0.00006116491347142163 0.00006174192589496258 0.00006116602593190321 0.00006174225435402658 0.0000611682608014099 0.00006174218849417214
          0.00006626998127635792 0.00006858252447872692 0.00006627078545520798 0.00006858361871373643 0.00006627256707871816 0.00006858560746263278
          0.00007093111169325712 0.00007281346412596189 0.00007333785957567804 0.00007093277160025322 0.00007281571537235888 0.00007333976035932921
          0.00007093599020432755 0.00007282297967738974 0.00007334483428528073 0.00007207326649742082 0.00007130853880627962 0.0000720761131924472
          0.00007131193190516547 0.00007208392576647763 0.00007132110931943576 0.00006027519541167009 0.00005890313143643374 0.00006027682346881767
          0.000058905695832778874 0.00006028079221659999 0.00005891309553194534 0.00007560922598184866 0.00007584383314859138 0.00007561137630126721
          0.00007584520106580504 0.00007561665727650746 0.00007584953859154528 0.00005685990523343084 0.00005686321303977233 0.00005687277821344095
          0.00009427127420691427 0.00009726624252479015 0.0000972517692246557 0.00009447943378434039 0.00009427135851191832 0.00009726464034637217
          0.00009725064059692432 0.00009447923052189813 0.00009427003550240141 0.00009726072369089341 0.00009724756542939589 0.00009448153440656226
          0.00009998143222650704 0.00010003855038359976 0.00009997929136593274 0.00010003658551842605 0.0000999734653971208 0.0001000301926758968
          0.000057988897189958876 0.000057991544339089836 0.00005800009491267863 0.0000784352812925032 0.00007843606197426638 0.00007843703866418558
          0.00006778332805355092 0.00006778760424755666 0.00006779905375395164 0.000055921728836528194 0.00005592741168180567 0.000055941711463108024
          0.00006837414452785407 0.00006837837789648071 0.00006838945718358713 0.00007089956964577975 0.0000736662584998183 0.00007090349020698246
          0.00007366920497498393 0.00007091470123427775 0.00007367856683311073 0.00007139570027283732 0.00007139971603695951 0.00007141188512266078
          0.00010298112000196612 0.00010297603476680297 0.00010296044595615352 0.000052606892037013386 0.00005261187587941461 0.000052626452440959197
          0.00007909217451969621 0.00007909167420528034 0.00007908694202143676 0.000060136938887172206 0.00006057543199025194 0.00006014293325510129
          0.00006058207692211017 0.00006016041948920013 0.00006060279553605989 0.00007893981686562282 0.0000789392540919724 0.00007893401697289102
          0.00006110632482311561 0.00006111449300023583 0.00006114002161888271 0.00007338484778168792 0.0000733882317372897 0.00007339809866284725
          0.00005849896946632312 0.000058506888879287 0.00005852925213374134 0.00010548971618649838 0.00010548876425821288 0.00010548070071548763
          0.00010452687599404528 0.00010452392380773814 0.00010451529561149699 0.00010273077697228924 0.00010262516315159532 0.00010272793854860868
          0.00010262260326239256 0.0001027191200715099 0.00010261426567416095 0.00008241919502513071 0.00008104890107763812 0.00008242011121772119
          0.00008104998572040587 0.00008242183351193806 0.00008105341274195521 0.0000944889061095253 0.0000944874197998291 0.00009448354891316027
          0.00006399209819387119 0.00006399305488959898 0.00006399415228842556 0.0000718742138263561 0.00007187409716941302 0.00007187459232688936
          0.0001030292656054034 0.00010031166780575317 0.00010302548798713755 0.00010030893745573696 0.00010301587791812599 0.00010030094012401414
          0.0000863728478860698 0.00008710948586399256 0.00008905033771578422 0.00008637302515891555 0.00008710972690159142 0.00008905069765688782
          0.00008637412425002665 0.00008710837681457884 0.00008905209673258918 0.00009173877149265814 0.00009228101469786163 0.00009173898405829811
          0.00009228124172320323 0.00009174108849333999 0.00009228146396486369 0.00009754663225895804 0.00009754493476176459 0.00009753846726160629
          0.00008547565040502415 0.00008547522865845761 0.0000854751022076175 0.00008369603472360978 0.00008369694657666165 0.00008370004858479465
          0.00007137136744261459 0.00007137179283042103 0.0000713717572575157 0.00005842121315486931 0.000058423635651663256 0.00005843032970042864
          0.000047493883879696465 0.00004964372173778971 0.00004749976721715103 0.000049649552975709614 0.00004751602685481576 0.00004966683562328717
          0.0000875838430368688 0.00008758303342855989 0.0000875803370420143 0.000056296465634723864 0.000055971251205694236 0.00005928024973702109
          0.00005630266639393483 0.000055977219327379395 0.000059286375044145636 0.00005632143292850794 0.00005599478815687243 0.00005929946559375502
          0.00010611303619776006 0.0001043299375021532 0.0001061105558169932 0.00010432676569041448 0.0001061031532297951 0.0001043174588941073
          0.00007986629891580506 0.00008362827023092365 0.0000798647931732727 0.00008362733628038145 0.00007986059912112337 0.00008362445927139874
          0.00010263139679059268 0.00010262695546961389 0.00010261340509952995 0.00010170402054296054 0.00010632571998795024 0.00010605526381608232
          0.00010170198037016617 0.00010632454610890452 0.00010605246576522366 0.00010169508799406827 0.00010631959018473069 0.00010604506990502569
          0.00009343184953645005 0.0000934307420440676 0.00009342670931039027 0.00006457344623517013 0.00006579634724235251 0.00006457795044199139
          0.00006579939735634059 0.00006459005814064566 0.00006580855368870425 0.00009714716099639469 0.00009767619639878893 0.00009714519086177896
          0.00009767549277479614 0.00009713799449069994 0.00009767244235051639 0.00006298514890475225 0.00006299017556966082 0.00006300755463946896
          0.00007680015456474799 0.00007679907825602897 0.0000767963621296647 0.00010563786664904953 0.00010563441848420696 0.0001056237782091998
          0.00005211016316746612 0.00005211670660067223 0.000052136541390308754 0.00005471113705496295 0.00005471774072258479 0.00005473740570766329
          0.00010133990868980373 0.00010133805221718566 0.00010133137007707365 0.00005748500952219978 0.00005679708050206981 0.00005749191318065034
          0.00005680393076159971 0.000057512704160167086 0.00005682502041972647 0.00010688982573468856 0.00010642958865536885 0.00010688607600101293
          0.00010642616163789064 0.00010687444355749166 0.00010641468469947354 0.0001081144277833918 0.00010811214029555993 0.00010810567555972148
          0.00010514606940693464 0.00010525089456421742 0.00010514125958989353 0.00010524889096442002 0.00010513531201759354 0.00010524179323780804
          0.00007267651407305898 0.00007267638520593275 0.00007267459339754389 0.00010955297898177071 0.00011049921951304721 0.0001095506930853483
          0.00011049720557824072 0.00010954469705337068 0.00011049068015476617 0.00006830361762128251 0.00006919155688152331 0.00006830402799474185
          0.0000691915766762302 0.00006830529704028377 0.00006919160016977652 0.00010546117613657318 0.0001054598115167108 0.00010545270643654718
          0.00006186699519667562 0.00006187252525769238 0.00006189009824597905 0.0001075786653106273 0.00010757504414112344 0.00010756327973679184
          0.00010843475946196167 0.00010843170969679946 0.0001084229346790706 0.00006684544143151714 0.00006684718201627067 0.00006685062597557344
          0.0000676633965935542 0.00006766387480779321 0.00006766534227494764
        </DataArray>
        <DataArray type="Float64" Name="disp_y" format="ascii" RangeMin="-0.00004503214797601751" RangeMax="-0.000012558265273760136">
          -0.00004004694932333992 -0.00003853115843969742 -0.00003703042673705951 -0.0000378396446338213 -0.00004005152658855963 -0.00003853526719661515
          -0.000037033403558291225 -0.000037842528898008216 -0.00004006492815993865 -0.000038548074756086796 -0.00003704359619111978 -0.00003785077719688456
          -0.000031777764281731995 -0.00003082350029979619 -0.000029697816963129905 -0.000030428195050387114 -0.00003177947744730778 -0.000030824534513202825
          -0.000029698935126134224 -0.00003042959848608234 -0.00003178492240405672 -0.00003082777209390324 -0.00002970210019275645 -0.000030434250456774844
          -0.000029023336293389044 -0.00002902431398994938 -0.00002902778424477975 -0.000030046732197814268 -0.000030047562737605346 -0.00003004981204939584
          -0.00003518952482812538 -0.000035878084747333315 -0.00003519173017770344 -0.0000358800649537009 -0.00003519789738236316 -0.0000358857328863143
          -0.000029696156399777588 -0.000027597423950332207 -0.000026879412380994212 -0.00002834605542870605 -0.000029697074075960634 -0.000027597659025380356
          -0.000026879300444553965 -0.000028346213187061767 -0.000029699662317380954 -0.000027598593341052176 -0.000026879349457240493 -0.00002834711094448647
          -0.00004235926978820803 -0.000041101871861925095 -0.000041137365702359857 -0.000042348783240030906 -0.00004236429966066724 -0.000041106668741229774
          -0.00004114235173868851 -0.000042354202384583025 -0.00004237835792764539 -0.00004112174188818511 -0.000041159018178387584 -0.00004236826604148809
          -0.000040661145055872596 -0.00004142334108778766 -0.000042553388001033135 -0.00004165361332531852 -0.00004066462493071706 -0.00004142760283209011
          -0.000042558611107528427 -0.00004165743423498512 -0.00004067511721101477 -0.000041440309810102394 -0.00004257487551081908 -0.00004166934555084642
          -0.000018073827645040272 -0.00001609277726958131 -0.000017713359548915568 -0.00001807184559843652 -0.000016091031845427464 -0.00001771165488697132
          -0.00001806564297656329 -0.000016085934403298242 -0.00001770643467696004 -0.00002598957199587466 -0.00002630535612633189 -0.00002795037551101889
          -0.000028069573348807733 -0.000025991080354887575 -0.000026306377727043574 -0.000027951910308839102 -0.000028070647127354433 -0.00002599441909430104
          -0.000026311887908019268 -0.000027956436758023697 -0.00002807448325917601 -0.000026439757470789155 -0.000026440994957856637 -0.000026443128884861545
          -0.000036064803076768326 -0.00003432519530683882 -0.000036067692263072304 -0.00003432717154657514 -0.000036076294350435124 -0.000034333761859958026
          -0.00004227473695756811 -0.0000407916881517283 -0.00004201140794258875 -0.00004228025692192261 -0.00004079660066618199 -0.000042016537732197114
          -0.00004229546707742874 -0.000040813301485456856 -0.00004203134109097758 -0.00003442784505948931 -0.00003603581752037602 -0.00003493512771252309
          -0.00003352070300715314 -0.00003443022186072142 -0.000036038560430884225 -0.00003493770897438058 -0.00003352289500908577 -0.00003443789624351582
          -0.000036047439865696556 -0.00003494587927178386 -0.00003352968738016573 -0.00003969135014106871 -0.00004102350859970974 -0.00003985992327726391
          -0.00003969592018244009 -0.00004102834626962325 -0.00003986502913947179 -0.000039709317404884035 -0.000041044057661060173 -0.00003988084159648646
          -0.00004192115343205143 -0.00004223584929286465 -0.000043566942174877703 -0.00004192643386978725 -0.000042241227320796034 -0.00004357325482628062
          -0.000041941725259448184 -0.00004225639962500573 -0.000043591900628643735 -0.00003787200637294462 -0.00003857821600900187 -0.00003735149671668442
          -0.000036245394374474954 -0.000037875737696285025 -0.0000385824815153293 -0.00003735498848010059 -0.00003624854626904843 -0.0000378866408566153
          -0.000038593967585759814 -0.000037365294031634996 -0.000036257403227625655 -0.000030124370957579533 -0.00002987461578012795 -0.00003012641815914908
          -0.000029876476591762196 -0.000030130957219011792 -0.00002988061893771744 -0.00002471992514934247 -0.000024689178125675492 -0.000026787393548055218
          -0.00002471967340106121 -0.000024688989346698504 -0.000026787343625163547 -0.000024718338925691653 -0.000024688513580830842 -0.00002678690882719951
          -0.000029131506614642428 -0.0000310099336777573 -0.00003041175470155433 -0.000028679790935485642 -0.000029131714715972816 -0.00003101047961518707
          -0.00003041248667574469 -0.000028679952159506226 -0.000029132588410819836 -0.00003101255929481248 -0.000030414510077499848 -0.00002867964756260768
          -0.000035257863496873205 -0.000036070076881545345 -0.000035257636768778756 -0.00003607030657861218 -0.00003525667610513965 -0.000036070250121338726
          -0.000041675602887243685 -0.0000400666517342653 -0.000041680373999784105 -0.00004007019069403615 -0.00004169398100595888 -0.00004008254992549306
          -0.00003550611420403039 -0.00003529882559936247 -0.00003550614759360306 -0.00003529914084697478 -0.00003550550541229271 -0.000035299794335697216
          -0.00003168017885681048 -0.0000324550522458094 -0.000033999261981326855 -0.00003331953072557273 -0.0000316817688013283 -0.00003245627043448078
          -0.00003400049497175821 -0.00003332133514268999 -0.00003168657206274599 -0.000032459272998693207 -0.000034003550593555455 -0.00003332649395265756
          -0.00002035598410598465 -0.000020083366483678854 -0.0000203543213734408 -0.00002008205899555737 -0.00002034815470258245 -0.00002007814799035685
          -0.00002502165942595472 -0.000024195927212790015 -0.000025022177919806277 -0.000024197148589166462 -0.00002502437778952818 -0.00002420084411302929
          -0.000022937131754829222 -0.00002234369775403537 -0.000022936952376817212 -0.00002234412412901783 -0.000022935500883300642 -0.000022344131208822573
          -0.00003616907531343256 -0.00003616992191194008 -0.000036172984151648066 -0.00002292799629486304 -0.000022929016822147144 -0.000022931527053962188
          -0.00002005139555950446 -0.000020347076348368098 -0.00002263433592067638 -0.000022337597788349044 -0.000020051015476122023 -0.00002034724769076339
          -0.00002263486153445958 -0.000022337544008866285 -0.00002005040551590435 -0.0000203481929480243 -0.000022636096358180578 -0.000022337087799903483
          -0.00003144153550179687 -0.000032311819798898135 -0.00003068098763054098 -0.000031443376704115476 -0.00003231403467334406 -0.00003068277219837342
          -0.00003144824965666223 -0.000032320385577083834 -0.00003068855007492704 -0.00002878719018994307 -0.000030274508533319335 -0.000028788593988351174
          -0.00003027679204350183 -0.000028793187817068847 -0.000030286114240756582 -0.000027125193426883155 -0.000027125477823043497 -0.000027125994696704346
          -0.00003953579506291401 -0.000038664662999527405 -0.000039736459509518544 -0.000040647951922243314 -0.00003953787231703687 -0.00003866654616258036
          -0.00003973901976694963 -0.000040650707076092764 -0.00003954411393700862 -0.0000386726128681587 -0.00003974644649500092 -0.00004065812220003927
          -0.000022366357535375084 -0.00002236580496602665 -0.000022363638198494044 -0.000024953835854692528 -0.00002495453481395735 -0.00002495587061959619
          -0.000017844863015565194 -0.000017844032154357926 -0.00001784100171050322 -0.000038471982630533526 -0.00003770500199024255 -0.00003847427356035137
          -0.00003770621469501445 -0.00003848042299168801 -0.000037709688277478415 -0.00002961195070114777 -0.000027470408563863625 -0.000029612342320641824
          -0.000027471455446780033 -0.000029612903176531797 -0.000027473778941273427 -0.000027899834980002175 -0.000029773311520335255 -0.000027901190294225865
          -0.000029775925977815613 -0.000027904381157178715 -0.00002978419915776929 -0.000035221590198779105 -0.00003349576303136425 -0.00003522409839439946
          -0.00003349758011569496 -0.00003523113710269968 -0.000033503159205037155 -0.00003341050155348418 -0.00003341351125417069 -0.000033421470830605126
          -0.000031623190362487016 -0.00003242835747357567 -0.000031624302556781374 -0.000032429956485691435 -0.000031626747062456966 -0.00003243523287504763
          -0.00003678535648443816 -0.00003751953205694387 -0.000036788476992593705 -0.00003752320332723423 -0.00003679703220652766 -0.00003753352989820843
          -0.000020345386092833034 -0.000020344429473287415 -0.000020341271918320028 -0.000022865695382056474 -0.000022864783331042822 -0.000022862280988885113
          -0.00003820265746613515 -0.000038391163033948204 -0.00003820668558622908 -0.00003839529142566796 -0.00003821848336299408 -0.00003840676369544302
          -0.00002064320374464075 -0.000020642035942189376 -0.000020637631119879982 -0.00002523144413571706 -0.000025232254939950127 -0.000025236745281524595
          -0.000023806389683255464 -0.000020718472928606155 -0.000023805895332946132 -0.000020716873738902033 -0.000023803932737908173 -0.000020711870300259365
          -0.00003168738075701871 -0.000032168891817952814 -0.000031690479681794946 -0.000032172191454826 -0.00003169946761730732 -0.000032181786985006014
          -0.00004098900187922869 -0.00003962080735468849 -0.000039394100691440465 -0.00004099421233003601 -0.00003962560275601633 -0.00003939891060882383
          -0.0000410088789522019 -0.000039639154534813275 -0.000039414212705534134 -0.000033661066698531675 -0.000032865366919359484 -0.00003150940502798217
          -0.00003199173081849458 -0.00003366461738626584 -0.00003286862071792226 -0.000031511831091713065 -0.00003199442144270518 -0.00003367650189618594
          -0.000032878698631724506 -0.00003151870880896087 -0.00003200174422178639 -0.00003655978048217725 -0.000037287439839323875 -0.000035305177158402384
          -0.00003496168094485951 -0.000036562101473757904 -0.00003728915936807371 -0.00003530625900347357 -0.00003496328035267752 -0.000036568738179610834
          -0.000037294389294096775 -0.00003530979551695896 -0.000034967931500168685 -0.000026232403894033567 -0.00002623380012561588 -0.00002623590378039857
          -0.00003504969565659225 -0.00003390218721986367 -0.000035053786757637146 -0.00003390585182525986 -0.00003506577458978227 -0.000033916502929556696
          -0.00001608205999177397 -0.000014531091702288756 -0.000016079709261321654 -0.000014528554387609118 -0.000016073339678383227 -0.000014521413745593457
          -0.00003617187964881218 -0.000034813973466884434 -0.0000361760038748806 -0.000034817726328572505 -0.00003618806856023394 -0.00003482905898524544
          -0.00003422943815539134 -0.000035738866637695346 -0.00003423153502166241 -0.00003574234054814065 -0.00003423745929340782 -0.0000357518179023373
          -0.00003287374736980375 -0.00003353580598063126 -0.000032875503285373276 -0.000033537173404428384 -0.000032880422662523264 -0.00003354146883268313
          -0.0000286863082440763 -0.000028687724762142745 -0.000028690799023959805 -0.00002536271141138813 -0.000025362936651919707 -0.00002536319637846644
          -0.00003983234837924283 -0.00003981631674945096 -0.0000388669043103961 -0.00003810330663482849 -0.00003983624879653708 -0.00003981982699025486
          -0.0000388699198561834 -0.000038106930468753333 -0.000039847744490447155 -0.0000398296618744413 -0.000038878977861367674 -0.000038117810014308145
          -0.00001830053251502981 -0.00001843867936490543 -0.00001829887130348286 -0.00001843699624275931 -0.000018293221552570116 -0.000018431338831246423
          -0.0000363434014322454 -0.00003592425836522819 -0.00003720140366743542 -0.000037670561944318406 -0.00003634228353457828 -0.0000359236387736934
          -0.000037201823478344316 -0.00003767042445304267 -0.000036338898324217656 -0.00003592155492246332 -0.00003720294582928046 -0.000037670849190740096
          -0.00003379354167655347 -0.00003247327470504027 -0.000032316664395808776 -0.00003379460207862372 -0.0000324737131404911 -0.00003231760960837429
          -0.000033797546725405164 -0.0000324753753131828 -0.00003232081955608272 -0.0000329746847790525 -0.00003297709582947165 -0.00003298379222607038
          -0.0000320170247656592 -0.00003278047840425997 -0.00003201884158521979 -0.00003278217060621983 -0.00003202352070732395 -0.00003278668623464115
          -0.00003448239569328145 -0.00003617117832195528 -0.00003448586388613582 -0.000036174926823058665 -0.00003449564206358853 -0.000036185901798181716
          -0.0000372042851332441 -0.000037208564368566685 -0.00003722109324160971 -0.000026480419922781742 -0.00002648099510267951 -0.000026482386791264265
          -0.00003261890338477788 -0.00003225382808020542 -0.000032621774570313994 -0.00003225709816414815 -0.00003262855967049694 -0.000032266879252610816
          -0.0000384228841408886 -0.0000389883367940269 -0.00003842467126737062 -0.000038989893367705634 -0.00003842994602582419 -0.00003899480942438006
          -0.00004144016599158075 -0.0000425378420487593 -0.00004144318526649346 -0.00004254230803591879 -0.00004145236528291757 -0.00004255516596627054
          -0.00004349547077928201 -0.00004321799496946082 -0.00004425560976038094 -0.00004350178624722209 -0.00004322403830547659 -0.00004426268835579642
          -0.00004352066509110222 -0.0000432420998196725 -0.000044285615814654045 -0.000042009671181154245 -0.00004069757066866449 -0.00004201470221603981
          -0.00004070220756301485 -0.00004202837815068854 -0.00004071614343996239 -0.00003764834303487507 -0.0000366238058314832 -0.00003764979917931394
          -0.0000366249236397542 -0.000037654410584443434 -0.00003662714334226371 -0.00004362287292842246 -0.000044775812358455716 -0.00004362940853211188
          -0.000044783522418653694 -0.000043648954580650405 -0.0000448085048539543 -0.00003530291257478491 -0.0000353037190576535 -0.00003530518658150553
          -0.000040445018617527384 -0.00003907745239249879 -0.00003959176397101527 -0.000040902679235096664 -0.00004044811040568959 -0.00003907868661341663
          -0.0000395924449865709 -0.000040904600126551216 -0.00004045549173005453 -0.00003908231089527662 -0.000039595573830011336 -0.00004091169174268821
          -0.00003823564621733418 -0.00003774957667446109 -0.000038235619154252915 -0.000037749534860093716 -0.000038235710575184416 -0.00003774936343866238
          -0.00003622953784551066 -0.00003623038672537871 -0.0000362324062223957 -0.00004499872000758104 -0.000045006899394956476 -0.00004503214797601751
          -0.00003847927665758996 -0.00003848353446926734 -0.00003849610372119291 -0.00003101803981481276 -0.00003102073739466301 -0.00003102824778612945
          -0.000037341881726236966 -0.0000373462820660247 -0.00003735882202038978 -0.0000394012559723912 -0.00003984487662576741 -0.00003940618361964067
          -0.0000398498077734138 -0.00003942033018160628 -0.00003986543512387186 -0.00003830915451388666 -0.00003831372681882262 -0.000038326393478119145
          -0.00003012633260569909 -0.00003012785724359883 -0.00003013254419725991 -0.00003174610821488659 -0.00003174749549317826 -0.00003175041860130776
          -0.000016896831617423144 -0.0000168951931501576 -0.00001688903023619208 -0.000028085552641213485 -0.000029740086027207574 -0.000028087353245244837
          -0.000029742664384057587 -0.000028092599866573882 -0.000029750475232132555 -0.000018420836618843203 -0.000018419170517604185 -0.000018413501684381034
          -0.000031230081735213206 -0.000031233609929210894 -0.000031242105286834315 -0.000038908821702633664 -0.00003891352858097866 -0.00003892645419139534
          -0.00003120154046672574 -0.000031204447247374526 -0.00003121368700745189 -0.000025252215398958572 -0.000025253985316518433 -0.00002525931070372503
          -0.00002748925834983475 -0.000027491022810568245 -0.000027495966778383244 -0.00003640944223482134 -0.00003687718870377049 -0.00003640950200854091
          -0.00003687614970770012 -0.00003640840525252934 -0.00003687467832480357 -0.00004366208809098164 -0.00004494341864986878 -0.00004366910078682664
          -0.00004495244177405205 -0.00004369100297200394 -0.00004498247226890524 -0.000039754220791365726 -0.00003975693996313017 -0.00003976543610554603
          -0.000040252066423281074 -0.00004025470549017346 -0.00004026206036976737 -0.00001449304560122532 -0.0000144905101313243 -0.000014483335020892764
          -0.00003580087722613737 -0.00003708065918853816 -0.00003580070769241081 -0.000037080606499376245 -0.00003580016036169664 -0.00003708037055837897
          -0.00004400529416491557 -0.00004314441486373531 -0.00004314011704138699 -0.00004401202826565479 -0.000043150565239707625 -0.00004314598194854633
          -0.0000440381904840914 -0.00004316968912679218 -0.00004316199507038656 -0.000042124904252092866 -0.000041409345381572046 -0.000042129625516137127
          -0.00004141342332370241 -0.00004214925140269961 -0.000041426200521433686 -0.000038375869490661956 -0.00003837710139908849 -0.000038381592964825384
          -0.000043350887105542775 -0.000043357542921117824 -0.00004337542210302362 -0.000044569390607177747 -0.000044577178802754345 -0.0000446011242815049
          -0.00001631441711364635 -0.00001631264902189018 -0.000016306360280674922 -0.00003664626391697533 -0.00003664723625601836 -0.000036648856169409964
          -0.000027960936366017753 -0.000028491758449311272 -0.000027962165274628497 -0.000028492928914963786 -0.000027965442825659463 -0.00002849605295966504
          -0.000015043029094911772 -0.000015041259912910109 -0.000015036391700853156 -0.000026581952728125716 -0.000025079940987457183 -0.000024892378241449454
          -0.000026583505081970927 -0.00002508151638205268 -0.000024893942998357207 -0.000026589546390583442 -0.00002508469037698687 -0.000024897903340767076
          -0.00003373943141458003 -0.0000341029198305295 -0.00003373933672019987 -0.000034103105915334177 -0.000033739000573431896 -0.00003410309186046892
          -0.00001447804783205222 -0.000013139558985583943 -0.00001447582608570483 -0.000013137509369968555 -0.0000144696276817953 -0.0000131309792406045
          -0.000034291184466833966 -0.00003429170234470971 -0.00003429363049245672 -0.000020613040926898806 -0.000020693272213312645 -0.000023020147130280324
          -0.000020613884089727852 -0.000020694569100788317 -0.000023021771296071925 -0.000020616111203775894 -0.000020698032775107434 -0.00002302682801577969
          -0.000015810833122485333 -0.00001580956061718265 -0.000015805596527613312 -0.000021944074359536305 -0.00002014173197459925 -0.000021945038041986103
          -0.000020141512639064 -0.000021948129741762815 -0.000020140286408755572 -0.00001827103103587738 -0.000016504646583917883 -0.000018270878171775135
          -0.000016504314006780233 -0.0000182704476644709 -0.000016503358622113205 -0.000023608124929482295 -0.0000236093664794654 -0.00002361567998689647
          -0.000012961416186905451 -0.000012958465844302109 -0.000012948952286412043 -0.00003260576920419022 -0.000032606495588868784 -0.00003260885744592807
          -0.000029048047421266096 -0.00002904988670995573 -0.000029054845304560733 -0.000029458212299152567 -0.000029461087078116695 -0.00002946958870160374
          -0.000018470245590465242 -0.00001847082062822518 -0.000018473184354947497 -0.00002965196358612616 -0.000028091581062728446 -0.000029655037445784598
          -0.000028094170439024794 -0.000029666132767002318 -0.000028101518568469277 -0.000030506103378234666 -0.00003139679214449127 -0.00003050814511211855
          -0.00003139792670697213 -0.00003051459428281452 -0.000031402148399982924 -0.00003103924625738419 -0.00003104017010341017 -0.0000310426631564033
          -0.00003556292142860756 -0.000035138474035923546 -0.000035563809837469204 -0.00003513787138570682 -0.000035562437016961785 -0.000035135550435357865
          -0.000012789329506882994 -0.00001278645253580225 -0.000012777218390146087 -0.000025018189736959342 -0.000022850386636789912 -0.000025019969136684456
          -0.000022852432979501893 -0.00002502474685173988 -0.000022858933998790883 -0.000014477418907571036 -0.00001256830644063785 -0.000014475154636454755
          -0.000012565789168697617 -0.000014468608480042054 -0.000012558265273760136 -0.00003462039090879335 -0.00003461968597792521 -0.00003461914453319974
          -0.000024768233728935448 -0.00002476987859773341 -0.000024774044189209722 -0.000028979224638202772 -0.00002898185154180153 -0.00002899017342283397
          -0.000027098836554982788 -0.00002710098806358314 -0.00002710765373154895 -0.00001824092337726959 -0.000018239991069476482 -0.000018235968490375483
          -0.000016350824652335518 -0.000016348870052492017 -0.00001634301287765149
        </DataArray>
        <DataArray type="Float64" Name="disp_z" format="ascii" RangeMin="-0.0000012343529305159506" RangeMax="0">
          0 0 0 0 -4.447685410536557e-7 -4.861845908465103e-7
          -4.770758937956007e-7 -4.4052110920032454e-7 -8.88899565473843e-7 -9.711340962733046e-7 -9.535237474941096e-7 -8.803857377028802e-7
          0 0 0 0 -3.505249696905158e-7 -3.1861336690238e-7
          -3.2232426487410174e-7 -3.626913811503754e-7 -7.010446675601117e-7 -6.36667911648834e-7 -6.445569549364217e-7 -7.250753906394346e-7
          0 -2.8433881134018573e-7 -5.691746824965731e-7 0 -2.8394038431150706e-7 -5.686574781635397e-7
          0 0 -4.585166276849169e-7 -4.2646396829771923e-7 -9.164271891133821e-7 -8.529768663489751e-7
          0 0 0 0 -5.854217625827545e-7 -5.933932463308541e-7
          -5.785835569843004e-7 -5.742687340835595e-7 -0.0000011695016677808255 -0.0000011859779441474915 -0.0000011562548078118348 -0.0000011472776553844695
          0 0 0 0 -4.0351858808128437e-7 -4.296760888122673e-7
          -4.4209654343259177e-7 -4.1332772790220944e-7 -8.060782505531651e-7 -8.592500126607316e-7 -8.84212605013082e-7 -8.265554904938698e-7
          0 0 0 0 -3.433143338499596e-7 -3.6567051334112375e-7
          -3.3591774966484574e-7 -3.2057604114697267e-7 -6.866997193598181e-7 -7.309016034922426e-7 -6.716171806309924e-7 -6.412175263094301e-7
          0 0 0 -5.644807049500014e-7 -5.559176376293336e-7 -5.580654701203905e-7
          -0.0000011292811474317175 -0.0000011120530083871344 -0.00000111605451532633 0 0 0
          0 -5.539967281659547e-7 -5.754588012346045e-7 -5.74135788467413e-7 -5.409383596356222e-7 -0.0000011080019355719234
          -0.0000011496495032605512 -0.000001147795954220365 -0.0000010816997289881764 0 -5.108140396034069e-7 -0.0000010213637469901807
          0 0 -5.114718863008178e-7 -4.969269794687649e-7 -0.0000010215392010064579 -9.927038494627895e-7
          0 0 0 -4.2208174956641514e-7 -4.529814269738829e-7 -4.0496138029479804e-7
          -8.429770682860121e-7 -9.055788070091911e-7 -8.096092252501666e-7 0 0 0
          0 -5.541914604404517e-7 -5.364825907095723e-7 -5.478084437419394e-7 -5.647857701517657e-7 -0.0000011069880634240147
          -0.0000010724185157235803 -0.000001095260220010814 -0.0000011287355580736882 0 0 0
          -4.795006800308418e-7 -4.524913832059612e-7 -4.761965953709329e-7 -9.58665158597731e-7 -9.049251635770378e-7 -9.509528504950907e-7
          0 0 0 -4.255390698390473e-7 -4.312143001998469e-7 -3.9350658430894106e-7
          -8.500264118182781e-7 -8.614345459073608e-7 -7.859150809766507e-7 0 0 0
          0 -5.115826042342385e-7 -4.987668994129154e-7 -5.030181566696884e-7 -5.304217632376023e-7 -0.0000010227667508354947
          -9.957061277591977e-7 -0.0000010047576973743126 -0.0000010600576032767147 0 0 -5.566825370122008e-7
          -5.374232029882896e-7 -0.0000011126766034753207 -0.0000010737810855327313 0 0 0
          -5.783165261290668e-7 -5.495825042833664e-7 -5.507479007077065e-7 -0.000001155635734222238 -0.0000010992221303931836 -0.0000011009132935452133
          0 0 0 0 -5.304324524083037e-7 -5.411355758771347e-7
          -5.681218156585906e-7 -5.572895372512523e-7 -0.000001060175390161105 -0.0000010812712977626904 -0.0000011348979976486514 -0.00000111386176045916
          0 0 -3.483304973601043e-7 -3.6802570663079045e-7 -6.975348062256975e-7 -7.359398676944508e-7
          0 0 -3.8796030885365155e-7 -4.2597410532137294e-7 -7.746452451812839e-7 -8.524025424619539e-7
          0 0 -2.8474031220910725e-7 -2.898239266016556e-7 -5.699320003390187e-7 -5.800329011202451e-7
          0 0 0 0 -3.9590017103151156e-7 -3.752037415308314e-7
          -3.98970917552806e-7 -4.256571224333109e-7 -7.921440249797976e-7 -7.513879947525168e-7 -7.98127286826247e-7 -8.517618095721655e-7
          0 0 -5.8530781409532e-7 -5.70694459952469e-7 -0.0000011698095850450062 -0.0000011408933639734189
          0 0 -5.982722180470954e-7 -5.84837575197819e-7 -0.000001194983270220445 -0.0000011688007584939375
          0 0 -6.117113559481951e-7 -5.986845417586045e-7 -0.0000012216432331544534 -0.0000011955954721666683
          0 -3.9622223826372456e-7 -7.92275051816508e-7 0 -4.994038785185167e-7 -9.988560665729589e-7
          0 0 0 0 -5.508731140821915e-7 -5.293977892021893e-7
          -5.242390549145077e-7 -5.49551051034227e-7 -0.0000011013719448710449 -0.0000010587800849888605 -0.0000010487098692314091 -0.000001099057311187805
          0 0 0 -5.780565813791302e-7 -5.713237773583415e-7 -5.851669646850133e-7
          -0.0000011548781086689196 -0.0000011419949525964708 -0.0000011696059094617203 0 0 -6.103651615534075e-7
          -5.842227040155832e-7 -0.000001218348084516295 -0.0000011663932332450063 0 -5.186400965087253e-7 -0.0000010371899677614353
          0 0 0 0 -3.0280164545553365e-7 -3.1496758130645396e-7
          -3.2162341497783187e-7 -3.0952492547980574e-7 -6.056865804639139e-7 -6.300128042591249e-7 -6.439669055631914e-7 -6.194537336182433e-7
          0 -5.757689345689382e-7 -0.0000011509737641125584 0 -5.189543626044319e-7 -0.0000010377393886429585
          0 -5.50492047978123e-7 -0.0000011002954631806717 0 0 -4.111806625183863e-7
          -3.9420884434402055e-7 -8.215457783103484e-7 -7.888563424962104e-7 0 0 -4.878307955857931e-7
          -4.745262015913463e-7 -9.75542529867368e-7 -9.500455990785502e-7 0 0 -6.127318920877827e-7
          -5.992433512176225e-7 -0.000001223063272229057 -0.0000011971233344671712 0 0 -5.357255641715359e-7
          -5.271036207536801e-7 -0.0000010699940438082041 -0.000001052853717733386 0 -5.598994301130112e-7 -0.000001119482901640322
          0 0 -5.12697838111159e-7 -4.713963714033105e-7 -0.0000010240303810025183 -9.425987979123035e-7
          0 0 -5.300669521716205e-7 -5.143092033447371e-7 -0.000001058619682208518 -0.0000010263104186604791
          0 -5.982785072858897e-7 -0.0000011949123643275222 0 -5.974452479217971e-7 -0.0000011941601617133294
          0 0 -5.099698439068298e-7 -5.096416808478646e-7 -0.000001019273305773804 -0.0000010175969806131698
          0 -5.998834516637687e-7 -0.0000011990470410731567 0 -4.865193105631289e-7 -9.740699636275319e-7
          0 0 -6.110313525509917e-7 -5.939374885747998e-7 -0.0000012208251020027215 -0.0000011875292323304038
          0 0 -5.73687908667532e-7 -5.642943068541324e-7 -0.0000011469866470094772 -0.0000011282021450742097
          0 0 0 -4.5973177974704637e-7 -4.832894219844978e-7 -4.907761038630303e-7
          -9.187034602052421e-7 -9.660170924714832e-7 -9.79615922315115e-7 0 0 0
          0 -5.198991927224357e-7 -5.024872384574033e-7 -5.254099324815063e-7 -5.491141645268242e-7 -0.000001038643788130864
          -0.0000010025116188572085 -0.0000010482259985520123 -0.0000010965288015585756 0 0 0
          0 -3.546709315550993e-7 -3.315112142592137e-7 -3.195376152112375e-7 -3.399892974734564e-7 -7.103187411404122e-7
          -6.629923666438965e-7 -6.386751684895707e-7 -6.802330792440923e-7 0 -6.182419580069966e-7 -0.0000012343529305159506
          0 0 -4.844860050755621e-7 -4.6755598201301823e-7 -9.679703406738453e-7 -9.334167895041595e-7
          0 0 -5.711591316967406e-7 -5.622782419769085e-7 -0.0000011415506451698695 -0.0000011234833284200403
          0 0 -4.486289264824804e-7 -4.232456579213866e-7 -8.959863184078348e-7 -8.465449531331079e-7
          0 0 -3.5736769422867473e-7 -3.8088694867826874e-7 -7.153671381531525e-7 -7.62814812255127e-7
          0 0 -3.388169367452899e-7 -3.206647925852404e-7 -6.776189949681403e-7 -6.409610396195282e-7
          0 -5.958805105490197e-7 -0.0000011910342930779545 0 -5.965296283111166e-7 -0.0000011922548412912904
          0 0 0 0 -3.880907068946451e-7 -3.562210551966164e-7
          -3.433169059586891e-7 -3.688951712281436e-7 -7.759900180939397e-7 -7.131609134714101e-7 -6.878235221108086e-7 -7.384302884710486e-7
          0 0 -5.858313229311484e-7 -5.890876639648579e-7 -0.0000011709657339167065 -0.0000011773923230313006
          0 0 0 0 -2.8974930031689177e-7 -2.8509782939091306e-7
          -2.918970069273864e-7 -2.8927470583931533e-7 -5.795135815366419e-7 -5.701797771941153e-7 -5.839494042592379e-7 -5.783985545130112e-7
          0 0 0 -3.031077936743692e-7 -2.8585717435273815e-7 -3.0256522301038814e-7
          -6.064614653072689e-7 -5.720727084726556e-7 -6.051525918289024e-7 0 -3.8579303446476127e-7 -7.72836143455663e-7
          0 0 -5.721861039342369e-7 -5.539879031156703e-7 -0.0000011427260467369683 -0.0000011065858978621907
          0 0 -5.3500613273666e-7 -4.960531888944548e-7 -0.0000010694237980852124 -9.91781166845974e-7
          0 -4.1059483534410966e-7 -8.208604436584634e-7 0 -6.022591801514452e-7 -0.0000012040046789014928
          0 0 -4.36390269448647e-7 -4.796981357151943e-7 -8.733602860018062e-7 -9.58691018537319e-7
          0 0 -2.978246195446076e-7 -2.870532962130434e-7 -5.954144859829817e-7 -5.74222462165876e-7
          0 0 -2.913578156550002e-7 -2.9477834985031286e-7 -5.823095868267684e-7 -5.895184054057258e-7
          0 0 0 -2.9847935130277816e-7 -3.541145715142424e-7 -3.0784328174622134e-7
          -5.966847175538341e-7 -7.076062347570278e-7 -6.148698733974267e-7 0 0 -3.8228823824374255e-7
          -4.10309239930825e-7 -7.637580987611337e-7 -8.203210706908909e-7 0 0 -3.1028819779272086e-7
          -3.142735166480731e-7 -6.197334317772958e-7 -6.281395375568516e-7 0 0 -3.739362377103774e-7
          -3.2016314992067046e-7 -7.470320114084759e-7 -6.386029307058952e-7 0 -3.0205336758286266e-7 -6.042283889020191e-7
          0 0 0 0 -3.753171267815473e-7 -3.709640051816162e-7
          -3.616051280666142e-7 -3.611105861291955e-7 -7.495651544708653e-7 -7.417999272724342e-7 -7.223830862708684e-7 -7.211819637181917e-7
          0 0 -3.524874035600083e-7 -3.592558550553805e-7 -7.038882412196549e-7 -7.177284670958219e-7
          0 -3.002760491603855e-7 -6.002712530979513e-7 0 -3.2790927148289224e-7 -6.547697486777223e-7
          0 -4.2707522126085466e-7 -8.538400727344805e-7 0 -3.930692796890665e-7 -7.871598225037153e-7
          0 -4.5979594241138963e-7 -9.193236901375666e-7 0 0 -4.386793964963857e-7
          -4.5969193477525e-7 -8.772403297627522e-7 -9.181298225862549e-7 0 -4.700130497376581e-7 -9.392856944171964e-7
          0 -4.3224778249033623e-7 -8.650969103623842e-7 0 -3.135634287107144e-7 -6.267624050015174e-7
          0 -5.715769839416958e-7 -0.0000011429250121460287 0 0 -5.111021196915024e-7
          -4.968449702151129e-7 -0.0000010207231706826565 -9.926004750131233e-7 0 -5.824710374128323e-7 -0.0000011645312958294906
          0 -4.858390805151874e-7 -9.708913937556388e-7 0 -4.818372149799271e-7 -9.623254898945088e-7
          0 -4.2612884203914854e-7 -8.538624313989608e-7 0 -4.586410283644867e-7 -9.179891631307902e-7
          0 -4.4513324364932934e-7 -8.909628888496913e-7 0 0 -3.4034873771695423e-7
          -3.3636350468735594e-7 -6.813311482619203e-7 -6.729921216417442e-7 0 0 -3.912148333620224e-7
          -3.2680400300358687e-7 -7.815130098202736e-7 -6.519971702816553e-7 0 -3.8815252303190867e-7 -7.752789901212338e-7
          0 -2.8797358407775745e-7 -5.75811920981028e-7 0 -5.572208896038685e-7 -0.0000011137276326931011
          0 0 -3.441284689657236e-7 -3.6225970709623397e-7 -6.887925015003199e-7 -7.234658625752784e-7
          0 0 0 -3.4179433946568967e-7 -3.823247507250623e-7 -3.4736793192970705e-7
          -6.799583882031656e-7 -7.663672065769103e-7 -6.950568852886135e-7 0 0 -3.497334775225518e-7
          -3.7976888784935663e-7 -6.965015469308294e-7 -7.606802180376689e-7 0 -3.8010177797693975e-7 -7.593577962969003e-7
          0 -3.819813654837329e-7 -7.626776869199982e-7 0 -3.38900120663068e-7 -6.769272232162465e-7
          0 -5.72990003048012e-7 -0.000001145509308068862 0 -2.959673809854739e-7 -5.917843631122862e-7
          0 0 -2.8660056457367886e-7 -3.2060657763592775e-7 -5.731668405760863e-7 -6.415980708011135e-7
          0 -5.419864210300169e-7 -0.0000010841150120131296 0 0 0
          -4.72612958307714e-7 -4.833447168862768e-7 -5.087799377491013e-7 -9.442019586898421e-7 -9.658743154305899e-7 -0.0000010183328835839253
          0 0 -3.277971283970154e-7 -3.4435295423026247e-7 -6.558965127801499e-7 -6.894219655475309e-7
          0 0 -5.54302559686013e-7 -5.365356988130763e-7 -0.0000011083133771197338 -0.000001073165352343517
          0 -3.692094018650861e-7 -7.389456425143699e-7 0 0 0
          -5.056263380141533e-7 -4.897621181853424e-7 -4.7587427100190505e-7 -0.00000101174436628532 -9.796411208142869e-7 -9.519041317158294e-7
          0 -5.351111135902159e-7 -0.0000010703353729195258 0 0 -5.735902687016729e-7
          -5.859074274425016e-7 -0.0000011446805791333837 -0.0000011697991252591988 0 0 -5.32949405492823e-7
          -5.264895247062981e-7 -0.000001065853606276813 -0.0000010530312603547628 0 -5.568681736306998e-7 -0.0000011136063647550825
          0 -5.451287000109911e-7 -0.000001089704404463772 0 -3.476810962898374e-7 -6.962305508829086e-7
          0 -3.631040771979657e-7 -7.266973475667012e-7 0 -4.0689197946717535e-7 -8.139880199739318e-7
          0 -5.151906191984621e-7 -0.0000010305844912662253 0 0 -4.4932197251760056e-7
          -4.640628770793002e-7 -8.987738784031963e-7 -9.272665371530412e-7 0 0 -3.723912099154667e-7
          -3.565982296110776e-7 -7.46148685583949e-7 -7.141658753195611e-7 0 -3.4021613036897994e-7 -6.814068580861398e-7
          0 0 -3.1644019224859353e-7 -3.194555995308838e-7 -6.337413118786984e-7 -6.387029455559687e-7
          0 -5.438910199636374e-7 -0.0000010872363259335496 0 0 -4.33960292856671e-7
          -4.543847207069599e-7 -8.674728408577811e-7 -9.086992895410807e-7 0 0 -5.516471047970953e-7
          -5.39918247204298e-7 -0.0000011027582384936815 -0.0000010791789912855722 0 -3.216573890008278e-7 -6.440003463882074e-7
          0 -5.227360180351032e-7 -0.0000010444247315723534 0 -3.933109406758543e-7 -7.869551635604452e-7
          0 -4.2361832882505525e-7 -8.468898587401462e-7 0 -5.766498309937103e-7 -0.000001151638239706221
          0 -5.672741166991008e-7 -0.0000011338006753405007
        </DataArray>
      </PointData>
      <CellData>
        <DataArray type="Int32" Name="libmesh_elem_id" format="ascii" RangeMin="1380" RangeMax="3259">
          1380 1381 1412 1413 1414 1415
          1416 1417 1428 1429 1430 1431
          1438 1439 1440 1441 1464 1465
          1472 1473 1480 1481 1484 1485
          1488 1489 1490 1491 1492 1493
          1496 1497 1516 1517 1534 1535
          1538 1539 1544 1545 1548 1549
          1556 1557 1562 1563 1568 1569
          1574 1575 1576 1577 1604 1605
          1610 1611 1620 1621 1626 1627
          1632 1633 1640 1641 1642 1643
          1644 1645 1646 1647 1660 1661
          1664 1665 1666 1667 1668 1669
          1670 1671 1674 1675 1676 1677
          1688 1689 1690 1691 1692 1693
          1694 1695 1706 1707 1716 1717
          1720 1721 1724 1725 1732 1733
          1736 1737 1738 1739 1742 1743
          1744 1745 1756 1757 1758 1759
          1768 1769 1776 1777 1780 1781
          1784 1785 1786 1787 1788 1789
          1792 1793 1796 1797 1800 1801
          1806 1807 1808 1809 1812 1813
          1820 1821 1822 1823 1826 1827
          1842 1843 1844 1845 1860 1861
          1870 1871 1886 1887 1898 1899
          1912 1913 1934 1935 1938 1939
          1940 1941 1954 1955 1958 1959
          1962 1963 1964 1965 1966 1967
          1974 1975 1976 1977 1978 1979
          1980 1981 1984 1985 1990 1991
          1992 1993 1994 1995 2002 2003
          2012 2013 2016 2017 2022 2023
          2032 2033 2034 2035 2036 2037
          2042 2043 2056 2057 2066 2067
          2072 2073 2076 2077 2080 2081
          2086 2087 2090 2091 2094 2095
          2098 2099 2104 2105 2108 2109
          2114 2115 2118 2119 2122 2123
          2142 2143 2152 2153 2156 2157
          2168 2169 2172 2173 2174 2175
          2182 2183 2188 2189 2190 2191
          2192 2193 2194 2195 2198 2199
          2210 2211 2240 2241 2272 2273
          2280 2281 2300 2301 2322 2323
          2326 2327 2338 2339 2376 2377
          2378 2379 2380 2381 2384 2385
          2386 2387 2388 2389 2394 2395
          2428 2429 2438 2439 2446 2447
          2454 2455 2492 2493 2508 2509
          2514 2515 2516 2517 2528 2529
          2536 2537 2538 2539 2544 2545
          2548 2549 2552 2553 2576 2577
          2604 2605 2606 2607 2614 2615
          2618 2619 2626 2627 2630 2631
          2632 2633 2652 2653 2654 2655
          2674 2675 2676 2677 2686 2687
          2692 2693 2698 2699 2706 2707
          2712 2713 2718 2719 2728 2729
          2730 2731 2732 2733 2744 2745
          2752 2753 2758 2759 2770 2771
          2784 2785 2786 2787 2792 2793
          2812 2813 2816 2817 2818 2819
          2820 2821 2842 2843 2856 2857
          2866 2867 2882 2883 2894 2895
          2900 2901 2906 2907 2914 2915
          2942 2943 2970 2971 2976 2977
          2992 2993 3010 3011 3012 3013
          3016 3017 3046 3047 3056 3057
          3058 3059 3070 3071 3078 3079
          3084 3085 3094 3095 3098 3099
          3118 3119 3122 3123 3128 3129
          3134 3135 3152 3153 3180 3181
          3192 3193 3196 3197 3200 3201
          3202 3203 3214 3215 3244 3245
          3248 3249 3258 3259
        </DataArray>
        <DataArray type="Int32" Name="subdomain_id" format="ascii" RangeMin="107" RangeMax="107">
          107 107 107 107 107 107
          107 107 107 107 107 107
          107 107 107 107 107 107
          107 107 107 107 107 107
          107 107 107 107 107 107
          107 107 107 107 107 107
          107 107 107 107 107 107
          107 107 107 107 107 107
          107 107 107 107 107 107
          107 107 107 107 107 107
          107 107 107 107 107 107
          107 107 107 107 107 107
          107 107 107 107 107 107
          107 107 107 107 107 107
          107 107 107 107 107 107
          107 107 107 107 107 107
          107 107 107 107 107 107
          107 107 107 107 107 107
          107 107 107 107 107 107
          107 107 107 107 107 107
          107 107 107 107 107 107
          107 107 107 107 107 107
          107 107 107 107 107 107
          107 107 107 107 107 107
          107 107 107 107 107 107
          107 107 107 107 107 107
          107 107 107 107 107 107
          107 107 107 107 107 107
          107 107 107 107 107 107
          107 107 107 107 107 107
          107 107 107 107 107 107
          107 107 107 107 107 107
          107 107 107 107 107 107
          107 107 107 107 107 107
          107 107 107 107 107 107
          107 107 107 107 107 107
          107 107 107 107 107 107
          107 107 107 107 107 107
          107 107 107 107 107 107
          107 107 107 107 107 107
          107 107 107 107 107 107
          107 107 107 107 107 107
          107 107 107 107 107 107
          107 107 107 107 107 107
          107 107 107 107 107 107
          107 107 107 107 107 107
          107 107 107 107 107 107
          107 107 107 107 107 107
          107 107 107 107 107 107
          107 107 107 107 107 107
          107 107 107 107 107 107
          107 107 107 107 107 107
          107 107 107 107 107 107
          107 107 107 107 107 107
          107 107 107 107 107 107
          107 107 107 107 107 107
          107 107 107 107 107 107
          107 107 107 107 107 107
          107 107 107 107 107 107
          107 107 107 107 107 107
          107 107 107 107 107 107
          107 107 107 107 107 107
          107 107 107 107 107 107
          107 107 107 107 107 107
          107 107 107 107 107 107
          107 107 107 107 107 107
          107 107 107 107 107 107
          107 107 107 107 107 107
          107 107 107 107 107 107
          107 107 107 107 107 107
          107 107 107 107 107 107
          107 107 107 107 107 107
          107 107 107 107 107 107
          107 107 107 107 107 107
          107 107 107 107 107 107
          107 107 107 107
        </DataArray>
        <DataArray type="Int32" Name="processor_id" format="ascii" RangeMin="3" RangeMax="3">
          3 3 3 3 3 3
          3 3 3 3 3 3
          3 3 3 3 3 3
          3 3 3 3 3 3
          3 3 3 3 3 3
          3 3 3 3 3 3
          3 3 3 3 3 3
          3 3 3 3 3 3
          3 3 3 3 3 3
          3 3 3 3 3 3
          3 3 3 3 3 3
          3 3 3 3 3 3
          3 3 3 3 3 3
          3 3 3 3 3 3
          3 3 3 3 3 3
          3 3 3 3 3 3
          3 3 3 3 3 3
          3 3 3 3 3 3
          3 3 3 3 3 3
          3 3 3 3 3 3
          3 3 3 3 3 3
          3 3 3 3 3 3
          3 3 3 3 3 3
          3 3 3 3 3 3
          3 3 3 3 3 3
          3 3 3 3 3 3
          3 3 3 3 3 3
          3 3 3 3 3 3
          3 3 3 3 3 3
          3 3 3 3 3 3
          3 3 3 3 3 3
          3 3 3 3 3 3
          3 3 3 3 3 3
          3 3 3 3 3 3
          3 3 3 3 3 3
          3 3 3 3 3 3
          3 3 3 3 3 3
          3 3 3 3 3 3
          3 3 3 3 3 3
          3 3 3 3 3 3
          3 3 3 3 3 3
          3 3 3 3 3 3
          3 3 3 3 3 3
          3 3 3 3 3 3
          3 3 3 3 3 3
          3 3 3 3 3 3
          3 3 3 3 3 3
          3 3 3 3 3 3
          3 3 3 3 3 3
          3 3 3 3 3 3
          3 3 3 3 3 3
          3 3 3 3 3 3
          3 3 3 3 3 3
          3 3 3 3 3 3
          3 3 3 3 3 3
          3 3 3 3 3 3
          3 3 3 3 3 3
          3 3 3 3 3 3
          3 3 3 3 3 3
          3 3 3 3 3 3
          3 3 3 3 3 3
          3 3 3 3 3 3
          3 3 3 3 3 3
          3 3 3 3 3 3
          3 3 3 3 3 3
          3 3 3 3 3 3
          3 3 3 3 3 3
          3 3 3 3 3 3
          3 3 3 3 3 3
          3 3 3 3 3 3
          3 3 3 3 3 3
          3 3 3 3 3 3
          3 3 3 3 3 3
          3 3 3 3 3 3
          3 3 3 3 3 3
          3 3 3 3
        </DataArray>
      </CellData>
      <Points>
        <DataArray type="Float64" Name="Points" NumberOfComponents="3" format="ascii" RangeMin="0.013166738443807365" RangeMax="0.02374822585851783">
          0.016451229180203 0.011589607556601 0 0.016255198485848 0.011015934042219 0
          0.016728572005863 0.010757201031786 0 0.017039955631379 0.011194422572054 0
          0.016451229180203 0.011589607556601 0.00015 0.016255198485848 0.011015934042219 0.00015
          0.016728572005863 0.010757201031786 0.00015 0.017039955631379 0.011194422572054 0.00015
          0.016451229180203 0.011589607556601 0.0003 0.016255198485848 0.011015934042219 0.0003
          0.016728572005863 0.010757201031786 0.0003 0.017039955631379 0.011194422572054 0.0003
          0.011186406523754 0.0095188731742926 0 0.010689703280164 0.0094649590365737 0
          0.010634679710187 0.008964429555675 0 0.011131650337527 0.0089687060727404 0
          0.011186406523754 0.0095188731742926 0.00015 0.010689703280164 0.0094649590365737 0.00015
          0.010634679710187 0.008964429555675 0.00015 0.011131650337527 0.0089687060727404 0.00015
          0.011186406523754 0.0095188731742926 0.0003 0.010689703280164 0.0094649590365737 0.0003
          0.010634679710187 0.008964429555675 0.0003 0.011131650337527 0.0089687060727404 0.0003
          0.010158980545183 0.0089928081418126 0 0.010158980545183 0.0089928081418126 0.00015
          0.010158980545183 0.0089928081418126 0.0003 0.010234809282542 0.0094751596931164 0
          0.010234809282542 0.0094751596931164 0.00015 0.010234809282542 0.0094751596931164 0.0003
          0.017215305681839 0.010421173498473 0 0.017538322616078 0.010852535251392 0
          0.017215305681839 0.010421173498473 0.00015 0.017538322616078 0.010852535251392 0.00015
          0.017215305681839 0.010421173498473 0.0003 0.017538322616078 0.010852535251392 0.0003
          0.015522227276376 0.0083950727535023 0 0.015339273065407 0.0078314073000753 0
          0.015832583415208 0.0077039482324782 0 0.015871156677641 0.0080932538621961 0
          0.015522227276376 0.0083950727535023 0.00015 0.015339273065407 0.0078314073000753 0.00015
          0.015832583415208 0.0077039482324782 0.00015 0.015871156677641 0.0080932538621961 0.00015
          0.015522227276376 0.0083950727535023 0.0003 0.015339273065407 0.0078314073000753 0.0003
          0.015832583415208 0.0077039482324782 0.0003 0.015871156677641 0.0080932538621961 0.0003
          0.014182404182597 0.012030933394166 0 0.014112697634716 0.011586899500601 0
          0.01453762000082 0.011541498939039 0 0.014647727851392 0.011956202120878 0
          0.014182404182597 0.012030933394166 0.00015 0.014112697634716 0.011586899500601 0.00015
          0.01453762000082 0.011541498939039 0.00015 0.014647727851392 0.011956202120878 0.00015
          0.014182404182597 0.012030933394166 0.0003 0.014112697634716 0.011586899500601 0.0003
          0.01453762000082 0.011541498939039 0.0003 0.014647727851392 0.011956202120878 0.0003
          0.012718807262617 0.012100913225318 0 0.01318790653826 0.012081424726463 0
          0.013223560157694 0.012548837560718 0 0.012721969255655 0.012547975923311 0
          0.012718807262617 0.012100913225318 0.00015 0.01318790653826 0.012081424726463 0.00015
          0.013223560157694 0.012548837560718 0.00015 0.012721969255655 0.012547975923311 0.00015
          0.012718807262617 0.012100913225318 0.0003 0.01318790653826 0.012081424726463 0.0003
          0.013223560157694 0.012548837560718 0.0003 0.012721969255655 0.012547975923311 0.0003
          0.015037276113604 0.0053883886132418 0 0.014872829902632 0.0048660088618751 0
          0.015610482342583 0.0052949834846695 0 0.015037276113604 0.0053883886132418 0.00015
          0.014872829902632 0.0048660088618751 0.00015 0.015610482342583 0.0052949834846695 0.00015
          0.015037276113604 0.0053883886132418 0.0003 0.014872829902632 0.0048660088618751 0.0003
          0.015610482342583 0.0052949834846695 0.0003 0.012853333735139 0.0071862564407273 0
          0.013298874998351 0.0073010052974168 0 0.013468505581478 0.0077481198485017 0
          0.012879769579272 0.0077824950988095 0 0.012853333735139 0.0071862564407273 0.00015
          0.013298874998351 0.0073010052974168 0.00015 0.013468505581478 0.0077481198485017 0.00015
          0.012879769579272 0.0077824950988095 0.00015 0.012853333735139 0.0071862564407273 0.0003
          0.013298874998351 0.0073010052974168 0.0003 0.013468505581478 0.0077481198485017 0.0003
          0.012879769579272 0.0077824950988095 0.0003 0.012310751390795 0.0073009210446318 0
          0.012310751390795 0.0073009210446318 0.00015 0.012310751390795 0.0073009210446318 0.0003
          0.016440539131042 0.010340248821358 0 0.016895401758078 0.0099970418145034 0
          0.016440539131042 0.010340248821358 0.00015 0.016895401758078 0.0099970418145034 0.00015
          0.016440539131042 0.010340248821358 0.0003 0.016895401758078 0.0099970418145034 0.0003
          0.015674284513358 0.012057735082989 0 0.015799992883172 0.011590312491375 0
          0.01620648935985 0.012173309797103 0 0.015674284513358 0.012057735082989 0.00015
          0.015799992883172 0.011590312491375 0.00015 0.01620648935985 0.012173309797103 0.00015
          0.015674284513358 0.012057735082989 0.0003 0.015799992883172 0.011590312491375 0.0003
          0.01620648935985 0.012173309797103 0.0003 0.015719396244314 0.0096761034796614 0
          0.015317179218416 0.010039615829248 0 0.014916285335657 0.0096823062625427 0
          0.015356151892906 0.0093633130446295 0 0.015719396244314 0.0096761034796614 0.00015
          0.015317179218416 0.010039615829248 0.00015 0.014916285335657 0.0096823062625427 0.00015
          0.015356151892906 0.0093633130446295 0.00015 0.015719396244314 0.0096761034796614 0.0003
          0.015317179218416 0.010039615829248 0.0003 0.014916285335657 0.0096823062625427 0.0003
          0.015356151892906 0.0093633130446295 0.0003 0.014911939516014 0.011080222539295 0
          0.01492908374418 0.011511002202991 0 0.014470673144967 0.011122308960465 0
          0.014911939516014 0.011080222539295 0.00015 0.01492908374418 0.011511002202991 0.00015
          0.014470673144967 0.011122308960465 0.00015 0.014911939516014 0.011080222539295 0.0003
          0.01492908374418 0.011511002202991 0.0003 0.014470673144967 0.011122308960465 0.0003
          0.014927498433442 0.011816834084778 0 0.015214955739546 0.01195124117686 0
          0.014868481741766 0.012398226678167 0 0.014927498433442 0.011816834084778 0.00015
          0.015214955739546 0.01195124117686 0.00015 0.014868481741766 0.012398226678167 0.00015
          0.014927498433442 0.011816834084778 0.0003 0.015214955739546 0.01195124117686 0.0003
          0.014868481741766 0.012398226678167 0.0003 0.014887382940214 0.010512753679506 0
          0.01433465747601 0.010724165901292 0 0.014030150330029 0.010370439204794 0
          0.01444626395613 0.010022024912649 0 0.014887382940214 0.010512753679506 0.00015
          0.01433465747601 0.010724165901292 0.00015 0.014030150330029 0.010370439204794 0.00015
          0.01444626395613 0.010022024912649 0.00015 0.014887382940214 0.010512753679506 0.0003
          0.01433465747601 0.010724165901292 0.0003 0.014030150330029 0.010370439204794 0.0003
          0.01444626395613 0.010022024912649 0.0003 0.013388886812482 0.0083497293814167 0
          0.012899574253998 0.0083038014764745 0 0.013388886812482 0.0083497293814167 0.00015
          0.012899574253998 0.0083038014764745 0.00015 0.013388886812482 0.0083497293814167 0.0003
          0.012899574253998 0.0083038014764745 0.0003 0.015784016264429 0.0071345425111119 0
          0.016328429431772 0.0071626451349231 0 0.016328043288569 0.0077322573762078 0
          0.015784016264429 0.0071345425111119 0.00015 0.016328429431772 0.0071626451349231 0.00015
          0.016328043288569 0.0077322573762078 0.00015 0.015784016264429 0.0071345425111119 0.0003
          0.016328429431772 0.0071626451349231 0.0003 0.016328043288569 0.0077322573762078 0.0003
          0.016727166785252 0.0084386331054829 0 0.01644772366367 0.0089064975551763 0
          0.016002189190704 0.0086574712541786 0 0.016221340977963 0.0082297464535469 0
          0.016727166785252 0.0084386331054829 0.00015 0.01644772366367 0.0089064975551763 0.00015
          0.016002189190704 0.0086574712541786 0.00015 0.016221340977963 0.0082297464535469 0.00015
          0.016727166785252 0.0084386331054829 0.0003 0.01644772366367 0.0089064975551763 0.0003
          0.016002189190704 0.0086574712541786 0.0003 0.016221340977963 0.0082297464535469 0.0003
          0.018901908985383 0.011783468628847 0 0.018328257152057 0.011560564570719 0
          0.018901908985383 0.011783468628847 0.00015 0.018328257152057 0.011560564570719 0.00015
          0.018901908985383 0.011783468628847 0.0003 0.018328257152057 0.011560564570719 0.0003
          0.016817438697449 0.012401495631919 0 0.016895899239308 0.011880939878953 0
          0.016817438697449 0.012401495631919 0.00015 0.016895899239308 0.011880939878953 0.00015
          0.016817438697449 0.012401495631919 0.0003 0.016895899239308 0.011880939878953 0.0003
          0.010475172867508 0.012102844227475 0 0.010669582432454 0.011743114144408 0
          0.010475172867508 0.012102844227475 0.00015 0.010669582432454 0.011743114144408 0.00015
          0.010475172867508 0.012102844227475 0.0003 0.010669582432454 0.011743114144408 0.0003
          0.018198082784875 0.0097658337520035 0 0.018455934862008 0.010221918525687 0
          0.018019877493881 0.01050989807829 0 0.017698489924893 0.010066971919266 0
          0.018198082784875 0.0097658337520035 0.00015 0.018455934862008 0.010221918525687 0.00015
          0.018019877493881 0.01050989807829 0.00015 0.017698489924893 0.010066971919266 0.00015
          0.018198082784875 0.0097658337520035 0.0003 0.018455934862008 0.010221918525687 0.0003
          0.018019877493881 0.01050989807829 0.0003 0.017698489924893 0.010066971919266 0.0003
          0.015096658749896 0.0059763609132825 0 0.015666288430535 0.0059190759170471 0
          0.015096658749896 0.0059763609132825 0.00015 0.015666288430535 0.0059190759170471 0.00015
          0.015096658749896 0.0059763609132825 0.0003 0.015666288430535 0.0059190759170471 0.0003
          0.013546901289865 0.0069836782833127 0 0.013134929749538 0.0067248500217048 0
          0.013546901289865 0.0069836782833127 0.00015 0.013134929749538 0.0067248500217048 0.00015
          0.013546901289865 0.0069836782833127 0.0003 0.013134929749538 0.0067248500217048 0.0003
          0.013831418153218 0.0064982603089606 0 0.013338214474932 0.0062766362868091 0
          0.013831418153218 0.0064982603089606 0.00015 0.013338214474932 0.0062766362868091 0.00015
          0.013831418153218 0.0064982603089606 0.0003 0.013338214474932 0.0062766362868091 0.0003
          0.017908784385217 0.011229685010797 0 0.017908784385217 0.011229685010797 0.00015
          0.017908784385217 0.011229685010797 0.0003 0.017460830811305 0.0067242961174433 0
          0.017460830811305 0.0067242961174433 0.00015 0.017460830811305 0.0067242961174433 0.0003
          0.016232724398465 0.0059010997942707 0 0.016810957053741 0.0059693958220605 0
          0.016865945400018 0.0066157033945985 0 0.016287343165999 0.0065221003589061 0
          0.016232724398465 0.0059010997942707 0.00015 0.016810957053741 0.0059693958220605 0.00015
          0.016865945400018 0.0066157033945985 0.00015 0.016287343165999 0.0065221003589061 0.00015
          0.016232724398465 0.0059010997942707 0.0003 0.016810957053741 0.0059693958220605 0.0003
          0.016865945400018 0.0066157033945985 0.0003 0.016287343165999 0.0065221003589061 0.0003
          0.015434451036398 0.0088351663483508 0 0.015091649000167 0.0090065479673052 0
          0.0149386527618 0.008562942865766 0 0.015434451036398 0.0088351663483508 0.00015
          0.015091649000167 0.0090065479673052 0.00015 0.0149386527618 0.008562942865766 0.00015
          0.015434451036398 0.0088351663483508 0.0003 0.015091649000167 0.0090065479673052 0.0003
          0.0149386527618 0.008562942865766 0.0003 0.013851103268646 0.0079817773379183 0
          0.013864053371773 0.0083733293390323 0 0.013851103268646 0.0079817773379183 0.00015
          0.013864053371773 0.0083733293390323 0.00015 0.013851103268646 0.0079817773379183 0.0003
          0.013864053371773 0.0083733293390323 0.0003 0.016873832756735 0.0078915607150548 0
          0.016873832756735 0.0078915607150548 0.00015 0.016873832756735 0.0078915607150548 0.0003
          0.011740832768399 0.012550565772382 0 0.011781425344485 0.012080160842703 0
          0.012267797740114 0.012087686226532 0 0.012238354096222 0.012547223275944 0
          0.011740832768399 0.012550565772382 0.00015 0.011781425344485 0.012080160842703 0.00015
          0.012267797740114 0.012087686226532 0.00015 0.012238354096222 0.012547223275944 0.00015
          0.011740832768399 0.012550565772382 0.0003 0.011781425344485 0.012080160842703 0.0003
          0.012267797740114 0.012087686226532 0.0003 0.012238354096222 0.012547223275944 0.0003
          0.015724816214821 0.0065169349202822 0 0.015724816214821 0.0065169349202822 0.00015
          0.015724816214821 0.0065169349202822 0.0003 0.016904663245172 0.0072759580116152 0
          0.016904663245172 0.0072759580116152 0.00015 0.016904663245172 0.0072759580116152 0.0003
          0.016212759806586 0.0053000490100875 0 0.016212759806586 0.0053000490100875 0.00015
          0.016212759806586 0.0053000490100875 0.0003 0.017422284858474 0.011679101640391 0
          0.017908527792884 0.011814582379248 0 0.017422284858474 0.011679101640391 0.00015
          0.017908527792884 0.011814582379248 0.00015 0.017422284858474 0.011679101640391 0.0003
          0.017908527792884 0.011814582379248 0.0003 0.017261702763099 0.0086939606584207 0
          0.017434489396122 0.0080779876667089 0 0.017261702763099 0.0086939606584207 0.00015
          0.017434489396122 0.0080779876667089 0.00015 0.017261702763099 0.0086939606584207 0.0003
          0.017434489396122 0.0080779876667089 0.0003 0.014181033506022 0.0077713348891544 0
          0.014325604474543 0.0082610969383043 0 0.014181033506022 0.0077713348891544 0.00015
          0.014325604474543 0.0082610969383043 0.00015 0.014181033506022 0.0077713348891544 0.0003
          0.014325604474543 0.0082610969383043 0.0003 0.016099115219063 0.0099899847281115 0
          0.016520689982407 0.0096278486407962 0 0.016099115219063 0.0099899847281115 0.00015
          0.016520689982407 0.0096278486407962 0.00015 0.016099115219063 0.0099899847281115 0.0003
          0.016520689982407 0.0096278486407962 0.0003 0.014613026918956 0.0092413149543641 0
          0.014613026918956 0.0092413149543641 0.00015 0.014613026918956 0.0092413149543641 0.0003
          0.016937453954769 0.0092095292918499 0 0.017364558514239 0.0096012653805297 0
          0.016937453954769 0.0092095292918499 0.00015 0.017364558514239 0.0096012653805297 0.00015
          0.016937453954769 0.0092095292918499 0.0003 0.017364558514239 0.0096012653805297 0.0003
          0.015712843676617 0.010331364913168 0 0.016032046384524 0.010629553115583 0
          0.015712843676617 0.010331364913168 0.00015 0.016032046384524 0.010629553115583 0.00015
          0.015712843676617 0.010331364913168 0.0003 0.016032046384524 0.010629553115583 0.0003
          0.01346343572409 0.0057857389411653 0 0.01346343572409 0.0057857389411653 0.00015
          0.01346343572409 0.0057857389411653 0.0003 0.015150761096164 0.0066142159223768 0
          0.015150761096164 0.0066142159223768 0.00015 0.015150761096164 0.0066142159223768 0.0003
          0.015453261139866 0.010697023165802 0 0.015761290368715 0.010819971207646 0
          0.015453261139866 0.010697023165802 0.00015 0.015761290368715 0.010819971207646 0.00015
          0.015453261139866 0.010697023165802 0.0003 0.015761290368715 0.010819971207646 0.0003
          0.013975551316416 0.0059398855735222 0 0.013975551316416 0.0059398855735222 0.00015
          0.013975551316416 0.0059398855735222 0.0003 0.017479032913359 0.0074088673936633 0
          0.017479032913359 0.0074088673936633 0.00015 0.017479032913359 0.0074088673936633 0.0003
          0.014439802315681 0.0067889662935499 0 0.014530319307898 0.006021518089632 0
          0.014439802315681 0.0067889662935499 0.00015 0.014530319307898 0.006021518089632 0.00015
          0.014439802315681 0.0067889662935499 0.0003 0.014530319307898 0.006021518089632 0.0003
          0.014431521900925 0.0087663339265048 0 0.013899975831329 0.0088854517032459 0
          0.014431521900925 0.0087663339265048 0.00015 0.013899975831329 0.0088854517032459 0.00015
          0.014431521900925 0.0087663339265048 0.0003 0.013899975831329 0.0088854517032459 0.0003
          0.015334349753872 0.011547922560075 0 0.015363465895193 0.011114260619116 0
          0.015801980011793 0.011137474992711 0 0.015334349753872 0.011547922560075 0.00015
          0.015363465895193 0.011114260619116 0.00015 0.015801980011793 0.011137474992711 0.00015
          0.015334349753872 0.011547922560075 0.0003 0.015363465895193 0.011114260619116 0.0003
          0.015801980011793 0.011137474992711 0.0003 0.01326617738197 0.0093680808515997 0
          0.012793423392144 0.00921210926252 0 0.012882512800283 0.0087881474090036 0
          0.013365259810227 0.0088714473068585 0 0.01326617738197 0.0093680808515997 0.00015
          0.012793423392144 0.00921210926252 0.00015 0.012882512800283 0.0087881474090036 0.00015
          0.013365259810227 0.0088714473068585 0.00015 0.01326617738197 0.0093680808515997 0.0003
          0.012793423392144 0.00921210926252 0.0003 0.012882512800283 0.0087881474090036 0.0003
          0.013365259810227 0.0088714473068585 0.0003 0.011993243876189 0.010936510200926 0
          0.011726815341297 0.011491075647124 0 0.011222013645511 0.011097826594996 0
          0.011481744371717 0.010688234667639 0 0.011993243876189 0.010936510200926 0.00015
          0.011726815341297 0.011491075647124 0.00015 0.011222013645511 0.011097826594996 0.00015
          0.011481744371717 0.010688234667639 0.00015 0.011993243876189 0.010936510200926 0.0003
          0.011726815341297 0.011491075647124 0.0003 0.011222013645511 0.011097826594996 0.0003
          0.011481744371717 0.010688234667639 0.0003 0.013923252507151 0.0073329122207352 0
          0.013923252507151 0.0073329122207352 0.00015 0.013923252507151 0.0073329122207352 0.0003
          0.013063793506476 0.0098271989985527 0 0.012601634550352 0.009590277262082 0
          0.013063793506476 0.0098271989985527 0.00015 0.012601634550352 0.009590277262082 0.00015
          0.013063793506476 0.0098271989985527 0.0003 0.012601634550352 0.009590277262082 0.0003
          0.014102855237989 0.0047969187863067 0 0.013905759673286 0.0043612537888552 0
          0.014102855237989 0.0047969187863067 0.00015 0.013905759673286 0.0043612537888552 0.00015
          0.014102855237989 0.0047969187863067 0.0003 0.013905759673286 0.0043612537888552 0.0003
          0.012852488428802 0.010265076045094 0 0.012374691983482 0.010000797580735 0
          0.012852488428802 0.010265076045094 0.00015 0.012374691983482 0.010000797580735 0.00015
          0.012852488428802 0.010265076045094 0.0003 0.012374691983482 0.010000797580735 0.0003
          0.011668611956603 0.010219239111219 0 0.012182731119778 0.010462377133106 0
          0.011668611956603 0.010219239111219 0.00015 0.012182731119778 0.010462377133106 0.00015
          0.011668611956603 0.010219239111219 0.0003 0.012182731119778 0.010462377133106 0.0003
          0.011158560753842 0.010029990414111 0 0.011017968815575 0.010465683342369 0
          0.011158560753842 0.010029990414111 0.00015 0.011017968815575 0.010465683342369 0.00015
          0.011158560753842 0.010029990414111 0.0003 0.011017968815575 0.010465683342369 0.0003
          0.014820390261339 0.0080402105998384 0 0.014820390261339 0.0080402105998384 0.00015
          0.014820390261339 0.0080402105998384 0.0003 0.015228397699353 0.0072512250897894 0
          0.015228397699353 0.0072512250897894 0.00015 0.015228397699353 0.0072512250897894 0.0003
          0.0130361735465 0.011522072885309 0 0.012689359184487 0.011761634268536 0
          0.012340499111532 0.011632501505239 0 0.012497431968462 0.011183651982421 0
          0.0130361735465 0.011522072885309 0.00015 0.012689359184487 0.011761634268536 0.00015
          0.012340499111532 0.011632501505239 0.00015 0.012497431968462 0.011183651982421 0.00015
          0.0130361735465 0.011522072885309 0.0003 0.012689359184487 0.011761634268536 0.0003
          0.012340499111532 0.011632501505239 0.0003 0.012497431968462 0.011183651982421 0.0003
          0.013528941600065 0.0052742966774397 0 0.014027103455945 0.0053875982273864 0
          0.013528941600065 0.0052742966774397 0.00015 0.014027103455945 0.0053875982273864 0.00015
          0.013528941600065 0.0052742966774397 0.0003 0.014027103455945 0.0053875982273864 0.0003
          0.010128205128219 0.013 0 0.010310686327751 0.012539165738252 0
          0.010788384596096 0.012564579045747 0 0.01064102564104 0.013 0
          0.010128205128219 0.013 0.00015 0.010310686327751 0.012539165738252 0.00015
          0.010788384596096 0.012564579045747 0.00015 0.01064102564104 0.013 0.00015
          0.010128205128219 0.013 0.0003 0.010310686327751 0.012539165738252 0.0003
          0.010788384596096 0.012564579045747 0.0003 0.01064102564104 0.013 0.0003
          0.010783127360108 0.010836567412064 0 0.010385522435479 0.010608007769118 0
          0.010601303654319 0.010290632654442 0 0.010783127360108 0.010836567412064 0.00015
          0.010385522435479 0.010608007769118 0.00015 0.010601303654319 0.010290632654442 0.00015
          0.010783127360108 0.010836567412064 0.0003 0.010385522435479 0.010608007769118 0.0003
          0.010601303654319 0.010290632654442 0.0003 0.011818930007254 0.009602160287834 0
          0.011818930007254 0.009602160287834 0.00015 0.011818930007254 0.009602160287834 0.0003
          0.015715008716269 0.0090308288850156 0 0.01610853428864 0.0093166480881369 0
          0.015715008716269 0.0090308288850156 0.00015 0.01610853428864 0.0093166480881369 0.00015
          0.015715008716269 0.0090308288850156 0.0003 0.01610853428864 0.0093166480881369 0.0003
          0.013952831965685 0.0095243725467762 0 0.013572358856734 0.010071658883703 0
          0.013952831965685 0.0095243725467762 0.00015 0.013572358856734 0.010071658883703 0.00015
          0.013952831965685 0.0095243725467762 0.0003 0.013572358856734 0.010071658883703 0.0003
          0.012677817340078 0.010719835797972 0 0.012677817340078 0.010719835797972 0.00015
          0.012677817340078 0.010719835797972 0.0003 0.014678664229456 0.0074733115324236 0
          0.014678664229456 0.0074733115324236 0.00015 0.014678664229456 0.0074733115324236 0.0003
          0.012261506677236 0.0092701804285872 0 0.012499922412859 0.0090879994978671 0
          0.012261506677236 0.0092701804285872 0.00015 0.012499922412859 0.0090879994978671 0.00015
          0.012261506677236 0.0092701804285872 0.0003 0.012499922412859 0.0090879994978671 0.0003
          0.011270478587413 0.012561768236337 0 0.011153846153863 0.013 0
          0.011270478587413 0.012561768236337 0.00015 0.011153846153863 0.013 0.00015
          0.011270478587413 0.012561768236337 0.0003 0.011153846153863 0.013 0.0003
          0.012179487179506 0.013 0 0.012692307692328 0.013 0
          0.012179487179506 0.013 0.00015 0.012692307692328 0.013 0.00015
          0.012179487179506 0.013 0.0003 0.012692307692328 0.013 0.0003
          0.013205128205151 0.013 0 0.013721380024409 0.012538570920528 0
          0.013717948717973 0.013 0 0.013205128205151 0.013 0.00015
          0.013721380024409 0.012538570920528 0.00015 0.013717948717973 0.013 0.00015
          0.013205128205151 0.013 0.0003 0.013721380024409 0.012538570920528 0.0003
          0.013717948717973 0.013 0.0003 0.013680323008888 0.01206206640945 0
          0.0136362676363 0.011582155921186 0 0.013680323008888 0.01206206640945 0.00015
          0.0136362676363 0.011582155921186 0.00015 0.013680323008888 0.01206206640945 0.0003
          0.0136362676363 0.011582155921186 0.0003 0.011306940297591 0.012129646322267 0
          0.011212076662234 0.01173976422044 0 0.011306940297591 0.012129646322267 0.00015
          0.011212076662234 0.01173976422044 0.00015 0.011306940297591 0.012129646322267 0.0003
          0.011212076662234 0.01173976422044 0.0003 0.014247558447628 0.012512499343239 0
          0.014230769230793 0.013 0 0.014247558447628 0.012512499343239 0.00015
          0.014230769230793 0.013 0.00015 0.014247558447628 0.012512499343239 0.0003
          0.014230769230793 0.013 0.0003 0.010925822172272 0.011428925131881 0
          0.010925822172272 0.011428925131881 0.00015 0.010925822172272 0.011428925131881 0.0003
          0.017598702187272 0.012594388856786 0 0.018138509806267 0.012585421267124 0
          0.018333333333352 0.013 0 0.017820512820533 0.013 0
          0.017598702187272 0.012594388856786 0.00015 0.018138509806267 0.012585421267124 0.00015
          0.018333333333352 0.013 0.00015 0.017820512820533 0.013 0.00015
          0.017598702187272 0.012594388856786 0.0003 0.018138509806267 0.012585421267124 0.0003
          0.018333333333352 0.013 0.0003 0.017820512820533 0.013 0.0003
          0.01884615384617 0.013 0 0.018647619061649 0.012577247456601 0
          0.01884615384617 0.013 0.00015 0.018647619061649 0.012577247456601 0.00015
          0.01884615384617 0.013 0.0003 0.018647619061649 0.012577247456601 0.0003
          0.010939820280367 0.01187760398484 0 0.010939820280367 0.01187760398484 0.00015
          0.010939820280367 0.01187760398484 0.0003 0.014743589743616 0.013 0
          0.014743589743616 0.013 0.00015 0.014743589743616 0.013 0.0003
          0.013168261777023 0.010955167755454 0 0.013168261777023 0.010955167755454 0.00015
          0.013168261777023 0.010955167755454 0.0003 0.011620435633551 0.0089440866322713 0
          0.011620435633551 0.0089440866322713 0.00015 0.011620435633551 0.0089440866322713 0.0003
          0.01333281098878 0.010501143990949 0 0.01333281098878 0.010501143990949 0.00015
          0.01333281098878 0.010501143990949 0.0003 0.013640766026071 0.011115210745046 0
          0.014063261910082 0.011165191959691 0 0.013640766026071 0.011115210745046 0.00015
          0.014063261910082 0.011165191959691 0.00015 0.013640766026071 0.011115210745046 0.0003
          0.014063261910082 0.011165191959691 0.0003 0.013761635093034 0.010714997264381 0
          0.013761635093034 0.010714997264381 0.00015 0.013761635093034 0.010714997264381 0.0003
          0.01790845301636 0.0090613468730877 0 0.01790845301636 0.0090613468730877 0.00015
          0.01790845301636 0.0090613468730877 0.0003 0.010691300612525 0.0099168298135774 0
          0.010691300612525 0.0099168298135774 0.00015 0.010691300612525 0.0099168298135774 0.0003
          0.014509683505008 0.0050450954358061 0 0.014509683505008 0.0050450954358061 0.00015
          0.014509683505008 0.0050450954358061 0.0003 0.012373637985884 0.0077974643404521 0
          0.012419274731686 0.0083019280664676 0 0.012373637985884 0.0077974643404521 0.00015
          0.012419274731686 0.0083019280664676 0.00015 0.012373637985884 0.0077974643404521 0.0003
          0.012419274731686 0.0083019280664676 0.0003 0.014523119140279 0.0054383897453177 0
          0.014523119140279 0.0054383897453177 0.00015 0.014523119140279 0.0054383897453177 0.0003
          0.012468015808598 0.0087643938641043 0 0.012468015808598 0.0087643938641043 0.00015
          0.012468015808598 0.0087643938641043 0.0003 0.014041697947841 0.010862771985015 0
          0.014041697947841 0.010862771985015 0.00015 0.014041697947841 0.010862771985015 0.0003
          0.012067821946234 0.0088387705315247 0 0.012067821946234 0.0088387705315247 0.00015
          0.012067821946234 0.0088387705315247 0.0003 0.018063704813091 0.0075049932447581 0
          0.018063704813091 0.0075049932447581 0.00015 0.018063704813091 0.0075049932447581 0.0003
          0.01801805728244 0.008218173104411 0 0.01801805728244 0.008218173104411 0.00015
          0.01801805728244 0.008218173104411 0.0003 0.019162849649621 0.012571706415164 0
          0.019358974358988 0.013 0 0.019162849649621 0.012571706415164 0.00015
          0.019358974358988 0.013 0.00015 0.019162849649621 0.012571706415164 0.0003
          0.019358974358988 0.013 0.0003 0.015469042768348 0.012527612124711 0
          0.015256410256436 0.013 0 0.015469042768348 0.012527612124711 0.00015
          0.015256410256436 0.013 0.00015 0.015469042768348 0.012527612124711 0.0003
          0.015256410256436 0.013 0.0003 0.017482035345823 0.012218317378284 0
          0.017482035345823 0.012218317378284 0.00015 0.017482035345823 0.012218317378284 0.0003
          0.011666666666685 0.013 0 0.011666666666685 0.013 0.00015
          0.011666666666685 0.013 0.0003 0.013552812333296 0.0042895499786344 0
          0.013552812333296 0.0042895499786344 0.00015 0.013552812333296 0.0042895499786344 0.0003
          0.019003973493589 0.012129001566083 0 0.018491681451249 0.012137078785851 0
          0.019003973493589 0.012129001566083 0.00015 0.018491681451249 0.012137078785851 0.00015
          0.019003973493589 0.012129001566083 0.0003 0.018491681451249 0.012137078785851 0.0003
          0.016282051282076 0.013 0 0.016335894010033 0.012686725241599 0
          0.016794871794894 0.013 0 0.016282051282076 0.013 0.00015
          0.016335894010033 0.012686725241599 0.00015 0.016794871794894 0.013 0.00015
          0.016282051282076 0.013 0.0003 0.016335894010033 0.012686725241599 0.0003
          0.016794871794894 0.013 0.0003 0.017307692307713 0.013 0
          0.017281329535555 0.012689387511733 0 0.017307692307713 0.013 0.00015
          0.017281329535555 0.012689387511733 0.00015 0.017307692307713 0.013 0.0003
          0.017281329535555 0.012689387511733 0.0003 0.017996855365792 0.012159940978259 0
          0.017996855365792 0.012159940978259 0.00015 0.017996855365792 0.012159940978259 0.0003
          0.016023960213719 0.012601258532672 0 0.016023960213719 0.012601258532672 0.00015
          0.016023960213719 0.012601258532672 0.0003 0.015769230769256 0.013 0
          0.015769230769256 0.013 0.00015 0.015769230769256 0.013 0.0003
          0.013549428097692 0.0047645614477775 0 0.013549428097692 0.0047645614477775 0.00015
          0.013549428097692 0.0047645614477775 0.0003 0.010881954871342 0.01216105032025 0
          0.010881954871342 0.01216105032025 0.00015 0.010881954871342 0.01216105032025 0.0003
          0.010057653370411 0.0084974472595183 0 0.01054988842507 0.0084422245958245 0
          0.010057653370411 0.0084974472595183 0.00015 0.01054988842507 0.0084422245958245 0.00015
          0.010057653370411 0.0084974472595183 0.0003 0.01054988842507 0.0084422245958245 0.0003
          0.015535554193674 0.0045828394817383 0 0.015535554193674 0.0045828394817383 0.00015
          0.015535554193674 0.0045828394817383 0.0003 0.011832021157187 0.0073476785459853 0
          0.011779780861271 0.0068646395959748 0 0.012243708910156 0.0068324173193727 0
          0.011832021157187 0.0073476785459853 0.00015 0.011779780861271 0.0068646395959748 0.00015
          0.012243708910156 0.0068324173193727 0.00015 0.011832021157187 0.0073476785459853 0.0003
          0.011779780861271 0.0068646395959748 0.0003 0.012243708910156 0.0068324173193727 0.0003
          0.019357361519954 0.01157618305141 0 0.01884046117173 0.011223113854601 0
          0.019357361519954 0.01157618305141 0.00015 0.01884046117173 0.011223113854601 0.00015
          0.019357361519954 0.01157618305141 0.0003 0.01884046117173 0.011223113854601 0.0003
          0.014554004584986 0.0044253882271801 0 0.015005639561329 0.0040763460944633 0
          0.014554004584986 0.0044253882271801 0.00015 0.015005639561329 0.0040763460944633 0.00015
          0.014554004584986 0.0044253882271801 0.0003 0.015005639561329 0.0040763460944633 0.0003
          0.018384253973557 0.010894663204421 0 0.018384253973557 0.010894663204421 0.00015
          0.018384253973557 0.010894663204421 0.0003 0.017413401850906 0.0060417176080878 0
          0.018057579772584 0.0060827128421873 0 0.018070157245618 0.0068021820766994 0
          0.017413401850906 0.0060417176080878 0.00015 0.018057579772584 0.0060827128421873 0.00015
          0.018070157245618 0.0068021820766994 0.00015 0.017413401850906 0.0060417176080878 0.0003
          0.018057579772584 0.0060827128421873 0.0003 0.018070157245618 0.0068021820766994 0.0003
          0.016291762387835 0.0047307906783276 0 0.016291762387835 0.0047307906783276 0.00015
          0.016291762387835 0.0047307906783276 0.0003 0.012879713087233 0.0060908484912964 0
          0.012982043505355 0.0056371881930815 0 0.012879713087233 0.0060908484912964 0.00015
          0.012982043505355 0.0056371881930815 0.00015 0.012879713087233 0.0060908484912964 0.0003
          0.012982043505355 0.0056371881930815 0.0003 0.01678493258985 0.0053840721103251 0
          0.016848637368385 0.0048798435935376 0 0.01678493258985 0.0053840721103251 0.00015
          0.016848637368385 0.0048798435935376 0.00015 0.01678493258985 0.0053840721103251 0.0003
          0.016848637368385 0.0048798435935376 0.0003 0.012723582323863 0.006509831652106 0
          0.012723582323863 0.006509831652106 0.00015 0.012723582323863 0.006509831652106 0.0003
          0.014128459199836 0.0039835282877348 0 0.014128459199836 0.0039835282877348 0.00015
          0.014128459199836 0.0039835282877348 0.0003 0.018817000838468 0.010560792840001 0
          0.018817000838468 0.010560792840001 0.00015 0.018817000838468 0.010560792840001 0.0003
          0.011043213382792 0.0084269911709333 0 0.011043213382792 0.0084269911709333 0.00015
          0.011043213382792 0.0084269911709333 0.0003 0.011511795106494 0.0083968566041475 0
          0.011511795106494 0.0083968566041475 0.00015 0.011511795106494 0.0083968566041475 0.0003
          0.017341722495578 0.0054175123203669 0 0.017341722495578 0.0054175123203669 0.00015
          0.017341722495578 0.0054175123203669 0.0003 0.01196380743939 0.0083394019710021 0
          0.011894488312007 0.0078344841271679 0 0.01196380743939 0.0083394019710021 0.00015
          0.011894488312007 0.0078344841271679 0.00015 0.01196380743939 0.0083394019710021 0.0003
          0.011894488312007 0.0078344841271679 0.0003 0.018719100515555 0.0096191331103102 0
          0.018769006148643 0.010016813571171 0 0.018719100515555 0.0096191331103102 0.00015
          0.018769006148643 0.010016813571171 0.00015 0.018719100515555 0.0096191331103102 0.0003
          0.018769006148643 0.010016813571171 0.0003 0.019142781766586 0.010156284019367 0
          0.019142781766586 0.010156284019367 0.00015 0.019142781766586 0.010156284019367 0.0003
          0.019871794871807 0.013 0 0.019671681078705 0.012567114388191 0
          0.019871794871807 0.013 0.00015 0.019671681078705 0.012567114388191 0.00015
          0.019871794871807 0.013 0.0003 0.019671681078705 0.012567114388191 0.0003
          0.013590285783394 0.0038446716816234 0 0.013590285783394 0.0038446716816234 0.00015
          0.013590285783394 0.0038446716816234 0.0003 0.018696511924608 0.0075816988835645 0
          0.018734278863615 0.0068564365277259 0 0.018696511924608 0.0075816988835645 0.00015
          0.018734278863615 0.0068564365277259 0.00015 0.018696511924608 0.0075816988835645 0.0003
          0.018734278863615 0.0068564365277259 0.0003 0.013091675611077 0.0041736873632184 0
          0.013121586466294 0.0036708577033715 0 0.013091675611077 0.0041736873632184 0.00015
          0.013121586466294 0.0036708577033715 0.00015 0.013091675611077 0.0041736873632184 0.0003
          0.013121586466294 0.0036708577033715 0.0003 0.019497075330812 0.012129782091497 0
          0.019497075330812 0.012129782091497 0.00015 0.019497075330812 0.012129782091497 0.0003
          0.012592651705639 0.0068198098450163 0 0.012592651705639 0.0068198098450163 0.00015
          0.012592651705639 0.0068198098450163 0.0003 0.018655444813331 0.0089912542068827 0
          0.018655444813331 0.0089912542068827 0.00015 0.018655444813331 0.0089912542068827 0.0003
          0.018643245907353 0.0082916041839039 0 0.018643245907353 0.0082916041839039 0.00015
          0.018643245907353 0.0082916041839039 0.0003 0.013048655853798 0.0051555709380823 0
          0.013048655853798 0.0051555709380823 0.00015 0.013048655853798 0.0051555709380823 0.0003
          0.013084530633285 0.0046685927017207 0 0.013084530633285 0.0046685927017207 0.00015
          0.013084530633285 0.0046685927017207 0.0003
          <InformationKey name="L2_NORM_RANGE" location="vtkDataArray" length="2">
            <Value index="0">
              0.013166738444
            </Value>
            <Value index="1">
              0.023748225859
            </Value>
          </InformationKey>
        </DataArray>
      </Points>
      <Cells>
        <DataArray type="Int64" Name="connectivity" format="ascii" RangeMin="0" RangeMax="794">
          0 1 2 3 4 5
          6 7 4 5 6 7
          8 9 10 11 12 13
          14 15 16 17 18 19
          16 17 18 19 20 21
          22 23 666 667 14 24
          668 669 18 25 668 669
          18 25 670 671 22 26
          24 14 13 27 25 18
          17 28 25 18 17 28
          26 22 21 29 30 31
          3 2 32 33 7 6
          32 33 7 6 34 35
          11 10 36 37 38 39
          40 41 42 43 40 41
          42 43 44 45 46 47
          48 49 50 51 52 53
          54 55 52 53 54 55
          56 57 58 59 60 61
          62 63 64 65 66 67
          64 65 66 67 68 69
          70 71 72 73 672 74
          75 76 673 77 75 76
          673 77 78 79 674 80
          81 82 83 84 85 86
          87 88 85 86 87 88
          89 90 91 92 93 675
          676 677 94 678 679 680
          94 678 679 680 95 681
          682 683 2 96 97 30
          6 98 99 32 6 98
          99 32 10 100 101 34
          102 103 0 104 105 106
          4 107 105 106 4 107
          108 109 8 110 111 112
          113 114 115 116 117 118
          115 116 117 118 119 120
          121 122 123 124 50 125
          126 127 54 128 126 127
          54 128 129 130 58 131
          132 133 134 51 135 136
          137 55 135 136 137 55
          138 139 140 59 141 142
          143 144 145 146 147 148
          145 146 147 148 149 150
          151 152 112 141 144 113
          116 145 148 117 116 145
          148 117 120 149 152 121
          84 83 153 154 88 87
          155 156 88 87 155 156
          92 91 157 158 159 160
          161 38 162 163 164 42
          162 163 164 42 165 166
          167 46 168 169 170 171
          172 173 174 175 172 173
          174 175 176 177 178 179
          684 180 181 685 686 182
          183 687 686 182 183 687
          688 184 185 689 186 104
          0 187 188 107 4 189
          188 107 4 189 190 110
          8 191 690 691 672 73
          692 693 673 76 692 693
          673 76 694 695 674 79
          198 199 200 201 202 203
          204 205 202 203 204 205
          206 207 208 209 210 72
          74 211 212 75 77 213
          212 75 77 213 214 78
          80 215 216 82 81 217
          218 86 85 219 218 86
          85 219 220 90 89 221
          222 216 217 223 224 218
          219 225 224 218 219 225
          226 220 221 227 171 39
          38 161 175 43 42 164
          175 43 42 164 179 47
          46 167 228 696 685 181
          229 697 687 183 229 697
          687 183 230 698 689 185
          231 699 700 701 232 702
          703 704 232 702 703 704
          233 705 706 707 31 30
          201 200 33 32 205 204
          33 32 205 204 35 34
          209 208 234 235 236 237
          238 239 240 241 238 239
          240 241 242 243 244 245
          36 246 247 248 40 249
          250 251 40 249 250 251
          44 252 253 254 83 255
          256 153 87 257 258 155
          87 257 258 155 91 259
          260 157 235 699 231 236
          239 702 232 240 239 702
          232 240 243 705 233 244
          168 171 161 261 172 175
          164 262 172 175 164 262
          176 179 167 263 171 170
          36 39 175 174 40 43
          175 174 40 43 179 178
          44 47 264 265 266 267
          268 269 270 271 268 269
          270 271 272 273 274 275
          237 276 211 234 241 277
          213 238 241 277 213 238
          245 278 215 242 279 160
          237 236 280 163 241 240
          280 163 241 240 281 166
          245 244 234 211 74 282
          238 213 77 283 238 213
          77 283 242 215 80 284
          285 228 181 286 287 229
          183 288 287 229 183 288
          289 230 185 290 291 168
          261 292 293 172 262 294
          293 172 262 294 295 176
          263 296 297 298 256 255
          299 300 258 257 299 300
          258 257 301 302 260 259
          303 304 97 96 305 306
          99 98 305 306 99 98
          307 308 101 100 309 247
          114 113 310 250 118 117
          310 250 118 117 311 253
          122 121 304 312 313 97
          306 314 315 99 306 314
          315 99 308 316 317 101
          282 74 672 708 283 77
          673 709 283 77 673 709
          284 80 674 710 318 303
          96 319 320 305 98 321
          320 305 98 321 322 307
          100 323 285 187 0 3
          287 189 4 7 287 189
          4 7 289 191 8 11
          223 711 712 324 225 713
          714 325 225 713 714 325
          227 715 716 326 327 210
          211 276 328 212 213 277
          328 212 213 277 329 214
          215 278 717 282 708 718
          719 283 709 720 719 283
          709 720 721 284 710 722
          276 237 160 159 277 241
          163 162 277 241 163 162
          278 245 166 165 330 318
          319 331 332 320 321 333
          332 320 321 333 334 322
          323 335 324 336 222 223
          325 337 224 225 325 337
          224 225 326 338 226 227
          292 261 279 339 294 262
          280 340 294 262 280 340
          296 263 281 341 342 343
          210 327 344 345 212 328
          344 345 212 328 346 347
          214 329 696 228 31 200
          697 229 33 204 697 229
          33 204 698 230 35 208
          298 348 349 256 300 350
          351 258 300 350 351 258
          302 352 353 260 336 343
          342 222 337 345 344 224
          337 345 344 224 338 347
          346 226 96 2 1 319
          98 6 5 321 98 6
          5 321 100 10 9 323
          103 354 355 356 106 357
          358 359 106 357 358 359
          109 360 361 362 339 279
          236 231 340 280 240 232
          340 280 240 232 341 281
          244 233 363 364 365 366
          367 368 369 370 367 368
          369 370 371 372 373 374
          375 376 377 378 379 380
          381 382 379 380 381 382
          383 384 385 386 169 168
          291 312 173 172 293 314
          173 172 293 314 177 176
          295 316 216 222 342 387
          218 224 344 388 218 224
          344 388 220 226 346 389
          223 217 723 711 225 219
          724 713 225 219 724 713
          227 221 725 715 160 279
          261 161 163 280 262 164
          163 280 262 164 166 281
          263 167 356 355 330 331
          359 358 332 333 359 358
          332 333 362 361 334 335
          363 390 391 364 367 392
          393 368 367 392 393 368
          371 394 395 372 396 397
          726 690 398 399 727 692
          398 399 727 692 400 401
          728 694 390 402 403 391
          392 404 405 393 392 404
          405 393 394 406 407 395
          235 234 282 717 239 238
          283 719 239 238 283 719
          243 242 284 721 313 201
          30 97 315 205 32 99
          315 205 32 99 317 209
          34 101 248 247 309 348
          251 250 310 350 251 250
          310 350 254 253 311 352
          200 199 729 696 204 203
          730 697 204 203 730 697
          208 207 731 698 408 409
          375 378 410 411 379 382
          410 411 379 382 412 413
          383 386 153 256 349 366
          155 258 351 370 155 258
          351 370 157 260 353 374
          414 408 378 415 416 410
          382 417 416 410 382 417
          418 412 386 419 420 248
          348 298 421 251 350 300
          421 251 350 300 422 254
          352 302 423 327 276 159
          424 328 277 162 424 328
          277 162 425 329 278 165
          426 427 428 429 430 431
          432 433 430 431 432 433
          434 435 436 437 336 324
          438 439 337 325 440 441
          337 325 440 441 338 326
          442 443 667 732 15 14
          669 733 19 18 669 733
          19 18 671 734 23 22
          444 445 446 447 448 449
          450 451 448 449 450 451
          452 453 454 455 415 456
          457 458 417 459 460 461
          417 459 460 461 419 462
          463 464 12 465 408 414
          16 466 410 416 16 466
          410 416 20 467 412 418
          465 403 409 408 466 405
          411 410 466 405 411 410
          467 407 413 412 376 375
          429 428 380 379 433 432
          380 379 433 432 384 383
          437 436 114 468 469 111
          118 470 471 115 118 470
          471 115 122 472 473 119
          37 423 159 38 41 424
          162 42 41 424 162 42
          45 425 165 46 474 475
          390 363 476 477 392 367
          476 477 392 367 478 479
          394 371 429 375 409 480
          433 379 411 481 433 379
          411 481 437 383 413 482
          342 483 297 387 344 484
          299 388 344 484 299 388
          346 485 301 389 348 309
          474 349 350 310 476 351
          350 310 476 351 352 311
          478 353 480 409 403 402
          481 411 405 404 481 411
          405 404 482 413 407 406
          266 265 376 428 270 269
          380 432 270 269 380 432
          274 273 384 436 486 487
          364 391 488 489 368 393
          488 489 368 393 490 491
          372 395 447 446 492 493
          451 450 494 495 451 450
          494 495 455 454 496 497
          483 420 298 297 484 421
          300 299 484 421 300 299
          485 422 302 301 498 267
          63 499 500 271 67 501
          500 271 67 501 502 275
          71 503 378 377 456 415
          382 381 459 417 382 381
          459 417 386 385 462 419
          504 62 505 506 507 66
          508 509 507 66 508 509
          510 70 511 512 513 61
          426 514 515 65 430 516
          515 65 430 516 517 69
          434 518 499 63 62 504
          501 67 66 507 501 67
          66 507 503 71 70 510
          474 363 366 349 476 367
          370 351 476 367 370 351
          478 371 374 353 519 520
          376 265 521 522 380 269
          521 522 380 269 523 524
          384 273 506 505 525 526
          509 508 527 528 509 508
          527 528 512 511 529 530
          531 377 376 520 532 381
          380 522 532 381 380 522
          533 385 384 524 534 535
          536 537 538 539 540 541
          538 539 540 541 542 543
          544 545 546 536 535 547
          548 540 539 549 548 540
          539 549 550 544 543 551
          141 330 355 123 145 332
          358 126 145 332 358 126
          149 334 361 129 327 423
          483 342 328 424 484 344
          328 424 484 344 329 425
          485 346 193 531 520 552
          195 532 522 553 195 532
          522 553 197 533 524 554
          134 555 526 525 137 556
          528 527 137 556 528 527
          140 557 530 529 480 558
          426 429 481 559 430 433
          481 559 430 433 482 560
          434 437 391 403 465 486
          393 405 466 488 393 405
          466 488 395 407 467 490
          465 12 15 561 466 16
          19 562 466 16 19 562
          467 20 23 563 402 390
          475 564 404 392 477 565
          404 392 477 565 406 394
          479 566 567 568 49 514
          569 570 53 516 569 570
          53 516 571 572 57 518
          558 567 514 426 559 569
          516 430 559 569 516 430
          560 571 518 434 564 475
          143 573 565 477 147 574
          565 477 147 574 566 479
          151 575 561 15 732 735
          562 19 733 736 562 19
          733 736 563 23 734 737
          228 285 3 31 229 287
          7 33 229 287 7 33
          230 289 11 35 576 198
          201 313 577 202 205 315
          577 202 205 315 578 206
          209 317 356 331 319 1
          359 333 321 5 359 333
          321 5 362 335 323 9
          1 0 103 356 5 4
          106 359 5 4 106 359
          9 8 109 362 558 480
          402 564 559 481 404 565
          559 481 404 565 560 482
          406 566 699 235 717 738
          702 239 719 739 702 239
          719 739 705 243 721 740
          73 582 396 690 76 583
          398 692 76 583 398 692
          79 584 400 694 741 742
          585 586 743 744 587 588
          743 744 587 588 745 746
          589 590 72 210 343 591
          75 212 345 592 75 212
          345 592 78 214 347 593
          439 591 343 336 441 592
          345 337 441 592 345 337
          443 593 347 338 576 313
          312 291 577 315 314 293
          577 315 314 293 578 317
          316 295 469 169 312 304
          471 173 314 306 471 173
          314 306 473 177 316 308
          594 365 364 487 595 369
          368 489 595 369 368 489
          596 373 372 491 591 439
          396 582 592 441 398 583
          592 441 398 583 593 443
          400 584 564 573 567 558
          565 574 569 559 565 574
          569 559 566 575 571 560
          573 597 568 567 574 598
          570 569 574 598 570 569
          575 599 572 571 747 748
          199 198 749 750 203 202
          749 750 203 202 751 752
          207 206 420 483 423 37
          421 484 424 41 421 484
          424 41 422 485 425 45
          600 486 465 561 601 488
          466 562 601 488 466 562
          602 490 467 563 561 735
          741 600 562 736 743 601
          562 736 743 601 563 737
          745 602 37 36 248 420
          41 40 251 421 41 40
          251 421 45 44 254 422
          594 487 486 600 595 489
          488 601 595 489 488 601
          596 491 490 602 468 170
          169 469 470 174 173 471
          470 174 173 471 472 178
          177 473 264 492 519 265
          268 494 521 269 268 494
          521 269 272 496 523 273
          414 579 13 12 416 580
          17 16 416 580 17 16
          418 581 21 20 154 153
          366 365 156 155 370 369
          156 155 370 369 158 157
          374 373 339 231 701 603
          340 232 704 604 340 232
          704 604 341 233 707 605
          591 582 73 72 592 583
          76 75 592 583 76 75
          593 584 79 78 606 292
          339 603 607 294 340 604
          607 294 340 604 608 296
          341 605 547 609 610 546
          549 611 612 548 549 611
          612 548 551 613 614 550
          60 427 426 61 64 431
          430 65 64 431 430 65
          68 435 434 69 576 291
          292 606 577 293 294 607
          577 293 294 607 578 295
          296 608 615 616 555 134
          617 618 556 137 617 618
          556 137 619 620 557 140
          586 594 600 741 588 595
          601 743 588 595 601 743
          590 596 602 745 83 387
          297 255 87 388 299 257
          87 388 299 257 91 389
          301 259 144 143 475 474
          148 147 477 476 148 147
          477 476 152 151 479 478
          111 469 304 303 115 471
          306 305 115 471 306 305
          119 473 308 307 753 729
          199 748 754 730 203 750
          754 730 203 750 755 731
          207 752 505 62 61 513
          508 66 65 515 508 66
          65 515 511 70 69 517
          756 610 609 757 758 612
          611 759 758 612 611 759
          760 614 613 761 216 387
          83 82 218 388 87 86
          218 388 87 86 220 389
          91 90 285 621 186 187
          287 622 188 189 287 622
          188 189 289 623 190 191
          264 624 493 492 268 625
          495 494 268 625 495 494
          272 626 497 496 726 397
          627 762 727 399 628 763
          727 399 628 763 728 401
          629 764 630 631 181 180
          632 633 183 182 632 633
          183 182 634 635 185 184
          586 154 365 594 588 156
          369 595 588 156 369 595
          590 158 373 596 765 603
          701 766 767 604 704 768
          767 604 704 768 769 605
          707 770 636 637 186 638
          639 640 188 641 639 640
          188 641 642 643 190 644
          125 50 49 568 128 54
          53 570 128 54 53 570
          131 58 57 572 645 638
          186 646 647 641 188 648
          647 641 188 648 649 644
          190 650 534 646 186 621
          538 648 188 622 538 648
          188 622 542 650 190 623
          93 585 742 675 94 587
          744 678 94 587 744 678
          95 589 746 681 48 51
          134 525 52 55 137 527
          52 55 137 527 56 59
          140 529 627 771 772 762
          628 773 774 763 628 773
          774 763 629 775 776 764
          630 180 684 777 632 182
          686 778 632 182 686 778
          634 184 688 779 154 586
          585 84 156 588 587 88
          156 588 587 88 158 590
          589 92 651 286 181 631
          652 288 183 633 652 288
          183 633 653 290 185 635
          186 637 654 104 188 640
          655 107 188 640 655 107
          190 643 656 110 474 309
          113 144 476 310 117 148
          476 310 117 148 478 311
          121 152 63 267 266 60
          67 271 270 64 67 271
          270 64 71 275 274 68
          616 615 654 657 618 617
          655 658 618 617 655 658
          620 619 656 659 627 397
          396 660 628 399 398 661
          628 399 398 661 629 401
          400 662 579 414 415 458
          580 416 417 461 580 416
          417 461 581 418 419 464
          651 631 547 535 652 633
          549 539 652 633 549 539
          653 635 551 543 723 217
          81 780 724 219 85 781
          724 219 85 781 725 221
          89 782 663 446 445 192
          664 450 449 194 664 450
          449 194 665 454 453 196
          142 597 573 143 146 598
          574 147 146 598 574 147
          150 599 575 151 783 747
          198 576 784 749 202 577
          784 749 202 577 785 751
          206 578 48 513 514 49
          52 515 516 53 52 515
          516 53 56 517 518 57
          318 330 141 112 320 332
          145 116 320 332 145 116
          322 334 149 120 651 621
          285 286 652 622 287 288
          652 622 287 288 653 623
          289 290 60 266 428 427
          64 270 432 431 64 270
          432 431 68 274 436 435
          354 124 123 355 357 127
          126 358 357 127 126 358
          360 130 129 361 303 318
          112 111 305 320 116 115
          305 320 116 115 307 322
          120 119 630 777 757 609
          632 778 759 611 632 778
          759 611 634 779 761 613
          468 246 36 170 470 249
          40 174 470 249 40 174
          472 252 44 178 615 102
          104 654 617 105 107 655
          617 105 107 655 619 108
          110 656 786 783 576 606
          787 784 577 607 787 784
          577 607 788 785 578 608
          519 492 446 663 521 494
          450 664 521 494 450 664
          523 496 454 665 637 636
          657 654 640 639 658 655
          640 639 658 655 643 642
          659 656 663 192 193 552
          664 194 195 553 664 194
          195 553 665 196 197 554
          789 438 324 712 790 440
          325 714 790 440 325 714
          791 442 326 716 102 133
          354 103 105 136 357 106
          105 136 357 106 108 139
          360 109 646 534 537 645
          648 538 541 647 648 538
          541 647 650 542 545 649
          525 505 513 48 527 508
          515 52 527 508 515 52
          529 511 517 56 660 396
          439 438 661 398 441 440
          661 398 441 440 662 400
          443 442 765 786 606 603
          767 787 607 604 767 787
          607 604 769 788 608 605
          624 264 267 498 625 268
          271 500 625 268 271 500
          626 272 275 502 468 114
          247 246 470 118 250 249
          470 118 250 249 472 122
          253 252 535 534 621 651
          539 538 622 652 539 538
          622 652 543 542 623 653
          93 81 84 585 94 85
          88 587 94 85 88 587
          95 89 92 589 438 789
          792 660 440 790 793 661
          440 790 793 661 442 791
          794 662 124 132 51 50
          127 135 55 54 127 135
          55 54 130 138 59 58
          663 552 520 519 664 553
          522 521 664 553 522 521
          665 554 524 523 609 547
          631 630 611 549 633 632
          611 549 633 632 613 551
          635 634 125 142 141 123
          128 146 145 126 128 146
          145 126 131 150 149 129
          102 615 134 133 105 617
          137 136 105 617 137 136
          108 619 140 139 142 125
          568 597 146 128 570 598
          146 128 570 598 150 131
          572 599 124 354 133 132
          127 357 136 135 127 357
          136 135 130 360 139 138
          660 792 771 627 661 793
          773 628 661 793 773 628
          662 794 775 629 81 93
          677 780 85 94 680 781
          85 94 680 781 89 95
          683 782
        </DataArray>
        <DataArray type="Int64" Name="offsets" format="ascii" RangeMin="8" RangeMax="3632">
          8 16 24 32 40 48
          56 64 72 80 88 96
          104 112 120 128 136 144
          152 160 168 176 184 192
          200 208 216 224 232 240
          248 256 264 272 280 288
          296 304 312 320 328 336
          344 352 360 368 376 384
          392 400 408 416 424 432
          440 448 456 464 472 480
          488 496 504 512 520 528
          536 544 552 560 568 576
          584 592 600 608 616 624
          632 640 648 656 664 672
          680 688 696 704 712 720
          728 736 744 752 760 768
          776 784 792 800 808 816
          824 832 840 848 856 864
          872 880 888 896 904 912
          920 928 936 944 952 960
          968 976 984 992 1000 1008
          1016 1024 1032 1040 1048 1056
          1064 1072 1080 1088 1096 1104
          1112 1120 1128 1136 1144 1152
          1160 1168 1176 1184 1192 1200
          1208 1216 1224 1232 1240 1248
          1256 1264 1272 1280 1288 1296
          1304 1312 1320 1328 1336 1344
          1352 1360 1368 1376 1384 1392
          1400 1408 1416 1424 1432 1440
          1448 1456 1464 1472 1480 1488
          1496 1504 1512 1520 1528 1536
          1544 1552 1560 1568 1576 1584
          1592 1600 1608 1616 1624 1632
          1640 1648 1656 1664 1672 1680
          1688 1696 1704 1712 1720 1728
          1736 1744 1752 1760 1768 1776
          1784 1792 1800 1808 1816 1824
          1832 1840 1848 1856 1864 1872
          1880 1888 1896 1904 1912 1920
          1928 1936 1944 1952 1960 1968
          1976 1984 1992 2000 2008 2016
          2024 2032 2040 2048 2056 2064
          2072 2080 2088 2096 2104 2112
          2120 2128 2136 2144 2152 2160
          2168 2176 2184 2192 2200 2208
          2216 2224 2232 2240 2248 2256
          2264 2272 2280 2288 2296 2304
          2312 2320 2328 2336 2344 2352
          2360 2368 2376 2384 2392 2400
          2408 2416 2424 2432 2440 2448
          2456 2464 2472 2480 2488 2496
          2504 2512 2520 2528 2536 2544
          2552 2560 2568 2576 2584 2592
          2600 2608 2616 2624 2632 2640
          2648 2656 2664 2672 2680 2688
          2696 2704 2712 2720 2728 2736
          2744 2752 2760 2768 2776 2784
          2792 2800 2808 2816 2824 2832
          2840 2848 2856 2864 2872 2880
          2888 2896 2904 2912 2920 2928
          2936 2944 2952 2960 2968 2976
          2984 2992 3000 3008 3016 3024
          3032 3040 3048 3056 3064 3072
          3080 3088 3096 3104 3112 3120
          3128 3136 3144 3152 3160 3168
          3176 3184 3192 3200 3208 3216
          3224 3232 3240 3248 3256 3264
          3272 3280 3288 3296 3304 3312
          3320 3328 3336 3344 3352 3360
          3368 3376 3384 3392 3400 3408
          3416 3424 3432 3440 3448 3456
          3464 3472 3480 3488 3496 3504
          3512 3520 3528 3536 3544 3552
          3560 3568 3576 3584 3592 3600
          3608 3616 3624 3632
        </DataArray>
        <DataArray type="UInt8" Name="types" format="ascii" RangeMin="12" RangeMax="12">
          12 12 12 12 12 12
          12 12 12 12 12 12
          12 12 12 12 12 12
          12 12 12 12 12 12
          12 12 12 12 12 12
          12 12 12 12 12 12
          12 12 12 12 12 12
          12 12 12 12 12 12
          12 12 12 12 12 12
          12 12 12 12 12 12
          12 12 12 12 12 12
          12 12 12 12 12 12
          12 12 12 12 12 12
          12 12 12 12 12 12
          12 12 12 12 12 12
          12 12 12 12 12 12
          12 12 12 12 12 12
          12 12 12 12 12 12
          12 12 12 12 12 12
          12 12 12 12 12 12
          12 12 12 12 12 12
          12 12 12 12 12 12
          12 12 12 12 12 12
          12 12 12 12 12 12
          12 12 12 12 12 12
          12 12 12 12 12 12
          12 12 12 12 12 12
          12 12 12 12 12 12
          12 12 12 12 12 12
          12 12 12 12 12 12
          12 12 12 12 12 12
          12 12 12 12 12 12
          12 12 12 12 12 12
          12 12 12 12 12 12
          12 12 12 12 12 12
          12 12 12 12 12 12
          12 12 12 12 12 12
          12 12 12 12 12 12
          12 12 12 12 12 12
          12 12 12 12 12 12
          12 12 12 12 12 12
          12 12 12 12 12 12
          12 12 12 12 12 12
          12 12 12 12 12 12
          12 12 12 12 12 12
          12 12 12 12 12 12
          12 12 12 12 12 12
          12 12 12 12 12 12
          12 12 12 12 12 12
          12 12 12 12 12 12
          12 12 12 12 12 12
          12 12 12 12 12 12
          12 12 12 12 12 12
          12 12 12 12 12 12
          12 12 12 12 12 12
          12 12 12 12 12 12
          12 12 12 12 12 12
          12 12 12 12 12 12
          12 12 12 12 12 12
          12 12 12 12 12 12
          12 12 12 12 12 12
          12 12 12 12 12 12
          12 12 12 12 12 12
          12 12 12 12 12 12
          12 12 12 12 12 12
          12 12 12 12 12 12
          12 12 12 12 12 12
          12 12 12 12 12 12
          12 12 12 12 12 12
          12 12 12 12 12 12
          12 12 12 12 12 12
          12 12 12 12 12 12
          12 12 12 12 12 12
          12 12 12 12 12 12
          12 12 12 12 12 12
          12 12 12 12
        </DataArray>
      </Cells>
    </Piece>
  </UnstructuredGrid>
</VTKFile>
