<?xml version="1.0"?>
<VTKFile type="UnstructuredGrid" version="0.1" byte_order="LittleEndian" header_type="UInt32" compressor="vtkZLibDataCompressor">
  <UnstructuredGrid>
    <Piece NumberOfPoints="756" NumberOfCells="468">
      <PointData>
        <DataArray type="Int32" Name="libmesh_node_id" format="ascii" RangeMin="120" RangeMax="2168">
          120 121 122 123 124 125
          126 127 128 129 130 131
          132 133 134 135 136 137
          138 139 140 141 142 143
          144 145 146 147 148 149
          150 151 152 153 154 155
          156 157 158 159 160 161
          162 163 164 165 166 167
          168 169 170 171 172 173
          174 175 176 177 178 179
          240 241 242 243 244 245
          246 247 248 249 250 251
          252 253 254 255 256 257
          258 259 260 261 262 263
          264 265 266 267 268 269
          330 331 332 333 334 335
          336 337 338 339 340 341
          342 343 344 345 346 347
          348 349 350 351 352 353
          354 355 356 357 358 359
          420 421 422 423 424 425
          426 427 428 429 430 431
          432 433 434 435 436 437
          438 439 440 441 442 443
          444 445 446 447 448 449
          510 511 512 513 514 515
          516 517 518 519 520 521
          522 523 524 525 526 527
          528 529 530 531 532 533
          534 535 536 537 538 539
          600 601 602 603 604 605
          606 607 608 609 610 611
          612 613 614 615 616 617
          618 619 620 621 622 623
          624 625 626 627 628 629
          690 691 692 693 694 695
          696 697 698 699 700 701
          702 703 704 705 706 707
          708 709 710 711 712 713
          714 715 716 717 718 719
          780 781 782 783 784 785
          786 787 788 789 790 791
          792 793 794 795 796 797
          798 799 800 801 802 803
          804 805 806 807 808 809
          876 877 878 879 880 881
          882 883 884 885 886 887
          888 889 890 891 892 893
          894 895 896 897 898 899
          900 901 902 903 904 905
          906 907 908 909 910 911
          912 913 914 915 916 917
          918 919 920 921 922 923
          924 925 926 927 928 929
          930 931 932 933 934 935
          936 937 938 939 940 941
          942 943 944 945 946 947
          948 949 950 951 952 953
          954 955 956 957 958 959
          960 961 962 963 964 965
          966 967 968 969 970 971
          972 973 974 975 976 977
          978 979 980 981 982 983
          984 985 986 987 988 989
          990 991 992 993 994 995
          996 997 998 999 1000 1001
          1002 1003 1004 1005 1006 1007
          1008 1009 1010 1011 1012 1013
          1014 1015 1016 1017 1018 1019
          1020 1021 1022 1023 1024 1025
          1026 1027 1028 1029 1030 1031
          1032 1033 1034 1035 1036 1037
          1038 1039 1040 1041 1042 1043
          1044 1045 1046 1047 1048 1049
          1050 1051 1052 1053 1054 1055
          1056 1057 1058 1059 1060 1061
          1062 1063 1064 1065 1066 1067
          1068 1069 1070 1071 1072 1073
          1074 1075 1076 1077 1078 1079
          1080 1081 1082 1083 1084 1085
          1086 1087 1088 1089 1090 1091
          1092 1093 1094 1095 1096 1097
          1098 1099 1100 1101 1102 1103
          1104 1105 1106 1107 1108 1109
          1110 1111 1112 1113 1114 1115
          1116 1117 1118 1119 1120 1121
          1122 1123 1124 1125 1126 1127
          1128 1129 1130 1131 1132 1133
          1134 1135 1136 1137 1138 1139
          1140 1141 1142 1143 1144 1145
          1146 1147 1148 1149 1150 1151
          1152 1153 1154 1155 1156 1157
          1158 1159 1160 1161 1162 1163
          1164 1165 1166 1167 1168 1169
          1170 1171 1172 1173 1174 1175
          1176 1177 1178 1179 1180 1181
          1182 1183 1184 1185 1186 1187
          1188 1189 1190 1191 1192 1193
          1194 1195 1196 1197 1198 1199
          1200 1201 1202 1203 1204 1205
          1206 1207 1208 1209 1210 1211
          1212 1213 1214 1215 1216 1217
          1218 1219 1220 1221 1222 1223
          1224 1225 1226 1227 1228 1229
          1230 1231 1232 1233 1234 1235
          1236 1237 1238 1239 1240 1241
          1242 1243 1244 1245 1246 1247
          1248 1249 1250 1251 1252 1253
          1254 1255 1256 1257 1258 1259
          1260 1261 1262 1263 1264 1265
          1266 1267 1268 1269 1270 1271
          1893 1894 1895 1896 1897 1898
          1920 1921 1922 1923 1924 1925
          1947 1948 1949 1974 1975 1976
          2001 2002 2003 2028 2029 2030
          2055 2056 2057 2112 2113 2114
          2115 2116 2117 2124 2125 2126
          2127 2128 2129 2130 2131 2132
          2133 2134 2135 2148 2149 2150
          2151 2152 2153 2164 2166 2168
          1926 1899 1927 1900 1928 1901
          1950 1951 1952 1953 1954 1955
          1977 1978 1979 2004 2005 2006
          2031 2032 2033 2058 2059 2060
          2142 2144 2146 2163 2143 2096
          2165 2145 2100 2167 2147 2104
        </DataArray>
        <DataArray type="Float64" Name="resid_x" format="ascii" RangeMin="-20.180326713689887" RangeMax="0.06045371252305243">
          -0.00016002493395195216 -8.235677827418264 -0.00012919497555419213 -16.53452775971339 -0.00029208048553552857 -8.390987399209923
          -0.00006956145525016666 -8.260783717689158 -0.00005073587977300065 -16.675769801639106 -0.0006945681874741538 -8.62550233145689
          0.000045146215343017104 -8.35568121703734 0.00010149963059280509 -16.951078699038135 -0.0014099194616479238 -8.979474632930517
          0.00006380717813758707 -8.55197632259415 0.0002102118898674732 -17.34321916225801 -0.0021184113544929772 -9.359620587720222
          0.00020433161601385308 -8.81136270954782 0.00040017704637129725 -17.776362537370744 -0.002485633093370687 -9.636202127509918
          0.0003763167726793526 -9.056490232422899 0.0007071410649155396 -18.169181313717896 -0.0019723466279737423 -9.716942400356363
          0.0005215814709806921 -9.290961792098663 0.000977518490617335 -18.569022966783873 -0.0004171837718800475 -9.58454956972611
          0.0007014666803737413 -9.605117019943531 0.001319105787259467 -19.11302912054941 0.0026910037755536464 -9.26779114746813
          0.0027368351693954907 -10.183541300612998 0.00484524371345163 -20.180326713689887 0.011435807836196688 -8.802095585509976
          0.008389863493884153 -6.325582298192575 0.014863896970639445 -12.479291205648623 0.019512834094863457 -4.807623954795348
          -0.00013115748984304787 -0.000005905058027444454 -0.0006896486589376138 -0.00008712174583536125 0.000037621217972905185 -0.0015768343625515158
          0.00045834409792355757 0.0005568237683437616 -0.0029614312094770057 0.001029905014652499 0.0012859341117543721 -0.004210380595416119
          0.0016146770770273378 0.002002914754799079 -0.004680839818658633 0.002359995553615768 0.002944904719097252 -0.003569685100939246
          0.0029852495284563574 0.0037953344759440455 -0.0003688679391222749 0.0035293980516417633 0.0048306303321918875 0.005993140242890327
          0.005842293276807631 0.008787825420125017 0.020579533477205647 0.010053226294736373 0.017400014756027815 0.03244814204012014
          -0.0000794222271496281 -0.000024302990479618813 -0.0014278885649794404 0.0000245509497558416 0.00018189311484473336 -0.0026838482662885355
          0.00021557717206821536 0.0002248324913516342 -0.004542997160840834 0.0006070998057632337 0.0006977822576166304 -0.00598045178323936
          0.0008741080043606075 0.0010740331932090896 -0.006261728581725912 0.0012912163434055657 0.001644900354509815 -0.004364665824697411
          0.0017909976215362278 0.002378660616514594 0.00038080830193099047 0.00232160138046833 0.0032915824866996957 0.00897616256979683
          0.00546634372811905 0.009044144276635357 0.02810439478395388 0.01085496894665336 0.019445981484694924 0.04399715002172916
          0.00010175682853041934 0.00022173663836078106 -0.002467627457606092 0.00015329030378286035 0.0002934292279723749 -0.004242712056261588
          0.00022186455742811972 0.0003024955640240634 -0.006304248939429158 0.0006994293146309616 0.0008605046216438872 -0.007670280041943478
          0.0008907939761240158 0.0011519849674597182 -0.007535873522367176 0.001245674441991973 0.0017229479609479625 -0.004760933636307918
          0.0016813781881506173 0.0023668106139798084 0.001321275450084869 0.002171712203859144 0.0031186581566080562 0.011633459015732761
          0.005061428801580448 0.008268365647938758 0.03196726397216043 0.009087837449024194 0.0165700778168536 0.04469353966159639
          8.585096766822176e-7 0.00014018555540218358 -0.004058766995290064 0.0002175152353967036 0.0003354612367383325 -0.0061866552185980694
          0.00031439678019751227 0.0003064778905819132 -0.008281859194769758 0.0006501390836053389 0.0006416060970266813 -0.009279931323042057
          0.0007920060939570206 0.0009235749743172761 -0.008417958496259814 0.0011501452809223878 0.0015201220743232824 -0.00476194478558245
          0.0014883522127107085 0.002129853537428339 0.0025227943614183346 0.002000955122823278 0.0027249091046623874 0.013945500136056665
          0.004357507621103984 0.006840587295046774 0.03358967226503973 0.0045715917367881165 0.00850925972397265 0.03950645294117905
          0.000051854168033660386 0.00026112908777697896 -0.005990701354016359 0.0002719276560010364 0.0004901081788304396 -0.008160084185175442
          0.0004283175177759446 0.00037653311382079835 -0.009991727760739977 0.0004799133597588323 0.00035337060569995415 -0.010356271879908618
          0.0006282251517895077 0.0005694735668990702 -0.008741277049482576 0.001002487869557811 0.0012017255552096984 -0.004218019312554944
          0.0013713643672002007 0.001987179159229413 0.00403600432578477 0.001906805740079065 0.00268327196821172 0.016028832844273033
          0.0035889605824390713 0.005877727387865406 0.034410526002252695 0.00283979642915666 0.005172564686470205 0.0340713092899384
          0.00012908434048775064 0.00043474544186583586 -0.007884532880647832 0.0002127891661292125 0.0004210862617135547 -0.009876580945110902
          0.00026769649805924445 0.0002227779142840447 -0.011023014776149864 0.00023917546252594235 0.0000435553733844074 -0.010682904108663127
          0.00035939319784095147 0.00007267342272143651 -0.00840532220552248 0.0006948139576605783 0.0006992635615903353 -0.0032003434082215065
          0.0013631270999177048 0.0019770212104148754 0.005638679227325305 0.00211390786257315 0.003339064746061382 0.01784093512583418
          0.002926108197447874 0.005678379095013675 0.0339888847052805 0.0018514506352780291 0.0044109742958668985 0.029680748730035234
          0.0012039713727078905 0.0027199584596271364 -0.00827508570076052 0.0038390615013703666 0.007540576835104673 -0.007451993569279836
          0.001022076301636865 0.0019150875256386257 -0.010494483765751461 -0.00026208522824600067 -0.0007611645979288539 -0.010755118184741175
          -0.00010539401245424074 -0.0008070445978276553 -0.007976845051104853 0.0003937007654633007 0.00008340323285782603 -0.0021239388698099937
          0.0013093346775168158 0.0018707830839064243 0.007180301026582292 0.0027695147939219567 0.005159486450020623 0.02052292540953271
          0.0019143204299441052 0.005247264056492007 0.03419066753632105 -0.002188254758180852 -0.0028886493729496365 0.023700917977663716
          0.0010685306903246428 0.0009813147835693314 -0.007070723983522598 0.0011359048576897735 0.0010919914132152542 -0.003715148830299775
          0.0008090799799873594 0.00023110037588836008 0.00010079791597572552 0.0006936331033768894 0.0003416594584173538 0.006117049406364039
          -0.00014466383338884725 -0.0012000584681652882 0.014372118396583033 -0.0008766878172545844 -0.003378164010355178 0.02626623339505585
          -0.0016199692456018155 -0.00603341119472578 0.040410184865788956 -0.0017031615419722534 -0.006509208342933448 0.02696562046648765
          -0.00289229990846291 0.0003899537699835198 -0.001961843453710699 -0.003718542020720028 -0.005182995505265298 -0.00023400050015520701
          -0.0035133152327023187 -0.0072755288920500205 -0.001396602632609184 -0.00023717774948184278 -0.0023010764942632544 -0.003018532272733826
          -0.002060894509157918 -0.0035079970543118884 -0.004441117917028725 -0.007084258875198757 -0.0033373550233552485 -0.0037243153547943525
          -0.003594037554300364 -0.0018918888428890897 -0.0028801304527443644 -0.006694739032389013 -0.0037778176081472714 -0.006369010008919075
          -0.001390751073402141 -0.0014022768027573199 -0.00392543479552776 -0.0010503780901148785 0.004549957947955985 -0.008874193922417617
          0.0014943379185288486 -0.0012782090032767979 0.0048008720271102145 -0.011994876420895917 0.0032036802864793545 0.009485051812117562
          0.019037369448536012 0.00636230520009895 0.007463037404902173 -0.0052113133249321875 -0.0024976996197147994 -0.0019068739637150278
          -0.0028223549243852064 -0.008337906451808541 -0.009082643576389882 -0.003639414198387092 -0.004896537397234335 0.022340580074042604
          0.016380437404458603 0.010076430250185009 0.00814422650630875 0.0017912128187183018 0.004676725555362804 0.000566958777240556
          0.0001225237855200234 0.0015793795823659806 0.007159054358867323 0.002739327114825274 0.000733500021557143 0.016453177846094125
          0.018216253496279755 0.013713049228652463 0.01358769018000161 -0.002060603112851611 0.0019053734501451869 0.0008059005484525872
          -0.001458178378150321 -0.0071028104538944925 0.002104588331605761 0.0034616526524025026 -0.00235303221230021 0.007962207921358377
          0.014178435835808356 0.017159216757482332 0.012018715443214423 -0.0021977575222165147 0.0000738839289553539 -0.00492748578596891
          0.0006800329222695911 0.005754433549161053 0.010953255524896344 0.004806952294099998 -0.0005416707802211596 0.006493589986430792
          -0.0005049581808447279 0.00945116220843123 0.013787391010373184 -0.003826078230025372 -0.0010575461181728633 0.0012121284940505433
          -0.0021020411974003728 -0.007959943591720309 -0.0027794394246483094 0.0010219844117278706 -0.005633668844449269 -0.0053083459652652765
          -0.0018816545599149859 -0.0008801120516443162 -0.00339390400812567 0.0004967229076782154 0.003419224988926217 0.0002300159463793916
          -1.7869947665181043 0.001260882267040353 0.005064446467834438 0.0011173348378560322 -3.4127546772422725 0.001860434146767731
          0.007391684192528225 0.0055910813927779746 -1.2555990772246162 0.0036923784531321946 -0.007951265344294356 0.0032326478445245943
          -0.010076483579553763 0.01274013135085783 0.01773751310541344 -0.00009657006480301433 0.0010502690194797992 -0.0008601160930397089
          -0.004350694861816606 -0.0010271190288652088 0.0020552898877737036 -0.0017857341153685868 -0.009189713886748274 0.0006314927693391592
          0.0029808764378906893 -0.0005058122220615857 -0.003986047507620771 0.005389395059324231 -0.014083439256423524 0.023085162396472625
          0.03634789370152314 0.0049422014126092595 -0.03155046053720445 0.035538777204767225 0.05843116774135271 -0.0018828933837065076
          -0.014132649095367156 0.02086577956005564 0.035208013226483814 0.00025103079594882005 -0.0002445648885736722 -0.002625104457134618
          -0.0007654562886049779 0.00028730224258509407 0.00005720939069440902 -0.005637696210435639 -0.0016686359748076113 -0.0006500803810296218
          0.001837313848165073 -0.0026155403631240026 -0.0008502548207997424 -0.00017046714516122385 0.001713003029227611 -0.0000014475306637784513
          0.004067410122923554 0.00851002481233376 0.01576028402976959 0.0034833791234827327 0.0052817537139504545 0.018106062168247172
          -0.006562196880566418 -0.0020571906309040933 -0.011720244238193955 -0.0040063990124780124 -0.0055257667362456075 -0.004096525088318842
          -0.0019132947690927438 -0.0035707787153056447 0.000055776123850770354 -0.0066471445077678215 -0.008587934217204218 -0.001401246312382698
          0.00032002043819856496 -0.00021267552984416405 0.0006924217485760886 -0.0006413907352792458 -0.0016120896947274116 0.0028070640915036638
          -0.004243719754766687 0.0012839310102364387 0.0025679724968110523 -0.003179074453277808 -0.005868737104648081 0.0206419258349384
          0.028249388886933346 0.035786844192072786 0.033979439459392385 -1.2195183103826681 0.001773563395125466 -1.5457353586350397
          -2.475896082552061 0.0037940568909034522 -2.948765711062514 -0.9834717415726433 0.00499894416330654 -1.1498561646560241
          -0.002430348642669354 -0.0002836792756939488 -0.0054614560616055435 0.000137631600502508 0.010033797172197441 0.014167953625321195
          -0.0019530562222038472 -0.009579085485616146 -0.0009864025983260805 -0.01915868538176757 0.002736986048058998 -0.002804626999554083
          0.0011881236522802568 -0.00352051515405314 0.00047512412022286676 -0.006578643847589022 0.008284050036701074 0.010408101663160321
          -1.3604803922126512 0.001699634774567249 0.004361817994643913 -1.6366431865287985 -2.6514150148202233 0.0022587898412171903
          0.006667005380711535 -3.1695420469373268 -1.272389266845971 0.0027268396549837703 0.003997264227511399 -1.399355392176759
          0.0004892118168443593 0.0021507218587513144 0.0014559554574832267 0.0014788755427389555 0.004639058579546829 0.000513647478070034
          0.017238883036926778 0.020642302833523862 0.015230659423366433 -0.000737981857209552 -0.0026838772220847407 -0.002310826698876195
          -0.005386985800232447 0.0022678324260504423 -0.0015497429723536627 0.0029238078021667224 0.0012826837115156309 0.004570093909065376
          0.001985521035879012 0.024731407456636045 0.018599051261183774 0.00015363046892779425 -0.007493052977283421 -0.00012156866434385322
          -0.010114869900675047 0.026814258500228307 0.019726615884368526 -0.0028786221192890205 -0.0013019526780876367 -0.004287054891141229
          -0.0039134930017091785 0.00786708703572403 0.0058830122813540164 0.00004107055734170473 -0.0033915457559975243 -0.00047871945933811166
          -0.00022173038804167156 -0.006495532276883077 -0.0010272113277877554 -0.00008520926942339607 -0.0029124873728926907 -0.00044483315886821584
          0.0006036747592725877 0.00026988370017125285 -0.0037440460928673813 0.0007271077026373973 0.00013906471455353564 -0.008576125184525218
          0.007940589018666344 0.0059712689519459405 0.0025437738614035865 -0.0014105511103548463 -0.0013637398445314752 -1.3280824302475036
          -0.002875111017973331 -0.0018448390547007865 -2.589200192166595 0.0007656854759846288 0.0010820883762127087 -1.0736122440305014
          -1.264313843098523 -2.517771829161472 -1.1897837139499534 -0.00005655050848784454 -0.000694403713178679 -0.004382724438999952
          -0.00200008915904349 -0.00029538774514702507 -0.0016072098686774824 -0.008839772654507194 -0.004022964202616063 -0.00015449311651985834
          -0.000742066055483083 -0.0045044051455283285 -0.00200782336744724 0.002078985167346281 0.008818513553327856 0.001137468102635597
          0.014120302769163484 0.005320620952148247 0.012301159986126187 -0.0025592465203745224 -0.0018908236318995117 -0.0050085340445705714
          -0.0037507408470701456 -0.002339863211229559 -0.0017231813790254819 0.003940974961541388 0.0022264419091100884 0.008300389722051882
          0.0018229917956728708 0.008915644323161609 0.014080605233045218 0.038084383735212946 -0.032081916229403706 0.06045371252305243
          -0.04742591108279437 0.04399785465798489 0.013633501834181327 -0.0030598208170542762 -0.00584636529134408 -0.002784736816661304
          -0.00040954534104931106 -0.0010604514944522192 0.007544127914051568 -0.03656584908397731 0.01789891054943915 -0.06043481286087449
          0.021922778408796972 0.007673160598195006 0.02535792676865689 -0.001057092140369087 -0.0028686403013030715 0.002993684812691244
          -0.007475817226882175 -0.012904514038435178 0.0011270101559679654 -0.0014513792570586131 -0.0028308567968075987 -0.0010196633401308094
          -0.0015350110657537108 -0.0038870510166491012 0.001409737516759213 -0.003859054022137265 -0.007742441367304176 -0.003810318445145233
          -0.0021608321619293776 -0.006601899613705164 -0.006014453821006266 0.02859185323596125 0.0443531281098033 0.028133437128199157
          -1.287428007488694 -2.4448945478064954 -1.074688160131252 -1.6787966768887261 -3.2367370571021805 -1.1640838797213897
          -0.006649341689858368 -0.012926209317807885 -0.006258401327615654 -0.001638698483930565 -0.003348266154205831 -0.0016722031809396978
          0.001838025681121458 0.0013624956556199663 0.002764198534212614 -0.002377881791502112 -0.004538541520035189 0.0019739477927638305
          0.001994365062790493 0.0020190722427049224 0.007888050456326567 -0.0013032502935024226 -0.0019353987351662383 0.007090705870061775
          0.0019788441125410117 0.0023158797496636296 0.013124484430785621 0.001760856479049444 0.0028834683781706616 0.018969015745054385
          0.0016603245433843838 0.0042940353902087836 0.02487768354395481 0.0004443212333731239 0.004168539178422748 0.03015604257210036
          -0.004364893114976676 -0.007057967951278554 0.01664874670160632 -0.0014483561107847542 -0.001505843099949944 -0.0016096661921798372
          -0.002468025505340171 0.003948188198094726 0.003976546646530688 -0.0019387357694348878 -0.004553479954835904 -0.00268358973618521
          -0.0018602216166652141 -0.004204467372160958 -0.009241668114081225 -0.005128619158726755 -0.0030874929368720494 -0.0014604908274410133
          -0.00481193194643037 -0.002284569555424998 0.0005418773360987839 -0.005223100394528002 -0.008807954961122189 -0.004811562182526319
          -0.00229291786058905 -0.0037091779355746812 0.001969374251185929 -0.01825021132734811 -0.035915399009218474 -0.018503175876176614
          -0.0005106084933572674 -0.0013265243799569504 -0.0020668710335023377 -0.0032465996990627133 0.007066973293907708 0.0033556343154312884
          0.0005298323513196479 0.0020328061961354393 0.013083899367122065 0.0007005225887102284 0.0007502287931551166 0.0111114806201833
          0.002073518394476892 0.0035883577903241815 0.01655839069774956 0.002423677004003366 0.004196594024882927 0.019132177325473343
          0.00019880994186927126 -0.0006276194011771707 0.016955664399316284 -0.003877373118765348 -0.008367902999005139 0.004690938771076958
          -0.004901099975938905 -0.0073978599260122735 -0.001829055271246105 -0.014197643733342868 -0.006814963669541374 -0.0005285972448514364
          -0.02576456076289091 -0.010680974106237251 -0.0022077146706944717 -0.008861045881045193 -0.005002125698036153 -0.0023238357080459515
        </DataArray>
        <DataArray type="Float64" Name="resid_y" format="ascii" RangeMin="-0.07756847199698158" RangeMax="0.04304600146352322">
          -0.00025532443168935215 -0.00013367525576976624 -0.0004382722228870456 -0.00035741923079785076 -0.00014626362633698466 -0.00019264500734576025
          0.00017854921389771905 0.00005676816742880217 0.00040469839746579313 -0.00002275748333642469 0.0001882038820820789 -0.00009819796154172944
          0.0003892423488001395 0.00011111388336508543 0.0008521041958971243 0.00017407887648486498 0.00024625155390339826 -0.000050818098759175534
          0.0006603433090488497 0.00017439036325817003 0.0013585793399771284 0.00029004902578208536 -0.00009396337834682855 -0.00034092613249064874
          0.0008204041359770597 0.00012551119474774053 0.001737976687310211 0.00013791147460129327 -0.0011043985379245447 -0.0011352260048279605
          0.0008990184491096676 0.00001548554196767471 0.0019688852116836464 -0.00009082467520998838 -0.0027278872708367263 -0.002198734344062536
          0.0009109680142684873 -0.0001358963296335114 0.0019577004424133904 -0.000488684043894072 -0.00475620100217633 -0.0034779852091744168
          0.00065953967255028 -0.00040143966539130105 0.0015947192402201438 -0.0010494921350131525 -0.007266876569828884 -0.0050344476853678155
          -0.0008817745398262411 -0.0015543113297286082 -0.00047312863196230515 -0.0026394430132518076 -0.01220793059636488 -0.008066165906852774
          -0.00014592504508070814 -0.0015921848600058963 0.000311658264769199 -0.002577940035370596 -0.011689145803333578 -0.006210273904669661
          -0.0003209525237664046 -0.0004452049690547716 -0.00020034560267479656 -0.000008496419177994596 0.000259258944060127 0.0001275516512737329
          0.00009638946041599927 0.0005398919505302394 0.00014401061344311572 0.0001465897276228846 0.0007698224683206287 -0.00024131524383477765
          0.000051052180528643465 0.0008078416272136735 -0.0012636835484710618 -0.00004074126994391136 0.0007632412086382157 -0.0028785743519323392
          -0.00015177526532661467 0.0006076554795313993 -0.0048981362822423935 -0.00043546554313927954 0.00023874405569107582 -0.007168762481097546
          -0.0027515332460293918 -0.003559551413018558 -0.01114534063386663 0.0005365636674895188 0.0017655581154666367 -0.009594972316558564
          -0.00023786970726760726 -0.0002683432993034543 -0.00017402807111702168 0.0001156767242039558 0.0005603721933240685 0.00021900269060377842
          0.00018225589733714131 0.0007638019740892552 0.00019305587088709608 0.00026024748271474135 0.0010666601777517444 -0.00003846860142731057
          0.00040027215020732587 0.0015137399617944913 -0.0006374909217502778 0.0006076928610997956 0.002013103148829104 -0.001761812768143134
          0.000733915439478261 0.0023542732725606585 -0.0033047787724482247 0.000505889458712494 0.0021698717978759774 -0.005073527633563002
          0.0006068760787821259 0.0025310249148789987 -0.0066316892704678665 0.002795600038976498 0.0065859953103993285 -0.005550994478196014
          -0.00025730537137436116 -0.0002534629708722258 -0.00020675113158347136 0.00008168522894635988 0.0005892409666059667 0.00021122127001851204
          0.00002034136671930087 0.0005779844426162528 0.00014529149120731666 0.00003483044798823984 0.0007573838482513306 0.00003828398903962804
          0.00024966224416184124 0.001262331232890622 -0.0002870133107365225 0.0006132334355459512 0.0019846847240997945 -0.001044854258293454
          0.0008412783096750642 0.0025126629860305894 -0.0022400357569179463 0.0006862375194727766 0.002514282983503091 -0.003544747467266296
          0.001740560961087212 0.00430180435476632 -0.004240616999408753 0.007000617450475088 0.013588290754243504 0.00040458893484018876
          -0.0003582024871607581 -0.00033337409395101103 -0.00029108939571215187 -4.1422285659842295e-7 0.0005429489580909413 0.00019244970682125162
          -0.00015987903192543618 0.00034407707279772437 0.00015453323387371737 -0.0001822688523307088 0.00041694362829599457 0.00017700654211088435
          0.00009198022656103921 0.0009323023969959564 0.00004709177480861915 0.0005844967859851835 0.0018484563080697347 -0.00039074000712387147
          0.0009958437913878126 0.0026808468877533576 -0.001222389612584751 0.0011630267578902898 0.0031239405105594475 -0.002121616898218437
          0.002393049578430395 0.005352775048968153 -0.002041283045961906 0.003919050130661517 0.0077747873396775136 0.0008497822770042185
          -0.0005269574224026075 -0.0005452830961168442 -0.0004092261719259582 -0.00017015413039161986 0.0003361517546338205 0.00018071685565820492
          -0.00039580178807499533 0.000020248561050428826 0.0002396454829601824 -0.0004287889713798865 0.000008040912330774252 0.00031762123353880345
          -0.0001312471112962163 0.0004965978719799861 0.00027854577742698894 0.000500973653745046 0.0015825273638728765 0.0000502582462199308
          0.0011834898859214293 0.0028274160039685192 -0.00047827034160544124 0.0017293479763680064 0.0038488552372368534 -0.0009970897902482345
          0.003284980204469587 0.006575612637414033 -0.00010042804301543806 0.003546281842531196 0.006542752364104731 0.002325472799259709
          -0.0007740038387368808 -0.0008395476798053192 -0.0004118712836724825 -0.00038718976851523715 0.00004017346264736238 0.00028179745099796843
          -0.0006498166757674655 -0.0003760455125105325 0.00038400084310066807 -0.0006793398152080687 -0.00047201412222139597 0.00046710331948614237
          -0.00034468175167963813 -0.000021465559266489916 0.00038985727988817553 0.0003773492322660943 0.0011909642371021288 0.00019133335769240534
          0.0014236081151761948 0.0030748740248070575 -0.00009580125555365068 0.0025027430601843453 0.004958059496328951 -0.00032474814935891383
          0.004376159168594185 0.008144094380919549 0.0008820095114982218 0.004952097620040563 0.009275611565164099 0.0041550767197319205
          -0.002608488842102852 -0.004675300247631409 -0.001937041879663759 -0.0026064199454035597 -0.004509695897018995 -0.001444530631879215
          -0.001551485951938325 -0.002408742931296226 -0.00003381884058595297 -0.0008536244629260351 -0.00101896532463943 0.0006670542041380956
          -0.0005294623114857492 -0.0005391091090103791 0.00043669483504293893 0.00023458334788813498 0.000736826442332042 0.00003789959495179018
          0.0015591316101385838 0.0031743338835505674 -0.00034110951561130975 0.0037345526682204637 0.007171868483648952 -0.00005413175356541733
          0.004677386004533685 0.008935904897200158 0.0004205531220153047 0.0012440281670691444 0.0023139479289545073 0.0002747060902404952
          -0.0009871547665183389 -0.0019323105429861487 -0.00261780824733282 -0.0010115488826676344 -0.0019125435520215284 -0.002978834844454825
          -0.0009226681890385224 -0.0009515871197385284 -0.0027261694563937844 -0.0005982219508308684 -0.0006633791106899489 -0.0023597522538645332
          0.000006742767083706136 0.0002095625864271533 -0.000956104763240484 0.0014073215621397406 0.002732279950079075 0.0028126984166585434
          0.003997581270720363 0.007784861480691685 0.010041693083155945 0.0038822745848052786 0.006714454819967353 0.009596906218921009
          -0.0007422434563841744 -0.00010456928447505343 0.0001303950828143996 -0.001018048397606941 -0.00048711790880921063 -0.000979613324986306
          0.0003024591588668135 -0.001746296228753677 0.0000065719769594685395 -0.004848169475889785 0.0007629920797711243 -0.000017896397700570277
          0.0001757777476950606 -0.00007305201140972201 -0.000003367313443525255 -0.0001236205330295212 -0.0006959157105317568 0.000045922044275253926
          0.00015746412951749 -0.00000638865003775059 -0.00012093504770995661 0.0006990420798627592 -0.0002511832432471259 -0.000624883210138677
          0.0025329167971508207 -0.00038094170776499514 -0.0006276776845614007 0.00034197359071586053 -0.0009002165658631434 0.015106303522578163
          -0.004583888853420426 0.0012464256183601918 0.00013497632082976052 0.024746849432970647 -0.008131965113207185 -0.001700765731136089
          -0.002796386766153014 0.006762900250919079 -0.005844525231485348 -0.0004146510410787396 -0.002362472792154291 0.0009169989062692979
          0.00012550282851087058 -0.0012630117198502155 -0.008714444811253386 0.006105964062142796 -0.0008354963127705922 0.0032062552642186937
          0.0007799552366232199 0.01336284679920019 0.0019321940840246743 -0.00026840066242178606 0.0035840250576341104 0.001881099877346415
          -0.00024158982727888467 -0.0012801234495218305 0.007464605432881299 0.0036945830219606846 -0.0012833804601935644 -0.0022941911693785677
          0.0039847845723418596 0.0009987719969836162 -0.0031744537974034426 -0.000007667753630979934 0.003803435327809468 0.0038625948568099255
          0.001466387759555654 -0.0021822408286715222 0.0065774459295731 0.007636016863562717 0.00321631636070141 -0.00011129094570211384
          0.0040814199401902895 0.0063008455128141655 0.004686432243377725 0.00025995943481427197 0.0015122754757741497 0.000245974908317681
          0.0029158060622956894 0.0007153531034989544 0.00193464118977843 -0.002409714069443153 0.001276444908103358 -0.0035352709515484027
          0.001305280752378929 -0.0016443029109937113 -0.0007918836636024162 -0.002813883904063984 -0.0011873342978998488 0.0021174613940289216
          0.0015185277811346487 -0.004760332576880161 -0.0024833885756924134 0.0017918943486298633 -0.0029609205085288637 -0.0013366810005427388
          -0.001388100028660022 -0.0015131418600835 -0.00645943251832104 -0.0022269335499199676 -0.0065869424177857905 -0.00412235251656923
          -0.0025206893732988567 -0.0045612932918159535 -0.011609872763944207 -0.007347148812577744 -0.004031502109651197 -0.004737151197467012
          -0.007413588884974787 -0.005854129840032566 -0.0032192367405743244 -0.005249745230638592 -0.007150754701693962 -0.0070933165693962685
          -0.010247477975739328 -0.0028165975004610377 -0.0027092961412001904 -0.000351821838507127 0.000754404550394952 -0.0015232230964326021
          0.0003026494151279341 -0.0007230516620632121 0.0020808876823059687 -0.00244324735024104 0.0012575611378227713 0.001576615022461425
          0.0029074351055441428 -0.0004495396380355121 0.0013254581035497814 -0.04177855602673586 -0.02174270832965064 -0.011260598560311696
          0.012933455570936864 -0.07756847199698158 -0.04194920808019009 -0.019677878750829242 0.029138932792053616 -0.029279968122408295
          -0.019463331055895372 -0.0027627777615678584 0.01827827189199352 0.00005611458927941987 -0.00021737631937144251 0.0006210164674026429
          0.00017257539284048357 -0.00006163076997552086 -0.00013803199022785484 0.0019428532349567533 -0.00023940129475580676 -0.00016502056008582677
          0.000883013846835673 0.002244695994843785 -0.0011953322276170332 0.0014490602376002193 0.00495708741265434 0.002903950742256578
          0.009717698386165513 0.0015813586489138443 0.0052343885830646655 -0.0032005569662431066 -0.004971853677359528 -0.006297046640909798
          -0.0022572034516156747 -0.0005137482903650459 -0.001653928165187002 -0.0016720427879426958 -0.000035001362102798916 0.0014878779761987038
          -0.0009932512471982902 -0.0032936242693570317 -0.001524780135793824 -0.004927633482941715 -0.009283223938057694 -0.0011115901284896243
          0.003716181664466356 -0.0020329241527202724 0.002955279675529443 0.0020454914923354606 0.0066659295080410685 0.016903960689571562
          0.002896133528377365 0.006329176325506003 0.016538015100590053 0.03327134222331951 0.010284971930534348 0.0051599940768804475
          0.01975508939272319 0.030742814375197325 0.011466645879771198 -0.0012136946365301493 -0.0036452801859145345 -0.002743389905013438
          -0.0018578715415528135 -0.006432606730123969 -0.004313743842166873 -0.0013596368598304334 -0.005269731650595411 -0.0026478626245361944
          0.0008324496455970852 0.00235417886361855 0.0007168283945914421 0.004817155625710945 0.003015758843508576 0.0038074739903949384
          -0.0020866639988045277 0.0007196655862933277 -0.004253994546635997 -0.0051791645337471715 0.0018208665548425929 -0.002463672548741136
          0.005441728675476432 -0.0021109488050724545 0.00889497287600216 -0.004128968933306831 0.005328475290742207 0.00585322657119481
          -0.005195814975192871 -0.0015815438332436593 -0.003716763034384729 -0.005423572010642981 -0.006839898374384271 -0.001029195761715701
          -0.006210049009400365 -0.00853436510209345 -0.0019483346806677265 -0.0012109566484615752 -0.004878737666340616 -0.0037168454144169347
          0.002769518403065996 0.00365796216283909 -0.002336384098674066 0.0057106187835259115 0.005502307716754307 -0.004862502709169783
          0.0036665262326162212 0.003331067894738443 -0.0023869974369702257 -0.0013539305315653505 -0.0005208356370892675 -0.002730223292622541
          -0.0006657695939922825 0.0021859921701026103 0.0019346158868517316 0.0001570389928935434 0.001944317665252715 -0.0001219780952204097
          0.0034720371142220596 -0.0005232370275899956 0.0018581312212162526 0.00727936467984458 -0.003008781420688611 0.01347044661794461
          -0.0010176466722733035 0.010231404608238681 0.005462673800948448 0.00006792043672532166 0.001688166787086387 0.0006577477892115158
          0.0019615185318465622 0.004448389915583162 0.0038041242597862956 -0.0002765831447760353 0.0008668081438843213 -0.00025885123980452784
          -0.0006391304746682144 0.0015492247185404096 -0.0005467442081699032 -0.00031410599837411197 0.0005162303260470499 -0.00021902006472032665
          0.0025236923915308296 0.00007913424400562974 0.00010309311792500164 0.005439703598371426 0.0007490517068160507 -0.0010109527728676682
          0.0065362706151747 0.003666226325643951 0.0017819977811981413 0.0004794695403237126 0.0012673766754441734 -0.0028652573470021037
          0.001067103410860304 0.002095939453260781 -0.004733009693588454 -0.0006725220786324287 -0.001627270775322362 -0.002235795906210798
          -0.004812398665584451 -0.00780607315988094 -0.003207246872080835 0.00004174220618149635 -0.0001569652627783219 0.0009336983777194011
          -0.00020173018679285398 0.00011278814522837702 -0.00025889913861180947 0.0017276717802460137 -0.000510582473805395 -0.00003883028437033989
          -0.00005328694154434904 0.0007793314420247305 -0.00031335792081682926 -0.004711051134419379 0.0018279457299916757 -0.00783724586264764
          0.0024871946498734587 -0.003785879102516168 -0.0029703325470147313 0.00019813952193859646 0.0015299412864256193 0.00034291198917564547
          0.002956175100407254 0.00012332999147927903 0.001397984981621709 -0.0011829538347392088 -0.011286100555604639 -0.0036074036851328484
          -0.019357228246724034 -0.005838424401831077 -0.008599021832961906 -0.023132201739395952 0.02596470573495946 -0.041583603982491
          0.04304600146352322 -0.014445349254487094 0.018612776068086312 0.0004027447781141322 0.0006314704243629956 0.00027410285149910216
          0.003677567141994409 0.007059973393685581 0.006816865635704827 -0.019810719584381076 -0.003531119033945984 -0.030180769484520087
          -0.007166286738470196 -0.004117412502360085 -0.00036893237551249847 0.0012153290944996176 0.0018540765805280801 0.0013526346114772214
          -0.005450519338448312 -0.011867496638347937 -0.0014232039140138208 0.00045419244180803587 0.0006875637518944256 0.00018013700853087775
          -0.00010242803449933557 -0.00030946187301866823 0.0030651640680430803 -0.0009989863751022968 -0.0020687179477589523 -0.0010303137515104976
          -0.00021268085046011187 -0.003787855876691379 -0.004504265518468165 -0.00031279038372489243 -0.0048387448984551495 -0.003034224424567078
          -0.016608109335357127 -0.030394500111753667 -0.014256002261650785 -0.0034972696324850894 -0.006648708818069726 -0.003999425528965903
          -0.0010704089862585003 -0.002495853592315647 -0.0012700061830672078 0.0010575304571842142 0.0018379681344611754 0.00010532786557114482
          -0.0020556498481411056 -0.0040218964885920805 -0.003911136215508537 -0.0020321854507148185 -0.0037793358613072148 -0.0015024698308797602
          -0.00014094911863529735 -0.0002167211365989366 -0.0023577102041706793 0.0004965606959295155 0.0011624709484274742 0.0002842369522926269
          -0.000017681766405430732 0.0005499666261795655 -0.001400960775568616 0.0016766754019136298 0.0036556607798733376 0.002030084990024106
          0.003390926592517607 0.0071951879787190975 0.006456919939043626 0.005647727995986118 0.012365160135717757 0.011968840367755584
          0.0020434052473401465 0.0037593949900975865 0.0036302805946234473 0.0010226003180919818 -0.0007031433237287832 0.0026195142151667627
          -0.0018181385799012073 0.003489107176657208 0.00012097428156310208 -0.001670611720208881 -0.0002958123390840728 -0.0003977577217013084
          -0.001599247820716132 -0.0024850324960298265 0.0001841511482237046 -0.0005038268443486316 -0.0027812312193558064 -0.00033372327157926707
          0.0005822834241622221 0.0005971195321383127 -0.0003613188424689273 0.0024300481773257276 0.0036612848379814905 0.001964031261594501
          0.0022728516645544594 0.002457344665779182 0.0011702094379748285 0.0015152795847771378 0.002528912804393324 0.0010001307834924533
          0.00010783011342418297 -0.0008991797230409881 0.0004574168261867184 -0.001624252162636397 0.0005986143546488423 -0.00026638149542757006
          0.000852934761121138 0.0013868880507286185 0.001085751528690726 0.0014697121890628329 0.002383484407723846 0.0014679185778512238
          0.0023793297550809833 0.004092419273249548 0.0025634054565432385 0.004535767325918982 0.007784107024917164 0.004751105534809008
          0.004413012221847978 0.006195142384302521 0.003819950827983476 -0.0003315837341320016 -0.004375890659003012 -0.003636787984215628
          0.0013906669374725844 0.0007258437552946084 0.001603865644256075 0.0008662592178918516 0.0013868866650039342 0.00029687163923675097
          -0.002278600387461971 0.002119691306381094 0.00020478089795750165 -0.0031130344040877223 0.0016615190365877608 -0.0008878239646228359
        </DataArray>
        <DataArray type="Float64" Name="resid_z" format="ascii" RangeMin="0" RangeMax="0">
          0 0 0 0 0 0
          0 0 0 0 0 0
          0 0 0 0 0 0
          0 0 0 0 0 0
          0 0 0 0 0 0
          0 0 0 0 0 0
          0 0 0 0 0 0
          0 0 0 0 0 0
          0 0 0 0 0 0
          0 0 0 0 0 0
          0 0 0 0 0 0
          0 0 0 0 0 0
          0 0 0 0 0 0
          0 0 0 0 0 0
          0 0 0 0 0 0
          0 0 0 0 0 0
          0 0 0 0 0 0
          0 0 0 0 0 0
          0 0 0 0 0 0
          0 0 0 0 0 0
          0 0 0 0 0 0
          0 0 0 0 0 0
          0 0 0 0 0 0
          0 0 0 0 0 0
          0 0 0 0 0 0
          0 0 0 0 0 0
          0 0 0 0 0 0
          0 0 0 0 0 0
          0 0 0 0 0 0
          0 0 0 0 0 0
          0 0 0 0 0 0
          0 0 0 0 0 0
          0 0 0 0 0 0
          0 0 0 0 0 0
          0 0 0 0 0 0
          0 0 0 0 0 0
          0 0 0 0 0 0
          0 0 0 0 0 0
          0 0 0 0 0 0
          0 0 0 0 0 0
          0 0 0 0 0 0
          0 0 0 0 0 0
          0 0 0 0 0 0
          0 0 0 0 0 0
          0 0 0 0 0 0
          0 0 0 0 0 0
          0 0 0 0 0 0
          0 0 0 0 0 0
          0 0 0 0 0 0
          0 0 0 0 0 0
          0 0 0 0 0 0
          0 0 0 0 0 0
          0 0 0 0 0 0
          0 0 0 0 0 0
          0 0 0 0 0 0
          0 0 0 0 0 0
          0 0 0 0 0 0
          0 0 0 0 0 0
          0 0 0 0 0 0
          0 0 0 0 0 0
          0 0 0 0 0 0
          0 0 0 0 0 0
          0 0 0 0 0 0
          0 0 0 0 0 0
          0 0 0 0 0 0
          0 0 0 0 0 0
          0 0 0 0 0 0
          0 0 0 0 0 0
          0 0 0 0 0 0
          0 0 0 0 0 0
          0 0 0 0 0 0
          0 0 0 0 0 0
          0 0 0 0 0 0
          0 0 0 0 0 0
          0 0 0 0 0 0
          0 0 0 0 0 0
          0 0 0 0 0 0
          0 0 0 0 0 0
          0 0 0 0 0 0
          0 0 0 0 0 0
          0 0 0 0 0 0
          0 0 0 0 0 0
          0 0 0 0 0 0
          0 0 0 0 0 0
          0 0 0 0 0 0
          0 0 0 0 0 0
          0 0 0 0 0 0
          0 0 0 0 0 0
          0 0 0 0 0 0
          0 0 0 0 0 0
          0 0 0 0 0 0
          0 0 0 0 0 0
          0 0 0 0 0 0
          0 0 0 0 0 0
          0 0 0 0 0 0
          0 0 0 0 0 0
          0 0 0 0 0 0
          0 0 0 0 0 0
          0 0 0 0 0 0
          0 0 0 0 0 0
          0 0 0 0 0 0
          0 0 0 0 0 0
          0 0 0 0 0 0
          0 0 0 0 0 0
          0 0 0 0 0 0
          0 0 0 0 0 0
          0 0 0 0 0 0
          0 0 0 0 0 0
          0 0 0 0 0 0
          0 0 0 0 0 0
          0 0 0 0 0 0
          0 0 0 0 0 0
          0 0 0 0 0 0
          0 0 0 0 0 0
          0 0 0 0 0 0
          0 0 0 0 0 0
          0 0 0 0 0 0
          0 0 0 0 0 0
          0 0 0 0 0 0
          0 0 0 0 0 0
          0 0 0 0 0 0
          0 0 0 0 0 0
          0 0 0 0 0 0
          0 0 0 0 0 0
          0 0 0 0 0 0
          0 0 0 0 0 0
        </DataArray>
        <DataArray type="Float64" Name="stress_zz" format="ascii" RangeMin="-111311780.68843904" RangeMax="188190418.784451">
          1079191.6103736807 1185986.8498025439 379210.856787227 477070.66118242487 -320769.8967992269 -231845.527437694
          180538.83817775402 413329.58463896404 -395030.054373889 -222160.47566247213 -970598.9469255321 -857650.5359639083
          -1820035.6236086832 -1735506.9613364083 -1898917.9136119394 -1867681.6853212407 -1977800.2036151958 -1999856.4093060733
          -3283201.460064958 -3456922.8374033626 -2790195.235265392 -2958743.626068949 -2297189.0104658245 -2460564.414734536
          -3035041.005815402 -3257370.1685183444 -2258191.0247089234 -2448892.7116508475 -1481341.043602445 -1640415.2547833498
          -1766559.666375272 -2025778.3399280154 -1069525.8240571949 -1283644.2429457912 -372491.9817391171 -541510.1459635667
          466963.19640671357 83104.79136176012 657877.6610307278 249100.8540553284 848792.1256547418 415096.91674889694
          3836316.1847350206 2548873.0790400524 3040943.3050323306 1422670.9478397688 2245570.42532964 296468.8166394854
          7575920.968924053 6987608.30758244 5448428.782390547 4861278.926564534 3320936.595857041 2734949.5455466285
          38397122.240658246 13497767.795587402 31709233.61268892 9305146.65820267 25021344.9847196 5112525.52081794
          657804.7095025558 23208.398394551565 -611387.9127134527 -499545.979130761 -886672.2943841945 -1273798.6096376278
          -2035215.696632474 -1967668.6536406218 -1900121.6106487697 -2861282.9115852434 -2369294.17821737 -1877305.4448494967
          -2475218.530511107 -1777458.0181887653 -1079697.5058664237 -986109.7532197381 -401697.7093468836 182714.33452597092
          1756471.1184826584 2026044.1739754155 2295617.229468173 5431104.854878926 5302157.452037464 5173210.049196001
          7844955.44153574 6082208.378514734 4319461.315493727 -1066805.2211438038 -3699914.830565914 -6333024.439988025
          -389028.2905167257 -768582.1425414333 -1148135.994566141 -1651827.9275446339 -1654589.6505919157 -1657351.3736391978
          -2411254.1889362033 -2071498.96799355 -1731743.7470508968 -2431196.5079847616 -1884959.114672264 -1338721.721359767
          -1730966.5730437017 -1132760.4836063052 -534554.3941689089 352375.53422573593 770759.9913256395 1189144.4484255433
          3598138.4641872 3946238.2526790816 4294338.041170963 5690182.573517409 6220681.338190432 6751180.102863456
          2730015.0791053423 1817805.3146203673 905595.5501353926 -2387762.788720892 -3534716.161784454 -4681669.534848015
          -2501064.162246325 -2199390.9019345026 -1897717.6416226805 -3392918.156993553 -2692874.968340855 -1992831.7796881576
          -3074594.209956214 -2271444.4011497493 -1468294.5923432847 -2163842.758149059 -1475387.2802654556 -786931.8023818526
          -830173.4254253479 -340011.50119465013 150150.42303604746 1947967.873275207 2158256.2025877507 2368544.531900295
          5358542.33581303 5694373.229961328 6030204.124109627 5339950.716210678 6357017.502148224 7374084.288085771
          -1976713.6547050439 -2496013.0051981313 -3015312.3556912187 -5373815.8984569805 -7416175.350419162 -9458534.80238134
          -5895283.7890139865 -4294762.03450172 -2694240.279989454 -5707758.542123472 -3956620.4428676446 -2205482.3436118173
          -4025906.693332945 -2608997.4834386227 -1192088.2735443003 -2021838.745227496 -1143611.0801230096 -265383.4150185232
          140000.77735225283 516572.04685026174 893143.3163482703 3372243.103725849 3357932.3008983033 3343621.4980707583
          6645346.664920563 6800451.609116177 6955556.553311791 5414680.930337546 6331042.93968841 7247404.949039271
          -2677419.610566157 -3521817.7302960446 -4366215.850025932 -20771875.36762221 -23660943.827120706 -26550012.2866192
          -9970899.674283084 -6694060.151050633 -3417220.6278181816 -8110059.593383855 -5242242.987852326 -2374426.3823207966
          -5037174.285013007 -3043159.68634834 -1049145.0876836735 -1949931.7442904129 -896783.4652791421 156364.81373212874
          1000636.0745991555 1273043.9168925246 1545451.7591858937 4402783.01717967 4125764.9314394793 3848746.845699289
          7551355.146045683 7267613.519798731 6983871.893551784 6127029.333924483 6194281.652058465 6261533.970192447
          -2734438.4075425207 -4376270.198263209 -6018101.988983898 -8079145.979417631 -12888125.066693656 -17697104.153969683
          -12752626.987492658 -8698641.88814169 -4644656.78879072 -9434205.355892647 -6289261.3024288975 -3144317.248965148
          -5564727.227952275 -3548925.7952154884 -1533124.3624787014 -1840590.8410433924 -884295.6766389094 71999.48776557397
          1692755.892495783 1769215.5978066311 1845675.3031174794 5072897.17069638 4472071.405351602 3871245.6400068235
          8032907.0184687525 7144718.083971836 6256529.149474918 7890301.5389477275 6743619.921806385 5596938.304665041
          1511765.700445076 -974232.2794298247 -3460230.2593047246 -2405495.3882176066 -5554599.956316684 -8703704.524415761
          -9570608.570660017 -10049402.45540167 -10528196.340143321 -5971913.51194973 -7274504.660842821 -8577095.809735913
          -2568991.0040127113 -4385183.227689609 -6201375.4513665065 587194.1230769694 -1394809.571378801 -3376813.265834572
          3565100.3716664403 1753261.6410010313 -58577.089664377534 6021846.375944045 4790252.285133949 3558658.19432385
          7117485.626088434 7021931.744755143 6926377.863421851 7702737.060361506 8976109.005226795 10249480.950092081
          5361527.159475842 8079370.517708256 10797213.875940673 -4523398.011280126 974312.8708700312 6472023.753020188
          309539.3844065143 -3738464.9819789845 -7786469.348364484 2507948.0814380525 -969651.3212507768 -4447250.723939606
          4496640.957995964 1945062.5456090663 -606515.8667778325 5808133.212046192 4668329.761480488 3528526.310914782
          5495722.958050329 6370487.990825016 7245253.023599704 4782774.510364483 7759940.731940264 10737106.953516047
          9511122.152228637 15277242.808475275 21043363.464721914 5529525.4609082565 12098666.676531803 18667807.89215535
          -5078059.290837482 -41204081.291062005 -29149494.906415433 -7005419.427231297 -9048261.97451013 -38469947.665644914
          -23610993.981962286 -8815036.60687118 -13018464.65818278 -35735814.04022783 -18072493.05750914 -10624653.786511064
          24762503.139621403 19836070.54650717 15190818.611414783 14032246.531628752 5619134.083208166 8228422.516750338
          25430991.35836952 48797604.938929275 61108723.695596024 16672015.215865413 32217116.792496104 46477028.40063763
          7913039.073361303 15636628.646062935 31845333.10567922 26465286.8267263 13246501.19961975 82508910.56470627
          27247147.715279195 22338525.40054747 10543100.739117935 72918362.58967836 22517055.71070172 18211763.974368647
          7839700.27861612 63327814.614650466 17786963.70612425 -18045107.567317113 -40592943.195655726 -52101575.06944108
          -50079985.380122304 -9397458.334185516 -28535830.97089513 -31216486.12545369 -26405110.60297276 -749809.101053914
          -16478718.74613453 -10331397.18146629 -2730235.825823223 9365475.439956147 3225779.6383947115 46312751.64916079
          11679176.601180108 10339500.804011274 1787567.7587553775 42656478.46797612 10983610.74750138 11313526.168066395
          349355.8791160416 39000205.28679146 10288044.893822655 -24029798.46473103 26610633.114236273 -9314868.94899494
          -21143816.349358592 -19304014.655940183 32969756.795437515 -5348846.869225253 -16365578.351617819 -14578230.847149339
          39328880.47663875 -1382824.7894555659 -11587340.353877043 555360.7315901928 -1226795.3491291502 7560204.579634691
          -2855417.2452641283 14565048.427679187 -4484039.141399106 36421570.3756887 5224165.427301643 34887840.72516772
          -371936.97603406664 33354111.074646745 -5968039.37936978 -14726467.870542783 24018538.485621568 35020337.72594473
          -73534566.27432485 -8248436.792556343 15269272.759608246 8265952.424144798 -55107926.26804924 -1770405.7145698983
          6520007.033594925 -18488432.87765513 -36681286.26177362 43296400.885992676 58957358.48755795 24254900.721254777
          7449452.364966261 32130732.183353573 51256402.39071462 19979979.99240071 1640076.5468779511 20965063.480714455
          43555446.2938713 15705059.263546642 -4169299.271210355 -88997944.8881642 -52642328.21447579 -83120698.61243199
          -51050411.36113357 -77243452.33669978 -49458494.507791355 -22050998.343594436 -9338428.663496895 -1634811.4638685547
          -3101497.8490517125 -19736907.326005064 -6752929.464392288 -1308868.626650019 -4393644.621950162 -17422816.308415696
          -4167430.2652876815 -982925.7894314835 -5685791.394848612 98048078.50803399 188190418.784451 38947434.4135281
          35925893.3363299 73658772.55621448 162922199.87909693 36706450.96644904 27927971.029422306 49269466.60439496
          137653980.97374284 34465467.519369975 19930048.722514708 88073462.10206214 74315647.16081817 69703577.35130505
          92991541.7402268 46464735.65942058 34841423.56929777 45160312.97491072 61173743.158319615 4856009.216779027
          -4632800.02222265 20617048.598516412 29355944.576412436 28879696.923848245 -13833006.76739471 38260791.01693105
          -6923138.548349714 47641885.11001384 -13270.329304717481 6591645.784128261 5849228.0101828845 5106810.236237509
          -40113109.54096711 -57856787.419670254 -26490530.97868068 -50307125.612736925 -12867952.416394258 -42757463.80580359
          -58596347.62161396 -67316933.57165475 -56009847.1472794 -40200307.86492704 -53249509.84123662 -50351359.182370976
          -21804268.108240113 -39182086.11081848 -44692871.217462555 -13785806.813208627 -2826336.9007990044 51749442.68568649
          33848537.311737284 -37630445.59907023 -34025562.45771702 48114004.84334586 26773723.256932613 -61475084.38493183
          -65224788.01463503 44478567.00100523 19698909.202127945 19348367.64071984 5188299.824650057 18699267.94985465
          15536564.047705362 370358.95410151687 12788478.676245272 11724760.454690883 -4447581.916447023 6877689.402635894
          8029681.763433322 -12170106.697890922 14267096.52163383 -16163612.630756162 20504511.279834345 -20157118.5636214
          -72515884.89963709 -31065628.471714806 -43749740.33365264 -18748407.005604804 -14983595.767668195 -6431185.539494798
          -46533632.39323023 -43837371.449271254 -24145052.99864334 -35403027.35255876 -1756473.6040564477 -26968683.255846273
          65112450.59188781 82312680.40168598 69864411.64163825 54532114.013458095 63647249.25338462 78304386.33986698
          64908510.26346634 51337721.709729984 62182047.91488145 74296092.27804798 59952608.88529442 48143329.40600188
          -8782618.518120773 22082635.870042175 11971313.463968676 -6290468.5141369365 15532482.865682783 5972750.548221812
          -3798318.510153099 8982329.861323386 -25812.367525061592 -29257337.440125905 -30062170.95392852 -24558475.97107391
          -20168162.433901656 -19859614.50202191 -10274153.913874792 1841225.9504341618 3509245.279719105 4007756.960440051
          4304396.662025843 6174287.970445942 5099548.0443325825 -28693109.985747915 -32962729.358768757 -25600002.622893576
          -51186177.820073426 -22506895.26003924 -69409626.28137809 -22162886.386812437 -18835714.456736665 -20482325.658536136
          -9474527.642523944 -18801764.93025984 -113340.82831121888 60335560.57129456 38396971.334491454 46675764.066951066
          38593935.583865054 25082139.936574675 30312217.722774945 16852310.596435543 11767308.538657904 13948671.378598826
          -8464434.189531295 -8798762.858846325 10954658.40364879 -5753585.715795442 -3051772.163664002 25317445.94106348
          -3042737.2420595884 2695218.5315183215 39680233.47847817 -5707591.956203248 -6147903.512802005 -41864926.77344019
          -4512116.02465031 853811.0007070036 -35300606.3550234 -3316640.093097373 7855525.514216011 -28736285.93660661
          -49434.79013931751 6638076.33374669 13325587.457632706 25278481.363421008 21090189.805145036 13578697.979159696
          13950825.739658885 15256773.770503145 13163107.58846271 7606323.149154801 6172374.218023416 5235066.177585283
          5236025.3717803825 1633948.3191499084 -1606077.3036120506 43981661.76375578 -15973806.889925137 43254173.184367955
          -16044480.411675569 42526684.604980126 -16115153.93342599 29963188.060632985 35952152.998771615 19497026.011675585
          22598732.61973175 9030863.962718185 9245312.240691883 58354311.14470627 -51603977.813322075 51196835.71334824
          -44119859.45087574 44039360.281990215 -36635741.088429414 102625473.19382404 -90853492.75691366 95679258.88015954
          -82358490.42001295 88733044.56649503 -73863488.08311222 14106925.61769471 9703312.155763732 5299698.693832753
          -7167952.853370929 -4021071.988668836 -874191.1239667456 45635566.64573896 97887541.33272243 56878639.256177634
          104531385.43885756 68121711.86661631 111175229.54499273 -5853526.052457278 8488386.41860537 22830298.889668018
          -79604931.83011961 -50963131.39609614 -22321330.962072663 78271732.19250388 54220127.84334436 30168523.494184837
          -26433295.229027875 -19320033.2054572 -12206771.181886526 6320757.7570635015 2823806.812163251 -673144.1327369995
          -111311780.68843904 -88688158.05938599 -66064535.43033293 70338108.52600192 69193104.75616233 68048100.98632275
          119222380.95275782 103623565.26918219 88024749.58560658 -12345444.099550208 -20096042.115112882 -27846640.130675558
          9689758.41189969 4442684.538600503 -804389.3346986845 77709953.5809862 35824178.524134725 -6061596.532716758
          2583627.4856969407 2595638.0820872714 2607648.6784776016 4671947.128379611 5784862.928768542 6897778.729157471
          3752085.3841104205 3830252.2747303206 3908419.16535022 4220390.5769045735 5087832.14325849 5955273.709612405
          4205014.683904853 4355965.744718757 4506916.805532663 3278895.5817708625 3537487.7514981995 3796079.9212255357
          2148927.3660778143 1671841.1502126944 1194754.934347575 4110768.5351513056 3542208.4723469215 2973648.4095425373
          6393193.972712148 5783713.113664634 5174232.254617116 -3474365.2913716366 -9018526.54852106 -6918693.474597387
          -11706894.040645055 -10363021.657823136 -14395261.532769049 -464001.4893471482 2502050.9496992975 1892782.7680567182
          -4310191.053291574 -1238896.8964641658 1486356.081306109 2595297.1953617022 -4545266.087733863 -2013792.3035811838
          470661.21291292086 3297811.6226666863 -4780341.122176153 2769153.524397176 1515851.556697969 262549.58899876167
          5311519.962088127 5057032.032917898 4802544.10374767 5307413.138389145 4148282.40626821 2989151.6741472753
          3686202.9423863273 5580049.053878029 3561725.1690077996 5427356.033950381 3437247.395629272 5274663.014022733
          2747497.909040361 3200135.4570720275 3652773.0051036933 567512.7650892319 463901.14355436637 360289.52201950084
          -224850.5946753343 -379302.33097526757 -533754.0672752007 -4262062.806674946 -5788843.872980778 -7315624.93928661
          -7420744.085526213 -9642037.947606228 -11863331.809686244 3209883.0062914984 2891210.592466804 2572538.1786421095
          9609198.444058035 9712289.760946838 9815381.077835638 1699474.6184872217 6041484.629886812 1162284.802436302
          1685342.7282300768 4845856.392513944 918809.543078186 1671210.837972932 3650228.155141076 675334.2837200698
        </DataArray>
        <DataArray type="Float64" Name="peeq" format="ascii" RangeMin="0" RangeMax="0.10411558379415708">
          0.00012693700873615393 0.00011296277036418896 0.00014856195018493238 0.0001318910350153037 0.0001701868916337109 0.00015081929966641842
          0.00015078074541621827 0.00011664430282773917 0.00019197104368932447 0.0001550719502921585 0.00023316134196243066 0.00019349959775657782
          0.0003743672456925624 0.0003105093617940262 0.0004435229419605432 0.00037747489684052425 0.000512678638228524 0.0004444404318870223
          0.0010430565407587608 0.0009458622209891926 0.0011451705840763023 0.0010474766209675709 0.0012472846273938439 0.001149091020945949
          0.002514730284344885 0.002392781708805079 0.0026377042357036934 0.002518397776799595 0.0027606781870625017 0.002644013844794111
          0.005213108667953124 0.005090005981575057 0.005314061343711007 0.005195890824105934 0.005415014019468888 0.005301775666636812
          0.009560467048474613 0.009473414720220355 0.009568775828593437 0.009484229876368147 0.00957708460871226 0.009495045032515937
          0.016077709971251953 0.016084533799401186 0.015902679677409295 0.015903493207081603 0.01572764938356664 0.015722452614762024
          0.026546826568997123 0.026932887173328 0.026054018619680167 0.026409037257291053 0.025561210670363207 0.025885187341254105
          0.040459056028837447 0.03967322387776045 0.03950318365601349 0.038779818114769715 0.03854731128318953 0.037886412351778975
          0.00017312033041457924 0.00020318433128097837 0.0002332483321473775 0.0002581361196429611 0.0003079766309697438 0.00035781714229652663
          0.0005699026016919901 0.0006456726535506174 0.0007214427054092447 0.0013359298004836095 0.0014388890431338876 0.0015418482857841658
          0.002877625220306744 0.0029922128958042747 0.0031068005713018056 0.0055754798410503105 0.005662165359860779 0.005748850878671247
          0.009815194540684732 0.009815910896780824 0.009816627252876917 0.016044740402011225 0.015887319197789896 0.015729897993568567
          0.02544816989355548 0.02503874400490418 0.02462931811625288 0.03602009854066699 0.035307226108141875 0.034594353675616744
          0.00026514767956073746 0.0003098804631400036 0.00035461324671926984 0.00045396809332925764 0.0005182906981458346 0.0005826133029624115
          0.0009090803911845483 0.0009945326677200015 0.0010799849442554546 0.001827772007526496 0.0019292202230856907 0.0020306684386448854
          0.0034717454283319533 0.0035706831199220157 0.003669620811512079 0.006155734823087096 0.006219855414385028 0.0062839760056829595
          0.010208248757338865 0.010197078745254256 0.01018590873316965 0.015956565070945054 0.01582521403466054 0.01569386299837602
          0.023775184153847433 0.02348833283531183 0.02320148151677623 0.0319214336339698 0.0315478170438699 0.031174200453769996
          0.0004284256742027889 0.0004925184294783834 0.0005566111847539778 0.000764897206736258 0.0008461569472689442 0.0009274166878016302
          0.001410599045971865 0.0015034913148511562 0.0015963835837304475 0.0025197355712293836 0.002612138668997916 0.0027045417667664494
          0.004276928715235779 0.004350858622657216 0.004424788530078652 0.006913693631900657 0.0069483211438802935 0.006982948655859931
          0.010682295787379222 0.01065769425706157 0.01063309272674392 0.015758720958991106 0.015658197270332748 0.015557673581674392
          0.02178017037691088 0.021630594147781946 0.021481017918653016 0.02586063768124575 0.02578402831712985 0.025707418953013955
          0.0007032771061704546 0.000783031599891582 0.0008627860936127095 0.0012295858903765395 0.0013190493241606244 0.001408512757944709
          0.0020971805798471314 0.00218369173470773 0.0022702028895683294 0.003406366432616187 0.0034743971728867476 0.0035424279131573092
          0.005258148588773392 0.0052955264803670144 0.005332904371960636 0.007788858190467776 0.007789535436626129 0.007790212682784484
          0.01115799237830454 0.011122473160051763 0.011086953941798988 0.015390536150914659 0.015327134057320599 0.015263731963726542
          0.019660199749613638 0.019638969731210338 0.019617739712807038 0.02161767767999324 0.021770043856289372 0.021922410032585504
          0.0011443014285361678 0.001215522140643634 0.0012867428527511002 0.001893891536314877 0.001961273351653659 0.002028655166992441
          0.002989454789659578 0.0030382500778437906 0.003087045366028003 0.0044722893065810305 0.004490993206990249 0.004509697107399469
          0.006364587036132171 0.0063521051488777585 0.006339623261623347 0.008704769780790622 0.008671076911802912 0.008637384042815204
          0.011546708922583762 0.011509459498186696 0.01147221007378963 0.014799768760500934 0.014787687055648221 0.01477560535079551
          0.01743919933609995 0.01754555021136054 0.01765190108662113 0.017930151948527245 0.018270821426981616 0.01861149090543599
          0.0018035109202691204 0.0018177617706401424 0.0018320126210111646 0.002791458183825023 0.0027860256582105006 0.0027805931325959776
          0.00409079745842487 0.004058076884351779 0.004025356310278689 0.005685345155118753 0.005625865742799438 0.005566386330480122
          0.00753086509608295 0.00745767025665488 0.007384475417226808 0.009576450567677796 0.00951421819304741 0.009451985818417025
          0.011766680547833568 0.011746768498591107 0.011726856449348646 0.013937193186302311 0.014002274623814055 0.014067356061325796
          0.015150434537416215 0.015392571969589838 0.01563470940176346 0.014557674769006969 0.015037111968872446 0.015516549168737919
          0.002674068710467931 0.002624491820750893 0.002574914931033855 0.0038909316134535014 0.003813521707786838 0.003736111802120174
          0.005346079526377147 0.005243114178323167 0.005140148830269187 0.006970644789132058 0.006853536925280368 0.0067364290614286785
          0.008667152889758726 0.008557739669358673 0.00844832644895862 0.010314500918792447 0.010244284280629089 0.01017406764246573
          0.011765455645874908 0.01177193820424429 0.011778420762613678 0.012811184586780435 0.012940257747297634 0.01306933090781483
          0.012852303977467654 0.013161123305417256 0.013469942633366856 0.011665010626704728 0.01213361687110891 0.012602223115513098
          0.0065122900963633795 0.006417872477092465 0.0063234548578215526 0.008049814048722256 0.007950299272293824 0.007850784495865393
          0.00950495781857983 0.00941791210778044 0.009330866396981049 0.010716120654569825 0.010664800565963271 0.01061348047735672
          0.011487738874783061 0.01149925307935359 0.011510767283924124 0.011579597518088354 0.011684972989228794 0.011790348460369235
          0.010678325820920678 0.010896255676296028 0.011114185531671377 0.009265423895253621 0.009573105668040923 0.009880787440828227
          0.000012243545174758078 0.0002584012169099219 0.0002873311846235467 0.0000062114308622006205 0.0005235887168483076 0.0017209236374705742
          0.0004560433479825304 0.000008379282859363142 0.001034933888521857 0.003183446058031227 0.0006247555113415141 0.000010547134856525665
          0 0 0.00012114051787522787 0 0.00024228103575045574 0
          0 0 0 0.00028109026811518165 0.00003733473050451098 0.00012099967038415829
          0.0005621805362303633 0.00007466946100902196 0.00024199934076831657 0.05351714859594082 0.049193624898874036 0.06204026314723429
          0.062326337504990045 0.05213597686066576 0.048283986503778804 0.06042469720548785 0.06046065681848469 0.0507548051253907
          0.04737434810868356 0.05880913126374141 0.05859497613197934 0.018866170374366643 0.011738283206272647 0.008643345006559026
          0.011849853392181173 0.022271407241013206 0.014179852184869774 0.011184608812275093 0.014831067270092365 0.02567664410765977
          0.0166214211634669 0.013725872617991162 0.017812281148003553 0.03199920938287944 0.0320632124891169 0.03830546900220067
          0.0371389305602237 0.03186935311173506 0.03213724146903576 0.03796003931049813 0.03670098554658314 0.031739496840590686
          0.03221127044895461 0.03761460961879559 0.03626304053294258 0.015957208065281447 0.01721019482302246 0.0123732039138801
          0.010607835623092804 0.016840928650493355 0.017891275838588662 0.013111506512860596 0.011485300218353131 0.017724649235705263
          0.018572356854154863 0.013849809111841088 0.01236276481361346 0.010016419741825506 0.012613067878333025 0.010536024936268162
          0.013234238784270276 0.011055630130710817 0.013855409690207526 0.04345595085627846 0.04019492973595733 0.04273172660499244
          0.0398692611798141 0.04200750235370643 0.03954359262367087 0.000007264178620147327 0 0
          0.00037081508170111547 0.0007063161502791365 0.00047844781729246906 0.0005565711305669099 0.0022065043928188874 0.0014053681219381256
          0.0009568956345849381 0.0011131422611338198 0.00404219370393666 0.049352287276435515 0.048468739111587375 0.05765097980206925
          0.05494133719617935 0.04809630257002673 0.047159631436148826 0.0558213678459467 0.053358677042608486 0.04684031786361795
          0.04585052376071028 0.053991755889824154 0.05177601688903763 0.05126863656852602 0.06748339282762789 0.05025057225930266
          0.0655773158145974 0.04923250795007931 0.06367123880156692 0.0005302311429983184 0.0009313962641719825 0.00022714338359545506
          0.00007624730874786936 0.0006718277938455192 0.0010576443181453351 0.00024708651372813543 0.0000869790782935216 0.00081342444469272
          0.0011838923721186878 0.00026702964386081585 0.00009771084783917389 0.09195480334514194 0.10411558379415708 0.09762141506664176
          0.08257456455215557 0.08987576523173922 0.10098362068890165 0.0944365322262433 0.08056573268993902 0.0877967271183365
          0.09785165758364622 0.09125164938584485 0.07855690082772249 0 0 0
          0 0.0007713887970630779 0.0007973612367663793 0.0005517357550557048 0.000511488572265624 0.0015427775941261558
          0.0015947224735327586 0.0011034715101114097 0.001022977144531248 0.020647489558866267 0.020987695130118136 0.02124249981623941
          0.021742488589359826 0.021837510073612555 0.022497282048601526 0.04405489641929219 0.04311561689503283 0.042176337370773455
          0.00020449860298789045 0.000788086390179745 0.0025609455232497597 0.004662728919603834 0.004917392443511629 0.008537371449027923
          0.004345721140321656 0.004701645184992699 0.0013959005687166107 0.008206537635848197 0.0074341530878561475 0.003474295044967767
          0.01206735413137474 0.010166660990719598 0.0055526895212189235 0.028683398859407214 0.026955956958922916 0.046762035926305935
          0.0409385546209148 0.029866850099028276 0.02922056963778901 0.04780343371596681 0.04084876147335922 0.03105030133864934
          0.031485182316655105 0.048844831505627684 0.04075896832580362 0.061989324623220626 0.06513983519979097 0.06930336304337807
          0.059834611976138125 0.06289024880801639 0.06665630928557963 0.05767989932905561 0.060640662416241796 0.0640092555277812
          0.009040955388738697 0.015872926840948855 0.009605740977610725 0.01644915705870146 0.010170526566482752 0.017025387276454067
          0.00714827849947778 0.008857471654820126 0.008595364364821513 0.01077720442543103 0.01004245023016524 0.012696937196041936
          0.010358109257411745 0.005443919993491593 0.011758827671057967 0.006436716011281443 0.013159546084704191 0.007429512029071293
          0.08648598665081692 0.0837389952732793 0.0916282372740985 0.09337776569083889 0.08256604606306482 0.08020218026682609
          0.08796995977054231 0.08941118141945664 0.07864610547531273 0.07666536526037288 0.0843116822669861 0.0854445971480744
          0.026087437052213707 0.026987197776503113 0.03339511157755337 0.02652712992675407 0.027773283579258602 0.033705621633154895
          0.026966822801294428 0.028559369382014088 0.03401613168875641 0.0017127057816419395 0.0010326732385684627 0.002171730249632928
          0.0014851137075027638 0.002630754717623916 0.0019375541764370654 0.025167565573565344 0.01988706376662104 0.02539698799193215
          0.02030386197595293 0.025626410410298967 0.020720660185284814 0.017095683828207937 0.02081437403091766 0.018254913924632934
          0.022544314681935164 0.01941414402105793 0.024274255332952667 0.010251301864316002 0.005866355307806598 0.011334544137846334
          0.006560366829748074 0.012417786411376664 0.00725437835168955 0 0 0
          0.000005681076951731729 0 0 0.000011362153903463459 0 0
          0.005755115083299998 0.0032702675643512327 0.006681857320169595 0.006109723785771851 0.0035584858588404086 0.007240237179201509
          0.006464332488243706 0.0038467041533295845 0.007798617038233422 0.0715017046942304 0.07775168965482313 0.07793915683595612
          0.06879736186490458 0.07456344595736933 0.07462297848581653 0.06609301903557879 0.07137520225991553 0.07130680013567695
          0.08124286801007909 0.07769814151338067 0.07415341501668224 0 0 0
          0 0 0 0 0 0
          0 0 0 0.0711504074817674 0.07839785147564514 0.06869729855804269
          0.07551355945906318 0.06624418963431797 0.07262926744248123 0 0 0
          0 0 0 0.09995738392909222 0.08503599236414146 0.09649935148896795
          0.08204355221111673 0.09304131904884366 0.07905111205809198 0.05982545304967505 0.07027551370149315 0.05873957333696629
          0.07001029854647582 0.05765369362425753 0.0697450833914585 0 0 0
          0.007725334748034802 0.008082045730672723 0.008438756713310645 0.0370379598690235 0.02262352812516145 0.04038540926692341
          0.026398754837126087 0.043732858664823335 0.030173981549090716 0.009045555937402043 0.009777979297567773 0.010510402657733502
          0.002918112774292297 0.005552963673823607 0.008187814573354917 0 0.000005681076951731729 0.000011362153903463459
          0.002493539434599573 0.0028894089949325187 0.003285278555265465 0.0000016753867268291623 0.0000025595102303195896 0.0000034436337338100174
          0.003428806053263231 0.005616759863877743 0.007804713674492253 0.06268142711871315 0.06398475004853692 0.0652880729783607
          0.10295225756785939 0.09936610898489294 0.09577996040192648 0.048615281715440335 0.047480440915087976 0.04634560011473561
          0 0 0 0 0.0005198004495949076 0.0010396008991898152
          0.008714587384034092 0.008673322333881937 0.008632057283729781 0.009040567620047783 0.009035780507682865 0.009030993395317946
          0.009837018574564593 0.009801443274114585 0.009765867973664577 0.00972461037736791 0.009720860082028554 0.009717109786689198
          0.010610368430581043 0.01058958038858965 0.010568792346598261 0.01082304710390249 0.010827615170339066 0.010832183236775643
          0.010229588580949835 0.01027171133751775 0.010313834094085664 0.008572468489637827 0.008654112320682101 0.008735756151726374
          0.005909341488307353 0.006025043150084371 0.006140744811861389 0.0057757638508131 0.0038374089360691745 0.006000484338688393
          0.0040097438163553285 0.006225204826563686 0.004182078696641483 0.0014606756284459164 0.0005889446586403271 0.0005844860463670876
          0.00194589834484619 0.0014803265642473987 0.0005908950835479473 0.00060858820476118 0.0020315850271107865 0.0014999775000488808
          0.0005928455084555676 0.0006326903631552722 0.0021172717093753835 0.00004206809587862662 0.000043639401782441356 0.000045210707686256095
          0.002797333411064312 0.002847052963541661 0.002896772516019011 0.00015972426116809952 0.00015799772608222646 0.00015627119099635345
          0.009168046829358945 0.008992027041593223 0.009167687371195098 0.008989925328273762 0.009167327913031254 0.008987823614954298
          0.009994210089542606 0.009993066629609524 0.009991923169676441 0.008890877709936964 0.008892911811675033 0.0088949459134131
          0.00965164764971141 0.009655870300104421 0.009660092950497431 0.008489806366184006 0.008503878883857011 0.008517951401530017
          0.006386461357633599 0.006407952318812629 0.0064294432799916566 0.003834504519422663 0.003849745925282747 0.003864987331142831
          0.0017554222924376956 0.001762289103788326 0.0017691559151389563 0.00009413855463824459 0.0005573352211169295 0.000445704827799732
          0.00009737889190585484 0.0005572658288333481 0.0004506062004254597 0.00010061922917346507 0.0005571964365497666 0.0004555075730511874
        </DataArray>
        <DataArray type="Float64" Name="pe11" format="ascii" RangeMin="-0.0008954585836935632" RangeMax="0.10094822650722649">
          0.0001268568176219397 0.00011290431619640126 0.000148496483480795 0.0001318445543217394 0.0001701361493396503 0.00015078479244707757
          0.00015058762659218497 0.00011659013464483946 0.00019163753821364768 0.0001548989098767807 0.00023268744983511035 0.00019320768510872196
          0.000372570196321839 0.0003095181391029007 0.00044022134687692207 0.000375072458839606 0.0005078724974320051 0.00044062677857631134
          0.0010299180960383436 0.000934902851528321 0.0011252685810525368 0.0010297649444300885 0.0012206190660667296 0.0011246270373318561
          0.002456820377248417 0.002337647964857321 0.002563279983769889 0.0024463349916797866 0.0026697395902913596 0.0025550220185022524
          0.005036553106625723 0.004913444599462668 0.005112953618329755 0.004993975256434306 0.005189354130033787 0.005074505913405945
          0.009145822848185435 0.009049582977714432 0.009130468582127219 0.009036082135603161 0.009115114316069001 0.009022581293491889
          0.015250391151977048 0.01522431500480241 0.015060542181367839 0.015027333429930864 0.01487069321075863 0.014830351855059314
          0.024888370386398864 0.02515840788154615 0.02438242049056577 0.0246208825188699 0.02387647059473268 0.02408335715619365
          0.03777653754421566 0.036804118279121306 0.03677030220343823 0.035846722332922354 0.0357640668626608 0.0348893263867234
          0.00017293200784896658 0.00020301207394684466 0.0002330921400447227 0.00025725594058880066 0.0003068781831542122 0.00035650042571962377
          0.000565065607644109 0.0006391128778473709 0.0007131601480506329 0.0013157296579417136 0.0014119832047351955 0.001508236751528677
          0.002811216446086009 0.002910460653602124 0.0030097048611182394 0.005398660730629743 0.00546295859062827 0.0055272564506267975
          0.009427133253849309 0.00940598184478356 0.009384830435717808 0.015307277177596794 0.015137140572439896 0.014967003967283
          0.024067785438207062 0.023651519464156022 0.023235253490104982 0.033839839735339404 0.03314106922661823 0.03244229871789707
          0.00026457712821362087 0.0003092867063965869 0.0003539962845795528 0.00045105317350447097 0.0005149762029677174 0.0005788992324309638
          0.0008976111424199767 0.0009810670352780057 0.0010645229281360346 0.0017947005860639046 0.0018896869692847935 0.0019846733525056824
          0.003390981302532038 0.0034763000672249833 0.003561618831917929 0.005977872947220023 0.006022557260147494 0.006067241573074965
          0.009860614620570477 0.009829981047770164 0.009799347474969855 0.01534583468301385 0.015203570111717597 0.015061305540421344
          0.022721901056096956 0.022438473153246343 0.02215504525039573 0.030218566179125224 0.029888703328173827 0.029558840477222438
          0.00042669682275140483 0.0004905876220654898 0.0005544784213795749 0.0007573341797601446 0.000837819835207205 0.0009183054906542656
          0.0013875488029902604 0.0014780925652595638 0.0015686363275288673 0.002467711381114684 0.0025540623219889673 0.0026404132628632506
          0.004176813335435899 0.004239115078627978 0.004301416821820058 0.006734368076080094 0.006752689219408474 0.006771010362736855
          0.010382967012443104 0.010341325105768615 0.010299683199094127 0.01528968529328885 0.015179963807205083 0.015070242321121315
          0.021051634194419917 0.020911869593491516 0.02077210499256312 0.02477375499641512 0.0247428718365458 0.024711988676676486
          0.0006983932368507509 0.0007775777324350881 0.000856762228019425 0.0012127757855909826 0.0013010246462479373 0.0013892735069048923
          0.0020561799797808766 0.0021401875642603767 0.0022241951487398763 0.003329667678093424 0.0033924347868040947 0.0034552018955147667
          0.0051357568392031445 0.00516370395754077 0.005191651075878396 0.007609282200843779 0.007596597953077812 0.007583913705311845
          0.010910009317857685 0.010859732823459034 0.010809456329060385 0.01505882425670331 0.014987707785855918 0.01491659131500853
          0.01920691256219737 0.01919777489624157 0.019188637230285768 0.020923476779529254 0.021111223164873592 0.021298969550217935
          0.0011313006874106514 0.001201990213643039 0.0012726797398754266 0.0018598604836193174 0.0019264949551303682 0.001993129426641419
          0.00292233225476492 0.0029696863753182756 0.0030170404958716306 0.004365935744516518 0.004381265634273429 0.00439659552403034
          0.006219973600196169 0.0062007709250459855 0.006181568249895802 0.008528640218828865 0.008484330372855498 0.008440020526882131
          0.011350926159214798 0.011300966183856202 0.011251006208497604 0.014587607450250357 0.014568427383733323 0.014549247317216291
          0.017174950462516523 0.017291564433606556 0.017408178404696592 0.017465050702693663 0.017830642016278892 0.01819623332986412
          0.0017720434697912786 0.0017875603484005143 0.0018030772270097501 0.0027278654474926214 0.0027243440477690293 0.0027208226480454375
          0.003987768994489475 0.003956735627367858 0.00392570226024624 0.005545720451098407 0.0054862110870732336 0.00542670172304806
          0.007367575643832759 0.00729093081972711 0.00721428599562146 0.009410496270907889 0.009340190197965266 0.009269884125022642
          0.011622467129386421 0.011591171710911074 0.01155987629243573 0.013818348281698697 0.013875557250730901 0.013932766219763104
          0.014996255920775527 0.015243335387242749 0.015490414853709968 0.014210343763070331 0.014701682172231924 0.015193020581393515
          0.0026126312395389015 0.0025624084799288167 0.0025121857203187323 0.003787594036733671 0.0037098183421684777 0.003632042647603285
          0.00520196020418093 0.005098756154755742 0.004995552105330555 0.0067997287434081 0.006681835548324882 0.006563942353241663
          0.008493760384563346 0.008381644270482415 0.008269528156401485 0.01016825480369067 0.010091671563024382 0.010015088322358093
          0.011670050757609235 0.0116660143726962 0.011661977987783165 0.0127537219480758 0.012871492755314828 0.012989263562553853
          0.012714382733237706 0.013020315568218005 0.013326248403198305 0.011248165871990174 0.011720175301027888 0.012192184730065603
          0.006374427843191596 0.0062777982636042715 0.006181168684016946 0.007905191271596515 0.007803780057528577 0.007702368843460639
          0.009378436220482839 0.009289305078706797 0.009200173936930754 0.010629813803743211 0.010575320434236075 0.010520827064728941
          0.01144411989994026 0.011450834180444954 0.011457548460949646 0.01153390176888476 0.011633709695380717 0.011733517621876676
          0.010488194686981804 0.010704582832901943 0.01092097097882208 0.008742166480969524 0.009051088427198775 0.009360010373428025
          0.000010539820744742336 0.00023720759602454007 0.00026571298216222685 0.000005774441486190698 0.00003601191381366365 0.00005555149403448092
          0.0003558204350670351 0.0000072532308249577515 0.00006148400688258497 -0.00012610460795557823 0.00044592788797184334 0.000008732020163724804
          0 0 -0.000021709206968866597 0 -0.000043418413937733194 0
          0 0 0 0.0000940654768882345 -0.000009265815763914353 0.000013216618422082427
          0.00018813095377646894 -0.000018531631527828705 0.000026433236844164854 0.051066108403915185 0.0462493218745987 0.05932573710517952
          0.06008095758611215 0.049575123551693356 0.0454178414742869 0.05763426836997704 0.0580573776341252 0.048084138699471535
          0.044586361073975095 0.055942799634774554 0.05603379768213823 0.012973249055449622 0.007752827337838683 0.002588134508721415
          0.006389875356488901 0.014626217135771991 0.008436526831037097 0.0035234872036109584 0.007990988938196027 0.01627918521609436
          0.009120226324235507 0.004458839898500502 0.009592102519903152 0.030366893524773036 0.03024373261317497 0.03590731889938596
          0.03495915581954492 0.030315190387217396 0.030437068017285664 0.03571209610279188 0.03460875486498208 0.030263487249661755
          0.03063040342139635 0.035516873306197794 0.034258353910419245 0.01462058023565381 0.016245697769160045 0.011365467830590437
          0.009275113876853923 0.0154905015047813 0.016934545803463874 0.012074747402050218 0.010089761671940582 0.016360422773908787
          0.017623393837767707 0.012784026973509999 0.010904409467027237 0.009336854729527763 0.012055337699024941 0.009847434759539324
          0.012681232132172352 0.010358014789550885 0.01330712656531976 0.040814510278668205 0.0373476206986587 0.0402341164071336
          0.03729530696107461 0.03965372253559897 0.03724299322349052 0.000002096718698072661 0 0
          0.00002182929290725932 0.00007387748151446943 0.00022540593094176376 0.00012185674736768763 -0.00043681464539315206 0.00014565824433086617
          0.0004508118618835275 0.00024371349473537528 -0.0008954585836935632 0.04651960182488341 0.045804194027287054 0.055653038979332756
          0.05271058065710436 0.04511648457587862 0.04440728002226203 0.05362868612734571 0.05091447187491291 0.04371336732687382
          0.043010366017237 0.05160433327535867 0.04911836309272146 0.0471988259062524 0.06384261137917438 0.04644103349946851
          0.06214171857580615 0.04568324109268462 0.06044082577243792 0.00048168289460728754 0.0008692919752204553 0.00021159356650560706
          0.00007111106645646134 0.0005730434021260538 0.000962017923248564 0.0002260073629530682 0.00007854918150615591 0.00066440390964482
          0.001054743871276673 0.00024042115940052936 0.00008598729655585048 0.07837027838366634 0.0988076352533991 0.09375558013074198
          0.0740343883445824 0.07713202259051759 0.09571564011446466 0.09050154587301966 0.07267595110804867 0.07589376679736884
          0.09262364497553022 0.08724751161529738 0.07131751387151494 0 0 0
          0 -0.0002125553751585646 -0.000017738225375423563 0.00003196295565322905 -0.00016698699416096472 -0.0004251107503171292
          -0.000035476450750847126 0.0000639259113064581 -0.00033397398832192945 0.019689891128641817 0.019678344371998533 0.02032946410688408
          0.020467231398248804 0.020969037085126336 0.021256118424499076 0.041512714768456666 0.04060365088308082 0.03969458699770499
          0.00008116201861151189 0.00048815559289009714 0.00011945677577823676 0.000027049559911246082 0.0001577515329449616 -0.00043405647306760494
          0.0009130202723663518 0.002689160469234214 0.0011226026656210556 0.0008731653765348917 0.002619725422609776 0.000979925994443981
          0.0008333104807034317 0.0025502903759853377 0.0008372493232669063 0.02555017517426497 0.02186147577340663 0.036865078881285436
          0.03637787195375762 0.026845028131615187 0.023401079264231153 0.03804305066791176 0.036817277969735156 0.028139881088965403
          0.024940682755055676 0.039221022454538096 0.03725668398571271 0.06044827639756097 0.06347313111181213 0.06800926159511858
          0.058042522108593994 0.06095661364737114 0.06506821101332448 0.055636767819627016 0.05844009618293015 0.06212716043153039
          0.008270614156192096 0.015183761404472713 0.008801757110640221 0.015778365994288123 0.009332900065088344 0.01637297058410353
          0.0006640649835614427 0.0031086469578045744 0.0022700939485682105 0.004556276310656246 0.0038761229135749775 0.006003905663507918
          0.008232224844015089 0.0044394943220674365 0.009265887802086134 0.005171662781353041 0.01029955076015718 0.005903831240638646
          0.08523755803836255 0.0823854096624757 0.0899960780372673 0.09178244979849023 0.08106282838386131 0.07864573448824208
          0.08601866477196912 0.08753523978150843 0.07688809872936005 0.07490605931400844 0.08204125150667096 0.08328802976452664
          0.024600388748243225 0.024804763686320862 0.031048226068289206 0.025164569265013453 0.0257514818766501 0.03158197208544962
          0.025728749781783685 0.02669820006697933 0.03211571810261002 0.0014737141688565376 0.0009107249119458487 0.0017872213211418907
          0.0011793125712083513 0.0021007284734272436 0.0014479002304708536 0.02401893907530836 0.019039064697722385 0.024329670918398015
          0.019493987527450726 0.024640402761487667 0.019948910357179075 0.015029205031506093 0.01740677875048747 0.016078124081403498
          0.018701897698171856 0.017127043131300906 0.01999701664585624 0.008581149918808742 0.004967003550130214 0.0095211120516501
          0.005537662845920387 0.010461074184491458 0.006108322141710559 0 0 0
          0.0000024826614389724494 0 0 0.000004965322877944899 0 0
          0.0050479108196441 0.0028259451527551994 0.005848292577784083 0.005362320661609068 0.0030546916517267156 0.006325933522069757
          0.0056767305035740345 0.003283438150698232 0.0068035744663554314 0.07025102700016361 0.07676739844957162 0.07711287361078417
          0.06725535906429006 0.07329250057110859 0.07345481842620227 0.06425969112841652 0.06981760269264557 0.06979676324162037
          0.0802418132563788 0.07635938143918497 0.07247694962199115 0 0 0
          0 0 0 0 0 0
          0 0 0 0.06937166730411598 0.07629574433226512 0.06678488281009956
          0.07340810889817109 0.06419809831608311 0.07052047346407703 0 0 0
          0 0 0 0.09808840821435616 0.0823169471287962 0.09417357565216301
          0.07935968126067483 0.09025874308996991 0.07640241539255346 0.05307874837791232 0.054613332964349615 0.052787381805094236
          0.055052547947166214 0.052496015232276164 0.05549176292998281 0 0 0
          0.006958966847284017 0.0073026895940022174 0.007646412340720421 0.023252656648770853 0.012004266353384632 0.02536243723868685
          0.01407052718798852 0.027472217828602843 0.01613678802259241 0.008046604963459927 0.008705851740633378 0.009365098517806831
          -0.000017669117529052476 0.0002731510503471813 0.0005639712182234151 0 0.0000024826614389724494 0.000004965322877944899
          0.0021065127864472706 0.002398685428518562 0.002690858070589854 0.0000016197857836141702 0.000002445958970450257 0.0000032721321572863438
          -0.00012098951178279862 -0.00014040079928823244 -0.00015981208679366628 0.04257136430294873 0.043811174557281785 0.04505098481161485
          0.10094822650722649 0.09697986765122764 0.09301150879522879 0.0456323485308366 0.04434095648636252 0.043049564441888434
          0 0 0 0 -0.00009113676199519973 -0.00018227352399039946
          0.00865202480383448 0.008610538914229256 0.008569053024624032 0.009028440173029138 0.009023437984070608 0.009018435795112075
          0.009794302123304607 0.009758410292109075 0.009722518460913546 0.009715537188537623 0.009711688532731029 0.009707839876924435
          0.01058732183649004 0.010566247155847891 0.010545172475205745 0.010796544515125841 0.010801323090523764 0.01080610166592169
          0.010142694504355346 0.010186103797199171 0.010229513090043 0.008339611323213012 0.008422277855338486 0.008504944387463964
          0.005554400158149161 0.005666353221717864 0.005778306285286567 0.005250888618688412 0.003493604401120675 0.005464138998509432
          0.0036469362822054083 0.005677389378330452 0.003800268163290141 0.0013941730490313084 0.0005746894219175438 0.0005574755710385838
          0.0018002501530940249 0.0014084864686056853 0.0005752739048821686 0.0005761420797759746 0.001870028193544543 0.001422799888180062
          0.0005758583878467934 0.0005948085885133655 0.0019398062339950613 0.00004164510166601923 0.00004306390678405934 0.00004448271190209945
          0.002635267780207902 0.002677124463221968 0.0027189811462360347 0.00015649752182378263 0.00015466444595818363 0.00015283137009258464
          0.009146264254182955 0.008983806731241502 0.00914591807677922 0.008981578614589156 0.009145571899375485 0.008979350497936807
          0.009973399717722122 0.009972214274245356 0.00997102883076859 0.008841450596468937 0.008843491876543616 0.008845533156618294
          0.009592523632174742 0.009596539527110032 0.00960055542204532 0.008362351389650453 0.008375438122497754 0.008388524855345053
          0.0061929255640686826 0.006211430011421989 0.006229934458775295 0.0036814529692410893 0.0036933430723589257 0.003705233175476762
          0.0016956504370425434 0.0017001933667703628 0.001704736296498182 0.00009161061147532426 0.000548277054830045 0.0004400593595652958
          0.00009466357005138149 0.0005476188101481174 0.00044455916010824976 0.0000977165286274387 0.0005469605654661897 0.0004490589606512037
        </DataArray>
        <DataArray type="Float64" Name="pe22" format="ascii" RangeMin="-0.04393180362251097" RangeMax="0.0006052682352802842">
          -0.00006649534680983171 -0.0000593714722657985 -0.00007625747469349261 -0.00006808285088640578 -0.00008601960257715353 -0.00007679422950701308
          -0.00007531045450986008 -0.00005880683482348167 -0.00009173768372791827 -0.00007469044587863634 -0.00010816491294597644 -0.00009057405693379102
          -0.00016630317882076478 -0.00013876237274859158 -0.00018452260899185074 -0.00015749348738175006 -0.00020274203916293668 -0.00017622460201490854
          -0.0003934000101905104 -0.00035600155658785485 -0.0003995500783646229 -0.00036326087124977227 -0.00040570014653873535 -0.0003705201859116897
          -0.0007947730104781347 -0.000748860374768442 -0.0007733484269882281 -0.0007279230565527585 -0.0007519238434983215 -0.0007069857383370749
          -0.0013928730395497116 -0.0013378823069886826 -0.0013404886935013264 -0.0012848644560033385 -0.0012881043474529414 -0.0012318466050179942
          -0.0022085895656495966 -0.0021385877688366137 -0.00213169759379459 -0.0020600340477237213 -0.002054805621939583 -0.0019814803266108294
          -0.0032747446112872786 -0.0031663407904825905 -0.003169367600502791 -0.0030537753605040505 -0.0030639905897183036 -0.0029412099305255114
          -0.004550079405438256 -0.004343082723588526 -0.004385817008409181 -0.0041621215186438765 -0.004221554611380105 -0.003981160313699228
          -0.006693050153145967 -0.0057410649697252555 -0.0063105353636459085 -0.005385915928673423 -0.005928020574145848 -0.00503076688762159
          -0.00008963696428518136 -0.00010246877645046968 -0.00011530058861575799 -0.00012586667455594526 -0.00014373310596861992 -0.0001615995373812946
          -0.00024863322123962905 -0.0002654441748577305 -0.000282255128475832 -0.0005049819773331813 -0.0005082197272991409 -0.0005114574772651004
          -0.0009315708114598197 -0.000908981313364209 -0.0008863918152685983 -0.0015557592022839622 -0.0015054698455002082 -0.0014551804887164537
          -0.0024170306105311765 -0.002345313452368249 -0.002273596294205321 -0.0035757041437643215 -0.0034882137349701403 -0.0034007233261759582
          -0.005016678351848699 -0.0048996534776535984 -0.004782628603458498 -0.00681258326835503 -0.006605919769719304 -0.0063992562710835765
          -0.00013413467604103782 -0.00015148375321997928 -0.00016883283039892074 -0.0002136878636577328 -0.00023308135965752886 -0.0002524748556573248
          -0.00038585429319573465 -0.00040019571135975333 -0.0004145371295237721 -0.0006892381850209997 -0.0006883971607682048 -0.0006875561365154101
          -0.0011559477618209167 -0.00113225975326125 -0.0011085717447015836 -0.0018203879603489893 -0.0017740316229854934 -0.0017276752856219978
          -0.002748806099349504 -0.0026856926711884914 -0.0026225792430274795 -0.004007691346553709 -0.00394366087376902 -0.003879630400984331
          -0.0054940283281352175 -0.005445436079138458 -0.005396843830141698 -0.007302442517098462 -0.007312388022908562 -0.007322333528718661
          -0.00020833106678876855 -0.0002298477897601959 -0.00025136451273162323 -0.0003435872330321268 -0.00036297699747632847 -0.00038236676192053017
          -0.0005780621056825622 -0.0005883566448518121 -0.0005986511840210621 -0.0009421588989107839 -0.0009368058259695379 -0.0009314527530282917
          -0.0014611936236903118 -0.0014373862622530183 -0.001413578900815725 -0.002175111528333292 -0.002134670763664914 -0.002094229998996536
          -0.003167309714855791 -0.0031158796020410687 -0.0030644494892263464 -0.004487581951804844 -0.004449961898932713 -0.004412341846060582
          -0.005934053928335643 -0.005949407952598305 -0.005964761976860968 -0.007123135828064873 -0.007236863070010656 -0.007350590311956438
          -0.00032137358840290817 -0.00034351863226294037 -0.0003656636761229725 -0.000519707281808169 -0.0005355975033919406 -0.0005514877249757124
          -0.0008231652053650644 -0.0008277061384260194 -0.0008322470714869747 -0.0012558424645200735 -0.0012465605323255615 -0.0012372786001310495
          -0.001835983073145332 -0.0018136976384558283 -0.0017914122037663246 -0.002600326265402095 -0.0025676447214361465 -0.002534963177470198
          -0.0036264830279883788 -0.0035894030463759934 -0.0035523230647636086 -0.0049356953244547985 -0.00492329373162834 -0.004910892138801882
          -0.006287443233570994 -0.0063431888030511955 -0.006398934372531395 -0.007198370803682368 -0.007346601277277723 -0.007494831750873075
          -0.00047913697537205137 -0.0004951810613585981 -0.000511225147345145 -0.000741984719198946 -0.0007500498738104571 -0.0007581150284219683
          -0.0011152914728123178 -0.0011132427931343568 -0.0011111941134563958 -0.00161873952354504 -0.0016071981743782302 -0.0015956568252114209
          -0.0022630035193537132 -0.0022443294299214138 -0.0022256553404891143 -0.0030688292522165223 -0.003045595161892136 -0.00302236107156775
          -0.004083437458952217 -0.0040620805859546225 -0.004040723712957028 -0.005294169910310609 -0.005302179003356921 -0.005310188096403231
          -0.006429583260943856 -0.006506661738911683 -0.0065837402168795085 -0.0070781271868406315 -0.007233864558044925 -0.007389601929249217
          -0.0006801283959039321 -0.0006829479482697749 -0.0006857675006356177 -0.0010049926805311227 -0.0010021574384787631 -0.0009993221964264035
          -0.0014451904674195168 -0.0014371305375654936 -0.0014290706077114705 -0.0020159013550431672 -0.002004442401296876 -0.0019929834475505845
          -0.002718644714195061 -0.0027058759563442342 -0.002693107198493408 -0.0035491654559887892 -0.0035370304037994353 -0.0035248953516100823
          -0.004502891014372004 -0.004497571877423259 -0.004492252740474513 -0.005527554646107034 -0.005551228132560659 -0.005574901619014284
          -0.006376330605747934 -0.006460022848502555 -0.006543715091257177 -0.0066796051252962655 -0.006832231842364642 -0.006984858559433018
          -0.0009183185462175718 -0.0009042994351714743 -0.0008902803241253767 -0.0013035376808358888 -0.001287197438529001 -0.0012708571962221134
          -0.0018052945298453677 -0.0017893581289284222 -0.001773421728011477 -0.0024327862253107 -0.00241981187386784 -0.0024068375224249802
          -0.003177023565897704 -0.0031689029767329522 -0.0031607823875682015 -0.004007865847985225 -0.004006576698879824 -0.004005287549774422
          -0.00486188195407967 -0.004873724782936212 -0.004885567611792756 -0.005629828983357378 -0.005670348754590698 -0.005710868525824017
          -0.00613460897446547 -0.006220967153037653 -0.006307325331609836 -0.00610650710971283 -0.0062428414028647084 -0.0063791756960165855
          -0.002336678459549425 -0.0023218833156550965 -0.0023070881717607685 -0.003014759403829592 -0.0030060031448652103 -0.0029972468859008295
          -0.003768944138976945 -0.0037679196651354266 -0.003766895191293908 -0.004538034933391795 -0.004546655901479384 -0.004555276869566974
          -0.005208502174069032 -0.005232614084052784 -0.005256725994036536 -0.005610441513345341 -0.005657652456585644 -0.005704863399825949
          -0.005607499903991547 -0.005678338483471742 -0.005749177062951938 -0.005289364641020603 -0.005377126132213335 -0.005464887623406068
          -0.000005224280340243184 -0.00013420702435386524 -0.00014272483058007683 -0.0000028442516940614195 -0.00011598030434812241 -0.00015513413453050752
          -0.00013343932267087863 -0.0000027754126735058822 -0.00022673632835600163 -0.00017606124470714984 -0.00012415381476168043 -0.0000027065736529503453
          0 0 0.000013012172863794825 0 0.00002602434572758965 0
          0 0 0 -0.00009173937264656019 0.000009646231910801324 -0.00001462969796016588
          -0.00018347874529312037 0.000019292463821602647 -0.00002925939592033176 -0.013656924035378293 -0.012258230863628023 -0.018650584199828638
          -0.018599439433684764 -0.012738495988650792 -0.011856038954757678 -0.017367327820915178 -0.017100038712672884 -0.011820067941923291
          -0.011453847045887335 -0.01608407144200172 -0.015600637991661004 -0.002875322297486784 -0.0026763473936046458 -0.0008668664169724128
          -0.0011553482841792485 -0.003755305986708476 -0.002595389284839814 -0.0008937822170488926 -0.001652051779608101 -0.0046352896759301685
          -0.002514431176074983 -0.0009206980171253725 -0.0021487552750369537 -0.00845010611761757 -0.008734745401679924 -0.008858166408496512
          -0.008366565298332922 -0.008639736559745708 -0.009044828117057497 -0.0089904254605707 -0.008412439464592827 -0.008829367001873843
          -0.009354910832435068 -0.00912268451264489 -0.008458313630852728 -0.0071776065222265584 -0.007337542180090708 -0.006008952477580375
          -0.005045654299970242 -0.0075271866978313924 -0.007669545570551199 -0.006204454313855014 -0.005231030560190778 -0.007876766873436226
          -0.00800154896101169 -0.006399956150129652 -0.005416406820411311 -0.00551434171581526 -0.006380894927009934 -0.005654900005175369
          -0.006555015673949225 -0.005795458294535479 -0.006729136420888517 -0.009826388521972552 -0.00974504387962442 -0.009718770055901464
          -0.00994992524772276 -0.009611151589830376 -0.010154806615821103 -7.947522216296344e-7 0 0
          0.000032002122326960826 -0.00010891400532660082 -0.00023282642463668017 -0.00010640816254745553 0.00003928825982909536 -0.000217033258431572
          -0.00046565284927336034 -0.00021281632509491106 0.000046574397331229894 -0.009374126352636845 -0.009916875338898335 -0.015761056571365235
          -0.0133749431385364 -0.008641268455008741 -0.009221619280696834 -0.01439916972819901 -0.012224536440340024 -0.007908410557380636
          -0.008526363222495337 -0.01303728288503278 -0.011074129742143649 -0.013558917046037068 -0.023527193574278116 -0.013142291744393226
          -0.022085229742787475 -0.012725666442749382 -0.02064326591129684 -0.0002710378103328002 -0.0005027515808838269 -0.00012236303051931836
          -0.00004123471735519192 -0.0002709938206631806 -0.0005029376667215963 -0.00012170562555631133 -0.00004120308737138346 -0.00027094983099356095
          -0.0005031237525593659 -0.00012104822059330427 -0.000041171457387575 -0.033233531085902976 -0.04393180362251097 -0.041401944603654935
          -0.031140469571194818 -0.03194229054377895 -0.04091776432853605 -0.03837127169035011 -0.0299555365458102 -0.03065105000165493
          -0.03790372503456112 -0.035340598777045276 -0.02877060352042559 0 0 0
          0 0.0003026341176401421 0.000038891067445925354 -0.00004452286913495692 0.00020380363794327466 0.0006052682352802842
          0.00007778213489185071 -0.00008904573826991384 0.0004076072758865493 -0.007922959942410886 -0.008492788296314831 -0.008341095059881266
          -0.008950703747163023 -0.008759230177351647 -0.009408619198011217 -0.009446698342553595 -0.00909683632560945 -0.008746974308665303
          -0.00005955690036241619 -0.00028915584757997445 -0.0005372507694076765 -0.0004279383878269436 -0.0010149446384529368 -0.0005667209280739127
          -0.0005025497039381514 -0.0012039205864824043 -0.0005433914978353091 -0.0005478214677412816 -0.0006776736344899675 -0.00029188508322152947
          -0.0005930932315444115 -0.00015142668249753063 -0.00004037866860774993 -0.00789383114733247 -0.006060674227564901 -0.011098765414437956
          -0.009461214860639057 -0.008580034750046336 -0.006838617024895385 -0.012246953204332413 -0.009992320373400542 -0.009266238352760203
          -0.007616559822225869 -0.013395140994226876 -0.010523425886162027 -0.018729090401862172 -0.02059667028523217 -0.023837382160552627
          -0.017015442976595366 -0.018650859670631837 -0.021454431258567164 -0.01530179555132856 -0.016705049056031512 -0.019071480356581703
          -0.004847151902771936 -0.00700329831128199 -0.0049627342129261905 -0.007202207925948305 -0.005078316523080445 -0.007401117540614623
          -0.00004671195044776732 -0.0005214531892194546 -0.0010912154045457164 -0.001131287306856061 -0.0021357188586436653 -0.0017411214244926676
          -0.0034059822753337438 -0.0021974214247138368 -0.0038186812278561675 -0.0023165891631534295 -0.004231380180378591 -0.0024357569015930236
          -0.03456737008074591 -0.032823448051040094 -0.036458075904727966 -0.035944408122726305 -0.030841961692554615 -0.029521758887201283
          -0.03278741640058013 -0.031968248771980436 -0.027116553304363314 -0.026220069723362476 -0.029116756896432297 -0.027992089421234562
          -0.008626912203470161 -0.008401558978020387 -0.008599952046412984 -0.009056576723851748 -0.009064294090014038 -0.00915506501348713
          -0.009486241244233334 -0.009727029202007688 -0.009710177980561278 -0.0007961450276312669 -0.00046556658792572345 -0.0008091751446204917
          -0.00045858633859020755 -0.0008222052616097162 -0.0004516060892546917 -0.007998493821067359 -0.007359038858207283 -0.008293787492029003
          -0.007613580866110846 -0.008589081162990649 -0.007868122874014408 -0.00641943223893391 -0.0062415805686444215 -0.006895687581267567
          -0.006722468388686786 -0.007371942923601225 -0.007203356208729151 -0.0042370024342651405 -0.0029995128905052357 -0.004438576347484238
          -0.003073660469998407 -0.004640150260703336 -0.0031478080494915786 0 0 0
          -0.000002163996139254858 0 0 -0.000004327992278509716 0 0
          -0.0032257078933722117 -0.0017822844068512485 -0.003591751132514541 -0.0032710869509540255 -0.0018015765511187692 -0.0036740017192953586
          -0.0033164660085358397 -0.0018208686953862904 -0.0037562523060761764 -0.02553217642107069 -0.030219428119193887 -0.031052602210537576
          -0.023088328543219107 -0.027230385895304104 -0.02781660443377592 -0.02064448066536753 -0.024241343671414305 -0.024580606657014257
          -0.03268149905147738 -0.029193638253066007 -0.025705777454654632 0 0 0
          0 0 0 0 0 0
          0 0 0 -0.024886691814343005 -0.029914091847549888 -0.022798551261622703
          -0.027324313436375525 -0.0207104107089024 -0.024734535025201156 0 0 0
          0 0 0 -0.04136964232367271 -0.03496670922505721 -0.03763324809895347
          -0.03229143650112488 -0.03389685387423424 -0.029616163777192544 -0.018104972263235704 -0.02128519834197175 -0.018128285674212884
          -0.021826160656414264 -0.018151599085190064 -0.022367122970856773 0 0 0
          -0.004469814357092734 -0.0045448964274875815 -0.004619978497882428 -0.005520979338818831 -0.0007435802761381222 -0.0073852284757417825
          -0.0022092256977173045 -0.009249477612664734 -0.003674871119296487 -0.0047488733978487295 -0.0048931045213308185 -0.005037335644812908
          0.00013336621296750848 -0.0006361205083537027 -0.0014056072296749135 0 -0.000002163996139254858 -0.000004327992278509716
          -0.001253755105525686 -0.0012729008532217524 -0.0012920466009178181 -8.496608728435802e-7 -0.0000011753860377741969 -0.0000015011112027048139
          0.0004867090083246233 -0.00015104895202975143 -0.0007888069123841262 -0.014535710242110015 -0.015787921197459528 -0.017040132152809043
          -0.04203796949829226 -0.03817879443018886 -0.034319619362085454 -0.008574464427766864 -0.007881535974338154 -0.007188607520909447
          0 0 0 0 0.00019766095939373495 0.0003953219187874699
          -0.003810315175704115 -0.003815162541032732 -0.003820009906361349 -0.004445725308165398 -0.00445676650559957 -0.004467807703033741
          -0.00449475846691695 -0.0045050558716787925 -0.004515353276440634 -0.0049368914827403795 -0.004951227512864966 -0.004965563542989552
          -0.0050799583225604895 -0.005096331712201447 -0.005112705101842404 -0.005420000930620084 -0.005445496603502843 -0.005470992276385603
          -0.005331905141510066 -0.00536621708478593 -0.005400529028061792 -0.004686465444608049 -0.004717376644016596 -0.004748287843425143
          -0.0034181527114410535 -0.0034287448509853317 -0.0034393369905296096 -0.003426484938018391 -0.0022082905839030296 -0.0034459448630176823
          -0.002211158896568808 -0.003465404788016974 -0.0022140272092345857 -0.0008050774767749422 -0.00031788818731741104 -0.0003238510637435268
          -0.0011026865925685579 -0.0007922746695778681 -0.0003105415297722427 -0.00031855354999730487 -0.0010960823919127813 -0.0007794718623807942
          -0.0003031948722270742 -0.000313256036251083 -0.0010894781912570047 -0.000021817886873454786 -0.0000219700712199405 -0.000022122255566426206
          -0.0015812454285802596 -0.0015637771150762327 -0.0015463088015722057 -0.00008683119462431258 -0.00008487924074591184 -0.0000829272868675111
          -0.0048750881081387615 -0.004663488746770427 -0.004886925039757512 -0.004673060143902176 -0.00489876197137626 -0.004682631541033925
          -0.005224473640921172 -0.005241828158951844 -0.005259182676982517 -0.004830159391243204 -0.0048434438914503886 -0.004856728391657573
          -0.005166359873781376 -0.005186662015186132 -0.0052069641565908875 -0.004616557423408698 -0.0046353670666183415 -0.004654176709827984
          -0.003520135763699699 -0.003524720552545104 -0.003529305341390509 -0.002140486435801338 -0.002127866218584117 -0.0021152460013668948
          -0.0009632699169891794 -0.0009500162260010263 -0.0009367625350128735 -0.000040585880026581336 -0.0002864380609712724 -0.00022016716915151827
          -0.00004175273621017843 -0.0002817361408766484 -0.0002203947240563844 -0.00004291959239377553 -0.0002770342207820244 -0.00022062227896125057
        </DataArray>
        <DataArray type="Float64" Name="pe33" format="ascii" RangeMin="-0.05891025700893407" RangeMax="0.0010007774011458457">
          -0.00006036147081210796 -0.00005353284393060273 -0.00007223900878730236 -0.00006376170343533361 -0.00008411654676249676 -0.00007399056294006449
          -0.00007527717208232486 -0.00005778329982135775 -0.00009989985448572938 -0.00008020846399814431 -0.00012452253688913388 -0.00010263362817493089
          -0.00020626701750107418 -0.0001707557663543091 -0.00025569873788507135 -0.0002175789714578559 -0.00030513045826906845 -0.0002644021765614027
          -0.0006365180858478332 -0.000578901294940466 -0.0007257185026879136 -0.000666504073180316 -0.0008149189195279939 -0.0007541068514201662
          -0.001662047366770282 -0.0015887875900888785 -0.0017899315567816599 -0.0017184119351270272 -0.0019178157467930374 -0.0018480362801651762
          -0.0036436800670760112 -0.0035755622924739847 -0.0037724649248284284 -0.003709110800430967 -0.0039012497825808446 -0.003842659308387949
          -0.006937233282535838 -0.0069109952088778175 -0.006998770988332627 -0.006976048087879438 -0.007060308694129417 -0.007041100966881059
          -0.011975646540689763 -0.012057974214319816 -0.011891174580865044 -0.011973558069426807 -0.011806702621040326 -0.011889141924533799
          -0.020338290980960596 -0.02081532515795762 -0.019996603482156584 -0.02045876100022602 -0.019654915983352568 -0.02010219684249442
          -0.031083487391069663 -0.03106305330939605 -0.0304597668397923 -0.030460806404248933 -0.02983604628851493 -0.029858559499101815
          -0.00008329504356378522 -0.00010054329749637495 -0.00011779155142896469 -0.0001313892660328554 -0.00016314507718559224 -0.00019490088833832908
          -0.0003164323864044799 -0.00037366870298964036 -0.0004309050195748008 -0.0008107476806085321 -0.0009037634774360542 -0.0009967792742635762
          -0.0018796456346261892 -0.0020014793402379142 -0.0021233130458496396 -0.0038429015283457813 -0.003957488745128062 -0.004072075961910343
          -0.007010102643318131 -0.007060668392415309 -0.007111234141512487 -0.011731573033832463 -0.01164892683746975 -0.01156628064110704
          -0.01905110708635835 -0.01875186598650241 -0.018452624886646472 -0.02702725646698429 -0.026535149456898822 -0.026043042446813363
          -0.00013044245217258305 -0.00015780295317660757 -0.00018516345418063208 -0.00023736530984673818 -0.0002818948433101885 -0.00032642437677363884
          -0.0005117568492242421 -0.0005808713239182523 -0.0006499857986122624 -0.0011054624010429048 -0.0012012898085165887 -0.0012971172159902723
          -0.0022350335407111213 -0.002344040313963733 -0.0024530470872163447 -0.004157484986871033 -0.004248525637161999 -0.0043395662874529655
          -0.00711180852122097 -0.0071442883765816725 -0.007176768231942374 -0.011338143336460134 -0.011259909237948573 -0.011181675139437009
          -0.017227872727961717 -0.01699303707410786 -0.016758201420254002 -0.02291612366202659 -0.022576315305265028 -0.022236506948503466
          -0.0002183657559626362 -0.0002607398323052939 -0.0003031139086479516 -0.00041374694672801775 -0.0004748428377308765 -0.0005359387287337354
          -0.0008094866973076982 -0.0008897359204077515 -0.000969985143507805 -0.0015255524822038995 -0.0016172564960194292 -0.0017089605098349586
          -0.0027156197117455872 -0.0028017288163749597 -0.0028878379210043317 -0.0045592565477468 -0.004618018455743559 -0.004676780363740317
          -0.007215657297587311 -0.007225445503727545 -0.007235233709867778 -0.010802103341484003 -0.010730001908272363 -0.010657900475060728
          -0.01511758026608424 -0.014962461640893175 -0.014807343015702107 -0.01765061916835009 -0.017506008766534943 -0.017361398364719796
          -0.00037701964844784265 -0.00043405910017214747 -0.0004910985518964524 -0.0006930685037828133 -0.0007654271428559965 -0.0008377857819291797
          -0.0012330147744158125 -0.001312481425834357 -0.0013919480772529016 -0.00207382521357335 -0.0021458742544785336 -0.0022179232953837167
          -0.0032997737660578116 -0.0033500063190849408 -0.003400238872112071 -0.005008955935441684 -0.005028953231641665 -0.005048950527841645
          -0.007283526289869302 -0.007270329777083038 -0.007257133264296773 -0.010123128932248501 -0.010064414054227571 -0.01000569917620664
          -0.012919469328626343 -0.012854586093190333 -0.012789702857754326 -0.01372510597584678 -0.01376462188759574 -0.0138041377993447
          -0.0006521637120385998 -0.0007068091522844408 -0.0007614545925302815 -0.0011178757644203711 -0.0011764450813199108 -0.0012350143982194505
          -0.0018070407819526018 -0.0018564435821839184 -0.001905846382415235 -0.0027471962209714785 -0.002774067459895199 -0.002800938698818919
          -0.003956970080842455 -0.0039564414951245705 -0.003955912909406686 -0.005459810966612343 -0.0054387352109633615 -0.005417659455314379
          -0.007267488700262579 -0.007238885597901574 -0.007210282495540572 -0.009293437539939732 -0.00926624838037639 -0.009239059220813048
          -0.010745367201572634 -0.010784902694694835 -0.01082443818781704 -0.010386923515852974 -0.010596777458233897 -0.010806631400614821
          -0.0010919150738873465 -0.0011046124001307393 -0.0011173097263741326 -0.0017228727669614983 -0.0017221866092902664 -0.0017215004516190342
          -0.0025425785270699578 -0.0025196050898023633 -0.0024966316525347693 -0.0035298190960552393 -0.0034817686857763577 -0.003433718275497475
          -0.004648930929637696 -0.004585054863382873 -0.004521178797128052 -0.005861330814919097 -0.005803159794165828 -0.005744988773412559
          -0.007119576115014412 -0.0070935998334878125 -0.007067623551961212 -0.008290793635591648 -0.008324329118170227 -0.008357864600748806
          -0.008619925315027567 -0.008783312538740165 -0.008946699762452761 -0.007530738637774037 -0.007869450329867245 -0.008208162021960452
          -0.0016943126933213297 -0.0016581090447573426 -0.0016219053961933553 -0.0024840563558977814 -0.0024226209036394765 -0.002361185451381171
          -0.0033966656743355606 -0.00330939802582732 -0.0032221303773190785 -0.0043669425180974 -0.004262023674457042 -0.004157104830816683
          -0.00531673681866564 -0.005212741293749462 -0.005108745768833284 -0.006160388955705442 -0.0060850948641445555 -0.006009800772583671
          -0.0068081688035295605 -0.006792289589759983 -0.006776410375990403 -0.007123892964718407 -0.007201144000724116 -0.007278395036729824
          -0.006579773758772217 -0.006799348415180333 -0.0070189230715884485 -0.00514165876227733 -0.005477333898163164 -0.005813009034048997
          -0.00403774938364217 -0.003955914947949174 -0.003874080512256178 -0.0048904318677669215 -0.004797776912663366 -0.00470512195755981
          -0.005609492081505891 -0.005521385413571368 -0.005433278745636845 -0.006091778870351415 -0.00602866453275669 -0.0059655501951619665
          -0.006235617725871225 -0.006218220096392165 -0.006200822466913107 -0.005923460255539413 -0.005976057238795064 -0.006028654222050719
          -0.004880694782990249 -0.00502624434943019 -0.005171793915870131 -0.0034528018399489174 -0.0036739622949854343 -0.0038951227500219504
          -0.000005315540404499154 -0.00010300057167067487 -0.00012298815158214997 -0.0000029301897921292773 0.00007996839053322161 0.00009958264048676513
          -0.0002223811123961564 -0.000004477818151451867 0.00016525232147094238 0.0003021658526442051 -0.00032177407321016285 -0.000006025446510774457
          0 0 0.000008697034105071774 0 0.000017394068210143547 0
          0 0 0 -0.000002326104241675825 -3.8041614688696146e-7 0.0000014130795380833338
          -0.00000465220848335165 -7.608322937739229e-7 0.0000028261590761666676 -0.03740918436853674 -0.033991091010970226 -0.04067515290535066
          -0.041481518152427344 -0.036836627563042346 -0.03356180251952824 -0.04026694054906141 -0.04095733892145227 -0.036264070757547964
          -0.03313251402808626 -0.03985872819277214 -0.04043315969047721 -0.010097926757959869 -0.005076479944233624 -0.0017212680917471405
          -0.005234527072308389 -0.010870911149051208 -0.00584113754618493 -0.0026297049865411145 -0.006338937158578271 -0.011643895540142543
          -0.006605795148136239 -0.0035381418813350877 -0.007443347244848153 -0.02191678740715513 -0.02150898721149445 -0.02704915249088884
          -0.02659259052121163 -0.021675453827471207 -0.021392239900227247 -0.02672167064222023 -0.026196315400388748 -0.02143412024778728
          -0.02127549258896004 -0.026394188793551626 -0.02580004027956586 -0.007442973713427155 -0.008908155589069246 -0.005356515353010041
          -0.004229459576883666 -0.007963314806949744 -0.009265000232912535 -0.005870293088195173 -0.004858731111749781 -0.008483655900472334
          -0.009621844876755825 -0.006384070823380304 -0.005488002646615895 -0.0038225130137124943 -0.005674442772014987 -0.004192534754363942
          -0.006126216458223095 -0.00456255649501539 -0.006577990144431203 -0.030988121756695203 -0.027602576819033237 -0.030515346351231404
          -0.027345381713350214 -0.03004257094576761 -0.027088186607667184 -0.0000013019664764430217 0 0
          -0.00005383141523421904 0.00003503652381225554 0.000007420493694914587 -0.000015448584820232092 0.0003975263855644424 0.00007137501410095409
          0.000014840987389829174 -0.000030897169640464185 0.0008488841863631037 -0.03714547547224656 -0.03588731868838867 -0.0398919824079675
          -0.03933563751856795 -0.036475216120869874 -0.03518566074156515 -0.03922951639914672 -0.03868993543457289 -0.0358049567694932
          -0.034484002794741626 -0.03856705039032593 -0.03804423335057782 -0.03363990886021431 -0.04031541780489578 -0.0332987417550726
          -0.04005648883301734 -0.03295757464993087 -0.03979755986113889 -0.0002106450842744873 -0.00036654039433662845 -0.00008923053598628876
          -0.000029876349101269427 -0.00030204958146287317 -0.00045908025652696764 -0.0001043017373967569 -0.00003734609413477245 -0.0003934540786512591
          -0.0005516201187173068 -0.00011937293880722507 -0.00004481583916827549 -0.04513674729776122 -0.05487583163088784 -0.052353635527086814
          -0.04289391877338651 -0.04518973204673901 -0.05479787578595595 -0.052130274182684025 -0.04272041456223778 -0.0452427167957168
          -0.05471991994102405 -0.05190691283828122 -0.04254691035108906 0 0 0
          0 -0.00009007874248157922 -0.00002115284207050274 0.000012559913481727346 -0.000036816643782311004 -0.00018015748496315843
          -0.00004230568414100548 0.0000251198269634547 -0.00007363328756462201 -0.011766931186230796 -0.011185556075683532 -0.011988369047002586
          -0.011516527651085476 -0.012209806907774378 -0.011847499226487423 -0.03206601642590281 -0.03150681455747102 -0.030947612689039238
          -0.00002160511824909643 -0.00019899974531012337 0.0004177939936256432 0.00040088882791786113 0.0008571931055003828 0.0010007774011458457
          -0.0004104705684273851 -0.0014852398827524134 -0.0005792111677857464 -0.00032534390877048976 -0.0019420517880984502 -0.0006880409112175821
          -0.00024021724911359437 -0.0023988636934444874 -0.0007968706546494179 -0.017656344026931368 -0.015800801545839235 -0.025766313466845103
          -0.02691665709311723 -0.018264993381566567 -0.01656246223932984 -0.025796097463564073 -0.0268249575963314 -0.01887364273620176
          -0.01732412293282045 -0.025825881460283046 -0.026733258099545576 -0.04171918599569879 -0.042876460826579935 -0.04417187943456594
          -0.041027079131998656 -0.04230575397673933 -0.04361377975475736 -0.04033497226829852 -0.04173504712689873 -0.04305568007494879
          -0.0034234622534201516 -0.008180463093190675 -0.0038390228977140187 -0.00857615806833975 -0.004254583542007885 -0.008971853043488824
          -0.0006173530331116786 -0.0025871937685850153 -0.001178878544014744 -0.0034249890037979804 -0.0017404040549178093 -0.004262784239010945
          -0.004826242568681323 -0.002242072897353596 -0.00544720657422991 -0.0028550736181996044 -0.006068170579778496 -0.003468074339045614
          -0.05067018795761666 -0.0495619616114356 -0.05353800213253934 -0.05583804167576398 -0.05022086669131007 -0.04912397560104291
          -0.05323124837139801 -0.0555669910095436 -0.04977154542500348 -0.048685989590650236 -0.05292449461025668 -0.055295940343323205
          -0.015973476544772738 -0.01640320470829992 -0.02244827402187509 -0.016107992541161173 -0.01668718778663507 -0.022426907071960774
          -0.016242508537549608 -0.016971170864970218 -0.022405540122046454 -0.0006775691412252707 -0.000445158324020125 -0.0009780461765213986
          -0.0007207262326181435 -0.0012785232118175268 -0.0009962941412161618 -0.016020445254240772 -0.011680025839514977 -0.016035883426368684
          -0.011880406661339715 -0.0160513215984966 -0.012080787483164455 -0.008609772792572011 -0.01116519818184264 -0.00918243650013561
          -0.011979429309484053 -0.009755100207699208 -0.012793660437125466 -0.004344147484543589 -0.0019674906596249776 -0.005082535704165839
          -0.002464002375921976 -0.00582092392378809 -0.0029605140922189755 0 0 0
          -3.1866529971758993e-7 0 0 -6.373305994351799e-7 0 0
          -0.001822202926271888 -0.0010436607459039502 -0.002256541445269539 -0.0020912337106550405 -0.0012531151006079455 -0.0026519318027743944
          -0.0023602644950381935 -0.0014625694553119415 -0.0030473221602792507 -0.044718850579092896 -0.046547970330377726 -0.0460602714002466
          -0.044167030521070995 -0.04606211467580466 -0.04563821399242642 -0.0436152104630491 -0.045576259021231615 -0.04521615658460623
          -0.047560314204901435 -0.047165743186119206 -0.04677117216733698 0 0 0
          0 0 0 0 0 0
          0 0 0 -0.04448497548977297 -0.04638165248471522 -0.04398633154847696
          -0.04608379546179617 -0.04348768760718095 -0.04578593843887711 0 0 0
          0 0 0 -0.05671876589068334 -0.04735023790373892 -0.05654032755323013
          -0.04706824475955084 -0.05636188921577693 -0.04678625161536276 -0.03497377611467589 -0.03332813462237564 -0.0346590961308781
          -0.03322638729072804 -0.03434441614708032 -0.03312463995908043 0 0 0
          -0.0024891524901912813 -0.0027577931665146347 -0.003026433842837989 -0.017731677309949304 -0.011260686077245688 -0.017977208762924003
          -0.011861301490264632 -0.01822274021589871 -0.012461916903283575 -0.00329773156561119 -0.0038127472193025497 -0.0043277628729939096
          -0.00011569709543725636 0.0003629694580081943 0.0008416360114536449 0 -3.1866529971758993e-7 -6.373305994351799e-7
          -0.0008527576809215845 -0.0011257845752968094 -0.0013988114696720346 -7.701249107705897e-7 -0.0000012705729326760594 -0.0000017710209545815293
          -0.0003657194965416659 0.0002914497513183846 0.0009486189991784351 -0.0280356540608362 -0.028023253359793346 -0.02801085265875049
          -0.05891025700893407 -0.05880107322106797 -0.05869188943320189 -0.03705788410306974 -0.03645942051202437 -0.035860956920979
          0 0 0 0 -0.00010652419739853643 -0.00021304839479707285
          -0.0048417096281303616 -0.004795376373196521 -0.004749043118262682 -0.004582714864863738 -0.004566671478471034 -0.00455062809207833
          -0.005299543656387655 -0.005253354420430283 -0.005207165184472911 -0.00477864570579724 -0.004760461019866061 -0.004742276333934882
          -0.005507363513929549 -0.005469915443646443 -0.0054324673733633375 -0.005376543584505753 -0.005355826487020918 -0.005335109389536082
          -0.004810789362845277 -0.004819886712413241 -0.004828984061981204 -0.003653145878604961 -0.0037049012113218897 -0.003756656544038819
          -0.0021362474467081067 -0.002237608370732532 -0.002338969294756957 -0.0018244036806700208 -0.0012853138172176457 -0.002018194135491749
          -0.0014357773856366002 -0.0022119845903134775 -0.0015862409540555547 -0.000589095572256366 -0.0002568012346001327 -0.00023362450729505707
          -0.0006975635605254666 -0.000616211799027817 -0.0002647323751099259 -0.00025758852977866983 -0.0007739458016317615 -0.000643328025799268
          -0.00027266351561971915 -0.0002815525522622825 -0.0008503280427380562 -0.000019827214792564433 -0.000021093835564118837 -0.000022360456335673238
          -0.0010540223516276419 -0.0011133473481457353 -0.0011726723446638288 -0.00006966632719947004 -0.00006978520521227179 -0.00006990408322507353
          -0.004271176146044192 -0.004320317984471072 -0.004258993037021708 -0.004308518470686976 -0.004246809927999223 -0.00429671895690288
          -0.004748926076800948 -0.00473038611529351 -0.00471184615378607 -0.004011291205225733 -0.004000047985093227 -0.00398880476496072
          -0.004426163758393364 -0.004409877511923897 -0.004393591265454431 -0.0037457939662417536 -0.0037400710558794107 -0.003734348145517067
          -0.002672789800368983 -0.002686709458876884 -0.0027006291173847854 -0.0015409665334397502 -0.0015654768537748088 -0.0015899871741098673
          -0.000732380520053364 -0.0007501771407693364 -0.0007679737614853088 -0.00005102473144874293 -0.00026183899385877254 -0.00021989219041377743
          -0.00005291083384120304 -0.000265882669271469 -0.00022416443605186533 -0.000054796936233663155 -0.00026992634468416536 -0.00022843668168995315
        </DataArray>
        <DataArray type="Float64" Name="disp_x" format="ascii" RangeMin="0" RangeMax="0.00003610224020118457">
          1.5275344929513702e-7 0 1.549145794471355e-7 0 1.6113806712971725e-7 0
          1.487397537711161e-7 0 1.5323115376896698e-7 0 1.667633085800672e-7 0
          1.6299329744057585e-7 0 1.7062460878615792e-7 0 1.9454329186061832e-7 0
          2.2238581481314388e-7 0 2.3291397921001575e-7 0 2.6780525389694034e-7 0
          3.666471559930641e-7 0 3.7966478058449146e-7 0 4.2091804843461943e-7 0
          6.450410692276814e-7 0 6.555751976444029e-7 0 6.887581122128198e-7 0
          0.0000011026702673006214 0 0.000001103090487800338 0 0.000001106571199535607 0
          0.0000017863451682361906 0 0.0000017655340304965085 0 0.0000017102283774004783 0
          0.000002787262065538026 0 0.0000027361656713847213 0 0.0000025742036435979185 0
          0.000004694200376325364 0 0.000004581741887300375 0 0.000004202719942185304 0
          3.0772803300972105e-7 3.12737022617114e-7 3.2733387298647026e-7 3.0410065401967225e-7 3.13764398968087e-7 3.4319208733404205e-7
          3.395148974877898e-7 3.5508585987685306e-7 4.0457855478191515e-7 4.657552566085981e-7 4.873891858484995e-7 5.577513066296965e-7
          7.612963087269451e-7 7.867300187450772e-7 8.673713191906979e-7 0.0000013198546507250861 0.000001339817485897548 0.0000014028429238391686
          0.0000022298863430953655 0.000002229657930210577 0.000002233846228630979 0.000003580829102512821 0.000003541608967702614 0.0000034342673238033307
          0.000005555291195440975 0.00000545507215525165 0.000005150216203045527 0.000009158309878303301 0.000008944964276305762 0.00000824487841406238
          4.680623583357846e-7 4.773916561907593e-7 5.04899386181553e-7 4.738663504752939e-7 4.901237141132484e-7 5.401187614574002e-7
          5.43678035172283e-7 5.682594918020789e-7 6.466545629639569e-7 7.519079055934606e-7 7.8516306066468e-7 8.914603345401427e-7
          0.0000012112060168065634 0.00000124795321147956 0.0000013637703264304568 0.000002052482974995114 0.000002079645909821435 0.00000216582061102391
          0.0000034036198570495678 0.0000034012195964470645 0.00000340151081381874 0.0000053926091906402395 0.000005337378371201511 0.000005183000622750924
          0.000008261921826182696 0.000008121042372655514 0.0000077046888468523 0.000013190484929004784 0.000012904942868319018 0.000011985305865384955
          6.390492609303005e-7 6.550437491235661e-7 7.023276878292618e-7 6.681405277851169e-7 6.931800838914718e-7 7.701677399309603e-7
          7.91555759224451e-7 8.268119699467429e-7 9.380742541103156e-7 0.0000011036370326440072 0.0000011484483692827266 0.0000012889777591157597
          0.000001742475934159683 0.0000017884063311591282 0.0000019322046544045184 0.0000028673553188103808 0.0000028984902660307138 0.0000029981850985250735
          0.0000046412302708266225 0.000004634826329948327 0.000004625302795331274 0.0000072197240642992395 0.0000071506566729123065 0.000006955736843530645
          0.000010868895801965202 0.000010700726358515618 0.000010208130475306445 0.0000166281240943799 0.000016310053426717384 0.000015303170119095337
          8.298725324572252e-7 8.553163378674847e-7 9.302538322591033e-7 9.011041696357024e-7 9.372123672553735e-7 0.0000010474482000808015
          0.0000011026315674170433 0.000001149505494004509 0.0000012951850117259878 0.000001544285456537147 0.000001598819881153702 0.0000017681067042589058
          0.0000023785413743637343 0.0000024299593488661475 0.000002590947569166079 0.0000037837933347219565 0.000003814996145697587 0.000003916430848779218
          0.000005949858570121217 0.000005937453575292627 0.000005912091573791537 0.000009050127372925092 0.000008971192863364254 0.000008743688539618673
          0.000013326366980719233 0.000013142231397205314 0.00001261028990717006 0.00001952628284074718 0.000019212063209467806 0.000018223894045365774
          0.0000010562125132291986 0.0000010922113057017068 0.000001199724192726987 0.000001193521421037315 0.0000012404011742910643 0.0000013848510615008179
          0.0000015007907390619559 0.000001556664275042958 0.0000017314294895293331 0.00000209681192445246 0.0000021561342367072938 0.0000023425906971360655
          0.0000031384610302894006 0.0000031897977182342782 0.000003353292729967027 0.0000048129889536255385 0.000004839996050253839 0.000004930476774611117
          0.000007326276837007858 0.000007307117449214594 0.000007261535130643879 0.000010857584140944787 0.000010773406363122392 0.000010523816715931616
          0.000015594276061587496 0.000015409620890058772 0.000014873565422970707 0.00002190769249315295 0.000021624161466742485 0.00002073390130084642
          0.00000134279880175928 0.0000013841330811572708 0.0000015182169962530358 0.0000015737098630041942 0.0000016240523207412232 0.0000017905672859896414
          0.0000020132678855306875 0.0000020691871461828547 0.000002255307735885755 0.0000027823994159253013 0.000002837440531403103 0.0000030206489674113097
          0.00000403475528753679 0.0000040787205036834454 0.0000042260872555168046 0.000005956558145625424 0.000005975561557882086 0.0000060431370828225455
          0.000008755376644282352 0.00000873121157186035 0.000008665249337683537 0.000012607277573190339 0.000012525261829444486 0.000012269705520245953
          0.00001762689917891372 0.00001746163438175874 0.00001695967916270336 0.000023814470043918548 0.000023589750867562867 0.00002285740978859004
          0.0000017201692399140722 0.0000017533577732551454 0.0000018882339826216076 0.0000020723023253120752 0.0000021116154125731138 0.000002268011581240375
          0.000002665507948830416 0.0000027075416896044366 0.0000028709712792872473 0.0000036168084382661515 0.0000036562370926970036 0.0000038059694747240608
          0.000005071210071018534 0.000005100481966647092 0.000005210022918756877 0.00000720517924424185 0.0000072141577158179386 0.0000072497283317279
          0.000010213354940359507 0.00001018900346099494 0.000010110011619560887 0.000014254821052138773 0.000014187665051661804 0.000013953200376392804
          0.00001938607155244747 0.000019261178247169077 0.000018842037792793187 0.000025325949593471715 0.00002517651639858483 0.000024644880159708005
          0.0000034618425173193636 0.0000034953855161500146 0.000003603304136664954 0.000004596309096448577 0.000004625532169296743 0.000004718336514795748
          0.000006234739916246653 0.0000062540998134139865 0.00000631376049532492 0.000008536725219831195 0.000008538823519621587 0.000008542639418791006
          0.000011674100195785195 0.000011649604797872519 0.00001157082377375435 0.000015776042194401533 0.000015718143634037563 0.000015530864836401595
          0.000020857062223510497 0.00002075821530945762 0.000020454375092154 0.000026510151867329478 0.000026400933475001955 0.000026059485626983988
          0.00003411013521949918 0.00003343828749667281 0.00003343172634138728 0.000034105590764733986 0.00003411565564102729 0.00003342727765469376
          0.000033434958847495745 0.000034106349539485906 0.00003408243536616585 0.00003351628495595678 0.000033434596558432196 0.00003410708173788107
          0.00003474351975956863 0.000034784469702954304 0.000034737130710214296 0.000034783853166205464 0.00003476576681469279 0.000034793899603257234
          0.00003470024715911025 0.000035190459148237084 0.000035205155958190595 0.00003468307738882586 0.00003518404684526339 0.00003518957656754908
          0.00003471918984862595 0.00003520253245903412 0.00003523026005135056 0.000009085099432785444 0.000013672019999135698 0.000010911872354456303
          0.000007847893141238972 0.000008738167938252645 0.000013214401120956589 0.000010490473973590425 0.0000075173894417578035 0.000007716262068722513
          0.000011763863514958288 0.000009175914353747364 0.000006562516501377652 0.000030018218689848206 0.0000307217065110833 0.000032086866080798635
          0.000031559347812352555 0.000029795712592255465 0.000030542936012374386 0.00003216612996125279 0.000031514444836105055 0.000028716135603103437
          0.00002962546221701711 0.00003233576492859306 0.000031312925903432756 0.000017310176478974872 0.00001904849040219018 0.000015944157706904148
          0.000014216023428184085 0.00001693704254289899 0.000018596802599402194 0.000015497379975416123 0.000013870815552815274 0.00001572674654979264
          0.000017189355598718553 0.000014113969644279407 0.000012744793980683614 0.000026884529563595244 0.000025092898214021806 0.00002719585130155963
          0.00002886842430308121 0.000026600993593769628 0.000024776281266870825 0.000026978807486370173 0.000028691819371263947 0.000025634515545099963
          0.000023795556969463387 0.000026273594666278748 0.000027994231450761873 0.00002709954056330882 0.000025829931624516863 0.000026958008005835417
          0.000025632782940977097 0.000026483764036751645 0.000024967620045447278 0.00001348861311031432 0.000017366944200736548 0.000013073359912001603
          0.000016880560252529452 0.000011772039723540907 0.00001532654127367546 0.000034375167215841165 0.00003487671984118449 0.00003499205829309183
          0.00003432925957539016 0.00003437138412482179 0.000034864279411712826 0.00003497211941180353 0.0000343233822954257 0.000034294104306737286
          0.000034811664315207135 0.000034899443151728196 0.000034255760874776375 0.000002633711331141965 0.000005804898664798321 0.000004389569684222826
          0 0.0000025784561772552772 0.000005647724539084716 0.000004219108366181517 0 0.000002326545630742733
          0.000005085725288392034 0.0000037107363935458993 0 0.00001609978969608053 0.000014132701117762319 0.000015573480845070966
          0.000013642146059361624 0.000013821323396770853 0.000011890529833952533 0.00003326377286666584 0.00003289902221864877 0.000033855928616139334
          0.00003413401138025317 0.00003326767108475146 0.00003289555748284426 0.000033855920554028906 0.00003413374412488622 0.00003324199697226483
          0.00003286726393139471 0.00003385348465343035 0.00003413301928149382 0.000020387246995294422 0.000010877105610622833 0.00001050591967274971
          0.000017739318513596212 0.00002016238001474557 0.000010709909960575302 0.000010272565066793067 0.00001729247115058029 0.000018170657175629843
          0.000009353577913146296 0.000008759163864763522 0.000014906910929774394 0.00003566657935854487 0.000035341942184004534 0.00003526659488535345
          0.000035638931814309456 0.00003561953584927314 0.00003530546343390712 0.00003523806334017444 0.00003561904039288409 0.000035740941342395336
          0.00003534028680712554 0.00003531475596243442 0.00003556803703501118 0.000023750654745493436 0.00002464530459003738 0.000023397700513802188
          0.000024284955364097206 0.000022256975672881566 0.00002308136890750661 0.000010422811278098506 0.000010112911001623772 0.000009131191726277445
          0.00003378489192760801 0.00003315338870314121 0.00003378417316623658 0.00003316539045262795 0.0000336728566066422 0.00003348013514342633
          0.00003264490396586461 0.000032014056731767845 0.00003271311457580636 0.000032702546032532875 0.00003186084104995666 0.00003267484243500739
          0.0000331775270366323 0.00003140443826366681 0.00003249111244267334 0.00002488501568843749 0.000027070326783436448 0.000024668992773519556
          0.00002061122094532402 0.000024335755478992885 0.000026547758721717586 0.00002404524806172201 0.000019974478330527706 0.00002266535562436665
          0.000024936926632283078 0.00002193945983666126 0.000017962435811596052 0 0.000004228532166239572 0
          0 0.000004044004358013241 0 0 0.0000035333091496529935 0
          0.00002850994263248465 0.000024536278252076823 0.000028373127524137898 0.000024256571763755116 0.000027907959873489607 0.000023402498656831126
          0.000032808060032509334 0.00003294947310676596 0.000032833416888169285 0.000032793978222480154 0.00003275559795773508 0.00003225915716885898
          0.00003006522556309681 0.000031416689719431015 0.000029857228657452373 0.00003129655535196308 0.00002898433340409424 0.00003084620410396885
          0 0.000004285790270018283 0.000005219012657739369 0 0 0.000004105130595936262
          0.000005047994887140837 0 0 0.0000034520864208912013 0.00000416663672015133 0
          0.00002221247544544505 0.00002381498026811305 0.00002064057894379223 0.000021789718307635043 0.000023375337384452477 0.000020145810797227542
          0.00002044031358850954 0.000021901543801177312 0.00001858148852396082 0.00003251265127327186 0.00003285990754030019 0.00003249479704268153
          0.000032850539547982985 0.000032363670676272204 0.000032752212265415254 0.000020676340259042404 0.000022620453703711892 0.000020301545212266086
          0.000022292116726772666 0.000019103560873546215 0.00002126258070544558 0.000027776656209748462 0.000028092760380202594 0.000027460052054430524
          0.00002767637802498986 0.000026307076249760264 0.000026314042831658958 0.00002947496948389005 0.000030864308955307275 0.000029269912990522434
          0.000030768089166191575 0.000028486029101520057 0.00003039929646411738 0.000035590761984789925 0.00003522523642671405 0.000035570150047040005
          0.00003557555209723525 0.000035220367617462064 0.00003556048437359053 0.00003557693356118316 0.0000352375524181902 0.000035568611247736754
          0.000030304219643529723 0.00003185527326180493 0.00003011400535644584 0.00003023244806795334 0.000031825824367768595 0.000030008287180093492
          0.000030003264044617538 0.00003172449056840791 0.00002962872160453789 0.000003801864807057664 0.0000030735885482503207 0
          0.000003642012339592736 0.0000029420607744494844 0 0.000003102099595085114 0.00000248249856195183 0
          0 0 0 0.00003554455635085144 0.00003519896021987078 0.00003507363877699066
          0.000035536877821855454 0.00003554084308057714 0.000035197884498823185 0.0000350736430658868 0.000035534796937889875 0.000035550731012310624
          0.000035210405416276705 0.00003508512232918933 0.000035545377924340774 0.0000071450763457933485 0.000008277867691685084 0.00000684942073196908
          0.000007959755565789962 0.000005873991247895298 0.000006846589989829945 0.00003522866626955797 0.000035554515684368795 0.000035226283043145275
          0.00003554849335299961 0.00003523979333432247 0.00003555866720137721 0.000005674983352594283 0.000011173526172476779 0.000005549245926534469
          0.000010806819813146659 0.000004689504198008516 0.000009047991396571943 0.000019714302364108003 0.000023285375162825415 0.000019104602763968867
          0.000022871259078646918 0.000016781305847046827 0.00002064721430066021 0.00003477751853502046 0.00003477772682989346 0.000034787763310496154
          0.00002847458289204234 0.00002835757614932552 0.000028039408613487288 0.000029298039018986013 0.000031270115290076765 0.000029032880964706793
          0.00003118737131453083 0.00002729656449558996 0.00003061299560220386 0.00002909241924742573 0.00002896082978729472 0.00002842041730116993
          0.000033349136562736565 0.00003335552530240172 0.00003343404549381498 0.00003561514948513063 0.00003559535295240375 0.000035576051992525905
          0.000032067504069157105 0.00003203670016326408 0.00003188558829353973 0.00003472630747808352 0.00003472853194964773 0.0000347365360280898
          0.0000334856282751326 0.00003364939131101112 0.000033815965952020364 0.00002856189032217556 0.00002838298581606475 0.000026304402960688052
          0 0 0 0 0 0
          0.000035533330590595447 0.00003553301722891005 0.000035544329705867856 0.00003568046365793882 0.000035612064017109326 0.00003578698192863596
          0.000008943981403318074 0.000008944921373688863 0.00000892419250631781 0.000013532830754226433 0.000013520452517412004 0.000013496852726638725
          0.000011201377519516016 0.000011194960157890486 0.000011156375788760708 0.00001623025306910887 0.00001621240720302066 0.000016170118289598517
          0.000013987671827759926 0.000013972518159765059 0.000013916019755058192 0.0000173638234775828 0.000017338505417076672 0.000017264854297363387
          0.0000213334752364934 0.000021297410323119435 0.00002120900290189972 0.00002571644458426496 0.000025673737891448467 0.000025583530014705446
          0.000030089306070193993 0.000030069705618170372 0.000030017091227682053 0.000030156626739137812 0.000031404074612679485 0.00003010581828344483
          0.000031392678170743426 0.00002997332711559093 0.00003131753623280357 0.000033234683010309965 0.00003417921135634202 0.00003377670338533331
          0.00003265463008844817 0.00003323227543078602 0.000034180654160565934 0.000033777348054803795 0.000032647326146151116 0.0000332229761158629
          0.0000341857751748213 0.00003378116116477515 0.000032626222151271495 0.000034684095687284656 0.00003468618421785391 0.000034696475692283755
          0.00003208841423803377 0.00003208418159926406 0.000032052479057656694 0.00003572092087287927 0.00003572251716970441 0.00003573028055447554
          0.00002111368498303173 0.000018209697692749604 0.00002109986605163639 0.000018201917605888775 0.00002105864561827357 0.00001817823735563793
          0.00001928136872270247 0.00001925937561521916 0.000019200601570777363 0.000024165038653110392 0.000024146037266146477 0.000024088912053273817
          0.00002264092171140609 0.000022617412035714637 0.00002254613357501476 0.0000261796809902122 0.00002615651868806224 0.000026080008198483272
          0.00002963469686325884 0.000029620863187747636 0.00002955307575283074 0.00003237359687937969 0.00003236834072354306 0.00003234147988485637
          0.00003348991474899927 0.00003348496991975198 0.000033476449322534924 0.00003609899948175311 0.000034659793871701525 0.000035329146751073424
          0.00003610045791645372 0.00003465932226986745 0.000035329482354252033 0.00003610224020118457 0.00003465636177690741 0.00003533086528813582
        </DataArray>
        <DataArray type="Float64" Name="disp_y" format="ascii" RangeMin="-0.000025627394837710606" RangeMax="-0.0000032512646685968684">
          -0.000003255519008014452 -0.000003254634983716339 -0.0000032537140984380507 -0.0000032530963430763136 -0.0000032512646685968684 -0.000003251433368644573
          -0.000003449839742585283 -0.0000034459802995701768 -0.0000034453996319860337 -0.0000034418127916073092 -0.0000034360167828102297 -0.0000034335380884201084
          -0.0000036402299553856785 -0.0000036298634570680143 -0.000003630623748163225 -0.000003620486443540435 -0.0000036050410319635555 -0.0000035961639236487905
          -0.000003858855133088196 -0.000003837099712718186 -0.000003839741935835532 -0.000003818029534450318 -0.0000037813270009034845 -0.0000037605685014835995
          -0.000004161748924145423 -0.00000412303369808711 -0.0000041265933800700095 -0.000004087662870812051 -0.000004012741509900765 -0.000003973545219337907
          -0.0000046286110573556 -0.000004567738060866631 -0.000004570360119929539 -0.000004508845285890922 -0.000004378350386605478 -0.000004314707090892863
          -0.0000053533328810437325 -0.000005265114007676539 -0.000005266468238063664 -0.000005177528970808625 -0.000004980760922126556 -0.0000048876571290604905
          -0.000006441336797221165 -0.000006317522005446279 -0.000006320809530458592 -0.00000619547052612623 -0.000005925486255354975 -0.0000057941962553468575
          -0.000008004645305061751 -0.000007822453033384616 -0.00000784180789227681 -0.000007649690084454423 -0.000007285225123485123 -0.000007069033605373727
          -0.000010087823718523407 -0.000009771354116344722 -0.000009867079177132535 -0.000009538070379948803 -0.000009025487623381314 -0.000008618726024175593
          -0.0000032588572731063435 -0.0000032562873989940337 -0.0000032514718086734546 -0.0000034626854634317863 -0.0000034574622480343012 -0.000003444854635569454
          -0.0000036731118203056054 -0.0000036630202079677805 -0.0000036340123153991657 -0.000003926342092339183 -0.000003907058862723853 -0.000003846328533285903
          -0.000004280150504523705 -0.000004245672722802242 -0.000004132833645526193 -0.000004812642060870111 -0.000004756203891458342 -0.000004570361459507881
          -0.0000056186160517969875 -0.0000055344818486135995 -0.000005261062348319122 -0.000006813037781576281 -0.000006697315632982683 -0.000006322115686573092
          -0.000008544197678162622 -0.000008400291615198158 -0.000007901211020974628 -0.000010983340350277964 -0.000010786759450664804 -0.000010094592934786614
          -0.000003266816440416626 -0.0000032630766601810315 -0.0000032543005238768106 -0.0000034881995657742473 -0.0000034819162856278494 -0.0000034642499528921893
          -0.0000037340055226573764 -0.0000037231949155179086 -0.0000036887542646478356 -0.000004045848004076482 -0.0000040265291408067275 -0.000003962568686088939
          -0.000004484254797172516 -0.000004450719504007166 -0.000004339684945238647 -0.0000051232745407542575 -0.000005069876169867255 -0.000004894229346019235
          -0.000006059577371272468 -0.0000059801583503726765 -0.000005727307720875694 -0.000007430828637842369 -0.000007324396900141281 -0.0000069822608572220326
          -0.000009385328437062048 -0.000009264730315682508 -0.000008841828796976028 -0.00001196103198617457 -0.00001183096106769864 -0.000011378503600944571
          -0.000003283152654230075 -0.000003278063774581399 -0.0000032638891955058333 -0.000003532719084059314 -0.0000035253019673008652 -0.0000035009303732537683
          -0.0000038310009016030096 -0.000003819238790878521 -0.0000037782393954656047 -0.0000042264373121684585 -0.000004207015732367223 -0.000004139354561495805
          -0.000004781187809295399 -0.000004749107973366139 -0.000004641157935056013 -0.0000055644942204050135 -0.000005515112393829726 -0.000005353814336761269
          -0.000006674392583345061 -0.000006602307947735156 -0.000006377291939763959 -0.000008258709784928521 -0.000008163905349775754 -0.000007866450589648564
          -0.000010448129392436482 -0.000010356730611442877 -0.000010027474458305749 -0.000013200745065804979 -0.000013135963805628221 -0.00001291712642987881
          -0.0000033136421445600615 -0.000003307205565076786 -0.0000032862003293539863 -0.0000036044982793180496 -0.000003595704505484161 -0.000003563597025098188
          -0.00000397397018945907 -0.000003961345879330233 -0.000003913561952112609 -0.000004477176143351584 -0.0000044577554051228204 -0.000004387315358549175
          -0.00000517671330710304 -0.0000051463307945508635 -0.0000050439051021414505 -0.000006137179056540175 -0.000006092559258306789 -0.00000594942010593282
          -0.000007451607866293107 -0.000007388573820099868 -0.000007196820627671713 -0.00000925418997700476 -0.000009175604451562537 -0.000008934365899932567
          -0.000011643483055942574 -0.000011581727452428422 -0.000011352761767311027 -0.000014584372066683176 -0.000014550658247588396 -0.000014481651925630674
          -0.0000033660435978420042 -0.0000033579198455062457 -0.000003328836336746775 -0.0000037133297818677438 -0.0000037029779729585555 -0.0000036627322593381037
          -0.000004173839364705148 -0.000004159946800622251 -0.000004105855803674048 -0.000004806824775462716 -0.000004786920608665921 -0.0000047149539631507885
          -0.000005673751777817064 -0.0000056450895629091954 -0.000005550510624474602 -0.000006835496209664369 -0.000006795971219880072 -0.000006673878788888717
          -0.00000836833517918492 -0.000008315867648276958 -0.0000081618047012805 -0.000010374512553853055 -0.00001031469310559196 -0.00001013534422051558
          -0.000012909901793921785 -0.000012870657639240984 -0.000012731821671158485 -0.00001584380188728146 -0.00001585216113758767 -0.000015905192940757363
          -0.000003449679555974736 -0.0000034393119326067067 -0.0000034011885637815317 -0.000003870489114121816 -0.000003857637543011927 -0.0000038088507460243343
          -0.00000444070161019488 -0.0000044243358061193035 -0.000004364186188321377 -0.0000052203503774237485 -0.000005199100146984682 -0.000005126956683093209
          -0.000006269241662543881 -0.000006242044516232372 -0.000006157056519798763 -0.000007643376619354258 -0.000007609412531010139 -0.000007510246223589126
          -0.000009394331553314163 -0.000009353659471381212 -0.000009239691906715342 -0.000011570682471314929 -0.00001153041276180807 -0.000011413172456171133
          -0.00001417794005592305 -0.00001416161182092056 -0.000014104673863784527 -0.000017046892623360707 -0.00001707250875787042 -0.000017189173106209066
          -0.00000357597698595097 -0.0000035617729459230333 -0.000003513213344889931 -0.0000040871154876774825 -0.0000040697465372498755 -0.0000040110613441887215
          -0.000004781327338644697 -0.000004760934864718541 -0.000004694191328167119 -0.000005717426240211023 -0.000005694422078669382 -0.0000056223773066176795
          -0.000006952087756629635 -0.000006927190120571117 -0.000006852564391152699 -0.000008532629018793709 -0.000008506723670668083 -0.00000843189633875047
          -0.000010486752897415092 -0.00001046205449862002 -0.000010390056219404117 -0.000012797783887743238 -0.0000127815269482639 -0.000012726426884338326
          -0.00001540211545998208 -0.00001540587803691589 -0.000015416230417849432 -0.000018208838481426698 -0.000018236479621386236 -0.00001838746837631831
          -0.000005196241428965583 -0.000005173008828910334 -0.000005101593173476861 -0.000006290770483582176 -0.000006266480689460407 -0.00000619759715804317
          -0.000007703389845711513 -0.000007679857306433794 -0.0000076195690165801796 -0.000009470849657973032 -0.00000944961646556391 -0.000009404061131741477
          -0.00001159755371766567 -0.000011581433893496796 -0.000011556934301378293 -0.000014024229886677072 -0.000014020645304916087 -0.000014033293105706199
          -0.000016593935062606227 -0.0000166058037634204 -0.00001668250508859138 -0.00001910873876835595 -0.00001915422954200686 -0.000019286272729566363
          -0.00001930804416010286 -0.000019317881172737907 -0.00001985744422028552 -0.00002000437131662997 -0.00001937476704841281 -0.00001938741722381791
          -0.000019915437912107863 -0.00002005681130349293 -0.000019538023101547142 -0.000019592169456393008 -0.000020098256762226626 -0.000020173426332009915
          -0.000019542324909984 -0.00002008476687106097 -0.000019604090234818906 -0.000020128634901589264 -0.000019709633261992707 -0.000020230215981168234
          -0.000018959789291651425 -0.00001956130176031275 -0.000019102336705710494 -0.000019028240494211884 -0.00001961975746128359 -0.000019173077017964493
          -0.00001927161325575364 -0.00001972709383245478 -0.000019350480958334126 -0.00001214679474298845 -0.000013121746302806489 -0.000013369803909227641
          -0.00001294381261267161 -0.000011837426909163069 -0.000012889835739250335 -0.000013022879921993975 -0.000012545609681568395 -0.000010667033810664532
          -0.00001189701312916247 -0.00001162228898185049 -0.000011053089075525609 -0.000016790118214492398 -0.000017564128324207563 -0.000017529959991921447
          -0.000016829078190625745 -0.000016860558325054996 -0.000017855457487442685 -0.000017737102380332415 -0.00001691243809490282 -0.000017264166441929913
          -0.00001845070783298291 -0.00001799821185090386 -0.000017540207602404988 -0.000013331790836577433 -0.000014040887939610266 -0.00001307517798842251
          -0.000012518320992995194 -0.000013256384565314131 -0.00001399536503044689 -0.000012963568885143983 -0.000012381019169226757 -0.000012967867373617564
          -0.000013740459195162018 -0.000012487946922150289 -0.000011855601988532469 -0.00001756450310909017 -0.000016993162177105405 -0.000018233121497115723
          -0.00001859103408266406 -0.00001763236909318608 -0.00001702620954482901 -0.0000182767306232197 -0.0000186624652512756 -0.00001790441992897529
          -0.00001721562012315159 -0.00001851333045126836 -0.000018969964983260116 -0.000019039249332885147 -0.000017961154849217483 -0.000019083325654511963
          -0.000017993403173933677 -0.000019291868392145897 -0.00001817527703472585 -0.000012595190281910825 -0.000013527104099732485 -0.000012400969286459747
          -0.000013429432359633716 -0.000011638376444215146 -0.000013000993073484955 -0.00001839100809071129 -0.000018427977744545526 -0.000017835857074892294
          -0.00001758742762192566 -0.00001849876445542154 -0.00001851176586969294 -0.000017939699027549944 -0.000017688310041416664 -0.000018698339533372812
          -0.000018773370673489042 -0.00001827289293950355 -0.000018270806411754118 -0.000010348813492917131 -0.000010835806496656788 -0.000011450111163161455
          -0.000010735736696597276 -0.000010102686888170458 -0.000010578009573932024 -0.00001114030087122875 -0.000010444895892268686 -0.000009110980480683805
          -0.0000095842692618889 -0.000009900045415793485 -0.000009278404223205194 -0.000014106075933517473 -0.000014543025956935678 -0.000013887185082209801
          -0.000014173481343932796 -0.000012923106068416311 -0.000012668366321843088 -0.00002043550535156535 -0.000021205597532345683 -0.000021319192601554724
          -0.00002071960285706012 -0.00002048532609179938 -0.00002124294189122106 -0.000021351985698841227 -0.000020757443079109645 -0.000020639487374482504
          -0.000021354773244449623 -0.000021433014534051262 -0.000020853166867362706 -0.000020875832938851832 -0.000022450892225393248 -0.00002019101536869938
          -0.000018034601263339014 -0.00002018843512254088 -0.000021545961582700392 -0.000019366848272474528 -0.000017525342012177052 -0.0000178109113039763
          -0.000017532007885992817 -0.000016001048796333095 -0.000015734509128888373 -0.000018367264378660686 -0.0000183144233836727 -0.000018641164416190366
          -0.00001880966299818105 -0.000018451625344277825 -0.00001839991314894484 -0.00001870881135562479 -0.000018881211125081645 -0.000018693994815427422
          -0.000018744838065555892 -0.000019022109044110284 -0.000019131470490544257 -0.000016028413165107504 -0.00001627936548357625 -0.00001605002381315229
          -0.000016328852026724958 -0.000016166340719892913 -0.000016519337301977092 -0.000011629735161454997 -0.000011391329834191225 -0.000010548780009307533
          -0.00001858752710930747 -0.000018767687438957218 -0.000018699944438741116 -0.000018836056833333603 -0.000018932261609185342 -0.000018912642466488905
          -0.000018258105838582826 -0.000018424492033102713 -0.000019121140759944572 -0.000018189911787355675 -0.00001849954969340162 -0.000019164852565347643
          -0.000018342126594183248 -0.00001906162663407961 -0.000019535952861400025 -0.000015761155097933737 -0.000016223338634413242 -0.000015061925491892863
          -0.000014450156785584353 -0.00001589221461308782 -0.000016316159378583703 -0.000015074833358434935 -0.000014401791515593616 -0.000016091943122791465
          -0.000016609553046124802 -0.000015387924023428492 -0.000014164241162582085 -0.000011769207018782374 -0.000012683609835788713 -0.000012887101527404548
          -0.00001139499943611665 -0.000012257257006964784 -0.000012417668741905342 -0.000009960935841581701 -0.000010677884313802942 -0.00001068029828529301
          -0.00001939298380942319 -0.000017056106278229324 -0.000019445325812365495 -0.000017088194082239114 -0.000019693480270213928 -0.000017246412635723635
          -0.000017420277666075895 -0.000016653816871280963 -0.000017591996875879755 -0.000016681931564006458 -0.00001806212911737422 -0.000017698766353089077
          -0.00001799591168074511 -0.000019028439336517475 -0.000018111056263394446 -0.000019075030018961298 -0.000018586091515277582 -0.00001947610633316424
          -0.00001855961032182791 -0.000016852081513134635 -0.000018801445962742926 -0.000020578328243865718 -0.00001761945383259155 -0.00001609268028576607
          -0.000017947112409523427 -0.000019505405066382326 -0.000014043641972050493 -0.000013312397734149873 -0.000014554630015966756 -0.000015185646865092816
          -0.000015343030000126 -0.000015654901510133108 -0.00001454709984254925 -0.00001535376647821396 -0.00001572314988707508 -0.000014513152255132492
          -0.000015337809265217443 -0.000015806636125433098 -0.000014268097460308708 -0.00001993354678598967 -0.000019656602512297266 -0.00001999340588878773
          -0.000019714282207855627 -0.00002023054103845242 -0.000019967309221671777 -0.000014740703005718017 -0.000015893895824388748 -0.000014712784295898396
          -0.000015885443677122264 -0.000014644847899754888 -0.00001595052950756488 -0.000017436083770065006 -0.000016923859532149642 -0.000017538026583641728
          -0.000017078971859931915 -0.000017895144089430445 -0.000017466731898399324 -0.000018387020785627548 -0.000019606370738277183 -0.000018459221739593833
          -0.000019667568307890124 -0.00001882630687778065 -0.00001995206196674822 -0.00001964191563037668 -0.000019957079467788743 -0.000020030545585869346
          -0.00001969545028380133 -0.000020002889354029758 -0.000020072957706444033 -0.000019796199048856172 -0.00002009481697361553 -0.000020161273712306966
          -0.000020534593560073478 -0.00002101693557664167 -0.000019798636752776546 -0.000020581659635859107 -0.000021061040871669012 -0.00001985682073716341
          -0.00002075419301558154 -0.00002122095889560492 -0.00002011881628181943 -0.000013671922447014247 -0.000015177752388584472 -0.000014704303635646132
          -0.00001314083083160234 -0.000014530982619638158 -0.000014079064808529149 -0.000011255017651513943 -0.000012192301364673836 -0.00001178327648527427
          -0.00001658373305199426 -0.000015799680367977034 -0.000012901342850572725 -0.000020754775150920812 -0.000020621587952542624 -0.000020948163579189694
          -0.000021096632072397557 -0.000020785657719994016 -0.000020655663868077587 -0.000020978650317336736 -0.00002112337772082842 -0.000020858881313690584
          -0.000020733999795920376 -0.000021050812549114497 -0.00002118779494447616 -0.00001431626857198362 -0.000015801228660635755 -0.000013781098380552818
          -0.000015192115979544546 -0.000011891419089932598 -0.000013009203695216009 -0.000020311250323451965 -0.00002039989587034581 -0.000020349496399551504
          -0.000020435608880709435 -0.000020435557510632535 -0.000020516132132063386 -0.00002019363491408108 -0.000017515253718974786 -0.000019268789462824126
          -0.00001683831381234149 -0.000015458502878194893 -0.000014324447693247278 -0.00001536303005570831 -0.000016797903393221543 -0.000015102444943091123
          -0.000016538436554518853 -0.000014080951853350634 -0.000016120991768061906 -0.000020594534626097363 -0.000020631157557491213 -0.000020713736770436005
          -0.000019884170592801483 -0.00001994162390695255 -0.00002009001614915695 -0.000015654814423629843 -0.000015739516895097596 -0.000015803821330669567
          -0.00001587925077469013 -0.000016806020423836455 -0.00001771141815896684 -0.000019023839553726945 -0.000019073275406321797 -0.00001933484725322453
          -0.000017842058328300794 -0.0000179409553259555 -0.000018560107834487137 -0.000019234599049947616 -0.000019299861244266634 -0.000019445637673907765
          -0.000020326299803081186 -0.000020385317276177646 -0.000020597796688836595 -0.000021391491748583052 -0.0000214188140056612 -0.000021481522493616274
          -0.0000170969972062607 -0.000017345431720464934 -0.000018166362768961686 -0.000018043316978100048 -0.000017790299952028094 -0.000017912941665584363
          -0.000022521408043976768 -0.000021348088766081118 -0.000016265930992693332 -0.000010127070637038763 -0.000009873361658261749 -0.000008867322209407677
          -0.00002142435102929362 -0.00002144793638766944 -0.000021503739575992523 -0.000017924736452904217 -0.00001802233760099031 -0.00001828403448375559
          -0.000008830737425368502 -0.00000881658936598675 -0.000008773592625519086 -0.000011648287097852998 -0.000011640839634782973 -0.000011618438044637272
          -0.00001074706550464383 -0.000010738296994680252 -0.0000107105264261976 -0.000013820480162492434 -0.000013817995046892034 -0.00001381092010894872
          -0.00001296725031923381 -0.000012965670434834246 -0.00001295890705477622 -0.000015417410300639853 -0.00001542535034080814 -0.00001544610988859686
          -0.000017942256957954804 -0.0000179659653022198 -0.00001802679226535735 -0.00002031500878435859 -0.000020347944928124557 -0.00002046502844945183
          -0.000022304056152508802 -0.000022339195475921813 -0.000022473176209348087 -0.000021246523788829058 -0.000021815520667622973 -0.000021287378960738252
          -0.000021846716411669494 -0.00002143316197407757 -0.000021983686089978968 -0.000023149834475968877 -0.000023331305822405984 -0.00002224379657420733
          -0.000022112908328157865 -0.00002317416104672327 -0.00002334898841099296 -0.000022269003684995332 -0.000022144693831473568 -0.00002323865050305892
          -0.000023399375087610142 -0.000022339317282625934 -0.000022251154681776134 -0.000022327069653944696 -0.000022348071969810347 -0.00002240027393469717
          -0.00002291160216514262 -0.000022943220395825525 -0.000023029809089754575 -0.000023703671070562654 -0.00002371732898663927 -0.000023753462466537966
          -0.000016727291409344132 -0.00001451188378506358 -0.00001673155721554114 -0.000014510934339094523 -0.000016743675303629404 -0.000014507888806778144
          -0.000016181954532657278 -0.000016186181642653925 -0.000016199654806811663 -0.000018994835183822103 -0.000019005382067147277 -0.000019036017784975653
          -0.000018614407064465477 -0.000018626906484332795 -0.0000186664972569608 -0.00002093098604177553 -0.000020955257058686557 -0.00002102664955772679
          -0.00002288651829294162 -0.000022917304446598365 -0.000023021320977574162 -0.00002421223336528277 -0.000024238623519403627 -0.00002432427102585336
          -0.000024349141992123422 -0.000024370298813027455 -0.000024426683919451135 -0.000025210843270352094 -0.0000244571851886675 -0.000025578945479757194
          -0.00002522338028881296 -0.000024471277405001537 -0.000025591021499021414 -0.00002526022454108871 -0.0000245149312991538 -0.000025627394837710606
        </DataArray>
        <DataArray type="Float64" Name="disp_z" format="ascii" RangeMin="-0.000019300865899611106" RangeMax="4.870146084325473e-7">
          0 0 -6.191528096915435e-8 -6.102829183043811e-8 -1.293830487654608e-7 -1.269316635803672e-7
          0 0 -6.278583532531568e-8 -6.013312249822434e-8 -1.363575384671561e-7 -1.302877386733408e-7
          0 0 -8.033459420849878e-8 -7.483881143676735e-8 -1.7962040894293337e-7 -1.6823844437778778e-7
          0 0 -1.395448265212923e-7 -1.308642842709393e-7 -3.1070046177121484e-7 -2.9249059985163064e-7
          0 0 -2.847499613659939e-7 -2.73110411129142e-7 -6.146507500194e-7 -5.922070568304247e-7
          0 0 -5.735188097320774e-7 -5.623023623501175e-7 -0.000001193273182394139 -0.0000011726270523832543
          0 0 -0.0000010591364408444228 -0.000001053116596043101 -0.000002143194124987383 -0.0000021327238776144576
          0 0 -0.0000017870258804664323 -0.0000017964551288569468 -0.0000035558995080132 -0.000003574043199091168
          0 0 -0.0000028755986816399357 -0.0000029116915404785963 -0.00000566725858335778 -0.00000574231104308028
          0 0 -0.000005001308184093387 -0.000005229479946976937 -0.000009798487818865567 -0.0000102289720162155
          0 -6.501187725362331e-8 -1.3772481834686073e-7 0 -7.130710796414986e-8 -1.5569727502540452e-7
          0 -9.713653815168335e-8 -2.1537808884263085e-7 0 -1.6602872585795869e-7 -3.6533846468976625e-7
          0 -3.1922662345360596e-7 -6.812460431141617e-7 0 -6.067713836285395e-7 -0.0000012543294422861384
          0 -0.0000010748935367739896 -0.0000021702094718246884 0 -0.000001763837213901382 -0.000003510883287827668
          0 -0.0000027488056803045614 -0.000005414277389535525 0 -0.000004461242283377871 -0.000008762713600671665
          0 -7.180821043755232e-8 -1.5507898184433826e-7 0 -8.74118376574962e-8 -1.9197807667159062e-7
          0 -1.2667513475023738e-7 -2.783520225999444e-7 0 -2.1144551643527193e-7 -4.572335399047726e-7
          0 -3.7577945164307717e-7 -7.896617477712258e-7 0 -6.592440829926615e-7 -0.0000013503430558659572
          0 -0.000001098449996967758 -0.0000022106114350556832 0 -0.0000017185602116212389 -0.0000034191064656683074
          0 -0.0000025778306182708697 -0.0000050872453187482855 0 -0.0000037552393522013275 -0.000007396828199871998
          0 -8.520065035690961e-8 -1.8706050066847067e-7 0 -1.142247437758778e-7 -2.5103468576939724e-7
          0 -1.7198464981628553e-7 -3.7309095918346e-7 0 -2.77084470251614e-7 -5.866685411997707e-7
          0 -4.5265611556524263e-7 -9.351754013251911e-7 0 -7.265157400620703e-7 -0.0000014730536825968447
          0 -0.0000011236968592359384 -0.0000022525588501583717 0 -0.0000016571380938832804 -0.0000032971948134998685
          0 -0.000002348742662977679 -0.000004637933068990604 0 -0.000002992751717890667 -0.000005941550662152326
          0 -1.1009153987866019e-7 -2.418539480159409e-7 0 -1.5699802828665915e-7 -3.409252729258703e-7
          0 -2.3720280421505406e-7 -5.035696015071558e-7 0 -3.630093767131648e-7 -7.517862819171559e-7
          0 -5.463111008924769e-7 -0.0000011099539636611077 0 -8.021892282624936e-7 -0.0000016108326993981536
          0 -0.0000011439594006487365 -0.000002284288004385969 0 -0.0000015770146791013012 -0.000003138440804901771
          0 -0.0000020741606368334625 -0.000004107239218203382 0 -0.0000022912079825809275 -0.0000046092615206644154
          0 -1.5367630801675636e-7 -3.2868474563020915e-7 0 -2.230518193356968e-7 -4.6912530759977184e-7
          0 -3.2647364874252166e-7 -6.726574368236476e-7 0 -4.689188206304085e-7 -9.486023673802056e-7
          0 -6.516940190965495e-7 -0.0000013036702535813345 0 -8.785467628108862e-7 -0.0000017495397521194881
          0 -0.000001152348016269253 -0.0000022947780145226775 0 -0.0000014682764244955048 -0.0000029263521114979453
          0 -0.000001781127693107651 -0.0000035531639463359197 0 -0.0000016821762099389807 -0.000003436237129756971
          0 -2.2404739551490585e-7 -4.545391611056458e-7 0 -3.185447830524473e-7 -6.397412238747746e-7
          0 -4.4235672792608615e-7 -8.795908289775936e-7 0 -5.926652612736571e-7 -0.00000117065673846991
          0 -7.628653224012083e-7 -0.0000015047513506785972 0 -9.47463200624788e-7 -0.0000018747149303423385
          0 -0.0000011399977707972453 -0.000002270203783534024 0 -0.0000013284923615090458 -0.0000026622759639837467
          0 -0.0000014611371207667472 -0.0000029563284083165672 0 -0.0000011748755593614837 -0.000002482948754742644
          0 -3.230037936343529e-7 -6.225657775279918e-7 0 -4.427530663215398e-7 -8.525750280908593e-7
          0 -5.811849973483942e-7 -0.0000011208576294467763 0 -7.285173537225762e-7 -0.0000014112183767814583
          0 -8.728342112618978e-7 -0.0000017030813917794043 0 -0.0000010012108562962765 -0.000001973497910492295
          0 -0.0000010997745585640639 -0.0000021971237083136247 0 -0.0000011534888859705882 -0.00000234122558926304
          0 -0.0000011153800506093883 -0.000002320841908454658 0 -7.508962542196484e-7 -0.0000016595647609891045
          0 -7.171446772778254e-7 -0.000001415841270681699 0 -8.540578923828785e-7 -0.0000016846789090958307
          0 -9.642481108312591e-7 -0.0000019043200345172834 0 -0.000001029706076493507 -0.0000020403424193288965
          0 -0.000001031905561094363 -0.0000020552227244413576 0 -9.607227569655919e-7 -0.000001926201298500543
          0 -7.859088997260527e-7 -0.0000016019680014299255 0 -4.553589603043971e-7 -9.579530582657485e-7
          0 0 0 0 -2.3135841642826683e-8 -7.406557565799474e-8
          -7.487847087371244e-8 -3.1106508031244144e-8 -7.36244212891938e-8 -1.5042444313440056e-7 -1.6755529946613734e-7 -7.256789147282665e-8
          0 0 6.3266772427427035e-9 4.521786886261525e-10 5.252096369745441e-9 -1.2020161979984843e-8
          0 0 0 1.2237711016538617e-8 3.150899288420806e-8 4.5392620592270927e-8
          1.86125391596083e-8 4.582159316615056e-8 4.931819081968857e-8 0 0 0
          0 -0.000005631568323744377 -0.000005054345975879979 -0.0000061622920992324 -0.000006281055422198206 -0.000011090057291743809
          -0.000010011410116648049 -0.00001228374674875526 -0.000012454057322563113 0 0 0
          0 -0.0000013156613264450782 -7.888657079335017e-7 1.231121238588951e-7 -9.391578091715682e-7 -0.0000028465758251930116
          -0.0000015687243432269602 -4.847977590506349e-7 -0.0000021398294850446996 0 0 0
          0 -0.0000032780704562048032 -0.0000032124044542544764 -0.0000041098999873373346 -0.000004106712102680362 -0.000006466124288019581
          -0.000006396737803136908 -0.00000814096409984479 -0.000008114602873835373 0 0 0
          0 -0.0000010844734653751174 -0.0000013100615454316701 -8.222333366841148e-7 -6.486901073573075e-7 -0.0000022615510534044124
          -0.0000026883994147757447 -0.000001868523763999522 -0.0000015645421479290148 0 0 -5.745649847125915e-7
          -8.973871820382457e-7 -0.0000012140402115438155 -0.0000019685606190990665 0 0 -0.000004553070370794955
          -0.000004278505329116563 -0.000008904382481368996 -0.00000852658737126735 0 0 0
          0 -1.1475299639753476e-8 2.8309897961227557e-8 2.482271818365346e-8 1.023103824458257e-9 -1.0959357577549833e-7
          6.933198981774e-8 5.407406206731056e-8 -1.0236688296481395e-7 0 0 0
          0 -0.000005598446375424039 -0.000005358249220339987 -0.000006011055052226996 -0.000006021164513709699 -0.000011026125985258214
          -0.000010466750113100758 -0.000011840996654240186 -0.00001189846238387178 0 0 -0.000004991761503946759
          -0.000006140993009900399 -0.0000098040149978282 -0.000012376692327440543 0 0 0
          0 -7.955758837381241e-8 -9.194552571257322e-8 -5.595680010782774e-8 -3.687359662189318e-8 -1.8265964516437493e-7
          -1.9836293916444187e-7 -1.2396541366109945e-7 -8.358847286261401e-8 0 0 0
          0 -0.000007349330605354825 -0.000008561732223277841 -0.000007579589558965453 -0.00000643851194505936 -0.00001506116647132772
          -0.000017293965647363753 -0.000014848824225563547 -0.000012913412831850563 0 0 0
          0 8.833856176157445e-8 4.4697044530193524e-8 5.771982533442291e-8 8.935420496020139e-8 -4.289971278485345e-8
          3.5474431936666006e-8 1.0311228070640286e-7 1.6573811054570751e-7 0 0 -0.0000018016265239536928
          -0.0000017700783172911612 -0.0000036527457395607292 -0.0000036877626078868372 0 -0.000004834375572211129 -0.00000954917572286861
          0 0 -4.262005516420837e-8 -6.507212666978287e-8 -1.621850998118239e-7 4.870146084325473e-7
          0 0 0 -5.2516520953258415e-8 -3.036399419954194e-7 -1.2389363345692073e-7
          6.946851745715281e-8 -9.571140385459765e-7 -3.985272088414063e-7 0 0 0
          0 -0.000002778842138932647 -0.0000024399460219518674 -0.000003892027059800685 -0.000004009420377668558 -0.000005746230357608736
          -0.000005513711767623028 -0.000007763039035138694 -0.000007980841739232489 0 0 0
          -0.000006201363281422083 -0.000006488389256121125 -0.00000659507525584626 -0.000012123101760807653 -0.000012902704320993139 -0.000013031758643623223
          0 0 -4.783984866351794e-7 -0.0000012715664011254714 -0.0000011010694496009792 -0.0000026819457356500267
          0 0 -8.603863963140554e-8 -3.100320704881141e-7 -5.328359615936091e-7 -0.0000010778259466286015
          0 0 -7.019672444665835e-7 -3.228671025701517e-7 -0.0000014575649401162298 -8.516960670770715e-7
          0 0 0 0 -0.0000074222025595961786 -0.000007244748793377895
          -0.000008013844693208193 -0.00000839634352150235 -0.000014717922821268336 -0.000014380022006854397 -0.000015979704944821918 -0.000016747055017201844
          0 0 0 -0.0000024623655603858234 -0.0000025079368297886057 -0.000003323825462180952
          -0.000004977193140024912 -0.0000050605616005354476 -0.000006686864836924518 0 0 -1.2458624867148786e-7
          -1.1042923415015166e-7 -3.503836610420313e-7 -3.1082637309573496e-7 0 0 -0.0000024318263994006096
          -0.0000017642834831848286 -0.00000487543953413487 -0.000003581182930867915 0 0 -0.000001243860815107023
          -0.000001681789661578871 -0.0000026753108773295344 -0.0000037628776089535004 0 0 -6.665756168767644e-7
          -2.914729391065932e-7 -0.000001716418789164406 -7.083257239179932e-7 0 0 0
          6.037399109848041e-8 2.5208321573853403e-8 4.566684663594484e-8 8.099233598814669e-8 3.3080339206218444e-8 6.352606350530546e-8
          0 0 0 -2.8146885340681956e-7 -1.5355445821267565e-7 -3.017293112059458e-7
          -6.701836330928411e-7 -3.6447291933216083e-7 -6.976132915135705e-7 0 0 0
          -0.000006652406707802685 -0.000006931533607081813 -0.000006825643322398665 -0.000013129319755763286 -0.000013742326673156624 -0.000013572826921401318
          0 -0.000006985026401651865 -0.000013850913332058986 0 0 0
          0 2.5421925807978333e-8 9.441298033833453e-9 -2.473361803856531e-9 1.6636475139211797e-8 3.4722965200661964e-8
          8.561059534559709e-9 -1.3789804194393947e-8 2.1860600028887157e-8 0 0 -0.000006553555224578358
          -0.000007005073849960332 -0.000012851893457453337 -0.000013979511840830724 0 0 1.792411114043403e-8
          3.470060494465339e-8 2.1524672628620423e-8 4.830553613227562e-8 0 0 -0.000008396242175156021
          -0.000007114038596427366 -0.000017060900940730137 -0.00001414918027492444 0 0 -0.000005133868422875331
          -0.000005363912116974594 -0.000010134667400388545 -0.000010807501745785199 0 -8.888100053963952e-9 -2.5365574278945e-8
          0 -3.9932779474099195e-7 -8.720771686492933e-7 0 0 -0.000002403040412622972
          -0.0000014673857468212038 -0.000004759954770190391 -0.000003210200693222825 0 -5.011982165914977e-7 -0.0000010541235152759026
          0 -1.1663147761115464e-7 2.7673934180530654e-7 0 7.996676209609292e-8 1.1794347260310431e-7
          0 -1.5320200564421516e-7 -4.2110103909704244e-7 0 -2.3559738997288624e-8 -5.6002053279454335e-8
          0 -1.2924297988215024e-7 2.2611870159213703e-7 0 -0.000004335003297752559 -0.000008811918365178122
          0 -0.000009649880029997432 -0.000019300865899611106 0 -0.0000056456552490856916 -0.000011194241202485244
          0 8.794245789194027e-9 5.533130528742705e-9 0 7.941946062270201e-8 2.1583178266610326e-8
          0 -7.859425969874138e-7 -0.000001554031238712839 0 -7.468594116332692e-7 -0.0000014933106561674394
          0 -8.537742146620436e-7 -0.0000016907348906306365 0 -7.768927682823863e-7 -0.0000015516960743775961
          0 -8.859347935211646e-7 -0.00000175897280766834 0 -8.703605297460698e-7 -0.0000017346931189531822
          0 -7.934423809967307e-7 -0.0000015885229569516404 0 -6.308183425259449e-7 -0.000001285926615859907
          0 -3.0088289068868134e-7 -6.328540892571459e-7 0 0 -3.1461046040861543e-7
          -2.2518873227773726e-7 -7.471549591427005e-7 -4.993945107502664e-7 0 0 0
          0 -1.3056817362385533e-7 -8.414973756608946e-8 -7.204812321153653e-8 -1.294770445533056e-7 -2.773047778669063e-7
          -1.6652495647316972e-7 -1.574409995653458e-7 -2.7957269312336356e-7 0 -3.899665162429399e-8 -7.212719696785288e-8
          0 -1.675886586695266e-7 -3.3367985151499005e-7 0 -2.6526104907227786e-8 -5.7131742157477774e-8
          0 0 -7.02697175816598e-7 -7.109853245257187e-7 -0.0000014010420188696606 -0.000001417778209965799
          0 -7.742501235026109e-7 -0.000001544490387186503 0 -6.622523515860888e-7 -0.0000013203083215003007
          0 -7.281225805084371e-7 -0.000001450322881450417 0 -6.266743627270532e-7 -0.0000012448841573801913
          0 -4.5882475475490463e-7 -9.176472643533098e-7 0 -2.315697937734746e-7 -4.6622557916740385e-7
          0 -1.5040023446108297e-7 -3.1251159733777186e-7 0 0 0
          -3.256354388165571e-8 -9.042890068860558e-8 -8.189053699988056e-8 -6.499494113138637e-8 -1.8100359666513134e-7 -1.656621100436266e-7
        </DataArray>
      </PointData>
      <CellData>
        <DataArray type="Int32" Name="libmesh_elem_id" format="ascii" RangeMin="40" RangeMax="1373">
          40 41 42 43 44 45
          46 47 48 49 50 51
          52 53 54 55 56 57
          98 99 100 101 102 103
          104 105 106 107 108 109
          110 111 112 113 114 115
          156 157 158 159 160 161
          162 163 164 165 166 167
          168 169 170 171 172 173
          214 215 216 217 218 219
          220 221 222 223 224 225
          226 227 228 229 230 231
          272 273 274 275 276 277
          278 279 280 281 282 283
          284 285 286 287 288 289
          330 331 332 333 334 335
          336 337 338 339 340 341
          342 343 344 345 346 347
          388 389 390 391 392 393
          394 395 396 397 398 399
          400 401 402 403 404 405
          446 447 448 449 450 451
          452 453 454 455 456 457
          458 459 460 461 462 463
          508 509 510 511 512 513
          514 515 516 517 518 519
          520 521 522 523 524 525
          526 527 528 529 530 531
          532 533 534 535 536 537
          538 539 540 541 542 543
          544 545 546 547 548 549
          550 551 552 553 554 555
          556 557 558 559 560 561
          562 563 564 565 566 567
          568 569 570 571 572 573
          574 575 576 577 578 579
          580 581 582 583 584 585
          586 587 588 589 590 591
          592 593 594 595 596 597
          598 599 600 601 602 603
          604 605 606 607 608 609
          610 611 612 613 614 615
          616 617 618 619 620 621
          622 623 624 625 626 627
          628 629 630 631 632 633
          634 635 636 637 638 639
          640 641 642 643 644 645
          646 647 648 649 650 651
          652 653 654 655 656 657
          658 659 660 661 662 663
          664 665 666 667 668 669
          670 671 672 673 674 675
          676 677 678 679 680 681
          682 683 684 685 686 687
          688 689 690 691 692 693
          694 695 696 697 698 699
          700 701 702 703 704 705
          706 707 708 709 710 711
          712 713 714 715 716 717
          718 719 720 721 722 723
          724 725 726 727 728 729
          730 731 732 733 734 735
          736 737 738 739 740 741
          742 743 744 745 746 747
          748 749 750 751 752 753
          754 755 756 757 758 759
          760 761 762 763 764 765
          766 767 768 769 770 771
          1186 1187 1188 1189 1190 1191
          1204 1205 1206 1207 1208 1209
          1222 1223 1224 1225 1240 1241
          1242 1243 1258 1259 1260 1261
          1276 1277 1278 1279 1300 1301
          1304 1305 1306 1307 1314 1315
          1316 1317 1326 1327 1328 1329
          1330 1331 1338 1339 1344 1345
          1348 1349 1356 1357 1358 1359
          1360 1361 1366 1367 1372 1373
        </DataArray>
        <DataArray type="Int32" Name="subdomain_id" format="ascii" RangeMin="103" RangeMax="143">
          103 103 103 103 103 103
          103 103 103 103 103 103
          103 103 103 103 103 103
          103 103 103 103 103 103
          103 103 103 103 103 103
          103 103 103 103 103 103
          103 103 103 103 103 103
          103 103 103 103 103 103
          103 103 103 103 103 103
          103 103 103 103 103 103
          103 103 103 103 103 103
          103 103 103 103 103 103
          103 103 103 103 103 103
          103 103 103 103 103 103
          103 103 103 103 103 103
          103 103 103 103 103 103
          103 103 103 103 103 103
          103 103 103 103 103 103
          103 103 103 103 103 103
          103 103 103 103 103 103
          103 103 103 103 103 103
          103 103 103 103 103 103
          103 103 103 103 103 103
          103 103 103 103 103 103
          103 103 103 103 103 103
          103 103 103 103 103 103
          103 103 104 104 104 104
          104 104 104 104 104 104
          104 104 104 104 104 104
          104 104 104 104 104 104
          104 104 104 104 104 104
          104 104 104 104 104 104
          104 104 104 104 104 104
          104 104 104 104 104 104
          104 104 104 104 104 104
          104 104 104 104 104 104
          104 104 104 104 104 104
          104 104 104 104 104 104
          104 104 104 104 104 104
          104 104 104 104 104 104
          104 104 104 104 104 104
          104 104 104 104 104 104
          104 104 104 104 104 104
          104 104 104 104 104 104
          104 104 104 104 104 104
          104 104 104 104 104 104
          104 104 104 104 104 104
          104 104 104 104 104 104
          104 104 104 104 104 104
          104 104 104 104 104 104
          104 104 104 104 104 104
          104 104 104 104 104 104
          104 104 104 104 104 104
          104 104 104 104 104 104
          104 104 104 104 104 104
          104 104 104 104 104 104
          104 104 104 104 104 104
          104 104 104 104 104 104
          104 104 104 104 104 104
          141 141 141 141 141 141
          141 141 141 141 141 141
          141 141 141 141 141 141
          141 141 141 141 141 141
          141 141 141 141 141 141
          141 141 141 141 141 141
          141 141 141 141 141 141
          141 141 141 141 141 141
          141 141 141 141 141 141
          105 105 105 105 105 105
          105 105 105 105 105 105
          105 105 105 105 105 105
          105 105 105 105 105 105
          105 105 105 105 106 106
          106 106 106 106 106 106
          106 106 106 106 106 106
          106 106 106 106 106 106
          106 106 106 106 106 106
          143 143 143 143 143 143
        </DataArray>
        <DataArray type="Int32" Name="processor_id" format="ascii" RangeMin="5" RangeMax="5">
          5 5 5 5 5 5
          5 5 5 5 5 5
          5 5 5 5 5 5
          5 5 5 5 5 5
          5 5 5 5 5 5
          5 5 5 5 5 5
          5 5 5 5 5 5
          5 5 5 5 5 5
          5 5 5 5 5 5
          5 5 5 5 5 5
          5 5 5 5 5 5
          5 5 5 5 5 5
          5 5 5 5 5 5
          5 5 5 5 5 5
          5 5 5 5 5 5
          5 5 5 5 5 5
          5 5 5 5 5 5
          5 5 5 5 5 5
          5 5 5 5 5 5
          5 5 5 5 5 5
          5 5 5 5 5 5
          5 5 5 5 5 5
          5 5 5 5 5 5
          5 5 5 5 5 5
          5 5 5 5 5 5
          5 5 5 5 5 5
          5 5 5 5 5 5
          5 5 5 5 5 5
          5 5 5 5 5 5
          5 5 5 5 5 5
          5 5 5 5 5 5
          5 5 5 5 5 5
          5 5 5 5 5 5
          5 5 5 5 5 5
          5 5 5 5 5 5
          5 5 5 5 5 5
          5 5 5 5 5 5
          5 5 5 5 5 5
          5 5 5 5 5 5
          5 5 5 5 5 5
          5 5 5 5 5 5
          5 5 5 5 5 5
          5 5 5 5 5 5
          5 5 5 5 5 5
          5 5 5 5 5 5
          5 5 5 5 5 5
          5 5 5 5 5 5
          5 5 5 5 5 5
          5 5 5 5 5 5
          5 5 5 5 5 5
          5 5 5 5 5 5
          5 5 5 5 5 5
          5 5 5 5 5 5
          5 5 5 5 5 5
          5 5 5 5 5 5
          5 5 5 5 5 5
          5 5 5 5 5 5
          5 5 5 5 5 5
          5 5 5 5 5 5
          5 5 5 5 5 5
          5 5 5 5 5 5
          5 5 5 5 5 5
          5 5 5 5 5 5
          5 5 5 5 5 5
          5 5 5 5 5 5
          5 5 5 5 5 5
          5 5 5 5 5 5
          5 5 5 5 5 5
          5 5 5 5 5 5
          5 5 5 5 5 5
          5 5 5 5 5 5
          5 5 5 5 5 5
          5 5 5 5 5 5
          5 5 5 5 5 5
          5 5 5 5 5 5
          5 5 5 5 5 5
          5 5 5 5 5 5
          5 5 5 5 5 5
        </DataArray>
      </CellData>
      <Points>
        <DataArray type="Float64" Name="Points" NumberOfComponents="3" format="ascii" RangeMin="0.0082758620689774" RangeMax="0.013139935358843113">
          0.00011111111111123 0.0082758620689751 0 0 0.0082758620689774 0
          0.00011111111111123 0.0082758620689751 0.00015 0 0.0082758620689774 0.00015
          0.00011111111111123 0.0082758620689751 0.0003 0 0.0082758620689774 0.0003
          0.00011111111111125 0.0086896551724226 0 0 0.0086896551724246 0
          0.00011111111111125 0.0086896551724226 0.00015 0 0.0086896551724246 0.00015
          0.00011111111111125 0.0086896551724226 0.0003 0 0.0086896551724246 0.0003
          0.00011111111111126 0.0091034482758696 0 0 0.0091034482758716 0
          0.00011111111111126 0.0091034482758696 0.00015 0 0.0091034482758716 0.00015
          0.00011111111111126 0.0091034482758696 0.0003 0 0.0091034482758716 0.0003
          0.00011111111111128 0.0095172413793168 0 0 0.0095172413793185 0
          0.00011111111111128 0.0095172413793168 0.00015 0 0.0095172413793185 0.00015
          0.00011111111111128 0.0095172413793168 0.0003 0 0.0095172413793185 0.0003
          0.00011111111111129 0.0099310344827632 0 0 0.0099310344827645 0
          0.00011111111111129 0.0099310344827632 0.00015 0 0.0099310344827645 0.00015
          0.00011111111111129 0.0099310344827632 0.0003 0 0.0099310344827645 0.0003
          0.00011111111111131 0.01034482758621 0 0 0.01034482758621 0
          0.00011111111111131 0.01034482758621 0.00015 0 0.01034482758621 0.00015
          0.00011111111111131 0.01034482758621 0.0003 0 0.01034482758621 0.0003
          0.00011111111111132 0.010758620689657 0 0 0.010758620689657 0
          0.00011111111111132 0.010758620689657 0.00015 0 0.010758620689657 0.00015
          0.00011111111111132 0.010758620689657 0.0003 0 0.010758620689657 0.0003
          0.00011111111111134 0.011172413793104 0 0 0.011172413793104 0
          0.00011111111111134 0.011172413793104 0.00015 0 0.011172413793104 0.00015
          0.00011111111111134 0.011172413793104 0.0003 0 0.011172413793104 0.0003
          0.00011111111111135 0.011586206896551 0 0 0.011586206896551 0
          0.00011111111111135 0.011586206896551 0.00015 0 0.011586206896551 0.00015
          0.00011111111111135 0.011586206896551 0.0003 0 0.011586206896551 0.0003
          0.00011111111111137 0.012 0 0 0.012 0
          0.00011111111111137 0.012 0.00015 0 0.012 0.00015
          0.00011111111111137 0.012 0.0003 0 0.012 0.0003
          0.00022222222222243 0.0082758620689727 0 0.00022222222222243 0.0082758620689727 0.00015
          0.00022222222222243 0.0082758620689727 0.0003 0.00022222222222246 0.0086896551724206 0
          0.00022222222222246 0.0086896551724206 0.00015 0.00022222222222246 0.0086896551724206 0.0003
          0.00022222222222249 0.0091034482758676 0 0.00022222222222249 0.0091034482758676 0.00015
          0.00022222222222249 0.0091034482758676 0.0003 0.00022222222222253 0.0095172413793151 0
          0.00022222222222253 0.0095172413793151 0.00015 0.00022222222222253 0.0095172413793151 0.0003
          0.00022222222222256 0.0099310344827619 0 0.00022222222222256 0.0099310344827619 0.00015
          0.00022222222222256 0.0099310344827619 0.0003 0.0002222222222226 0.010344827586209 0
          0.0002222222222226 0.010344827586209 0.00015 0.0002222222222226 0.010344827586209 0.0003
          0.00022222222222263 0.010758620689656 0 0.00022222222222263 0.010758620689656 0.00015
          0.00022222222222263 0.010758620689656 0.0003 0.00022222222222266 0.011172413793103 0
          0.00022222222222266 0.011172413793103 0.00015 0.00022222222222266 0.011172413793103 0.0003
          0.0002222222222227 0.011586206896551 0 0.0002222222222227 0.011586206896551 0.00015
          0.0002222222222227 0.011586206896551 0.0003 0.00022222222222273 0.012 0
          0.00022222222222273 0.012 0.00015 0.00022222222222273 0.012 0.0003
          0.00033333333333363 0.0082758620689704 0 0.00033333333333363 0.0082758620689704 0.00015
          0.00033333333333363 0.0082758620689704 0.0003 0.00033333333333368 0.0086896551724185 0
          0.00033333333333368 0.0086896551724185 0.00015 0.00033333333333368 0.0086896551724185 0.0003
          0.00033333333333373 0.0091034482758657 0 0.00033333333333373 0.0091034482758657 0.00015
          0.00033333333333373 0.0091034482758657 0.0003 0.00033333333333379 0.0095172413793133 0
          0.00033333333333379 0.0095172413793133 0.00015 0.00033333333333379 0.0095172413793133 0.0003
          0.00033333333333384 0.0099310344827607 0 0.00033333333333384 0.0099310344827607 0.00015
          0.00033333333333384 0.0099310344827607 0.0003 0.00033333333333389 0.010344827586208 0
          0.00033333333333389 0.010344827586208 0.00015 0.00033333333333389 0.010344827586208 0.0003
          0.00033333333333394 0.010758620689656 0 0.00033333333333394 0.010758620689656 0.00015
          0.00033333333333394 0.010758620689656 0.0003 0.000333333333334 0.011172413793103 0
          0.000333333333334 0.011172413793103 0.00015 0.000333333333334 0.011172413793103 0.0003
          0.00033333333333405 0.011586206896551 0 0.00033333333333405 0.011586206896551 0.00015
          0.00033333333333405 0.011586206896551 0.0003 0.0003333333333341 0.012 0
          0.0003333333333341 0.012 0.00015 0.0003333333333341 0.012 0.0003
          0.00044444444444486 0.0082758620689681 0 0.00044444444444486 0.0082758620689681 0.00015
          0.00044444444444486 0.0082758620689681 0.0003 0.00044444444444493 0.0086896551724165 0
          0.00044444444444493 0.0086896551724165 0.00015 0.00044444444444493 0.0086896551724165 0.0003
          0.00044444444444501 0.0091034482758637 0 0.00044444444444501 0.0091034482758637 0.00015
          0.00044444444444501 0.0091034482758637 0.0003 0.00044444444444508 0.0095172413793116 0
          0.00044444444444508 0.0095172413793116 0.00015 0.00044444444444508 0.0095172413793116 0.0003
          0.00044444444444516 0.0099310344827594 0 0.00044444444444516 0.0099310344827594 0.00015
          0.00044444444444516 0.0099310344827594 0.0003 0.00044444444444523 0.010344827586207 0
          0.00044444444444523 0.010344827586207 0.00015 0.00044444444444523 0.010344827586207 0.0003
          0.00044444444444531 0.010758620689655 0 0.00044444444444531 0.010758620689655 0.00015
          0.00044444444444531 0.010758620689655 0.0003 0.00044444444444538 0.011172413793103 0
          0.00044444444444538 0.011172413793103 0.00015 0.00044444444444538 0.011172413793103 0.0003
          0.00044444444444546 0.011586206896551 0 0.00044444444444546 0.011586206896551 0.00015
          0.00044444444444546 0.011586206896551 0.0003 0.00044444444444553 0.012 0
          0.00044444444444553 0.012 0.00015 0.00044444444444553 0.012 0.0003
          0.00055555555555597 0.0082758620689657 0 0.00055555555555597 0.0082758620689657 0.00015
          0.00055555555555597 0.0082758620689657 0.0003 0.00055555555555605 0.0086896551724145 0
          0.00055555555555605 0.0086896551724145 0.00015 0.00055555555555605 0.0086896551724145 0.0003
          0.00055555555555613 0.0091034482758618 0 0.00055555555555613 0.0091034482758618 0.00015
          0.00055555555555613 0.0091034482758618 0.0003 0.00055555555555621 0.0095172413793099 0
          0.00055555555555621 0.0095172413793099 0.00015 0.00055555555555621 0.0095172413793099 0.0003
          0.00055555555555629 0.0099310344827581 0 0.00055555555555629 0.0099310344827581 0.00015
          0.00055555555555629 0.0099310344827581 0.0003 0.00055555555555636 0.010344827586206 0
          0.00055555555555636 0.010344827586206 0.00015 0.00055555555555636 0.010344827586206 0.0003
          0.00055555555555644 0.010758620689655 0 0.00055555555555644 0.010758620689655 0.00015
          0.00055555555555644 0.010758620689655 0.0003 0.00055555555555652 0.011172413793102 0
          0.00055555555555652 0.011172413793102 0.00015 0.00055555555555652 0.011172413793102 0.0003
          0.0005555555555566 0.011586206896551 0 0.0005555555555566 0.011586206896551 0.00015
          0.0005555555555566 0.011586206896551 0.0003 0.00055555555555667 0.012 0
          0.00055555555555667 0.012 0.00015 0.00055555555555667 0.012 0.0003
          0.00066666666666675 0.0082758620689634 0 0.00066666666666675 0.0082758620689634 0.00015
          0.00066666666666675 0.0082758620689634 0.0003 0.00066666666666679 0.0086896551724125 0
          0.00066666666666679 0.0086896551724125 0.00015 0.00066666666666679 0.0086896551724125 0.0003
          0.00066666666666684 0.0091034482758598 0 0.00066666666666684 0.0091034482758598 0.00015
          0.00066666666666684 0.0091034482758598 0.0003 0.00066666666666688 0.0095172413793081 0
          0.00066666666666688 0.0095172413793081 0.00015 0.00066666666666688 0.0095172413793081 0.0003
          0.00066666666666693 0.0099310344827568 0 0.00066666666666693 0.0099310344827568 0.00015
          0.00066666666666693 0.0099310344827568 0.0003 0.00066666666666697 0.010344827586205 0
          0.00066666666666697 0.010344827586205 0.00015 0.00066666666666697 0.010344827586205 0.0003
          0.00066666666666701 0.010758620689654 0 0.00066666666666701 0.010758620689654 0.00015
          0.00066666666666701 0.010758620689654 0.0003 0.00066666666666706 0.011172413793102 0
          0.00066666666666706 0.011172413793102 0.00015 0.00066666666666706 0.011172413793102 0.0003
          0.0006666666666671 0.01158620689655 0 0.0006666666666671 0.01158620689655 0.00015
          0.0006666666666671 0.01158620689655 0.0003 0.00066666666666715 0.012 0
          0.00066666666666715 0.012 0.00015 0.00066666666666715 0.012 0.0003
          0.00077777777777787 0.0082758620689611 0 0.00077777777777787 0.0082758620689611 0.00015
          0.00077777777777787 0.0082758620689611 0.0003 0.00077777777777791 0.0086896551724104 0
          0.00077777777777791 0.0086896551724104 0.00015 0.00077777777777791 0.0086896551724104 0.0003
          0.00077777777777794 0.0091034482758578 0 0.00077777777777794 0.0091034482758578 0.00015
          0.00077777777777794 0.0091034482758578 0.0003 0.00077777777777797 0.0095172413793064 0
          0.00077777777777797 0.0095172413793064 0.00015 0.00077777777777797 0.0095172413793064 0.0003
          0.000777777777778 0.0099310344827555 0 0.000777777777778 0.0099310344827555 0.00015
          0.000777777777778 0.0099310344827555 0.0003 0.00077777777777803 0.010344827586205 0
          0.00077777777777803 0.010344827586205 0.00015 0.00077777777777803 0.010344827586205 0.0003
          0.00077777777777806 0.010758620689654 0 0.00077777777777806 0.010758620689654 0.00015
          0.00077777777777806 0.010758620689654 0.0003 0.00077777777777809 0.011172413793101 0
          0.00077777777777809 0.011172413793101 0.00015 0.00077777777777809 0.011172413793101 0.0003
          0.00077777777777813 0.01158620689655 0 0.00077777777777813 0.01158620689655 0.00015
          0.00077777777777813 0.01158620689655 0.0003 0.00077777777777816 0.012 0
          0.00077777777777816 0.012 0.00015 0.00077777777777816 0.012 0.0003
          0.0008888888888888 0.0082758620689588 0 0.0008888888888888 0.0082758620689588 0.00015
          0.0008888888888888 0.0082758620689588 0.0003 0.00088888888888881 0.0086896551724084 0
          0.00088888888888881 0.0086896551724084 0.00015 0.00088888888888881 0.0086896551724084 0.0003
          0.00088888888888882 0.0091034482758559 0 0.00088888888888882 0.0091034482758559 0.00015
          0.00088888888888882 0.0091034482758559 0.0003 0.00088888888888883 0.0095172413793047 0
          0.00088888888888883 0.0095172413793047 0.00015 0.00088888888888883 0.0095172413793047 0.0003
          0.00088888888888884 0.0099310344827542 0 0.00088888888888884 0.0099310344827542 0.00015
          0.00088888888888884 0.0099310344827542 0.0003 0.00088888888888885 0.010344827586204 0
          0.00088888888888885 0.010344827586204 0.00015 0.00088888888888885 0.010344827586204 0.0003
          0.00088888888888885 0.010758620689653 0 0.00088888888888885 0.010758620689653 0.00015
          0.00088888888888885 0.010758620689653 0.0003 0.00088888888888886 0.011172413793101 0
          0.00088888888888886 0.011172413793101 0.00015 0.00088888888888886 0.011172413793101 0.0003
          0.00088888888888887 0.01158620689655 0 0.00088888888888887 0.01158620689655 0.00015
          0.00088888888888887 0.01158620689655 0.0003 0.00088888888888888 0.012 0
          0.00088888888888888 0.012 0.00015 0.00088888888888888 0.012 0.0003
          0.001 0.0091034482758539 0 0.001 0.0091034482758539 0.00015
          0.001 0.0091034482758539 0.0003 0.001 0.0095172413793029 0
          0.001 0.0095172413793029 0.00015 0.001 0.0095172413793029 0.0003
          0.001 0.0099310344827529 0 0.001 0.0099310344827529 0.00015
          0.001 0.0099310344827529 0.0003 0.001 0.010344827586203 0
          0.001 0.010344827586203 0.00015 0.001 0.010344827586203 0.0003
          0.001 0.010758620689653 0 0.001 0.010758620689653 0.00015
          0.001 0.010758620689653 0.0003 0.001 0.0111724137931 0
          0.001 0.0111724137931 0.00015 0.001 0.0111724137931 0.0003
          0.001 0.01158620689655 0 0.001 0.01158620689655 0.00015
          0.001 0.01158620689655 0.0003 0.001 0.012 0
          0.001 0.012 0.00015 0.001 0.012 0.0003
          0.00067947077571632 0.012798245728111 0 0.00068678568032061 0.012710429785181 0
          0.00076344362314339 0.012698069087358 0 0.00078000626700894 0.012788238676479 0
          0.00067947077571632 0.012798245728111 0.00015 0.00068678568032061 0.012710429785181 0.00015
          0.00076344362314339 0.012698069087358 0.00015 0.00078000626700894 0.012788238676479 0.00015
          0.00067947077571632 0.012798245728111 0.0003 0.00068678568032061 0.012710429785181 0.0003
          0.00076344362314339 0.012698069087358 0.0003 0.00078000626700894 0.012788238676479 0.0003
          0.0007101811699723 0.012881232243155 0 0.00078737528777453 0.012884598822829 0
          0.0007101811699723 0.012881232243155 0.00015 0.00078737528777453 0.012884598822829 0.00015
          0.0007101811699723 0.012881232243155 0.0003 0.00078737528777453 0.012884598822829 0.0003
          0.00063149088332091 0.012876508075697 0 0.00071156048039536 0.012943694476106 0
          0.00064992343237843 0.012944046337553 0 0.00063149088332091 0.012876508075697 0.00015
          0.00071156048039536 0.012943694476106 0.00015 0.00064992343237843 0.012944046337553 0.00015
          0.00063149088332091 0.012876508075697 0.0003 0.00071156048039536 0.012943694476106 0.0003
          0.00064992343237843 0.012944046337553 0.0003 0.00014271480927744 0.012184528409521 0
          0.00021074182908597 0.012239195039162 0 0.00014617236906556 0.012274772666576 0
          0.00010836971036758 0.0122326927564 0 0.00014271480927744 0.012184528409521 0.00015
          0.00021074182908597 0.012239195039162 0.00015 0.00014617236906556 0.012274772666576 0.00015
          0.00010836971036758 0.0122326927564 0.00015 0.00014271480927744 0.012184528409521 0.0003
          0.00021074182908597 0.012239195039162 0.0003 0.00014617236906556 0.012274772666576 0.0003
          0.00010836971036758 0.0122326927564 0.0003 0.00040316247653445 0.012523054457121 0
          0.00050524235438491 0.012516470580574 0 0.00047556583290331 0.012611926172403 0
          0.00040677839563254 0.01259579728731 0 0.00040316247653445 0.012523054457121 0.00015
          0.00050524235438491 0.012516470580574 0.00015 0.00047556583290331 0.012611926172403 0.00015
          0.00040677839563254 0.01259579728731 0.00015 0.00040316247653445 0.012523054457121 0.0003
          0.00050524235438491 0.012516470580574 0.0003 0.00047556583290331 0.012611926172403 0.0003
          0.00040677839563254 0.01259579728731 0.0003 0.00038389728538556 0.012111104172094 0
          0.00037958632650406 0.012195366170904 0 0.00029855370140418 0.012181148574691 0
          0.00029802321336891 0.012105931916082 0 0.00038389728538556 0.012111104172094 0.00015
          0.00037958632650406 0.012195366170904 0.00015 0.00029855370140418 0.012181148574691 0.00015
          0.00029802321336891 0.012105931916082 0.00015 0.00038389728538556 0.012111104172094 0.0003
          0.00037958632650406 0.012195366170904 0.0003 0.00029855370140418 0.012181148574691 0.0003
          0.00029802321336891 0.012105931916082 0.0003 0.00062435778703091 0.012280526392523 0
          0.00063694887874418 0.012191685157308 0 0.00075163746499696 0.012211869018538 0
          0.0007101306235237 0.012330652999586 0 0.00062435778703091 0.012280526392523 0.00015
          0.00063694887874418 0.012191685157308 0.00015 0.00075163746499696 0.012211869018538 0.00015
          0.0007101306235237 0.012330652999586 0.00015 0.00062435778703091 0.012280526392523 0.0003
          0.00063694887874418 0.012191685157308 0.0003 0.00075163746499696 0.012211869018538 0.0003
          0.0007101306235237 0.012330652999586 0.0003 0.00090036231429234 0.012108977226849 0
          0.00080269198720626 0.012096984730608 0 0.00090036231429234 0.012108977226849 0.00015
          0.00080269198720626 0.012096984730608 0.00015 0.00090036231429234 0.012108977226849 0.0003
          0.00080269198720626 0.012096984730608 0.0003 0.00023865656240352 0.012177237347116 0
          0.00029061852669854 0.01224857812735 0 0.00023865656240352 0.012177237347116 0.00015
          0.00029061852669854 0.01224857812735 0.00015 0.00023865656240352 0.012177237347116 0.0003
          0.00029061852669854 0.01224857812735 0.0003 0.00056164385173704 0.012835416164401 0
          0.00056508360468666 0.012898794448667 0 0.00049240387645224 0.012913175910861 0
          0.00046984631090009 0.012828989929731 0 0.00056164385173704 0.012835416164401 0.00015
          0.00056508360468666 0.012898794448667 0.00015 0.00049240387645224 0.012913175910861 0.00015
          0.00046984631090009 0.012828989929731 0.00015 0.00056164385173704 0.012835416164401 0.0003
          0.00056508360468666 0.012898794448667 0.0003 0.00049240387645224 0.012913175910861 0.0003
          0.00046984631090009 0.012828989929731 0.0003 0.000050495613361417 0.012066083920595 0
          0.00011131843390441 0.012086989142678 0 0.000069577205110887 0.012153607960951 0
          0 0.012111111111109 0 0.000050495613361417 0.012066083920595 0.00015
          0.00011131843390441 0.012086989142678 0.00015 0.000069577205110887 0.012153607960951 0.00015
          0 0.012111111111109 0.00015 0.000050495613361417 0.012066083920595 0.0003
          0.00011131843390441 0.012086989142678 0.0003 0.000069577205110887 0.012153607960951 0.0003
          0 0.012111111111109 0.0003 0.00022470825547396 0.012306913365418 0
          0.00017103954025546 0.012340304715306 0 0.00022470825547396 0.012306913365418 0.00015
          0.00017103954025546 0.012340304715306 0.00015 0.00022470825547396 0.012306913365418 0.0003
          0.00017103954025546 0.012340304715306 0.0003 0.00085640575367095 0.012657655614724 0
          0.001 0.012571428571438 0 0.001 0.012714285714292 0
          0.00089085524488654 0.012778191533234 0 0.00085640575367095 0.012657655614724 0.00015
          0.001 0.012571428571438 0.00015 0.001 0.012714285714292 0.00015
          0.00089085524488654 0.012778191533234 0.00015 0.00085640575367095 0.012657655614724 0.0003
          0.001 0.012571428571438 0.0003 0.001 0.012714285714292 0.0003
          0.00089085524488654 0.012778191533234 0.0003 0.00017101007138246 0.012530153689505 0
          0.000086824088695593 0.01250759612347 0 0.00010015626416536 0.012463076177022 0
          0.00018026894988108 0.012457509098897 0 0.00017101007138246 0.012530153689505 0.00015
          0.000086824088695593 0.01250759612347 0.00015 0.00010015626416536 0.012463076177022 0.00015
          0.00018026894988108 0.012457509098897 0.00015 0.00017101007138246 0.012530153689505 0.0003
          0.000086824088695593 0.01250759612347 0.0003 0.00010015626416536 0.012463076177022 0.0003
          0.00018026894988108 0.012457509098897 0.0003 0.00055555555555552 0.013 0
          0.00054972466987376 0.012958523613261 0 0.00059017772624368 0.012950117696029 0
          0.00061111111111072 0.013 0 0.00055555555555552 0.013 0.00015
          0.00054972466987376 0.012958523613261 0.00015 0.00059017772624368 0.012950117696029 0.00015
          0.00061111111111072 0.013 0.00015 0.00055555555555552 0.013 0.0003
          0.00054972466987376 0.012958523613261 0.0003 0.00059017772624368 0.012950117696029 0.0003
          0.00061111111111072 0.013 0.0003 0.00056012017374448 0.012193168747791 0
          0.00054338833040714 0.012250054231166 0 0.00056012017374448 0.012193168747791 0.00015
          0.00054338833040714 0.012250054231166 0.00015 0.00056012017374448 0.012193168747791 0.0003
          0.00054338833040714 0.012250054231166 0.0003 0.00020164702899907 0.012111009853496 0
          0.00020164702899907 0.012111009853496 0.00015 0.00020164702899907 0.012111009853496 0.0003
          0.00058698867508036 0.01276393301723 0 0.00061242021253103 0.012689969395149 0
          0.00058698867508036 0.01276393301723 0.00015 0.00061242021253103 0.012689969395149 0.00015
          0.00058698867508036 0.01276393301723 0.0003 0.00061242021253103 0.012689969395149 0.0003
          0.00054704952286259 0.01264760123259 0 0.00058547756026548 0.012574831423214 0
          0.00066845126455385 0.012625352450745 0 0.00054704952286259 0.01264760123259 0.00015
          0.00058547756026548 0.012574831423214 0.00015 0.00066845126455385 0.012625352450745 0.00015
          0.00054704952286259 0.01264760123259 0.0003 0.00058547756026548 0.012574831423214 0.0003
          0.00066845126455385 0.012625352450745 0.0003 0.00040316497174951 0.012375710115571 0
          0.00038996592658543 0.012448925709731 0 0.00030251984068288 0.012451026681152 0
          0.00030273327950676 0.012339921797294 0 0.00040316497174951 0.012375710115571 0.00015
          0.00038996592658543 0.012448925709731 0.00015 0.00030251984068288 0.012451026681152 0.00015
          0.00030273327950676 0.012339921797294 0.00015 0.00040316497174951 0.012375710115571 0.0003
          0.00038996592658543 0.012448925709731 0.0003 0.00030251984068288 0.012451026681152 0.0003
          0.00030273327950676 0.012339921797294 0.0003 0 0.012166666666663 0
          0.000060257043043922 0.012213388328671 0 0 0.012222222222217 0
          0 0.012166666666663 0.00015 0.000060257043043922 0.012213388328671 0.00015
          0 0.012222222222217 0.00015 0 0.012166666666663 0.0003
          0.000060257043043922 0.012213388328671 0.0003 0 0.012222222222217 0.0003
          0.00086766031505541 0.012218873949421 0 0.00070802748250363 0.01210226547145 0
          0.00086766031505541 0.012218873949421 0.00015 0.00070802748250363 0.01210226547145 0.00015
          0.00086766031505541 0.012218873949421 0.0003 0.00070802748250363 0.01210226547145 0.0003
          0.00045681564832724 0.012667985356076 0 0.00038302222240927 0.012678606196169 0
          0.00045681564832724 0.012667985356076 0.00015 0.00038302222240927 0.012678606196169 0.00015
          0.00045681564832724 0.012667985356076 0.0003 0.00038302222240927 0.012678606196169 0.0003
          0.00057343997443155 0.012462111372123 0 0.00067467937701806 0.012497336760124 0
          0.00057343997443155 0.012462111372123 0.00015 0.00067467937701806 0.012497336760124 0.00015
          0.00057343997443155 0.012462111372123 0.0003 0.00067467937701806 0.012497336760124 0.0003
          0 0.012388888888886 0 0.00004805763346656 0.012364070531781 0
          0.000052775834931525 0.012418323433379 0 0 0.012444444444443 0
          0 0.012388888888886 0.00015 0.00004805763346656 0.012364070531781 0.00015
          0.000052775834931525 0.012418323433379 0.00015 0 0.012444444444443 0.00015
          0 0.012388888888886 0.0003 0.00004805763346656 0.012364070531781 0.0003
          0.000052775834931525 0.012418323433379 0.0003 0 0.012444444444443 0.0003
          0.0004655657017567 0.012222981448331 0 0.0004403524252846 0.012306679111378 0
          0.00036518397892919 0.012268658791136 0 0.0004655657017567 0.012222981448331 0.00015
          0.0004403524252846 0.012306679111378 0.00015 0.00036518397892919 0.012268658791136 0.00015
          0.0004655657017567 0.012222981448331 0.0003 0.0004403524252846 0.012306679111378 0.0003
          0.00036518397892919 0.012268658791136 0.0003 0.00079059026611164 0.012574208252283 0
          0.00074033738884001 0.012629472897336 0 0.00079059026611164 0.012574208252283 0.00015
          0.00074033738884001 0.012629472897336 0.00015 0.00079059026611164 0.012574208252283 0.0003
          0.00074033738884001 0.012629472897336 0.0003 0.00049134001885305 0.012124425854677 0
          0.00060162315338905 0.012101782274206 0 0.00049134001885305 0.012124425854677 0.00015
          0.00060162315338905 0.012101782274206 0.00015 0.00049134001885305 0.012124425854677 0.0003
          0.00060162315338905 0.012101782274206 0.0003 0.00055165526617401 0.012365152711649 0
          0.00046621557592763 0.012427373679685 0 0.00055165526617401 0.012365152711649 0.00015
          0.00046621557592763 0.012427373679685 0.00015 0.00055165526617401 0.012365152711649 0.0003
          0.00046621557592763 0.012427373679685 0.0003 0.00065175768920993 0.012395993188634 0
          0.00078658012555766 0.01242031863996 0 0.00065175768920993 0.012395993188634 0.00015
          0.00078658012555766 0.01242031863996 0.00015 0.00065175768920993 0.012395993188634 0.0003
          0.00078658012555766 0.01242031863996 0.0003 0.00072222222222142 0.013 0
          0.00076767785213736 0.012949407633443 0 0.00077777777777722 0.013 0
          0.00072222222222142 0.013 0.00015 0.00076767785213736 0.012949407633443 0.00015
          0.00077777777777722 0.013 0.00015 0.00072222222222142 0.013 0.0003
          0.00076767785213736 0.012949407633443 0.0003 0.00077777777777722 0.013 0.0003
          0.001 0.01228571428572 0 0.001 0.012428571428581 0
          0.00085243404696798 0.012340254950119 0 0.001 0.01228571428572 0.00015
          0.001 0.012428571428581 0.00015 0.00085243404696798 0.012340254950119 0.00015
          0.001 0.01228571428572 0.0003 0.001 0.012428571428581 0.0003
          0.00085243404696798 0.012340254950119 0.0003 0.000047305708530005 0.012255757186949 0
          0.000035989657241992 0.012305788523607 0 0 0.012277777777773 0
          0.000047305708530005 0.012255757186949 0.00015 0.000035989657241992 0.012305788523607 0.00015
          0 0.012277777777773 0.00015 0.000047305708530005 0.012255757186949 0.0003
          0.000035989657241992 0.012305788523607 0.0003 0 0.012277777777773 0.0003
          0 0.01233333333333 0 0 0.01233333333333 0.00015
          0 0.01233333333333 0.0003 0.00088888888888861 0.013 0
          0.00086852226729803 0.012945143609779 0 0.00092105077811413 0.012923509600428 0
          0.0009444444444442 0.013 0 0.00088888888888861 0.013 0.00015
          0.00086852226729803 0.012945143609779 0.00015 0.00092105077811413 0.012923509600428 0.00015
          0.0009444444444442 0.013 0.00015 0.00088888888888861 0.013 0.0003
          0.00086852226729803 0.012945143609779 0.0003 0.00092105077811413 0.012923509600428 0.0003
          0.0009444444444442 0.013 0.0003 0.000088322519872331 0.012287262323421 0
          0.000098057359918883 0.01234321954228 0 0.000088322519872331 0.012287262323421 0.00015
          0.000098057359918883 0.01234321954228 0.00015 0.000088322519872331 0.012287262323421 0.0003
          0.000098057359918883 0.01234321954228 0.0003 0.00082037799021753 0.012949927278989 0
          0.00083333333333302 0.013 0 0.00082037799021753 0.012949927278989 0.00015
          0.00083333333333302 0.013 0.00015 0.00082037799021753 0.012949927278989 0.0003
          0.00083333333333302 0.013 0.0003 0.000055423585756317 0.01245648439217 0
          0.00011750487062481 0.01240389197138 0 0.000055423585756317 0.01245648439217 0.00015
          0.00011750487062481 0.01240389197138 0.00015 0.000055423585756317 0.01245648439217 0.0003
          0.00011750487062481 0.01240389197138 0.0003 0.00022703795328819 0.012397087263253 0
          0.00024412512388832 0.012487409031957 0 0.00022703795328819 0.012397087263253 0.00015
          0.00024412512388832 0.012487409031957 0.00015 0.00022703795328819 0.012397087263253 0.0003
          0.00024412512388832 0.012487409031957 0.0003 0.00086622784349606 0.012879340816766 0
          0.00086622784349606 0.012879340816766 0.00015 0.00086622784349606 0.012879340816766 0.0003
          0.001 0.01214285714286 0 0.001 0.01214285714286 0.00015
          0.001 0.01214285714286 0.0003 0.00032807036377433 0.012530514194312 0
          0.00032139380548758 0.012616977778981 0 0.00032807036377433 0.012530514194312 0.00015
          0.00032139380548758 0.012616977778981 0.00015 0.00032807036377433 0.012530514194312 0.0003
          0.00032139380548758 0.012616977778981 0.0003 0.00078653837511981 0.012300730611142 0
          0.00078653837511981 0.012300730611142 0.00015 0.00078653837511981 0.012300730611142 0.0003
          0.00050187285486533 0.012723776617989 0 0.00050187285486533 0.012723776617989 0.00015
          0.00050187285486533 0.012723776617989 0.0003 0.00066666666666612 0.013 0
          0.00066666666666612 0.013 0.00015 0.00066666666666612 0.013 0.0003
          0.00086640285866826 0.012499721374928 0 0.00086640285866826 0.012499721374928 0.00015
          0.00086640285866826 0.012499721374928 0.0003 0.001 0.012857142857146 0
          0.001 0.012857142857146 0.00015 0.001 0.012857142857146 0.0003
          0.00043301270230906 0.012750000000722 0 0.00043301270230906 0.012750000000722 0.00015
          0.00043301270230906 0.012750000000722 0.0003 0.00025000000019401 0.01256698729822 0
          0.00025000000019401 0.01256698729822 0.00015 0.00025000000019401 0.01256698729822 0.0003
          0 0.0125 0 0 0.0125 0.00015
          0 0.0125 0.0003 0 0.012055555555554 0
          0 0.012055555555554 0.00015 0 0.012055555555554 0.0003
          0.001 0.013 0 0.001 0.013 0.00015
          0.001 0.013 0.0003 0.0005 0.013 0
          0.0005 0.013 0.00015 0.0005 0.013 0.0003
          0.0014444444444451 0.0095172413793029 0 0.0014444444444451 0.0095172413793029 0.00015
          0.0014444444444451 0.0095172413793029 0.0003 0.0018888888888902 0.0095172413793029 0
          0.0018888888888902 0.0095172413793029 0.00015 0.0018888888888902 0.0095172413793029 0.0003
          0.0014444444444452 0.0099310344827529 0 0.0014444444444452 0.0099310344827529 0.00015
          0.0014444444444452 0.0099310344827529 0.0003 0.0018888888888903 0.0099310344827529 0
          0.0018888888888903 0.0099310344827529 0.00015 0.0018888888888903 0.0099310344827529 0.0003
          0.0014444444444452 0.010344827586203 0 0.0014444444444452 0.010344827586203 0.00015
          0.0014444444444452 0.010344827586203 0.0003 0.0014444444444453 0.010758620689653 0
          0.0014444444444453 0.010758620689653 0.00015 0.0014444444444453 0.010758620689653 0.0003
          0.0014444444444453 0.0111724137931 0 0.0014444444444453 0.0111724137931 0.00015
          0.0014444444444453 0.0111724137931 0.0003 0.0014444444444454 0.01158620689655 0
          0.0014444444444454 0.01158620689655 0.00015 0.0014444444444454 0.01158620689655 0.0003
          0.0014444444444455 0.012 0 0.0014444444444455 0.012 0.00015
          0.0014444444444455 0.012 0.0003 0.0011659770658264 0.012184916069452 0
          0.0011978981211319 0.012291694091132 0 0.0011659770658264 0.012184916069452 0.00015
          0.0011978981211319 0.012291694091132 0.00015 0.0011659770658264 0.012184916069452 0.0003
          0.0011978981211319 0.012291694091132 0.0003 0.0014134281085546 0.012468353283698 0
          0.001412897365997 0.01265802692797 0 0.0011710921098332 0.012660749606473 0
          0.0011928404820732 0.012464476127519 0 0.0014134281085546 0.012468353283698 0.00015
          0.001412897365997 0.01265802692797 0.00015 0.0011710921098332 0.012660749606473 0.00015
          0.0011928404820732 0.012464476127519 0.00015 0.0014134281085546 0.012468353283698 0.0003
          0.001412897365997 0.01265802692797 0.0003 0.0011710921098332 0.012660749606473 0.0003
          0.0011928404820732 0.012464476127519 0.0003 0.0011801499871676 0.012824831216028 0
          0.0011801499871676 0.012824831216028 0.00015 0.0011801499871676 0.012824831216028 0.0003
          0.0014335559245349 0.012265987585326 0 0.0014335559245349 0.012265987585326 0.00015
          0.0014335559245349 0.012265987585326 0.0003 0.0014444444444455 0.013 0
          0.0014444444444455 0.013 0.00015 0.0014444444444455 0.013 0.0003
          0.0023333333333355 0.0099310344827529 0 0.0023333333333353 0.0095172413793029 0
          0.0023333333333355 0.0099310344827529 0.00015 0.0023333333333353 0.0095172413793029 0.00015
          0.0023333333333355 0.0099310344827529 0.0003 0.0023333333333353 0.0095172413793029 0.0003
          0.0018888888888904 0.010344827586203 0 0.0018888888888904 0.010344827586203 0.00015
          0.0018888888888904 0.010344827586203 0.0003 0.0023333333333357 0.010344827586203 0
          0.0023333333333357 0.010344827586203 0.00015 0.0023333333333357 0.010344827586203 0.0003
          0.0018888888888905 0.010758620689653 0 0.0018888888888905 0.010758620689653 0.00015
          0.0018888888888905 0.010758620689653 0.0003 0.0018888888888907 0.0111724137931 0
          0.0018888888888907 0.0111724137931 0.00015 0.0018888888888907 0.0111724137931 0.0003
          0.0018888888888908 0.01158620689655 0 0.0018888888888908 0.01158620689655 0.00015
          0.0018888888888908 0.01158620689655 0.0003 0.0018888888888909 0.012 0
          0.0018888888888909 0.012 0.00015 0.0018888888888909 0.012 0.0003
          0.0017386847932316 0.012348636106575 0 0.0017386847932316 0.012348636106575 0.00015
          0.0017386847932316 0.012348636106575 0.0003 0.0018888888888909 0.013 0
          0.001702980389272 0.012655949584096 0 0.0020604062010233 0.012679406151259 0
          0.0018888888888909 0.013 0.00015 0.001702980389272 0.012655949584096 0.00015
          0.0020604062010233 0.012679406151259 0.00015 0.0018888888888909 0.013 0.0003
          0.001702980389272 0.012655949584096 0.0003 0.0020604062010233 0.012679406151259 0.0003
          <InformationKey name="L2_NORM_RANGE" location="vtkDataArray" length="2">
            <Value index="0">
              0.008275862069
            </Value>
            <Value index="1">
              0.013139935359
            </Value>
          </InformationKey>
        </DataArray>
      </Points>
      <Cells>
        <DataArray type="Int64" Name="connectivity" format="ascii" RangeMin="0" RangeMax="755">
          1 0 6 7 3 2
          8 9 3 2 8 9
          5 4 10 11 7 6
          12 13 9 8 14 15
          9 8 14 15 11 10
          16 17 13 12 18 19
          15 14 20 21 15 14
          20 21 17 16 22 23
          19 18 24 25 21 20
          26 27 21 20 26 27
          23 22 28 29 25 24
          30 31 27 26 32 33
          27 26 32 33 29 28
          34 35 31 30 36 37
          33 32 38 39 33 32
          38 39 35 34 40 41
          37 36 42 43 39 38
          44 45 39 38 44 45
          41 40 46 47 43 42
          48 49 45 44 50 51
          45 44 50 51 47 46
          52 53 49 48 54 55
          51 50 56 57 51 50
          56 57 53 52 58 59
          0 60 63 6 2 61
          64 8 2 61 64 8
          4 62 65 10 6 63
          66 12 8 64 67 14
          8 64 67 14 10 65
          68 16 12 66 69 18
          14 67 70 20 14 67
          70 20 16 68 71 22
          18 69 72 24 20 70
          73 26 20 70 73 26
          22 71 74 28 24 72
          75 30 26 73 76 32
          26 73 76 32 28 74
          77 34 30 75 78 36
          32 76 79 38 32 76
          79 38 34 77 80 40
          36 78 81 42 38 79
          82 44 38 79 82 44
          40 80 83 46 42 81
          84 48 44 82 85 50
          44 82 85 50 46 83
          86 52 48 84 87 54
          50 85 88 56 50 85
          88 56 52 86 89 58
          60 90 93 63 61 91
          94 64 61 91 94 64
          62 92 95 65 63 93
          96 66 64 94 97 67
          64 94 97 67 65 95
          98 68 66 96 99 69
          67 97 100 70 67 97
          100 70 68 98 101 71
          69 99 102 72 70 100
          103 73 70 100 103 73
          71 101 104 74 72 102
          105 75 73 103 106 76
          73 103 106 76 74 104
          107 77 75 105 108 78
          76 106 109 79 76 106
          109 79 77 107 110 80
          78 108 111 81 79 109
          112 82 79 109 112 82
          80 110 113 83 81 111
          114 84 82 112 115 85
          82 112 115 85 83 113
          116 86 84 114 117 87
          85 115 118 88 85 115
          118 88 86 116 119 89
          90 120 123 93 91 121
          124 94 91 121 124 94
          92 122 125 95 93 123
          126 96 94 124 127 97
          94 124 127 97 95 125
          128 98 96 126 129 99
          97 127 130 100 97 127
          130 100 98 128 131 101
          99 129 132 102 100 130
          133 103 100 130 133 103
          101 131 134 104 102 132
          135 105 103 133 136 106
          103 133 136 106 104 134
          137 107 105 135 138 108
          106 136 139 109 106 136
          139 109 107 137 140 110
          108 138 141 111 109 139
          142 112 109 139 142 112
          110 140 143 113 111 141
          144 114 112 142 145 115
          112 142 145 115 113 143
          146 116 114 144 147 117
          115 145 148 118 115 145
          148 118 116 146 149 119
          120 150 153 123 121 151
          154 124 121 151 154 124
          122 152 155 125 123 153
          156 126 124 154 157 127
          124 154 157 127 125 155
          158 128 126 156 159 129
          127 157 160 130 127 157
          160 130 128 158 161 131
          129 159 162 132 130 160
          163 133 130 160 163 133
          131 161 164 134 132 162
          165 135 133 163 166 136
          133 163 166 136 134 164
          167 137 135 165 168 138
          136 166 169 139 136 166
          169 139 137 167 170 140
          138 168 171 141 139 169
          172 142 139 169 172 142
          140 170 173 143 141 171
          174 144 142 172 175 145
          142 172 175 145 143 173
          176 146 144 174 177 147
          145 175 178 148 145 175
          178 148 146 176 179 149
          150 180 183 153 151 181
          184 154 151 181 184 154
          152 182 185 155 153 183
          186 156 154 184 187 157
          154 184 187 157 155 185
          188 158 156 186 189 159
          157 187 190 160 157 187
          190 160 158 188 191 161
          159 189 192 162 160 190
          193 163 160 190 193 163
          161 191 194 164 162 192
          195 165 163 193 196 166
          163 193 196 166 164 194
          197 167 165 195 198 168
          166 196 199 169 166 196
          199 169 167 197 200 170
          168 198 201 171 169 199
          202 172 169 199 202 172
          170 200 203 173 171 201
          204 174 172 202 205 175
          172 202 205 175 173 203
          206 176 174 204 207 177
          175 205 208 178 175 205
          208 178 176 206 209 179
          180 210 213 183 181 211
          214 184 181 211 214 184
          182 212 215 185 183 213
          216 186 184 214 217 187
          184 214 217 187 185 215
          218 188 186 216 219 189
          187 217 220 190 187 217
          220 190 188 218 221 191
          189 219 222 192 190 220
          223 193 190 220 223 193
          191 221 224 194 192 222
          225 195 193 223 226 196
          193 223 226 196 194 224
          227 197 195 225 228 198
          196 226 229 199 196 226
          229 199 197 227 230 200
          198 228 231 201 199 229
          232 202 199 229 232 202
          200 230 233 203 201 231
          234 204 202 232 235 205
          202 232 235 205 203 233
          236 206 204 234 237 207
          205 235 238 208 205 235
          238 208 206 236 239 209
          210 240 243 213 211 241
          244 214 211 241 244 214
          212 242 245 215 213 243
          246 216 214 244 247 217
          214 244 247 217 215 245
          248 218 216 246 249 219
          217 247 250 220 217 247
          250 220 218 248 251 221
          219 249 252 222 220 250
          253 223 220 250 253 223
          221 251 254 224 222 252
          255 225 223 253 256 226
          223 253 256 226 224 254
          257 227 225 255 258 228
          226 256 259 229 226 256
          259 229 227 257 260 230
          228 258 261 231 229 259
          262 232 229 259 262 232
          230 260 263 233 231 261
          264 234 232 262 265 235
          232 262 265 235 233 263
          266 236 234 264 267 237
          235 265 268 238 235 265
          268 238 236 266 269 239
          246 270 273 249 247 271
          274 250 247 271 274 250
          248 272 275 251 249 273
          276 252 250 274 277 253
          250 274 277 253 251 275
          278 254 252 276 279 255
          253 277 280 256 253 277
          280 256 254 278 281 257
          255 279 282 258 256 280
          283 259 256 280 283 259
          257 281 284 260 258 282
          285 261 259 283 286 262
          259 283 286 262 260 284
          287 263 261 285 288 264
          262 286 289 265 262 286
          289 265 263 287 290 266
          264 288 291 267 265 289
          292 268 265 289 292 268
          266 290 293 269 294 295
          296 297 298 299 300 301
          298 299 300 301 302 303
          304 305 306 294 297 307
          308 298 301 309 308 298
          301 309 310 302 305 311
          312 306 313 314 315 308
          316 317 315 308 316 317
          318 310 319 320 321 322
          323 324 325 326 327 328
          325 326 327 328 329 330
          331 332 333 334 335 336
          337 338 339 340 337 338
          339 340 341 342 343 344
          345 346 347 348 349 350
          351 352 349 350 351 352
          353 354 355 356 357 358
          359 360 361 362 363 364
          361 362 363 364 365 366
          367 368 267 369 370 237
          268 371 372 238 268 371
          372 238 269 373 374 239
          375 347 376 322 377 351
          378 326 377 351 378 326
          379 355 380 330 381 382
          383 384 385 386 387 388
          385 386 387 388 389 390
          391 392 393 394 395 396
          397 398 399 400 397 398
          399 400 401 402 403 404
          323 322 405 406 327 326
          407 408 327 326 407 408
          331 330 409 410 411 412
          413 414 415 416 417 418
          415 416 417 418 419 420
          421 422 423 424 425 426
          427 428 429 430 427 428
          429 430 431 432 433 434
          435 436 437 438 439 440
          441 442 439 440 441 442
          443 444 445 446 447 358
          357 448 449 362 361 450
          449 362 361 450 451 366
          365 452 54 87 453 394
          56 88 454 398 56 88
          454 398 58 89 455 402
          456 457 295 294 458 459
          299 298 458 459 299 298
          460 461 303 302 457 462
          463 464 459 465 466 467
          459 465 466 467 461 468
          469 470 456 294 312 381
          458 298 315 385 458 298
          315 385 460 302 318 389
          471 472 473 474 475 476
          477 478 475 476 477 478
          479 480 481 482 483 395
          484 485 486 399 487 488
          486 399 487 488 489 403
          490 491 370 492 359 493
          372 494 363 495 372 494
          363 495 374 496 367 497
          237 370 493 207 238 372
          495 208 238 372 495 208
          239 374 497 209 336 335
          498 499 340 339 500 501
          340 339 500 501 344 343
          502 503 463 334 504 505
          466 338 506 507 466 338
          506 507 469 342 508 509
          510 511 512 513 514 515
          516 517 514 515 516 517
          518 519 520 521 522 523
          524 346 525 526 527 350
          525 526 527 350 528 529
          530 354 531 532 464 505
          533 534 467 507 533 534
          467 507 535 536 470 509
          537 147 177 538 539 148
          178 540 539 148 178 540
          541 149 179 542 523 543
          544 471 526 545 546 475
          526 545 546 475 529 547
          548 479 549 360 550 505
          551 364 552 507 551 364
          552 507 553 368 554 509
          555 313 556 557 558 316
          559 560 558 316 559 560
          561 319 562 563 564 565
          566 492 567 568 569 494
          567 568 569 494 570 571
          572 496 573 574 575 485
          576 577 578 488 576 577
          578 488 579 580 581 491
          582 574 511 510 583 577
          515 514 583 577 515 514
          584 580 519 518 87 117
          348 453 88 118 352 454
          88 118 352 454 89 119
          356 455 504 334 544 543
          506 338 546 545 506 338
          546 545 508 342 548 547
          585 586 587 588 589 590
          591 592 589 590 591 592
          593 594 595 596 574 597
          598 511 577 599 600 515
          577 599 600 515 580 601
          602 519 375 322 321 453
          377 326 325 454 377 326
          325 454 379 330 329 455
          557 556 603 604 560 559
          605 606 560 559 605 606
          563 562 607 608 425 609
          512 610 429 611 516 612
          429 611 516 612 433 613
          520 614 207 493 538 177
          208 495 540 178 208 495
          540 178 209 497 542 179
          615 473 616 426 617 477
          618 430 617 477 618 430
          619 481 620 434 297 414
          621 307 301 418 622 309
          301 418 622 309 305 422
          623 311 492 369 624 564
          494 371 625 567 494 371
          625 567 496 373 626 570
          627 333 336 628 629 337
          340 630 629 337 340 630
          631 341 344 632 360 633
          566 550 364 634 569 552
          364 634 569 552 368 635
          572 554 457 456 636 462
          459 458 637 465 459 458
          637 465 461 460 638 468
          357 360 549 543 361 364
          551 545 361 364 551 545
          365 368 553 547 295 464
          532 296 299 467 534 300
          299 467 534 300 303 470
          536 304 639 314 313 555
          640 317 316 558 640 317
          316 558 641 320 319 561
          471 474 524 523 475 478
          527 526 475 478 527 526
          479 482 530 529 426 610
          406 615 430 612 408 617
          430 612 408 617 434 614
          410 619 504 543 549 505
          506 545 551 507 506 545
          551 507 508 547 553 509
          566 565 642 550 569 568
          643 552 569 568 643 552
          572 571 644 554 610 512
          511 598 612 516 515 600
          612 516 515 600 614 520
          519 602 621 414 645 587
          622 418 646 591 622 418
          646 591 623 422 647 595
          405 474 615 406 407 478
          617 408 407 478 617 408
          409 482 619 410 381 384
          636 456 385 388 637 458
          385 388 637 458 389 392
          638 460 648 499 498 636
          649 501 500 637 649 501
          500 637 650 503 502 638
          616 651 423 426 618 652
          427 430 618 652 427 430
          620 653 431 434 324 597
          573 484 328 599 576 487
          328 599 576 487 332 601
          579 490 642 412 411 531
          643 416 415 533 643 416
          415 533 644 420 419 535
          538 358 447 537 540 362
          449 539 540 362 449 539
          542 366 451 541 524 376
          347 346 527 378 351 350
          527 378 351 350 530 380
          355 354 627 651 616 473
          629 652 618 477 629 652
          618 477 631 653 620 481
          405 322 376 474 407 326
          378 478 407 326 378 478
          409 330 380 482 306 307
          556 313 308 309 559 316
          308 309 559 316 310 311
          562 319 345 117 147 537
          349 118 148 539 349 118
          148 539 353 119 149 541
          414 297 296 411 418 301
          300 415 418 301 300 415
          422 305 304 419 621 586
          603 307 622 590 605 309
          622 590 605 309 623 594
          607 311 544 334 333 472
          546 338 337 476 546 338
          337 476 548 342 341 480
          348 347 375 453 352 351
          377 454 352 351 377 454
          356 355 379 455 531 505
          550 642 533 507 552 643
          533 507 552 643 535 509
          554 644 321 324 484 395
          325 328 487 399 325 328
          487 399 329 332 490 403
          598 597 323 406 600 599
          327 408 600 599 327 408
          602 601 331 410 447 448
          522 537 449 450 525 539
          449 450 525 539 451 452
          528 541 513 512 609 654
          517 516 611 655 517 516
          611 655 521 520 613 656
          604 603 586 585 606 605
          590 589 606 605 590 589
          608 607 594 593 463 462
          335 334 466 465 339 338
          466 465 339 338 469 468
          343 342 438 437 314 639
          442 441 317 640 442 441
          317 640 446 445 320 641
          436 383 382 437 440 387
          386 441 440 387 386 441
          444 391 390 445 393 657
          55 54 397 658 57 56
          397 658 57 56 401 659
          59 58 312 314 437 382
          315 317 441 386 315 317
          441 386 318 320 445 390
          346 345 537 522 350 349
          539 525 350 349 539 525
          354 353 541 528 498 335
          462 636 500 339 465 637
          500 339 465 637 502 343
          468 638 369 267 291 624
          371 268 292 625 371 268
          292 625 373 269 293 626
          358 538 493 359 362 540
          495 363 362 540 495 363
          366 542 497 367 394 453
          321 395 398 454 325 399
          398 454 325 399 402 455
          329 403 587 645 660 588
          591 646 661 592 591 646
          661 592 595 647 662 596
          448 543 523 522 450 545
          526 525 450 545 526 525
          452 547 529 528 472 333
          627 473 476 337 629 477
          476 337 629 477 480 341
          631 481 436 435 663 383
          440 439 664 387 440 439
          664 387 444 443 665 391
          411 296 532 531 415 300
          534 533 415 300 534 533
          419 304 536 535 609 425
          424 654 611 429 428 655
          611 429 428 655 613 433
          432 656 492 566 633 359
          494 569 634 363 494 569
          634 363 496 572 635 367
          393 394 54 397 398 56
          397 398 56 401 402 58
          413 414 645 417 418 646
          417 418 646 421 422 647
          628 627 651 630 629 652
          630 629 652 632 631 653
          117 348 345 118 352 349
          118 352 349 119 356 353
          565 642 412 568 643 416
          568 643 416 571 644 420
          457 295 464 459 299 467
          459 299 467 461 303 470
          463 464 505 466 467 507
          466 467 507 469 470 509
          499 336 628 501 340 630
          501 340 630 503 344 632
          384 636 648 388 637 649
          388 637 649 392 638 650
          492 369 370 494 371 372
          494 371 372 496 373 374
          473 474 615 477 478 617
          477 478 617 481 482 619
          381 382 312 385 386 315
          385 386 315 389 390 318
          471 472 544 475 476 546
          475 476 546 479 480 548
          582 574 575 583 577 578
          583 577 578 584 580 581
          312 306 294 315 308 298
          315 308 298 318 310 302
          524 376 474 527 378 478
          527 378 478 530 380 482
          396 393 657 400 397 658
          400 397 658 404 401 659
          483 395 396 486 399 400
          486 399 400 489 403 404
          357 448 543 361 450 545
          361 450 545 365 452 547
          485 573 484 488 576 487
          488 576 487 491 579 490
          621 586 587 622 590 591
          622 590 591 623 594 595
          324 597 323 328 599 327
          328 599 327 332 601 331
          603 307 556 605 309 559
          605 309 559 607 311 562
          610 425 426 612 429 430
          612 429 430 614 433 434
          360 633 359 364 634 363
          364 634 363 368 635 367
          598 610 406 600 612 408
          600 612 408 602 614 410
          574 597 573 577 599 576
          577 599 576 580 601 579
          672 276 273 666 673 277
          274 667 673 277 274 667
          674 278 275 668 675 672
          666 669 676 673 667 670
          676 673 667 670 677 674
          668 671 720 675 669 721
          722 676 670 723 722 676
          670 723 724 677 671 725
          678 279 276 672 679 280
          277 673 679 280 277 673
          680 281 278 674 726 678
          672 675 727 679 673 676
          727 679 673 676 728 680
          674 677 729 726 675 720
          730 727 676 722 730 727
          676 722 731 728 677 724
          681 282 279 678 682 283
          280 679 682 283 280 679
          683 284 281 680 732 681
          678 726 733 682 679 727
          733 682 679 727 734 683
          680 728 684 285 282 681
          685 286 283 682 685 286
          283 682 686 287 284 683
          735 684 681 732 736 685
          682 733 736 685 682 733
          737 686 683 734 687 288
          285 684 688 289 286 685
          688 289 286 685 689 290
          287 686 738 687 684 735
          739 688 685 736 739 688
          685 736 740 689 686 737
          690 291 288 687 691 292
          289 688 691 292 289 688
          692 293 290 689 741 690
          687 738 742 691 688 739
          742 691 688 739 743 692
          689 740 693 694 564 624
          695 696 567 625 695 696
          567 625 697 698 570 626
          699 700 701 702 703 704
          705 706 703 704 705 706
          707 708 709 710 702 701
          412 565 706 705 416 568
          706 705 416 568 710 709
          420 571 413 701 711 645
          417 705 712 646 417 705
          712 646 421 709 713 647
          690 741 744 714 691 742
          745 715 691 742 745 715
          692 743 746 716 714 699
          702 694 715 703 706 696
          715 703 706 696 716 707
          710 698 694 702 565 564
          696 706 568 567 696 706
          568 567 698 710 571 570
          747 717 748 749 750 718
          751 752 750 718 751 752
          753 719 754 755 699 744
          748 700 703 745 751 704
          703 745 751 704 707 746
          754 708 711 701 700 717
          712 705 704 718 712 705
          704 718 713 709 708 719
          714 694 693 690 715 696
          695 691 715 696 695 691
          716 698 697 692 291 690
          693 624 292 691 695 625
          292 691 695 625 293 692
          697 626 711 717 660 645
          712 718 661 646 712 718
          661 646 713 719 662 647
          714 699 744 715 703 745
          715 703 745 716 707 746
          748 700 717 751 704 718
          751 704 718 754 708 719
          413 701 412 417 705 416
          417 705 416 421 709 420
        </DataArray>
        <DataArray type="Int64" Name="offsets" format="ascii" RangeMin="8" RangeMax="3624">
          8 16 24 32 40 48
          56 64 72 80 88 96
          104 112 120 128 136 144
          152 160 168 176 184 192
          200 208 216 224 232 240
          248 256 264 272 280 288
          296 304 312 320 328 336
          344 352 360 368 376 384
          392 400 408 416 424 432
          440 448 456 464 472 480
          488 496 504 512 520 528
          536 544 552 560 568 576
          584 592 600 608 616 624
          632 640 648 656 664 672
          680 688 696 704 712 720
          728 736 744 752 760 768
          776 784 792 800 808 816
          824 832 840 848 856 864
          872 880 888 896 904 912
          920 928 936 944 952 960
          968 976 984 992 1000 1008
          1016 1024 1032 1040 1048 1056
          1064 1072 1080 1088 1096 1104
          1112 1120 1128 1136 1144 1152
          1160 1168 1176 1184 1192 1200
          1208 1216 1224 1232 1240 1248
          1256 1264 1272 1280 1288 1296
          1304 1312 1320 1328 1336 1344
          1352 1360 1368 1376 1384 1392
          1400 1408 1416 1424 1432 1440
          1448 1456 1464 1472 1480 1488
          1496 1504 1512 1520 1528 1536
          1544 1552 1560 1568 1576 1584
          1592 1600 1608 1616 1624 1632
          1640 1648 1656 1664 1672 1680
          1688 1696 1704 1712 1720 1728
          1736 1744 1752 1760 1768 1776
          1784 1792 1800 1808 1816 1824
          1832 1840 1848 1856 1864 1872
          1880 1888 1896 1904 1912 1920
          1928 1936 1944 1952 1960 1968
          1976 1984 1992 2000 2008 2016
          2024 2032 2040 2048 2056 2064
          2072 2080 2088 2096 2104 2112
          2120 2128 2136 2144 2152 2160
          2168 2176 2184 2192 2200 2208
          2216 2224 2232 2240 2248 2256
          2264 2272 2280 2288 2296 2304
          2312 2320 2328 2336 2344 2352
          2360 2368 2376 2384 2392 2400
          2408 2416 2424 2432 2440 2448
          2456 2464 2472 2480 2488 2496
          2504 2512 2520 2528 2536 2544
          2552 2560 2568 2576 2584 2592
          2600 2608 2616 2624 2632 2640
          2648 2656 2664 2672 2680 2688
          2696 2704 2712 2720 2728 2736
          2744 2752 2760 2768 2776 2784
          2792 2800 2808 2816 2824 2832
          2838 2844 2850 2856 2862 2868
          2874 2880 2886 2892 2898 2904
          2910 2916 2922 2928 2934 2940
          2946 2952 2958 2964 2970 2976
          2982 2988 2994 3000 3006 3012
          3018 3024 3030 3036 3042 3048
          3054 3060 3066 3072 3078 3084
          3090 3096 3102 3108 3114 3120
          3126 3132 3138 3144 3150 3156
          3164 3172 3180 3188 3196 3204
          3212 3220 3228 3236 3244 3252
          3260 3268 3276 3284 3292 3300
          3308 3316 3324 3332 3340 3348
          3356 3364 3372 3380 3388 3396
          3404 3412 3420 3428 3436 3444
          3452 3460 3468 3476 3484 3492
          3500 3508 3516 3524 3532 3540
          3548 3556 3564 3572 3580 3588
          3594 3600 3606 3612 3618 3624
        </DataArray>
        <DataArray type="UInt8" Name="types" format="ascii" RangeMin="12" RangeMax="13">
          12 12 12 12 12 12
          12 12 12 12 12 12
          12 12 12 12 12 12
          12 12 12 12 12 12
          12 12 12 12 12 12
          12 12 12 12 12 12
          12 12 12 12 12 12
          12 12 12 12 12 12
          12 12 12 12 12 12
          12 12 12 12 12 12
          12 12 12 12 12 12
          12 12 12 12 12 12
          12 12 12 12 12 12
          12 12 12 12 12 12
          12 12 12 12 12 12
          12 12 12 12 12 12
          12 12 12 12 12 12
          12 12 12 12 12 12
          12 12 12 12 12 12
          12 12 12 12 12 12
          12 12 12 12 12 12
          12 12 12 12 12 12
          12 12 12 12 12 12
          12 12 12 12 12 12
          12 12 12 12 12 12
          12 12 12 12 12 12
          12 12 12 12 12 12
          12 12 12 12 12 12
          12 12 12 12 12 12
          12 12 12 12 12 12
          12 12 12 12 12 12
          12 12 12 12 12 12
          12 12 12 12 12 12
          12 12 12 12 12 12
          12 12 12 12 12 12
          12 12 12 12 12 12
          12 12 12 12 12 12
          12 12 12 12 12 12
          12 12 12 12 12 12
          12 12 12 12 12 12
          12 12 12 12 12 12
          12 12 12 12 12 12
          12 12 12 12 12 12
          12 12 12 12 12 12
          12 12 12 12 12 12
          12 12 12 12 12 12
          12 12 12 12 12 12
          12 12 12 12 12 12
          12 12 12 12 12 12
          12 12 12 12 12 12
          12 12 12 12 12 12
          12 12 12 12 12 12
          12 12 12 12 12 12
          12 12 12 12 12 12
          12 12 12 12 12 12
          12 12 12 12 12 12
          12 12 12 12 12 12
          12 12 12 12 12 12
          12 12 12 12 12 12
          13 13 13 13 13 13
          13 13 13 13 13 13
          13 13 13 13 13 13
          13 13 13 13 13 13
          13 13 13 13 13 13
          13 13 13 13 13 13
          13 13 13 13 13 13
          13 13 13 13 13 13
          13 13 13 13 13 13
          12 12 12 12 12 12
          12 12 12 12 12 12
          12 12 12 12 12 12
          12 12 12 12 12 12
          12 12 12 12 12 12
          12 12 12 12 12 12
          12 12 12 12 12 12
          12 12 12 12 12 12
          12 12 12 12 12 12
          13 13 13 13 13 13
        </DataArray>
      </Cells>
    </Piece>
  </UnstructuredGrid>
</VTKFile>
