<?xml version="1.0"?>
<VTKFile type="UnstructuredGrid" version="0.1" byte_order="LittleEndian" header_type="UInt32" compressor="vtkZLibDataCompressor">
  <UnstructuredGrid>
    <Piece NumberOfPoints="795" NumberOfCells="454">
      <PointData>
        <DataArray type="Int32" Name="libmesh_node_id" format="ascii" RangeMin="2220" RangeMax="4979">
          2220 2221 2222 2223 2224 2225
          2226 2227 2228 2229 2230 2231
          2388 2389 2390 2391 2392 2393
          2394 2395 2396 2397 2398 2399
          2402 2405 2408 2409 2410 2411
          2463 2464 2465 2466 2467 2468
          2469 2470 2471 2472 2473 2474
          2475 2476 2477 2478 2479 2480
          2499 2500 2501 2502 2503 2504
          2505 2506 2507 2508 2509 2510
          2511 2512 2513 2514 2515 2516
          2517 2518 2519 2520 2521 2522
          2613 2614 2616 2617 2618 2620
          2621 2622 2624 2652 2653 2654
          2655 2656 2657 2658 2659 2660
          2661 2662 2663 2697 2701 2705
          2721 2722 2723 2724 2725 2726
          2736 2737 2738 2739 2740 2741
          2742 2743 2744 2745 2746 2747
          2748 2749 2750 2751 2752 2753
          2754 2755 2756 2757 2758 2759
          2760 2761 2762 2763 2764 2765
          2778 2779 2780 2781 2782 2783
          2784 2785 2786 2862 2863 2864
          2865 2866 2867 2868 2869 2870
          2871 2872 2873 2922 2923 2924
          2925 2926 2927 2940 2941 2942
          2943 2944 2945 2946 2947 2948
          2958 2959 2960 2961 2962 2963
          2964 2965 2966 2967 2968 2969
          2992 2993 2996 2997 3000 3001
          3018 3019 3020 3021 3022 3023
          3036 3039 3040 3043 3044 3047
          3060 3061 3062 3063 3064 3065
          3066 3067 3068 3069 3070 3071
          3072 3073 3074 3075 3076 3077
          3180 3181 3182 3183 3184 3185
          3204 3205 3206 3207 3208 3209
          3240 3242 3244 3258 3260 3262
          3273 3274 3275 3276 3277 3278
          3279 3280 3281 3282 3283 3284
          3285 3286 3287 3288 3289 3290
          3291 3292 3293 3294 3295 3296
          3297 3298 3299 3348 3349 3350
          3351 3352 3353 3354 3355 3356
          3357 3358 3359 3360 3361 3362
          3363 3364 3365 3369 3370 3371
          3372 3373 3374 3399 3400 3401
          3402 3403 3404 3405 3406 3407
          3408 3409 3410 3411 3412 3413
          3414 3415 3416 3417 3418 3419
          3420 3421 3422 3462 3463 3464
          3486 3487 3488 3489 3490 3491
          3507 3508 3509 3510 3511 3512
          3527 3530 3533 3534 3535 3536
          3555 3556 3557 3558 3559 3560
          3561 3562 3563 3579 3580 3581
          3594 3595 3596 3597 3598 3599
          3603 3604 3605 3606 3607 3608
          3621 3622 3623 3624 3625 3626
          3627 3628 3629 3642 3643 3644
          3645 3646 3647 3648 3649 3650
          3651 3652 3653 3669 3670 3671
          3672 3673 3674 3675 3676 3677
          3678 3679 3680 3681 3682 3683
          3750 3751 3752 3753 3754 3755
          3756 3757 3758 3759 3760 3761
          3780 3781 3782 3783 3784 3785
          3909 3910 3911 3912 3913 3914
          3915 3916 3917 3918 3919 3920
          3951 3952 3953 3966 3967 3968
          3975 3976 3977 3978 3979 3980
          3981 3982 3983 3984 3985 3986
          3987 3988 3989 3990 3991 3992
          4008 4009 4010 4011 4012 4013
          4014 4015 4016 4017 4018 4019
          4020 4021 4022 4023 4024 4025
          4026 4027 4028 4029 4030 4031
          4041 4042 4043 4044 4045 4046
          4047 4048 4049 4050 4051 4052
          4068 4069 4070 4080 4081 4082
          4092 4093 4094 4095 4096 4097
          4098 4099 4100 4101 4102 4103
          4122 4123 4124 4125 4126 4127
          4146 4147 4148 4149 4150 4151
          4152 4153 4154 4155 4156 4157
          4158 4159 4160 4173 4174 4175
          4176 4177 4178 4179 4180 4181
          4182 4183 4184 4188 4189 4190
          4194 4195 4196 4197 4198 4199
          4200 4201 4202 4203 4204 4205
          4218 4219 4220 4221 4222 4223
          4230 4231 4232 4266 4267 4268
          4281 4282 4283 4299 4300 4301
          4305 4306 4307 4308 4309 4310
          4311 4312 4313 4335 4336 4337
          4341 4342 4343 4395 4396 4397
          4455 4456 4457 4473 4474 4475
          4476 4477 4478 4515 4516 4517
          4578 4579 4580 4581 4582 4583
          4614 4615 4616 4704 4705 4706
          4707 4708 4709 4710 4711 4712
          4713 4714 4715 4737 4738 4739
          4740 4741 4742 4821 4822 4823
          4842 4843 4844 4845 4846 4847
          4854 4855 4856 4857 4858 4859
          4860 4861 4862 4863 4864 4865
          4866 4867 4868 4875 4876 4877
          4878 4879 4880 4908 4909 4910
          4914 4915 4916 4932 4933 4934
          4941 4942 4943 4977 4978 4979
          2400 2401 2403 2404 2406 2407
          2615 2619 2623 2698 2699 2700
          2702 2703 2704 2706 2707 2708
          2991 2994 2995 2998 2999 3002
          2331 2330 2335 2334 2339 2338
          3241 3243 3245 3259 3186 3188
          3261 3189 3191 3263 3192 3194
          3448 3450 3452 3525 3526 3528
          3529 3531 3532 3537 3538 3539
          3540 3541 3542 3654 3657 3660
          2328 2332 2336 3852 3853 3854
          3993 3994 3995 4338 4339 4340
          3513 3514 3515 4458 4321 4459
          4324 4460 4327 4584 4585 4586
          4587 4588 4589 4791 4792 4793
          4794 4795 4796 4797 4798 4799
          4431 4432 4433 3495 3187 3499
          3190 3503 3193 3954 3957 3958
          3961 3962 3965 4899 4900 4901
          4968 4969 4970 4911 4912 4913
          3498 3502 3506 4902 4903 4904
          4434 4436 4438
        </DataArray>
        <DataArray type="Float64" Name="resid_x" format="ascii" RangeMin="-0.0314286173625673" RangeMax="0.020618731368892362">
          -0.000271202858563413 0.0003489324685181927 0.0005923353616035243 0.0007446607434236086 -0.0009844884171306134 -0.00044151590626473336
          -0.0011411965217043019 -0.0017442608366540213 -0.006887595862346885 -0.004329009209994794 -0.00491602852239037 -0.00609189103600194
          -0.00018368961194337174 -0.0029143826780018145 -0.0028348324156111104 -0.0010587978222211802 -0.0017378449132730012 -0.009863235778304613
          -0.0075158310400462724 -0.007952743285562391 -0.013235624757056641 -0.014842277403494641 -0.013568729704412696 -0.01610934252467544
          -0.01662752616076979 -0.024930402393035678 -0.01753194159097049 -0.01633691591772468 -0.020682029789089285 -0.014506877347626457
          -0.002018763432189097 -0.004293128198066487 -0.0008071237724216473 -0.005370458994101823 -0.002810979987243112 -0.005204761756993359
          -0.0004206792074510357 0.00046509771599767546 0.0009579568174835629 0.0006349716834559427 -0.001389015910837621 -0.001436263489906775
          -0.002261047883760803 -0.0022789574911148414 -0.00661135863097817 -0.008954027416697485 -0.006578443505343756 -0.0043474057088443985
          0.0006547072822415956 0.0005572397549329366 0.0005974220378544004 0.000551078925805637 0.0007498207596787765 0.0006181194050549621
          -0.00019809552784355589 0.00010755987600230554 -0.0031086476541206665 -0.0031325900555696506 -0.0028038557354914673 -0.002769666172889096
          -0.000003605707505016653 0.000030311747027056413 0.00032494136447791533 0.00036057709745573874 -0.0007238471392407853 -0.0025106197824333876
          -0.0010483194335639823 -0.0009591504762749281 -0.005116462643176778 -0.006788062936542438 -0.005251911997967262 -0.0051382896440790304
          -0.0013019319313007927 -0.0058850154259828535 0.00008643548025055736 -0.0042828096861118325 -0.01289365267330167 -0.008080142142750546
          -0.011145473343894707 -0.011757882185470692 -0.016749905625222716 -0.0020341816120454936 0.0004421117915107686 0.0004114793555881624
          0.0009755263088289112 -0.005137632457299368 -0.0028533359717641815 -0.001463493562216922 -0.003634594412618597 -0.015410374033308472
          -0.009874624979052449 -0.015353217335334512 -0.016683799519426223 -0.01692194529342128 -0.025359514556974272 -0.019127141934055736
          -0.0028822660967060543 -0.0021486144680356034 -0.002793737256189255 -0.0013379280728962328 -0.0045591655725993885 -0.0035809332130121163
          -0.0008955753496184826 -0.0026557797663118166 -0.00018005964016776232 -0.0011419746098484396 -0.00168706632526483 -0.0005773294836997067
          -0.004183363261033968 -0.004936656071566681 -0.0059829159221669315 0.0005829557972116817 0.0012236538138008513 0.0003153635692587642
          0.0007928735967865363 0.00034196345390097305 0.0016311408493105972 -0.001629402671946778 -0.0011607730957328144 -0.0033979892002687917
          -0.003912300668481805 -0.007458408286153073 -0.0059599715539132014 0.00015582627937682503 -0.0005584368832276532 0.00010617481367525272
          0.00017526922736621486 0.00010683807745204277 -0.0006874031157888538 -0.0029675245541396222 -0.0023034177379854803 -0.003395309544657721
          -0.0011681487626464815 -0.0026545276472624835 -0.0009982758559630156 -0.00034602693713470245 -0.0013163708900156834 -0.00032511556690195675
          -0.0015674937196115124 -0.003180419929218914 -0.004647372430663488 -0.0003221601571192778 -0.0005061292930270689 -0.00021329648881524
          -0.0028447308228911616 0.0008003519562533867 -0.0007821346213687796 -0.000852785930998648 -0.002976179371454446 -0.0056097936560814965
          -0.004176052280571163 -0.006083068434980465 -0.010066145583364161 -0.0005933817085121973 -0.0020092672834683967 -0.0010621117663163204
          -0.004861142918691996 -0.012725753968530817 -0.014818281953335344 -0.001144070786311957 -0.0005035294070649954 -0.004559493687840366
          -0.001378480587801434 -0.002383611555272225 -0.0022953480871272802 -0.007970321295300842 -0.006441337873774877 -0.003813675099879177
          0.0002318247041133148 0.0008887559399806122 -0.0019928797244954666 -0.004083783110232275 0.001481565769545945 0.0013201003775158426
          -0.0024340472641357636 -0.0026018307202893 0.0007233044630474694 -0.0005606601715042459 -0.0042729265690582 -0.004120919964784697
          -0.003133987571448671 -0.0019689318329083605 -0.00568771795486267 -0.0036665085813338827 -0.003310967397550435 -0.003559282447399781
          -0.001878127525435147 -0.003391845832001472 -0.00029986218418631694 -0.002356149407987118 -0.007674597421750029 -0.005343062574328705
          -0.0076135438450233295 -0.007135038060400056 -0.009208049051615319 -0.009375816597838593 -0.006247835194308493 -0.006927753197753184
          -0.0058866935776009655 -0.004707976691324056 -0.005328661057233397 -0.0030895716445284993 -0.011879216795768421 -0.010225587616810472
          -0.0066919976347259436 -0.0011925804744117308 -0.00416730424782763 -0.003630706773810388 -0.001141772408938202 0.0010853203591643101
          -0.002452385714235561 -0.0017885104983550448 -0.0016339113748946588 -0.004340992142813249 -0.012390344115551066 -0.014213401737542597
          -0.005686883024125067 -0.010383892598884614 -0.0031793519495044165 -0.019294161252784825 -0.011002698918668397 -0.018674403704727283
          -0.00551265693953118 -0.010702500831039075 0.0001929846034514071 -0.020148192843134183 -0.00879251386990898 -0.018297512026694385
          -0.007731513150888603 -0.006584310696284845 -0.0037906303013865994 -0.005857374992425335 -0.011704521585756744 -0.008978211359160326
          -0.012934227685638788 -0.008618174629723363 -0.009848083651140982 -0.004726266738775742 -0.009596884222523805 -0.015125259679876102
          -0.006199749029027757 -0.0015319159542377392 -0.007202567214925182 -0.0061587806296765635 -0.004411488899569882 -0.003487679935061827
          -0.002652406977231514 -0.0022167275883964166 -0.0043693070310033555 -0.0018505230081216628 -0.0013173675742716995 -0.0030881372333788626
          -0.003989589657779735 -0.005679475971914094 -0.00843487477465965 -0.005743212379976714 -0.004381299602328248 -0.003768806457489282
          -0.0020469866312771146 -0.007658930811882403 -0.009392445088291623 -0.004321632206717219 0.0011719372223648605 -0.00075176318204484
          -0.00016513452698241338 0.00017354736611530086 -0.002305798849107532 -0.0024821916760870977 -0.0007365391089058093 -0.0002880367380413418
          -0.004926182641344923 -0.0033254450454700546 -0.004166960105245643 -0.005943912093409054 -0.009121255385009519 -0.007144343214529947
          -0.011057615572082291 -0.003971691095393304 -0.0089837433930402 -0.00922825529135185 -0.0007571700019886052 -0.0038414378335795973
          -0.02276405008291782 -0.02595538691193422 -0.014939038942512362 -0.005815277824664733 -0.0015048613567634206 -0.0013891385864228667
          0.00026180634088834864 -0.004339191659034292 -0.0011444349645586271 -0.003963980780802956 -0.00492394536506513 -0.001361028325190361
          -0.000009660335810401932 -0.0012051924429492544 -0.00191741247041044 -0.005611663456177141 -0.006668111021703282 -0.0015709829731012093
          -0.0013531852912604947 -0.007994800176383876 -0.007041073779212592 -0.005595548602045142 -0.003916233923447088 -0.0030606305944411716
          -0.0017694242341770305 -0.003388445443972543 -0.0024097828411413502 -0.005363904757806903 -0.0023929033646479247 -0.00831942387296225
          -0.005183789062924049 -0.006544408381496503 -0.0009652314323442823 -0.0008796846779777212 -0.0007387581802564824 0.00001681453301771718
          -0.0034636510240799723 -0.003734949532590459 -0.0009546107033348017 -0.002265881040078188 -0.002689133319556891 -0.002992143394185298
          -0.012468909547572071 -0.021422114504257905 -0.017285993506451547 -0.009870144443074658 -0.002241912918941047 -0.009826386846761181
          -0.0018682081674221696 -0.0022976908814520414 0.0001806097465040235 -0.0012509616961562386 -0.0021501877440563977 -0.0014456324243488083
          -0.009059224437864444 0.00008109291022861953 -0.008387548796075173 -0.008257543841984294 -0.0028046615904298022 -0.004307385497781091
          -0.017748688309925598 -0.019636178856485387 -0.001291863218064293 -0.002472568597359448 -0.010424686872987365 -0.009005518303345283
          -0.008405194954050899 -0.003960162568024117 -0.0019458783441672622 -0.0013467394231980734 -0.007201560550837538 -0.008643419038219413
          -0.0038628043341528695 -0.0026240030937554337 -0.004259818320136333 -0.0014570006220493426 -0.001085993775256533 -0.0022523854335814164
          -0.0027045645238619187 -0.0023267719171427004 -0.0033166771174455434 -0.0020599879734648496 0.000016165001861079276 -0.0021299923394559883
          -0.005199648399904611 -0.0017429127187593707 -0.0008264890372977618 -0.0019125086511051492 -0.007280371572172761 -0.010017453363177609
          -0.00669901164461173 -0.009004687041447745 -0.014315749854199922 -0.00023989300949267545 -0.0006681773739085628 -0.0029844470976119197
          0.0006275137512634643 -0.0023208655472917172 -0.0009618189039333203 -0.009429455376334772 -0.0026574243736359193 -0.011372017820008296
          -0.012138344100355525 -0.01393161792705122 -0.012869591533599234 -0.01622739748141644 -0.004813965917406016 -0.01249093792614353
          -0.0024705022173252544 -0.0038234631631972604 -0.000754970792340881 -0.0022153406324072478 -0.010222673558578865 -0.010529940750173772
          -0.006014151573794813 -0.01000428563202771 -0.008692733729501079 -0.020795550133058782 -0.012615916837241059 -0.013527588619536068
          -0.001960698372793779 -0.004564679710374303 0.00010201808756526987 -0.0017148734722582382 -0.009277476271113194 -0.012624561137187795
          -0.00633459590081209 -0.00967012378465082 -0.0019259288745256953 -0.0059878167144225 -0.012481763752608899 -0.013057958810900772
          -0.0062848396093704295 -0.004643060300935531 -0.002299496941807533 -0.002010444012422674 -0.012909629115074317 -0.010075022501701003
          -0.014263729988964968 -0.005768735126434166 -0.009066876078917652 -0.011810297201171771 -0.003684823462652087 -0.009797665331665595
          -0.0006512676485339597 -0.0029459393917230514 -0.005648785514248633 -0.004308507385959004 -0.0005509606394866751 -0.0026640701194642347
          -0.005522289421275861 -0.002919337030421687 -0.006553889929278078 -0.003789072651771974 -0.008970678903486018 -0.008954735685255955
          -0.01610750701953556 -0.005560756631366459 -0.025573785105704072 0.0008085406707536436 -0.0184135139427668 -0.00667426317595865
          -0.008268351325188661 -0.004466606985200627 0.00016051992239329849 -0.005779552308022851 -0.017466766285274105 -0.0098313048709322
          0.00029510692449363773 -0.011906910095147438 -0.010690732996597063 -0.008483366833452521 -0.0027460119373010627 -0.007727279360586259
          -0.013746834558241439 -0.009799073954480875 -0.011126520139910667 -0.0161460769991848 -0.016217654494425915 -0.014378699333008171
          -0.01223983481916413 -0.009836417958450028 -0.010050119627153187 -0.013436379596787784 -0.0072420675641815535 -0.019247121130833378
          -0.005436166462452263 -0.0040108867521063685 -0.003958478887665429 -0.0010988939124235708 -0.004056304586885773 -0.001234300127948229
          -0.010890973043879981 -0.007660709118374243 -0.00387887196288883 -0.00353175692158203 -0.011744212312462032 -0.008837298075306421
          -0.007620133370013882 -0.001368622116888929 -0.009410606119340414 -0.017853819763333334 -0.0017830163018928147 -0.005297840007211008
          -0.006995698345706014 -0.004246491479342751 -0.0011198067144211343 -0.0033296577899415425 -0.007772200911951188 -0.005121840405961642
          -0.008388116577387805 -0.008475352631020172 -0.004067929679179905 -0.012983212540971678 -0.005393960093623029 -0.00820788304135256
          -0.00687998197363715 -0.005535051177490757 -0.011222992843571866 -0.009632101118139502 -0.007539310497842067 -0.006549984596177616
          -0.004388766405801547 -0.002116880833422208 -0.0020849570323919764 -0.007144384604255372 -0.0011180379151713993 -0.003411987261475069
          -0.00532567897942382 -0.003786265418646906 -0.0030065214732015733 -0.004534378561778851 -0.004685405836922563 -0.0030663363411953526
          -0.0027950648470662642 -0.005169531800922833 -0.0058376753927804614 -0.007601841732673975 -0.005840613996356492 -0.004642297975110843
          -0.0035553519891222685 -0.007327170685445417 -0.00730400107739726 -0.0017725194031275038 -0.000763016176925646 0.00014423186113532438
          0.00025607780899772337 -0.003045755835870523 -0.0012412231093410497 -0.010159645829229902 -0.010718599418067853 -0.010484287922927216
          -0.0006831678343726111 -0.00011508047386232789 0.009933333521717103 0.010186935987102963 -0.0007432132467202202 -0.0017213062098004883
          0.01844198396949448 0.019371578161619496 -0.003192585052742558 -0.004028710621976295 0.007638933981892748 0.007636862805419753
          0.008602060215214813 -0.0018797185797412297 0.020618731368892362 0.0010415031550978782 0.007014539226792849 -0.002165481406511738
          -0.0030379212455091675 -0.00007181316390791892 -0.0020119292910854014 0.0010454753796382832 0.003701267563869237 -0.000009943466128703449
          -0.004156388682644341 -0.00041753051433079946 -0.006830308020608911 -0.01156562856020038 -0.008840270540456885 -0.013485755768285479
          -0.00734515981695294 -0.0023956226125467772 -0.007670622040093722 -0.003594529026079485 -0.0017237407670398497 -0.0011053862984899965
          -0.00038987309852922536 -0.004488738987710406 -0.002791478338132425 -0.005136639008368249 -0.001411003311005743 -0.004558772090458518
          -0.015316056950237744 -0.014523621230006611 -0.0034123762359614673 -0.016543859812482964 -0.021514499236019446 -0.016161880291777564
          -0.015428618817918682 -0.010219227323822189 -0.008526993268301197 -0.018850939244431153 -0.013984409758990957 -0.0238991801000088
          -0.017486667099475994 -0.018652690216595325 -0.015431484659559125 -0.01981619470794893 -0.005771488702485339 -0.008382448906190554
          -0.007910186146655285 -0.004091329089679796 -0.009178836549700087 -0.0035251218734417833 -0.001043677351776573 -0.0020743882502829436
          -0.0076069799146942785 0.0016766715054723491 -0.004710093551942407 -0.014603953984903661 -0.016607817507333422 -0.007484109828864938
          -0.01741950532534453 -0.017729567922905254 -0.006968835977558818 -0.00401288565898561 0.007690707501362581 -0.009816782883731001
          0.00809159964519246 -0.0015264637930600955 0.015383032884155767 -0.001998347548362034 0.003038393870440359 -0.00021913709447440866
          0.007298322810381563 -0.0038494168756404434 0.0019110742716117457 -0.005538448024857701 -0.0021921983634634046 -0.0039259991480173895
          -0.00827418543488534 -0.011360379976861346 -0.007131180525147052 -0.019173002946883066 -0.0314286173625673 -0.01734705669417469
          -0.006476633008364985 -0.001728016489881412 -0.0001331997384230732 0.002924218907019771 -0.003564921338215399 -0.0002404231121468925
          0.006619692435484215 -0.001534819137667398 0.007482876434032448 0.013286102669039845 -0.0011096188385080197 0.014892756935050322
          0.004694691412687746 -0.003218161522699603 0.0044597463861846265 0.006768162241456377 -0.004956571462415127 0.01688084317830718
          -0.0027219970559988482 0.006882537502390207 -0.003149279727063359 -0.004167926140356215 -0.001639927953670739 -0.0028793555737256504
          -0.004561081926503174 -0.0029240940986090536 -0.004405167070114402 0.0031094442932309008 0.009799562296138209 0.003605262966873468
          -0.02223244858703355 -0.026909471360851978 -0.016478533089277825 -0.005387123790265402 -0.00007066936316091343 -0.0024397816436696473
          -0.01687543559603366 -0.003500305166528328 -0.023717224846659946 -0.005267509634420797 -0.018395781312984028 -0.00942412095942835
          -0.012498312299476844 -0.013477230144674834 -0.019072567425097553 -0.007928980324694024 -0.00999389463852296 -0.004242043443089649
          -0.015233305867717206 -0.006289278721558489 -0.0013924659076156587 -0.015076168403332701 -0.01339796080977873 -0.008183960150497605
          -0.00289060055995094 -0.0018814013361945214 -0.0014541824955358607 -0.0034572890619326557 -0.0014877296688222685 -0.0009496273344629103
          -0.009245872733744553 -0.00006545938374191707 -0.02470049597145385 -0.004931301694149681 -0.019500989106795652 -0.014006741560587344
          -0.003903449445863849 -0.008602644356564326 -0.0032868232142639897 -0.016091333230797922 -0.013447320223281878 -0.016413816772295142
          -0.014469473897074536 -0.00897384975266391 -0.02959948628100051 -0.008501462844217933 -0.015389815292011555 -0.01433874485650577
          -0.010121591943639707 -0.0051941050188295534 -0.012701886200515933 -0.009485844762997075 -0.014796326762050782 -0.02158915212148571
          -0.023796877573648345 -0.017834692679604913 -0.016879735973493126 -0.01764513002333956 -0.015933115641054485 -0.017337806181625837
          -0.009205992181048117 -0.008781496610572148 -0.00742472469578459 -0.007320420099608427 -0.01615209079124824 -0.01539857641767739
          -0.006787378761261564 -0.0158846498888785 -0.015119397814385316 -0.004699569237311962 -0.008165234121511489 -0.003927083528937558
          -0.009462019048618764 -0.009452052999328053 -0.011809004319993655 -0.0034339248092045693 -0.003717339394396113 -0.010372820038131003
          -0.011328071343352342 -0.006447218486316686 -0.010896996522389735 -0.010874653151628166 -0.009093832220560927 -0.021842844415814966
          -0.020192587445350796 -0.01858847852828749 -0.018893212120222103 -0.0059521880282655815 -0.004233549059451391 -0.009164995986871816
          -0.007363146825873912 -0.0031663050182775265 -0.002433552165723718 -0.007041224559252157 -0.005668549218885488 -0.0037234080483026233
          0.015239699104802717 0.0025767920767396646 0.00915989292770547 -0.00464117369695316 0.013851048213288308 -0.0012814877622542298
          -0.013939480580412056 -0.013446726596811232 -0.01004409576302967 -0.009681038392084673 -0.020205065216755358 -0.021832662029311223
          -0.023326034116895045 -0.015060019164760519 -0.01226833883588796 -0.011643857601082885 -0.01661843576025923 -0.0254372686984361
          -0.02404431540972407 -0.017490993087079687 -0.013134193872524236 -0.007575270531098965 -0.0015470229048943906 -0.00605158085798152
          -0.01536158848101632 -0.020973636208312385 -0.013898716875495598 -0.013790809505231039 -0.014717349173373862 -0.008876547573498428
          -0.0067766703502805115 -0.019514849797733547 -0.014846000778243607 -0.02013216444245458 -0.02634141493744835 -0.01691814988309126
          -0.01310606961725469 -0.02663490256696832 -0.020008712758944114
        </DataArray>
        <DataArray type="Float64" Name="resid_y" format="ascii" RangeMin="-0.013242849152692304" RangeMax="0.017156672878064744">
          -0.00017134121426896215 -0.000027119017002422835 0.00003413258914019418 0.000257047966517333 -0.0004738074619247759 -0.0006920341788622004
          0.00042688816241137975 -0.0008820712226190028 -0.0011497418426016093 -0.0007524550200111377 -0.0006231145461016822 -0.0020611886247039884
          -0.000014422994845136872 0.0028196228773481186 0.004507253989400245 0.0038450451208035807 -0.00015096257881540287 0.006123261750263467
          0.01064573174771763 0.012732813292173573 0.00454614300012153 0.006061950986707289 0.00874744578224787 0.010697783972936498
          0.009080825338208934 0.017156672878064744 0.010566815009620006 0.009714397019276483 0.012342916098448564 0.006849450116969719
          0.001098150815612986 0.0010428316898700388 0.0002933629443108987 -0.0010200435055823876 -0.0010612106308230812 -0.002270365693016337
          0.00013648068334023294 0.00006545692637872913 0.00010494101283137214 0.00003433011307014955 0.0005009805935945882 -0.0008249610712100508
          0.0010140785531233543 0.00026506518293159184 0.00047465144838933215 0.00040514514699160203 0.00039840214826217246 0.000249810383529267
          -0.000050277534488385456 -0.00005294441891220275 -0.0000873838123668369 -0.0002082247519130942 0.0002540817027955333 0.00003560624203988866
          0.0001949510509926533 -0.00036281105302053696 0.0007950669585513048 0.0007438484078642199 0.00041550946679010103 0.00020833695871341762
          -0.0000019272014898791268 -0.0001467921672749506 -0.0003576616560882484 -0.000123004100484575 0.00031320000311031715 0.0001895455436491389
          -0.00016354856104049131 0.001426200335145511 0.0016005711350510765 0.0015232350012402002 0.0009203578502398335 0.002066950655548086
          0.002331713860465894 0.0014162632701532618 0.0016368021590625337 0.00454637831735934 0.0029337203542127988 0.0036974041577983036
          0.0031647878783049345 0.003269417339781311 0.002826475570526399 -0.0010433431373995002 -0.0004829144934775445 -0.00032507198381789837
          -0.00035665488005866275 -0.001638222803219559 -0.0002844197339653548 -0.00028547175351875675 0.003187758377172098 0.004277616994451949
          0.00300303547641758 0.005888077174519141 0.008032323651845238 0.007941064136741671 0.015342178693365072 0.00992512932082723
          -0.0015788996073667766 -0.0018316073083329346 -0.0006287991017687004 -0.0008308950373207002 -0.0011237710998461764 -0.001504669964513039
          0.0005134865823825108 0.0003945420878695427 0.0005824455229325731 0.00008572883094290495 0.0007553720239542316 -0.00008253562580978757
          -0.0002666804853399818 0.0001752947006326555 -0.000439336707827781 -0.0003864419790424699 -0.00024167214974125766 0.00018333712912636455
          0.00008131432497146193 -0.0012127390776371268 -0.00025968634865438864 -0.00038443508121278544 -0.0005834063541883851 -0.0019909649592908243
          -0.0007556331561564319 0.0002108745788551962 -0.0007713296266731186 -0.000006957645724257194 0.00025614810465414417 0.00040788192217976194
          -0.0003552911725103053 0.00001837045121144687 0.0001860680625600658 -0.00039152183482601965 0.000021875365419518622 0.00020965186588488283
          0.0001124421359260594 -0.000010404037152062992 0.000005958689497514991 0.00007227667633618456 0.00026067993163339347 0.00023258407433496275
          0.00020696936546069772 0.0003656199962761286 0.0009205629477261335 0.000624868452579445 -0.00047059714694718674 -0.00006581535024039256
          0.0017121516286557475 0.00035335299908153227 -0.0004649203550085787 0.00005229835366306161 0.002201239043410505 -0.000019254027777925592
          0.00020866133206545734 0.0016711640873656487 0.0030655742897335546 0.0020876727841876927 0.004522927734635182 0.0009393929407209706
          0.001876086307028818 0.004766944070840884 0.004747042552971634 0.001122650309953649 0.0012543628544959273 0.0002331656231449597
          0.001424293837612084 0.0005518472544207009 -0.000743617743265812 0.0006287327562234379 -0.0014781604621125766 -0.0012644843863576505
          -0.0009131481655789836 -0.0003016595844920339 -0.0019020426318780426 -0.0012283170125169246 -0.00045495975463701044 -0.00023578192367504358
          -0.002136905493328241 -0.0012728076951685624 -0.0014112493981398022 -0.0009759861549799576 -0.0017194582842761236 -0.0014395935004211796
          0.0003968544865637219 0.0016882287059836742 0.0000676811524358556 0.0031700357059473994 -0.00024150575925463436 -0.00023037232871353508
          -0.0011317842877870549 -0.0008007032948945669 -0.0007622765832785983 -0.00009062462813072547 -0.0006189429907440397 -0.0007540900316318766
          0.0069715032401571515 0.0027347733687071614 0.0036664657896537944 0.0017980784122322915 0.0033454482145773706 0.0031872768246429574
          0.0012507374735578336 -0.0005896328253777753 -0.0013581863282073545 0.0006723344145289079 0.0025744553852735663 -0.002562280713915203
          -0.0046270841124465625 0.0000629177072267173 -0.00026051176780939045 -0.0022522496800458057 -0.004155817777107371 -0.001519288481274611
          0.002442545893715717 -0.0017446842566544163 0.00045133929885543544 -0.0009657158303540414 0.0011193526369108822 0.0014963578355771112
          0.005187874354695449 0.0024570289653505044 0.0034039109585939087 -0.0010960078253850342 0.005426289507852788 0.002706555592319377
          0.004211123131142233 0.0006346133629173169 -0.00009974309323204644 -0.004554979572586368 0.003802485784646547 0.0009253297368592081
          -0.002375115120063248 0.0012533843050068338 -0.00029163764045835733 -0.0005021724276744743 -0.0010641207395478136 -0.0032016892421473653
          0.0005982174393199258 -0.00023755312991738387 0.001873197996349052 -0.00009313200139876576 0.003077157820869203 0.0017780872808457193
          0.0021837460702366918 0.0003461586081731083 0.0024122050795680194 0.0002513354726135786 -0.0015817143713085513 -0.001314331931668189
          0.0005052196451267692 -0.000023784241948151402 0.002046159777647716 0.0001949439279391946 0.00004388259503921091 0.0011103216911866852
          0.00018132646866377 0.00011393561339476284 0.0016891533542152531 0.0011618731142466199 -0.0002662574406056689 0.0016963272125926493
          -0.000283932063916692 0.002763885075885139 0.0035737194926148096 -0.001564795807472985 -0.0008354675138875223 -0.0024998333922471028
          -0.0000310019929659032 -0.0003286739176525588 -0.0005993670525126678 0.00029625913629287987 0.000566058377392765 0.0011294463279781786
          0.0003215935325321939 0.0010809696659432808 0.002984236512332968 0.004368601087401508 0.0028543536791241185 0.0030376765713290566
          -0.0012300632397203304 -0.00132390008479763 0.0011713419491052035 -0.0024961026900388594 -0.002210136312881583 -0.003944677019808718
          0.0008153778188152438 0.0019835570655913903 0.000902483186877856 -0.001255714087114751 0.0003657560658878109 -0.0004940631371700491
          0.0006985510425059835 -0.0017979030384656799 -0.0004671239787489307 -0.0020038908583931703 -0.0015096904599906091 -0.0007107663669001785
          0.0003375856026736068 -0.0020503370788229336 -0.0026053662177241144 0.0019525146440142471 0.00028991446991426945 0.0007847143353849548
          -0.0005372046979608275 0.0029141349886128293 0.0023849359821325744 -0.00321673556773819 -0.0026859470017273675 -0.0011015753161802543
          -0.0005956793486303963 -0.0010380019600732572 -0.0012533635780197644 0.001418172413449787 0.0005165742001236109 0.0016888858392526546
          -0.0022774003583831207 -0.002172377540190458 -0.0007952534957607615 -0.000018094993398616588 -0.0011077799770921465 -0.0005258536600624419
          -0.0017027452683619436 -0.0009667392682732355 -0.0009485004288866543 -0.0005278531368017885 -0.000807519192945947 -0.0004725473154366215
          0.0012583552309741782 -0.001646869453185252 0.002318722828163984 0.002017120270690592 0.0005492947825317118 0.001547882644922366
          -0.0005230754837391854 -0.0005895431347847924 -0.0005415102174352246 -0.00016364546653877682 -0.000492299916882516 -0.00017031235405759113
          0.00441748384679088 0.0003138871430917456 0.003129607785918802 -0.0035690627431838595 -0.00035643478652602756 -0.0034815763002503664
          0.0035219134221211174 0.0037736045443816507 0.00020731386329740642 0.0011344945424624012 0.00265880407324931 0.0023686367006073017
          0.001654943313987349 0.0015641885883986018 0.0005536275664853735 0.0010080277067356647 0.0030340329229385232 0.004365653801833139
          -0.00018186017737058247 -0.0005280640022354705 -0.0003916887661337626 -0.00005746158840055568 -0.00039705711642439717 0.000049871671775351435
          -0.000020701473903119577 -0.00029970302700161114 -0.000027424030521892157 0.001663567739220273 0.00015797676383704634 0.0038587516027448754
          0.002719911716624418 0.00021680155589912098 -0.0002357155998688673 0.0035493081394513126 0.004114215241889138 0.001987745547944092
          0.0016115314140985604 0.004838221128684914 0.006790041619353315 -0.000006072438455712037 0.0006191595704065746 0.00007872346752657838
          -0.0007197932894481597 0.0004057090927224033 0.002770355974668369 0.0018950131697888263 0.0015833629698455282 0.004327417468277195
          0.00820276940720794 0.006606654701820701 0.006398084669996713 0.005168344533212514 -0.00010644098297937776 0.0024894008007589653
          0.003927453826566563 0.004170283648456001 0.0012216783928995778 0.0016963278087256603 0.004427243212931697 0.0047518897405709505
          0.00608502513683172 0.003646638445176001 0.012228685726241195 0.007255411858415189 0.007019936131441237 0.004384247433541072
          0.0036399465435417167 0.004643761776266214 0.0005631362503583925 0.0006052609793348179 0.0036865450509847575 0.0050200055798763354
          0.006556586124890906 0.010223614306006878 0.002825265790411924 0.0035483786685779617 0.006151070147281973 0.004280690009909521
          0.004617455374973212 0.0006268581190548017 0.0023281365867540427 0.0019355070381022743 0.007146036634430752 0.0049574217947783855
          0.0018118255703997235 0.0006157762161441219 0.0018236901493370455 0.00038714876453765923 -0.0008829544376429826 0.0007461059389995417
          0.0011463815081793338 0.0012110769232254598 0.0019756574831322014 -0.0000788117358700019 0.0008617991850735085 0.0021887335190449372
          0.002477129256036768 -0.0010282055432768444 0.002815238263299158 0.0027379648783530802 0.004410494606858368 0.002305964736208435
          0.003015393161935276 0.0045124109247485986 -0.0006338248512434211 -0.0012458198516897244 0.001725495679658462 0.000762686591650262
          -0.0001834219220526543 0.0013878887730656222 0.00006150585807400584 -0.00023516198518733645 0.0009437887347381844 0.0027022845689419622
          0.00011056235924196758 0.003205446122956852 0.0027477250722622226 0.003767401097271028 0.0027883495759176563 0.0053110788719348875
          0.009312440616065294 0.008530391160608636 -0.0003456774272790411 0.014406035560058525 0.01694434831988087 -0.001522287320097529
          0.010077325379013638 0.009994668042370827 0.0011909996907681075 0.0046942695926536215 0.0010222115351016248 0.00840263966442742
          0.00007416241864957422 -0.0007544579316069513 -0.0005457758174303613 0.0008636559664160822 -0.0005451480520824916 -0.00039646481118853216
          0.003436989300057855 0.0004367859625064724 0.001239461301650542 -0.00017795089856155466 0.0033508573456259225 0.002574030294676677
          0.007022939591672814 0.0014417183571476117 0.0031891107617780107 0.003780722702505457 0.0005150803927787273 0.0018311621316693394
          0.0037952962117961397 0.002150926218069532 0.0017097051061531476 0.0016320316535692048 0.004229180408144267 0.0019986061247826564
          0.0017959900284554263 0.0013539872538885925 0.0005077683069790902 0.0027629272970918356 0.0026818053095834793 0.0035583627880640886
          0.001589623910932772 0.0010395412906134965 0.0003125632883840476 0.00017437959095119998 0.000623223280695126 0.00029799401536399067
          -0.000042132293637101026 -0.000182033050053515 -0.0005365560940837205 -0.0006742362132728802 -0.000522445090062218 -0.0004557702003313707
          0.000033808456609496496 0.00022519799650973227 0.00010349332726805605 0.0008781647137703907 0.0012190420772635185 0.0008268362258570527
          0.00046190207915719483 0.0015278624090974413 0.0016792197652356344 0.005105349713446342 0.0033000273194274355 0.0031029305121564044
          0.0013938440766885114 0.0034787586636320783 0.003726956330007792 0.0007670163197524837 0.00019613345466901189 0.00046860392647499194
          0.00023985648714927588 0.0005616736851124376 0.00017864728998701063 0.0027779377734955327 -0.00192927174468311 0.002524032268896085
          -0.0002147937968853186 0.000434920578711466 -0.00015790822207730967 -0.000030259799376989444 0.0001317150536160822 0.0010914977680813176
          -0.0008429821494937099 -0.000049291778431449426 -0.0004429206594092905 0.0003838857534716675 -0.001225249101058118 -0.0008007302505527083
          -0.00028480190565653013 -0.000385579718458047 -0.0004724677675316466 -0.0010765928730850083 -0.000630823989675254 -0.0006198236784124359
          0.002115030119698352 0.000054312887064199376 0.0012507837765233449 0.0005405267195237595 0.0002244314478349052 0.00032499692696622007
          0.003281935484455392 0.0008833262016831878 0.0028347179890743784 0.009379310311961514 0.012002220711935241 0.008805971029575616
          0.004321737453161792 -0.00039395420244586754 0.0017813081832146055 0.001670270382456547 0.0011856102453292883 0.0007965660103072085
          0.0004488523962795643 0.0019261521250879578 0.0009296193469835526 0.003966584388321797 0.0015938717591460726 0.0017134169558680676
          -0.0027938451805405995 0.000840026308086772 -0.0015493344863051761 0.009637653665197546 0.009076141779941371 0.006324900350407947
          0.0027447604038986773 0.0018245965743596548 0.0013618247464169397 0.0058347327159342655 0.0023407587379973838 0.007732425358343703
          0.00016770178731545515 0.006912069434784979 0.002388319245865439 0.0031902675894880453 -0.002211140382135643 0.0004827492579468559
          0.005321655471446529 0.00018421359150669336 0.0023732869393938705 0.0019925740934227804 0.0008753665088564733 0.0007610791619852078
          0.007257424994600886 0.0031770415326058676 0.002769170293800416 -0.005582979443433889 -0.00808350076671599 -0.005206734085308917
          -0.005013450609214654 -0.002625528273951433 -0.0024227771222148087 -0.0016493005345366712 0.00028963357109219184 0.0005069242719779599
          -0.001916056173425447 0.0005876583189210055 -0.0011305761855177066 0.0009148397370745548 0.00017643888304683109 0.0005029785198782805
          0.00042113869962270845 0.0003077243219531123 0.00028602528986029774 -0.0018841306970413998 -0.0010903873805650933 -0.0006458615781432184
          0.0032434407331810716 0.002096331206621494 0.0019331790117917552 0.006386403389155398 0.013439196168495097 0.007658620631894292
          -0.00025992792621772065 -0.002700812486731971 0.0008247470824944841 -0.003212787418530254 -0.00040930519819663835 -0.002429085185138957
          0.0004238822431305578 -0.0001314033687260796 -0.000037523883820132775 0.000523201713527599 -0.00015320713046687584 0.0002397990362537905
          0.00014239100047186426 0.00011022709504454609 0.000017820939487135645 -0.00011269497194674183 0.00021387223016292034 -0.0001990114442584276
          0.0010253323495975492 -0.0002383077030717433 0.00017718240589683493 -0.0013831610349638174 0.0003340568782919419 -0.0007518593542696905
          0.00012164458166286085 -0.0003274525431590791 0.00031268655187471905 0.0003956757912548098 0.0005095294846338277 0.0003197409994502992
          0.003605232427256022 0.0005093204542032242 0.0013339912036739038 0.007062561741387341 0.0028451461889896813 0.003126047819986235
          0.008905917514704348 0.004673462198003589 0.011117586315372685 0.009491159529313398 0.007331570681608973 0.006225795718266702
          -0.001736043876866017 0.006222146597712849 0.003974593631834868 -0.0009598558114359279 0.008683081608824639 0.006359860756594837
          -0.00008400381713993821 0.005508320443209758 0.005199096174718837 0.0051810702203598236 0.0058423153077152845 0.003914715796772383
          -0.0018166716199904676 -0.0002752701561972923 -0.0005378486166400243 -0.00043966327033042457 -0.002944200614054593 -0.0008304273986852739
          0.0027438384712131086 0.0021829318201026793 0.007013007575715435 0.0007683328697841649 0.004889504819091367 -0.0008276447164257961
          -0.0020183024742747736 -0.005625537911569615 -0.003458416166322205 -0.0010534922067659824 -0.005927892765467624 -0.0020122685820410102
          -0.0002633178521402324 -0.005071394224496983 -0.004942894398955733 -0.003404546017087673 -0.007180754591937899 -0.00561463054562461
          0.000604053444256708 0.00930503387941789 0.0047118627118205025 -0.00009008227168701838 0.0061545859834263306 0.001196437843971207
          0.0053029841233982605 0.003922196499601183 0.004958346908341585 -0.00246139633926426 -0.001388707839962755 0.0015690283358869989
          0.004776218489053297 0.000606493531049114 0.0018642018861725063 -0.0005713615312716996 0.0002615766376486209 0.002955040176227497
          0.008062118581865133 0.016942543796744175 0.009483384131408243 -0.0017694474957496015 -0.005367514125046113 -0.004646878718255112
          0.00874204251421945 0.011964247739434997 0.007199574513178486 0.008862655379408044 0.01047930825206686 0.007394292086654292
          0.0015156230861272935 0.004274861441825317 -0.0013898706567248564 0.008602856184540653 0.0020806862791850345 0.014952063340627653
          0.0071626763621496226 0.009089233438335537 0.008761675904799981 0.0006292340962653631 -0.00047808215023795175 0.0010132542920006093
          -0.0002633193540703127 -0.0006862237359542 -0.00044824907435211947 -0.0013459229950431723 -0.0008247451886787133 -0.002500604256962073
          0.001547152200111035 -0.0033956196120114857 -0.008238989367197636 -0.0025963157236123385 -0.0034531779195361018 -0.0031673713050776875
          0.006512447914551744 0.011263783100828845 0.006735561923207373 -0.002142850387850115 -0.010626314635535844 -0.005275970035638788
          -0.013242849152692304 -0.007429914393416837 -0.009153955293415422 0.004447131751674896 0.008035958125170335 0.00932442450318896
          0.010248968115432674 0.007007869635753783 0.006249018664390538 -0.004724868666210809 -0.004953825135702798 -0.004450180676795139
          0.007549094535294176 0.010092386109007756 0.005723327676975747 -0.0045208259631172865 -0.00028102434010279786 -0.003236310289407185
          -0.0011563848977691749 -0.0020681377796045175 -0.004889602950658933 0.0049561424473657835 -0.0008777126560138987 0.0013255771479357553
          0.0010100215195678053 0.0011484619551263564 0.003562442184520412
        </DataArray>
        <DataArray type="Float64" Name="resid_z" format="ascii" RangeMin="0" RangeMax="0">
          0 0 0 0 0 0
          0 0 0 0 0 0
          0 0 0 0 0 0
          0 0 0 0 0 0
          0 0 0 0 0 0
          0 0 0 0 0 0
          0 0 0 0 0 0
          0 0 0 0 0 0
          0 0 0 0 0 0
          0 0 0 0 0 0
          0 0 0 0 0 0
          0 0 0 0 0 0
          0 0 0 0 0 0
          0 0 0 0 0 0
          0 0 0 0 0 0
          0 0 0 0 0 0
          0 0 0 0 0 0
          0 0 0 0 0 0
          0 0 0 0 0 0
          0 0 0 0 0 0
          0 0 0 0 0 0
          0 0 0 0 0 0
          0 0 0 0 0 0
          0 0 0 0 0 0
          0 0 0 0 0 0
          0 0 0 0 0 0
          0 0 0 0 0 0
          0 0 0 0 0 0
          0 0 0 0 0 0
          0 0 0 0 0 0
          0 0 0 0 0 0
          0 0 0 0 0 0
          0 0 0 0 0 0
          0 0 0 0 0 0
          0 0 0 0 0 0
          0 0 0 0 0 0
          0 0 0 0 0 0
          0 0 0 0 0 0
          0 0 0 0 0 0
          0 0 0 0 0 0
          0 0 0 0 0 0
          0 0 0 0 0 0
          0 0 0 0 0 0
          0 0 0 0 0 0
          0 0 0 0 0 0
          0 0 0 0 0 0
          0 0 0 0 0 0
          0 0 0 0 0 0
          0 0 0 0 0 0
          0 0 0 0 0 0
          0 0 0 0 0 0
          0 0 0 0 0 0
          0 0 0 0 0 0
          0 0 0 0 0 0
          0 0 0 0 0 0
          0 0 0 0 0 0
          0 0 0 0 0 0
          0 0 0 0 0 0
          0 0 0 0 0 0
          0 0 0 0 0 0
          0 0 0 0 0 0
          0 0 0 0 0 0
          0 0 0 0 0 0
          0 0 0 0 0 0
          0 0 0 0 0 0
          0 0 0 0 0 0
          0 0 0 0 0 0
          0 0 0 0 0 0
          0 0 0 0 0 0
          0 0 0 0 0 0
          0 0 0 0 0 0
          0 0 0 0 0 0
          0 0 0 0 0 0
          0 0 0 0 0 0
          0 0 0 0 0 0
          0 0 0 0 0 0
          0 0 0 0 0 0
          0 0 0 0 0 0
          0 0 0 0 0 0
          0 0 0 0 0 0
          0 0 0 0 0 0
          0 0 0 0 0 0
          0 0 0 0 0 0
          0 0 0 0 0 0
          0 0 0 0 0 0
          0 0 0 0 0 0
          0 0 0 0 0 0
          0 0 0 0 0 0
          0 0 0 0 0 0
          0 0 0 0 0 0
          0 0 0 0 0 0
          0 0 0 0 0 0
          0 0 0 0 0 0
          0 0 0 0 0 0
          0 0 0 0 0 0
          0 0 0 0 0 0
          0 0 0 0 0 0
          0 0 0 0 0 0
          0 0 0 0 0 0
          0 0 0 0 0 0
          0 0 0 0 0 0
          0 0 0 0 0 0
          0 0 0 0 0 0
          0 0 0 0 0 0
          0 0 0 0 0 0
          0 0 0 0 0 0
          0 0 0 0 0 0
          0 0 0 0 0 0
          0 0 0 0 0 0
          0 0 0 0 0 0
          0 0 0 0 0 0
          0 0 0 0 0 0
          0 0 0 0 0 0
          0 0 0 0 0 0
          0 0 0 0 0 0
          0 0 0 0 0 0
          0 0 0 0 0 0
          0 0 0 0 0 0
          0 0 0 0 0 0
          0 0 0 0 0 0
          0 0 0 0 0 0
          0 0 0 0 0 0
          0 0 0 0 0 0
          0 0 0 0 0 0
          0 0 0 0 0 0
          0 0 0 0 0 0
          0 0 0 0 0 0
          0 0 0 0 0 0
          0 0 0 0 0 0
          0 0 0 0 0 0
          0 0 0 0 0 0
          0 0 0 0 0 0
          0 0 0
        </DataArray>
        <DataArray type="Float64" Name="stress_zz" format="ascii" RangeMin="-2652848.37340248" RangeMax="3580952.6200219886">
          -544400.5255487699 -531959.2349014156 1044391.1362490627 1001982.2275053295 -502586.91791595856 -557624.3456309203
          1056345.1121828505 1003168.8632926885 -460773.310283147 -583289.4563604245 1068299.0881166381 1004355.4990800477
          -854145.4742799383 -730234.1052373319 -909278.742904038 -619974.8320326637 -900689.0394950868 -765118.1041466289
          -914727.535305423 -664518.7541311354 -947232.6047102355 -800002.1030559258 -920176.3277068079 -709062.6762296074
          -690732.5856385193 -693855.7292659446 -696978.8728933698 -762659.906974594 -728857.6688931179 -695055.4308116417
          969116.2356532463 1082306.1321222463 957085.6397239284 1075643.0380713514 945055.0437946107 1068979.9440204566
          1538558.7421484534 1389949.1581607633 1312043.383323717 1681715.3611163225 1502174.3494543096 1355359.0353022488
          1297711.949246122 1688337.955221547 1465789.9567601657 1320768.912443734 1283380.5151685274 1694960.5493267719
          -321977.40002799896 127137.57894410143 1236751.399319803 1589023.3202325485 -337557.68000554404 146504.88172598364
          1321492.5230327647 1718727.0918004673 -353137.95998308907 165872.18450786587 1406233.6467457262 1848430.8633683864
          -1873939.99920697 -1143552.2646432198 -310005.10997804726 -180838.40938516683 -1874833.6615980032 -1155068.415906703
          -303297.9214176131 -194496.5391748381 -1875727.323989036 -1166584.567170187 -296590.7328571789 -208154.66896450942
          2028734.6549348612 2259600.0696201795 347849.7456773231 2084913.6284815567 2309536.059209869 354887.23754849203
          2141092.6020282526 2359472.0487995576 361924.72941966093 1064202.098827886 1427641.0477615192 668424.4678643158
          406487.97182697733 1114627.212621007 1489919.1216222197 712651.1082741458 413888.8429906611 1165052.3264141288
          1552197.1954829206 756877.7486839759 421289.714154345 774400.9638320428 783874.4704556849 793347.9770793272
          654478.5133047871 938215.5134332669 626129.6621973288 884364.1009529659 597780.8110898704 830512.6884726647
          -633357.0997553405 -445210.43936547166 -285451.2181683989 -634111.366144655 -435703.3190647463 -215651.21428075718
          -634865.6325339697 -426196.19876402104 -145851.21039311547 480933.9377638609 120529.61466786198 1220277.0207154846
          1317686.4606961452 471635.11750617216 142325.5964804886 1221701.0380455998 1297213.8501128906 462336.2972484835
          164121.57829311522 1223125.0553757148 1276741.2395296362 686619.25807622 1702542.180628431 -157159.87642777362
          733085.4366937849 1795605.9847021848 -276765.50448024675 779551.6153113499 1888669.7887759388 -396371.1325327199
          3208442.323680231 1223757.394052844 1289033.3371961135 3353972.126853948 1152028.247674167 1240254.7484379958
          3499501.930027666 1080299.1012954898 1191476.1596798783 -224900.2233422342 -1494001.1272081728 -1159747.1749730972
          -25120.120033347484 -194580.95976797343 -1631575.147958536 -1196016.2673756257 -34667.96052459694 -164261.6961937126
          -1769149.1687088986 -1232285.3597781537 -44215.801015846344 -53234.4042402792 763617.8077902627 61300.836065486976
          729101.5418109942 175836.07637125318 694585.2758317257 982202.7931442175 789888.6545233354 1686709.203908658
          949435.6001857949 816189.154725162 1714970.6149936267 916668.407227372 842489.6549269884 1743232.0260785958
          1566168.5026077745 350293.21357102244 1068121.295806091 1833138.6074462545 1537967.8952991688 351126.3999717095
          1047284.4772307615 1858804.9267857263 1509767.287990563 351959.58637239656 1026447.6586554323 1884471.2461251975
          -344895.7266784838 134462.18120973636 -354271.4623957868 102101.1830951411 -363647.1981130897 69740.1849805458
          385193.00911967567 -558130.7518393791 374246.8219040483 -578615.2861174935 363300.634688421 -599099.8203956079
          91448.77185240184 -118622.10365128604 107127.28478944588 -100407.85353097317 122805.79772648991 -82193.60341066026
          157030.34575430478 67772.65873925606 345699.18335093517 412681.59371329274 163355.52388010372 54471.75365620748
          329819.9084583838 459355.3557134571 169680.70200590268 41170.84857315892 313940.6335658325 506029.11771362147
          869543.4466073656 139333.33545158227 861131.0237149809 119517.6210476502 852718.6008225962 99701.90664371812
          1285830.1232713885 1494863.0020969403 1262367.2123347744 1434070.3772690126 1238904.30139816 1373277.752441085
          1344703.434282034 1174971.9388650837 1305699.342724372 1112767.641475351 1266695.25116671 1050563.344085618
          639506.5710715952 629415.504504118 619324.4379366409 117537.33991925133 102703.87790831605 87870.41589738074
          -212730.3189680693 -164257.0165446955 205898.7995694584 171693.68991123722 -219743.7681679851 -153764.2016806682
          214910.55023087602 202669.80895794727 -226757.2173679009 -143271.38681664082 223922.30089229366 233645.9280046573
          1642437.127323583 2199420.231415982 2016061.5561325573 1605749.1190021 2221479.6602250226 2057428.3895735757
          1569061.1106806167 2243539.0890340637 2098795.223014594 -235376.57136944472 -101499.90856358701 -463903.1803650001
          -185012.49504804198 -692429.7893605554 -268525.08153249696 1830406.0955215245 1819886.1910857258 1809366.2866499268
          40990.08892484657 -105968.89740683715 -663367.7962400727 -80952.8528374509 46438.895806338165 -99076.92418909301
          -605995.3661960913 -73602.73253537985 51887.70268782976 -92184.95097134888 -548622.93615211 -66252.61223330876
          358378.71132595796 325803.48895361077 293228.2665812636 826857.4537521343 831564.2234018294 836270.9930515244
          -945531.1544632027 -987506.713234299 -1029482.2720053953 510685.7888681098 597715.405251277 482873.77804843336
          533480.6849391906 455061.7672287569 469245.9646271043 744273.6730504134 1143421.2522535762 743835.2463912199
          1194873.9986802207 743396.8197320264 1246326.7451068652 539192.5550895709 691651.8665022245 383268.88394361135
          622181.8867891661 227345.21279765188 552711.9070761078 529124.7123916972 175367.68007636393 521412.8917723158
          158886.83087204827 513701.0711529343 142405.98166773276 1532444.2712021188 1557804.2039696288 1583164.1367371385
          -243919.83565414062 39167.121143101926 -292389.9671907092 23223.9732154588 -340860.0987272778 7280.825287815649
          -494085.86059311393 -374699.6686042791 -508067.73920153175 -453405.68775693234 -522049.6178099497 -532111.7069095856
          875371.4893184169 872003.5901783465 868635.6910382762 775773.5775808566 746938.9815445927 718104.3855083288
          -996920.5407154738 -1398837.9010974716 -987917.8572909252 -1516932.8002051346 -978915.1738663769 -1635027.699312797
          1492980.5073296688 1487463.5051916197 1481946.5030535709 443170.9251436363 442209.978222669 441249.0313017016
          1324838.0312182426 1538376.6433151811 1339455.0542483893 1559451.524492506 1354072.077278536 1580526.4056698303
          1281161.9803076037 -526516.0607297795 1308103.5973816337 -513201.00259283546 1335045.2144556637 -499885.9444558914
          689497.0576323367 9798.067010008206 -1352160.5244902219 635388.5108515992 14109.482204513042 -1443340.0449586518
          581279.9640708617 18420.89739901782 -1534519.565427082 -315234.9399601221 678545.5705910242 911383.1178203886
          -684176.3000631906 -327847.9864741058 523145.284771022 767705.0670246303 -657177.3224539635 -340461.0329880895
          367744.99895101966 624027.0162288718 -630178.3448447359 250619.13323112228 71694.83999029749 453414.7976777265
          601752.678188893 279558.4566146655 49868.989501481956 437900.86039023177 604469.2341311935 308497.77999820875
          28043.139012666466 422386.92310273706 607185.7900734936 1224559.690562904 1156517.0097657535 1088474.328968603
          717403.4320623664 275071.2069972727 695136.6563428063 191085.03040237495 672869.8806232464 107098.85380747722
          1728373.3523098573 687558.3225771035 1671650.1401136785 613814.8357139054 1614926.9279175 540071.3488507076
          695920.2920220715 139581.80284150405 636230.6390575706 112529.64705027493 576540.9860930698 85477.49125904584
          192872.6751275998 352954.05547754944 231035.99383695403 393549.2729483786 269199.3125463083 434144.49041920784
          -194664.05154339405 92821.96937493254 -226241.22477704502 76635.9038877049 -257818.39801069608 60449.83840047728
          1447250.0174692518 1519974.269131965 1592698.5207946785 1267436.7183426789 1254088.5233093842 1240740.3282760896
          -691440.9835011779 -1962376.5126834132 -619104.2035832216 -149061.46791402966 -694577.7762308081 -1952636.5613216134
          -572197.710882708 -119463.62821369173 -697714.5689604385 -1942896.6099598135 -525291.2181821942 -89865.78851335382
          950290.1569213013 1497143.8899764959 966697.342303866 1452057.8428843436 983104.527686431 1406971.7957921913
          173024.08849645033 180166.13610051665 5341.167217904844 132798.2323730345 152983.54863532115 171747.32368610436
          7381.681388827301 124222.14062109381 132943.00877419193 163328.51127169206 9422.195559749758 115646.04886915316
          66514.23434957504 -161104.25087345627 -401722.4831892422 66165.16625872531 -179557.59473746893 -436871.9669431405
          65816.09816787555 -198010.93860148158 -472021.4506970387 -210822.69585576723 -153663.71277282335 -96504.72968987949
          952172.2991077875 84148.0538587122 901645.339361494 83236.00261336353 851118.3796152003 82323.95136801488
          147841.99441283543 375553.67772577587 167700.65957250982 419425.04704644287 187559.32473218424 463296.41636711
          417352.5264912682 396898.09861346654 376443.6707356649 1504348.3020034798 1571579.285404875 1638810.2688062699
          1526388.3315291842 2382799.233874831 1597067.7924137728 2268837.615128393 1667747.2532983609 2154875.9963819548
          -20349.218221891548 79774.40559050611 -21451.38516004974 77188.05500336557 -22553.552098207947 74601.70441622502
          566074.3818954367 586758.0141351016 534026.4163698773 558943.3967457365 501978.45084431797 531128.7793563716
          507156.6327948525 -161666.38394327514 476255.9429310882 525196.3000025151 -178311.6000596952 496423.36442356964
          543235.9672101776 -194956.8161761153 516590.785916051 -90489.54267454508 -80123.26907438593 -90772.22453376051
          -26085.58489567024 -91054.90639297588 27952.09928304545 -548572.6429204375 -711548.1903981618 -590090.55509923
          -766729.8944235676 -631608.4672780228 -821911.5984489736 14738.305605814981 985256.8975533881 -51047.817554112255
          957142.7127041514 -116833.9407140396 929028.5278549147 -55355.72924964249 -52276.20372509025 -49196.67820053798
          1027669.8383240555 864752.8031944882 1001525.7492883742 1374979.5606183338 1010953.9804211 868085.10993139
          990019.5438118366 1338689.533491808 994238.1225181445 871417.4166682919 978513.3383352992 1302399.5063652825
          937649.6946385609 1260966.970632529 919552.770340953 1234368.80424201 901455.8460433453 1207770.637851491
          -688658.3302739641 -701813.4198354344 -714968.5093969046 2436188.288695251 2408181.237865345 2380174.187035439
          -340471.55601506797 -330299.54605592915 -320127.5360967904 237689.1090713801 284647.6953374569 331606.2816035334
          -36190.42368307174 -413.42625241146015 35363.57117824882 -1262449.820384908 -1234608.0377402205 -1187851.4165103617
          -1314672.8868425768 -1113253.0126358154 -1394737.7359449335 -1497614.3675632416 -1475148.728519335 -1452683.0894754285
          -475412.52875256527 -444468.3915712807 -413524.25438999606 -690216.357956459 -735890.9166508559 -781565.4753452528
          2720308.941118666 2707281.6973793246 2694254.4536399827 240397.88279930723 1205491.4607694128 151679.93360864063
          1139083.3849657162 62961.98441797399 1072675.309162019 2206391.341787365 2194578.6283856784 2182765.9149839915
          2032122.812489535 1960871.451902492 1889620.0913154483 -2381343.5704742833 -2517095.9719383814 -2652848.37340248
          1640579.7515175142 1804761.2533978368 1968942.755278159 67118.4124563889 90592.37553096806 114066.3386055472
          -145265.4396777866 -104639.8073245527 -64014.17497131886 -152152.03011034837 -144936.83823833626 -204479.94372388552
          -416579.92165421863 -256807.85733742267 -688223.005070101 1044312.4399576506 3482081.0283220937 1034514.1927528918
          3531516.8241720414 1024715.9455481328 3580952.6200219886 713825.2633349175 714286.800358821 714748.3373827244
          304753.3165742535 285039.2134466724 265325.1103190914 823901.7437641982 824639.2443305698 825376.7448969414
          -248399.07928117845 1028143.663116349 -154703.96421701252 981588.0614927553 -61008.84915284654 935032.4598691617
          1032888.4605804859 1117835.0255061428 787156.9792575105 948229.4326709376 1039574.6007137102 809658.0938766797
          863570.4047613896 961314.1759212777 832159.2084958487 973705.2488761909 854199.5340732398 965759.0558582476
          816391.8411920328 957812.8628403042 778584.1483108258 842938.7069711154 813517.8485655301 784096.9901599447
          1099470.0784319516 1102898.0346032393 1106325.990774527 2155811.085892307 2145535.0522914003 2135259.018690494
          971421.176938663 996680.2296260764 1021939.2823134898 -377038.10042581055 -375001.4202110356 -372964.7399962606
          -953712.8328655858 -610422.7025427886 -1012330.9194650166 -574934.5610589968 -1070949.0060644473 -539446.4195752051
          322309.21731107496 342295.6496050975 362282.0818991199 993801.4419820051 1075141.7022786844 2134515.563646692
          955453.6304215437 1016858.1953876996 2250533.55987039 917105.8188610824 958574.6884967148 2366551.5560940886
          -1450.3067312889732 -120032.44052835554 -32899.189850312 -102275.54357497927 -64348.07296933506 -84518.64662160304
          1070423.0929498875 -189554.1332728601 1047171.6968854078 -182752.4461736754 1023920.3008209283 -175950.75907449072
          212890.55430492747 215537.98602144513 218185.41773796285 157661.30014989252 -29086.23776783576 196778.35393612614
          182710.03011304687 -14748.681691271573 214428.56136589253 207758.7600762013 -411.1256147073582 232078.76879565895
          -629664.3568378186 -635776.7252259313 -641889.0936140437 211981.2051773743 510434.7873140683 154440.5833789987
          513962.95738295506 96899.96158062323 517491.1274518417 -1025621.1586249289 -1190591.9676322152 -1019731.6587838843
          -1191898.8359956287 -1013842.1589428396 -1193205.7043590422 1428812.453686833 1469140.5625392601 1509468.6713916876
          672371.8173678698 629910.3559537205 587448.8945395713 -377694.06922842015 -345063.2748580971 -312432.480487774
          42746.55253965282 39494.18911208641 36241.82568452001 250984.73007678526 226819.6701716876 202654.61026658997
          -603316.4128655028 -590155.208359961 -576994.0038544196 508277.9082411446 422579.61401616374 564602.8909707528
          427948.2674685749 620927.873700361 433316.9209209861 417284.18461713684 531838.3994962875 406470.60007843963
          554987.969643463 395657.0155397424 578137.5397906386 -23199.761915535433 26636.782698048948 76473.32731163333
          1345343.6288581584 762318.5310471843 -221998.36571026314 112427.43536067684 -1789340.3602786846 -537463.6603258303
          941681.30392175 926547.6679264157 911414.0319310813 -484646.07612247404 246897.67100957347 -497659.3777635511
          259044.07363879788 -510672.67940462823 271190.4762680223 717237.9684959749 703417.7192975132 774575.908405272
          673476.0060334943 831913.848314569 643534.2927694754 -6641.681695488864 93223.14770951157 193087.97711451177
          2564077.1400981057 2787660.277244953 3011243.4143917994 -949208.7967328663 -973300.8434698038 -997392.8902067413
          -1352370.1226903256 -1394242.225063858 -1436114.32743739 200251.41617211825 226605.38537755175 252959.35458298528
          110872.34565854495 177697.9197930628 244523.49392758065
        </DataArray>
        <DataArray type="Float64" Name="peeq" format="ascii" RangeMin="0.0013004383965579554" RangeMax="0.004316932986509464">
          0.0028147358859883544 0.0030833089776278215 0.0031106831319155596 0.002920473663541174 0.002813984107950962 0.0030816842300761494
          0.0031094192973273723 0.002919498398705417 0.002813232329913569 0.003080059482524477 0.003108155462739186 0.002918523133869661
          0.001865518447154667 0.0016176202888413358 0.0016462420248109775 0.0019524638868117115 0.001865748517700524 0.0016174238724056184
          0.001646482991017202 0.0019527187341060533 0.0018659785882463803 0.0016172274559699009 0.0016467239572234265 0.0019529735814003953
          0.0013659975876380414 0.0013664691502020977 0.0013669407127661543 0.0013826510321098442 0.0013831454855124032 0.0013836399389149626
          0.0030008005597403978 0.0028267806449945145 0.002999971664577709 0.0028260993439877826 0.002999142769415021 0.0028254180429810494
          0.003942259498358238 0.004030105620632333 0.0038422170556252203 0.003842577252948996 0.003940140391518005 0.004028360036368541
          0.003840229052605135 0.0038403831368446877 0.003938021284677769 0.004026614452104749 0.003838241049585049 0.0038381890207403804
          0.002091578565637981 0.0023499367459018767 0.002536459062915968 0.0023104797388343416 0.0020912825766215963 0.0023490428767252974
          0.0025358938078246197 0.0023103807547972706 0.0020909865876052106 0.002348149007548719 0.0025353285527332705 0.002310281770760199
          0.0015777449519403326 0.0017295725863620546 0.001500580542847069 0.0014090797517330026 0.001578811418781707 0.0017300900098985899
          0.0015015994832352842 0.001410073858181861 0.0015798778856230817 0.0017306074334351245 0.0015026184236234994 0.0014110679646307188
          0.003864386532155837 0.0037893648803815527 0.00359611695386447 0.00386435908438447 0.003789523511441496 0.003595977822537506
          0.0038643316366131037 0.0037896821425014394 0.0035958386912105437 0.0037826495759182475 0.004009908320812289 0.0039598042366656445
          0.0036367715479520227 0.003781410021557701 0.004008097106571073 0.003957705621215294 0.0036356546671593016 0.0037801704671971566
          0.004006285892329855 0.003955607005764944 0.0036345377863665805 0.0034070743021523183 0.003406199347094585 0.0034053243920368513
          0.0033237436294360576 0.0032280430682734623 0.00332176529558875 0.003226448318148987 0.0033197869617414416 0.0032248535680245117
          0.002491454219122919 0.002788607283346651 0.0025042756377366194 0.0024908174772547862 0.002787471381155743 0.0025042240461682443
          0.0024901807353866533 0.002786335478964834 0.002504172454599869 0.003648348081098379 0.0034940242239336235 0.003607928721347138
          0.0037756222237775383 0.003646265450329654 0.0034928899208196843 0.003606982010007137 0.003773926131878629 0.003644182819560929
          0.003491755617705745 0.0036060352986671354 0.00377223003997972 0.0029187055798325003 0.002682467348660388 0.0027783357621657357
          0.0029184689405983037 0.002682075107038833 0.002777018261315377 0.002918232301364107 0.002681682865417279 0.0027757007604650176
          0.0025026277607834713 0.0024925256465281823 0.002086814218703944 0.0025021540336643885 0.0024914486337297126 0.002086744279968364
          0.0025016803065453057 0.002490371620931243 0.002086674341232784 0.003200497786683186 0.0029604109322890985 0.0030344440120272315
          0.003343259617494619 0.003199847971236442 0.0029586474875394654 0.0030331800705183177 0.003342146187327694 0.0031991981557896987
          0.002956884042789832 0.003031916129009404 0.003341032757160769 0.0037323142890187512 0.003502941643713827 0.0037307921522153533
          0.0035010205788038175 0.0037292700154119562 0.0034990995138938076 0.003829266393332926 0.0035099804259742552 0.0035736341539905677
          0.003827600235372852 0.003509374111132193 0.0035723960281451397 0.0038259340774127785 0.003508767796290129 0.003571157902299712
          0.003381638326646525 0.003542281447109625 0.0037731578720651884 0.003668106949214027 0.0033804216768216636 0.0035404489469844313
          0.003770874839605476 0.003666338860398543 0.003379205026996802 0.0035386164468592376 0.0037685918071457634 0.003664570771583059
          0.0023469999953996483 0.002518202598670638 0.0023469561268314597 0.002517557572239133 0.0023469122582632715 0.002516912545807627
          0.0024968513771933035 0.0027209256881250894 0.002496505351003176 0.0027201023203304326 0.0024961593248130484 0.0027192789525357767
          0.001388038103835816 0.0014116366162457382 0.001388155462504883 0.0014118745499056796 0.0013882728211739499 0.001412112483565621
          0.002422232718647023 0.002315635489127966 0.0025939842075768343 0.0027435047554535885 0.0024228079108706783 0.0023159917226958913
          0.002593879836462201 0.0027436765686826383 0.0024233831030943337 0.0023163479562638167 0.0025937754653475678 0.002743848381911689
          0.003993949357253537 0.003719527280314611 0.003993173591569066 0.0037187970503752515 0.003992397825884595 0.0037180668204358923
          0.0042114184913252355 0.004100386252077337 0.004208534926514528 0.004097735543677223 0.004205651361703821 0.004095084835277108
          0.004316932986509464 0.004253268914433448 0.00431400413462765 0.004249923271341907 0.0043110752827458364 0.0042465776282503654
          0.002673016615447876 0.0026721553726569897 0.0026712941298661034 0.002797812228014545 0.00279884783837333 0.0027998834487321152
          0.0034082573951868585 0.0030926740308738518 0.0031204982499926687 0.0034583780831863517 0.003407979517492343 0.0030932158893849536
          0.0031210844212069527 0.0034581159930456686 0.0034077016397978267 0.003093757747896055 0.003121670592421236 0.0034578539029049837
          0.003921488787913297 0.003881863812887315 0.003990812169762509 0.0039193049496391895 0.00388054075088448 0.003989778686198208
          0.003917121111365083 0.003879217688881645 0.003988745202633906 0.0040773867140173 0.003921912434325746 0.004073632291772069
          0.003919245524592716 0.004069877869526836 0.003916578614859684 0.003242614811154297 0.0032423063233777165 0.003241997835601136
          0.0013513300096426623 0.0014605139441059207 0.0014997738149937804 0.0013635291200288886 0.0013517527883412884 0.0014609334178927237
          0.0015010272548379362 0.0013643901493469437 0.0013521755670399143 0.0014613528916795264 0.0015022806946820922 0.0013652511786649986
          0.003794433690152658 0.0037932146364594846 0.0037919955827663103 0.0031623755654086056 0.0031627868938875264 0.003163198222366447
          0.0033274020064998047 0.0033272026148195638 0.0033270032231393232 0.002751258337911851 0.0026670675953636446 0.002750136717619571
          0.0026658387006308405 0.00274901509732729 0.0026646098058980354 0.0030213111989508662 0.0028623381447413234 0.0030213610825293308
          0.0028633461683250172 0.0030214109661077953 0.002864354191908712 0.004212923741122374 0.004070234696080347 0.00420963530780522
          0.004068097884286968 0.004206346874488067 0.004065961072493588 0.003505219657534122 0.0034549236629924504 0.0035029156773562398
          0.003452868904015923 0.003500611697178358 0.003450814145039396 0.003726220790346948 0.0037253305961704917 0.003724440401994035
          0.0032645852117717524 0.0029715812892515824 0.0032632792219330063 0.002971260941948706 0.0032619732320942597 0.00297094059464583
          0.0033972117079998517 0.0032776122190887663 0.0033953407852853556 0.003275313370333369 0.003393469862570859 0.003273014521577972
          0.004270457282408882 0.00426746997788347 0.0042644826733580585 0.004075853966082854 0.004074595678251481 0.004073337390420107
          0.0032001971660850217 0.003185163280455896 0.0031992407086111016 0.0031830366109574745 0.0031982842511371814 0.0031809099414590535
          0.00427648451268125 0.004274332515794763 0.004272180518908278 0.002812080650683362 0.002813181848421663 0.0028142830461599638
          0.004271308931548456 0.004184946940105734 0.004269372037560194 0.00418377804892163 0.00426743514357193 0.004182609157737525
          0.0038844834479397072 0.003710854129816349 0.003883295888002517 0.0037092298624515317 0.0038821083280653275 0.003707605595086714
          0.002758887740064237 0.0029853790251723462 0.003023544083292337 0.002757659536841523 0.0029846833477016406 0.003021845486221204
          0.002756431333618809 0.0029839876702309354 0.003020146889150071 0.0032781786502150113 0.003115549186884088 0.003338893940808753
          0.00353914777097453 0.0032760697512929007 0.003112505592859172 0.003335963682399927 0.003537156839295241 0.0032739608523707905
          0.0031094619988342558 0.0033330334239911 0.003535165907615952 0.0018240275733953457 0.0016000539760995605 0.0015821982890297996
          0.0017351183116151698 0.0018252401192183584 0.0016005168689501776 0.0015821043196233883 0.0017355656813551321 0.0018264526650413706
          0.0016009797618007943 0.0015820103502169774 0.0017360130510950943 0.004255043538981715 0.004251639139600702 0.004248234740219689
          0.0029290011772698616 0.0027766789745882273 0.0029271888348699313 0.0027751429717070633 0.002925376492470001 0.0027736069688258985
          0.004048832445668735 0.003964983076884819 0.004047025241028085 0.003963196096475966 0.004045218036387436 0.003961409116067113
          0.0025455719145456765 0.0023908223229231556 0.0025445449926332344 0.002391187801766296 0.0025435180707207923 0.002391553280609436
          0.001919275569992965 0.0020737627628765556 0.0019205032611986459 0.0020750245488110925 0.0019217309524043268 0.00207628633474563
          0.0017500265725414 0.0016224745163184696 0.0017500799140698039 0.0016223019922682656 0.001750133255598208 0.0016221294682180615
          0.004112818369785397 0.004111880030852411 0.004110941691919425 0.0040766339208823995 0.0040751356987716505 0.0040736374766609015
          0.0019550620269070678 0.0017029958998610515 0.0016655567998382832 0.0019022428602649064 0.0019553731152232943 0.0017041604303934547
          0.0016669766824188145 0.0019032805424616674 0.0019556842035395212 0.0017053249609258576 0.0016683965649993459 0.001904318224658429
          0.004214307968353127 0.0041981341085562335 0.0042121134757334205 0.004196124553629155 0.004209918983113714 0.004194114998702076
          0.001387462030928034 0.00138519996800555 0.00137541509947717 0.0013617844341475907 0.0013870768949650783 0.0013849812525804752
          0.001375300319311402 0.0013616939329495299 0.0013866917590021227 0.0013847625371554003 0.0013751855391456343 0.001361603431751469
          0.0015031552320536679 0.0014103403834618779 0.0015020996123010716 0.0015030874594402486 0.0014105368139827072 0.0015019944687310514
          0.0015030196868268289 0.0014107332445035367 0.0015018893251610315 0.0021944326100149614 0.00219605357895351 0.0021976745478920587
          0.0038255855560682572 0.003653407260753528 0.0038231492596810203 0.00365117208174866 0.0038207129632937837 0.0036489369027437922
          0.0034329483360399705 0.0030198838825039043 0.003431826318384681 0.003018973588842928 0.003430704300729391 0.0030180632951819523
          0.002204755320951035 0.002204812984200324 0.002204870647449613 0.004221859962924537 0.004220458121944325 0.004219056280964113
          0.0026518026152657975 0.002961557837044006 0.00265241613876182 0.002959766129010818 0.0026530296622578426 0.00295797442097763
          0.0013590849527959992 0.0013259750901270218 0.00135909503042094 0.0013261827681962219 0.0013591051080458806 0.001326390446265422
          0.0013004383965579554 0.0013220224393959285 0.0013011050713481066 0.0013229862721682905 0.0013017717461382577 0.0013239501049406525
          0.0013840359613914214 0.001645122436342447 0.001508558263098663 0.001385251741860854 0.0016457310304541979 0.0015093637856195374
          0.0013864675223302873 0.0016463396245659492 0.001510169308140412 0.001914026352737223 0.0021684096555033678 0.0019140602521820836
          0.0021681301878880774 0.0019140941516269442 0.0021678507202727874 0.0014272686847767925 0.0014770432234595477 0.0014269678572585408
          0.0014767518888576705 0.0014266670297402892 0.0014764605542557936 0.0018235292141507257 0.0016868828699242186 0.0018236435081730852
          0.0016869738524072245 0.001823757802195445 0.0016870648348902301 0.001471198047072485 0.0014711744791410853 0.0014711509112096857
          0.002581989172104549 0.0025893730397018853 0.0025724287400127714 0.002547983987440856 0.002580655942815504 0.0025876036596909477
          0.0025705586486154874 0.002546597478847643 0.002579322713526459 0.0025858342796800105 0.002568688557218204 0.0025452109702544298
          0.002518727056898805 0.0025230574599674634 0.002517582851479584 0.002521889813440145 0.0025164386460603625 0.002520722166912827
          0.0014297087324756485 0.0014296287196325964 0.0014295487067895452 0.0018524432211899432 0.0018526632073914391 0.0018528831935929351
          0.0023102539907056616 0.0023100622436450845 0.002309870496584507 0.002286091077009377 0.0022873455575274366 0.002288600038045497
          0.0026491068127463572 0.0026486401786948565 0.002648173544643356 0.002427571432179317 0.0025900246386892146 0.0024275035150055197
          0.0025888015658946362 0.0024274355978317224 0.0025875784931000565 0.002721550972025544 0.002721047228221649 0.002720543484417755
          0.002582709261685378 0.002583686625681439 0.0025846639896774997 0.0015710201005711365 0.001570739477875572 0.0015704588551800074
          0.00400549012432696 0.00400453118269976 0.004003572241072561 0.003329331120463059 0.003194657920920689 0.0033279846704466296
          0.003193213912048406 0.0033266382204302004 0.003191769903176122 0.004085778257963435 0.004084785862198925 0.004083793466434416
          0.003053189211081827 0.00305179082557362 0.003050392440065413 0.002765200297416323 0.0027636201922051945 0.0027620400869940664
          0.0026718755416676753 0.0026732087948214294 0.002674542047975184 0.0024820336485256132 0.0024832258766338627 0.0024844181047421116
          0.0024962768758842145 0.0024975917125583365 0.002498906549232458 0.0023848406068596 0.0023965270392838985 0.0023842532474835075
          0.0023956915815938934 0.0023836658881074154 0.0023948561239038888 0.002141241282230662 0.0019644936947473836 0.002141299089434288
          0.0019649336941708656 0.0021413568966379137 0.0019653736935943476 0.0026546014929569074 0.0026533917733976018 0.0026521820538382953
          0.0013029631613939285 0.0013033943889597848 0.001303825616525641 0.003987892610561511 0.003986358458049973 0.0039848243055384345
          0.0023626530321791458 0.002530632269907121 0.002362413875684498 0.002529619350270988 0.0023621747191898495 0.002528606430634855
          0.002194557036391434 0.0022583120829138166 0.0023280819976670315 0.002194560563990939 0.0022584375109093663 0.002328028597862313
          0.002194564091590444 0.0022585629389049156 0.002327975198057594 0.0024441922901265144 0.0024980986597943344 0.002443851914452408
          0.0024976022800682752 0.0024435115387783013 0.0024971059003422156 0.0026293521758850294 0.00262789822405427 0.0026264442722235097
          0.002206578500206812 0.002206811385018131 0.0022070442698294496 0.002057727572456223 0.0020579249621255763 0.00205812235179493
          0.004116762272834558 0.004115002790383597 0.004113243307932635 0.00140494574048669 0.0014048070781059686 0.0014046684157252474
          0.0013430341051546728 0.0016574784573081913 0.001343304980243386 0.001658201257185814 0.0013435758553320995 0.0016589240570634366
          0.003427304937921832 0.0034277890357727455 0.0034282731336236585 0.003059307751868172 0.0031385811915882298 0.003466995268861955
          0.0030581075164182745 0.003137412434539728 0.0034663191687853553 0.003056907280968377 0.0031362436774912267 0.0034656430687087557
          0.0021452686113817127 0.002280124218418935 0.0021455226914755435 0.002280301275516901 0.0021457767715693738 0.002280478332614867
          0.003777755179620996 0.003453793664179331 0.0037773414829843192 0.003454427584124016 0.003776927786347642 0.0034550615040687006
          0.0024399185124319906 0.0024397854152195192 0.0024396523180070483 0.0027948403218703813 0.0025358023384150345 0.002497354574482167
          0.002795953800012687 0.002536809074703858 0.0024984242757223702 0.002797067278154993 0.0025378158109926816 0.002499493976962574
          0.003199205861373932 0.0031992897854879725 0.0031993737096020127 0.004093561426213116 0.004168453287116369 0.004090755584752588
          0.004165034913188551 0.00408794974329206 0.0041616165392607315 0.0030615038986939037 0.0030091979392019835 0.003061994195735966
          0.003009501544544636 0.0030624844927780275 0.0030098051498872887 0.003904353392185694 0.0039027219639878635 0.003901090535790034
          0.0037474445934316813 0.0037466261007880405 0.0037458076081443997 0.002170456773558345 0.0021711848684584072 0.002171912963358469
          0.00201710843446964 0.002017634146782514 0.0020181598590953884 0.0024059632133633106 0.0024063969725080197 0.0024068307316527284
          0.002820102056816179 0.002821121689273975 0.002822141321731771 0.0028109522104693687 0.002951289118058508 0.0028111769008569046
          0.002950513181688366 0.0028114015912444404 0.002949737245318224 0.0021252683157387924 0.0021176227440682406 0.002126124564877846
          0.002118555286352157 0.0021269808140168996 0.002119487828636073 0.001965007489737325 0.0019662312583195703 0.0019674550269018157
          0.002270801222874659 0.002246204754042464 0.0022742407440080863 0.002247678856391941 0.0022776802651415136 0.0022491529587414173
          0.00382566181115582 0.0038246847355706787 0.0038237076599855367 0.002191397829225435 0.0022257662233749077 0.00219187545565202
          0.002226185089187286 0.0021923530820786045 0.0022266039549996646 0.003970142219550939 0.0038377637772387956 0.003968502563679865
          0.0038363357969721187 0.003966862907808793 0.0038349078167054422 0.002199196885751714 0.002199045302574929 0.002198893719398144
          0.0037041723629243 0.003703408654857514 0.003702644946790729 0.0021508923629481986 0.002151621950521217 0.0021523515380942352
          0.0021780730796999697 0.0021786049180344625 0.002179136756368956 0.004157921931698843 0.004155086231083221 0.004152250530467597
          0.004080151397514227 0.004078165062746225 0.004076178727978224
        </DataArray>
        <DataArray type="Float64" Name="pe11" format="ascii" RangeMin="0.0013003793707419024" RangeMax="0.004316502327803394">
          0.002814461925707362 0.00308310596303366 0.003110536187314098 0.002920351268410904 0.0028137063364322436 0.003081481177035237
          0.003109262514255611 0.0029193635667530823 0.002812950747157125 0.003079856391036813 0.003107988841197124 0.0029183758650952597
          0.0018653340298540168 0.0016174903066979516 0.001646077756643366 0.0019522442986408743 0.0018655560370251481 0.0016172888433106498
          0.0016463136588447682 0.0019524893064460428 0.0018657780441962797 0.0016170873799233483 0.0016465495610461706 0.0019527343142512112
          0.0013658638735081787 0.0013663305146172648 0.001366797155726351 0.0013825465003035862 0.0013830360224661219 0.0013835255446286577
          0.003000652931542815 0.0028266488752672885 0.002999815942387222 0.002825958422690257 0.0029989789532316284 0.0028252679701132257
          0.003942082029582401 0.004029894090912062 0.003841870748916831 0.0038423040705801615 0.00393996639621895 0.004028151756520308
          0.0038398897123440674 0.0038401178150201565 0.003937850762855496 0.004026409422128554 0.003837908675771304 0.0038379315594601515
          0.0020912943658099536 0.002349677137946198 0.002536168752431746 0.0023101172493856853 0.0020909987835876186 0.002348784347372546
          0.002535602917005421 0.0023100164299900143 0.0020907032013652836 0.002347891556798895 0.0025350370815790954 0.0023099156105943434
          0.0015775991791303328 0.0017293457200347308 0.001500333536444235 0.0014089436915011525 0.001578657676284761 0.0017298584636433665
          0.0015013471800371092 0.0014099320411864041 0.0015797161734391895 0.0017303712072520023 0.0015023608236299836 0.0014109203908716564
          0.0038631603375828432 0.0037877413104649847 0.0035942745157584305 0.00386313098355095 0.0037878957877346712 0.0035941159682682734
          0.0038631016295190574 0.0037880502650043573 0.0035939574207781164 0.003782228388430308 0.004009478528138165 0.003959377301722065
          0.003636400326558296 0.00378098703807934 0.00400767461093666 0.003957284941970627 0.0036352895268302434 0.0037797456877283705
          0.004005870693735155 0.00395519258221919 0.0036341787271021906 0.003406726214515257 0.0034058528075139277 0.0034049794005125995
          0.0033236182984815368 0.0032278824056556463 0.0033216322917691554 0.003226278628469937 0.003319646285056774 0.003224674851284229
          0.0024909467869538644 0.002788280569083738 0.0025038482564692984 0.002490309490473827 0.0027871474206651913 0.0025037909413299126
          0.00248967219399379 0.0027860142722466444 0.0025037336261905267 0.0036482425239957785 0.0034938571243180554 0.003607773944065947
          0.0037755173826631346 0.003646155352514691 0.0034927223013293766 0.0036068254182127805 0.003773815888840059 0.003644068181033603
          0.0034915874783406973 0.0036058768923596146 0.003772114395016983 0.0029184431292053944 0.002682219292843461 0.0027780781533785007
          0.0029182057030093826 0.0026818222234838473 0.0027767659793333423 0.002917968276813371 0.0026814251541242336 0.0027754538052881844
          0.0025022721742471235 0.002492100219700134 0.0020861138873255786 0.0025017932455625503 0.0024910214804532847 0.0020860420570952536
          0.0025013143168779776 0.0024899427412064354 0.0020859702268649282 0.0032002449521680173 0.002960169445881255 0.003034137262280656
          0.003343013996729948 0.003199597496203916 0.002958414218468405 0.003032879953157106 0.00334190317120316 0.003198950040239815
          0.002956658991055554 0.003031622644033555 0.003340792345676372 0.0037319340517792026 0.0035026107156432324 0.00373041640572171
          0.003500697994124789 0.003728898759664218 0.003498785272606345 0.0038287232612603363 0.0035092971756380967 0.0035732246906022566
          0.0038270601252297027 0.003508688186912856 0.0035719894266355045 0.003825396989199068 0.0035080791981876164 0.0035707541626687524
          0.0033813391459324967 0.0035420834698140433 0.003772973500370857 0.003667835747549854 0.0033801245451785525 0.0035402522647462195
          0.0037706938865836276 0.0036660723525491355 0.003378909944424609 0.003538421059678396 0.003768414272796398 0.003664308957548417
          0.002346873732640902 0.0025180618952257545 0.0023468290533797793 0.0025174123408387393 0.002346784374118657 0.002516762786451724
          0.0024966318745961633 0.002720751839735008 0.0024962773079287895 0.002719919276101592 0.0024959227412614166 0.0027190867124681755
          0.0013880106544329148 0.001411589525768811 0.001388124186410101 0.0014118227942977737 0.0013882377183872877 0.0014120560628267363
          0.002422023791788317 0.002315475800679569 0.002593834270614078 0.002743343353819826 0.0024225966545008103 0.00231583233234846
          0.002593727431208481 0.002743511403536143 0.002423169517213304 0.00231618886401735 0.0025936205918028836 0.00274367945325246
          0.00399306270523568 0.0037183407381487965 0.003992280962436861 0.0037175903895966334 0.00399149921963804 0.00371684004104447
          0.0042110158117009385 0.004099941559186159 0.004208141959931444 0.004097294847417859 0.004205268108161948 0.00409464813564956
          0.004316502327803394 0.004252833726372489 0.004313584770637401 0.004249501825226453 0.004310667213471409 0.004246169924080417
          0.0026728664232167675 0.002671997309981926 0.002671128196747085 0.0027969542782361923 0.002797978494292007 0.0027990027103478215
          0.0034070049025446978 0.0030915469779789883 0.0031195183449163446 0.0034573715009015875 0.003406704056118752 0.0030920720036659243
          0.003120093469180691 0.0034570985744099207 0.003406403209692807 0.0030925970293528603 0.003120668593445037 0.003456825647918254
          0.003921368772969245 0.0038817484697903667 0.003990676761800418 0.0039191827010252355 0.003880421446961671 0.003989641585528374
          0.003916996629081225 0.0038790944241329766 0.003988606409256331 0.004076945890168242 0.003921505635788803 0.00407320226450629
          0.003918848566730485 0.0040694586388443366 0.003916191497672168 0.0032421741932640827 0.0032418631474590283 0.0032415521016539747
          0.0013512938803565313 0.0014604583633503398 0.0014996935130111655 0.0013634657288268274 0.001351715133645941 0.001460875197170482
          0.0015009423071399288 0.0013643232499262502 0.0013521363869353508 0.0014612920309906238 0.0015021911012686922 0.0013651807710256727
          0.003793581249455629 0.003792354612048794 0.0037911279746419588 0.0031616709814869933 0.003162074203989119 0.0031624774264912446
          0.0033256456440133664 0.0033254134310865707 0.003325181218159775 0.002751168351523535 0.0026670014756581873 0.002750035104669154
          0.0026657616906524736 0.0027489018578147734 0.0026645219056467585 0.0030209290279956794 0.0028618578611586793 0.0030209813997478584
          0.002862864390842851 0.0030210337715000377 0.0028638709205270224 0.004212646668179526 0.004069962459445817 0.00420936366760368
          0.00406783298514129 0.004206080667027832 0.004065703510836762 0.0035051163495716537 0.0034547887309616682 0.003502805732212386
          0.0034527264519904565 0.0035004951148531185 0.003450664173019245 0.0037260551308864417 0.003725163643926077 0.003724272156965713
          0.0032643042271782814 0.002971314187314176 0.003262997373573228 0.0029709903370050096 0.0032616905199681742 0.0029706664866958436
          0.0033970665955296592 0.003277475707257196 0.0033951963324740445 0.003275177957770366 0.0033933260694184292 0.003272880208283535
          0.004270020010327014 0.004267040924101644 0.004264061837876275 0.004075311137445228 0.004074049401120389 0.0040727876647955515
          0.00319996947995248 0.003185012118737432 0.0031990161499495023 0.0031828908010259806 0.003198062819946524 0.003180769483314529
          0.004275950796705542 0.004273804819715018 0.004271658842724492 0.0028113781451920535 0.002812473066906966 0.002813567988621879
          0.004270962236155708 0.0041843250532619305 0.004269026278542061 0.004183158927787911 0.004267090320928415 0.004181992802313891
          0.0038842623036535145 0.0037104710052820013 0.00388307657266213 0.003708853489873791 0.003881890841670747 0.003707235974465582
          0.0027586583648212793 0.002985145200677765 0.0030233304580529414 0.002757427139919162 0.0029844492947900796 0.003021637517828529
          0.0027561959150170456 0.002983753388902394 0.0030199445776041165 0.0032776954075952806 0.0031152243938393923 0.0033385776966248426
          0.003538742903636596 0.0032755959711721736 0.00311218945177832 0.0033356595082298154 0.003536761721924425 0.003273496534749067
          0.0031091545097172483 0.0033327413198347886 0.003534780540212255 0.0018238471229862527 0.0015999601145342917 0.0015821136055535305
          0.0017349945686212136 0.0018250491971230146 0.0016004171126415112 0.0015820144859543224 0.00173543481267998 0.0018262512712597767
          0.0016008741107487311 0.001581915366355114 0.001735875056738746 0.004254717877848428 0.004251319083822665 0.0042479202897969005
          0.0029285280115640827 0.002776300421650213 0.0029267197594552755 0.0027747677708587415 0.0029249115073464687 0.00277323512006727
          0.004047753431890678 0.003963587911108916 0.0040459340970122465 0.00396178867490136 0.004044114762133815 0.003959989438693803
          0.002545166149709632 0.0023904669406689203 0.0025441402007838447 0.0023908301052894035 0.002543114251858058 0.002391193269909887
          0.0019191021234308617 0.002073501750082217 0.0019203212732667933 0.002074753775401455 0.0019215404231027243 0.002076005800720694
          0.0017499025055968316 0.0016223695094305347 0.0017499504122675945 0.0016221919374235561 0.0017499983189383577 0.0016220143654165783
          0.004112669518155355 0.004111729581255504 0.004110789644355653 0.004076323353325016 0.004074827005557219 0.004073330657789422
          0.0019548195026440483 0.0017028400473997269 0.0016654217645380347 0.0019020095898998094 0.0019551267358635907 0.0017039968148365888
          0.0016668352366670898 0.0019030392454779856 0.0019554339690831327 0.001705153582273451 0.0016682487087961446 0.001904068901056162
          0.004213815726938728 0.0041973921844366754 0.004211620315119513 0.004195379618067039 0.004209424903300299 0.004193367051697403
          0.001387445368706254 0.001385180444520336 0.0013753975456556914 0.0013617727911266406 0.0013870580880689213 0.0013849588968897907
          0.0013752792152982097 0.0013616795459199143 0.0013866708074315886 0.0013847373492592457 0.0013751608849407277 0.0013615863007131882
          0.0015030690809543963 0.0014102742010870474 0.001502022077106977 0.001502996367120151 0.00141046550594121 0.0015019117083209103
          0.0015029236532859056 0.0014106568107953728 0.0015018013395348435 0.0021941955797051002 0.0021958090260684768 0.002197422472431853
          0.0038254721183174113 0.003653293518093957 0.0038230332558569424 0.0036510552282056755 0.0038205943933964748 0.0036488169383173956
          0.0034325576218408975 0.003019450387287432 0.003431440386825766 0.003018544505240073 0.003430323151810635 0.0030176386231927145
          0.002204437178282833 0.002204490227720684 0.0022045432771585346 0.004221674583375591 0.004220270036535504 0.004218865489695417
          0.0026515724303817967 0.002961328583162241 0.002652182963975826 0.0029595386569186053 0.0026527934975698548 0.0029577487306749694
          0.001359061207750474 0.001325958842662292 0.0013590689548541289 0.001326164649637307 0.0013590767019577836 0.0013263704566123218
          0.0013003793707419024 0.0013218967941441987 0.0013010433915500203 0.0013228558003063953 0.0013017074123581381 0.0013238148064685918
          0.0013837848717596214 0.0016447632325376647 0.0015081335707831287 0.0013849948809898397 0.0016453679082310284 0.0015089314256719341
          0.001386204890220058 0.0016459725839243918 0.0015097292805607398 0.001913760300795566 0.0021681512484744247 0.001913794259829313
          0.002167871710490996 0.001913828218863059 0.0021675921725075667 0.0014272309915216636 0.0014769920325395489 0.0014269263779926298
          0.001476695913075163 0.0014266217644635958 0.001476399793610777 0.0018230804049743261 0.0016863017360906967 0.001823190127439551
          0.0016863817253914024 0.0018232998499047757 0.0016864617146921078 0.0014711335563545565 0.0014711051425674992 0.0014710767287804418
          0.0025819347854021332 0.002589344377782554 0.0025724109559797778 0.0025479403303658252 0.0025805920630119824 0.002587569719006507
          0.002570537111977733 0.002546542991561036 0.0025792493406218316 0.0025857950602304596 0.002568663267975688 0.002545145652756246
          0.0025187026307479997 0.0025230315097693576 0.002517554596997065 0.0025218597388664715 0.0025164065632461304 0.002520687967963584
          0.0014296639561397005 0.0014295792047990738 0.0014294944534584471 0.001851446275091483 0.0018516590571243383 0.0018518718391571935
          0.0023099295365630696 0.002309736867831648 0.002309544199100226 0.002285873455962083 0.0022871185615563807 0.0022883636671506783
          0.0026487313850751923 0.0026482667712868662 0.00264780215749854 0.002427287828005972 0.0025897663004238 0.0024272204862589336
          0.002588548942114626 0.0024271531445118955 0.002587331583805452 0.0027212551646246383 0.002720756123044251 0.0027202570814638632
          0.0025823685305401043 0.0025833455635387347 0.002584322596537364 0.0015709234931831663 0.0015706379164857032 0.0015703523397882402
          0.0040043963615290995 0.004003432195706011 0.004002468029882922 0.003329022826463163 0.0031943724424593005 0.0033276834447063027
          0.003192935243891335 0.0033263440629494423 0.0031914980453233697 0.0040848638945746125 0.004083872042447351 0.004082880190320087
          0.0030529463220612253 0.0030515516266329066 0.0030501569312045883 0.002764950256183577 0.0027633793819494905 0.002761808507715405
          0.0026716860433394444 0.0026730141500160656 0.0026743422566926876 0.0024814559207851617 0.002482646621768476 0.00248383732275179
          0.002495850383895812 0.002497166274805469 0.002498482165715126 0.0023848045730547516 0.002396488267971857 0.0023842162571537854
          0.002395652286624745 0.002383627941252819 0.002394816305277633 0.002140336117357351 0.001963318370134182 0.0021403892210342897
          0.0019637487377360116 0.0021404423247112286 0.001964179105337841 0.0026545282986824344 0.002653309021317182 0.0026520897439519294
          0.0013029334673539013 0.0013033635248892131 0.001303793582424525 0.00398684987509466 0.0039853088063992155 0.003983767737703772
          0.0023626145873010375 0.0025305985077300796 0.0023623744052227833 0.002529581081446437 0.002362134223144529 0.0025285636551627953
          0.0021941978491508227 0.0022579633053087882 0.0023278457580907836 0.002194190891625509 0.0022580775294249247 0.002327786340259434
          0.0021941839341001954 0.0022581917535410613 0.0023277269224280845 0.0024440229519021865 0.0024979593562073107 0.0024436709977677575
          0.0024974519858829885 0.002443319043633328 0.002496944615558666 0.002629306481983885 0.0026278440299963637 0.002626381578008842
          0.0022059670230095084 0.002206187563666419 0.00220640810432333 0.0020569704164898703 0.002057151974069096 0.0020573335316483215
          0.004116150695843793 0.004114382496417622 0.004112614296991449 0.0014049164327537582 0.0014047732565271949 0.001404630080300632
          0.0013428790051580783 0.0016572966184211645 0.0013431456000273002 0.0016580139877377738 0.001343412194896522 0.0016587313570543827
          0.00342503467213512 0.00342550106494827 0.0034259674577614197 0.0030589771045834205 0.0031382022574164745 0.003466513689296622
          0.0030577817092454617 0.0031370372433155436 0.0034658366170942033 0.0030565863139075033 0.003135872229214612 0.0034651595448917847
          0.002145095304644086 0.0022798540591593445 0.0021453490125957157 0.002280031355389572 0.002145602720547346 0.0022802086516197986
          0.003775882165248939 0.0034515460414762545 0.0037754524836729835 0.0034521569536519955 0.003775022802097028 0.003452767865827737
          0.0024397024261351334 0.0024395690930099144 0.0024394357598846957 0.0027938910480130186 0.0025351057752590863 0.0024967143327420944
          0.0027949898589683933 0.0025360992195333472 0.0024977746512183287 0.002796088669923767 0.0025370926638076077 0.0024988349696945626
          0.0031973433923116364 0.003197392934939411 0.0031974424775671846 0.00409314337230759 0.004168066065053471 0.004090344090124742
          0.0041646504605948155 0.004087544807941896 0.004161234856136161 0.0030603658752864993 0.0030080894375283003 0.0030608271510989037
          0.0030083586745555564 0.003061288426911307 0.003008627911582813 0.003903842101744268 0.003902209739551892 0.0039005773773595153
          0.0037455116307514003 0.00374467603357772 0.003743840436404039 0.002170235273885146 0.0021709645174785965 0.002171693761072047
          0.002016881394222683 0.002017398077892885 0.0020179147615630873 0.0024057083559316855 0.0024061360306577738 0.002406563705383862
          0.002819216269672332 0.0028202175622111794 0.0028212188547500276 0.002810696386453012 0.0029509889144213406 0.002810921476366042
          0.0029502175030949296 0.002811146566279072 0.002949446091768519 0.002125032938447193 0.0021174557263846853 0.002125887750960765
          0.002118388110655271 0.0021267425634743367 0.002119320494925857 0.0019648157460766653 0.00196603933296406 0.0019672629198514554
          0.0022707409236700634 0.0022461557046104465 0.0022741777025655887 0.002247627773838781 0.0022776144814611143 0.002249099843067116
          0.003824138315504156 0.0038231613756322027 0.0038221844357602492 0.002191017134232486 0.0022253502727031197 0.0021914908615569295
          0.0022257622609927414 0.0021919645888813727 0.002226174249282363 0.0039694740982948815 0.0038366609434678997 0.003967828329534925
          0.0038352350306696424 0.003966182560774968 0.003833809117871384 0.002199147787184249 0.0021989951832516387 0.002198842579319028
          0.003703644653304154 0.003702870812341884 0.003702096971379613 0.0021505866830678812 0.0021513145917932087 0.002152042500518536
          0.0021777401629186678 0.0021782696155727642 0.0021787990682268603 0.0041575397002039756 0.004154703650569443 0.004151867600934911
          0.00407969490353797 0.004077704108025842 0.0040757133125137145
        </DataArray>
        <DataArray type="Float64" Name="pe22" format="ascii" RangeMin="-0.002151463580139382" RangeMax="-0.0006520496214962891">
          -0.0014046038231673812 -0.0015355673844192356 -0.0015594796625223398 -0.0014656236482242023 -0.0014047973844448934 -0.0015358421885511631
          -0.0015598563515129597 -0.0014658963129477174 -0.0014049909457224058 -0.0015361169926830904 -0.0015602330405035793 -0.001466168977671233
          -0.0009255080829930994 -0.0008023085138999394 -0.0008165561225760538 -0.0009679868524543766 -0.000925340893573741 -0.0008020973069958706
          -0.0008164162326918838 -0.0009676904864614072 -0.0009251737041543826 -0.000801886100091802 -0.000816276342807714 -0.0009673941204684376
          -0.0006789055966448444 -0.0006788008640921413 -0.0006786961315394381 -0.0006880754091109254 -0.0006880153438619249 -0.0006879552786129245
          -0.001508977523565411 -0.0014243876982074108 -0.0015093068324252752 -0.001424693669573724 -0.0015096361412851396 -0.001424999640940037
          -0.0019709724382126377 -0.0020142291372508667 -0.0019179371846251311 -0.0019175571949824604 -0.001971508009588644 -0.0020147404441244214
          -0.0019182576343586637 -0.0019179206057233248 -0.0019720435809646507 -0.002015251750997976 -0.001918578084092196 -0.0019182840164641897
          -0.0010393293727346757 -0.0011678216887908322 -0.0012660888762120817 -0.0011548497572998473 -0.0010392962263904189 -0.0011672905418255626
          -0.001265798598702044 -0.00115494630080442 -0.001039263080046162 -0.0011667593948602934 -0.0012655083211920066 -0.001155042844308993
          -0.0007867357105323445 -0.000861589876029556 -0.0007507947596610636 -0.0007054583724046097 -0.0007869108610730141 -0.000861751849599128
          -0.0007513538650090067 -0.0007058355502446538 -0.0007870860116136837 -0.0008619138231687002 -0.0007519129703569498 -0.000706212728084698
          -0.0019593718090030864 -0.0019312706464909533 -0.0018157327060491916 -0.001959610519451687 -0.0019314000471832879 -0.0018158584367494953
          -0.0019598492299002872 -0.001931529447875622 -0.0018159841674497998 -0.001868059223461234 -0.0019783468316786164 -0.0019508305831386075
          -0.0017925334345970131 -0.0018679704766247731 -0.0019785570004717985 -0.0019510372670133232 -0.0017926187038648691 -0.0018678817297883119
          -0.001978767169264981 -0.0019512439508880385 -0.0017927039731327249 -0.0016850235355918015 -0.0016850989921623231 -0.0016851744487328445
          -0.0016661919087581263 -0.0016232203737752873 -0.0016665941945305889 -0.0016235707693649046 -0.0016669964803030515 -0.001623921164954522
          -0.00124243946866778 -0.001389970436074414 -0.0012475378127718153 -0.001242700092046629 -0.0013899629840177943 -0.0012478483305852803
          -0.0012429607154254782 -0.0013899555319611746 -0.0012481588483987454 -0.0018279681039222839 -0.0017447528099200735 -0.0018058424305803602
          -0.00189470811605223 -0.0018282906409163523 -0.0017451202078882266 -0.0018061474058658565 -0.0018951241858407395 -0.0018286131779104199
          -0.0017454876058563787 -0.0018064523811513532 -0.001895540255629249 -0.0014537606432350769 -0.001342222848648743 -0.0013785395657718565
          -0.0014542443188699404 -0.0013422942730741789 -0.0013787210016785944 -0.0014547279945048034 -0.0013423656974996146 -0.0013789024375853325
          -0.00125595220153626 -0.0012466981151220049 -0.0010426323134572206 -0.0012560580014910822 -0.0012468572171720669 -0.0010434679228980774
          -0.0012561638014459045 -0.0012470163192221289 -0.0010443035323389343 -0.001590026850917825 -0.0014631683220049615 -0.0015004615380939008
          -0.0016624899815819347 -0.0015905293899010973 -0.0014634695957300157 -0.0015006055478399723 -0.0016626299348219823 -0.0015910319288843697
          -0.00146377086945507 -0.0015007495575860442 -0.0016627698880620299 -0.0018386357096856925 -0.0017276526420324703 -0.0018390510572934067
          -0.0017277658092569855 -0.001839466404901121 -0.0017278789764815002 -0.0019148556406671075 -0.0017605739302594895 -0.00178914689051901
          -0.0019151423368676142 -0.0017607501687979343 -0.0017894107810663708 -0.0019154290330681213 -0.0017609264073363792 -0.0017896746716137316
          -0.0016952931564073604 -0.0017734743253504494 -0.0018879646757012315 -0.0018343333093375066 -0.0016955252950907249 -0.0017740133056613002
          -0.0018884801724043754 -0.0018347173765981908 -0.0016957574337740896 -0.0017745522859721515 -0.001888995669107519 -0.001835101443858875
          -0.0011765410705536084 -0.0012649379447538084 -0.0011770085449923186 -0.0012652942353517918 -0.0011774760194310288 -0.0012656505259497747
          -0.0012466455881388417 -0.0013590937938480422 -0.0012472376970565733 -0.001359340750010038 -0.001247829805974305 -0.001359587706172033
          -0.0006948328982949735 -0.0007053010211415631 -0.0006949431963042295 -0.0007054232616069747 -0.0006950534943134857 -0.0007055455020723864
          -0.0012131869855047822 -0.0011606801474236153 -0.0013063759986878427 -0.0013800126806851924 -0.0012132221622297996 -0.0011606485069364824
          -0.001306589065963804 -0.0013803289944018802 -0.0012132573389548173 -0.0011606168664493495 -0.0013068021332397653 -0.0013806453081185673
          -0.0020133298126524743 -0.0018713757814767655 -0.0020139691427131217 -0.0018717607789363417 -0.002014608472773769 -0.0018721457763959182
          -0.0020900404095748034 -0.0020366177537209334 -0.002090420742390463 -0.00203672384117748 -0.0020908010752061224 -0.0020368299286340264
          -0.0021502991073697906 -0.0021163263015411306 -0.0021508813437545863 -0.0021168919927040683 -0.002151463580139382 -0.002117457683867006
          -0.0013466612820365995 -0.0013468969245877184 -0.0013471325671388374 -0.0014153561311732623 -0.001415391044474392 -0.0014154259577755215
          -0.0017120612414261449 -0.0015569190997570073 -0.0015731471911523615 -0.0017365757145722084 -0.001712186323993139 -0.0015568824037270731
          -0.0015731488390228695 -0.0017366680833746063 -0.001712311406560133 -0.001556845707697139 -0.0015731504868933773 -0.0017367604521770035
          -0.0019665408676553158 -0.0019469397004894474 -0.0019972668599230916 -0.0019671043832663556 -0.0019474259942113645 -0.001997995650847499
          -0.0019676678988773955 -0.0019479122879332818 -0.0019987244417719067 -0.002008500651658028 -0.0019321632134264447 -0.0020087937489142228
          -0.001932515327628505 -0.002009086846170417 -0.0019328674418305656 -0.0016312159967798512 -0.0016312515061837657 -0.0016312870155876806
          -0.0006758141010787444 -0.0007294655675986634 -0.0007503797057663514 -0.0006828931448303024 -0.0006760279302901704 -0.0007296070006417139
          -0.0007506545645309978 -0.0006832190092801529 -0.0006762417595015961 -0.0007297484336847643 -0.0007509294232956443 -0.0006835448737300036
          -0.0019030056271903467 -0.0019033866446726282 -0.0019037676621549097 -0.0015946640143847876 -0.0015947135471584442 -0.0015947630799321008
          -0.0016734414412253491 -0.0016735354548631238 -0.001673629468500899 -0.0013793470992175775 -0.0013369338853428268 -0.001379663990648099
          -0.0013373355135091133 -0.0013799808820786205 -0.0013377371416754002 -0.0015191501696560923 -0.0014456235951285181 -0.0015194336253557296
          -0.0014456795771004066 -0.0015197170810553671 -0.0014457355590722953 -0.0020938681973537905 -0.002021178352632434 -0.002094529815763993
          -0.0020219624896433324 -0.0020951914341741954 -0.002022746626654231 -0.0017570452611533286 -0.0017349187941621584 -0.001757358592455606
          -0.001735391330615602 -0.001757671923757883 -0.001735863867069045 -0.001861515369971096 -0.0018616805046497702 -0.0018618456393284448
          -0.0016399970714077931 -0.0014957276696317126 -0.0016404454861293643 -0.0014961336357513823 -0.0016408939008509351 -0.001496539601871052
          -0.001692420153116485 -0.0016316081059624394 -0.0016926680609618526 -0.0016318348842217943 -0.00169291596880722 -0.0016320616624811498
          -0.0021283286899751053 -0.0021289708659367104 -0.0021296130418983154 -0.002044861572510136 -0.0020456712905147084 -0.002046481008519281
          -0.0015883873706707655 -0.0015791694785599376 -0.0015887491289228286 -0.0015793010771590794 -0.0015891108871748916 -0.0015794326757582208
          -0.002135709100148282 -0.0021363097589153514 -0.0021369104176824204 -0.001425040905571461 -0.001425066421640061 -0.0014250919377086608
          -0.002136554274738223 -0.0021018396515390756 -0.002137380730476205 -0.002102523703862183 -0.0021382071862141878 -0.0021032077561852903
          -0.0019337626794667141 -0.0018360819178856959 -0.0019340513790061882 -0.001836202130444337 -0.0019343400785456627 -0.0018363223430029785
          -0.0013775159591747019 -0.001485610301896095 -0.0015003350480334823 -0.0013774330469179326 -0.0014858615147302302 -0.0015004541105452783
          -0.001377350134661163 -0.0014861127275643655 -0.0015005731730570737 -0.0016242929646575616 -0.0015441178319785297 -0.0016470604836067184
          -0.0017481618599415872 -0.0016245441018609235 -0.001544041216710841 -0.0016472403083732244 -0.0017486416112211741 -0.0016247952390642854
          -0.0015439646014431523 -0.0016474201331397303 -0.0017491213625007614 -0.0009133730950497106 -0.0007994881953293127 -0.0007894506157017054
          -0.0008672491860402186 -0.0009135344260254989 -0.0007995678272878654 -0.0007893198021695512 -0.0008672115031532618 -0.000913695757001287
          -0.0007996474592464181 -0.000789188988637397 -0.0008671738202663052 -0.002114125726941091 -0.0021144594686602755 -0.0021147932103794593
          -0.0014514642383672504 -0.0013804817533709796 -0.0014512988912994509 -0.0013803366222186787 -0.0014511335442316516 -0.0013801914910663777
          -0.00205376727392034 -0.002014282370445697 -0.0020540891897216497 -0.00201479495158237 -0.002054411105522959 -0.002015307532719043
          -0.0012583234172350909 -0.0011869714284396897 -0.0012580400149904611 -0.001187077303040917 -0.0012577566127458314 -0.001187183177642144
          -0.0009567222184009812 -0.001034076591737401 -0.0009568490505105766 -0.0010342092141200823 -0.0009569758826201719 -0.0010343418365027638
          -0.0008695132123911966 -0.0008072279044871546 -0.0008693670412202903 -0.000807036250465201 -0.0008692208700493841 -0.0008068445964432475
          -0.0020577366267420785 -0.002058776674984298 -0.0020598167232265176 -0.002040122540962363 -0.0020407294973421057 -0.0020413364537218474
          -0.0009717357050388165 -0.0008465785566851387 -0.0008310862214914595 -0.0009482876172078491 -0.0009715896472227611 -0.0008466377560062431
          -0.0008313024644320734 -0.0009483214640014003 -0.0009714435894067053 -0.0008466969553273473 -0.0008315187073726872 -0.0009483553107949513
          -0.0021121704146608703 -0.002110982317223042 -0.0021126961354199776 -0.0021114025641694152 -0.0021132218561790853 -0.0021118228111157884
          -0.0006941397988757655 -0.000693468221705454 -0.0006880571683266572 -0.0006815419210690789 -0.0006940177880484651 -0.0006934242134087371
          -0.0006881066722995052 -0.0006815876824802364 -0.0006938957772211647 -0.0006933802051120201 -0.0006881561762723533 -0.000681633443891394
          -0.0007483555979667321 -0.0007026312848578448 -0.0007469546833103735 -0.0007481967311055684 -0.0007025940528910218 -0.0007468283363579845
          -0.0007480378642444046 -0.0007025568209241989 -0.0007467019894055954 -0.0010914909483303926 -0.0010917211276153845 -0.0010919513069003765
          -0.001918295620773031 -0.0018303885610520478 -0.0019188088199085305 -0.0018309302949754852 -0.0019193220190440305 -0.0018314720288989225
          -0.0017045922483537907 -0.0014961508988914768 -0.0017046554882921487 -0.001496227212652783 -0.001704718728230507 -0.001496303526414089
          -0.0010952718004731174 -0.001095053293623855 -0.0010948347867745926 -0.0021139606181813553 -0.0021149998144613727 -0.00211603901074139
          -0.0013232440734585909 -0.0014735885937479278 -0.0013233112986136787 -0.0014732884739906789 -0.001323378523768766 -0.0014729883542334294
          -0.0006791506283655036 -0.0006633607869959714 -0.0006792559201631678 -0.0006635387686574121 -0.000679361211960832 -0.0006637167503188527
          -0.0006520496214962891 -0.0006636318736934243 -0.0006524067427776761 -0.0006640966874949261 -0.000652763864059063 -0.0006645615012964279
          -0.000695279868264531 -0.0008232995858266148 -0.000759492110689478 -0.0006959777042121054 -0.0008239571886940209 -0.0007602876483660865
          -0.0006966755401596798 -0.0008246147915614273 -0.000761083186042695 -0.0009538437463384942 -0.0010781711840771753 -0.0009539886539479659
          -0.0010779383957389805 -0.0009541335615574373 -0.0010777056074007855 -0.0007115426586877475 -0.0007358845169464336 -0.0007115653659277832
          -0.0007358736826600932 -0.0007115880731678189 -0.0007358628483737528 -0.0009107124738584973 -0.0008499659584651092 -0.0009113912522856879
          -0.0008507516299935382 -0.0009120700307128784 -0.000851537301521967 -0.0007334753114655974 -0.0007334169599467705 -0.0007333586084279435
          -0.001294115460446247 -0.0012953713198805632 -0.0012871503489136175 -0.0012757327554760256 -0.001294605770605928 -0.0012953385415412474
          -0.0012869335237116063 -0.0012763053178313658 -0.001295096080765609 -0.0012953057632019318 -0.0012867166985095946 -0.0012768778801867057
          -0.0012605329207129269 -0.001262724469813117 -0.0012605353406767617 -0.0012628372416243633 -0.0012605377606405965 -0.0012629500134356095
          -0.0007133651292213428 -0.0007134819599226043 -0.000713598790623866 -0.0009303846935201216 -0.0009315316122386092 -0.0009326785309570966
          -0.0011441494080185026 -0.0011439426929437373 -0.001143735977868972 -0.001136827115505145 -0.0011366740813645762 -0.0011365210472240072
          -0.0013094290946362934 -0.00130944944003334 -0.0013094697854303858 -0.00120148904832804 -0.001281002866003794 -0.0012015283379985273
          -0.0012809571774933248 -0.0012015676276690144 -0.0012809114889828555 -0.0013447362357881351 -0.001345018436696968 -0.001345300637605801
          -0.0012984877749994766 -0.0012987517662857765 -0.0012990157575720764 -0.0007796509513999655 -0.0007794626904762586 -0.0007792744295525519
          -0.0020382263698793556 -0.002038389973995292 -0.002038553578111228 -0.001647474919957345 -0.001582324716504976 -0.0016477911252096434
          -0.001582491693555052 -0.0016481073304619417 -0.0015826586706051283 -0.002066924349331294 -0.0020672804401454677 -0.0020676365309596416
          -0.0015146728500633512 -0.0015146120692884379 -0.0015145512885135245 -0.001363633447953638 -0.001363892045025128 -0.0013641506420966176
          -0.0013331386271749311 -0.0013332476844208814 -0.0013333567416668314 -0.0012573774450635891 -0.0012573667897114074 -0.0012573561343592256
          -0.0012618608801266188 -0.0012619263826618733 -0.0012619918851971277 -0.001193025803761225 -0.0011990094929230889 -0.001193253753038228
          -0.0011990369161399565 -0.0011934817023152309 -0.0011990643393568244 -0.0010668085743492195 -0.0009830629784002424 -0.0010677457608081738
          -0.000984317031378933 -0.001068682947267128 -0.0009855710843576237 -0.0013292330502454972 -0.001329688256872143 -0.001330143463498789
          -0.000652284447675226 -0.0006525556035216624 -0.0006528267593680986 -0.0020210707121915087 -0.0020216662688424497 -0.0020222618254933907
          -0.001181895284969863 -0.0012671385866707945 -0.0011823600078166045 -0.001267489687096596 -0.0011828247306633457 -0.001267840787522398
          -0.0010955684874720103 -0.0011255146085552268 -0.001158350223085873 -0.001096338249847828 -0.001126144385452929 -0.0011593388942239605
          -0.0010971080122236456 -0.001126774162350631 -0.001160327565362048 -0.0012185427760756627 -0.0012497282251438683 -0.0012199068727148088
          -0.0012508611266894359 -0.0012212709693539547 -0.0012519940282350033 -0.001315030863057072 -0.0013153656681561066 -0.0013157004732551412
          -0.0010986481494283868 -0.0010993871677768296 -0.0011001261861252726 -0.001028074390268433 -0.0010290442537103312 -0.0010300141171522299
          -0.0020759015064523746 -0.002076403188639009 -0.002076904870825644 -0.0007017994247488432 -0.0007018889879122413 -0.0007019785510756391
          -0.0006677927441746587 -0.0008223580035385109 -0.0006675779134767035 -0.0008222156363025092 -0.0006673630827787483 -0.0008220732690665076
          -0.0017339782192176824 -0.0017339404257423452 -0.0017339026322670081 -0.0015190710625842783 -0.0015593261602290008 -0.0017149618567107003
          -0.0015192622876089665 -0.0015592594689660256 -0.0017147871507945745 -0.0015194535126336547 -0.0015591927777030502 -0.0017146124448784487
          -0.0010755672307314608 -0.001145656799462943 -0.0010757255164337573 -0.001145873402332949 -0.001075883802136054 -0.0011460900052029548
          -0.0019264877188175126 -0.00175066322244151 -0.0019268497795610106 -0.0017508656847026168 -0.0019272118403045075 -0.001751068146963724
          -0.0012275537399561087 -0.0012277429011745408 -0.0012279320623929733 -0.0014092630449248208 -0.0012748579847257349 -0.0012610724317308178
          -0.00140919266406877 -0.0012747952579491074 -0.0012610490555957548 -0.001409122283212719 -0.0012747325311724803 -0.0012610256794606913
          -0.0016111535231141405 -0.001611010451601261 -0.0016108673800883813 -0.0020383919533091058 -0.002078485054699331 -0.002039029424381688
          -0.002079020038459154 -0.0020396668954542705 -0.002079555022218976 -0.00153926980236725 -0.0015128075116757275 -0.0015392929001297171
          -0.001512744715687413 -0.0015393159978921841 -0.0015126819196990984 -0.0019397567421875965 -0.0019399290391124984 -0.0019401013360374002
          -0.0019100357026020636 -0.0019104717752863442 -0.0019109078479706246 -0.0010879860385035155 -0.0010881175349499036 -0.0010882490313962915
          -0.0010000964598557262 -0.000999755070652997 -0.0009994136814502677 -0.0011964899978628445 -0.001196288373638744 -0.001196086749414644
          -0.0014189200320563404 -0.0014188522188676952 -0.0014187844056790498 -0.0013999781185462799 -0.0014661446418243297 -0.0014002767515587985
          -0.0014665808855252745 -0.0014005753845713173 -0.0014670171292262188 -0.0010643151236872516 -0.0010589137393928888 -0.0010641498978609396
          -0.0010588340851413762 -0.0010639846720346276 -0.0010587544308898638 -0.0009839055239015686 -0.0009839891602419272 -0.0009840727965822855
          -0.00113634219850568 -0.0011235051640126536 -0.001137406834250825 -0.001124143840302122 -0.00113847146999597 -0.0011247825165915906
          -0.001950387355293844 -0.0019509924165348846 -0.0019515974777759254 -0.0011030924112251919 -0.001116036452034779 -0.0011029065936307698
          -0.0011157342629536046 -0.0011027207760363473 -0.0011154320738724298 -0.002007934736241875 -0.0019573686487811487 -0.002008306242795877
          -0.0019577108684098385 -0.0020086777493498794 -0.001958053088038529 -0.0011000062550479872 -0.001100273388659095 -0.0011005405222702029
          -0.0018309276566476943 -0.0018307301656286512 -0.0018305326746096077 -0.0010805509881102679 -0.0010803803783829887 -0.0010802097686557096
          -0.001096979841142066 -0.0010968586663476824 -0.0010967374915532987 -0.0020820247890831313 -0.002082541706743162 -0.002083058624403193
          -0.002051798754672689 -0.0020522936697852908 -0.0020527885848978925
        </DataArray>
        <DataArray type="Float64" Name="pe33" format="ascii" RangeMin="-0.002166203220433602" RangeMax="-0.0006483297492456133">
          -0.0014098581025399804 -0.001547538578614424 -0.0015510565247917572 -0.0014547276201867018 -0.0014089089519873498 -0.001545638988484073
          -0.0015494061627426509 -0.0014534672538053643 -0.0014079598014347197 -0.0015437393983537228 -0.0015477558006935443 -0.001452206887424027
          -0.0009398259468609171 -0.0008151817927980119 -0.000829521634067312 -0.0009842574461864974 -0.000940215143451407 -0.000815191536314779
          -0.0008298974261528839 -0.0009847988199846354 -0.0009406043400418968 -0.0008152012798315461 -0.0008302732182384562 -0.0009853401937827734
          -0.0006869582768633341 -0.0006875296505251233 -0.0006881010241869126 -0.0006944710911926608 -0.0006950206786041969 -0.000695570266015733
          -0.001491675407977404 -0.001402261177059877 -0.0014905091099619461 -0.0014012647531165326 -0.0014893428119464884 -0.0014002683291731881
          -0.0019711095913697635 -0.002015664953661195 -0.0019239335642916994 -0.001924746875597701 -0.0019684583866303043 -0.002013411312395886
          -0.0019216320779854034 -0.0019221972092968312 -0.0019658071818908452 -0.002011157671130577 -0.0019193305916791075 -0.001919647542995961
          -0.001051964993075278 -0.0011818554491553662 -0.0012700798762196642 -0.001155267492085838 -0.0010517025571971997 -0.0011814938055469838
          -0.001269804318303376 -0.0011550701291855939 -0.0010514401213191213 -0.0011811321619386015 -0.0012695287603870884 -0.0011548727662853498
          -0.000790863468597988 -0.0008677558440051746 -0.0007495387767831712 -0.0007034853190965426 -0.0007917468152117467 -0.0008681066140442383
          -0.0007499933150281025 -0.0007040964909417502 -0.0007926301618255054 -0.0008684573840833019 -0.0007504478532730338 -0.0007047076627869579
          -0.0019037885285797568 -0.0018564706639740316 -0.0017785418097092383 -0.0019035204640992637 -0.0018564957405513833 -0.0017782575315187774
          -0.0019032523996187708 -0.0018565208171287349 -0.0017779732533283168 -0.001914169164969074 -0.002031131696459548 -0.0020085467185834566
          -0.0018438668919612833 -0.0019130165614545662 -0.002029117610464861 -0.0020062476749573037 -0.0018426708229653738 -0.0019118639579400586
          -0.002027103524470174 -0.002003948631331151 -0.0018414747539694648 -0.0017217026789234549 -0.0017207538153516046 -0.0017198049517797547
          -0.0016574263897234094 -0.0016046620318803584 -0.0016550380972385661 -0.0016027078591050324 -0.0016526498047537224 -0.0016007536863297067
          -0.0012485073182860833 -0.0013983101330093234 -0.0012563104436974825 -0.0012476093984271977 -0.0013971844366473967 -0.0012559426107446319
          -0.0012467114785683119 -0.0013960587402854702 -0.001255574777791781 -0.0018202744200734944 -0.001749104314397981 -0.001801931513485587
          -0.001880809266610905 -0.0018178647115983382 -0.0017476020934411491 -0.0018006780123469238 -0.0018786917029993192 -0.0018154550031231822
          -0.0017460998724843173 -0.0017994245112082604 -0.0018765741393877333 -0.0014646824859703166 -0.0013399964441947174 -0.0013995385876066435
          -0.0014639613841394416 -0.001339527950409668 -0.0013980449776547477 -0.0014632402823085665 -0.0013390594566246186 -0.0013965513677028519
          -0.0012463199727108635 -0.0012454021045781288 -0.0010434815738683575 -0.001245735244071468 -0.0012441642632812174 -0.0010425741341971758
          -0.0012451505154320727 -0.0012429264219843063 -0.001041666694525994 -0.0016102181012501917 -0.0014970011238762937 -0.001533675724186755
          -0.001680524015148013 -0.0016090681063028183 -0.0014949446227383889 -0.0015322744053171333 -0.001679273236381177 -0.0016079181113554451
          -0.0014928881216004842 -0.001530873086447511 -0.0016780224576143418 -0.0018932983420935096 -0.0017749580736107617 -0.001891365348428303
          -0.001772932184867803 -0.0018894323547630969 -0.001770906296124844 -0.0019138676205932288 -0.001748723245378607 -0.0017840778000832464
          -0.0019119177883620874 -0.001747938018114922 -0.0017825786455691335 -0.0019099679561309462 -0.0017471527908512366 -0.00178107949105502
          -0.0016860459895251354 -0.001768609144463593 -0.0018850088246696243 -0.0018335024382123467 -0.0016845992500878271 -0.0017662389590849185
          -0.0018822137141792515 -0.001831354975950944 -0.0016831525106505193 -0.001763868773706244 -0.0018794186036888787 -0.0018292075136895417
          -0.0011703326620872935 -0.0012531239504719458 -0.0011698205083874608 -0.0012521181054869477 -0.0011693083546876282 -0.0012511122605019492
          -0.0012499862864573214 -0.0013616580458869659 -0.0012490396108722165 -0.001360578526091554 -0.0012480929352871113 -0.0013594990062961423
          -0.0006931777561379411 -0.0007062885046272479 -0.0006931809901058715 -0.0007063995326907989 -0.000693184224073802 -0.0007065105607543499
          -0.001208836806283534 -0.0011547956532559536 -0.0012874582719262352 -0.0013633306731346332 -0.0012093744922710105 -0.0011551838254119772
          -0.0012871383652446767 -0.001363182409134263 -0.0012099121782584866 -0.0011555719975680008 -0.0012868184585631182 -0.001363034145133893
          -0.0019797328925832062 -0.0018469649566720309 -0.0019783118197237385 -0.0018458296106602912 -0.0019768907468642716 -0.0018446942646485514
          -0.0021209754021261342 -0.0020633238054652255 -0.00211772121754098 -0.0020605710062403795 -0.0021144670329558257 -0.0020578182070155335
          -0.002166203220433602 -0.002136507424831358 -0.002162703426882814 -0.0021326098325223845 -0.0021592036333320263 -0.0021287122402134104
          -0.0013262051411801678 -0.0013251003853942075 -0.001323995629608247 -0.001381598147062929 -0.0013825874498176144 -0.0013835767525722995
          -0.0016949436611185522 -0.0015346278782219806 -0.0015463711537639822 -0.0017207957863293788 -0.0016945177321256132 -0.001535189599938851
          -0.0015469446301578209 -0.0017204304910353144 -0.0016940918031326739 -0.0015357513216557213 -0.0015475181065516598 -0.0017200651957412498
          -0.0019548279053139286 -0.0019348087693009193 -0.001993409901877326 -0.0019520783177588788 -0.001932995452750307 -0.001991645934680875
          -0.0019493287302038292 -0.0019311821361996944 -0.0019898819674844235 -0.002068445238510214 -0.0019893424223623585 -0.0020644085155920667
          -0.0019863332391019803 -0.0020603717926739196 -0.001983324055841602 -0.0016109581964842306 -0.0016106116412752626 -0.001610265086066294
          -0.0006754797792777868 -0.0007309927957516764 -0.0007493138072448139 -0.0006805725839965249 -0.0006756872033557707 -0.0007312681965287681
          -0.0007502877426089308 -0.0006811042406460969 -0.0006758946274337545 -0.0007315435973058597 -0.000751261677973048 -0.000681635897295669
          -0.0018905756222652825 -0.0018889679673761654 -0.0018873603124870486 -0.0015670069671022057 -0.0015673606568306743 -0.0015677143465591434
          -0.0016522042027880168 -0.0016518779762234462 -0.0016515517496588758 -0.0013718212523059572 -0.0013300675903153605 -0.0013703711140210548
          -0.0013284261771433594 -0.0013689209757361525 -0.0013267847639713583 -0.0015017788583395865 -0.001416234266030161 -0.0015015477743921283
          -0.001417184813742444 -0.0015013166904446701 -0.0014181353614547275 -0.002118778470825736 -0.0020487841068133838 -0.002114833851839686
          -0.0020458704954979577 -0.0021108892328536365 -0.0020429568841825317 -0.0017480710884183244 -0.0017198699367995097 -0.00174544713975678
          -0.0017173351213748548 -0.001742823191095235 -0.0017148003059502001 -0.0018645397609153456 -0.0018634831392763066 -0.0018624265176372672
          -0.0016243071557704878 -0.0014755865176824632 -0.0016225518874438635 -0.0014748567012536273 -0.0016207966191172391 -0.0014741268848247916
          -0.0017046464424131731 -0.0016458676012947563 -0.001702528271512191 -0.001643343073548571 -0.0017004101006112089 -0.0016408185458023851
          -0.0021416913203519076 -0.002138070058164933 -0.0021344487959779586 -0.002030449564935092 -0.0020283781106056812 -0.00202630665627627
          -0.001611582109281714 -0.0016058426401774938 -0.0016102670210266729 -0.0016035897238669012 -0.0016089519327716322 -0.0016013368075563084
          -0.0021402416965572604 -0.0021374950607996658 -0.0021347484250420707 -0.0013863372396205919 -0.001387406645266905 -0.0013884760509132181
          -0.002134407961417485 -0.002082485401722855 -0.002131645548065856 -0.0020806352239257277 -0.0021288831347142266 -0.0020787850461286
          -0.0019504996241868002 -0.0018743890873963052 -0.0019490251936559418 -0.0018726513594294542 -0.0019475507631250835 -0.0018709136314626032
          -0.0013811424056465772 -0.0014995348987816696 -0.0015229954100194592 -0.0013799940930012294 -0.001498587780059849 -0.0015211834072832511
          -0.0013788457803558826 -0.0014976406613380283 -0.0015193714045470426 -0.001653402442937719 -0.0015711065618608624 -0.0016915172130181236
          -0.0017905810436950084 -0.0016510518693112499 -0.001568148235067479 -0.0016884191998565907 -0.0017881201107032509 -0.001648701295684781
          -0.0015651899082740955 -0.0016853211866950577 -0.0017856591777114929 -0.0009104740279365415 -0.0008004719192049788 -0.0007926629898518251
          -0.0008677453825809949 -0.0009115147710975155 -0.0008008492853536457 -0.000792694683784771 -0.000868223309526718 -0.0009125555142584893
          -0.0008012266515023128 -0.0007927263777177168 -0.000868701236472441 -0.0021405921509073367 -0.002136859615162389 -0.002133127079417441
          -0.0014770637731968321 -0.0013958186682792332 -0.0014754208681558246 -0.0013944311486400625 -0.001473777963114817 -0.0013930436290008918
          -0.001993986157970337 -0.0019493055406632175 -0.001991844907290596 -0.0019469937233189884 -0.001989703656610855 -0.0019446819059747596
          -0.0012868427324745407 -0.0012034955122292306 -0.0012861001857933834 -0.0012037528022484868 -0.0012853576391122258 -0.001204010092267743
          -0.0009623799050298802 -0.0010394251583448158 -0.0009634722227562164 -0.001040544561281373 -0.0009645645404825526 -0.00104166396421793
          -0.0008803892932056348 -0.0008151416049433798 -0.0008805833710473042 -0.0008151556869583551 -0.0008807774488889736 -0.0008151697689733305
          -0.002054932891413277 -0.002052952906271206 -0.0020509729211291346 -0.002036200812362653 -0.0020340975082151127 -0.0020319942040675732
          -0.0009830837976052315 -0.0008562614907145879 -0.0008343355430465749 -0.0009537219726919601 -0.0009835370886408293 -0.0008573590588303459
          -0.0008355327722350161 -0.0009547177814765852 -0.0009839903796764274 -0.0008584566269461039 -0.0008367300014234573 -0.0009557135902612104
          -0.002101645312277857 -0.0020864098672136325 -0.002098924179699534 -0.002083977053897623 -0.002096203047121212 -0.002081544240581613
          -0.0006933055698304884 -0.0006917122228148819 -0.0006873403773290335 -0.0006802308700575612 -0.0006930403000204562 -0.0006915346834810537
          -0.0006871725429987042 -0.0006800918634396777 -0.0006927750302104241 -0.0006913571441472255 -0.0006870047086683746 -0.000679952856821794
          -0.0007547134829876639 -0.0007076429162292022 -0.0007550673937966031 -0.0007547996360145824 -0.0007078714530501879 -0.0007550833719629254
          -0.0007548857890415008 -0.0007080999898711735 -0.0007550993501292478 -0.0011027046313747079 -0.0011040878984530922 -0.0011054711655314766
          -0.00190717649754438 -0.001822904957041909 -0.0019042244359484119 -0.0018201249332301908 -0.001901272374352444 -0.0018173449094184726
          -0.001727965373487106 -0.0015232994883959548 -0.001726784898533617 -0.0015223172925872901 -0.0017256044235801273 -0.0015213350967786254
          -0.0011091653778097154 -0.0011094369340968286 -0.0011097084903839418 -0.002107713965194235 -0.00210527022207413 -0.002102826478954026
          -0.0013283283569232058 -0.001487739989414313 -0.0013288716653621475 -0.0014862501829279267 -0.0013294149738010891 -0.00148476037644154
          -0.0006799105793849698 -0.0006625980556663204 -0.0006798130346909609 -0.0006626258809798947 -0.0006797154899969515 -0.000662653706293469
          -0.0006483297492456133 -0.0006582649204507743 -0.000648636648772344 -0.000658759112811469 -0.0006489435482990747 -0.0006592533051721639
          -0.0006885050034950902 -0.0008214636467110498 -0.0007486414600936501 -0.0006890171767777344 -0.0008214107195370071 -0.0007486437773058474
          -0.0006895293500603786 -0.0008213577923629644 -0.0007486460945180447 -0.0009599165544570717 -0.0010899800643972494 -0.0009598056058813468
          -0.0010899333147520152 -0.0009596946573056217 -0.001089886565106781 -0.000715688332833916 -0.0007411075155931151 -0.0007153610120648467
          -0.0007408222304150696 -0.000715033691295777 -0.000740536945237024 -0.000912367931115828 -0.0008363357776255869 -0.0009117988751538625
          -0.0008356300953978636 -0.000911229819191897 -0.0008349244131701405 -0.0007376582448889589 -0.0007376881826207287 -0.0007377181203524982
          -0.001287819324955886 -0.0012939730579019904 -0.0012852606070661596 -0.001272207574889799 -0.001285986292406054 -0.001292231177465259
          -0.0012836035882661265 -0.0012702376737296693 -0.0012841532598562217 -0.0012904892970285278 -0.0012819465694660932 -0.00126826777256954
          -0.001258169710035072 -0.0012603070399562401 -0.001257019256320303 -0.0012590224972421076 -0.0012558688026055335 -0.0012577379545279745
          -0.0007162988269183577 -0.0007160972448764695 -0.0007158956628345813 -0.0009210615815713613 -0.0009201274448857289 -0.0009191933082000965
          -0.001165780128544567 -0.0011657941748879105 -0.0011658082212312538 -0.0011490463404569382 -0.0011504444801918045 -0.0011518426199266707
          -0.0013393022904388983 -0.0013388173312535263 -0.0013383323720681539 -0.001225798779677932 -0.001308763434420006 -0.0012256921482604064
          -0.0013075917646213008 -0.001225585516842881 -0.0013064200948225961 -0.0013765189288365033 -0.001375737686347283 -0.0013749564438580626
          -0.0012838807555406273 -0.0012845937972529573 -0.0012853068389652867 -0.0007912725417832004 -0.0007911752260094443 -0.0007910779102356881
          -0.0019661699916497435 -0.001965042221710719 -0.001963914451771694 -0.0016815479065058184 -0.001612047725954324 -0.0016798923194966595
          -0.0016104435503362829 -0.0016782367324875004 -0.0016088393747182412 -0.0020179395452433182 -0.002016591602301882 -0.0020152436593604455
          -0.001538273471997874 -0.0015369395573444685 -0.0015356056426910633 -0.0014013168082299392 -0.0013994873369243632 -0.0013976578656187874
          -0.0013385474161645124 -0.001339766465595184 -0.0013409855150258558 -0.0012240784757215728 -0.0012252798320570688 -0.0012264811883925648
          -0.0012339895037691926 -0.0012352398921435953 -0.0012364902805179984 -0.0011917787692935263 -0.0011974787750487674 -0.0011909625041155569
          -0.0011966153704847879 -0.0011901462389375876 -0.0011957519659208083 -0.0010735275430081308 -0.0009802553917339393 -0.0010726434602261153
          -0.000979431706357078 -0.0010717593774440999 -0.0009786080209802169 -0.0013252952484369372 -0.001323620764445039 -0.0013219462804531404
          -0.0006506490196786752 -0.0006508079213675507 -0.0006509668230564262 -0.001965779162903151 -0.001963642537556766 -0.0019615059122103807
          -0.0011807193023311746 -0.0012634599210592848 -0.001180014397406179 -0.0012620913943498409 -0.001179309492481183 -0.0012607228676403967
          -0.0010986293616788122 -0.0011324486967535612 -0.0011694955350049106 -0.0010978526417776808 -0.0011319331439719955 -0.0011684474460354733
          -0.0010970759218765494 -0.0011314175911904302 -0.001167399357066036 -0.0012254801758265234 -0.001248231131063442 -0.001223764125052948
          -0.0012465908591935521 -0.0012220480742793727 -0.0012449505873236622 -0.0013142756189268132 -0.0013124783618402567 -0.0013106811047537002
          -0.001107318873581121 -0.0011068003958895891 -0.001106281918198057 -0.0010288960262214365 -0.001028107720358764 -0.0010273194144960916
          -0.002040249189391418 -0.0020379793077786113 -0.002035709426165805 -0.0007031170080049147 -0.0007028842686149539 -0.0007026515292249929
          -0.0006750862609834196 -0.0008349386148826536 -0.0006755676865505967 -0.0008357983514352644 -0.0006760491121177738 -0.0008366580879878751
          -0.0016910564529174367 -0.0016915606392059238 -0.0016920648254944112 -0.001539906041999142 -0.0015788760971874728 -0.0017515518325859213
          -0.001538519421636495 -0.001577777774349517 -0.0017510494662996284 -0.0015371328012738481 -0.001576679451511561 -0.0017505471000133354
          -0.0010695280739126249 -0.0011341972596964013 -0.0010696234961619585 -0.0011341579530566228 -0.001069718918411292 -0.0011341186464168445
          -0.0018493944464314262 -0.0017008828190347438 -0.0018486027041119727 -0.0017012912689493781 -0.0018478109617925194 -0.001701699718864013
          -0.0012121486861790248 -0.0012118261918353734 -0.001211503697491722 -0.0013846280030881978 -0.0012602477905333516 -0.0012356419010112769
          -0.0013857971948996227 -0.0012613039615842392 -0.001236725595622574 -0.0013869663867110478 -0.001262360132635127 -0.001237809290233871
          -0.0015861898691974954 -0.0015863824833381493 -0.0015865750974788032 -0.002054751418998483 -0.0020895810103541386 -0.0020513146657430534
          -0.0020856304221356613 -0.002047877912487624 -0.002081679833917184 -0.0015210960729192496 -0.0014952819258525721 -0.0015215342509691861
          -0.0014956139588681435 -0.0015219724290191229 -0.001495945991883715 -0.0019640853595566717 -0.0019622807004393934 -0.001960476041322114
          -0.001835475928149336 -0.0018342042582913751 -0.0018329325884334138 -0.00108224923538163 -0.0010828469825286927 -0.0010834447296757554
          -0.0010167849343669564 -0.0010176430072398879 -0.0010185010801128198 -0.0012092183580688402 -0.001209847657019029 -0.001210476955969218
          -0.0014002962376159914 -0.0014013653433434842 -0.0014024344490709774 -0.0014107182679067318 -0.0014848442725970106 -0.0014106447248072433
          -0.0014836366175696551 -0.0014105711817077547 -0.0014824289625423 -0.0010607178147599408 -0.001058541986991796 -0.0010617378530998248
          -0.0010595540255138947 -0.0010627578914397086 -0.0010605660640359933 -0.0009809102221750962 -0.000982050172722133 -0.00098319012326917
          -0.0011343987251643834 -0.0011226505405977927 -0.001136770868314764 -0.0011234839335366592 -0.0011391430114651444 -0.0011243173264755255
          -0.0018737509602103112 -0.0018721689590973172 -0.0018705869579843234 -0.0010879247230072945 -0.0011093138206683404 -0.00108858426792616
          -0.001110027998039137 -0.0010892438128450254 -0.0011107421754099334 -0.0019615393620530056 -0.0018792922946867501 -0.0019595220867390474
          -0.0018775241622598026 -0.0019575048114250882 -0.0018757560298328546 -0.0010991415321362618 -0.0010987217945925434 -0.001098302057048825
          -0.0018727169966564594 -0.001872140646713232 -0.0018715642967700047 -0.0010700356949576127 -0.0010709342134102196 -0.0010718327318628264
          -0.001080760321776602 -0.0010814109492250819 -0.001082061576673562 -0.0020755149111208434 -0.0020721619438262805 -0.0020688089765317184
          -0.0020278961488652807 -0.0020254104382405515 -0.002022924727615822
        </DataArray>
        <DataArray type="Float64" Name="disp_x" format="ascii" RangeMin="0.000033558411963073815" RangeMax="0.00007301092912614835">
          0.000058086214202926514 0.00005808641603724987 0.00006056777044604451 0.00006119450256677744 0.000058086280907695826 0.0000580857089760248
          0.000060565987327422734 0.00006119336059577013 0.00005808731745470478 0.000058082724696159037 0.00006056088093360261 0.00006118994030110525
          0.00003759040854662906 0.000036040308925047693 0.00003548033108034175 0.00003702001898994146 0.000037592990319175896 0.00003604321331404084
          0.00003548390429069458 0.00003702325274503961 0.00003760078651510891 0.00003605220774464198 0.00003549461536593417 0.000037033597474171947
          0.00003417313398871184 0.000034176364316777287 0.00003418619655296508 0.00003478261897759891 0.000034785700762647264 0.00003479471692394806
          0.00006324337649421805 0.00006388050936903198 0.00006324048633044835 0.00006387815653789327 0.00006323151686320807 0.00006387124515310528
          0.00005767329073653075 0.00005727809699851068 0.000060001722601622646 0.000059805779332597494 0.00005767195547418668 0.00005727629688961372
          0.00005999887179210932 0.00005980307901232071 0.000057667979654526665 0.000057271816983800647 0.00005998997573922669 0.00005979478960723897
          0.00004903726350351288 0.0000488159015665882 0.00005041413400076847 0.00005067245502863574 0.00004903896901727218 0.000048817820365892436
          0.00005041580055192298 0.00005067427547288421 0.00004904402179802278 0.000048823951208314504 0.000050420411841316125 0.000050679113980485885
          0.00004448955861953021 0.00004585756376881665 0.00004622157105320588 0.00004485404439480508 0.0000444910588941762 0.00004585940129737412
          0.000046222811185009076 0.00004485468594418452 0.00004449584666792528 0.000045864688995488884 0.00004622675389679386 0.00004485683193996289
          0.00005767355125495448 0.000057183848717835396 0.00006059813153210523 0.00005767116436620612 0.00005718130733167081 0.00006059591863100349
          0.00005766415613023991 0.00005717370482295648 0.00006059050173779696 0.000044210371610383414 0.00004649281256173854 0.000047081490671432764
          0.00004409087881014107 0.00004421385374719316 0.00004649568987618991 0.00004708432887950846 0.00004409411641287219 0.00004422506683186755
          0.0000465032653826326 0.000047094839104812536 0.00004410233710441742 0.000041509419831702455 0.0000415134289232864 0.00004152545060049247
          0.000059885019248361274 0.000062486848969959 0.00005988334270209116 0.00006248381810916581 0.00005987815408406952 0.00006247496426150223
          0.00005441485106788236 0.000055417015863142175 0.000056286687089063626 0.00005441562571866414 0.000055417617128724243 0.00005628757495581242
          0.000054416510437289653 0.000055418866761223176 0.000056290658288959806 0.000057251102429034246 0.00005487868594273528 0.000053259293335937733
          0.000055762985992814026 0.00005725063056331723 0.00005487938230852884 0.000053259941854302286 0.000055762993015910486 0.00005724937929328128
          0.000054881588391783835 0.0000532619742647944 0.00005576355593558521 0.00005218113269874525 0.00005195740674269655 0.0000503167532553582
          0.000052182247582945156 0.00005195903534728057 0.00005031822110524743 0.000052185088149635373 0.000051964236261779786 0.000050322129414675974
          0.00005176666105078072 0.000052756795080650536 0.000051253865525738895 0.000051768374864374123 0.00005275821577631921 0.00005125543982697349
          0.00005177524612900858 0.00005276317925658944 0.00005126069466376505 0.00005247000188506991 0.000049914343926199975 0.00004872082212095128
          0.00005076534741621092 0.00005247088455900309 0.000049916040862715055 0.00004872303537807132 0.00005076662323740012 0.000052473123055385594
          0.000049920581353646846 0.000048730281748800705 0.00005077037925835517 0.000046412012019292193 0.000044006546723210505 0.00004641477117597334
          0.000044009816775036465 0.000046422357040452295 0.0000440189396805019 0.00006027104731121841 0.00006296145801777729 0.00006246522630552008
          0.00006026784491013 0.00006295747270644094 0.00006246155973079944 0.0000602581180310864 0.00006294573239946573 0.00006245037336598097
          0.00006368074707850508 0.00006181076987184856 0.00005987708996490425 0.00006144465779982823 0.0000636767352386121 0.00006180769373934177
          0.0000598746395159208 0.00006144153295417707 0.00006366514912707662 0.00006179869482264894 0.00005986688621426717 0.00006143187348994746
          0.00006749872720653705 0.00006577180242548254 0.00006749645649115523 0.00006576966689866872 0.00006749019506562752 0.0000657630941679256
          0.000058266297904799795 0.00005944798594835334 0.0000582675032330559 0.00005944823586140778 0.00005827116418864397 0.00005944845987756075
          0.00003834613589447491 0.000038427287392914056 0.000038346596665737666 0.000038428061900586706 0.00003834751538749651 0.00003843018393277425
          0.00006819300881811409 0.00006848362741204387 0.00006639663965194032 0.00006583200437245838 0.00006818979581627714 0.00006848043553142056
          0.0000663938308994927 0.00006582854789609847 0.00006818102328443496 0.000068470884273103 0.00006638544507600449 0.00006581770896334202
          0.00005756236002477719 0.00006055745446513132 0.000057560131681842355 0.00006055459086183903 0.00005755371305099494 0.00006054586130908345
          0.00004806226746787693 0.00004599928550680358 0.000048064287029343936 0.000046002471932148225 0.000048070574248161466 0.00004601144167745858
          0.00005011310226776401 0.000047535139974003333 0.00005011315044302518 0.000047536518586613695 0.00005011255611717906 0.00004754141862487137
          0.00006472762500696878 0.00006472558379695856 0.00006471912481850785 0.0000682815476536037 0.00006827843507488786 0.00006826932483251345
          0.00006332523165215513 0.00006592276561911538 0.00006582005954290982 0.00006323124099844607 0.00006332213927672782 0.00006591945654591166
          0.00006581680201292505 0.00006322762982647718 0.00006331243438434813 0.00006590974291327038 0.00006580663323245295 0.00006321662664337785
          0.00005672534924053711 0.0000547605769237699 0.00005439822416294142 0.00005672482753337684 0.000054760876176799304 0.000054398122853716454
          0.000056723501423655234 0.000054761678901456015 0.000054397965285463846 0.00004900691187207873 0.00004883883462778271 0.00004900861001635188
          0.00004884051590332699 0.00004901529201750005 0.000048846447590258056 0.00006489446082059505 0.00006489019975219526 0.00006487692878380797
          0.000042258180112874174 0.00004186419483821308 0.000043208920771227104 0.000043566042874516447 0.000042257972715973157 0.00004186436980224229
          0.00004320968349254218 0.000043566301188592495 0.00004225767136466514 0.00004186454062567383 0.00004321217752964016 0.000043566992707546126
          0.00006046158194146311 0.00006045871074200286 0.00006044869302352083 0.00006554056991557782 0.00006553693990127816 0.00006552560488371954
          0.00006348119958348049 0.0000634789139446649 0.00006347118091139375 0.00006193917503036537 0.00006364329291900845 0.00006193843577507641
          0.00006364200545028924 0.00006193598347495781 0.00006363806109032569 0.00006581761275983942 0.00006715688576708683 0.00006581314995589228
          0.00006715297757674159 0.00006579891633190377 0.00006714068060916063 0.000050985136084892806 0.00005138117091666579 0.0000509850238194518
          0.00005138131830760274 0.00005098241583169579 0.00005138056046637659 0.000058730699994002576 0.00006124307218698292 0.000058729606458307014
          0.00006124062730116642 0.00005872599376927965 0.00006123336541724593 0.00005209936307977179 0.000052100213014196023 0.000052102780064601825
          0.00006374396563032196 0.0000651405830852716 0.00006374024485129567 0.00006513646317317097 0.00006372929956789265 0.00006512302999970841
          0.000056456310132544255 0.000057591510861672956 0.000056456634697228446 0.00005759109598429359 0.000056457611344616245 0.00005758956553120188
          0.000048719221091703185 0.000048719392176406556 0.00004871960372072733 0.00005735709329569369 0.00005735488083215583 0.00005734836024077754
          0.00005486277660170226 0.000056127055992580614 0.0000548637453910838 0.0000561275878782617 0.00005486697933801156 0.000056129301286240725
          0.000051447180712194345 0.00005144629695873563 0.00005144265596373059 0.00006789460279244253 0.00006789129869063352 0.00006788108151748899
          0.00005328486076559655 0.0000544514466070487 0.00005328361488363035 0.000054450128106086234 0.000053279132443459346 0.000054445318155667174
          0.000051546495296288566 0.000048764258656205574 0.00005154711693051486 0.00004876545264952501 0.000051548086063564995 0.000048768664461778816
          0.00005355946314845201 0.00005407005958431191 0.00005594210377688169 0.00005356070531000694 0.0000540713096206106 0.000055942648126836726
          0.000053564213920562556 0.00005407553758799853 0.00005594432738732705 0.00004554295960673994 0.000043414533743639816 0.00004382784825378888
          0.00004611283170373888 0.000045545258020991365 0.000043418445439967115 0.00004383178910773471 0.000046114942898157365 0.000045551777857295744
          0.00004342972945230298 0.000043842594649852835 0.00004612149767338717 0.00004135279839714464 0.000041086301907973704 0.00003921086765528265
          0.000039550152628805996 0.00004135453299029281 0.00004108700971306654 0.000039212028758059434 0.000039551625257730134 0.00004135932730990159
          0.000041089175168805675 0.00003921582408224468 0.00003955635687968779 0.00004987344580783379 0.00004987471704246017 0.0000498777880246015
          0.000044633444318636596 0.00004266572995807727 0.00004463636312094171 0.00004267015105690871 0.00004464474409868727 0.000042683559700004826
          0.000053196533239784004 0.000052526695987074815 0.0000531947344257075 0.00005252537360321951 0.00005318928159859834 0.000052521581450675166
          0.00004387841597868499 0.000041956826856440985 0.00004388168934135186 0.00004196094732281938 0.000043891111000101645 0.00004197357788353488
          0.00003970523111827874 0.000041577863485564245 0.000039707523419794396 0.000041580988762683334 0.00003971403623603868 0.000041590326948714094
          0.00003794756516229925 0.00003795474179974725 0.000037949732231765475 0.00003795656972219858 0.00003795584657567932 0.00003796195349349225
          0.00005426945375692671 0.000054268821145505314 0.00005426605341969324 0.000057231952506249704 0.000057230321062396754 0.00005722493174481308
          0.00004507676254642327 0.00004415335586629463 0.00004301468724662759 0.00004313658287098491 0.00004507914582927259 0.00004415527766507727
          0.00004301606744679261 0.00004313895648768128 0.00004508643068165826 0.00004416156043358797 0.00004301978173769674 0.0000431461711248638
          0.00004959265265703979 0.00005224425759106932 0.000049592416621559573 0.00005224298879354425 0.00004959214542890187 0.00005223937278704636
          0.000038535504699614643 0.000038448891498314774 0.00003975623169354826 0.00003990355799656338 0.000038535186515586195 0.00003844876624688045
          0.0000397559539992845 0.00003990306544655504 0.00003853409994044267 0.00003844852776657489 0.00003975534144288611 0.000039901163109601587
          0.00003768092902311819 0.000036337151974480744 0.00003658628913164988 0.000037682630200989256 0.000036338910183114604 0.00003658853116301384
          0.0000376872344104731 0.00003634435801988009 0.00003659480582029206 0.00003972397146147195 0.00003972745276170311 0.00003973745824747213
          0.00005797374180198064 0.00005963109714282835 0.00005797282660768025 0.0000596293259545575 0.00005796938072938641 0.00005962319421442729
          0.000048690360002072325 0.00004679958737862883 0.000048692099538962 0.00004680209743558133 0.00004869696335947695 0.00004680927443938745
          0.000043442939331677384 0.000043446190873355794 0.000043456001320098164 0.00005401531105939918 0.000054014318128900686 0.00005401036493868193
          0.000041189087213064774 0.00004213046665537203 0.000041194189679277106 0.00004213539917647155 0.00004121000910793298 0.000042151846166599425
          0.000041031319801858695 0.000041243307386923 0.00004103125323982501 0.000041242888283252044 0.000041030662434414084 0.00004124122085865941
          0.00004385826761602263 0.00004515365473827391 0.0000438582173306168 0.000045153893684302654 0.000043857764054405604 0.00004515404823823027
          0.00004645304446759892 0.000047634698495976064 0.00004777897687058912 0.00004645387130424798 0.00004763639613489111 0.00004778045440653696
          0.000046455524498209894 0.00004764192951062264 0.00004778455612142827 0.00004738127489983901 0.00004712139103571189 0.000047383331961704175
          0.00004712374328471004 0.00004738943251983166 0.00004713039604484325 0.00004062296136457983 0.00003990737969086205 0.000040623209735843724
          0.00003990813109127346 0.000040623540795558976 0.000039910247221169354 0.00004922557011782803 0.000049173260998095794 0.00004922741659884791
          0.00004917478398631543 0.00004923273177501544 0.000049179352437800804 0.000038752537671872856 0.000038753686006794413 0.000038756966054641454
          0.000060961357650268506 0.0000630777813355218 0.0000630260017099164 0.00006104503049669005 0.000060962397805065375 0.00006307729947642052
          0.00006302575216062607 0.00006104575826582324 0.00006096395095657022 0.00006307647331777101 0.00006302504064068807 0.00006104937961324403
          0.0000649976766879044 0.00006506378429807379 0.00006499602787265195 0.00006506258510028403 0.00006499310959462684 0.0000650586275255149
          0.000039323544258701566 0.00003932425209949303 0.000039326563529170386 0.00005065352117804437 0.00005065476986016739 0.00005065797233681524
          0.00004529263455582531 0.00004529528464116956 0.00004530271502566537 0.000038677812627949655 0.000038681519257322576 0.00003869126163580691
          0.000045803547660820666 0.000045806278047784634 0.00004581391973250449 0.000047062239859839 0.00004867179558194892 0.00004706497766959353
          0.000048674209983390636 0.000047072814000634095 0.000048682139848982105 0.00004751954521959088 0.0000475224421365526 0.00004753126624628758
          0.00006805095827322615 0.00006804733621842327 0.00006803629719171808 0.00003646114150364134 0.00003646374934996937 0.00003647145395332212
          0.000055163118498002724 0.000055161224651102 0.00005515310223103894 0.00004164595096067478 0.000041764134095999965 0.000041650050878205914
          0.000041768582766699024 0.00004166205014503378 0.000041782441791656766 0.000054918344603134106 0.00005491648920218983 0.000054908567725804346
          0.00004195689611389151 0.00004196217317294137 0.00004197868096806949 0.00004864206816739894 0.000048644598648902284 0.00004865291191473309
          0.000040305048926392134 0.00004031009662396731 0.00004032442517253747 0.00007011880802455877 0.00007011621259155099 0.00007010788358486336
          0.00006931328502316903 0.00006931057848129473 0.00006930280809123878 0.00006701151527515075 0.00006693206911518843 0.00006700978324151174
          0.00006693210778539545 0.00006700476606801589 0.00006692648970455694 0.00005323231474309834 0.000052186071366794654 0.00005323385659923694
          0.000052187792903901506 0.00005323787729894256 0.00005219290728651333 0.00006119640014593858 0.00006119655353973799 0.00006119720053178666
          0.00004255690941737391 0.000042556790216494986 0.00004255579093559525 0.00005073086036626838 0.0000507301300096668 0.00005072862776204852
          0.00006725543540805716 0.00006531029791712644 0.00006725367852180156 0.00006530864340548462 0.0000672473397159499 0.00006530385558308174
          0.00005549237091720025 0.00005608901761648523 0.000057280500892100516 0.00005549397976392922 0.000056090637642395746 0.00005728211250758215
          0.000055499235347331194 0.00005609499328854235 0.00005728646368970468 0.00005911311496827917 0.000059558028136545666 0.00005911442012977861
          0.00005955918500213126 0.000059119625184350416 0.00005956295328454983 0.00006334116756803347 0.00006334054608574909 0.00006333832538787849
          0.000055083808879380856 0.00005508500294562977 0.00005508902906838711 0.000053795042114738464 0.00005379697679487574 0.00005380363385141296
          0.000050224543043412625 0.0000502244189008159 0.00005022312898481673 0.0000395100387557975 0.00003951054692394079 0.000039511752593393545
          0.000033558411963073815 0.00003489095438561187 0.00003356196614095367 0.000034894678435037975 0.00003357190254995411 0.00003490577998892561
          0.000060585282562171927 0.00006058356494301698 0.00006057815400320825 0.000039314208063479135 0.00003924700946385169 0.00004141217444508334
          0.00003931864085233372 0.00003925139226780887 0.00004141646547011473 0.00003933213885037974 0.00003926420633142064 0.000041426112987003406
          0.00006947568242492727 0.00006826172050322031 0.00006947366471923955 0.00006825918844166251 0.00006946715388735696 0.00006825192135670563
          0.000055857437383038205 0.00005828597789031247 0.00005585485808905514 0.000058283867712455196 0.000055847264897770076 0.00005827751813233459
          0.00006715296175548482 0.00006715015545322094 0.0000671414458647278 0.00006843683078627636 0.00007095299506215592 0.00007063282845770711
          0.00006843444358762841 0.00007095138346999956 0.00007063045500881294 0.0000684268479658738 0.00007094631460488944 0.00007062322552596045
          0.00006400484643878776 0.00006400305774924602 0.00006399724584390776 0.00004518569373355268 0.000046183406783200645 0.000045188757635150474
          0.000046185296486854544 0.00004519717663331414 0.000046190994595167696 0.00006602572754993099 0.00006641507673035508 0.00006602310231285302
          0.0000664132736796923 0.00006601431647655473 0.00006640765737466077 0.00004397383874219636 0.000043977381923644575 0.00004398954856022818
          0.00005403072800344048 0.00005402876021489342 0.00005402306872387824 0.00006924695600362036 0.00006924413739117254 0.00006923546909972036
          0.00003641792138277837 0.00003642235962325203 0.00003643569544730993 0.000038042876111549884 0.00003804740762300887 0.00003806099268388063
          0.00006836988520934472 0.00006836762632870096 0.0000683606643861943 0.00003979761200863718 0.000039497356941586746 0.00003980234291103201
          0.00003950216212468604 0.00003981655219856213 0.00003951694359932803 0.00007024174774331913 0.0000698644244948866 0.00007023880399593907
          0.00006986162556948414 0.00007022962943384034 0.00006985212092866401 0.00007091630114081187 0.00007091402496734489 0.00007090740791101504
          0.00006879734566870428 0.00006884648089206499 0.00006878297902018521 0.00006884595796881163 0.00006878159715963777 0.00006884168439994996
          0.00005141028847659767 0.00005140926801772548 0.00005140531698781243 0.00007233452323505545 0.00007301092912614835 0.00007233258364958199
          0.00007300925788374864 0.00007232706903658297 0.00007300414318584532 0.00004842228749366256 0.000049195597232614355 0.00004842213385640979
          0.000049194924612985484 0.0000484215445455655 0.0000491929118029999 0.00006899681905491214 0.0000689947786910689 0.0000689898638087314
          0.00004311354910464179 0.00004311750718751173 0.00004313025814208915 0.0000708120731872717 0.0000708093512688447 0.00007080087334736151
          0.00007151238973950334 0.00007150999927950303 0.00007150293453421531 0.00004707180914803577 0.00004707269364308316 0.000047074220844802735
          0.000047806573447853326 0.000047806578517686856 0.00004780685104191651
        </DataArray>
        <DataArray type="Float64" Name="disp_y" format="ascii" RangeMin="-0.000026630260034734214" RangeMax="-0.000007279002894051364">
          -0.000022780401207195473 -0.000021980897769050737 -0.0000207657548036073 -0.00002108466176977058 -0.00002278310617293345 -0.000021983384652179923
          -0.00002076732058886696 -0.000021085985612382493 -0.00002279100100175138 -0.00002199099322359538 -0.000020772667676207237 -0.000021089703544857444
          -0.000020231899885169727 -0.000019739133139501087 -0.000019100036894218177 -0.000019463074777567015 -0.000020233165766188012 -0.000019739759282355534
          -0.000019100722577043637 -0.000019464183587488723 -0.000020237050500540618 -0.00001974169366442253 -0.000019102627951851072 -0.00001946776657517767
          -0.00001876310103013992 -0.000018763503093380272 -0.00001876496604590017 -0.000019339515725068566 -0.00001933986389115579 -0.000019340693082733256
          -0.000019326645538185187 -0.000019580956147890042 -0.000019327237292250912 -0.00001958136094271692 -0.000019328896817489525 -0.000019582278410852674
          -0.00001711299600383868 -0.000015942634502227507 -0.0000152022052852534 -0.00001606547191149698 -0.000017113601236828312 -0.000015942834661710005
          -0.000015201944369944775 -0.000016065447796573547 -0.00001711526068166733 -0.000015943488993256744 -0.000015201167678930859 -0.000016065626390421607
          -0.000025354484062460866 -0.000024698882259072964 -0.00002452490042411444 -0.000025145579971662046 -0.000025357910393657533 -0.000024702416799444274
          -0.000024528532698881343 -0.00002514918258729567 -0.00002536764474041122 -0.000024713370806029194 -0.000024540754948997572 -0.00002515879536268046
          -0.000024874895896981177 -0.000025172494140059063 -0.00002574657665527507 -0.000025383391936509442 -0.00002487724152912013 -0.00002517540194283554
          -0.000025749777735317995 -0.000025385729099255127 -0.000024884281216891158 -0.000025184239746564752 -0.00002575949932013083 -0.000025392768963899704
          -0.000010240274243036658 -0.000009094400176580966 -0.000009824329220805199 -0.00001023844604332457 -0.000009092775004714259 -0.000009822687455518001
          -0.000010232522087527327 -0.000009088194081912706 -0.000009817556404927508 -0.000016280732723525744 -0.00001627478368756466 -0.000017234066998811655
          -0.000017569819171050502 -0.000016282258917722 -0.000016276076708466474 -0.00001723572150452403 -0.000017571216317663626 -0.000016286169576391543
          -0.00001628147399781103 -0.000017240780748942522 -0.000017575741540728565 -0.000016771575686585902 -0.00001677285777023681 -0.000016775588303586142
          -0.000020361991374024557 -0.00001899677297036484 -0.000020363632877754646 -0.000018997449694256325 -0.000020368697943286053 -0.000018999853605668343
          -0.000024561964752333825 -0.000023615442069618152 -0.000024106889674249198 -0.000024565437562894767 -0.000023618618014299035 -0.00002410987923350821
          -0.000024575359384018304 -0.00002362930747234814 -0.000024118796322851076 -0.000019861764748503546 -0.000021096874625998226 -0.000020692961372267504
          -0.00001955539910510266 -0.000019863480791021693 -0.00002109906768018405 -0.000020695091954827915 -0.000019557137131481022 -0.000019868940112860477
          -0.000021105987024156724 -0.00002070165482823754 -0.000019562406908047052 -0.000023500549261218744 -0.000024256198032481804 -0.000023838728043696552
          -0.000023503837124154005 -0.00002425960243262081 -0.000023842458000997892 -0.00002351357692463709 -0.000024270209726191203 -0.00002385405512264531
          -0.0000247636496629913 -0.00002478867250360004 -0.000025715324355847614 -0.000024767102715143305 -0.000024792189266505784 -0.00002571944328975306
          -0.000024777481801728542 -0.000024802360035694906 -0.000025731465383637814 -0.00002245707069453266 -0.00002317480145975786 -0.000022621369587678183
          -0.000021754872692126543 -0.000022459846771831218 -0.00002317798617735076 -0.000022624248105653568 -0.000021757438648529285 -0.000022468238573163008
          -0.00002318681457393033 -0.000022632758140895328 -0.000021764740147877114 -0.000018617237381964927 -0.000018678412329738542 -0.000018619246824311697
          -0.000018680258177961954 -0.00001862432242035243 -0.000018685026868175512 -0.000013927489759648332 -0.000013617091306651501 -0.000014851633286634722
          -0.00001392692088523058 -0.00001361643263425703 -0.00001485109666812641 -0.00001392499728982237 -0.000013614347084119457 -0.000014849339968880036
          -0.000015993991195251413 -0.000017292648112491497 -0.00001723077507688575 -0.000016042983824190893 -0.000015993596273845787 -0.00001729277018987461
          -0.000017231072226505113 -0.000016042687486833002 -0.00001599248548269671 -0.00001729318710944928 -0.000017231896722117884 -0.000016041537615471707
          -0.000018747183819877223 -0.000019407261584554357 -0.00001874637201154013 -0.000019406677445226164 -0.00001874383522351699 -0.000019404562335661874
          -0.00002360781912327081 -0.000022561288963894398 -0.000023610416580752976 -0.000022563107012618162 -0.00002361789743129002 -0.000022569461294274758
          -0.00002243641528875589 -0.000022288362526929206 -0.000022436608230227163 -0.000022288689744092747 -0.00002243684222640814 -0.00002228953774503267
          -0.00001666699231783706 -0.00001703412096837235 -0.00001816705796499771 -0.00001789855723233001 -0.000016666571625578316 -0.000017033527422122887
          -0.000018166611289922102 -0.00001789854015603885 -0.000016665200168829446 -0.000017031453545155496 -0.000018164931629248438 -0.00001789822613304401
          -0.000011613340782266386 -0.000011206101365205938 -0.000011611774933147675 -0.000011204726156260564 -0.000011606272259935597 -0.000011200744549729604
          -0.00001534041587001087 -0.000015011792821444413 -0.00001534119623331862 -0.000015013031887825874 -0.00001534393502462327 -0.000015016968935583343
          -0.000013869436164401694 -0.000013731017913175125 -0.000013869487230269326 -0.000013731497046500387 -0.000013869204003146824 -0.000013732179242581969
          -0.00001960371598323619 -0.00001960344689240175 -0.000019603241937164752 -0.000012148827776509538 -0.000012148716256449582 -0.00001214803270165367
          -0.000010981429379820635 -0.000010961936383447928 -0.000012203827396191596 -0.000012271687397442307 -0.000010980723235987922 -0.00001096156067146086
          -0.0000122034206008297 -0.000012271036430836256 -0.000010979019007266402 -0.000010960526086927494 -0.000012202143331936568 -0.000012268937897582655
          -0.00001823640587888324 -0.000018992624370649584 -0.00001809137964970539 -0.00001823764975451096 -0.000018994302398602982 -0.000018092822371563702
          -0.00001824119582750384 -0.00001899932005802018 -0.000018097346708542918 -0.00001755446577207315 -0.000018471786482043716 -0.000017555924834559
          -0.00001847394762469387 -0.000017560659528764306 -0.000018482070169340086 -0.000014738356042024463 -0.000014737843073917742 -0.000014736051059983753
          -0.000024433927953301227 -0.000023968300332992374 -0.000024467318297209043 -0.00002494373738753702 -0.000024435200847175763 -0.000023969626590310606
          -0.00002446905850815354 -0.00002494543296950464 -0.00002443893927270363 -0.000023973785603221005 -0.00002447418442552216 -0.00002495018065250572
          -0.000012543706611662892 -0.00001254282881548319 -0.000012540092888891283 -0.000013485037185580699 -0.000013484516870923608 -0.000013482894627158395
          -0.000009732542862108023 -0.000009731529036107633 -0.00000972832350670678 -0.000021297202103173738 -0.000020626143322859174 -0.000021298068125270116
          -0.00002062634784713983 -0.000021300383481251327 -0.000020626623744515665 -0.000015951356322001056 -0.000014638805641155323 -0.000015950800977364114
          -0.000014638409067973252 -0.000015948623862619876 -0.000014637360153463448 -0.00001681886514202395 -0.00001790383218232493 -0.000016820184060050582
          -0.000017906014955333085 -0.000016823515655412448 -0.000017912882369613103 -0.00002008275625336037 -0.00001874595529834055 -0.000020084331986783593
          -0.00001874680984724302 -0.0000200889713812848 -0.000018749439348674954 -0.000019961644563513336 -0.00001996395935822495 -0.000019970403885852155
          -0.000017333998500178347 -0.000017542836485029673 -0.00001733399159800875 -0.0000175428667981714 -0.000017333930030012246 -0.00001754337351786715
          -0.000021285557763281867 -0.000021512925848330853 -0.000021287750983156722 -0.000021515212407482743 -0.00002129397335913734 -0.00002152201414194399
          -0.000012386052048554495 -0.000012385481769751284 -0.000012383491928944387 -0.000013136328565593574 -0.000013135541294274093 -0.000013133474018415138
          -0.000022298118972446524 -0.000022210648221222422 -0.00002230088673335759 -0.000022213273963107343 -0.000022309306633434992 -0.000022220847849227
          -0.000012336554585885226 -0.000012335828912712829 -0.000012333166069998762 -0.000013383215951639335 -0.000013383150053378348 -0.00001338352814647226
          -0.00001410358175412655 -0.000012113779718214677 -0.000014103348634219056 -0.000012112647965701252 -0.000014102339804314195 -0.000012109352137299406
          -0.000019021536145700427 -0.00001961185788132287 -0.000019023935639294148 -0.000019614620427930445 -0.000019031285540421414 -0.00001962279033470584
          -0.000024005185642747158 -0.00002319143061335636 -0.000022783756929560197 -0.000024008519824260274 -0.000023194514561687396 -0.000022786750168364237
          -0.000024017838081817775 -0.000023203488446177857 -0.000022796215428250776 -0.000020811074394358466 -0.00002051912895199345 -0.00001967730023102612
          -0.00001976914477496652 -0.000020814090860431257 -0.000020521933031655123 -0.00001967957306955873 -0.000019771509393259068 -0.000020823774951574202
          -0.000020530580288817152 -0.00001968604799718482 -0.0000197781391147412 -0.000022811362205083657 -0.000023242180447581846 -0.000022219347980617556
          -0.000021998412075960748 -0.000022813147276470994 -0.000023243523389868637 -0.000022220209887055538 -0.000021999650835126153 -0.000022818360744753165
          -0.000023247609198922268 -0.00002222294173872386 -0.0000220032254818478 -0.00001591477233576588 -0.000015915939599906407 -0.000015918327356353924
          -0.000021705578548826868 -0.00002118786007844472 -0.00002170888526710604 -0.00002119080948994737 -0.000021718829934106825 -0.00002119961220437446
          -0.000009377414619139932 -0.000008478470324240978 -0.00000937548175448259 -0.000008476308052744778 -0.000009370027620257628 -0.000008469946177891914
          -0.000022412279031717208 -0.000021767910855884773 -0.00002241551238142259 -0.000021770761601521062 -0.000022425213951949947 -0.000021779350850274637
          -0.000021564889411474658 -0.000022327766922497075 -0.00002156652147428994 -0.000022330265188639312 -0.000021571265620526077 -0.000022337386635173614
          -0.000020860413704624137 -0.000021249737190349644 -0.000020861639696313985 -0.000021250668958680955 -0.00002086519642890193 -0.000021253579279806623
          -0.000016935114689881923 -0.00001693616562254511 -0.000016938779681289586 -0.000014635360441648611 -0.000014635362660203003 -0.000014635459882238576
          -0.000024374085195615456 -0.00002443753591081325 -0.000023998620998177566 -0.00002356406781719977 -0.000024376956591922016 -0.000024440020640022155
          -0.000024000737114427043 -0.000023566630640114302 -0.000024385581540607036 -0.00002444732187074122 -0.000024006958189397632 -0.000023574370907899607
          -0.000011041114570882664 -0.00001090916766186428 -0.000011039899730854628 -0.000010907914827177642 -0.000011036000453118948 -0.000010904083628594624
          -0.000022970839564400835 -0.000022701338087092456 -0.000023328303740330956 -0.000023611333009271144 -0.000022970518102461868 -0.00002270126010477961
          -0.000023328741730202938 -0.000023611531462539377 -0.00002296964061324596 -0.000022700954429856555 -0.000023330054855982975 -0.000023612485161920377
          -0.00002142131535396666 -0.000020715573746540706 -0.000020601752531316594 -0.00002142199980524518 -0.000020715807443618115 -0.000020602299778878025
          -0.0000214239151810642 -0.000020716650908527394 -0.000020604104098104104 -0.000020829713901764852 -0.000020831653741243855 -0.000020837233056347672
          -0.000018399827925056086 -0.000018595184921404413 -0.000018400940571873035 -0.000018596117229457884 -0.000018404250680658257 -0.00001859887372350572
          -0.00002098164037670323 -0.000022152018366149144 -0.00002098441945764943 -0.000022155084886611077 -0.000020992611618824846 -0.00002216428165229843
          -0.000023034390176434124 -0.000023037490582664203 -0.00002304676403864456 -0.00001564665882120211 -0.00001564710472819105 -0.000015648545759533987
          -0.00002053092132656084 -0.00002025015176471158 -0.00002053334335457924 -0.000020252827641085733 -0.000020539699480405036 -0.00002026127929132621
          -0.000023911782444114713 -0.00002423359562886204 -0.000023912835957701236 -0.00002423452229329428 -0.000023915887050974047 -0.000024237406719263732
          -0.000025356372816238702 -0.000025832313744259833 -0.00002535813134695743 -0.000025834861443657774 -0.00002536339294291665 -0.00002584224988892404
          -0.000026221489121782233 -0.00002596589128013782 -0.000026490363210018135 -0.000026225107419433114 -0.000025969689929179442 -0.000026494731558909215
          -0.00002623580021167838 -0.000025981156383970126 -0.00002650840505887418 -0.000025348104692409125 -0.000024660192520320227 -0.000025351444709477663
          -0.000024663501664952415 -0.000025361012984935918 -0.000024673364643418758 -0.0000234890102127139 -0.000022944817486156123 -0.000023490010822708456
          -0.00002294568063914475 -0.000023493143637101 -0.000022947881773616047 -0.000026005208956577284 -0.00002661068685939706 -0.00002600927898668943
          -0.00002661533173269159 -0.000026021393643365195 -0.000026630260034734214 -0.0000222541516969401 -0.0000222547787207056 -0.000022256195504609584
          -0.000022544895445981022 -0.000021499042591358963 -0.000021815458609940175 -0.000022805581288118364 -0.000022546456763040775 -0.00002149945716001026
          -0.000021815332892864628 -0.000022806524327231818 -0.000022550056218337537 -0.0000215006932393541 -0.000021815835033421485 -0.00002280978807738836
          -0.000020809056140411347 -0.000020497430784046866 -0.00002080882999885842 -0.00002049691040196472 -0.00002080705798472146 -0.000020495731681680446
          -0.000022767144961125522 -0.000022767793789620143 -0.000022769522913711353 -0.000026539415088436247 -0.000026544502785455717 -0.00002656048107980694
          -0.00002360243462463354 -0.00002360561751677479 -0.000023615047913089715 -0.000019728549216416135 -0.00001973065111961687 -0.000019736719783784406
          -0.000022915633359477366 -0.000022918971628685037 -0.00002292888763823738 -0.000023950357288922575 -0.000024023233591621466 -0.000023953889997228397
          -0.00002402685570774664 -0.000023964271462828924 -0.000024038258901805125 -0.00002329150764805947 -0.00002329490378372406 -0.000023304876879444963
          -0.00001588552898425985 -0.000015885191677457392 -0.000015884253877376935 -0.00002026677397163327 -0.00002026758708802287 -0.00002026939613645756
          -0.000009730239667762898 -0.00000972874958357325 -0.000009723037911055068 -0.00001777122974920281 -0.000018769054895050033 -0.000017772962013469406
          -0.00001877133544742114 -0.000017778167543794978 -0.000018778287541271425 -0.000010674445860779732 -0.000010672969769306603 -0.000010668508857968452
          -0.000019652618309582785 -0.00001965545111431931 -0.000019662922166435856 -0.00002350406218718224 -0.000023507441782329564 -0.000023517507589949444
          -0.00001974349080424144 -0.000019745957359683172 -0.000019753842311319684 -0.000013164550219336304 -0.000013164758908121563 -0.000013165465674878565
          -0.000014378802981946913 -0.000014378675539085681 -0.000014378472509078043 -0.000019503431992124597 -0.0000198189678785202 -0.000019502716458277072
          -0.000019816667198516272 -0.000019499291089431758 -0.000019813525470048463 -0.00002547072435049939 -0.0000262929436460113 -0.000025475079067717603
          -0.00002629851202271378 -0.0000254888278904655 -0.000026316858265244716 -0.000022120904730632207 -0.000022122137048714292 -0.00002212594278704648
          -0.000024819051520281125 -0.000024820476443923085 -0.000024824551445361605 -0.000008591269108909942 -0.00000858915976806943 -0.000008583139343236659
          -0.000019098966693687754 -0.000020064684198565916 -0.00001909799480259621 -0.000020064208778163296 -0.000019095685679818384 -0.000020062638794675886
          -0.000025280540202451593 -0.00002473269258293895 -0.000024554008090698964 -0.00002528378661645192 -0.00002473608669901863 -0.000024557301658891384
          -0.00002529675067959476 -0.000024745902337594622 -0.000024566663210514347 -0.00002374251475198894 -0.000023279052856889494 -0.00002374513082084106
          -0.000023281252955383036 -0.00002375670657995924 -0.000023288346281955863 -0.000021052164600077367 -0.000021052400083234623 -0.000021054074203700942
          -0.000025005534807782453 -0.00002500925774745022 -0.00002501933427204915 -0.000025836983726350475 -0.000025841553713922812 -0.00002585568473735371
          -0.000009757388562406829 -0.000009755953865857664 -0.000009751055434504179 -0.000023007165633133137 -0.000023007845792812356 -0.00002300938652828199
          -0.000018171225489348218 -0.000018419076515011467 -0.00001817178381677004 -0.000018419789067902433 -0.000018173264728184087 -0.000018421708699582406
          -0.000008280935338961863 -0.000008279246042566546 -0.000008274404917226389 -0.000017020348220267406 -0.000016109412400950786 -0.000015826187597342538
          -0.000017021811001400563 -0.000016110822886252174 -0.000015827652407878544 -0.000017027088981105512 -0.00001611417279481267 -0.000015831558787899908
          -0.000017647572189695414 -0.00001797645938320286 -0.00001764633408302639 -0.000017975495982003806 -0.00001764278908782103 -0.000017972231439069705
          -0.000008214706953719375 -0.000007286772799022634 -0.000008212748212585749 -0.000007284889184189375 -0.00000820724371624921 -0.000007279002894051364
          -0.000018216624021739087 -0.000018215904313012285 -0.000018213706479779117 -0.000010935788278909915 -0.000010816780889231071 -0.000012002888138462947
          -0.000010935766076541812 -0.000010817159467730836 -0.000012003277278867542 -0.00001093556727259335 -0.000010818339931868363 -0.000012004435767327945
          -0.00000857787821991861 -0.000008576687984236787 -0.000008572880579901233 -0.000013684466163383682 -0.000012474857444942511 -0.000013685334179782112
          -0.000012474767490969913 -0.00001368795775249136 -0.000012474181363872101 -0.00000983667060873843 -0.000008868233801889404 -0.000009836264095336293
          -0.000008867875972592588 -0.000009835109607388774 -0.000008866996348702969 -0.000014817492370606945 -0.000014818776757739077 -0.00001482412340087342
          -0.000007414166769472299 -0.00000741157300422176 -0.0000074032442604308956 -0.00001701491136559342 -0.00001701407461402689 -0.000017011618447596422
          -0.000018675734424436817 -0.000018677119958179326 -0.000018680972890712474 -0.000018835052932446517 -0.000018837255471452084 -0.00001884374978463542
          -0.000009824915129545994 -0.000009825102917747251 -0.000009826053134534216 -0.00001884727989637818 -0.000017924372375441266 -0.000018849792660953922
          -0.00001792650392716379 -0.00001885835762384183 -0.000017932697733418755 -0.00001578167891080563 -0.000016295581590219095 -0.000015781489642440736
          -0.000016294921706402015 -0.000015780900342851436 -0.000016293532408596727 -0.000015980814851890217 -0.000015980040440981153 -0.00001597756348934667
          -0.000018890064316126376 -0.00001858759268334295 -0.000018892836665979047 -0.000018585894990308605 -0.000018890077995738144 -0.00001858232373463966
          -0.000007499717377187601 -0.000007497176348608025 -0.000007489232434740472 -0.000012828585877217212 -0.00001173025691419926 -0.000012828843368498708
          -0.000011730871810665593 -0.000012829175691909313 -0.000011733021286247363 -0.000008775970393646285 -0.000007545051720141811 -0.000008774204264749232
          -0.000007542907285127793 -0.00000876916944381695 -0.000007536489015205512 -0.000018235139955578614 -0.000018233883734335558 -0.000018230343912363617
          -0.000015611514155098078 -0.00001561302415295563 -0.00001561728235762438 -0.000014943191592233671 -0.000014943214769247538 -0.000014943577258071473
          -0.000013926208091515353 -0.000013926441316583489 -0.000013927078957208682 -0.000011216832309174871 -0.000011216138435586524 -0.000011213216145065754
          -0.000009981937930090951 -0.000009980447800811654 -0.000009976047181396113
        </DataArray>
        <DataArray type="Float64" Name="disp_z" format="ascii" RangeMin="-7.761001624960194e-7" RangeMax="0">
          0 0 0 0 -2.7119696406226263e-7 -2.9232329127066725e-7
          -2.9149484514934967e-7 -2.765774634648583e-7 -5.420682279229722e-7 -5.840693938462447e-7 -5.825563543490396e-7 -5.525773213219642e-7
          0 0 0 0 -1.9944023202570447e-7 -1.8109438297636098e-7
          -1.8296412670621857e-7 -2.0766427394670677e-7 -3.9894043843053467e-7 -3.619521545610678e-7 -3.6600106676045583e-7 -4.152507644444975e-7
          0 -1.6086158278807677e-7 -3.220201833493018e-7 0 -1.6186051845194742e-7 -3.2416723732566723e-7
          0 0 -2.8313826920641267e-7 -2.6978961334923243e-7 -5.657992056897909e-7 -5.394216898858478e-7
          0 0 0 0 -3.564910577913359e-7 -3.6232609027628727e-7
          -3.4867379540228375e-7 -3.4715482589296036e-7 -7.119777907543593e-7 -7.240198052284741e-7 -6.965748759469018e-7 -6.933110488407323e-7
          0 0 0 0 -2.1689623788606166e-7 -2.357012576308319e-7
          -2.4751577923304573e-7 -2.2755838196004923e-7 -4.3351243217229916e-7 -4.7150933178137273e-7 -4.952618523216268e-7 -4.550828177529893e-7
          0 0 0 0 -1.7646023206553994e-7 -1.88511242339471e-7
          -1.6973250376937943e-7 -1.6263022908124595e-7 -3.5319192903009324e-7 -3.771224512249179e-7 -3.3966819062253525e-7 -3.255072181921908e-7
          0 0 0 -3.383772910944885e-7 -3.322114873040168e-7 -3.2500641248805433e-7
          -6.769815847819897e-7 -6.646756354943115e-7 -6.499188111627288e-7 0 0 0
          0 -3.48279885169616e-7 -3.629093515747836e-7 -3.5795438111920793e-7 -3.350269373034402e-7 -6.964608251526772e-7
          -7.250370372573065e-7 -7.153728252339332e-7 -6.699445186832049e-7 0 -3.17900069518948e-7 -6.356735735713483e-7
          0 0 -3.0923453798168023e-7 -3.0142417288672534e-7 -6.176824595334776e-7 -6.020315019499766e-7
          0 0 0 -2.4617110775828e-7 -2.676634673097821e-7 -2.422741025600565e-7
          -4.91807367208002e-7 -5.352404910634597e-7 -4.84453788802373e-7 0 0 0
          0 -3.3419485725373247e-7 -3.20916120465799e-7 -3.2877848252386167e-7 -3.417579876048965e-7 -6.674534638241959e-7
          -6.414747907916519e-7 -6.572477867506751e-7 -6.828944969024722e-7 0 0 0
          -2.764560907070002e-7 -2.579081771608151e-7 -2.7125178351838597e-7 -5.526915915311031e-7 -5.158736487404119e-7 -5.416614162523356e-7
          0 0 0 -2.413293931208359e-7 -2.473398191263535e-7 -2.1713006654305184e-7
          -4.81996846915595e-7 -4.940877192092642e-7 -4.338207313818959e-7 0 0 0
          0 -3.0057211490676057e-7 -2.872093095560633e-7 -2.900725484332772e-7 -3.130292587235601e-7 -6.008440916590113e-7
          -5.734431159825542e-7 -5.79483089210703e-7 -6.255957423946621e-7 0 0 -3.4045582460593366e-7
          -3.2788887491852967e-7 -6.805271641559158e-7 -6.552421682200046e-7 0 0 0
          -3.4667730143207413e-7 -3.1949098796485157e-7 -3.248513250967537e-7 -6.925209497053882e-7 -6.388202683179147e-7 -6.491163709638744e-7
          0 0 0 0 -3.1199492004864117e-7 -3.2432049332734665e-7
          -3.4305789149219907e-7 -3.3283707318550385e-7 -6.233880349847767e-7 -6.478772143875656e-7 -6.85187791340331e-7 -6.650728356789257e-7
          0 0 -2.349097414713145e-7 -2.466673368238266e-7 -4.7017325800270663e-7 -4.927262330778112e-7
          0 0 -2.4656052384886455e-7 -2.6861112372064506e-7 -4.921152194104165e-7 -5.377050624199256e-7
          0 0 -1.6141299873200723e-7 -1.6335646911287516e-7 -3.229021037998507e-7 -3.2681783902245215e-7
          0 0 0 0 -2.3647457561508097e-7 -2.31786076532077e-7
          -2.508781251540411e-7 -2.5911551594421017e-7 -4.729174082642732e-7 -4.638159956080657e-7 -5.016184599177207e-7 -5.18456574074325e-7
          0 0 -3.564207238128229e-7 -3.362677105033054e-7 -7.121821303577719e-7 -6.721058071284251e-7
          0 0 -3.787980049512901e-7 -3.722437383948767e-7 -7.562786379942641e-7 -7.437035273552951e-7
          0 0 -3.88706065936527e-7 -3.8354150454798676e-7 -7.761001624960194e-7 -7.656333838058386e-7
          0 -2.5906474492467627e-7 -5.178527870030704e-7 0 -2.6372939971557416e-7 -5.276601389144788e-7
          0 0 0 0 -3.1209554271724153e-7 -2.8755953596326865e-7
          -2.8840236661583586e-7 -3.148747280761887e-7 -6.239269249110041e-7 -5.753735047763687e-7 -5.770195084954181e-7 -6.298297636489023e-7
          0 0 0 -3.518193943945405e-7 -3.474888510141396e-7 -3.5792595752868956e-7
          -7.026683837006899e-7 -6.94431240277983e-7 -7.153416497483258e-7 0 0 -3.78712757378542e-7
          -3.592849954299687e-7 -7.561155043382011e-7 -7.170500285663664e-7 0 -2.9841995215765854e-7 -5.967131069214818e-7
          0 0 0 0 -1.5867531545969808e-7 -1.6636817318447945e-7
          -1.6833946924107033e-7 -1.5927092375670158e-7 -3.174788690393847e-7 -3.328055780398705e-7 -3.3708170835514186e-7 -3.1879597573505364e-7
          0 -3.42707578315049e-7 -6.848070148929135e-7 0 -2.9105141437042937e-7 -5.823614000232635e-7
          0 -3.089902700944617e-7 -6.176219851131788e-7 0 0 -2.6534996394392505e-7
          -2.6136505586766474e-7 -5.299098641701547e-7 -5.227619557916941e-7 0 0 -2.8218537446413924e-7
          -2.638086878145392e-7 -5.643406879731969e-7 -5.282949568700625e-7 0 0 -3.816576601026124e-7
          -3.693241179487552e-7 -7.614748934598238e-7 -7.376588320769428e-7 0 0 -3.228964393613323e-7
          -3.1779552642864274e-7 -6.448865368678063e-7 -6.346869752923461e-7 0 -3.3776690524348956e-7 -6.753020134288284e-7
          0 0 -3.0502571269867267e-7 -2.805283612170754e-7 -6.091430717362789e-7 -5.609707283864207e-7
          0 0 -3.1628951245938256e-7 -3.081894161373983e-7 -6.316964546673725e-7 -6.152335016613688e-7
          0 -3.8309061301905615e-7 -7.649038097688234e-7 0 -3.6613356495709807e-7 -7.31602182962462e-7
          0 0 -3.0094324132786766e-7 -3.0163448097807623e-7 -6.0172142653662e-7 -6.02427163003316e-7
          0 -3.8005327244921876e-7 -7.593795387802809e-7 0 -2.638567831746025e-7 -5.280327852233487e-7
          0 0 -3.816458323701714e-7 -3.6976218401687743e-7 -7.624198806498497e-7 -7.391488880555888e-7
          0 0 -3.4953321967414464e-7 -3.4210082492793957e-7 -6.987650493901648e-7 -6.840172050676535e-7
          0 0 0 -2.667010462867081e-7 -2.823223710195238e-7 -2.906531468572025e-7
          -5.329575436282272e-7 -5.644249245495022e-7 -5.802852202558731e-7 0 0 0
          0 -3.078613932420387e-7 -2.9717541850092715e-7 -3.152030339756281e-7 -3.3054710380031567e-7 -6.149391905976695e-7
          -5.928956812706038e-7 -6.287926635561564e-7 -6.601219257592835e-7 0 0 0
          0 -1.9331032494584383e-7 -1.7809723867856087e-7 -1.7649282169082366e-7 -1.878639880416534e-7 -3.872340606225013e-7
          -3.562743917643518e-7 -3.52772863304647e-7 -3.7592770535223774e-7 0 -3.88615499154044e-7 -7.757303316563619e-7
          0 0 -2.807578515303089e-7 -2.697505949077137e-7 -5.609335896898786e-7 -5.386720444890169e-7
          0 0 -3.589112833351837e-7 -3.527232848071329e-7 -7.168083748888189e-7 -7.047500419231156e-7
          0 0 -2.5232190348068976e-7 -2.391679738348561e-7 -5.04006077036385e-7 -4.786291425717212e-7
          0 0 -1.9978659167411325e-7 -2.1144605274774282e-7 -3.9990005984440384e-7 -4.235584622812315e-7
          0 0 -1.9090042923713335e-7 -1.8000449384547874e-7 -3.8190072212107e-7 -3.598757943630713e-7
          0 -3.664990285153793e-7 -7.325137034671368e-7 0 -3.653982938299743e-7 -7.301463111046636e-7
          0 0 0 0 -2.062825733789421e-7 -1.8646168906977312e-7
          -1.8157127844102582e-7 -1.9822943172214087e-7 -4.12666670272981e-7 -3.735943922282152e-7 -3.638333419791439e-7 -3.9680760557689965e-7
          0 0 -3.744745045665497e-7 -3.7353516731676945e-7 -7.483171429116425e-7 -7.461260494108919e-7
          0 0 0 0 -1.6314277617207358e-7 -1.6138681416330684e-7
          -1.6058597054600813e-7 -1.5907739273662878e-7 -3.262211712837727e-7 -3.226934734975528e-7 -3.2115999667006747e-7 -3.1806117216947233e-7
          0 0 0 -1.7098215342414234e-7 -1.637443001234437e-7 -1.7176051154781122e-7
          -3.42116991169396e-7 -3.2758123522856353e-7 -3.435384447560995e-7 0 -2.2032441690452937e-7 -4.414686915419504e-7
          0 0 -3.46989083154192e-7 -3.3415276843263107e-7 -6.927665151217986e-7 -6.673920875447393e-7
          0 0 -3.177346234009788e-7 -2.8664881740993333e-7 -6.351177293161439e-7 -5.732072622710236e-7
          0 -2.2538021496920263e-7 -4.50809775660367e-7 0 -3.732457463309669e-7 -7.460378872989097e-7
          0 0 -2.5346443276745714e-7 -2.824666021614668e-7 -5.072876484292925e-7 -5.647892073983619e-7
          0 0 -1.5945570666671076e-7 -1.5422881189846204e-7 -3.188968576731761e-7 -3.0851929597394315e-7
          0 0 -1.4911129592580214e-7 -1.48068498847195e-7 -2.9817017915904403e-7 -2.962407521888023e-7
          0 0 0 -1.4875955543187594e-7 -1.817631282984831e-7 -1.5447387713869414e-7
          -2.976862362250588e-7 -3.634611841793968e-7 -3.087551756414929e-7 0 0 -2.0177505409172464e-7
          -2.2091473363197899e-7 -4.033023766976661e-7 -4.4178586804445343e-7 0 0 -1.6606041391300886e-7
          -1.7061638533654984e-7 -3.3185213449379163e-7 -3.4120007842147304e-7 0 0 -1.9729289226603642e-7
          -1.6570982424186223e-7 -3.945515461491501e-7 -3.3068565754301247e-7 0 -1.683670402742599e-7 -3.367736320256816e-7
          0 0 0 0 -2.516798975601211e-7 -2.5268420579531366e-7
          -2.505244038018265e-7 -2.4738520576857034e-7 -5.025052866992015e-7 -5.050169051760331e-7 -5.002996668220541e-7 -4.941254111137772e-7
          0 0 -2.469333820567761e-7 -2.4797330856682825e-7 -4.936015414599355e-7 -4.954958368114868e-7
          0 -1.6573788870224668e-7 -3.312935277574808e-7 0 -1.7458618277188466e-7 -3.485910696323074e-7
          0 -2.3426213934062092e-7 -4.685681056470533e-7 0 -2.292022032589292e-7 -4.5906056319937436e-7
          0 -2.587623986588363e-7 -5.174668513160331e-7 0 0 -2.4138100886397727e-7
          -2.564453311945829e-7 -4.829013305843433e-7 -5.122687099154214e-7 0 -2.6470754557405253e-7 -5.291869984808005e-7
          0 -2.4579490774371625e-7 -4.920622463057941e-7 0 -1.7764867736563355e-7 -3.5512592336145597e-7
          0 -3.5249351674844694e-7 -7.047960685622995e-7 0 0 -3.1442663572566886e-7
          -3.0132189433306854e-7 -6.278201804352923e-7 -6.018950076597362e-7 0 -3.619877369163413e-7 -7.234941549212119e-7
          0 -2.900519443607072e-7 -5.796866050380569e-7 0 -2.7170569350252594e-7 -5.427560346740152e-7
          0 -2.525006155195761e-7 -5.05838268253168e-7 0 -2.3875144111371706e-7 -4.780181649529102e-7
          0 -2.3893487545524494e-7 -4.78388641083918e-7 0 0 -2.35835939053806e-7
          -2.387705478809889e-7 -4.715786132609921e-7 -4.77298973232934e-7 0 0 -2.2326361000750725e-7
          -1.8162668157968303e-7 -4.463829478486519e-7 -3.625887545758869e-7 0 -2.5677852951387595e-7 -5.128053465977631e-7
          0 -1.5097487808902784e-7 -3.0193924928235493e-7 0 -3.52114665284053e-7 -7.032897907863383e-7
          0 0 -2.3432530592572802e-7 -2.481324813811206e-7 -4.684613870135211e-7 -4.957816073395209e-7
          0 0 0 -2.120806998096914e-7 -2.327069283367867e-7 -2.226561163769552e-7
          -4.222814416375431e-7 -4.672155991751329e-7 -4.452871370235459e-7 0 0 -2.3286690189794524e-7
          -2.497287815116808e-7 -4.635263039528287e-7 -5.003384961759927e-7 0 -2.562567454040699e-7 -5.116247365918892e-7
          0 -2.2558125634836235e-7 -4.5066388538758883e-7 0 -1.961140008055907e-7 -3.9170807574359134e-7
          0 -3.654780197321911e-7 -7.303555124191754e-7 0 -1.6326982219282345e-7 -3.264472020068235e-7
          0 0 -1.6076559917164477e-7 -1.823357477831133e-7 -3.21638838872884e-7 -3.6501776005081636e-7
          0 -3.0924525193832565e-7 -6.187245308767579e-7 0 0 0
          -2.9042677685029846e-7 -2.993077320032793e-7 -3.1863004231382193e-7 -5.80109118083227e-7 -5.981296685866976e-7 -6.376701630451084e-7
          0 0 -2.1778830087275574e-7 -2.2698528693505285e-7 -4.3560286119435733e-7 -4.5413414081289994e-7
          0 0 -3.3560099500074187e-7 -3.125989736747175e-7 -6.708580563642888e-7 -6.254764471783663e-7
          0 -2.393733941962693e-7 -4.785163461265785e-7 0 0 0
          -2.6243408301256657e-7 -2.455964746118788e-7 -2.4109717283594965e-7 -5.253836115789305e-7 -4.915431017704892e-7 -4.826201663908049e-7
          0 -2.9443500457563487e-7 -5.889376815507342e-7 0 0 -3.678740248349905e-7
          -3.7651603318682344e-7 -7.338170926530014e-7 -7.516110836641887e-7 0 0 -2.860076545578068e-7
          -2.8110173494742693e-7 -5.72181511662948e-7 -5.621837708353133e-7 0 -3.5465482016456387e-7 -7.092628160562922e-7
          0 -3.34626360832615e-7 -6.685858245372211e-7 0 -2.1821052386755884e-7 -4.3671222265580034e-7
          0 -2.101006123213426e-7 -4.206197635034093e-7 0 -2.3988452204760224e-7 -4.799283472802357e-7
          0 -2.661684922059015e-7 -5.327602346219521e-7 0 0 -2.695770001071745e-7
          -2.819870502370301e-7 -5.391765834262825e-7 -5.634257934324128e-7 0 0 -2.1667464531172433e-7
          -2.1478324742623528e-7 -4.33994608457608e-7 -4.2992716510104534e-7 0 -2.0193712313772019e-7 -4.043779050136488e-7
          0 0 -2.275011378368299e-7 -2.2635778423264438e-7 -4.5619943225992543e-7 -4.5222714815538237e-7
          0 -3.401380201890183e-7 -6.798186000399273e-7 0 0 -2.1856932472640337e-7
          -2.2211596257196026e-7 -4.372964837160078e-7 -4.444529684125285e-7 0 0 -3.5172783441251057e-7
          -3.4145733896966433e-7 -7.029164962960686e-7 -6.821841813616619e-7 0 -2.206641475487254e-7 -4.408219609582713e-7
          0 -3.3116284101476616e-7 -6.613199529847638e-7 0 -2.1668238914928595e-7 -4.3363498840521727e-7
          0 -2.2122846691789824e-7 -4.425424257496967e-7 0 -3.7029800351725415e-7 -7.39356791828195e-7
          0 -3.6292205631876197e-7 -7.253491193696728e-7
        </DataArray>
      </PointData>
      <CellData>
        <DataArray type="Int32" Name="libmesh_elem_id" format="ascii" RangeMin="1380" RangeMax="3259">
          1380 1381 1412 1413 1414 1415
          1416 1417 1428 1429 1430 1431
          1438 1439 1440 1441 1464 1465
          1472 1473 1480 1481 1484 1485
          1488 1489 1490 1491 1492 1493
          1496 1497 1516 1517 1534 1535
          1538 1539 1544 1545 1548 1549
          1556 1557 1562 1563 1568 1569
          1574 1575 1576 1577 1604 1605
          1610 1611 1620 1621 1626 1627
          1632 1633 1640 1641 1642 1643
          1644 1645 1646 1647 1660 1661
          1664 1665 1666 1667 1668 1669
          1670 1671 1674 1675 1676 1677
          1688 1689 1690 1691 1692 1693
          1694 1695 1706 1707 1716 1717
          1720 1721 1724 1725 1732 1733
          1736 1737 1738 1739 1742 1743
          1744 1745 1756 1757 1758 1759
          1768 1769 1776 1777 1780 1781
          1784 1785 1786 1787 1788 1789
          1792 1793 1796 1797 1800 1801
          1806 1807 1808 1809 1812 1813
          1820 1821 1822 1823 1826 1827
          1842 1843 1844 1845 1860 1861
          1870 1871 1886 1887 1898 1899
          1912 1913 1934 1935 1938 1939
          1940 1941 1954 1955 1958 1959
          1962 1963 1964 1965 1966 1967
          1974 1975 1976 1977 1978 1979
          1980 1981 1984 1985 1990 1991
          1992 1993 1994 1995 2002 2003
          2012 2013 2016 2017 2022 2023
          2032 2033 2034 2035 2036 2037
          2042 2043 2056 2057 2066 2067
          2072 2073 2076 2077 2080 2081
          2086 2087 2090 2091 2094 2095
          2098 2099 2104 2105 2108 2109
          2114 2115 2118 2119 2122 2123
          2142 2143 2152 2153 2156 2157
          2168 2169 2172 2173 2174 2175
          2182 2183 2188 2189 2190 2191
          2192 2193 2194 2195 2198 2199
          2210 2211 2240 2241 2272 2273
          2280 2281 2300 2301 2322 2323
          2326 2327 2338 2339 2376 2377
          2378 2379 2380 2381 2384 2385
          2386 2387 2388 2389 2394 2395
          2428 2429 2438 2439 2446 2447
          2454 2455 2492 2493 2508 2509
          2514 2515 2516 2517 2528 2529
          2536 2537 2538 2539 2544 2545
          2548 2549 2552 2553 2576 2577
          2604 2605 2606 2607 2614 2615
          2618 2619 2626 2627 2630 2631
          2632 2633 2652 2653 2654 2655
          2674 2675 2676 2677 2686 2687
          2692 2693 2698 2699 2706 2707
          2712 2713 2718 2719 2728 2729
          2730 2731 2732 2733 2744 2745
          2752 2753 2758 2759 2770 2771
          2784 2785 2786 2787 2792 2793
          2812 2813 2816 2817 2818 2819
          2820 2821 2842 2843 2856 2857
          2866 2867 2882 2883 2894 2895
          2900 2901 2906 2907 2914 2915
          2942 2943 2970 2971 2976 2977
          2992 2993 3010 3011 3012 3013
          3016 3017 3046 3047 3056 3057
          3058 3059 3070 3071 3078 3079
          3084 3085 3094 3095 3098 3099
          3118 3119 3122 3123 3128 3129
          3134 3135 3152 3153 3180 3181
          3192 3193 3196 3197 3200 3201
          3202 3203 3214 3215 3244 3245
          3248 3249 3258 3259
        </DataArray>
        <DataArray type="Int32" Name="subdomain_id" format="ascii" RangeMin="107" RangeMax="107">
          107 107 107 107 107 107
          107 107 107 107 107 107
          107 107 107 107 107 107
          107 107 107 107 107 107
          107 107 107 107 107 107
          107 107 107 107 107 107
          107 107 107 107 107 107
          107 107 107 107 107 107
          107 107 107 107 107 107
          107 107 107 107 107 107
          107 107 107 107 107 107
          107 107 107 107 107 107
          107 107 107 107 107 107
          107 107 107 107 107 107
          107 107 107 107 107 107
          107 107 107 107 107 107
          107 107 107 107 107 107
          107 107 107 107 107 107
          107 107 107 107 107 107
          107 107 107 107 107 107
          107 107 107 107 107 107
          107 107 107 107 107 107
          107 107 107 107 107 107
          107 107 107 107 107 107
          107 107 107 107 107 107
          107 107 107 107 107 107
          107 107 107 107 107 107
          107 107 107 107 107 107
          107 107 107 107 107 107
          107 107 107 107 107 107
          107 107 107 107 107 107
          107 107 107 107 107 107
          107 107 107 107 107 107
          107 107 107 107 107 107
          107 107 107 107 107 107
          107 107 107 107 107 107
          107 107 107 107 107 107
          107 107 107 107 107 107
          107 107 107 107 107 107
          107 107 107 107 107 107
          107 107 107 107 107 107
          107 107 107 107 107 107
          107 107 107 107 107 107
          107 107 107 107 107 107
          107 107 107 107 107 107
          107 107 107 107 107 107
          107 107 107 107 107 107
          107 107 107 107 107 107
          107 107 107 107 107 107
          107 107 107 107 107 107
          107 107 107 107 107 107
          107 107 107 107 107 107
          107 107 107 107 107 107
          107 107 107 107 107 107
          107 107 107 107 107 107
          107 107 107 107 107 107
          107 107 107 107 107 107
          107 107 107 107 107 107
          107 107 107 107 107 107
          107 107 107 107 107 107
          107 107 107 107 107 107
          107 107 107 107 107 107
          107 107 107 107 107 107
          107 107 107 107 107 107
          107 107 107 107 107 107
          107 107 107 107 107 107
          107 107 107 107 107 107
          107 107 107 107 107 107
          107 107 107 107 107 107
          107 107 107 107 107 107
          107 107 107 107 107 107
          107 107 107 107 107 107
          107 107 107 107 107 107
          107 107 107 107 107 107
          107 107 107 107 107 107
          107 107 107 107
        </DataArray>
        <DataArray type="Int32" Name="processor_id" format="ascii" RangeMin="3" RangeMax="3">
          3 3 3 3 3 3
          3 3 3 3 3 3
          3 3 3 3 3 3
          3 3 3 3 3 3
          3 3 3 3 3 3
          3 3 3 3 3 3
          3 3 3 3 3 3
          3 3 3 3 3 3
          3 3 3 3 3 3
          3 3 3 3 3 3
          3 3 3 3 3 3
          3 3 3 3 3 3
          3 3 3 3 3 3
          3 3 3 3 3 3
          3 3 3 3 3 3
          3 3 3 3 3 3
          3 3 3 3 3 3
          3 3 3 3 3 3
          3 3 3 3 3 3
          3 3 3 3 3 3
          3 3 3 3 3 3
          3 3 3 3 3 3
          3 3 3 3 3 3
          3 3 3 3 3 3
          3 3 3 3 3 3
          3 3 3 3 3 3
          3 3 3 3 3 3
          3 3 3 3 3 3
          3 3 3 3 3 3
          3 3 3 3 3 3
          3 3 3 3 3 3
          3 3 3 3 3 3
          3 3 3 3 3 3
          3 3 3 3 3 3
          3 3 3 3 3 3
          3 3 3 3 3 3
          3 3 3 3 3 3
          3 3 3 3 3 3
          3 3 3 3 3 3
          3 3 3 3 3 3
          3 3 3 3 3 3
          3 3 3 3 3 3
          3 3 3 3 3 3
          3 3 3 3 3 3
          3 3 3 3 3 3
          3 3 3 3 3 3
          3 3 3 3 3 3
          3 3 3 3 3 3
          3 3 3 3 3 3
          3 3 3 3 3 3
          3 3 3 3 3 3
          3 3 3 3 3 3
          3 3 3 3 3 3
          3 3 3 3 3 3
          3 3 3 3 3 3
          3 3 3 3 3 3
          3 3 3 3 3 3
          3 3 3 3 3 3
          3 3 3 3 3 3
          3 3 3 3 3 3
          3 3 3 3 3 3
          3 3 3 3 3 3
          3 3 3 3 3 3
          3 3 3 3 3 3
          3 3 3 3 3 3
          3 3 3 3 3 3
          3 3 3 3 3 3
          3 3 3 3 3 3
          3 3 3 3 3 3
          3 3 3 3 3 3
          3 3 3 3 3 3
          3 3 3 3 3 3
          3 3 3 3 3 3
          3 3 3 3 3 3
          3 3 3 3 3 3
          3 3 3 3
        </DataArray>
      </CellData>
      <Points>
        <DataArray type="Float64" Name="Points" NumberOfComponents="3" format="ascii" RangeMin="0.013166738443807365" RangeMax="0.02374822585851783">
          0.016451229180203 0.011589607556601 0 0.016255198485848 0.011015934042219 0
          0.016728572005863 0.010757201031786 0 0.017039955631379 0.011194422572054 0
          0.016451229180203 0.011589607556601 0.00015 0.016255198485848 0.011015934042219 0.00015
          0.016728572005863 0.010757201031786 0.00015 0.017039955631379 0.011194422572054 0.00015
          0.016451229180203 0.011589607556601 0.0003 0.016255198485848 0.011015934042219 0.0003
          0.016728572005863 0.010757201031786 0.0003 0.017039955631379 0.011194422572054 0.0003
          0.011186406523754 0.0095188731742926 0 0.010689703280164 0.0094649590365737 0
          0.010634679710187 0.008964429555675 0 0.011131650337527 0.0089687060727404 0
          0.011186406523754 0.0095188731742926 0.00015 0.010689703280164 0.0094649590365737 0.00015
          0.010634679710187 0.008964429555675 0.00015 0.011131650337527 0.0089687060727404 0.00015
          0.011186406523754 0.0095188731742926 0.0003 0.010689703280164 0.0094649590365737 0.0003
          0.010634679710187 0.008964429555675 0.0003 0.011131650337527 0.0089687060727404 0.0003
          0.010158980545183 0.0089928081418126 0 0.010158980545183 0.0089928081418126 0.00015
          0.010158980545183 0.0089928081418126 0.0003 0.010234809282542 0.0094751596931164 0
          0.010234809282542 0.0094751596931164 0.00015 0.010234809282542 0.0094751596931164 0.0003
          0.017215305681839 0.010421173498473 0 0.017538322616078 0.010852535251392 0
          0.017215305681839 0.010421173498473 0.00015 0.017538322616078 0.010852535251392 0.00015
          0.017215305681839 0.010421173498473 0.0003 0.017538322616078 0.010852535251392 0.0003
          0.015522227276376 0.0083950727535023 0 0.015339273065407 0.0078314073000753 0
          0.015832583415208 0.0077039482324782 0 0.015871156677641 0.0080932538621961 0
          0.015522227276376 0.0083950727535023 0.00015 0.015339273065407 0.0078314073000753 0.00015
          0.015832583415208 0.0077039482324782 0.00015 0.015871156677641 0.0080932538621961 0.00015
          0.015522227276376 0.0083950727535023 0.0003 0.015339273065407 0.0078314073000753 0.0003
          0.015832583415208 0.0077039482324782 0.0003 0.015871156677641 0.0080932538621961 0.0003
          0.014182404182597 0.012030933394166 0 0.014112697634716 0.011586899500601 0
          0.01453762000082 0.011541498939039 0 0.014647727851392 0.011956202120878 0
          0.014182404182597 0.012030933394166 0.00015 0.014112697634716 0.011586899500601 0.00015
          0.01453762000082 0.011541498939039 0.00015 0.014647727851392 0.011956202120878 0.00015
          0.014182404182597 0.012030933394166 0.0003 0.014112697634716 0.011586899500601 0.0003
          0.01453762000082 0.011541498939039 0.0003 0.014647727851392 0.011956202120878 0.0003
          0.012718807262617 0.012100913225318 0 0.01318790653826 0.012081424726463 0
          0.013223560157694 0.012548837560718 0 0.012721969255655 0.012547975923311 0
          0.012718807262617 0.012100913225318 0.00015 0.01318790653826 0.012081424726463 0.00015
          0.013223560157694 0.012548837560718 0.00015 0.012721969255655 0.012547975923311 0.00015
          0.012718807262617 0.012100913225318 0.0003 0.01318790653826 0.012081424726463 0.0003
          0.013223560157694 0.012548837560718 0.0003 0.012721969255655 0.012547975923311 0.0003
          0.015037276113604 0.0053883886132418 0 0.014872829902632 0.0048660088618751 0
          0.015610482342583 0.0052949834846695 0 0.015037276113604 0.0053883886132418 0.00015
          0.014872829902632 0.0048660088618751 0.00015 0.015610482342583 0.0052949834846695 0.00015
          0.015037276113604 0.0053883886132418 0.0003 0.014872829902632 0.0048660088618751 0.0003
          0.015610482342583 0.0052949834846695 0.0003 0.012853333735139 0.0071862564407273 0
          0.013298874998351 0.0073010052974168 0 0.013468505581478 0.0077481198485017 0
          0.012879769579272 0.0077824950988095 0 0.012853333735139 0.0071862564407273 0.00015
          0.013298874998351 0.0073010052974168 0.00015 0.013468505581478 0.0077481198485017 0.00015
          0.012879769579272 0.0077824950988095 0.00015 0.012853333735139 0.0071862564407273 0.0003
          0.013298874998351 0.0073010052974168 0.0003 0.013468505581478 0.0077481198485017 0.0003
          0.012879769579272 0.0077824950988095 0.0003 0.012310751390795 0.0073009210446318 0
          0.012310751390795 0.0073009210446318 0.00015 0.012310751390795 0.0073009210446318 0.0003
          0.016440539131042 0.010340248821358 0 0.016895401758078 0.0099970418145034 0
          0.016440539131042 0.010340248821358 0.00015 0.016895401758078 0.0099970418145034 0.00015
          0.016440539131042 0.010340248821358 0.0003 0.016895401758078 0.0099970418145034 0.0003
          0.015674284513358 0.012057735082989 0 0.015799992883172 0.011590312491375 0
          0.01620648935985 0.012173309797103 0 0.015674284513358 0.012057735082989 0.00015
          0.015799992883172 0.011590312491375 0.00015 0.01620648935985 0.012173309797103 0.00015
          0.015674284513358 0.012057735082989 0.0003 0.015799992883172 0.011590312491375 0.0003
          0.01620648935985 0.012173309797103 0.0003 0.015719396244314 0.0096761034796614 0
          0.015317179218416 0.010039615829248 0 0.014916285335657 0.0096823062625427 0
          0.015356151892906 0.0093633130446295 0 0.015719396244314 0.0096761034796614 0.00015
          0.015317179218416 0.010039615829248 0.00015 0.014916285335657 0.0096823062625427 0.00015
          0.015356151892906 0.0093633130446295 0.00015 0.015719396244314 0.0096761034796614 0.0003
          0.015317179218416 0.010039615829248 0.0003 0.014916285335657 0.0096823062625427 0.0003
          0.015356151892906 0.0093633130446295 0.0003 0.014911939516014 0.011080222539295 0
          0.01492908374418 0.011511002202991 0 0.014470673144967 0.011122308960465 0
          0.014911939516014 0.011080222539295 0.00015 0.01492908374418 0.011511002202991 0.00015
          0.014470673144967 0.011122308960465 0.00015 0.014911939516014 0.011080222539295 0.0003
          0.01492908374418 0.011511002202991 0.0003 0.014470673144967 0.011122308960465 0.0003
          0.014927498433442 0.011816834084778 0 0.015214955739546 0.01195124117686 0
          0.014868481741766 0.012398226678167 0 0.014927498433442 0.011816834084778 0.00015
          0.015214955739546 0.01195124117686 0.00015 0.014868481741766 0.012398226678167 0.00015
          0.014927498433442 0.011816834084778 0.0003 0.015214955739546 0.01195124117686 0.0003
          0.014868481741766 0.012398226678167 0.0003 0.014887382940214 0.010512753679506 0
          0.01433465747601 0.010724165901292 0 0.014030150330029 0.010370439204794 0
          0.01444626395613 0.010022024912649 0 0.014887382940214 0.010512753679506 0.00015
          0.01433465747601 0.010724165901292 0.00015 0.014030150330029 0.010370439204794 0.00015
          0.01444626395613 0.010022024912649 0.00015 0.014887382940214 0.010512753679506 0.0003
          0.01433465747601 0.010724165901292 0.0003 0.014030150330029 0.010370439204794 0.0003
          0.01444626395613 0.010022024912649 0.0003 0.013388886812482 0.0083497293814167 0
          0.012899574253998 0.0083038014764745 0 0.013388886812482 0.0083497293814167 0.00015
          0.012899574253998 0.0083038014764745 0.00015 0.013388886812482 0.0083497293814167 0.0003
          0.012899574253998 0.0083038014764745 0.0003 0.015784016264429 0.0071345425111119 0
          0.016328429431772 0.0071626451349231 0 0.016328043288569 0.0077322573762078 0
          0.015784016264429 0.0071345425111119 0.00015 0.016328429431772 0.0071626451349231 0.00015
          0.016328043288569 0.0077322573762078 0.00015 0.015784016264429 0.0071345425111119 0.0003
          0.016328429431772 0.0071626451349231 0.0003 0.016328043288569 0.0077322573762078 0.0003
          0.016727166785252 0.0084386331054829 0 0.01644772366367 0.0089064975551763 0
          0.016002189190704 0.0086574712541786 0 0.016221340977963 0.0082297464535469 0
          0.016727166785252 0.0084386331054829 0.00015 0.01644772366367 0.0089064975551763 0.00015
          0.016002189190704 0.0086574712541786 0.00015 0.016221340977963 0.0082297464535469 0.00015
          0.016727166785252 0.0084386331054829 0.0003 0.01644772366367 0.0089064975551763 0.0003
          0.016002189190704 0.0086574712541786 0.0003 0.016221340977963 0.0082297464535469 0.0003
          0.018901908985383 0.011783468628847 0 0.018328257152057 0.011560564570719 0
          0.018901908985383 0.011783468628847 0.00015 0.018328257152057 0.011560564570719 0.00015
          0.018901908985383 0.011783468628847 0.0003 0.018328257152057 0.011560564570719 0.0003
          0.016817438697449 0.012401495631919 0 0.016895899239308 0.011880939878953 0
          0.016817438697449 0.012401495631919 0.00015 0.016895899239308 0.011880939878953 0.00015
          0.016817438697449 0.012401495631919 0.0003 0.016895899239308 0.011880939878953 0.0003
          0.010475172867508 0.012102844227475 0 0.010669582432454 0.011743114144408 0
          0.010475172867508 0.012102844227475 0.00015 0.010669582432454 0.011743114144408 0.00015
          0.010475172867508 0.012102844227475 0.0003 0.010669582432454 0.011743114144408 0.0003
          0.018198082784875 0.0097658337520035 0 0.018455934862008 0.010221918525687 0
          0.018019877493881 0.01050989807829 0 0.017698489924893 0.010066971919266 0
          0.018198082784875 0.0097658337520035 0.00015 0.018455934862008 0.010221918525687 0.00015
          0.018019877493881 0.01050989807829 0.00015 0.017698489924893 0.010066971919266 0.00015
          0.018198082784875 0.0097658337520035 0.0003 0.018455934862008 0.010221918525687 0.0003
          0.018019877493881 0.01050989807829 0.0003 0.017698489924893 0.010066971919266 0.0003
          0.015096658749896 0.0059763609132825 0 0.015666288430535 0.0059190759170471 0
          0.015096658749896 0.0059763609132825 0.00015 0.015666288430535 0.0059190759170471 0.00015
          0.015096658749896 0.0059763609132825 0.0003 0.015666288430535 0.0059190759170471 0.0003
          0.013546901289865 0.0069836782833127 0 0.013134929749538 0.0067248500217048 0
          0.013546901289865 0.0069836782833127 0.00015 0.013134929749538 0.0067248500217048 0.00015
          0.013546901289865 0.0069836782833127 0.0003 0.013134929749538 0.0067248500217048 0.0003
          0.013831418153218 0.0064982603089606 0 0.013338214474932 0.0062766362868091 0
          0.013831418153218 0.0064982603089606 0.00015 0.013338214474932 0.0062766362868091 0.00015
          0.013831418153218 0.0064982603089606 0.0003 0.013338214474932 0.0062766362868091 0.0003
          0.017908784385217 0.011229685010797 0 0.017908784385217 0.011229685010797 0.00015
          0.017908784385217 0.011229685010797 0.0003 0.017460830811305 0.0067242961174433 0
          0.017460830811305 0.0067242961174433 0.00015 0.017460830811305 0.0067242961174433 0.0003
          0.016232724398465 0.0059010997942707 0 0.016810957053741 0.0059693958220605 0
          0.016865945400018 0.0066157033945985 0 0.016287343165999 0.0065221003589061 0
          0.016232724398465 0.0059010997942707 0.00015 0.016810957053741 0.0059693958220605 0.00015
          0.016865945400018 0.0066157033945985 0.00015 0.016287343165999 0.0065221003589061 0.00015
          0.016232724398465 0.0059010997942707 0.0003 0.016810957053741 0.0059693958220605 0.0003
          0.016865945400018 0.0066157033945985 0.0003 0.016287343165999 0.0065221003589061 0.0003
          0.015434451036398 0.0088351663483508 0 0.015091649000167 0.0090065479673052 0
          0.0149386527618 0.008562942865766 0 0.015434451036398 0.0088351663483508 0.00015
          0.015091649000167 0.0090065479673052 0.00015 0.0149386527618 0.008562942865766 0.00015
          0.015434451036398 0.0088351663483508 0.0003 0.015091649000167 0.0090065479673052 0.0003
          0.0149386527618 0.008562942865766 0.0003 0.013851103268646 0.0079817773379183 0
          0.013864053371773 0.0083733293390323 0 0.013851103268646 0.0079817773379183 0.00015
          0.013864053371773 0.0083733293390323 0.00015 0.013851103268646 0.0079817773379183 0.0003
          0.013864053371773 0.0083733293390323 0.0003 0.016873832756735 0.0078915607150548 0
          0.016873832756735 0.0078915607150548 0.00015 0.016873832756735 0.0078915607150548 0.0003
          0.011740832768399 0.012550565772382 0 0.011781425344485 0.012080160842703 0
          0.012267797740114 0.012087686226532 0 0.012238354096222 0.012547223275944 0
          0.011740832768399 0.012550565772382 0.00015 0.011781425344485 0.012080160842703 0.00015
          0.012267797740114 0.012087686226532 0.00015 0.012238354096222 0.012547223275944 0.00015
          0.011740832768399 0.012550565772382 0.0003 0.011781425344485 0.012080160842703 0.0003
          0.012267797740114 0.012087686226532 0.0003 0.012238354096222 0.012547223275944 0.0003
          0.015724816214821 0.0065169349202822 0 0.015724816214821 0.0065169349202822 0.00015
          0.015724816214821 0.0065169349202822 0.0003 0.016904663245172 0.0072759580116152 0
          0.016904663245172 0.0072759580116152 0.00015 0.016904663245172 0.0072759580116152 0.0003
          0.016212759806586 0.0053000490100875 0 0.016212759806586 0.0053000490100875 0.00015
          0.016212759806586 0.0053000490100875 0.0003 0.017422284858474 0.011679101640391 0
          0.017908527792884 0.011814582379248 0 0.017422284858474 0.011679101640391 0.00015
          0.017908527792884 0.011814582379248 0.00015 0.017422284858474 0.011679101640391 0.0003
          0.017908527792884 0.011814582379248 0.0003 0.017261702763099 0.0086939606584207 0
          0.017434489396122 0.0080779876667089 0 0.017261702763099 0.0086939606584207 0.00015
          0.017434489396122 0.0080779876667089 0.00015 0.017261702763099 0.0086939606584207 0.0003
          0.017434489396122 0.0080779876667089 0.0003 0.014181033506022 0.0077713348891544 0
          0.014325604474543 0.0082610969383043 0 0.014181033506022 0.0077713348891544 0.00015
          0.014325604474543 0.0082610969383043 0.00015 0.014181033506022 0.0077713348891544 0.0003
          0.014325604474543 0.0082610969383043 0.0003 0.016099115219063 0.0099899847281115 0
          0.016520689982407 0.0096278486407962 0 0.016099115219063 0.0099899847281115 0.00015
          0.016520689982407 0.0096278486407962 0.00015 0.016099115219063 0.0099899847281115 0.0003
          0.016520689982407 0.0096278486407962 0.0003 0.014613026918956 0.0092413149543641 0
          0.014613026918956 0.0092413149543641 0.00015 0.014613026918956 0.0092413149543641 0.0003
          0.016937453954769 0.0092095292918499 0 0.017364558514239 0.0096012653805297 0
          0.016937453954769 0.0092095292918499 0.00015 0.017364558514239 0.0096012653805297 0.00015
          0.016937453954769 0.0092095292918499 0.0003 0.017364558514239 0.0096012653805297 0.0003
          0.015712843676617 0.010331364913168 0 0.016032046384524 0.010629553115583 0
          0.015712843676617 0.010331364913168 0.00015 0.016032046384524 0.010629553115583 0.00015
          0.015712843676617 0.010331364913168 0.0003 0.016032046384524 0.010629553115583 0.0003
          0.01346343572409 0.0057857389411653 0 0.01346343572409 0.0057857389411653 0.00015
          0.01346343572409 0.0057857389411653 0.0003 0.015150761096164 0.0066142159223768 0
          0.015150761096164 0.0066142159223768 0.00015 0.015150761096164 0.0066142159223768 0.0003
          0.015453261139866 0.010697023165802 0 0.015761290368715 0.010819971207646 0
          0.015453261139866 0.010697023165802 0.00015 0.015761290368715 0.010819971207646 0.00015
          0.015453261139866 0.010697023165802 0.0003 0.015761290368715 0.010819971207646 0.0003
          0.013975551316416 0.0059398855735222 0 0.013975551316416 0.0059398855735222 0.00015
          0.013975551316416 0.0059398855735222 0.0003 0.017479032913359 0.0074088673936633 0
          0.017479032913359 0.0074088673936633 0.00015 0.017479032913359 0.0074088673936633 0.0003
          0.014439802315681 0.0067889662935499 0 0.014530319307898 0.006021518089632 0
          0.014439802315681 0.0067889662935499 0.00015 0.014530319307898 0.006021518089632 0.00015
          0.014439802315681 0.0067889662935499 0.0003 0.014530319307898 0.006021518089632 0.0003
          0.014431521900925 0.0087663339265048 0 0.013899975831329 0.0088854517032459 0
          0.014431521900925 0.0087663339265048 0.00015 0.013899975831329 0.0088854517032459 0.00015
          0.014431521900925 0.0087663339265048 0.0003 0.013899975831329 0.0088854517032459 0.0003
          0.015334349753872 0.011547922560075 0 0.015363465895193 0.011114260619116 0
          0.015801980011793 0.011137474992711 0 0.015334349753872 0.011547922560075 0.00015
          0.015363465895193 0.011114260619116 0.00015 0.015801980011793 0.011137474992711 0.00015
          0.015334349753872 0.011547922560075 0.0003 0.015363465895193 0.011114260619116 0.0003
          0.015801980011793 0.011137474992711 0.0003 0.01326617738197 0.0093680808515997 0
          0.012793423392144 0.00921210926252 0 0.012882512800283 0.0087881474090036 0
          0.013365259810227 0.0088714473068585 0 0.01326617738197 0.0093680808515997 0.00015
          0.012793423392144 0.00921210926252 0.00015 0.012882512800283 0.0087881474090036 0.00015
          0.013365259810227 0.0088714473068585 0.00015 0.01326617738197 0.0093680808515997 0.0003
          0.012793423392144 0.00921210926252 0.0003 0.012882512800283 0.0087881474090036 0.0003
          0.013365259810227 0.0088714473068585 0.0003 0.011993243876189 0.010936510200926 0
          0.011726815341297 0.011491075647124 0 0.011222013645511 0.011097826594996 0
          0.011481744371717 0.010688234667639 0 0.011993243876189 0.010936510200926 0.00015
          0.011726815341297 0.011491075647124 0.00015 0.011222013645511 0.011097826594996 0.00015
          0.011481744371717 0.010688234667639 0.00015 0.011993243876189 0.010936510200926 0.0003
          0.011726815341297 0.011491075647124 0.0003 0.011222013645511 0.011097826594996 0.0003
          0.011481744371717 0.010688234667639 0.0003 0.013923252507151 0.0073329122207352 0
          0.013923252507151 0.0073329122207352 0.00015 0.013923252507151 0.0073329122207352 0.0003
          0.013063793506476 0.0098271989985527 0 0.012601634550352 0.009590277262082 0
          0.013063793506476 0.0098271989985527 0.00015 0.012601634550352 0.009590277262082 0.00015
          0.013063793506476 0.0098271989985527 0.0003 0.012601634550352 0.009590277262082 0.0003
          0.014102855237989 0.0047969187863067 0 0.013905759673286 0.0043612537888552 0
          0.014102855237989 0.0047969187863067 0.00015 0.013905759673286 0.0043612537888552 0.00015
          0.014102855237989 0.0047969187863067 0.0003 0.013905759673286 0.0043612537888552 0.0003
          0.012852488428802 0.010265076045094 0 0.012374691983482 0.010000797580735 0
          0.012852488428802 0.010265076045094 0.00015 0.012374691983482 0.010000797580735 0.00015
          0.012852488428802 0.010265076045094 0.0003 0.012374691983482 0.010000797580735 0.0003
          0.011668611956603 0.010219239111219 0 0.012182731119778 0.010462377133106 0
          0.011668611956603 0.010219239111219 0.00015 0.012182731119778 0.010462377133106 0.00015
          0.011668611956603 0.010219239111219 0.0003 0.012182731119778 0.010462377133106 0.0003
          0.011158560753842 0.010029990414111 0 0.011017968815575 0.010465683342369 0
          0.011158560753842 0.010029990414111 0.00015 0.011017968815575 0.010465683342369 0.00015
          0.011158560753842 0.010029990414111 0.0003 0.011017968815575 0.010465683342369 0.0003
          0.014820390261339 0.0080402105998384 0 0.014820390261339 0.0080402105998384 0.00015
          0.014820390261339 0.0080402105998384 0.0003 0.015228397699353 0.0072512250897894 0
          0.015228397699353 0.0072512250897894 0.00015 0.015228397699353 0.0072512250897894 0.0003
          0.0130361735465 0.011522072885309 0 0.012689359184487 0.011761634268536 0
          0.012340499111532 0.011632501505239 0 0.012497431968462 0.011183651982421 0
          0.0130361735465 0.011522072885309 0.00015 0.012689359184487 0.011761634268536 0.00015
          0.012340499111532 0.011632501505239 0.00015 0.012497431968462 0.011183651982421 0.00015
          0.0130361735465 0.011522072885309 0.0003 0.012689359184487 0.011761634268536 0.0003
          0.012340499111532 0.011632501505239 0.0003 0.012497431968462 0.011183651982421 0.0003
          0.013528941600065 0.0052742966774397 0 0.014027103455945 0.0053875982273864 0
          0.013528941600065 0.0052742966774397 0.00015 0.014027103455945 0.0053875982273864 0.00015
          0.013528941600065 0.0052742966774397 0.0003 0.014027103455945 0.0053875982273864 0.0003
          0.010128205128219 0.013 0 0.010310686327751 0.012539165738252 0
          0.010788384596096 0.012564579045747 0 0.01064102564104 0.013 0
          0.010128205128219 0.013 0.00015 0.010310686327751 0.012539165738252 0.00015
          0.010788384596096 0.012564579045747 0.00015 0.01064102564104 0.013 0.00015
          0.010128205128219 0.013 0.0003 0.010310686327751 0.012539165738252 0.0003
          0.010788384596096 0.012564579045747 0.0003 0.01064102564104 0.013 0.0003
          0.010783127360108 0.010836567412064 0 0.010385522435479 0.010608007769118 0
          0.010601303654319 0.010290632654442 0 0.010783127360108 0.010836567412064 0.00015
          0.010385522435479 0.010608007769118 0.00015 0.010601303654319 0.010290632654442 0.00015
          0.010783127360108 0.010836567412064 0.0003 0.010385522435479 0.010608007769118 0.0003
          0.010601303654319 0.010290632654442 0.0003 0.011818930007254 0.009602160287834 0
          0.011818930007254 0.009602160287834 0.00015 0.011818930007254 0.009602160287834 0.0003
          0.015715008716269 0.0090308288850156 0 0.01610853428864 0.0093166480881369 0
          0.015715008716269 0.0090308288850156 0.00015 0.01610853428864 0.0093166480881369 0.00015
          0.015715008716269 0.0090308288850156 0.0003 0.01610853428864 0.0093166480881369 0.0003
          0.013952831965685 0.0095243725467762 0 0.013572358856734 0.010071658883703 0
          0.013952831965685 0.0095243725467762 0.00015 0.013572358856734 0.010071658883703 0.00015
          0.013952831965685 0.0095243725467762 0.0003 0.013572358856734 0.010071658883703 0.0003
          0.012677817340078 0.010719835797972 0 0.012677817340078 0.010719835797972 0.00015
          0.012677817340078 0.010719835797972 0.0003 0.014678664229456 0.0074733115324236 0
          0.014678664229456 0.0074733115324236 0.00015 0.014678664229456 0.0074733115324236 0.0003
          0.012261506677236 0.0092701804285872 0 0.012499922412859 0.0090879994978671 0
          0.012261506677236 0.0092701804285872 0.00015 0.012499922412859 0.0090879994978671 0.00015
          0.012261506677236 0.0092701804285872 0.0003 0.012499922412859 0.0090879994978671 0.0003
          0.011270478587413 0.012561768236337 0 0.011153846153863 0.013 0
          0.011270478587413 0.012561768236337 0.00015 0.011153846153863 0.013 0.00015
          0.011270478587413 0.012561768236337 0.0003 0.011153846153863 0.013 0.0003
          0.012179487179506 0.013 0 0.012692307692328 0.013 0
          0.012179487179506 0.013 0.00015 0.012692307692328 0.013 0.00015
          0.012179487179506 0.013 0.0003 0.012692307692328 0.013 0.0003
          0.013205128205151 0.013 0 0.013721380024409 0.012538570920528 0
          0.013717948717973 0.013 0 0.013205128205151 0.013 0.00015
          0.013721380024409 0.012538570920528 0.00015 0.013717948717973 0.013 0.00015
          0.013205128205151 0.013 0.0003 0.013721380024409 0.012538570920528 0.0003
          0.013717948717973 0.013 0.0003 0.013680323008888 0.01206206640945 0
          0.0136362676363 0.011582155921186 0 0.013680323008888 0.01206206640945 0.00015
          0.0136362676363 0.011582155921186 0.00015 0.013680323008888 0.01206206640945 0.0003
          0.0136362676363 0.011582155921186 0.0003 0.011306940297591 0.012129646322267 0
          0.011212076662234 0.01173976422044 0 0.011306940297591 0.012129646322267 0.00015
          0.011212076662234 0.01173976422044 0.00015 0.011306940297591 0.012129646322267 0.0003
          0.011212076662234 0.01173976422044 0.0003 0.014247558447628 0.012512499343239 0
          0.014230769230793 0.013 0 0.014247558447628 0.012512499343239 0.00015
          0.014230769230793 0.013 0.00015 0.014247558447628 0.012512499343239 0.0003
          0.014230769230793 0.013 0.0003 0.010925822172272 0.011428925131881 0
          0.010925822172272 0.011428925131881 0.00015 0.010925822172272 0.011428925131881 0.0003
          0.017598702187272 0.012594388856786 0 0.018138509806267 0.012585421267124 0
          0.018333333333352 0.013 0 0.017820512820533 0.013 0
          0.017598702187272 0.012594388856786 0.00015 0.018138509806267 0.012585421267124 0.00015
          0.018333333333352 0.013 0.00015 0.017820512820533 0.013 0.00015
          0.017598702187272 0.012594388856786 0.0003 0.018138509806267 0.012585421267124 0.0003
          0.018333333333352 0.013 0.0003 0.017820512820533 0.013 0.0003
          0.01884615384617 0.013 0 0.018647619061649 0.012577247456601 0
          0.01884615384617 0.013 0.00015 0.018647619061649 0.012577247456601 0.00015
          0.01884615384617 0.013 0.0003 0.018647619061649 0.012577247456601 0.0003
          0.010939820280367 0.01187760398484 0 0.010939820280367 0.01187760398484 0.00015
          0.010939820280367 0.01187760398484 0.0003 0.014743589743616 0.013 0
          0.014743589743616 0.013 0.00015 0.014743589743616 0.013 0.0003
          0.013168261777023 0.010955167755454 0 0.013168261777023 0.010955167755454 0.00015
          0.013168261777023 0.010955167755454 0.0003 0.011620435633551 0.0089440866322713 0
          0.011620435633551 0.0089440866322713 0.00015 0.011620435633551 0.0089440866322713 0.0003
          0.01333281098878 0.010501143990949 0 0.01333281098878 0.010501143990949 0.00015
          0.01333281098878 0.010501143990949 0.0003 0.013640766026071 0.011115210745046 0
          0.014063261910082 0.011165191959691 0 0.013640766026071 0.011115210745046 0.00015
          0.014063261910082 0.011165191959691 0.00015 0.013640766026071 0.011115210745046 0.0003
          0.014063261910082 0.011165191959691 0.0003 0.013761635093034 0.010714997264381 0
          0.013761635093034 0.010714997264381 0.00015 0.013761635093034 0.010714997264381 0.0003
          0.01790845301636 0.0090613468730877 0 0.01790845301636 0.0090613468730877 0.00015
          0.01790845301636 0.0090613468730877 0.0003 0.010691300612525 0.0099168298135774 0
          0.010691300612525 0.0099168298135774 0.00015 0.010691300612525 0.0099168298135774 0.0003
          0.014509683505008 0.0050450954358061 0 0.014509683505008 0.0050450954358061 0.00015
          0.014509683505008 0.0050450954358061 0.0003 0.012373637985884 0.0077974643404521 0
          0.012419274731686 0.0083019280664676 0 0.012373637985884 0.0077974643404521 0.00015
          0.012419274731686 0.0083019280664676 0.00015 0.012373637985884 0.0077974643404521 0.0003
          0.012419274731686 0.0083019280664676 0.0003 0.014523119140279 0.0054383897453177 0
          0.014523119140279 0.0054383897453177 0.00015 0.014523119140279 0.0054383897453177 0.0003
          0.012468015808598 0.0087643938641043 0 0.012468015808598 0.0087643938641043 0.00015
          0.012468015808598 0.0087643938641043 0.0003 0.014041697947841 0.010862771985015 0
          0.014041697947841 0.010862771985015 0.00015 0.014041697947841 0.010862771985015 0.0003
          0.012067821946234 0.0088387705315247 0 0.012067821946234 0.0088387705315247 0.00015
          0.012067821946234 0.0088387705315247 0.0003 0.018063704813091 0.0075049932447581 0
          0.018063704813091 0.0075049932447581 0.00015 0.018063704813091 0.0075049932447581 0.0003
          0.01801805728244 0.008218173104411 0 0.01801805728244 0.008218173104411 0.00015
          0.01801805728244 0.008218173104411 0.0003 0.019162849649621 0.012571706415164 0
          0.019358974358988 0.013 0 0.019162849649621 0.012571706415164 0.00015
          0.019358974358988 0.013 0.00015 0.019162849649621 0.012571706415164 0.0003
          0.019358974358988 0.013 0.0003 0.015469042768348 0.012527612124711 0
          0.015256410256436 0.013 0 0.015469042768348 0.012527612124711 0.00015
          0.015256410256436 0.013 0.00015 0.015469042768348 0.012527612124711 0.0003
          0.015256410256436 0.013 0.0003 0.017482035345823 0.012218317378284 0
          0.017482035345823 0.012218317378284 0.00015 0.017482035345823 0.012218317378284 0.0003
          0.011666666666685 0.013 0 0.011666666666685 0.013 0.00015
          0.011666666666685 0.013 0.0003 0.013552812333296 0.0042895499786344 0
          0.013552812333296 0.0042895499786344 0.00015 0.013552812333296 0.0042895499786344 0.0003
          0.019003973493589 0.012129001566083 0 0.018491681451249 0.012137078785851 0
          0.019003973493589 0.012129001566083 0.00015 0.018491681451249 0.012137078785851 0.00015
          0.019003973493589 0.012129001566083 0.0003 0.018491681451249 0.012137078785851 0.0003
          0.016282051282076 0.013 0 0.016335894010033 0.012686725241599 0
          0.016794871794894 0.013 0 0.016282051282076 0.013 0.00015
          0.016335894010033 0.012686725241599 0.00015 0.016794871794894 0.013 0.00015
          0.016282051282076 0.013 0.0003 0.016335894010033 0.012686725241599 0.0003
          0.016794871794894 0.013 0.0003 0.017307692307713 0.013 0
          0.017281329535555 0.012689387511733 0 0.017307692307713 0.013 0.00015
          0.017281329535555 0.012689387511733 0.00015 0.017307692307713 0.013 0.0003
          0.017281329535555 0.012689387511733 0.0003 0.017996855365792 0.012159940978259 0
          0.017996855365792 0.012159940978259 0.00015 0.017996855365792 0.012159940978259 0.0003
          0.016023960213719 0.012601258532672 0 0.016023960213719 0.012601258532672 0.00015
          0.016023960213719 0.012601258532672 0.0003 0.015769230769256 0.013 0
          0.015769230769256 0.013 0.00015 0.015769230769256 0.013 0.0003
          0.013549428097692 0.0047645614477775 0 0.013549428097692 0.0047645614477775 0.00015
          0.013549428097692 0.0047645614477775 0.0003 0.010881954871342 0.01216105032025 0
          0.010881954871342 0.01216105032025 0.00015 0.010881954871342 0.01216105032025 0.0003
          0.010057653370411 0.0084974472595183 0 0.01054988842507 0.0084422245958245 0
          0.010057653370411 0.0084974472595183 0.00015 0.01054988842507 0.0084422245958245 0.00015
          0.010057653370411 0.0084974472595183 0.0003 0.01054988842507 0.0084422245958245 0.0003
          0.015535554193674 0.0045828394817383 0 0.015535554193674 0.0045828394817383 0.00015
          0.015535554193674 0.0045828394817383 0.0003 0.011832021157187 0.0073476785459853 0
          0.011779780861271 0.0068646395959748 0 0.012243708910156 0.0068324173193727 0
          0.011832021157187 0.0073476785459853 0.00015 0.011779780861271 0.0068646395959748 0.00015
          0.012243708910156 0.0068324173193727 0.00015 0.011832021157187 0.0073476785459853 0.0003
          0.011779780861271 0.0068646395959748 0.0003 0.012243708910156 0.0068324173193727 0.0003
          0.019357361519954 0.01157618305141 0 0.01884046117173 0.011223113854601 0
          0.019357361519954 0.01157618305141 0.00015 0.01884046117173 0.011223113854601 0.00015
          0.019357361519954 0.01157618305141 0.0003 0.01884046117173 0.011223113854601 0.0003
          0.014554004584986 0.0044253882271801 0 0.015005639561329 0.0040763460944633 0
          0.014554004584986 0.0044253882271801 0.00015 0.015005639561329 0.0040763460944633 0.00015
          0.014554004584986 0.0044253882271801 0.0003 0.015005639561329 0.0040763460944633 0.0003
          0.018384253973557 0.010894663204421 0 0.018384253973557 0.010894663204421 0.00015
          0.018384253973557 0.010894663204421 0.0003 0.017413401850906 0.0060417176080878 0
          0.018057579772584 0.0060827128421873 0 0.018070157245618 0.0068021820766994 0
          0.017413401850906 0.0060417176080878 0.00015 0.018057579772584 0.0060827128421873 0.00015
          0.018070157245618 0.0068021820766994 0.00015 0.017413401850906 0.0060417176080878 0.0003
          0.018057579772584 0.0060827128421873 0.0003 0.018070157245618 0.0068021820766994 0.0003
          0.016291762387835 0.0047307906783276 0 0.016291762387835 0.0047307906783276 0.00015
          0.016291762387835 0.0047307906783276 0.0003 0.012879713087233 0.0060908484912964 0
          0.012982043505355 0.0056371881930815 0 0.012879713087233 0.0060908484912964 0.00015
          0.012982043505355 0.0056371881930815 0.00015 0.012879713087233 0.0060908484912964 0.0003
          0.012982043505355 0.0056371881930815 0.0003 0.01678493258985 0.0053840721103251 0
          0.016848637368385 0.0048798435935376 0 0.01678493258985 0.0053840721103251 0.00015
          0.016848637368385 0.0048798435935376 0.00015 0.01678493258985 0.0053840721103251 0.0003
          0.016848637368385 0.0048798435935376 0.0003 0.012723582323863 0.006509831652106 0
          0.012723582323863 0.006509831652106 0.00015 0.012723582323863 0.006509831652106 0.0003
          0.014128459199836 0.0039835282877348 0 0.014128459199836 0.0039835282877348 0.00015
          0.014128459199836 0.0039835282877348 0.0003 0.018817000838468 0.010560792840001 0
          0.018817000838468 0.010560792840001 0.00015 0.018817000838468 0.010560792840001 0.0003
          0.011043213382792 0.0084269911709333 0 0.011043213382792 0.0084269911709333 0.00015
          0.011043213382792 0.0084269911709333 0.0003 0.011511795106494 0.0083968566041475 0
          0.011511795106494 0.0083968566041475 0.00015 0.011511795106494 0.0083968566041475 0.0003
          0.017341722495578 0.0054175123203669 0 0.017341722495578 0.0054175123203669 0.00015
          0.017341722495578 0.0054175123203669 0.0003 0.01196380743939 0.0083394019710021 0
          0.011894488312007 0.0078344841271679 0 0.01196380743939 0.0083394019710021 0.00015
          0.011894488312007 0.0078344841271679 0.00015 0.01196380743939 0.0083394019710021 0.0003
          0.011894488312007 0.0078344841271679 0.0003 0.018719100515555 0.0096191331103102 0
          0.018769006148643 0.010016813571171 0 0.018719100515555 0.0096191331103102 0.00015
          0.018769006148643 0.010016813571171 0.00015 0.018719100515555 0.0096191331103102 0.0003
          0.018769006148643 0.010016813571171 0.0003 0.019142781766586 0.010156284019367 0
          0.019142781766586 0.010156284019367 0.00015 0.019142781766586 0.010156284019367 0.0003
          0.019871794871807 0.013 0 0.019671681078705 0.012567114388191 0
          0.019871794871807 0.013 0.00015 0.019671681078705 0.012567114388191 0.00015
          0.019871794871807 0.013 0.0003 0.019671681078705 0.012567114388191 0.0003
          0.013590285783394 0.0038446716816234 0 0.013590285783394 0.0038446716816234 0.00015
          0.013590285783394 0.0038446716816234 0.0003 0.018696511924608 0.0075816988835645 0
          0.018734278863615 0.0068564365277259 0 0.018696511924608 0.0075816988835645 0.00015
          0.018734278863615 0.0068564365277259 0.00015 0.018696511924608 0.0075816988835645 0.0003
          0.018734278863615 0.0068564365277259 0.0003 0.013091675611077 0.0041736873632184 0
          0.013121586466294 0.0036708577033715 0 0.013091675611077 0.0041736873632184 0.00015
          0.013121586466294 0.0036708577033715 0.00015 0.013091675611077 0.0041736873632184 0.0003
          0.013121586466294 0.0036708577033715 0.0003 0.019497075330812 0.012129782091497 0
          0.019497075330812 0.012129782091497 0.00015 0.019497075330812 0.012129782091497 0.0003
          0.012592651705639 0.0068198098450163 0 0.012592651705639 0.0068198098450163 0.00015
          0.012592651705639 0.0068198098450163 0.0003 0.018655444813331 0.0089912542068827 0
          0.018655444813331 0.0089912542068827 0.00015 0.018655444813331 0.0089912542068827 0.0003
          0.018643245907353 0.0082916041839039 0 0.018643245907353 0.0082916041839039 0.00015
          0.018643245907353 0.0082916041839039 0.0003 0.013048655853798 0.0051555709380823 0
          0.013048655853798 0.0051555709380823 0.00015 0.013048655853798 0.0051555709380823 0.0003
          0.013084530633285 0.0046685927017207 0 0.013084530633285 0.0046685927017207 0.00015
          0.013084530633285 0.0046685927017207 0.0003
          <InformationKey name="L2_NORM_RANGE" location="vtkDataArray" length="2">
            <Value index="0">
              0.013166738444
            </Value>
            <Value index="1">
              0.023748225859
            </Value>
          </InformationKey>
        </DataArray>
      </Points>
      <Cells>
        <DataArray type="Int64" Name="connectivity" format="ascii" RangeMin="0" RangeMax="794">
          0 1 2 3 4 5
          6 7 4 5 6 7
          8 9 10 11 12 13
          14 15 16 17 18 19
          16 17 18 19 20 21
          22 23 666 667 14 24
          668 669 18 25 668 669
          18 25 670 671 22 26
          24 14 13 27 25 18
          17 28 25 18 17 28
          26 22 21 29 30 31
          3 2 32 33 7 6
          32 33 7 6 34 35
          11 10 36 37 38 39
          40 41 42 43 40 41
          42 43 44 45 46 47
          48 49 50 51 52 53
          54 55 52 53 54 55
          56 57 58 59 60 61
          62 63 64 65 66 67
          64 65 66 67 68 69
          70 71 72 73 672 74
          75 76 673 77 75 76
          673 77 78 79 674 80
          81 82 83 84 85 86
          87 88 85 86 87 88
          89 90 91 92 93 675
          676 677 94 678 679 680
          94 678 679 680 95 681
          682 683 2 96 97 30
          6 98 99 32 6 98
          99 32 10 100 101 34
          102 103 0 104 105 106
          4 107 105 106 4 107
          108 109 8 110 111 112
          113 114 115 116 117 118
          115 116 117 118 119 120
          121 122 123 124 50 125
          126 127 54 128 126 127
          54 128 129 130 58 131
          132 133 134 51 135 136
          137 55 135 136 137 55
          138 139 140 59 141 142
          143 144 145 146 147 148
          145 146 147 148 149 150
          151 152 112 141 144 113
          116 145 148 117 116 145
          148 117 120 149 152 121
          84 83 153 154 88 87
          155 156 88 87 155 156
          92 91 157 158 159 160
          161 38 162 163 164 42
          162 163 164 42 165 166
          167 46 168 169 170 171
          172 173 174 175 172 173
          174 175 176 177 178 179
          684 180 181 685 686 182
          183 687 686 182 183 687
          688 184 185 689 186 104
          0 187 188 107 4 189
          188 107 4 189 190 110
          8 191 690 691 672 73
          692 693 673 76 692 693
          673 76 694 695 674 79
          198 199 200 201 202 203
          204 205 202 203 204 205
          206 207 208 209 210 72
          74 211 212 75 77 213
          212 75 77 213 214 78
          80 215 216 82 81 217
          218 86 85 219 218 86
          85 219 220 90 89 221
          222 216 217 223 224 218
          219 225 224 218 219 225
          226 220 221 227 171 39
          38 161 175 43 42 164
          175 43 42 164 179 47
          46 167 228 696 685 181
          229 697 687 183 229 697
          687 183 230 698 689 185
          231 699 700 701 232 702
          703 704 232 702 703 704
          233 705 706 707 31 30
          201 200 33 32 205 204
          33 32 205 204 35 34
          209 208 234 235 236 237
          238 239 240 241 238 239
          240 241 242 243 244 245
          36 246 247 248 40 249
          250 251 40 249 250 251
          44 252 253 254 83 255
          256 153 87 257 258 155
          87 257 258 155 91 259
          260 157 235 699 231 236
          239 702 232 240 239 702
          232 240 243 705 233 244
          168 171 161 261 172 175
          164 262 172 175 164 262
          176 179 167 263 171 170
          36 39 175 174 40 43
          175 174 40 43 179 178
          44 47 264 265 266 267
          268 269 270 271 268 269
          270 271 272 273 274 275
          237 276 211 234 241 277
          213 238 241 277 213 238
          245 278 215 242 279 160
          237 236 280 163 241 240
          280 163 241 240 281 166
          245 244 234 211 74 282
          238 213 77 283 238 213
          77 283 242 215 80 284
          285 228 181 286 287 229
          183 288 287 229 183 288
          289 230 185 290 291 168
          261 292 293 172 262 294
          293 172 262 294 295 176
          263 296 297 298 256 255
          299 300 258 257 299 300
          258 257 301 302 260 259
          303 304 97 96 305 306
          99 98 305 306 99 98
          307 308 101 100 309 247
          114 113 310 250 118 117
          310 250 118 117 311 253
          122 121 304 312 313 97
          306 314 315 99 306 314
          315 99 308 316 317 101
          282 74 672 708 283 77
          673 709 283 77 673 709
          284 80 674 710 318 303
          96 319 320 305 98 321
          320 305 98 321 322 307
          100 323 285 187 0 3
          287 189 4 7 287 189
          4 7 289 191 8 11
          223 711 712 324 225 713
          714 325 225 713 714 325
          227 715 716 326 327 210
          211 276 328 212 213 277
          328 212 213 277 329 214
          215 278 717 282 708 718
          719 283 709 720 719 283
          709 720 721 284 710 722
          276 237 160 159 277 241
          163 162 277 241 163 162
          278 245 166 165 330 318
          319 331 332 320 321 333
          332 320 321 333 334 322
          323 335 324 336 222 223
          325 337 224 225 325 337
          224 225 326 338 226 227
          292 261 279 339 294 262
          280 340 294 262 280 340
          296 263 281 341 342 343
          210 327 344 345 212 328
          344 345 212 328 346 347
          214 329 696 228 31 200
          697 229 33 204 697 229
          33 204 698 230 35 208
          298 348 349 256 300 350
          351 258 300 350 351 258
          302 352 353 260 336 343
          342 222 337 345 344 224
          337 345 344 224 338 347
          346 226 96 2 1 319
          98 6 5 321 98 6
          5 321 100 10 9 323
          103 354 355 356 106 357
          358 359 106 357 358 359
          109 360 361 362 339 279
          236 231 340 280 240 232
          340 280 240 232 341 281
          244 233 363 364 365 366
          367 368 369 370 367 368
          369 370 371 372 373 374
          375 376 377 378 379 380
          381 382 379 380 381 382
          383 384 385 386 169 168
          291 312 173 172 293 314
          173 172 293 314 177 176
          295 316 216 222 342 387
          218 224 344 388 218 224
          344 388 220 226 346 389
          223 217 723 711 225 219
          724 713 225 219 724 713
          227 221 725 715 160 279
          261 161 163 280 262 164
          163 280 262 164 166 281
          263 167 356 355 330 331
          359 358 332 333 359 358
          332 333 362 361 334 335
          363 390 391 364 367 392
          393 368 367 392 393 368
          371 394 395 372 396 397
          726 690 398 399 727 692
          398 399 727 692 400 401
          728 694 390 402 403 391
          392 404 405 393 392 404
          405 393 394 406 407 395
          235 234 282 717 239 238
          283 719 239 238 283 719
          243 242 284 721 313 201
          30 97 315 205 32 99
          315 205 32 99 317 209
          34 101 248 247 309 348
          251 250 310 350 251 250
          310 350 254 253 311 352
          200 199 729 696 204 203
          730 697 204 203 730 697
          208 207 731 698 408 409
          375 378 410 411 379 382
          410 411 379 382 412 413
          383 386 153 256 349 366
          155 258 351 370 155 258
          351 370 157 260 353 374
          414 408 378 415 416 410
          382 417 416 410 382 417
          418 412 386 419 420 248
          348 298 421 251 350 300
          421 251 350 300 422 254
          352 302 423 327 276 159
          424 328 277 162 424 328
          277 162 425 329 278 165
          426 427 428 429 430 431
          432 433 430 431 432 433
          434 435 436 437 336 324
          438 439 337 325 440 441
          337 325 440 441 338 326
          442 443 667 732 15 14
          669 733 19 18 669 733
          19 18 671 734 23 22
          444 445 446 447 448 449
          450 451 448 449 450 451
          452 453 454 455 415 456
          457 458 417 459 460 461
          417 459 460 461 419 462
          463 464 12 465 408 414
          16 466 410 416 16 466
          410 416 20 467 412 418
          465 403 409 408 466 405
          411 410 466 405 411 410
          467 407 413 412 376 375
          429 428 380 379 433 432
          380 379 433 432 384 383
          437 436 114 468 469 111
          118 470 471 115 118 470
          471 115 122 472 473 119
          37 423 159 38 41 424
          162 42 41 424 162 42
          45 425 165 46 474 475
          390 363 476 477 392 367
          476 477 392 367 478 479
          394 371 429 375 409 480
          433 379 411 481 433 379
          411 481 437 383 413 482
          342 483 297 387 344 484
          299 388 344 484 299 388
          346 485 301 389 348 309
          474 349 350 310 476 351
          350 310 476 351 352 311
          478 353 480 409 403 402
          481 411 405 404 481 411
          405 404 482 413 407 406
          266 265 376 428 270 269
          380 432 270 269 380 432
          274 273 384 436 486 487
          364 391 488 489 368 393
          488 489 368 393 490 491
          372 395 447 446 492 493
          451 450 494 495 451 450
          494 495 455 454 496 497
          483 420 298 297 484 421
          300 299 484 421 300 299
          485 422 302 301 498 267
          63 499 500 271 67 501
          500 271 67 501 502 275
          71 503 378 377 456 415
          382 381 459 417 382 381
          459 417 386 385 462 419
          504 62 505 506 507 66
          508 509 507 66 508 509
          510 70 511 512 513 61
          426 514 515 65 430 516
          515 65 430 516 517 69
          434 518 499 63 62 504
          501 67 66 507 501 67
          66 507 503 71 70 510
          474 363 366 349 476 367
          370 351 476 367 370 351
          478 371 374 353 519 520
          376 265 521 522 380 269
          521 522 380 269 523 524
          384 273 506 505 525 526
          509 508 527 528 509 508
          527 528 512 511 529 530
          531 377 376 520 532 381
          380 522 532 381 380 522
          533 385 384 524 534 535
          536 537 538 539 540 541
          538 539 540 541 542 543
          544 545 546 536 535 547
          548 540 539 549 548 540
          539 549 550 544 543 551
          141 330 355 123 145 332
          358 126 145 332 358 126
          149 334 361 129 327 423
          483 342 328 424 484 344
          328 424 484 344 329 425
          485 346 193 531 520 552
          195 532 522 553 195 532
          522 553 197 533 524 554
          134 555 526 525 137 556
          528 527 137 556 528 527
          140 557 530 529 480 558
          426 429 481 559 430 433
          481 559 430 433 482 560
          434 437 391 403 465 486
          393 405 466 488 393 405
          466 488 395 407 467 490
          465 12 15 561 466 16
          19 562 466 16 19 562
          467 20 23 563 402 390
          475 564 404 392 477 565
          404 392 477 565 406 394
          479 566 567 568 49 514
          569 570 53 516 569 570
          53 516 571 572 57 518
          558 567 514 426 559 569
          516 430 559 569 516 430
          560 571 518 434 564 475
          143 573 565 477 147 574
          565 477 147 574 566 479
          151 575 561 15 732 735
          562 19 733 736 562 19
          733 736 563 23 734 737
          228 285 3 31 229 287
          7 33 229 287 7 33
          230 289 11 35 576 198
          201 313 577 202 205 315
          577 202 205 315 578 206
          209 317 356 331 319 1
          359 333 321 5 359 333
          321 5 362 335 323 9
          1 0 103 356 5 4
          106 359 5 4 106 359
          9 8 109 362 558 480
          402 564 559 481 404 565
          559 481 404 565 560 482
          406 566 699 235 717 738
          702 239 719 739 702 239
          719 739 705 243 721 740
          73 582 396 690 76 583
          398 692 76 583 398 692
          79 584 400 694 741 742
          585 586 743 744 587 588
          743 744 587 588 745 746
          589 590 72 210 343 591
          75 212 345 592 75 212
          345 592 78 214 347 593
          439 591 343 336 441 592
          345 337 441 592 345 337
          443 593 347 338 576 313
          312 291 577 315 314 293
          577 315 314 293 578 317
          316 295 469 169 312 304
          471 173 314 306 471 173
          314 306 473 177 316 308
          594 365 364 487 595 369
          368 489 595 369 368 489
          596 373 372 491 591 439
          396 582 592 441 398 583
          592 441 398 583 593 443
          400 584 564 573 567 558
          565 574 569 559 565 574
          569 559 566 575 571 560
          573 597 568 567 574 598
          570 569 574 598 570 569
          575 599 572 571 747 748
          199 198 749 750 203 202
          749 750 203 202 751 752
          207 206 420 483 423 37
          421 484 424 41 421 484
          424 41 422 485 425 45
          600 486 465 561 601 488
          466 562 601 488 466 562
          602 490 467 563 561 735
          741 600 562 736 743 601
          562 736 743 601 563 737
          745 602 37 36 248 420
          41 40 251 421 41 40
          251 421 45 44 254 422
          594 487 486 600 595 489
          488 601 595 489 488 601
          596 491 490 602 468 170
          169 469 470 174 173 471
          470 174 173 471 472 178
          177 473 264 492 519 265
          268 494 521 269 268 494
          521 269 272 496 523 273
          414 579 13 12 416 580
          17 16 416 580 17 16
          418 581 21 20 154 153
          366 365 156 155 370 369
          156 155 370 369 158 157
          374 373 339 231 701 603
          340 232 704 604 340 232
          704 604 341 233 707 605
          591 582 73 72 592 583
          76 75 592 583 76 75
          593 584 79 78 606 292
          339 603 607 294 340 604
          607 294 340 604 608 296
          341 605 547 609 610 546
          549 611 612 548 549 611
          612 548 551 613 614 550
          60 427 426 61 64 431
          430 65 64 431 430 65
          68 435 434 69 576 291
          292 606 577 293 294 607
          577 293 294 607 578 295
          296 608 615 616 555 134
          617 618 556 137 617 618
          556 137 619 620 557 140
          586 594 600 741 588 595
          601 743 588 595 601 743
          590 596 602 745 83 387
          297 255 87 388 299 257
          87 388 299 257 91 389
          301 259 144 143 475 474
          148 147 477 476 148 147
          477 476 152 151 479 478
          111 469 304 303 115 471
          306 305 115 471 306 305
          119 473 308 307 753 729
          199 748 754 730 203 750
          754 730 203 750 755 731
          207 752 505 62 61 513
          508 66 65 515 508 66
          65 515 511 70 69 517
          756 610 609 757 758 612
          611 759 758 612 611 759
          760 614 613 761 216 387
          83 82 218 388 87 86
          218 388 87 86 220 389
          91 90 285 621 186 187
          287 622 188 189 287 622
          188 189 289 623 190 191
          264 624 493 492 268 625
          495 494 268 625 495 494
          272 626 497 496 726 397
          627 762 727 399 628 763
          727 399 628 763 728 401
          629 764 630 631 181 180
          632 633 183 182 632 633
          183 182 634 635 185 184
          586 154 365 594 588 156
          369 595 588 156 369 595
          590 158 373 596 765 603
          701 766 767 604 704 768
          767 604 704 768 769 605
          707 770 636 637 186 638
          639 640 188 641 639 640
          188 641 642 643 190 644
          125 50 49 568 128 54
          53 570 128 54 53 570
          131 58 57 572 645 638
          186 646 647 641 188 648
          647 641 188 648 649 644
          190 650 534 646 186 621
          538 648 188 622 538 648
          188 622 542 650 190 623
          93 585 742 675 94 587
          744 678 94 587 744 678
          95 589 746 681 48 51
          134 525 52 55 137 527
          52 55 137 527 56 59
          140 529 627 771 772 762
          628 773 774 763 628 773
          774 763 629 775 776 764
          630 180 684 777 632 182
          686 778 632 182 686 778
          634 184 688 779 154 586
          585 84 156 588 587 88
          156 588 587 88 158 590
          589 92 651 286 181 631
          652 288 183 633 652 288
          183 633 653 290 185 635
          186 637 654 104 188 640
          655 107 188 640 655 107
          190 643 656 110 474 309
          113 144 476 310 117 148
          476 310 117 148 478 311
          121 152 63 267 266 60
          67 271 270 64 67 271
          270 64 71 275 274 68
          616 615 654 657 618 617
          655 658 618 617 655 658
          620 619 656 659 627 397
          396 660 628 399 398 661
          628 399 398 661 629 401
          400 662 579 414 415 458
          580 416 417 461 580 416
          417 461 581 418 419 464
          651 631 547 535 652 633
          549 539 652 633 549 539
          653 635 551 543 723 217
          81 780 724 219 85 781
          724 219 85 781 725 221
          89 782 663 446 445 192
          664 450 449 194 664 450
          449 194 665 454 453 196
          142 597 573 143 146 598
          574 147 146 598 574 147
          150 599 575 151 783 747
          198 576 784 749 202 577
          784 749 202 577 785 751
          206 578 48 513 514 49
          52 515 516 53 52 515
          516 53 56 517 518 57
          318 330 141 112 320 332
          145 116 320 332 145 116
          322 334 149 120 651 621
          285 286 652 622 287 288
          652 622 287 288 653 623
          289 290 60 266 428 427
          64 270 432 431 64 270
          432 431 68 274 436 435
          354 124 123 355 357 127
          126 358 357 127 126 358
          360 130 129 361 303 318
          112 111 305 320 116 115
          305 320 116 115 307 322
          120 119 630 777 757 609
          632 778 759 611 632 778
          759 611 634 779 761 613
          468 246 36 170 470 249
          40 174 470 249 40 174
          472 252 44 178 615 102
          104 654 617 105 107 655
          617 105 107 655 619 108
          110 656 786 783 576 606
          787 784 577 607 787 784
          577 607 788 785 578 608
          519 492 446 663 521 494
          450 664 521 494 450 664
          523 496 454 665 637 636
          657 654 640 639 658 655
          640 639 658 655 643 642
          659 656 663 192 193 552
          664 194 195 553 664 194
          195 553 665 196 197 554
          789 438 324 712 790 440
          325 714 790 440 325 714
          791 442 326 716 102 133
          354 103 105 136 357 106
          105 136 357 106 108 139
          360 109 646 534 537 645
          648 538 541 647 648 538
          541 647 650 542 545 649
          525 505 513 48 527 508
          515 52 527 508 515 52
          529 511 517 56 660 396
          439 438 661 398 441 440
          661 398 441 440 662 400
          443 442 765 786 606 603
          767 787 607 604 767 787
          607 604 769 788 608 605
          624 264 267 498 625 268
          271 500 625 268 271 500
          626 272 275 502 468 114
          247 246 470 118 250 249
          470 118 250 249 472 122
          253 252 535 534 621 651
          539 538 622 652 539 538
          622 652 543 542 623 653
          93 81 84 585 94 85
          88 587 94 85 88 587
          95 89 92 589 438 789
          792 660 440 790 793 661
          440 790 793 661 442 791
          794 662 124 132 51 50
          127 135 55 54 127 135
          55 54 130 138 59 58
          663 552 520 519 664 553
          522 521 664 553 522 521
          665 554 524 523 609 547
          631 630 611 549 633 632
          611 549 633 632 613 551
          635 634 125 142 141 123
          128 146 145 126 128 146
          145 126 131 150 149 129
          102 615 134 133 105 617
          137 136 105 617 137 136
          108 619 140 139 142 125
          568 597 146 128 570 598
          146 128 570 598 150 131
          572 599 124 354 133 132
          127 357 136 135 127 357
          136 135 130 360 139 138
          660 792 771 627 661 793
          773 628 661 793 773 628
          662 794 775 629 81 93
          677 780 85 94 680 781
          85 94 680 781 89 95
          683 782
        </DataArray>
        <DataArray type="Int64" Name="offsets" format="ascii" RangeMin="8" RangeMax="3632">
          8 16 24 32 40 48
          56 64 72 80 88 96
          104 112 120 128 136 144
          152 160 168 176 184 192
          200 208 216 224 232 240
          248 256 264 272 280 288
          296 304 312 320 328 336
          344 352 360 368 376 384
          392 400 408 416 424 432
          440 448 456 464 472 480
          488 496 504 512 520 528
          536 544 552 560 568 576
          584 592 600 608 616 624
          632 640 648 656 664 672
          680 688 696 704 712 720
          728 736 744 752 760 768
          776 784 792 800 808 816
          824 832 840 848 856 864
          872 880 888 896 904 912
          920 928 936 944 952 960
          968 976 984 992 1000 1008
          1016 1024 1032 1040 1048 1056
          1064 1072 1080 1088 1096 1104
          1112 1120 1128 1136 1144 1152
          1160 1168 1176 1184 1192 1200
          1208 1216 1224 1232 1240 1248
          1256 1264 1272 1280 1288 1296
          1304 1312 1320 1328 1336 1344
          1352 1360 1368 1376 1384 1392
          1400 1408 1416 1424 1432 1440
          1448 1456 1464 1472 1480 1488
          1496 1504 1512 1520 1528 1536
          1544 1552 1560 1568 1576 1584
          1592 1600 1608 1616 1624 1632
          1640 1648 1656 1664 1672 1680
          1688 1696 1704 1712 1720 1728
          1736 1744 1752 1760 1768 1776
          1784 1792 1800 1808 1816 1824
          1832 1840 1848 1856 1864 1872
          1880 1888 1896 1904 1912 1920
          1928 1936 1944 1952 1960 1968
          1976 1984 1992 2000 2008 2016
          2024 2032 2040 2048 2056 2064
          2072 2080 2088 2096 2104 2112
          2120 2128 2136 2144 2152 2160
          2168 2176 2184 2192 2200 2208
          2216 2224 2232 2240 2248 2256
          2264 2272 2280 2288 2296 2304
          2312 2320 2328 2336 2344 2352
          2360 2368 2376 2384 2392 2400
          2408 2416 2424 2432 2440 2448
          2456 2464 2472 2480 2488 2496
          2504 2512 2520 2528 2536 2544
          2552 2560 2568 2576 2584 2592
          2600 2608 2616 2624 2632 2640
          2648 2656 2664 2672 2680 2688
          2696 2704 2712 2720 2728 2736
          2744 2752 2760 2768 2776 2784
          2792 2800 2808 2816 2824 2832
          2840 2848 2856 2864 2872 2880
          2888 2896 2904 2912 2920 2928
          2936 2944 2952 2960 2968 2976
          2984 2992 3000 3008 3016 3024
          3032 3040 3048 3056 3064 3072
          3080 3088 3096 3104 3112 3120
          3128 3136 3144 3152 3160 3168
          3176 3184 3192 3200 3208 3216
          3224 3232 3240 3248 3256 3264
          3272 3280 3288 3296 3304 3312
          3320 3328 3336 3344 3352 3360
          3368 3376 3384 3392 3400 3408
          3416 3424 3432 3440 3448 3456
          3464 3472 3480 3488 3496 3504
          3512 3520 3528 3536 3544 3552
          3560 3568 3576 3584 3592 3600
          3608 3616 3624 3632
        </DataArray>
        <DataArray type="UInt8" Name="types" format="ascii" RangeMin="12" RangeMax="12">
          12 12 12 12 12 12
          12 12 12 12 12 12
          12 12 12 12 12 12
          12 12 12 12 12 12
          12 12 12 12 12 12
          12 12 12 12 12 12
          12 12 12 12 12 12
          12 12 12 12 12 12
          12 12 12 12 12 12
          12 12 12 12 12 12
          12 12 12 12 12 12
          12 12 12 12 12 12
          12 12 12 12 12 12
          12 12 12 12 12 12
          12 12 12 12 12 12
          12 12 12 12 12 12
          12 12 12 12 12 12
          12 12 12 12 12 12
          12 12 12 12 12 12
          12 12 12 12 12 12
          12 12 12 12 12 12
          12 12 12 12 12 12
          12 12 12 12 12 12
          12 12 12 12 12 12
          12 12 12 12 12 12
          12 12 12 12 12 12
          12 12 12 12 12 12
          12 12 12 12 12 12
          12 12 12 12 12 12
          12 12 12 12 12 12
          12 12 12 12 12 12
          12 12 12 12 12 12
          12 12 12 12 12 12
          12 12 12 12 12 12
          12 12 12 12 12 12
          12 12 12 12 12 12
          12 12 12 12 12 12
          12 12 12 12 12 12
          12 12 12 12 12 12
          12 12 12 12 12 12
          12 12 12 12 12 12
          12 12 12 12 12 12
          12 12 12 12 12 12
          12 12 12 12 12 12
          12 12 12 12 12 12
          12 12 12 12 12 12
          12 12 12 12 12 12
          12 12 12 12 12 12
          12 12 12 12 12 12
          12 12 12 12 12 12
          12 12 12 12 12 12
          12 12 12 12 12 12
          12 12 12 12 12 12
          12 12 12 12 12 12
          12 12 12 12 12 12
          12 12 12 12 12 12
          12 12 12 12 12 12
          12 12 12 12 12 12
          12 12 12 12 12 12
          12 12 12 12 12 12
          12 12 12 12 12 12
          12 12 12 12 12 12
          12 12 12 12 12 12
          12 12 12 12 12 12
          12 12 12 12 12 12
          12 12 12 12 12 12
          12 12 12 12 12 12
          12 12 12 12 12 12
          12 12 12 12 12 12
          12 12 12 12 12 12
          12 12 12 12 12 12
          12 12 12 12 12 12
          12 12 12 12 12 12
          12 12 12 12 12 12
          12 12 12 12 12 12
          12 12 12 12
        </DataArray>
      </Cells>
    </Piece>
  </UnstructuredGrid>
</VTKFile>
