<?xml version="1.0"?>
<VTKFile type="UnstructuredGrid" version="0.1" byte_order="LittleEndian" header_type="UInt32" compressor="vtkZLibDataCompressor">
  <UnstructuredGrid>
    <Piece NumberOfPoints="789" NumberOfCells="452">
      <PointData>
        <DataArray type="Int32" Name="libmesh_node_id" format="ascii" RangeMin="0" RangeMax="1901">
          0 1 2 3 4 5
          6 7 8 9 10 11
          12 13 14 15 16 17
          18 19 20 21 22 23
          24 25 26 27 28 29
          30 31 32 33 34 35
          36 37 38 39 40 41
          42 43 44 45 46 47
          48 49 50 51 52 53
          54 55 56 57 58 59
          60 61 62 63 64 65
          66 67 68 69 70 71
          72 73 74 75 76 77
          78 79 80 81 82 83
          84 85 86 87 88 89
          90 91 92 93 94 95
          96 97 98 99 100 101
          102 103 104 105 106 107
          108 109 110 111 112 113
          114 115 116 117 118 119
          180 181 182 183 184 185
          186 187 188 189 190 191
          192 193 194 195 196 197
          198 199 200 201 202 203
          204 205 206 207 208 209
          210 211 212 213 214 215
          216 217 218 219 220 221
          222 223 224 225 226 227
          228 229 230 231 232 233
          234 235 236 237 238 239
          270 271 272 273 274 275
          276 277 278 279 280 281
          282 283 284 285 286 287
          288 289 290 291 292 293
          294 295 296 297 298 299
          300 301 302 303 304 305
          306 307 308 309 310 311
          312 313 314 315 316 317
          318 319 320 321 322 323
          324 325 326 327 328 329
          360 361 362 363 364 365
          366 367 368 369 370 371
          372 373 374 375 376 377
          378 379 380 381 382 383
          384 385 386 387 388 389
          390 391 392 393 394 395
          396 397 398 399 400 401
          402 403 404 405 406 407
          408 409 410 411 412 413
          414 415 416 417 418 419
          450 451 452 453 454 455
          456 457 458 459 460 461
          462 463 464 465 466 467
          468 469 470 471 472 473
          474 475 476 477 478 479
          480 481 482 483 484 485
          486 487 488 489 490 491
          492 493 494 495 496 497
          498 499 500 501 502 503
          504 505 506 507 508 509
          540 541 542 543 544 545
          546 547 548 549 550 551
          552 553 554 555 556 557
          558 559 560 561 562 563
          564 565 566 567 568 569
          570 571 572 573 574 575
          576 577 578 579 580 581
          582 583 584 585 586 587
          588 589 590 591 592 593
          594 595 596 597 598 599
          630 631 632 633 634 635
          636 637 638 639 640 641
          642 643 644 645 646 647
          648 649 650 651 652 653
          654 655 656 657 658 659
          660 661 662 663 664 665
          666 667 668 669 670 671
          672 673 674 675 676 677
          678 679 680 681 682 683
          684 685 686 687 688 689
          720 721 722 723 724 725
          726 727 728 729 730 731
          732 733 734 735 736 737
          738 739 740 741 742 743
          744 745 746 747 748 749
          750 751 752 753 754 755
          756 757 758 759 760 761
          762 763 764 765 766 767
          768 769 770 771 772 773
          774 775 776 777 778 779
          810 811 812 813 814 815
          816 817 818 819 820 821
          822 823 824 825 826 827
          828 829 830 831 832 833
          834 835 836 837 838 839
          840 841 842 843 844 845
          846 847 848 849 850 851
          852 853 854 855 856 857
          858 859 860 861 862 863
          864 865 866 867 868 869
          870 871 872 873 874 875
          1272 1273 1274 1275 1276 1277
          1326 1327 1328 1353 1354 1355
          1380 1381 1382 1407 1408 1409
          1434 1435 1436 1677 1678 1679
          1704 1705 1706 1731 1732 1733
          1758 1759 1760 1785 1786 1787
          1788 1789 1790 1812 1813 1814
          1815 1816 1817 1839 1840 1841
          1842 1843 1844 1866 1867 1868
          1869 1870 1871 120 121 122
          123 124 125 240 241 242
          330 331 332 420 421 422
          510 511 512 600 601 602
          690 691 692 780 781 782
          783 784 785 876 786 877
          787 878 788 1278 1279 1280
          1281 1282 1283 1329 1330 1331
          1356 1357 1358 1383 1384 1385
          1410 1411 1412 1437 1438 1439
          1461 1462 1463 1464 1465 1466
          1488 1489 1490 1515 1516 1517
          1542 1543 1544 1569 1570 1571
          1596 1597 1598 1623 1624 1625
          1650 1651 1652 1680 1653 1681
          1654 1682 1655 1707 1708 1709
          1734 1735 1736 1761 1762 1763
          1791 1764 1792 1765 1793 1766
          1818 1819 1820 1845 1846 1847
          1872 1873 1874 1893 879 1894
          880 1895 881 1896 1897 1898
          1899 1900 1901
        </DataArray>
        <DataArray type="Float64" Name="resid_x" format="ascii" RangeMin="-16.782923456250252" RangeMax="0.7394212510861484">
          -4.014109781325141 -2.9440533744207187e-7 0.000001560605525696701 -8.086649335311956 -8.027872952186291 0.000004910742527286516
          -0.00000438680177339279 -16.156088436479504 -4.014388147608592 0.000027864950028266833 0.000021392373453998914 -8.0659102036988
          0.000008799401941317342 -8.204353234116388 -0.00005301389592293759 -16.2722521468687 -0.00007884691207493688 -8.048716422583457
          -0.00004120592347067742 -8.213729009971637 -0.000055135917857995764 -16.398131811469156 -0.00005757784577919978 -8.178929032764884
          -0.0038994872302984263 -8.087846424170383 -0.005841243170568333 -16.19363443350438 -0.0022137961097410397 -8.114114489489065
          -0.03951635571874501 -7.792305262872237 -0.06371261390084015 -15.654527089308132 -0.02608073324577065 -7.893351091942961
          -0.04688767895474388 -7.602759914087361 -0.08777161743665429 -15.28313186038665 -0.04180699495774087 -7.719189315385197
          -0.02267256191291178 -7.628603922707866 -0.048741537047361394 -15.30339537766924 -0.02732683369623512 -7.697564228385703
          -0.004620827747718881 -7.784063211189398 -0.012299747647457782 -15.58239519407303 -0.008454694528193585 -7.805090798118409
          0.0046919873468063145 -7.9472083004379765 0.0052531440721717 -15.88802147759678 -0.00027548609039396155 -7.938616529659083
          0.008447928801492033 -8.074745140776754 0.01576312109851674 -16.138072829635952 0.006948773935874009 -8.056882752021295
          0.006534706681543767 -8.191844270144326 0.013352711564851738 -16.37406488806584 0.006567630305373662 -8.17586465789255
          0.0024280999932662084 -8.347442832047244 0.0053910834227677285 -16.69088181507254 0.0030652981432259807 -8.339198771638529
          -0.00041120732054888975 -8.391005667084624 -0.00046681760387379256 -16.782923456250252 0.0004533605451646494 -8.389769300271073
          0.0006939890296351336 -8.35287848693115 -0.0023828843399682498 -16.704838950478216 0.0038688110977780354 -8.348225784452195
          0.00016247203357711015 -8.307930562123197 -0.0025816102444427003 -16.60940899283841 0.0010895950461922155 -8.298302496556484
          -0.00025602372533573003 -8.273039694906071 -0.0006994573254086589 -16.53396837519666 0.00033513671965579306 -8.25250502363465
          0.0001621775067599529 -8.260567606621743 0.0006917957339096503 -16.497176611412762 0.0013656113563165206 -8.215909809992608
          0.0019029166867357006 -8.237673097421116 -0.0005046397441921258 -16.446352866600826 0.0005416992049696034 -8.193231987492698
          0.0044751181361455394 -8.188867361738321 0.004437344942118671 -16.393548294342423 0.0030987224433260963 -8.243672873990686
          0.00011578320501737238 0.0002915020153952952 0.00013680005127536532 0.00041305773425381886 0.00002921028214331045 0.00008047668726973711
          0.00041641509288314893 0.0005916202191658115 0.00016487977613621752 0.0001981748891823898 0.000343521678075831 0.00015181019541277152
          -0.00789235883849937 -0.013256442484367525 -0.004842855620439401 -0.08232582452708037 -0.14015658070228287 -0.054643220266972214
          -0.10122966157955071 -0.17422453078097133 -0.07438520392389547 -0.05230811715404826 -0.10148963619871543 -0.050987999600362155
          -0.01207984437041043 -0.028806372030772742 -0.017762415315303315 0.008911730776054672 0.013659509870258102 0.004296025473560228
          0.017543660943991846 0.03222501934106958 0.014410524588073237 0.015066905530792596 0.02715425346254019 0.011924996566825108
          0.006288572372911361 0.011391592255439953 0.004095533639058679 0.00033315302183112294 0.0012919749531272728 0.0008059568251406191
          0.000923971789784872 0.0023994538479357175 0.0009031789742968144 -0.0013002600722984425 0.00047730888269637006 0.002002774497985804
          -0.00027964125641233295 -0.00009806162140790775 0.0013308858424760928 0.0017257386647209216 0.002596494252050441 0.0010556217552597502
          0.0017405850732776784 0.003602799325874706 0.0025277248723920565 -0.024620900715154548 -0.05512201305145403 -0.0317205731569663
          0.00003829724603843232 0.00003893845233360338 0.000008770567391458428 -0.000005600012889850348 0.00000893424289838407 0.000024933563697260297
          0.000014909284073993945 -0.000021208008878836893 0.000006376554718912075 -0.00000834779649760975 -0.00004778296567398144 -0.000014306682619036337
          -0.030696227249629615 -0.06117234634420754 -0.02973098863668877 -0.20308333777538756 -0.3966376083061558 -0.18409428382985382
          -0.15611949981080864 -0.2799656137494937 -0.11540667983591613 -0.09732326146104242 -0.1685574459052961 -0.07252153580214316
          -0.027490083901137385 -0.05482375079299162 -0.02860786042931185 0.009515554684977445 0.01344081575410394 0.0030035969812858276
          0.024086431524274587 0.04222420878168265 0.017142444654767885 0.020964140621692273 0.03469768639313653 0.012533139984632236
          0.009846966795128864 0.012111378968447717 0.0009456977036457204 0.0015356690498355974 0.0015372742280170826 0.0004864039473790882
          0.0004829774568833045 -0.0005941918204150909 0.0020934027073788997 -0.0020819014583519646 -0.0014102694080380118 0.005091788228003935
          -0.0013006244883140283 -0.0017949375303789594 0.0007269355136463318 0.0026930905416948647 0.0004537085654652273 -0.00009665662606739289
          0.002665830091246768 0.0035437066349608415 0.0013988470980645928 0.004314768737435415 -0.0017414011293030995 -0.006196458511110947
          0.00007234806384648351 0.0000625590994323133 0.00001007174522538179 -0.000016960836379809052 0.000034184814815763076 0.000044673370589443095
          -0.000036620667772879756 -0.00009188559984885103 -0.0000532467192719821 -0.000032400236719354325 -0.00007356137374348037 -0.00004430284799905593
          0.00002381118953387329 -0.000043659258489370245 -0.00002893517094459952 -0.13008197117934195 -0.266654424371934 -0.1388034786770831
          -0.31797051861661263 -0.6444984789275976 -0.32106938248702654 -0.1603534679106131 -0.29738279661415934 -0.1288152099749249
          -0.05163226592043868 -0.09484850208475493 -0.04279890615246362 0.009233537359478294 0.007590627979322306 -0.000633817853652463
          0.027499278413825046 0.04337996682081968 0.014737475220544027 0.022811247669323187 0.0328613747798121 0.007747204341487901
          0.008555946996612995 0.004701855142192457 -0.004389378949973377 0.0007846177820427513 0.0008946241884419948 0.0001052753997159428
          0.0000043272844800767984 0.0006168007089506489 0.0009440566884384438 -0.0007538509652187386 -0.0006127063316210268 0.002756515985756103
          -0.0013664870664316098 -0.001802131137826457 -0.00003181348031588982 0.0018539131306125611 0.00043675530139353214 -0.0013411282705080296
          0.003085321287577436 0.001107361660124262 -0.0018537304597794346 0.005806052206009049 -0.005973187071676378 -0.004681871439826679
          0.0001014972931971947 0.00007963850441061737 0.000009122687685270137 -0.00002797226772699446 0.00007083166831156618 0.00007450507166240072
          -0.00006131622991922825 -0.00012066685836309432 -0.00006858465993175855 -0.000024127873666124344 -0.00006769651433913282 -0.00005238079870117929
          0.00004193961738963026 -0.00004454881963145141 -0.000001529576798553478 0.00006335544595081899 -0.00002371315761529047 -0.00003513079647365913
          -0.08123795469706518 -0.16905241130299764 -0.09030171408043763 -0.29699210605046744 -0.6070268626004776 -0.306756047791203
          -0.10165792812652974 -0.18820772703170263 -0.08475150338913817 -0.009681323884294102 -0.015361845584516587 -0.00883730000350269
          0.01965184892273708 0.029268520206458426 0.006577929540163119 0.014700119749042173 0.013609297498494044 -0.004372403284120807
          -0.001103887578978835 -0.011069185086545197 -0.01024232231842781 -0.0011357162097542783 -0.00001989474850194739 0.0008693699001316446
          -0.0010565002961282488 0.00215988557567659 0.0007900855838602894 0.00003465772716282345 0.0019557473782461088 -0.0002537154269086628
          -0.0005714689751821211 -0.0009125978209398866 -0.00033941829126860057 0.0005959412460407876 0.00011220208264894893 -0.00047148385716866414
          0.0006443926910160158 -0.0007286815059703855 -0.0010562516625913787 0.002833157452956314 -0.006412424585397147 0.0018660395177647615
          0.00012885315326416347 0.00009630433401497385 0.000009562811733143661 -0.000040180201447803654 0.0001040037487261003 0.00009290056520683265
          -0.00006551682662969682 -0.00012811491215103388 -0.00008867096428222254 -0.0000022210821928325686 -0.000052169089053144546 -0.00005386864818390791
          0.00006695640794429636 -0.000037029530226107 0.00001159255246374613 0.00007957784877188345 -0.000038271494541497475 0.000023312871944902724
          0.00007609277305675732 -0.000037474622750721664 -0.00002635718429999656 -0.06090563669252802 -0.12390572527537369 -0.06459116588264813
          -0.10439257958149106 -0.1992268082880173 -0.09068081098153424 -0.032955170242157994 -0.06005466377759161 -0.026918434448079953
          0.001036156483129158 -0.002292757413850932 -0.006028597077455622 -0.010244448802011696 -0.02936662822008973 -0.023016562336096058
          -0.01731359055699233 -0.03320118538797612 -0.020453537433523294 -0.0016530305247552946 0.0004750637217769693 0.001648237826495702
          -0.0011051289470360715 0.0015564266233552004 -0.000025969158960137406 0.0005071269549050683 0.002142136691380081 -0.0006575854335588716
          0.000013388158086158342 -0.00033973296686529153 -0.0006506604636342672 -0.000424977959096573 -0.0011892899986643002 0.0006040868306476099
          0.02023385925326826 0.035177237480720436 0.005928915793489864 0.11060083758679795 0.34455867000508533 0.17088836756629355
          0.00015888822801768399 0.00011921413772686407 0.00002003242673920269 -0.000044633546437466975 0.00012451325489903908 0.00008641912410922714
          -0.00004290852171884296 -0.00012909135126104587 -0.00011480829386556479 0.00004015856529271389 -0.00001340134594407516 -0.00003689413557417254
          0.00010644842000750998 -0.00003271316889730258 0.00001685862431966001 0.00008411089382143189 -0.000043584985854216995 0.0000495267073876704
          0.00008546781410956328 -0.00002731224603635951 0.0000458506750673493 -0.027866636123933475 -0.05810832356770135 -0.030557217324850505
          -0.16539487618285964 -0.3382777084061326 -0.17152595989801434 -0.06268040747375414 -0.10912388037298015 -0.045718726021670264
          -0.0382999068201344 -0.060966704289835416 -0.02526365992375723 -0.05698995008635599 -0.09828223070792852 -0.04557308349342115
          -0.038309038497223113 -0.06666849489166982 -0.030894235155563443 -0.00022126830821012078 0.0013856415600370653 0.0023882566010291484
          -0.0005907973165184544 -0.0010676769204271963 -0.0005332309903112176 0.00030490171890651396 0.0006578774836203394 0.0002545404370177806
          0.000064279947881829 -0.00034576890547555195 -0.0023195340211312754 0.00007553205496879656 -0.00012415152875266955 -0.002538676156804698
          -0.02956466053234852 -0.0462048117156888 -0.010640368921632337 -0.11010592958796295 -0.2879544694042 -0.12291258871505129
          0.00020002348640346668 0.00013813692871167405 0.00008692029791745881 -0.000007939999331796344 0.00018222689017255433 0.00009817749808682663
          -0.00004781136816767173 -0.0001332979247505861 -0.00011801225420260408 0.00006644669312727558 0.00003530668336804155 0.000057935949286935795
          0.00010705070109739978 -0.0000687108295638339 0.00003538314263185072 0.00010741736314212602 -0.0000072822920058612794 0.0000789540754233542
          0.00008158308530514802 -0.000008526804426089996 0.0000715874505594627 0.00006686412884793214 -0.000043360829217853336 0.00003244146026393224
          -0.02994630283150368 -0.0598584363208543 -0.027753812922075127 -0.0757066610121786 -0.1502355671884521 -0.06666278305335283
          -0.08341677594622077 -0.16426781441309224 -0.0722853693972656 -0.10106475611739807 -0.19773748660805524 -0.08693302317050566
          -0.038908357498980806 -0.0664401199274165 -0.018086843520727314 -0.0010856440689428482 -0.0003519761024106671 0.005482866522419805
          -0.0006940873424827743 -0.0035336355172441714 0.001560504998539436 0.0000491736908072582 -0.0003289941200188551 -0.0007149695161769998
          0.00024625645746390035 -0.0011371328954403737 -0.004115733232205265 0.0009720607320220509 0.0006259907084338323 -0.005212128882967626
          -0.00457960906918764 -0.0045342644611965355 -0.007751426492971447 0.20338522020109906 0.368800810800439 0.12760815485639387
          0.01060786818300885 0.05691498777787718 0.03039050207637528 0.1241172301560276 0.013075751185119167 0.06558889720516703
          0.026043057995678964 0.05409359792226631 0.0293586057217734 0.0001175907799080278 -0.000015775075041801756 0.0004211117168981815
          0.00023080611228909476 0.00008103326428265945 0.0004964539432643633 0.00025945794221371443 0.00007962370629943649 0.0003847300161030631
          -0.00011684217056995294 -0.0004406130692045096 0.000040471388750518145 0.00013441662938351584 -0.00012653941857454498 0.000047597723739301045
          -0.03724755892292908 -0.08206964040233355 -0.049988734370523424 -0.17355174304892795 -0.3626117556817601 -0.1958156780959781
          -0.263546013546085 -0.530477135540349 -0.2702108185017167 -0.14800045308930798 -0.27973511125441597 -0.13145796264556608
          -0.007583976395904024 -0.0172029977585888 -0.012236576522092868 0.004201661272547064 0.008483750824523462 -0.0027136149085329464
          0.000595089917024616 0.002062298635800097 -0.0038576580646605407 -0.000029575114845137307 0.0009646910039284862 -0.004483490921938227
          0.0004409933858249282 -0.0000995781824508768 -0.0049160723338514956 -0.0007825771597453901 0.0007208533006597406 -0.006544312586290069
          -0.0004390951718988845 0.0009633961174602135 -0.010792801618269898 -0.27820568569598425 -0.5297354857528793 -0.1890066360255931
          -0.4597104492440529 -0.8810025713985352 -0.4398293729324605 -0.07375347232709029 -0.1599803147837342 -0.12812372021023943
          -0.053005613061911205 -0.010156236589790701 -0.11563370038383702 -0.0266281217136628 -0.058752095084707356 -0.011653414892947467
          -0.022522795024490172 -0.0395160491626374 -0.012292071583013708 0.0005641000130172102 -0.0003073875073651422 0.0004249094854253954
          0.00013448186095921244 -0.00030933450094661197 0.00023852830845427775 0.00016845934145859331 -0.00018403258994315053 0.00014425831694175884
          0.0002489141111006177 -0.000007364034593670965 0.0002602672170191056 -0.0024846020938995572 -0.005314623642269201 -0.009248045136475369
          -0.0011001336460516598 -0.00017846527112164168 -0.007345100694279516 -0.0035929133025502935 -0.005137482936052429 -0.0112863881057228
          -0.001661344726187508 -0.0014245878578034166 -0.012899003507495621 -0.012546382260873123 -0.02798985186576397 -0.018963651255993863
          0.007546305988173074 0.0050052116680547876 -0.02792752764346318 0.030631224546771918 -0.0033340479699952574 -0.003965128510998284
          0.021873727137020182 0.003171320434843139 -0.06115629107614318 -0.01842989734909839 -0.04259113385763458 -0.023351234305820423
          -0.0035165851051375263 -0.019322934683272397 -0.025279299641550068 0.012624223474096308 0.022836163228295625 0.003977915600618331
          0.001674280914200743 0.0018726499586230183 -0.0012555997591685575 0.030529582392990307 -8.192303317626754 0.04773582538959875
          -16.48733641496635 0.019851297279968705 -8.413715608759908 -0.033971682385054436 -0.07772554299884948 -0.05283405200093494
          -0.08531281152618764 -0.1855249137733832 -0.10672172889884557 -0.01905868446147796 -0.04422976261387479 -0.019008687901203913
          0.005590600693693659 -0.005398160800368146 -0.005778209322622629 0.01795118407946905 0.09159111396543373 0.19089463314577415
          0.006846487156307646 0.11099493664348259 0.027515597359546007 0.4672206789098299 0.7394212510861484 0.3421005489201967
          0.0923258458878049 0.17039543369754284 0.06324730644006671 -0.003681074062917844 -0.0034815463111552702 -0.009552373463817432
          -0.009325304277133739 -0.02659760250555321 -0.02177803608088702 0.20792681538224045 0.11134435753676408 0.34022067998806804
          0.071470301776837 0.08591839282666403 -0.1826986350590607 0.12690259328152464 0.24810937661464294 0.11729073228628195
          0.05058138581150473 0.10236315802063345 0.052532982315833365 0.0013787996007827985 0.0026764484195602734 0.0015442969874754908
          0.0012373265757528173 0.0075671309556568644 0.006155353936094343 0.016190844072616173 0.045498467718285696 0.027768912437480253
          0.0023783155970704684 0.011201966194080981 0.008046911507703314 0.003943410991565699 -0.0005513525317049073 -0.004358234595707167
          -0.05666267880690157 -0.11491172995182808 -0.05989389296491687 -0.13526603043395014 -0.2634489866474752 -0.12888971285613238
          -0.053316578471225284 -0.09583424409554553 -0.04223395318016898 -0.00002919150478675192 -0.00041769009751035924 -0.001955244566705261
          0.005669310312816478 0.0010346249105204208 -0.005358411855796774 0.004530628924998226 -0.0019834843568418137 -0.008886629189493789
          0.0036521278062418006 0.0013512887275020091 -0.007333707695836189 0.00041787908684653985 0.0019132107456689695 0.00009888508493816062
          0.002493028771375805 -0.011384571614346584 -0.009518476066427084 0.00006318762227230934 -0.001384831903028072 -0.012661056753989541
          -0.0021247875007794903 -0.005758292640329898 -0.014706021379774725 -0.00033629210734886783 -0.0015533705565893285 -0.012289360330688837
          -0.0020950258923182474 -0.0014727945880315119 -0.007195495355741599 -0.0017506789756698282 -0.008870612807022837 -0.010642132569627982
          -0.000349467934302794 -0.010251981772444907 -0.008559345782757077 -0.004280536561275028 -0.00919122115373483 -0.004955963147445175
          -0.0045130838588605116 -0.009518684188105198 -0.00033598369914322745 0.005523795856764657 0.004890322982523898 0.011932594334612912
          0.004340448485638859 0.007487937116976262 -0.006905973377681285 -0.0010497668527773563 0.001739182315986465 0.0031136040541150933
          -0.004386268441894714 -0.010907315916663052 0.002936273192972294
        </DataArray>
        <DataArray type="Float64" Name="resid_y" format="ascii" RangeMin="-0.2673936867060147" RangeMax="0.24729717008483043">
          -0.0014194703589443317 -0.0015933900490456496 -0.000016876710598489643 -0.000030331203359105358 -0.00511274821941821 -0.006500837289047688
          -0.00003506251875584794 -0.0001833529548141543 -0.005725811925122435 -0.0007499509771426447 -0.000012387771457778723 -0.00018532833778164316
          -0.00004433699469002031 -0.00016736677980610896 -0.00004144811778490328 -0.0005160194114744322 -0.00003458596709834602 -0.0003862471583763981
          -0.000044096197276296406 -0.000322832337444498 -0.000024266460053157246 -0.0009018321838252276 -0.000056443090895021315 -0.0006114354906239412
          -0.024584809978929093 -0.013278679009548076 -0.0467448912190897 -0.02543666194613811 -0.021528031687579018 -0.011859267880164018
          -0.052578400558875374 -0.027856808349910733 -0.10106278685367719 -0.054030641349901876 -0.04805740328277475 -0.02602975642393859
          -0.016570221037668215 -0.008523310265496197 -0.033300579593368386 -0.018303169944822183 -0.017300541295782377 -0.010031159190787564
          0.007144924556377677 0.003514122679122579 0.011578039754520063 0.004770326575145263 0.003448879181851855 0.0007774221046490531
          0.01722542250190928 0.00806240973964504 0.0323785128667956 0.01437398179426145 0.014329846796039693 0.005932084169375802
          0.015540012854778532 0.007054968686890938 0.030109252862983462 0.01244292416686419 0.013898159515884967 0.005007937795934107
          0.013228349477566088 0.005736662751755217 0.026464417656058142 0.010855797064619407 0.012818819218126339 0.005007307268535266
          0.018367801789159015 0.008192112962121186 0.03719651397014489 0.015637975839330624 0.018448140490833032 0.007256724078455245
          0.021815887920531997 0.009809513505947746 0.045123749877409 0.01956595229893167 0.02299804548060633 0.009591133715931439
          -0.000290259055227296 -0.001063997636033427 -0.000241775595803944 -0.0031858520781175544 -0.0007600798595314394 -0.0016706199568863964
          -0.00008641446275511541 -0.0010699445488483138 -0.0003803763463378221 -0.003339604601452482 -0.0003120936088945401 -0.002051401668338838
          0.00005150430153344314 -0.0013784101594143915 0.0010377276563879826 -0.002730780412468048 0.0010468519847732644 -0.0023250289835647017
          0.00026212191295158643 -0.0016279837690578829 0.000843342727884451 -0.0036296286247221726 -0.00003695165276104695 -0.002390675262216521
          -0.0003890816625362406 -0.0012931664412325489 -0.00027642183632804393 -0.003789838341367459 -0.0006443581242486091 -0.0025143109529319266
          0.0005714318990773237 -0.0007863960838301945 0.004015786016156375 -0.0013500073088593134 0.003436816796168189 -0.0008516490461815684
          -0.016774292419332537 -0.010873840301383608 -0.03410082258674304 -0.021500929115983856 -0.01298926218914493 -0.008008493047605543
          -0.0016060064867780884 -0.00019902530070763612 -0.005944254503977842 -0.0002935463415666816 -0.0004540368610968827 -0.0001570613241314283
          -0.0004401462156976638 -0.0006694576629340202 -0.00039663302512533277 -0.000663109966972341 -0.0010170266175531352 -0.0006140820371245545
          -0.021885221134766698 -0.04247142472021747 -0.020267129160944006 -0.046670696567977746 -0.09062635422215759 -0.043608318678146324
          -0.020052588892150704 -0.03783949230349264 -0.01853811464016895 0.0008393063305863688 0.0010303792484639938 -0.001212238960803462
          0.013095163376612599 0.024582866477797644 0.0101796712394727 0.012427267912152273 0.024379672398968013 0.010858675043103738
          0.011280120872341332 0.022944979955495902 0.01072744969891165 0.01706392935964924 0.03519247453858076 0.017378713581460835
          0.020809955600267622 0.043230970808328745 0.021726232312527627 -0.003076968994706778 -0.004087332448464251 -0.0020477768705352353
          -0.0017564047238566027 -0.0020080874718536763 -0.0015084072984675387 -0.0011437751463818308 -0.0022371885685130437 -0.0016937563862478985
          -0.0016105064031581903 -0.003280157770965835 -0.0024703797928691297 -0.0030198091354434915 -0.00485705617462125 -0.003723953190091795
          -0.003906900745502068 -0.003376795954954312 0.00024331208855575548 -0.011879831074507283 -0.019935614523195002 -0.009242597965150447
          -0.002981150881133916 -0.00006520346977691854 -0.008603771395092953 -0.00003298861810948836 -0.009072406666047762 -0.0001061433091153266
          -0.00015586822646144333 -0.00006244797343711247 -0.00015969778434500159 -0.00020493476898866304 -0.000050207268406087316 -0.00017655195678682126
          -0.009321380137792303 -0.018126926620468983 -0.00898116498857739 -0.03889913658970999 -0.07781197921557935 -0.03924465247562177
          -0.02290445845788163 -0.04328467789086548 -0.020514917314975588 -0.005669407754693347 -0.009108643235404452 -0.004748787465413455
          0.009202989164331713 0.017911473416481218 0.007037969637717412 0.011469614362915805 0.022370955208354523 0.009542439370486377
          0.012210740188348588 0.024897439607357855 0.011483701376845068 0.019523686300461467 0.04016407100873493 0.01959625473056568
          0.023606352669876065 0.048418767466675616 0.023721246211246175 -0.001582078912192704 -0.001228447633335926 -0.00028230332683100434
          -0.0005244838992817212 0.0006012556918224415 0.00006841573175444399 0.00001527619770172635 0.001476472432005313 0.00004209995535287003
          -0.0006489008648310948 0.0005413477563171782 -0.00010502885902519696 -0.0006342324909727887 -0.000756130331791418 -0.0020153874716360527
          -0.0018569429856938602 -0.0039023704807514756 -0.003045829890959518 -0.004395743275802541 -0.012193384535716133 -0.006559736115514818
          -0.0035372365847434646 -0.00006629417673110691 -0.008799777151757834 -0.00004674285060607408 -0.0082487818740642 -0.00013442185608700252
          -0.0001542854367936105 -0.00007316359108882741 -0.0001886734392008895 -0.0001891299114498415 -0.0000512080770656018 -0.00019699358991810603
          -0.00021372175650691272 -0.00003206005025807243 -0.0002501460898288489 -0.01741396518739378 -0.035083770520139314 -0.018390512035766637
          -0.028409094034545345 -0.056884268834693115 -0.028977463367516686 -0.01879627038985823 -0.03440173480763653 -0.016066297518334247
          0.0008649043111236265 0.004035673311724386 0.0016888183793805772 0.007369106891399385 0.015114128022321097 0.006187713224540026
          0.011700227526826108 0.023791023334628843 0.011025233746823397 0.020806757133853528 0.0429691673969872 0.021034943765810776
          0.025452933324891742 0.051314423825509534 0.024343894718649235 0.0001241865519587479 0.0012969304901906537 -0.000907499263562303
          -0.0007500350226118668 -0.00038667101559716754 -0.0017439841129815656 -0.0003541025616829452 0.0000409292296430358 0.00017275613840621318
          -0.0005017747933699791 0.0007553608366777861 0.00006888492150484288 -0.0016474696294994443 -0.0009852313352600366 -0.0012471309168023414
          -0.0027703654919194604 -0.004299410659929958 -0.004784027120665814 -0.004407077260269399 -0.006910306641259446 -0.005626885236062612
          -0.00514487893518472 -0.00007909404063229791 -0.012026842572959426 -0.0000646154129644097 -0.011045810928475865 -0.0001527735721769674
          -0.0001656387113364308 -0.00007199315158327481 -0.0002030704114827182 -0.0002003522122729813 -0.00005492047766653477 -0.00021960601291520256
          -0.00021206596993701352 -0.000022938512477914397 -0.0002653914908919072 -0.00030004521452662095 -0.00003532916717311277 -0.00034573150295774853
          -0.012338582437798914 -0.024801093008985448 -0.013331440885258936 -0.03489835485463005 -0.06913979552748634 -0.035148037061508784
          -0.014248303574394335 -0.02516010363593554 -0.011535440812098341 0.002197628299188299 0.006658784582549142 0.002989869065716584
          0.010711272449009546 0.022177536077882202 0.01056677010783489 0.022544587205446567 0.046739152688260205 0.02303354792122899
          0.0270790902671064 0.0528455804601048 0.02352250746116461 0.00003982373329048522 0.0005668767079301112 -0.000906522306963406
          -0.0008611605664981536 0.00046454305005246693 -0.0009283963144377655 -0.0006180827670908134 -0.00016700616948650548 -0.0006579922474443875
          0.00025030556511083154 0.0012294517253661624 -0.0001287658092697444 -0.0010115370052752662 0.001205986548582826 0.00009149444505542059
          -0.0031745438612687527 -0.0011648691750465248 -0.0014294218013928273 -0.0038377651080734876 0.004383468744207378 0.0047305556978835955
          -0.00782435534670933 -0.00010276725189747177 -0.018752255474654228 -0.00008542608558607945 -0.01800707809406259 -0.00015936095762792563
          -0.0001969008121139725 -0.00007601958698185297 -0.00020861654845244655 -0.00023445906444455322 -0.000039877562950405704 -0.00024183158463239596
          -0.00024680552559595836 -0.00003360137860774701 -0.00029126025047441356 -0.0003139350696235478 -0.0000409622609976977 -0.00036039421451204007
          -0.0004144150334246975 -0.00007700578914581098 -0.000437602100057455 -0.022328454876509297 -0.04489088961827367 -0.023619491664284245
          -0.03411295646972339 -0.06617858154846133 -0.032657800508069566 -0.0044901417036271145 -0.0051248445231009895 -0.0014337052471816297
          0.009205206994047015 0.020493739939425017 0.010382081449909146 0.0247874769011994 0.05148716067990617 0.02551074519507144
          0.027046338744426926 0.05015616809828964 0.020063588259495585 -0.0005695661321124673 -0.0005688137780129471 -0.0006326129973285022
          -0.00016243815200572137 0.0018295965955743426 -0.0004446732805229586 -0.0014763682106212067 -0.001296433883553244 -0.0015305437532456834
          -0.0010721537929538518 -0.0002969123751202646 -0.000610886886226028 0.00022990251208040297 0.0030219855642620377 0.0008608551102283618
          -0.009658309136777732 -0.014720752589313022 -0.006189762555820474 0.0055662309874065785 -0.0188182686264141 -0.031949441515371824
          -0.011606909558845899 -0.0001370329736120196 -0.030099666414343314 -0.00010458242039220605 -0.031892455676911784 -0.00013774958716022967
          -0.00024524280505171595 -0.00006849748191548304 -0.00016708315872070514 -0.00027785241142988873 -0.000029568221842721926 -0.00024661847839369325
          -0.0002996329558402483 -0.000038423936792257585 -0.0003111108000502412 -0.00033330464693228506 -0.00005387764177590404 -0.000382030339603618
          -0.0004180039498709615 -0.00008708918101584667 -0.000438329643927508 -0.00851753845886502 -0.016772445985512172 -0.009283403791421917
          -0.03643581685039575 -0.0722931468549255 -0.03688412797761581 -0.01314425070302367 -0.022589645305636993 -0.009518150105653496
          0.008821021083419367 0.020545667713547613 0.011106339998273401 0.027386132265072423 0.05659185650359631 0.02808555095132828
          0.021590354582014186 0.03945959746908571 0.013957718845206683 -0.00041689652432331387 -0.00004212124485361568 -0.00017023067029164896
          -0.0003921760592604587 0.0010542166372014966 -0.00023214866566446946 -0.0009315661664070357 -0.0004366463023150885 -0.0014845485258909025
          -0.0023535932566512985 -0.002234420504778664 -0.0014014048706151583 -0.0033195790730694563 -0.0028352824044962643 -0.002208105823106446
          -0.009805063854601899 -0.011219094741501371 -0.004470076792310762 -0.014394985495191304 -0.02094191935576495 -0.01856345725232187
          -0.020286307619573354 -0.00014718954695333575 -0.049201306804005765 -0.00011775302085816758 -0.06666393673994524 -0.00007453616708141125
          -0.00022025716054972083 -0.00003282873573398626 -0.000060559818564769746 -0.0002456343405808567 -0.000020734357218263333 -0.0002398349807008933
          -0.00030615366144192205 -0.000020003788941645728 -0.00033049349542485854 -0.00034880286428855267 -0.00007559533403472818 -0.00041366571548781886
          -0.0004223316781905087 -0.0000973992731145134 -0.00045768313741863936 -0.000477979957334641 -0.00010130435749692234 -0.0005061788729658298
          -0.03439047608501549 -0.06933645990638647 -0.03656829633779619 -0.016533286158914216 -0.030379761039639103 -0.013882869260286583
          0.009502208046609298 0.02182139446294397 0.011764377494306158 0.02845107271619872 0.05748012810845182 0.02791971752356668
          0.011833956548211066 0.02219491784823546 0.007221468194961778 -0.00034517406044914933 0.0012111327873253058 0.00029382265106304983
          -0.0024232608894051294 -0.0026510967560708087 -0.001193534114609554 -0.001485419577582761 -0.0013411568450406586 -0.0011970072695951794
          -0.0014724732115670505 -0.00149975016389374 -0.0017252183517561248 -0.0029216380131580275 -0.0021461589017354177 -0.001296812963659258
          -0.0009662679985794325 -0.0024485364002340693 -0.003918373486976136 -0.02330773570110116 -0.08789364074622875 -0.047567648438677015
          0.08237051517293337 0.0024046220495749643 0.16031724160799152 0.007827220522693197 0.045421485010706336 0.00362391959685205
          0.012692864271241406 0.026081669800311767 0.013411690343112785 -0.0006470745818027875 -0.000059441077021121606 -0.0005944918636287475
          -0.0006210761299577216 -0.00026252099566138366 -0.0008787401623623764 -0.0006417215955443634 -0.00024145639804888305 -0.0010492386333993131
          -0.0011462103110983536 -0.0010252178924596463 -0.001427618688113079 -0.0009137376109321846 -0.0005378142137973385 -0.0010708287211390055
          -0.05335212274268217 -0.10499902473656596 -0.05325674170669363 -0.003145647915421018 -0.0014882228693309102 0.0003336899518820158
          0.0344053682013922 0.06957562903977077 0.03309757585791573 0.01283396015504698 0.024714524684680814 0.008889408166811302
          -0.0008135152138496471 0.0007028169863828315 0.0001254047238642697 -0.0010998020749311 0.0011500160539622273 -0.0009350850818417578
          0.0011288748204431043 0.0029380717292807335 -0.0016755493540988597 -0.003021094729213303 -0.00313787048045866 -0.0030640163919029018
          -0.003245798591295368 -0.002818973279887116 -0.003963618824305848 -0.0031202255292698267 -0.0034235777474512785 -0.004351601887742418
          -0.000366913145969483 0.0017313161447962688 -0.002247861954781216 -0.025346791661790657 -0.04040742288738497 -0.005235805829044815
          0.02196121215110436 0.06478065140960487 0.04704908790955209 0.031037319463850466 0.06443418877729623 0.023990406797429586
          -0.007357424293068071 -0.10367956075759549 -0.015253093745521057 -0.13400700478554972 -0.012528416912111595 0.24729717008483043
          0.009352699627465683 0.024904977539502132 0.017106882621389652 -0.001262272109238273 -0.000725902881440102 -0.0008822714338590915
          -0.0012709616397053938 -0.0010205178292362407 -0.0013000463047322108 -0.0010304890027204652 -0.0012077782980991734 -0.0014969582664598677
          -0.00255809949130709 -0.003949643378938269 -0.0023566194673819776 -0.00852904981549063 -0.014145116520304701 -0.008221178602041856
          -0.007453857982003487 -0.010274483814008306 -0.0073119515200189555 -0.007476778344898238 -0.011335804300336427 -0.008685227801965123
          0.0017234898764849627 0.008822872440388263 -0.00005516239027736347 0.006933033818034451 0.028699237200746075 0.03923185235325077
          -0.014877050342121723 -0.020191525854267978 -0.0008722969342473963 0.01556220501943717 0.02351859369336684 0.01977254102319459
          -0.0077968683484973544 -0.014969130439952516 -0.005746977088405547 -0.028540105755757605 -0.0457351998694937 -0.07514192612213988
          0.003463626098644923 0.009277564790822979 -0.006616219810982871 0.00030126979099498463 -0.003974106991951776 -0.013067165863504038
          -0.006598649051030775 -0.011635364802192391 -0.007444108101725161 0.004143743912489353 0.001895509078390853 0.00551377522869298
          0.0016704481025075213 -0.0005966576200989969 -0.0007010462643760752 -0.00932833413387145 -0.019690877921971717 -0.015167888139115043
          -0.024601953324503142 -0.045739030174895765 -0.02461943130024548 -0.01201673086879898 -0.013705926422554818 -0.0009454120366540475
          -0.001748235580686902 0.0005512989183391603 0.0020989288970699183 0.011722352272186182 0.03920295353711306 0.01433356685826015
          0.0013865981601439703 0.025941507251633023 0.026057202398129864 -0.05538392200620801 -0.0796466274139791 -0.02220761592283066
          -0.027357572766667726 -0.06246118064999928 -0.024112459405065567 0.0035920444801565976 -0.012289857559110051 0.003991119810750288
          -0.028738773268326634 -0.00397336088741429 -0.022466326037939854 0.01682367440713539 -0.1886526617277957 0.009268800738982952
          -0.2673936867060147 -0.04598705296488348 0.18565569395331827 0.012441178481734518 0.022945063040494984 0.011408235165574057
          0.021729540956402005 0.04607574697282005 0.0230561902410793 -0.00037684331791183745 -0.0010455353056831734 -0.0011571566858543936
          -0.0008688353877770866 -0.003165173865134624 -0.0035093278131730424 -0.006719781898929057 -0.007843652738317691 -0.0024972700931515934
          -0.005458395894226038 -0.010773562468436047 -0.005336653495264375 0.00471269359735061 0.005681166079727996 -0.001350991580317172
          -0.029398807534469065 -0.057981459991454105 -0.030413690870711288 0.011782591307120525 0.027947516416204896 0.014048787891262765
          0.02091359669761498 0.0410817259972637 0.017102313536870334 -0.000917145439937192 -0.0003813647612248422 -0.0030647613418776642
          -0.00018975383217571806 0.00288450501726438 0.0011214196484205102 -0.0026300909784573306 -0.0015415039077210368 -0.0030267547806958547
          -0.007270953544338932 -0.01356148515977429 -0.00946569023138577 -0.0037944958951176 -0.00409048932447631 -0.003406519266246355
          -0.004400176606326883 -0.0036849679268901037 -0.004375762723736437 -0.004159758870583508 -0.004821684193971554 -0.004349058342109524
          -0.002328834454800144 -0.0020012544748208017 -0.003327671534376242 -0.0038451215787784765 -0.0030109576134460525 -0.002090837423889047
          -0.004019923207055964 -0.004790316481443874 -0.004539338786380354 -0.0055199553981559735 -0.0017898134265237897 -0.004223101281496805
          0.0016783853713444596 0.0008199539576347892 -0.0019819876007874937 0.00196382525238209 0.004435771457086846 -0.0010560804198387341
          -0.010702090046758483 -0.019400175474533987 -0.010324998578159938 -0.007693513051988399 -0.0007559783798722908 -0.014639149541703533
          -0.002571248757180733 -0.006906364287381228 -0.003788607811542999 0.0007952020820647665 -0.0002792731213427102 0.000014727300664402199
          0.005162676899029717 0.008774809119116989 0.00481451398013788
        </DataArray>
        <DataArray type="Float64" Name="resid_z" format="ascii" RangeMin="0" RangeMax="0">
          0 0 0 0 0 0
          0 0 0 0 0 0
          0 0 0 0 0 0
          0 0 0 0 0 0
          0 0 0 0 0 0
          0 0 0 0 0 0
          0 0 0 0 0 0
          0 0 0 0 0 0
          0 0 0 0 0 0
          0 0 0 0 0 0
          0 0 0 0 0 0
          0 0 0 0 0 0
          0 0 0 0 0 0
          0 0 0 0 0 0
          0 0 0 0 0 0
          0 0 0 0 0 0
          0 0 0 0 0 0
          0 0 0 0 0 0
          0 0 0 0 0 0
          0 0 0 0 0 0
          0 0 0 0 0 0
          0 0 0 0 0 0
          0 0 0 0 0 0
          0 0 0 0 0 0
          0 0 0 0 0 0
          0 0 0 0 0 0
          0 0 0 0 0 0
          0 0 0 0 0 0
          0 0 0 0 0 0
          0 0 0 0 0 0
          0 0 0 0 0 0
          0 0 0 0 0 0
          0 0 0 0 0 0
          0 0 0 0 0 0
          0 0 0 0 0 0
          0 0 0 0 0 0
          0 0 0 0 0 0
          0 0 0 0 0 0
          0 0 0 0 0 0
          0 0 0 0 0 0
          0 0 0 0 0 0
          0 0 0 0 0 0
          0 0 0 0 0 0
          0 0 0 0 0 0
          0 0 0 0 0 0
          0 0 0 0 0 0
          0 0 0 0 0 0
          0 0 0 0 0 0
          0 0 0 0 0 0
          0 0 0 0 0 0
          0 0 0 0 0 0
          0 0 0 0 0 0
          0 0 0 0 0 0
          0 0 0 0 0 0
          0 0 0 0 0 0
          0 0 0 0 0 0
          0 0 0 0 0 0
          0 0 0 0 0 0
          0 0 0 0 0 0
          0 0 0 0 0 0
          0 0 0 0 0 0
          0 0 0 0 0 0
          0 0 0 0 0 0
          0 0 0 0 0 0
          0 0 0 0 0 0
          0 0 0 0 0 0
          0 0 0 0 0 0
          0 0 0 0 0 0
          0 0 0 0 0 0
          0 0 0 0 0 0
          0 0 0 0 0 0
          0 0 0 0 0 0
          0 0 0 0 0 0
          0 0 0 0 0 0
          0 0 0 0 0 0
          0 0 0 0 0 0
          0 0 0 0 0 0
          0 0 0 0 0 0
          0 0 0 0 0 0
          0 0 0 0 0 0
          0 0 0 0 0 0
          0 0 0 0 0 0
          0 0 0 0 0 0
          0 0 0 0 0 0
          0 0 0 0 0 0
          0 0 0 0 0 0
          0 0 0 0 0 0
          0 0 0 0 0 0
          0 0 0 0 0 0
          0 0 0 0 0 0
          0 0 0 0 0 0
          0 0 0 0 0 0
          0 0 0 0 0 0
          0 0 0 0 0 0
          0 0 0 0 0 0
          0 0 0 0 0 0
          0 0 0 0 0 0
          0 0 0 0 0 0
          0 0 0 0 0 0
          0 0 0 0 0 0
          0 0 0 0 0 0
          0 0 0 0 0 0
          0 0 0 0 0 0
          0 0 0 0 0 0
          0 0 0 0 0 0
          0 0 0 0 0 0
          0 0 0 0 0 0
          0 0 0 0 0 0
          0 0 0 0 0 0
          0 0 0 0 0 0
          0 0 0 0 0 0
          0 0 0 0 0 0
          0 0 0 0 0 0
          0 0 0 0 0 0
          0 0 0 0 0 0
          0 0 0 0 0 0
          0 0 0 0 0 0
          0 0 0 0 0 0
          0 0 0 0 0 0
          0 0 0 0 0 0
          0 0 0 0 0 0
          0 0 0 0 0 0
          0 0 0 0 0 0
          0 0 0 0 0 0
          0 0 0 0 0 0
          0 0 0 0 0 0
          0 0 0 0 0 0
          0 0 0 0 0 0
          0 0 0 0 0 0
          0 0 0 0 0 0
          0 0 0 0 0 0
          0 0 0
        </DataArray>
        <DataArray type="Float64" Name="stress_zz" format="ascii" RangeMin="-15582035.430351168" RangeMax="12247555.831120312">
          186845.9107625276 148637.35532694115 245510.30270577208 30487.064876951248 256537.10061448437 210845.38612180803
          315592.89414419216 -281478.750703881 326228.29046644113 273053.4169166749 385675.4855826124 -593444.5662847133
          289989.18933728896 -214213.23127966785 533808.0476629859 -925930.3044485105 777626.905988683 -1637647.377617353
          -36817.917971989955 -317720.5753262234 149310.1768676802 -712034.9156909812 335438.2717073503 -1106349.256055739
          1417475.614776013 1569135.3099564651 1320336.0100269031 1419720.8769938075 1223196.4052777933 1270306.4440311498
          6394501.794712921 6890489.059717796 6228993.623415697 6615254.740450751 6063485.452118475 6340020.421183705
          10975804.97094325 11537711.346777115 10701759.837236268 11169604.821145058 10427714.703529285 10801498.295513
          11937992.228976648 12247555.831120312 11625652.636077985 11906294.68744432 11313313.043179322 11565033.543768328
          10386639.868192228 10463462.53615852 10208779.569128951 10290029.931851294 10030919.270065673 10116597.327544069
          8164137.754685427 8119554.8805301795 8120335.5233514 8095328.222387432 8076533.292017372 8071101.564244684
          6304826.2031694045 6224790.010918053 6338480.779016396 6272316.846267442 6372135.354863386 6319843.681616833
          4353381.096405507 4284294.920626265 4414340.631752774 4350275.603389166 4475300.167100042 4416256.286152067
          1832302.0360471846 1794980.9761185294 1878188.1985031338 1845905.2928513633 1924074.3609590828 1896829.609584197
          391730.608289782 365671.20141308615 406577.9503660717 385332.29238029476 421425.29244236136 404993.3833475034
          301355.0570243842 240602.50536370144 295943.14993300807 249616.16383129725 290531.242841632 258629.82229889304
          266864.80048411206 170139.60653164165 234174.4323345812 167870.0209495302 201484.06418505026 165600.43536741874
          387720.69750780286 317028.4568384216 299920.97336605296 260876.88163772126 212121.24922430306 204725.30643702095
          769205.1869244997 750483.5446897291 517841.44776604255 508208.49547020585 266477.7086075855 265933.44625068264
          881603.5143522981 778074.5297662924 390553.6019883548 303275.95402315375 -100496.31037558844 -171522.6217199849
          1021776.6093801802 1179146.7758285755 616538.3989374427 781357.178950544 211300.18849470507 383567.5820725124
          123738.57429561515 310191.31200135686 197857.02226249513 336840.1907742366 271975.4702293751 363489.0695471163
          457287.16981715645 581917.12909703 706547.0883769034 84564.87636905303 212565.9294960494 340566.98262304574
          997440.0840607139 972594.8682391837 947749.6524176536 4965821.478083756 5007201.950274983 5048582.422466212
          9258953.272621203 9252853.079759762 9246752.886898322 10906780.288281854 10740295.661349183 10573811.034416515
          10090464.613342715 9922776.758170348 9755088.902997978 8269112.267164995 8188783.6467160545 8108455.026267113
          6535887.092899953 6536557.920704002 6537228.748508053 4561768.546274208 4598071.57226843 4634374.598262652
          1949616.9697005213 1971739.2317258571 1993861.493751193 474834.63633808424 463352.41987119726 451870.2034043101
          461890.62352803367 407514.7661500367 353138.90877203963 519862.8099856655 401976.1532453413 284089.4965050172
          605925.8549155097 419750.06178112526 233574.26864674082 805795.8944518584 503159.3074776233 200522.72050338823
          1148043.3574535437 605044.434412653 62045.511371762084 1249808.7131300005 703490.3698886681 157172.02664733562
          159514.82601461932 357.6309130576483 202376.60682233365 -151442.5782880081 245238.38763004803 -303242.7874890739
          -244354.66865517036 -602651.2198480968 -960947.7710410232 -258426.03394386618 -449125.56959251326 -639825.1052411603
          715649.3734091432 663487.8707658893 611326.3681226354 3439640.468822496 3454859.165840707 3470077.862858918
          6719613.7396295 6886835.56692829 7054057.394227078 8982727.113732515 9084197.908174986 9185668.702617459
          9433137.116198424 9353374.301961126 9273611.487723827 8368785.378194088 8255507.75868373 8142230.139173374
          6889268.228637606 6839613.842812027 6789959.456986446 4892041.216643656 4868719.168580837 4845397.120518017
          2146422.5596745615 2109103.7479570764 2071784.9362395904 611744.9669882315 541387.792858834 471030.61872943665
          670361.1385144232 545697.1163626448 421033.0942108666 839596.8328015452 622562.2590810586 405527.6853605718
          904913.9200199601 583236.0671853338 261558.21435070757 842902.6583962399 443292.67729624873 43682.696196257646
          1146341.825170864 550458.7900009465 -45424.24516897062 1744931.819827856 921777.6766167327 98623.53340560949
          230815.49905923643 -84488.96444524621 211719.61778472256 -29631.261007885176 192623.73651020872 25226.442429475886
          -496777.12865823944 -338767.7887922759 -180758.4489263123 -385383.6804986744 -286388.5896815789 -187393.49886448344
          501280.66576027276 410280.0750429075 319279.4843255423 2450566.0710284696 2213099.1604121644 1975632.2497958592
          4646037.379736624 4572273.281892738 4498509.184048854 6680238.437676907 6849965.970967582 7019693.504258257
          8272125.539112231 8321580.990671367 8371036.442230503 8377170.020211685 8252020.527830996 8126871.035450306
          7288022.5171892755 7161783.882351823 7035545.247514371 5264904.462580444 5146329.426213303 5027754.389846162
          2353743.9840284837 2225707.094483693 2097670.2049389025 734048.7699925967 603737.1608347868 473425.55167697696
          817648.6646499077 649561.364252376 481474.0638548442 1036545.1278174658 764513.8740611844 492482.6203049032
          1022424.0475941459 625944.5931755439 229465.13875694186 554192.9214069442 147323.20696014445 -259546.50748665517
          358593.26190254244 -95493.03507974806 -549579.3320620386 918935.5257894992 188485.39502725186 -541964.7357349955
          467476.82643686153 135302.34578781604 378611.903479771 98230.05636902562 289746.9805226804 61157.766950235164
          -293284.01421621296 -247440.6050239947 -201597.19583177636 -265120.03769726504 -209203.8982413907 -153287.75878551634
          153192.4517344702 114226.99286270242 75261.53399093464 1274224.6937612882 992763.8317344442 711302.9697076002
          2936896.076244996 2540158.669821296 2143421.2633975954 4900964.428023133 4790044.031925559 4679123.6358279865
          7016841.772724817 7103699.171159502 7190556.569594189 8092345.776769992 8021521.980773279 7950698.184776565
          7547372.976678316 7355914.021420727 7164455.066163137 5491754.192951937 5275058.07889692 5058361.964841904
          2390075.720016361 2200301.9000502583 2010528.080084155 682026.3725150186 558656.0376007591 435285.7026864997
          712229.3755517624 578512.8443186389 444796.3130855154 766659.7811299275 576154.5165249177 385649.251919908
          413189.4265568771 216402.30910642026 19615.19165596347 -827262.8400798423 -827114.5639265623 -826966.2877732824
          -2039007.182468035 -1633352.8361267669 -1227698.489785499 -2232205.239760413 -1513908.2222314358 -795611.2047024581
          1109178.4411259084 572318.2224928732 823181.631146635 383381.18114737945 537184.8211673617 194444.1398018857
          -106167.37417732681 -137783.62647161903 -169399.87876591127 -149262.9095220273 -117856.17148226789 -86449.43344250851
          -25753.29389752931 -7097.255016649716 11558.78386422988 175814.7640676805 102246.37808393159 28677.992100182666
          1075123.400672462 761332.1872005092 447540.9737285563 2981907.0373799596 2678379.7357730577 2374852.4341661558
          5533583.106566928 5552965.322728857 5572347.538890786 7446283.857628106 7464227.338699298 7482170.819770491
          7399878.103290096 7239936.400360767 7079994.697431438 5242023.862403982 5015525.140091281 4789026.417778581
          1994032.7842290774 1867135.8780906058 1740238.9719521338 227127.34792714578 270301.2984590129 313475.24899088
          10739.111165462004 123119.474464002 235499.8377625421 -503460.518972816 -255769.61303537077 -8078.7070979255805
          -1724748.7783761085 -1142674.6368503028 -560600.4953244969 -4093893.8227044777 -2866479.494764101 -1639065.1668237248
          -7488344.85505014 -5162557.159930077 -2836769.4648100166 -9134293.055585613 -5849237.9982727 -2564182.9409597847
          2544533.2133767433 1440270.8833408318 1710218.9064882747 897763.1382313035 875904.5995998061 355255.39312177507
          108833.09541610508 -19132.07053848278 -147097.2364930706 -37092.57855846913 -29927.33716554655 -22762.095772623965
          -64537.54508416935 -15632.846781396958 33271.851521375436 -248155.34863495576 -143074.55588175548 -37993.76312855524
          -69325.74102037374 -90680.34819631843 -112034.95537226317 1225695.9804422925 1029920.5430902756 834145.1057382589
          4094960.9199173255 4044256.1889959853 3993551.458074646 6555494.190516161 6654896.686048224 6754299.1815802865
          6544096.185874237 6578739.679625653 6613383.173377065 4121209.609261652 4082612.915096334 4044016.2209310164
          897433.1304014804 1016910.2100104155 1136387.2896193508 -814977.5214102259 -428011.5285469388 -41045.535683651666
          -1590326.933563642 -963306.0164200173 -336285.0992763928 -3104026.971259609 -2034376.4025606383 -964725.8338616677
          -5591940.287884863 -3780718.0043347385 -1969495.7207846134 -8987548.302034603 -6207118.968395376 -3426689.6347561474
          -12884689.141461916 -8854568.90177529 -4824448.662088662 -14499882.586864077 -9153764.74809946 -3807646.909334844
          4080610.4299900397 2254947.0296242023 4283571.597716303 2252798.7446279456 4486532.765442566 2250650.459631688
          263738.2073927349 164417.1077152318 65096.008037728716 101425.80961516038 106908.08379283431 112390.35797050822
          86649.41025872287 76319.4256647402 65989.44107075757 -21016.805272842015 -14442.980504292143 -7869.155735742257
          -211059.87719087626 -166925.44876217202 -122791.02033346776 409011.126305811 333064.52657378325 257117.9268417554
          2954530.2055171006 2825787.9758813367 2697045.7462455723 5343060.345933388 5368854.077132485 5394647.808331583
          5037821.96045408 5075746.561750944 5113671.163047809 2246528.4927629186 2216988.799008814 2187449.1052547097
          -612280.3859930192 -533493.2770824779 -454706.16817193653 -2041537.0872369441 -1792178.5220504415 -1542819.9568639386
          -3422877.9895357788 -2996335.6623532055 -2569793.335170632 -5703161.478787394 -5001290.446439914 -4299419.414092437
          -8721852.9050693 -7699845.917255412 -6677838.929441525 -11443720.544005005 -10338808.87942982 -9233897.214854643
          -13288814.0381258 -12224403.435110163 -11159992.83209453 -15582035.430351168 -13548681.224798376 -11515327.019245582
          -6055338.023844132 -3322198.8556872625 -5072166.817543412 -2720395.8621772486 -4088995.6112426906 -2118592.868667234
          -157073.45035173072 -48201.37950183134 60670.69134806804 159073.75419737305 169434.11798316665 179794.4817689603
          93213.87531828559 85631.02961496312 78048.18391164063 82228.99501819251 52161.274542070314 22093.554065948152
          -112870.97502874969 -96728.69546758739 -80586.41590642513 129611.50240877416 91933.94507493198 54256.38774108981
          1735571.950409838 1604361.3515115194 1473150.7526132 3030865.47033046 2901838.7644809997 2772812.05863154
          1990240.8860492571 1821318.839698529 1652396.7933478006 -312957.103415678 -521215.9296644859 -729474.7559132937
          -2059736.1038619648 -2254803.0112352916 -2449869.918608619 -3267428.202057578 -3464088.9240857903 -3660749.646114003
          -4877625.073100409 -5117109.866002345 -5356594.658904281 -6927740.841243617 -7294060.581273038 -7660380.321302457
          -8965052.822971305 -9635855.425817296 -10306658.028663283 -9924311.602735743 -11259589.633468844 -12594867.664201949
          -9461556.963292954 -11807888.663059453 -14154220.362825952 -9334539.532925932 -11947367.572883679 -14560195.612841427
          -7941565.484332703 -10620116.54648851 -13298667.608644318 -3281668.2441470292 -6968235.335093642 -10654802.426040255
          3512064.183996938 6096756.935369343 3601312.3577204263 5775398.5615556985 3690560.531443914 5454040.187742054
          711609.0360921447 885158.804414972 1058708.5727377993 138536.49311192235 67777.33088798559 -2981.8313359511812
          -207954.64065336558 -185517.8060727914 -163080.97149221716 -80784.15317850705 -59538.91876988846 -38293.68436126985
          92094.79078700683 84461.96506652606 76829.1393460453 -6262963.20560063 -6270132.486807647 -6277301.768014668
          -6458360.361211145 -6529410.479146199 -6600460.597081255 -5927351.418608353 -6086860.394275298 -6246369.369942245
          -4264398.927726023 -4662187.012185431 -5059975.096644838 -1227563.9045192334 -1955197.3596305263 -2682830.8147418187
          2830911.5776021043 3632645.607168253 4434379.636734402 877967.1026221241 169528.036065681 -538911.0304907621
          3964179.1201464906 4926620.717711069 5889062.315275647 877958.3245434186 515098.9716958801 152239.61884834152
          4434897.1823771745 5593940.864766251 6752984.547155327 1292104.7551475938 1181287.9124931912 1070471.0698387893
          4512566.795587801 5749600.695038513 6986634.594489225 1625167.207616188 2234227.503552029 1404114.8683666023
          1920146.2862266428 1183062.5291170166 1606065.0689012562 891210.9202971938 706002.5558853113 520794.19147342886
          807866.8566340816 429443.90579328337 51020.9549524851 400040.9098881228 -28523.901725933392 -457088.7133399896
          -2030756.7463153726 -1264099.0686968775 -497441.3910783818 -7172755.373716338 -4235875.837050108 -1298996.300383878
          -11598559.255018096 -6619496.607874545 -1640433.9607309927 -14460533.957839891 -12447152.82044809 -10433771.683056286
          -7469684.930538287 -7911931.720984948 -8354178.511431608 829120.0586611396 -1670273.7509280506 -3277740.286672418
          -3695122.045651964 -7384600.632005976 -5719970.340375876 4935361.780294947 7726650.384163334 4482615.059504661
          6268844.852071198 4029868.3387143747 4811039.31997906 2008317.5548614557 2167975.8348640148 2327634.1148665748
          1468481.3277245704 1305394.484743651 1142307.6417627314 966128.2080428124 862943.6950222892 759759.182001766
          571518.3048398067 483711.3722221391 395904.4396044715 -306478.8405752501 -327957.5977946158 -349436.35501398146
          -54727.27810986087 -81143.67874232293 -107560.07937478501 -1291888.5809687127 -1258636.6340068209 -1225384.6870449288
          -83090.42209271854 -106199.28811445413 -129308.15413618984 -179019.65173049713 -228084.77734395943 -277149.9029574216
          -1217449.9666985243 -1284850.445149693 -1352250.9236008613 -2467132.472097732 -2504649.78850647 -2542167.104915208
          -3423589.79844819 -3435609.00331905 -3447628.2081899103 -4452252.854210449 -4440025.73799273 -4427798.621775011
          -5502319.269972088 -5480789.390890361 -5459259.511808632 -3198601.845841086 -3980174.713891298 -2969036.9377062675
          -3783305.397407773 -2739472.0295714485 -3586436.0809242483 -1876353.0261973378 -1587461.3378465043 -1298569.649495671
          -236564.8885614036 178761.01884855214 594086.9262585077 1381174.5856366262 2001924.848060694 2622675.1104847617
          5957858.15829588 5002183.098113183 5768417.629894428 4792851.330750691 5578977.101492975 4583519.563388199
          6652117.074140409 6481660.789314134 6311204.504487859 6964276.322794959 6792718.856098782 6621161.389402606
          6611006.744975844 6446489.555602384 6281972.366228923 2741936.644913612 2983077.2513809493 2741198.2743413327
          -522027.35117429076 2740459.903769054 -4027131.953729531 4542630.246425824 5683836.342716228 6825042.43900663
          5484772.277013502 5354087.679272404 5223403.081531303
        </DataArray>
        <DataArray type="Float64" Name="peeq" format="ascii" RangeMin="0" RangeMax="0.009772489668379885">
          0 0 0 0 0 0
          0.000003967627975064111 0 0 0 0.000007935255950128223 0
          0 0 0.000010302388907044012 0 0.000020604777814088024 0
          0 0 0.000006334760931979901 0 0.000012669521863959802 0
          0 0 0 0 0 0
          0 0 0 0 0 0
          0 0 0 0 0 0
          0 0 0 0 0 0
          0 0 0 0 0 0
          0 0 5.115861067272581e-8 1.0231722134545162e-7 1.0231722134545162e-7 2.0463444269090325e-7
          3.2589546291921445e-8 6.517909258384289e-8 6.745338381868654e-8 1.3490676763737308e-7 1.0231722134545162e-7 2.0463444269090325e-7
          3.2589546291921445e-8 6.517909258384289e-8 1.6294773145960723e-8 3.2589546291921445e-8 0 0
          0.000007829666020021874 0.000008015888558681666 0.000007485702579739735 0.000007604228633474734 0.000007141739139457597 0.000007192568708267801
          0.000053833530814743205 0.00005432605465862379 0.000053010985742175056 0.00005340839167842397 0.0000521884406696069 0.00005249072869822415
          0.00013980265259806311 0.0001403892189522375 0.00013895088045882856 0.00013942643133578778 0.00013809910831959394 0.00013846364371933803
          0.00023866670632398314 0.00023918904284443091 0.00023791109509603044 0.00023815107759782026 0.0002371554838680777 0.00023711311235120967
          0.00033926783083171856 0.00034096132722671456 0.00033816705333114316 0.00033936325114645684 0.0003370662758305678 0.00033776517506619913
          0.000426696556815097 0.0004314808601866718 0.000425727050792963 0.00042960005550405706 0.0004247575447708289 0.00042771925082144225
          0.00046647143212909784 0.0004702624433954829 0.00046908584077319336 0.00047155929793900504 0.0004717002494172888 0.0004728561524825271
          0.00042191376599242216 0.00041670803810219887 0.000433549554372797 0.0004267669254441951 0.0004451853427531719 0.0004368258127861914
          0 0 0 0.000003967627975064111 0 0.000007935255950128223
          0 0.000010302388907044012 0.000020604777814088024 0 0.000006334760931979901 0.000012669521863959802
          0 0 0 0 0 0
          0 0 0 0 0 0
          0 0 0 0 0 0
          0 0 0 0 0 0
          0.000007388037939000485 0.000007220344741966683 0.000007052651544932881 0.000052500484881652694 0.00005211267401437402 0.00005172486314709535
          0.00013802888847864677 0.0001377588069195414 0.000137488725360436 0.00023687450861417932 0.00023699235797900855 0.0002371102073438378
          0.00033422465956516067 0.0003348935779300187 0.00033556249629487664 0.0004135628170338623 0.000415962106713987 0.0004183613963941116
          0.0004564644847672156 0.0004637740135598409 0.00047108354235246607 0.00044164948064543894 0.0004590978336747101 0.0004765461867039813
          0 0 0 0 0 0
          0 0 0 0 0 0
          0 0 0 0 0 0
          0 0 0 0 0 0
          0 0 0 0 0 0
          0 0 0 0 0 0
          0.000006956601981692171 0.000007029907918801119 0.000007103213855910068 0.000051000022640570604 0.00005140273671379235 0.0000518054507870141
          0.00013553359099442694 0.00013639280801047915 0.00013725202502653142 0.0002334681408825621 0.00023524446995069716 0.00023702079901883222
          0.0003264642603796449 0.0003308556656825325 0.00033524707098542 0.00039701648418895 0.00040638757841261384 0.0004157586726362777
          0.0004455715761602439 0.000462715463219817 0.00047985935027939004 0.0004808249363224506 0.0005106141758059302 0.0005404034152894097
          0 0 0 0 0 0
          0 0 0 0 0 0
          0 0 0 0 0 0
          0 0 0 0 0 0
          0 0 0 1.224035315115515e-7 6.120176575577575e-8 0
          1.224035315115515e-7 6.120176575577575e-8 0 0 0 0
          0.000006726634622963944 0.000007201329451452041 0.000007676024279940138 0.00005001055908288341 0.000051639274062475986 0.00005326798904206857
          0.0001328878611497552 0.0001357540963889739 0.00013862033162819254 0.0002285611758215055 0.00023371363708082633 0.0002388660983401471
          0.00031866322659057915 0.0003294777588472755 0.0003402922911039717 0.00038670545452075745 0.0004069874077324071 0.00042726936094405674
          0.0004490644103548377 0.0004820153346309994 0.0005149662589071611 0.0005493303908633587 0.0005991125221787852 0.0006488946534942118
          0 0 0 0 0 0
          0 0 0 0 0 0
          0 0 0 0 0 0
          0 0 0 0 0 0
          0 0 0 1.224035315115515e-7 6.120176575577575e-8 0
          1.224035315115515e-7 6.120176575577575e-8 0 0 0 0
          0.00000695448687343952 0.000008290969155677655 0.000009627451437915791 0.000050306324197655134 0.00005401882544307017 0.000057731326688485203
          0.00013156196675769347 0.00013773931777735565 0.00014391666879701786 0.00022515373871815177 0.00023578756473143566 0.00024642139074471954
          0.00031799440330500066 0.0003373464815669126 0.00035669855982882443 0.00039894544640061417 0.0004320750322600554 0.00046520461811949665
          0.0004954538662968966 0.0005459293716544693 0.000596404877012042 0.0006820479368003802 0.0007519062693418629 0.0008217646018833459
          0 0 0 0 0 0
          0 0 0 0 0 0
          0 0 0 0 0 0
          0 0 0 0 0 0
          0 0 0 0 0 0
          0 0 0 0 0 0
          0.000008943662588539264 0.000011322430475838353 0.00001370119836313744 0.00005489305711820439 0.00006088212170601377 0.00006687118629382313
          0.00013647767347197602 0.00014594466789921836 0.0001554116623264607 0.00023227606293413762 0.000247858142251794 0.00026344022156945043
          0.00033968023188450495 0.00036511193586599423 0.0003905436398474836 0.00046044868846162833 0.0005005695030981508 0.0005406903177346733
          0.0006258519688355042 0.0006823806488873089 0.0007389093289391135 0.0009351314595221174 0.0010030660484043941 0.0010710006372866713
          0 0 0 0 0 0
          0 0 0 0 0 0
          0 0 0 0 0 0
          0 0 0 0 0 0
          0 0 0 0 0 0
          0 0 0 0 0 0
          0.000015258930448356463 0.000017726347261321606 0.000020193764074286746 0.00006960975018397007 0.00007572686712085044 0.0000818439840577308
          0.00015656927810095 0.00016595653487447488 0.00017534379164799982 0.00026545599840197156 0.00027968956080035734 0.00029392312319874306
          0.00040853234628525576 0.00042858097848691955 0.00044862961068858334 0.0006075981660496011 0.0006342469131519837 0.0006608956602543664
          0.0009016236595532777 0.0009326561956715897 0.0009636887317899018 0.0013871781662719517 0.001410585800509648 0.0014339934347473446
          0.0000011930907955286568 5.965453977643284e-7 5.965453977643284e-7 2.982726988821642e-7 0 0
          0 0 0 0 0 0
          9.126522856915897e-7 4.5632614284579484e-7 0 0.0000020703497562169963 0.0000010351748781084981 0
          0.0000011576974705254064 5.788487352627032e-7 0 0 0 0
          0 0 0 0 0 0
          0 0 0 0.0000017431399234542557 0.000002043233805179909 0.0000023433276869055624
          0.000029572309476837404 0.00003168544916285269 0.00003379858884886797 0.0000996374497884822 0.00010414832743499303 0.00010865920508150388
          0.0002010017108968153 0.0002075217531145615 0.00021404179533230776 0.0003400676032700831 0.0003481890852195145 0.0003563105671689459
          0.0005463225383123359 0.0005537869432517514 0.000561251348191167 0.0008657159440179335 0.0008682358297785494 0.0008707557155391652
          0.001346558149531579 0.0013397334809468128 0.0013329088123620464 0.0020484562430874713 0.0020228956952488587 0.0019973351474102457
          0.0000025190944775232626 0.0000012595472387616313 0.0000020938044192698836 0.000001076842543967067 0.0000016685143610165037 8.941378491725023e-7
          0 2.9940334332125234e-8 5.988066866425047e-8 0 0 0
          9.865488684684723e-7 4.932744342342362e-7 0 0.0000021442463389938787 0.0000010721231694969394 0
          0.0000011576974705254064 5.788487352627032e-7 0 0 0 0
          0 0 0 0 0 0
          0.000004852907705580972 0.000005297873800436667 0.000005742839895292363 0.000028955542759358236 0.00003055510867836226 0.00003215467459736628
          0.00008999382285430096 0.00009309804025205396 0.00009620225764980696 0.00019133011609070977 0.00019588954418403744 0.00020044897227736516
          0.00033443916347064497 0.00034012411229698174 0.0003458090611233186 0.0005421110980422637 0.0005477829265500771 0.0005534547550578904
          0.0008563541594900478 0.0008591181591559166 0.0008618821588217853 0.0013338729003445702 0.001328729080189613 0.0013235852600346557
          0.002022920548906288 0.002005402353960864 0.00198788415901544 0.002949435481773336 0.0029154708421510445 0.0028815062025287536
          0.004158403647218088 0.004101997406561085 0.0040455911659040816 0.005640072789786262 0.0055586098958557775 0.005477147001925293
          0.0001121598521418922 0.00021151476877128764 0.00012010148614113982 0.00022896673604226757 0.00012804312014038743 0.0002464187033132475
          0.00000640246775624838 0.0000056181181200060225 0.000004833768483763665 0 0 0
          7.389658277688268e-8 3.694829138844134e-8 0 7.389658277688268e-8 3.694829138844134e-8 0
          0 0 0 0.001051190052937901 0.0010585070841691426 0.001065824115400384
          0.0015333398941471455 0.0015385478477975144 0.001543755801447883 0.0021924293101736577 0.0021928521844828495 0.0021932750587920413
          0.0030567252754348756 0.0030493419147899986 0.003041958554145122 0.00412490214783862 0.004107852143678234 0.004090802139517847
          0.005432838958653055 0.005428940049257205 0.005425041139861355 0.005367534336987868 0.005340315725720058 0.005313097114452247
          0.006561190310830532 0.006555778398842082 0.006550366486853631 0.006737735122649301 0.0067009632849883635 0.006664191447327424
          0.007704393810197004 0.007698685090208556 0.007692976370220109 0.008154807660695837 0.008111522025574823 0.008068236390453808
          0.008804591295101256 0.008799182071038188 0.008793772846975124 0.0003362414639291582 0.000318575376345025 0.00036229568959311015
          0.0003422558072094116 0.0003883499152570621 0.00036593623807379817 0.0003983287685989633 0.0004321788561648055 0.0004660289437306476
          0.0005195101972227504 0.0005683867361958014 0.0006172632751688524 0.0007152645203473931 0.000785305702341999 0.0008553468843366051
          0.0010179091663317364 0.0011045398149226225 0.0011911704635135085 0.0014829951505705072 0.001554885127177972 0.0016267751037854366
          0.002170980409722967 0.002177141977593949 0.0021833035454649316 0.003071206619795895 0.0030169396555775256 0.0029626726913591557
          0.004435535540758207 0.0043514422639932115 0.004267348987228216 0.007252982845619492 0.006022112730058362 0.007152332205544056
          0.00591118962806758 0.007051681565468619 0.005800266526076797 0.00012239198037573623 0.00022355156029207475 0.00013102170112194603
          0.0002435824065637346 0.0001396514218681558 0.0002636132528353945 0.00001061620022969886 0.000009230497840078704 0.000007844795450458546
          0 0 0 0 0 0
          0 0 0 0.0000018502533415307972 0.0000022581707586421148 0.000002666088175753432
          6.98763432618391e-8 1.969593106013354e-7 3.2404227794083166e-7 0.00002133779732304912 0.000022785308692218196 0.00002423282006138727
          0.000008188738865471529 0.000008976644784910296 0.000009764550704349063 0.00003390673882946227 0.000035454763585378016 0.000037002788341293764
          0.00008097519930093653 0.00008348419037287533 0.00008599318144481413 0.0001621058364001757 0.00016613969386002392 0.00017017355131987216
          0.0002869857324545377 0.0002925208893259792 0.0002980560461974206 0.0004620015841322483 0.00046881208704286015 0.00047562258995347196
          0.0007068129056789735 0.0007143968619685681 0.0007219808182581628 0.0019490542175672496 0.0014230657179816423 0.001955261715501044
          0.0014304158225035457 0.001961469213434839 0.0014377659270254494 0.002612864491233725 0.002617028364509479 0.0026211922377852334
          0.0034221432283417026 0.0034236759710720003 0.0034252087138022984 0.00437095285009966 0.004369610510340314 0.004368268170580969
          0.006627402632170643 0.00568345960122453 0.006621107782059149 0.005677472891390697 0.006614812931947656 0.005671486181556863
          0.0075534473901630655 0.0075477466502544156 0.0075420459103457665 0.008412119248710834 0.00840756153335464 0.00840300381799845
          0.009140861007098862 0.009137816238583712 0.00913477147006856 0.00950270889557826 0.008853036713955565 0.009458488288935814
          0.008747544284463345 0.009414267682293368 0.008642051854971126 0.009772489668379885 0.009767506294575495 0.009762522920771103
          0.009655876074558561 0.009654435769300156 0.00965299546404175
        </DataArray>
        <DataArray type="Float64" Name="pe11" format="ascii" RangeMin="0" RangeMax="0.00975903752730046">
          0 0 0 0 0 0
          0.00000395736224799562 0 0 0 0.00000791472449599124 0
          0 0 0.000010284128786335 0 0.00002056825757267 0
          0 0 0.00000632676653833938 0 0.00001265353307667876 0
          0 0 0 0 0 0
          0 0 0 0 0 0
          0 0 0 0 0 0
          0 0 0 0 0 0
          0 0 0 0 0 0
          0 0 5.115350015331037e-8 1.0230700030662074e-7 1.0230700030662074e-7 2.0461400061324149e-7
          3.2585682227336955e-8 6.517136445467391e-8 6.744634126697886e-8 1.348926825339577e-7 1.0230700030662074e-7 2.0461400061324149e-7
          3.2585682227336955e-8 6.517136445467391e-8 1.6292841113668478e-8 3.2585682227336955e-8 0 0
          0.000007829312751829401 0.000008015498993118439 0.0000074853592827922696 0.000007603866951150561 0.000007141405813755138 0.000007192234909182684
          0.00005383102796560907 0.000054323990254070625 0.00005300854426224523 0.00005340643849235443 0.000052186060558881374 0.00005248888673063823
          0.00013979212478014563 0.0001403808188326297 0.00013893993618842494 0.00013941796450939281 0.00013808774759670425 0.00013845511018615594
          0.00023863406860216975 0.00023916011147360908 0.00023787738403442107 0.00023812143934258422 0.00023712069946667241 0.00023708276721155937
          0.00033918727917596676 0.0003408875106865315 0.00033808340865262745 0.00033928545685232923 0.00033697953812928815 0.0003376834030181271
          0.000426524787176985 0.00043131718200810625 0.0004255516958613244 0.0004294294249625858 0.0004245786045456638 0.00042754166791706544
          0.00046618732033630817 0.00046998202606513977 0.0004688157596979689 0.00047128599908473524 0.0004714441990596295 0.00047258997210433077
          0.0004216020124134381 0.0004164070204636382 0.00043329003853780204 0.0004265071309650499 0.000444978064662166 0.0004366072414664616
          0 0 0 0.00000395736224799562 0 0.00000791472449599124
          0 0.000010284128786335 0.00002056825757267 0 0.00000632676653833938 0.00001265353307667876
          0 0 0 0 0 0
          0 0 0 0 0 0
          0 0 0 0 0 0
          0 0 0 0 0 0
          0.00000738772159433582 0.000007220011834823351 0.000007052302075310881 0.000052496504677788 0.00005210868347875313 0.00005172086227971825
          0.00013801189866943336 0.00013774120506741136 0.00013747051146538935 0.00023682824758548013 0.00023694529291666005 0.0002370623382478399
          0.0003341215909728148 0.0003347907202441994 0.00033545984951558405 0.00041336897631772274 0.00041577455261130084 0.000418180128904879
          0.000456172670076595 0.00046351498715614914 0.00047085730423570323 0.00044129732399577146 0.0004588278196135632 0.000476358315231355
          0 0 0 0 0 0
          0 0 0 0 0 0
          0 0 0 0 0 0
          0 0 0 0 0 0
          0 0 0 0 0 0
          0 0 0 0 0 0
          0.000006956270247610167 0.000007029537967906507 0.000007102805688202848 0.000050993697911235034 0.00005139625535246441 0.00005179881279369378
          0.00013550611897462375 0.0001363652032733124 0.0001372242875720011 0.0002333981541373246 0.00023517520069484552 0.00023695224725236639
          0.0003263264428976127 0.0003307227736575332 0.0003351191044174538 0.00039679674621867034 0.0004061865596946769 0.00041557637317068345
          0.00044527695014904905 0.00046247308584708864 0.0004796692215451281 0.0004803762416378336 0.0005102664128968416 0.0005401565841558497
          0 0 0 0 0 0
          0 0 0 0 0 0
          0 0 0 0 0 0
          0 0 0 0 0 0
          0 0 0 1.2229845106973092e-7 6.114922553486546e-8 0
          1.2229845106973092e-7 6.114922553486546e-8 0 0 0 0
          0.00000672624555777488 0.000007200852100358063 0.000007675458642941246 0.00005000146689171685 0.000051629099445191485 0.00005325673199866611
          0.00013284897187484219 0.00013571345098619417 0.0001385779300975461 0.00022846580614798337 0.00023361691245215192 0.00023876801875632054
          0.0003184943589786361 0.0003293121122391434 0.0003401298654996508 0.0003864783361374613 0.00040677726014213097 0.00042707618414680065
          0.000448777775699063 0.0004817623654540964 0.0005147469552091296 0.0005486067152119369 0.0005984044916718885 0.0006482022681318403
          0 0 0 0 0 0
          0 0 0 0 0 0
          0 0 0 0 0 0
          0 0 0 0 0 0
          0 0 0 1.2229845106973092e-7 6.114922553486546e-8 0
          1.2229845106973092e-7 6.114922553486546e-8 0 0 0 0
          0.0000069539633824076085 0.000008290187217545693 0.000009626411052683777 0.000050294317576041965 0.00005400490262068264 0.000057715487665323304
          0.00013151348554705017 0.0001376855388474879 0.00014385759214792564 0.00022504239297671747 0.00023566435323729194 0.00024628631349786647
          0.0003178231713699847 0.000337153839798375 0.0003564845082267654 0.0003987536767859696 0.0004318450795148594 0.0004649364822437492
          0.0004951159452224591 0.0005454963257806016 0.0005958767063387442 0.0006803696672412209 0.0007499647748003699 0.0008195598823595188
          0 0 0 0 0 0
          0 0 0 0 0 0
          0 0 0 0 0 0
          0 0 0 0 0 0
          0 0 0 0 0 0
          0 0 0 0 0 0
          0.00000894267977141528 0.000011320860858363117 0.000013699041945310956 0.00005487819731298685 0.00006086413044484006 0.00006685006357669328
          0.00013642322670635979 0.0001458783041208845 0.00015533338153540924 0.00023216544255413255 0.0002477126411198794 0.0002632598396856262
          0.000339534630736053 0.0003648852926154882 0.00039023595449492343 0.00046021839918260866 0.000500178797503995 0.0005401391958253813
          0.0006248266323018112 0.0006810767191101886 0.000737326805918566 0.0009300763349129092 0.0009976213268602526 0.0010651663188075962
          0 0 0 0 0 0
          0 0 0 0 0 0
          0 0 0 0 0 0
          0 0 0 0 0 0
          0 0 0 0 0 0
          0 0 0 0 0 0
          0.000015256642700161966 0.000017723141377303635 0.000020189640054445303 0.00006959085491980313 0.00007570232326509556 0.00008181379161038802
          0.00015650656149721826 0.000165872396837542 0.00017523823217786572 0.00026532022648749655 0.000279495692406916 0.00029367115832633524
          0.00040821227678146594 0.000428146123151454 0.00044807996952144196 0.0006063888219325997 0.000632905409885417 0.0006594219978382341
          0.000896882298771806 0.0009279546900481502 0.0009590270813244943 0.001371834543083047 0.0013959228225583998 0.0014200111020337529
          0.0000011897022015980176 5.948511007990088e-7 5.948511007990088e-7 2.974255503995044e-7 0 0
          0 0 0 0 0 0
          9.120824270679509e-7 4.5604121353397545e-7 0 0.0000020676614988963625 0.0000010338307494481812 0
          0.0000011555790718284116 5.777895359142058e-7 0 0 0 0
          0 0 0 0 0 0
          0 0 0 0.0000017430323049734566 0.000002043003714901504 0.000002342975124829551
          0.000029567044473477876 0.00003167790988833981 0.000033788775303201734 0.00009960676479981608 0.00010410462385444097 0.00010860248290906585
          0.0002008933619981119 0.0002073664159825139 0.00021383946996691584 0.00033971716715849474 0.00034770325624905446 0.0003556893453396142
          0.0005450343421830628 0.0005521811087263225 0.0005593278752695823 0.0008609948439881267 0.0008629261937149319 0.0008648575434417372
          0.0013321492986380758 0.0013244147324276954 0.0013166801662173148 0.0020130173565457063 0.0019864092553110884 0.001959801154076471
          0.000002513891619809473 0.0000012569458099047365 0.0000020897606768826252 0.0000010747695170692656 0.0000016656297339557775 8.92593224233795e-7
          0 2.98891786279531e-8 5.97783572559062e-8 0 0 0
          9.85966840153388e-7 4.92983420076694e-7 0 0.0000021415459119817996 0.0000010707729559908998 0
          0.0000011555790718284116 5.777895359142058e-7 0 0 0 0
          0 0 0 0 0 0
          0.000004852260438100732 0.000005296915977488126 0.00000574157151687552 0.000028949281026890283 0.00003054689661801085 0.00003214451220913143
          0.00008996343840172862 0.0000930593446883132 0.00009615525097489781 0.00019121785289570118 0.00019574973451450182 0.00020028161613330252
          0.00033404377248070615 0.00033965283648552193 0.0003452619004903376 0.0005407725260960117 0.0005462597469583189 0.000551746967820626
          0.0008521746534345316 0.000854545639795439 0.0008569166261563463 0.0013223181380755203 0.001316433927935424 0.0013105497177953276
          0.0019957911114566436 0.0019769602234486518 0.00195812933544066 0.0028962673213601426 0.002860198342783824 0.002824129364207505
          0.004069500350330537 0.004010332928639683 0.003951165506948828 0.005512999222368302 0.005428623333363464 0.005344247444358625
          0.00011145590412020066 0.00021012573498041355 0.0001190651857020344 0.00022690738387673779 0.00012667446728386816 0.00024368903277306205
          0.000006393036629993878 0.00000561149376366551 0.000004829950897337142 0 0 0
          7.388441308543711e-8 3.6942206542718554e-8 0 7.388441308543711e-8 3.6942206542718554e-8 0
          0 0 0 0.0010463905625911845 0.0010535624706203104 0.0010607343786494363
          0.001523108829087173 0.0015280947421835987 0.0015330806552800243 0.002172778818373864 0.0021728953992107697 0.0021730119800476757
          0.003023009579133794 0.0030152470960700243 0.0030074846130062546 0.00407401359623078 0.0040565123079163235 0.0040390110196018665
          0.005397793311617783 0.005393383751911905 0.005388974192206027 0.005299983714470253 0.00527232092419484 0.005244658133919425
          0.006526129085232292 0.006520166379301456 0.00651420367337062 0.006658691274889782 0.006621584582877569 0.006584477890865357
          0.007673891577059265 0.0076676871576175885 0.00766148273817591 0.008074374640884105 0.00803086021062209 0.007987345780360075
          0.00878224556512001 0.008776465054254771 0.008770684543389536 0.00033599419803936886 0.0003183788377120331 0.00036210478494671063
          0.0003421065813193412 0.00038821537185405246 0.0003658343249266492 0.0003978642712971561 0.00043178742695481167 0.0004657105826124672
          0.0005184058005154987 0.0005673146815561537 0.0006162235625968087 0.0007124059501017982 0.0007822453645433428 0.0008520847789848873
          0.0010107091390605819 0.0010967001147599007 0.0011826910904592196 0.0014656515976906894 0.0015370629747543695 0.0016084743518180494
          0.0021322545508540396 0.0021400505003952817 0.002147846449936524 0.002999393880546864 0.0029442341368250864 0.002889074393103309
          0.004316554200647714 0.004231824740876171 0.004147095281104628 0.007098651577031074 0.005859306861973409 0.0069954563409903615
          0.005747824691453803 0.006892261104949646 0.005636342520934199 0.0001216292999986829 0.00022205513877487283 0.00012987624566412008
          0.00024131329707610197 0.00013812319132955726 0.00026057145537733114 0.000010601730611246492 0.0000092195971260691 0.000007837463640891707
          0 0 0 0 0 0
          0 0 0 0.0000018500115317171558 0.0000022578363792857992 0.0000026656612268544427
          6.986940350216381e-8 1.9693722862227156e-7 3.2400505374237933e-7 0.00002133176885313228 0.000022778751449835494 0.00002422573404653871
          0.00000818747410403117 0.000008975186688817483 0.000009762899273603793 0.00003389976765104734 0.00003544650398743782 0.000036993240323828305
          0.00008094841329223195 0.00008345286461475489 0.00008595731593727782 0.0001620179432902476 0.00016603991471758113 0.00017006188614491466
          0.0002867141181384068 0.00029222400788825645 0.00029773389763810616 0.00046122184545071567 0.00046798372912812566 0.0004747456128055356
          0.0007047761941556743 0.0007122737222186906 0.0007197712502817069 0.0019380543410396668 0.0014167241962227443 0.0019441673679159764
          0.0014240124058320458 0.001950280394792286 0.0014313006154413476 0.0025956441552858417 0.002599649383806497 0.002603654612327151
          0.0033978159018689673 0.003399081603384343 0.003400347304899718 0.004340042099727681 0.004338298760699255 0.00433655542167083
          0.006607960661759448 0.005661278350249141 0.006601272895232578 0.005654991440194177 0.006594585128705709 0.005648704530139213
          0.007538958964090698 0.007532824295409945 0.007526689626729193 0.008403168905125023 0.008398207214723365 0.008393245524321708
          0.009135127960023713 0.009131782942664621 0.009128437925305526 0.009433815878069237 0.008693382040011587 0.009389355581070674
          0.008585712819496157 0.009344895284072112 0.008478043598980729 0.00975903752730046 0.009753822779426165 0.009748608031551873
          0.009646967619073429 0.009645381477865145 0.00964379533665686
        </DataArray>
        <DataArray type="Float64" Name="pe22" format="ascii" RangeMin="-0.005035836022767654" RangeMax="0">
          0 0 0 0 0 0
          -0.000001781865417464546 0 0 0 -0.000003563730834929092 0
          0 0 -0.000004757702943825522 0 -0.000009515405887651044 0
          0 0 -0.0000029758375263609766 0 -0.000005951675052721953 0
          0 0 0 0 0 0
          0 0 0 0 0 0
          0 0 0 0 0 0
          0 0 0 0 0 0
          0 0 0 0 0 0
          0 0 -2.5131419745871137e-8 -5.0262839491742274e-8 -5.0262839491742274e-8 -1.0052567898348455e-7
          -1.585941363286432e-8 -3.171882726572864e-8 -3.30611265623033e-8 -6.61222531246066e-8 -5.0262839491742274e-8 -1.0052567898348455e-7
          -1.585941363286432e-8 -3.171882726572864e-8 -7.92970681643216e-9 -1.585941363286432e-8 0 0
          -0.000003858670971173577 -0.00000394606684033132 -0.0000036878771781519195 -0.000003743009644934399 -0.000003517083385130262 -0.0000035399524495374786
          -0.00002685267137890628 -0.00002706635385045394 -0.000026447968791398055 -0.00002662222382823958 -0.00002604326620388983 -0.000026178093806025216
          -0.0000703037121829887 -0.00007053806848789424 -0.00006987791073500713 -0.00007008242656931603 -0.00006945210928702554 -0.00006962678465073782
          -0.00012128955911515037 -0.00012141158884802208 -0.00012091911963517537 -0.0001209639997620493 -0.00012054868015520036 -0.00012051641067607652
          -0.00017484652323588521 -0.00017552319031984926 -0.0001743873602079811 -0.00017490161761744965 -0.00017392819718007693 -0.00017428004491505002
          -0.00022310115055588754 -0.00022543725890724486 -0.00022268108675892835 -0.00022468741072789419 -0.00022226102296196912 -0.0002239375625485435
          -0.0002467793731665989 -0.000248683803689778 -0.00024770417887989664 -0.00024917162651250265 -0.0002486289845931944 -0.0002496594493352273
          -0.00022421271708641057 -0.00022154390967173008 -0.0002287003117455283 -0.00022556643546660257 -0.000233187906404646 -0.00022958896126147512
          0 0 0 -0.000001781865417464546 0 -0.000003563730834929092
          0 -0.000004757702943825522 -0.000009515405887651044 0 -0.0000029758375263609766 -0.000005951675052721953
          0 0 0 0 0 0
          0 0 0 0 0 0
          0 0 0 0 0 0
          0 0 0 0 0 0
          -0.000003650390449294998 -0.0000035649832063521006 -0.000003479575963409203 -0.000026257679266313254 -0.000026052112244726027 -0.000025846545223138802
          -0.00006955966515758525 -0.00006938214355634454 -0.00006920462195510384 -0.00012067998909044461 -0.00012065184672024517 -0.00012062370435004572
          -0.00017271098494351698 -0.00017292626993110764 -0.00017314155491869826 -0.00021670305736534284 -0.00021755658152151466 -0.00021841010567768645
          -0.000241682503994323 -0.00024424744630881706 -0.00024681238862331106 -0.000234115960264369 -0.0002403900475876312 -0.00024666413491089334
          0 0 0 0 0 0
          0 0 0 0 0 0
          0 0 0 0 0 0
          0 0 0 0 0 0
          0 0 0 0 0 0
          0 0 0 0 0 0
          -0.00000344997011552435 -0.00000348201803365161 -0.0000035140659517788707 -0.000025593677303699722 -0.000025753899322648587 -0.000025914121341597455
          -0.00006848814063113899 -0.00006881684161411439 -0.0000691455425970898 -0.0001192679534783779 -0.00011995099808941482 -0.00012063404270045177
          -0.0001692570005927405 -0.00017096576871687835 -0.00017267453684101616 -0.0002086087675225505 -0.00021217572298980238 -0.00021574267845705429
          -0.00023577357718126035 -0.0002419456516207933 -0.0002481177260603263 -0.00025269032057978567 -0.00026282696483915217 -0.0002729636090985187
          0 0 0 0 0 0
          0 0 0 0 0 0
          0 0 0 0 0 0
          0 0 0 0 0 0
          0 0 0 -5.6840511743305186e-8 -2.8420255871652593e-8 0
          -5.6840511743305186e-8 -2.8420255871652593e-8 0 0 0 0
          -0.000003352079596601079 -0.000003580747411282229 -0.000003809415225963379 -0.00002519722574001011 -0.000025912286056926964 -0.00002662734637384382
          -0.00006738688278854754 -0.00006856083000978536 -0.00006973477723102317 -0.00011715288143520502 -0.00011919787061854852 -0.00012124285980189203
          -0.00016565334331576143 -0.0001698982720153706 -0.00017414320071497977 -0.00020317484047963628 -0.00021096528384693066 -0.0002187557272142251
          -0.00023586124402557072 -0.00024777096602763323 -0.0002596806880296958 -0.00028233615829739245 -0.0002984535439725637 -0.00031457092964773495
          0 0 0 0 0 0
          0 0 0 0 0 0
          0 0 0 0 0 0
          0 0 0 0 0 0
          0 0 0 -5.6840511743305186e-8 -2.8420255871652593e-8 0
          -5.6840511743305186e-8 -2.8420255871652593e-8 0 0 0 0
          -0.0000034821664671553652 -0.000004137987901108928 -0.00000479380933506249 -0.00002543174366665267 -0.00002714824262245873 -0.00002886474157826479
          -0.00006687996116412582 -0.00006951781983664438 -0.00007215567850916293 -0.00011549816403606038 -0.0001197769849567446 -0.00012405580587742884
          -0.0001647608833607975 -0.0001723118327511487 -0.00017986278214149993 -0.0002072353756436742 -0.00021970340134318305 -0.0002321714270426919
          -0.00025349207077750264 -0.0002710656959477527 -0.0002886393211180028 -0.000334262121517917 -0.0003551715493804628 -0.0003760809772430086
          0 0 0 0 0 0
          0 0 0 0 0 0
          0 0 0 0 0 0
          0 0 0 0 0 0
          0 0 0 0 0 0
          0 0 0 0 0 0
          -0.000004493562205317603 -0.000005664644387507431 -0.0000068357265696972595 -0.000027745840122255925 -0.00003056976219004947 -0.00003339368425784301
          -0.0000691517041745494 -0.00007328640808652818 -0.00007742111199850696 -0.00011805639898403014 -0.00012441284463615788 -0.00013076929028828563
          -0.00017253102453699588 -0.00018231360935519583 -0.0001920961941733958 -0.00023039747420289014 -0.00024484429858208666 -0.00025929112296128317
          -0.00030130212441016775 -0.0003197433173735094 -0.00033818451033685107 -0.0004220290920713259 -0.0004401888957710061 -0.00045834869947068615
          0 0 0 0 0 0
          0 0 0 0 0 0
          0 0 0 0 0 0
          0 0 0 0 0 0
          0 0 0 0 0 0
          0 0 0 0 0 0
          -0.00000765054076346014 -0.00000885586209952512 -0.000010061183435590098 -0.00003488961778397589 -0.00003775121112007921 -0.000040612804456182526
          -0.00007812683748525517 -0.00008222028398278371 -0.00008631373048031225 -0.00013126320122269905 -0.00013708273880019063 -0.0001429022763776822
          -0.0001978303452503628 -0.00020541544919249727 -0.0002130005531346317 -0.0002821424241829792 -0.0002914271012669849 -0.0003007117783509906
          -0.0003928072754862622 -0.0004027737468468285 -0.00041274021820739484 -0.0005600353158552936 -0.0005661868647289637 -0.0005723384136026336
          -5.350030768793563e-7 -2.6750153843967813e-7 -2.6750153843967813e-7 -1.3375076921983906e-7 0 0
          0 0 0 0 0 0
          -4.403155822284421e-7 -2.2015779111422106e-7 0 -9.973094730159864e-7 -4.986547365079932e-7 0
          -5.569938907875443e-7 -2.7849694539377217e-7 0 0 0 0
          0 0 0 0 0 0
          0 0 0 -8.599146430384699e-7 -0.0000010040191378003088 -0.0000011481236325621478
          -0.000014679640203234384 -0.00001566728668023359 -0.000016654933157232794 -0.00004909385911632009 -0.00005107186040194048 -0.000053049861687560884
          -0.00009755968318232562 -0.00010014432469378065 -0.00010272896620523568 -0.00016080221329130653 -0.00016357947461556816 -0.00016635673593982977
          -0.0002469315499178544 -0.00024867342654409197 -0.0002504153031703295 -0.0003662021067936288 -0.0003652986766754611 -0.0003643952465572934
          -0.0005268489808363589 -0.0005224947336855102 -0.0005181404865346616 -0.0007431548630009991 -0.0007339686345139218 -0.0007247824060268445
          -0.0000011771600028543137 -5.885800014271569e-7 -9.937981095672405e-7 -5.118606968313343e-7 -8.104362162801676e-7 -4.3514139223551183e-7
          0 -1.4961642047714028e-8 -2.9923284095428056e-8 0 0 0
          -4.7619111723331767e-7 -2.3809555861665883e-7 0 -0.000001033185008020862 -5.16592504010431e-7 0
          -5.569938907875443e-7 -2.7849694539377217e-7 0 0 0 0
          0 0 0 0 0 0
          -0.0000023849753776335315 -0.000002593394358545881 -0.0000028018133394582302 -0.000014200123365123453 -0.000014917910756760583 -0.00001563569814839771
          -0.00004384037142953943 -0.00004512541768433465 -0.00004641046393912986 -0.00009197719826931269 -0.00009359221704924093 -0.00009520723582916919
          -0.00015691405258211075 -0.00015841078991090415 -0.00015990752723969755 -0.00024490739411330486 -0.00024540792202951833 -0.00024590844994573185
          -0.0003675596383863469 -0.0003655099902865957 -0.0003634603421868444 -0.0005389329120845309 -0.0005325070600834916 -0.0005260812080824524
          -0.0007694533708085844 -0.0007580576743970447 -0.0007466619779855049 -0.00106810611405087 -0.0010527112286771998 -0.0010373163433035296
          -0.0014633367531702276 -0.0014456127994805228 -0.0014278888457908178 -0.001980303091479644 -0.001962894933345804 -0.0019454867752119647
          -0.00005202294437634649 -0.00009815425618595763 -0.000053484335782728254 -0.00010174523976633562 -0.00005494572718911001 -0.00010533622334671358
          -0.000002945816283367673 -0.0000026117158995604462 -0.0000022776155157532195 0 0 0
          -3.587553500487553e-8 -1.7937767502437766e-8 0 -3.587553500487553e-8 -1.7937767502437766e-8 0
          0 0 0 -0.0004644846561156084 -0.00046430184354918506 -0.00046411903098276185
          -0.0006560779372675493 -0.0006538793510308232 -0.000651680764794097 -0.0009111752249092737 -0.0009064981952784332 -0.0009018211656475926
          -0.0012428834048802222 -0.0012359600910577812 -0.0012290367772353405 -0.0016596882666109758 -0.0016518465239929254 -0.0016440047813748753
          -0.0024060736209369155 -0.0024054958581077976 -0.0024049180952786797 -0.0021653363642750085 -0.0021586809995383805 -0.002152025634801753
          -0.0029631685506139394 -0.0029649717797582097 -0.0029667750089024804 -0.00276095796405294 -0.002757366980166967 -0.002753775996280994
          -0.0035685861819912553 -0.0035734613268477338 -0.0035783364717042127 -0.0034364848615245085 -0.0034371400906455054 -0.0034377953197665028
          -0.0042000303984371995 -0.004208311308131573 -0.004216592217825946 -0.0001768854199724103 -0.00016811229703190796 -0.00018693133438173545
          -0.00017747689133089012 -0.0001969772487910606 -0.00018684148562987232 -0.00020727314021534693 -0.00021937482484869146 -0.00023147650948203598
          -0.0002641777824379406 -0.0002797313886909928 -0.0002952849949440451 -0.0003491018047157244 -0.000368331525634578 -0.00038756124655343167
          -0.00046589995689006987 -0.000485870967678207 -0.0005058419784663442 -0.0006209426338407597 -0.0006340100808243726 -0.0006470775278079857
          -0.0008184956429870675 -0.0008181138597550606 -0.0008177320765230538 -0.0010537400981616484 -0.0010393542453600467 -0.001024968392558445
          -0.0014878697640156972 -0.0014714042835596679 -0.0014549388031036383 -0.002606276488728601 -0.0020387204720093794 -0.00259224515509436
          -0.00202292442385193 -0.002578213821460119 -0.0020071283756944803 -0.000056931913187881366 -0.0001039652814854401 -0.0000585170505515681
          -0.00010834092052556204 -0.00006010218791525484 -0.00011271655956568397 -0.0000049492724451613175 -0.000004346590288787085 -0.0000037439081324128525
          0 0 0 0 0 0
          0 0 0 -9.111070311834487e-7 -0.0000011074262433431934 -0.0000013037454555029382
          -3.4410477029137005e-8 -9.646298059038971e-8 -1.585154841516424e-7 -0.000010526867186446447 -0.00001118943706829593 -0.000011852006950145415
          -0.000004038966237453417 -0.0000044124013663823265 -0.000004785836495311236 -0.000016693594634851603 -0.000017385835490010418 -0.000018078076345169236
          -0.000039594165336797815 -0.000040631087873765235 -0.000041668010410732655 -0.00007853977208048069 -0.00008006525796578567 -0.00008159074385109064
          -0.00013713234821101874 -0.00013893466704874245 -0.00014073698588646616 -0.0002163289223919873 -0.00021803728682270922 -0.00021974565125343115
          -0.000322250278672918 -0.0003233506330832561 -0.0003244509874935941 -0.0008619747553992565 -0.000639745958323473 -0.0008606209777905266
          -0.0006394687996462459 -0.0008592672001817966 -0.0006391916409690189 -0.0011428444864636958 -0.0011405829771822524 -0.001138321467900809
          -0.00149094290926656 -0.0014883516258656436 -0.0014857603424647272 -0.0019121881802208365 -0.0019101217512772068 -0.001908055322333577
          -0.003110389022786766 -0.0026180641124617316 -0.0031116938648202124 -0.0026177044427270735 -0.0031129987068536586 -0.002617344772992415
          -0.0036261715332018404 -0.003629363751194526 -0.003632555969187211 -0.004142244446862517 -0.004147494162736838 -0.004152743878611159
          -0.004623082002710549 -0.00463069652786452 -0.0046383110530184915 -0.004159070254967766 -0.0033213311284058583 -0.004164660322085156
          -0.00331314363768561 -0.0041702503892025455 -0.003304956146965362 -0.004812152621033326 -0.004823885841146807 -0.004835619061260288
          -0.005015445314347599 -0.005025640668557626 -0.005035836022767654
        </DataArray>
        <DataArray type="Float64" Name="pe33" format="ascii" RangeMin="-0.005372050911605729" RangeMax="0">
          0 0 0 0 0 0
          -0.000002175496830531073 0 0 0 -0.000004350993661062146 0
          0 0 -0.00000552642584250948 0 -0.00001105285168501896 0
          0 0 -0.0000033509290119784063 0 -0.000006701858023956813 0
          0 0 0 0 0 0
          0 0 0 0 0 0
          0 0 0 0 0 0
          0 0 0 0 0 0
          0 0 0 0 0 0
          0 0 -2.6022080407439238e-8 -5.2044160814878476e-8 -5.2044160814878476e-8 -1.0408832162975695e-7
          -1.672626859447264e-8 -3.345253718894528e-8 -3.4385214704675556e-8 -6.877042940935111e-8 -5.2044160814878476e-8 -1.0408832162975695e-7
          -1.672626859447264e-8 -3.345253718894528e-8 -8.36313429723632e-9 -1.672626859447264e-8 0 0
          -0.000003970641780655823 -0.000004069432152787118 -0.0000037974821046403492 -0.000003860857306216162 -0.000003624322428624875 -0.000003652282459645205
          -0.000026978356586702787 -0.000027257636403616688 -0.000026560575470847166 -0.000026784214664114853 -0.000026142794354991542 -0.000026310792924613017
          -0.00006948841259715693 -0.00006984275034473544 -0.00006906202545341781 -0.00006933553794007676 -0.0000686356383096787 -0.00006882832553541808
          -0.00011734450948701938 -0.00011774852262558697 -0.0001169582643992457 -0.00011715743958053487 -0.00011657201931147203 -0.0001165663565354828
          -0.00016434075594008154 -0.00016536432036668214 -0.00016369604844464637 -0.00016438383923487958 -0.0001630513409492112 -0.000163403358103077
          -0.00020342363662109736 -0.00020587992310086128 -0.000202870609102396 -0.0002047420142346916 -0.00020231758158369465 -0.00020360410536852193
          -0.00021940794716970928 -0.0002212982223753617 -0.00022111158081807226 -0.0002221143725722326 -0.00022281521446643516 -0.0002229305227691035
          -0.00019738929532702755 -0.00019486311079190815 -0.00020458972679227375 -0.00020094069549844734 -0.00021179015825751994 -0.00020701828020498647
          0 0 0 -0.000002175496830531073 0 -0.000004350993661062146
          0 -0.00000552642584250948 -0.00001105285168501896 0 -0.0000033509290119784063 -0.000006701858023956813
          0 0 0 0 0 0
          0 0 0 0 0 0
          0 0 0 0 0 0
          0 0 0 0 0 0
          -0.0000037373311450408215 -0.000003655028628471249 -0.000003572726111901677 -0.00002623882541147474 -0.0000260565712340271 -0.000025874317056579453
          -0.0000684522335118481 -0.0000683590615110668 -0.00006826588951028551 -0.00011614825849503554 -0.00011629344619641486 -0.00011643863389779417
          -0.00016141060602929778 -0.00016186445031309175 -0.00016231829459688573 -0.00019666591895237988 -0.0001982179710897862 -0.00019977002322719257
          -0.00021449016608227195 -0.00021926754084733208 -0.00022404491561239223 -0.00020718136373140244 -0.000218437772025932 -0.00022969418032046154
          0 0 0 0 0 0
          0 0 0 0 0 0
          0 0 0 0 0 0
          0 0 0 0 0 0
          0 0 0 0 0 0
          0 0 0 0 0 0
          -0.000003506300132085816 -0.000003547519934254896 -0.0000035887397364239758 -0.000025400020607535312 -0.00002564235602981582 -0.000025884691452096333
          -0.00006701797834348476 -0.000067548361659198 -0.00006807874497491126 -0.00011413020065894673 -0.00011522420260543068 -0.00011631820455191461
          -0.00015706944230487211 -0.00015975700494065488 -0.0001624445675764376 -0.00018818797869611976 -0.0001940108367048745 -0.00019983369471362924
          -0.00020950337296778864 -0.0002205274342262952 -0.00023155149548480177 -0.00022768592105804788 -0.0002474394480576894 -0.00026719297505733086
          0 0 0 0 0 0
          0 0 0 0 0 0
          0 0 0 0 0 0
          0 0 0 0 0 0
          0 0 0 -6.545793932642563e-8 -3.2728969663212817e-8 0
          -6.545793932642563e-8 -3.2728969663212817e-8 0 0 0 0
          -0.000003374165961173801 -0.000003620104689075833 -0.0000038660434169778655 -0.000024804241151706743 -0.00002571681338826452 -0.000026629385624822292
          -0.00006546208908629465 -0.00006715262097640877 -0.00006884315286652291 -0.00011131292471277835 -0.0001144190418336034 -0.00011752515895442845
          -0.0001528410156628746 -0.0001594138402237728 -0.00016598666478467096 -0.00018330349565782487 -0.00019581197629520023 -0.0002083204569325756
          -0.00021291653167349224 -0.000233991399426463 -0.0002550662671794338 -0.0002662705569145443 -0.0002999509476993247 -0.0003336313384841051
          0 0 0 0 0 0
          0 0 0 0 0 0
          0 0 0 0 0 0
          0 0 0 0 0 0
          0 0 0 -6.545793932642563e-8 -3.2728969663212817e-8 0
          -6.545793932642563e-8 -3.2728969663212817e-8 0 0 0 0
          -0.0000034717969152522416 -0.0000041521993164367635 -0.000004832601717621286 -0.000024862573909389298 -0.0000268566599982239 -0.00002885074608705851
          -0.00006463352438292435 -0.00006816771901084351 -0.00007170191363876269 -0.00010954422894065703 -0.00011588736828054728 -0.00012223050762043755
          -0.00015306228800918712 -0.00016484200704722625 -0.00017662172608526541 -0.0001915183011422953 -0.0002121416781716763 -0.0002327650552010573
          -0.00024162387444495628 -0.00027443062983284873 -0.00030723738522074124 -0.00034610754572330374 -0.0003947932254199069 -0.00044347890511651
          0 0 0 0 0 0
          0 0 0 0 0 0
          0 0 0 0 0 0
          0 0 0 0 0 0
          0 0 0 0 0 0
          0 0 0 0 0 0
          -0.0000044491175660976755 -0.000005656216470855684 -0.000006863315375613693 -0.000027132357190730925 -0.00003029436825479059 -0.00003345637931885025
          -0.0000672715225318104 -0.00007259189603435633 -0.00007791226953690223 -0.00011410904357010236 -0.00012329979648372145 -0.00013249054939734053
          -0.00016700360619905703 -0.00018257168326029234 -0.0001981397603215276 -0.00022982092497971852 -0.00025533449892190836 -0.0002808480728640982
          -0.0003235245078916433 -0.00036133340173667906 -0.0003991422955817149 -0.0005080472428415831 -0.0005574324310892464 -0.0006068176193369098
          0 0 0 0 0 0
          0 0 0 0 0 0
          0 0 0 0 0 0
          0 0 0 0 0 0
          0 0 0 0 0 0
          0 0 0 0 0 0
          -0.000007606101936701824 -0.000008867279277778512 -0.000010128456618855201 -0.00003470123713582723 -0.00003795111214501636 -0.00004120098715420548
          -0.0000783797240119631 -0.00008365211285475829 -0.00008892450169755349 -0.00013405702526479745 -0.00014241295360672526 -0.00015076888194865304
          -0.00021038193153110314 -0.00022273067395895665 -0.0002350794163868102 -0.0003242463977496205 -0.000341478308618432 -0.00035871021948724347
          -0.0005040750232855439 -0.0005251809432013217 -0.0005462868631170994 -0.0008117992272277533 -0.0008297359578294363 -0.0008476726884311191
          -6.54699124718661e-7 -3.273495623593305e-7 -3.273495623593305e-7 -1.6367478117966526e-7 0 0
          0 0 0 0 0 0
          -4.7176684483950836e-7 -2.3588342241975418e-7 0 -0.0000010703520258803752 -5.351760129401876e-7 0
          -5.985851810408669e-7 -2.9929259052043345e-7 0 0 0 0
          0 0 0 0 0 0
          0 0 0 -8.831176619349867e-7 -0.0000010389845771011946 -0.0000011948514922674026
          -0.000014887404270243483 -0.00001601062320810621 -0.000017133842145968934 -0.00005051290568349599 -0.000053032763452500474 -0.00005555262122150496
          -0.00010333367881578625 -0.0001072220912887332 -0.00011111050376168016 -0.00017891495386718813 -0.00018412378163348622 -0.00018933260939978428
          -0.0002981027922652083 -0.00030350768218223047 -0.0003089125720992527 -0.0004947927371944978 -0.0004976275170394709 -0.0005004622968844437
          -0.000805300317801717 -0.0008019199987421851 -0.0007985396796826533 -0.0012698624935447073 -0.0012524406207971668 -0.0012350187480496262
          -0.000001336731616955159 -6.683658084775795e-7 -0.0000010959625673153843 -5.629088202379311e-7 -8.551935176756092e-7 -4.574518319982828e-7
          0 -1.492753658023908e-8 -2.985507316047816e-8 0 0 0
          -5.097757229200699e-7 -2.5488786146003497e-7 0 -0.0000011083609039609369 -5.541804519804684e-7 0
          -5.985851810408669e-7 -2.9929259052043345e-7 0 0 0 0
          0 0 0 0 0 0
          -0.0000024672850604672006 -0.0000027035216189422453 -0.0000029397581774172904 -0.000014749157661766826 -0.000015628985861250268 -0.000016508814060733714
          -0.00004612306697218917 -0.000047933927003978554 -0.000049744787035767934 -0.00009924065462638842 -0.00010215751746526086 -0.0001050743803041333
          -0.00017712971989859543 -0.0001812420465746177 -0.00018535437325064002 -0.00029586513198270686 -0.0003008518249288005 -0.0003058385178748941
          -0.0004846150150481848 -0.0004890356495088433 -0.0004934562839695017 -0.0007833852259909894 -0.0007839268678519322 -0.000784468509712875
          -0.0012263377406480592 -0.0012189025490516071 -0.0012114673574551548 -0.0018281612073092722 -0.0018074871141066237 -0.0017868130209039755
          -0.0026061635971603085 -0.002564720129159159 -0.002523276661158009 -0.0035326961308886585 -0.0034657284000176596 -0.0033987606691466606
          -0.00005943295974385417 -0.00011197147879445594 -0.00006558084991930614 -0.00012516214411040217 -0.00007172874009475813 -0.0001383528094263484
          -0.0000034472203466262044 -0.0000029997778641050637 -0.000002552335381583923 0 0 0
          -3.800887808056159e-8 -1.9004439040280794e-8 0 -3.800887808056159e-8 -1.9004439040280794e-8 0
          0 0 0 -0.0005819059064755761 -0.0005892606270711253 -0.0005966153476666744
          -0.0008670308918196239 -0.0008742153911527754 -0.000881399890485927 -0.0012616035934645907 -0.0012663972039323366 -0.0012711908144000827
          -0.0017801261742535711 -0.0017792870050122422 -0.0017784478357709135 -0.0024143253296198047 -0.002404665783923398 -0.002395006238226991
          -0.002991719690680867 -0.002987887893804107 -0.002984056096927347 -0.0031346473501952447 -0.0031136399246564582 -0.0030926324991176718
          -0.0035629605346183526 -0.0035551945995432464 -0.0035474286644681394 -0.0038977333108368424 -0.003864217602710603 -0.0038307018945843638
          -0.004105305395068009 -0.004094225830769853 -0.004083146266471697 -0.004637889779359599 -0.004593720119976585 -0.004549550460593572
          -0.0045822151666828105 -0.004568153746123198 -0.004554092325563586 -0.00015910877806695855 -0.00015026654068012513 -0.00017517345056497518
          -0.00016462968998845096 -0.00019123812306299175 -0.00017899283929677682 -0.0001905911310818092 -0.00021241260210612018 -0.00023423407313043118
          -0.0002542280180775582 -0.00028758329286516083 -0.00032093856765276344 -0.00036330414538607373 -0.0004139138389087645 -0.00046452353243145526
          -0.0005448091821705119 -0.0006108291470816936 -0.0006768491119928752 -0.0008447089638499296 -0.0009030528939299966 -0.0009613968240100636
          -0.001313758907866972 -0.001321936640640221 -0.00133011437341347 -0.001945653782385215 -0.0019048798914650393 -0.0018641060005448638
          -0.002828684436632016 -0.002760420457316503 -0.0026921564780009897 -0.004492375088302474 -0.0038205863899640293 -0.004403211185896001
          -0.0037249002676018744 -0.004314047283489528 -0.0036292141452397182 -0.00006469738681080154 -0.00011808985728943274 -0.00007135919511255198
          -0.0001329723765505399 -0.0000780210034143024 -0.00014785489581164708 -0.000005652458166085173 -0.0000048730068372820144 -0.0000040935555084788566
          0 0 0 0 0 0
          0 0 0 -9.389045005337067e-7 -0.0000011504101359426054 -0.000001361915771351504
          -3.54589264730268e-8 -1.0047424803188187e-7 -1.6548956959073696e-7 -0.00001080490166668583 -0.000011589314381539561 -0.000012373727096393293
          -0.000004148507866577755 -0.000004562785322435155 -0.0000049770627782925555 -0.000017206173016195735 -0.000018060668497427397 -0.000018915163978659062
          -0.00004135424795543412 -0.000042821776740989645 -0.00004428930552654518 -0.00008347817120976688 -0.00008597465675179547 -0.00008847114229382404
          -0.00014958176992738804 -0.000153289340839514 -0.00015699691175163997 -0.0002448929230587283 -0.0002499464423054164 -0.0002549999615521045
          -0.00038252591548275616 -0.00038892308913543455 -0.0003953202627881129 -0.00107607958564041 -0.0007769782378992712 -0.0010835463901254494
          -0.0007845436061857999 -0.0010910131946104892 -0.0007921089744723283 -0.001452799668822146 -0.0014590664066242436 -0.0014653331444263412
          -0.0019068729926024072 -0.0019107299775186987 -0.0019145869624349904 -0.0024278539195068433 -0.0024281770094220483 -0.002428500099337253
          -0.0034975716389726813 -0.003043214237787409 -0.003489579030412366 -0.003037286997467104 -0.0034815864218520507 -0.0030313597571467983
          -0.003912787430888857 -0.0039034605442154193 -0.003894133657541981 -0.0042609244582625045 -0.004250713051986526 -0.004240501645710549
          -0.004512045957313164 -0.004501086414800099 -0.004490126872287035 -0.005274745623101472 -0.005372050911605729 -0.0052246952589855185
          -0.005272569181810548 -0.005174644894869565 -0.005173087452015367 -0.004946884906267131 -0.004929936938279356 -0.004912988970291581
          -0.004631522304725829 -0.004619740809307516 -0.004607959313889204
        </DataArray>
        <DataArray type="Float64" Name="disp_x" format="ascii" RangeMin="0" RangeMax="0.00001968451684663837">
          0 1.3658453908202328e-7 1.3785927189725795e-7 0 0 1.3650386362079878e-7
          1.379345999072495e-7 0 0 1.3614934880332523e-7 1.385029829471631e-7 0
          1.407308649083904e-7 0 1.4037139049835508e-7 0 1.3642875376770213e-7 0
          1.4112441795317826e-7 0 1.4120181496927718e-7 0 1.4135211252726458e-7 0
          1.3945339633204613e-7 0 1.3954154810247957e-7 0 1.3985754462996942e-7 0
          1.3092860033751378e-7 0 1.316494024082033e-7 0 1.3350301001721453e-7 0
          1.2573386426398093e-7 0 1.2650771844967295e-7 0 1.2856943970637574e-7 0
          1.2618812743197696e-7 0 1.2661672185025829e-7 0 1.2771718118803435e-7 0
          1.296792665747093e-7 0 1.2981054024768466e-7 0 1.301291095080097e-7 0
          1.3312901189611746e-7 0 1.3307807833862264e-7 0 1.3294315955321188e-7 0
          1.3558404081340152e-7 0 1.3548140394698117e-7 0 1.3515161593343766e-7 0
          1.3783070613403437e-7 0 1.3771087965913708e-7 0 1.3736829045982516e-7 0
          1.4161417822575e-7 0 1.4151609574515549e-7 0 1.412321060094966e-7 0
          1.4843059168070946e-7 0 1.4832671373883745e-7 0 1.4801949208514935e-7 0
          1.5820541779905624e-7 0 1.5803568885970507e-7 0 1.5773670675089328e-7 0
          1.690672819164742e-7 0 1.6887727117057024e-7 0 1.686472242344701e-7 0
          1.8029482377986232e-7 0 1.800417995123838e-7 0 1.7950317361680035e-7 0
          1.9132266549422062e-7 0 1.9097855310879643e-7 0 1.8983548605316299e-7 0
          1.975779696385688e-7 0 1.9738531128545075e-7 0 1.96587529822181e-7 0
          1.8923753609382984e-7 0 1.9024620507955905e-7 0 1.935024150459929e-7 0
          2.729921934882267e-7 2.7583438278534827e-7 2.7294594474518456e-7 2.7569531898624437e-7 2.7304059326770836e-7 2.7493107165240104e-7
          2.8021965499275313e-7 2.812645571828474e-7 2.861933598453494e-7 2.821572882217044e-7 2.822399727062994e-7 2.8241362471034207e-7
          2.7898571541645757e-7 2.791696448626177e-7 2.796872614806029e-7 2.63036624579086e-7 2.640245209632036e-7 2.6754232336299516e-7
          2.5264939622779094e-7 2.541483553764539e-7 2.582026359775939e-7 2.5274924582484534e-7 2.5369621184948614e-7 2.561379931090433e-7
          2.5940829173039615e-7 2.5971044587068694e-7 2.6045973900755527e-7 2.661267370766628e-7 2.6606602642266387e-7 2.658784697033785e-7
          2.709402851020618e-7 2.707446715294621e-7 2.7012172783633207e-7 2.754665293992795e-7 2.75241838654794e-7 2.745785514068368e-7
          2.8311617149533713e-7 2.8292288078232705e-7 2.8239412875583796e-7 2.967496268428168e-7 2.9655269895356665e-7 2.9605385253047313e-7
          3.161884208975016e-7 3.1590101101943134e-7 3.1521555221760753e-7 3.3798550971738e-7 3.3782162664073713e-7 3.3744046608429993e-7
          3.6038417917649395e-7 3.5998985374721274e-7 3.591625521765948e-7 3.813532690227374e-7 3.807806163403044e-7 3.791443634548614e-7
          3.9309442724777487e-7 3.932338924580963e-7 3.928706836833304e-7 3.7998977142961937e-7 3.8231291840203814e-7 3.895344370274372e-7
          4.092840616192546e-7 4.136301525617683e-7 4.0918266618405915e-7 4.134351972288384e-7 4.08868694218909e-7 4.13105441842799e-7
          4.2022222346678387e-7 4.2171351361406227e-7 4.236965667428127e-7 4.2297792514555074e-7 4.231056959002459e-7 4.234379272003954e-7
          4.186609446590345e-7 4.1891862604022754e-7 4.195325141672247e-7 3.9748745358316135e-7 3.983185713077684e-7 4.024718129810885e-7
          3.823930769828679e-7 3.839212670873478e-7 3.8950375894255827e-7 3.8028244954349165e-7 3.8180081461867554e-7 3.857950990476053e-7
          3.8930528380925525e-7 3.898537097109091e-7 3.912465587984412e-7 3.9887877794567713e-7 3.988631905723578e-7 3.987392878180777e-7
          4.0583526353399875e-7 4.055824600311373e-7 4.047674009006299e-7 4.126989583714188e-7 4.1240443512297744e-7 4.115223785096007e-7
          4.2438030927735263e-7 4.2413820630360084e-7 4.234987315218311e-7 4.4484822371224356e-7 4.4463031399424653e-7 4.441001793018925e-7
          4.737016801774411e-7 4.734130069511761e-7 4.72833892595735e-7 5.067359017200951e-7 5.066715901744466e-7 5.063098846716191e-7
          5.398543300570769e-7 5.396454670446779e-7 5.391976183565038e-7 5.689891888794988e-7 5.68838955624422e-7 5.685601427841168e-7
          5.849770555663343e-7 5.86326849035313e-7 5.891857215806117e-7 5.734924222923631e-7 5.78157047370117e-7 5.919627210530533e-7
          5.453270189893097e-7 5.512535080700231e-7 5.451045558840789e-7 5.511431609586892e-7 5.445102647969155e-7 5.508897069865133e-7
          5.607684235025151e-7 5.613674233967928e-7 5.621415808015777e-7 5.636348449280717e-7 5.637783854534623e-7 5.641219714474678e-7
          5.583226102848637e-7 5.586013899834284e-7 5.592976056076805e-7 5.365820034764749e-7 5.374173629709393e-7 5.407251011845571e-7
          5.159565831516318e-7 5.169677949414447e-7 5.224418191196617e-7 5.102359370436262e-7 5.116913475099732e-7 5.170055077385273e-7
          5.195707892218142e-7 5.204780712410454e-7 5.227079625251961e-7 5.313422558668563e-7 5.314371072027666e-7 5.315807563127422e-7
          5.40064486415315e-7 5.398363743503002e-7 5.390387011773009e-7 5.493355765066334e-7 5.490685825709902e-7 5.482265300137611e-7
          5.653242586616186e-7 5.651390217464249e-7 5.646564618325362e-7 5.926563347976369e-7 5.925802563245673e-7 5.923823670043125e-7
          6.30748659840877e-7 6.307389833308836e-7 6.306195007549071e-7 6.749910143230104e-7 6.751251143395578e-7 6.753358167704644e-7
          7.182603020708039e-7 7.188786701740377e-7 7.202821833636093e-7 7.537682920020677e-7 7.553964521012585e-7 7.596462279063803e-7
          7.734319432256619e-7 7.777230196548114e-7 7.886576146979758e-7 7.689423448573325e-7 7.781529898815934e-7 8.043411266224397e-7
          6.808344317464245e-7 6.887984556736658e-7 6.805608148345225e-7 6.886948653195704e-7 6.795896698247843e-7 6.88369670191405e-7
          7.009152131585528e-7 7.011801978686394e-7 7.015497736939176e-7 7.042374898403341e-7 7.043754429830457e-7 7.047245148243346e-7
          6.978462961489223e-7 6.980934326558807e-7 6.987273680622617e-7 6.776543179044646e-7 6.784797837115024e-7 6.805866118824204e-7
          6.566989819514704e-7 6.577622190275661e-7 6.616111687128639e-7 6.434925255240352e-7 6.443388367001873e-7 6.494883257630157e-7
          6.50877641750267e-7 6.520586912260155e-7 6.551843582159008e-7 6.634809050320973e-7 6.637795798700685e-7 6.644372017331224e-7
          6.735252399001642e-7 6.734715780552859e-7 6.730539493823463e-7 6.852678314673508e-7 6.852040567732319e-7 6.848433055374484e-7
          7.059284478754511e-7 7.060021762657313e-7 7.061570585674514e-7 7.402343098071427e-7 7.405552976496042e-7 7.412684479677728e-7
          7.873302196123505e-7 7.87923063836755e-7 7.890774548967857e-7 8.421245036904249e-7 8.43162853231807e-7 8.454235174971545e-7
          8.953017022377352e-7 8.977823068782011e-7 9.03579756220997e-7 9.368180855026581e-7 9.420932914880901e-7 9.553480391622143e-7
          9.608629618288118e-7 9.704367712663833e-7 9.963348186609665e-7 9.698507410662612e-7 9.878417042375914e-7 0.0000010347370480770694
          8.154280335479471e-7 8.261539733340905e-7 8.15289628020571e-7 8.26104554834986e-7 8.13861459659984e-7 8.257111171723445e-7
          8.411294289912239e-7 8.41283103232271e-7 8.415880955408847e-7 8.447932657956555e-7 8.449293701012484e-7 8.452965400459727e-7
          8.375734385467617e-7 8.377695625206935e-7 8.383085366779363e-7 8.187748806979247e-7 8.194269000597922e-7 8.20575935067692e-7
          7.9888601526611e-7 7.998746010690739e-7 8.019033196369276e-7 7.837829276588904e-7 7.84648155713525e-7 7.882620927341314e-7
          7.837239672829753e-7 7.846472000595051e-7 7.882373921886628e-7 7.956107851313964e-7 7.962303108677623e-7 7.975957367305373e-7
          8.062738366223285e-7 8.065582318863309e-7 8.06996748416228e-7 8.206340463982216e-7 8.209978594977889e-7 8.216981909716358e-7
          8.463859957253268e-7 8.469973035226057e-7 8.484393585618792e-7 8.878245067271482e-7 8.888771712790175e-7 8.91326594485811e-7
          9.435766850844243e-7 9.452376416746712e-7 9.489922785242159e-7 0.0000010083634262857885 0.0000010112531993519722 0.0000010179166639973464
          0.0000010716609301297728 0.0000010772399389921554 0.0000010908067539314843 0.0000011217030873594694 0.0000011322848105385115 0.00000115926557765261
          0.0000011543948815323554 0.0000011714623894563318 0.0000012194059982107495 0.0000011859755192712663 0.00000121506245417482 0.0000012896543565000873
          9.482733851145069e-7 9.632225114484374e-7 9.489181200125023e-7 9.633879994605216e-7 9.473292385712747e-7 9.631569550657113e-7
          9.816837119762808e-7 9.818463583571306e-7 9.822246519474911e-7 9.853715943536875e-7 9.8551830342255e-7 9.85919440789466e-7
          9.774533138640438e-7 9.77585021334153e-7 9.780176443207411e-7 9.596801937290624e-7 9.602709988257123e-7 9.609190998390506e-7
          9.411522759187512e-7 9.417005100495679e-7 9.42548189233837e-7 9.26015000573291e-7 9.268858573411724e-7 9.287089076494173e-7
          9.195169199773661e-7 9.200552386545231e-7 9.231826549475223e-7 9.282421091490736e-7 9.290764085661232e-7 9.311483648072922e-7
          9.387297403015887e-7 9.394131933960281e-7 9.410997816546606e-7 9.560429575581785e-7 9.569304461073047e-7 9.591966823239038e-7
          9.87347829518756e-7 9.886301574792703e-7 9.919507921359136e-7 0.000001036197056314538 0.0000010381334015368052 0.0000010430776193519835
          0.0000011005822644235935 0.0000011035205249149695 0.0000011112232459542904 0.0000011756584569461535 0.0000011806850708700346 0.0000011937534534012348
          0.0000012510275887724819 0.0000012598467482148024 0.000001283671041883025 0.0000013162581729448444 0.000001331190898429321 0.0000013739883495125855
          0.0000013686005358017597 0.0000013927048131036586 0.000001464211034112924 0.0000014358675480475885 0.000001467857516030871 0.0000015726453452749546
          0.0000010772994418875646 0.000001099907456873685 0.000001080971959589646 0.0000011005704133626195 0.0000010807579374008724 0.0000011012228426005542
          0.000001122795692726502 0.0000011230692814008481 0.00000112362032372459 0.000001125954113359314 0.0000011261361924522335 0.0000011265794230965996
          0.0000011174297237661333 0.0000011174658322642923 0.0000011178266424612465 0.0000011002603976953767 0.0000011011117036863113 0.0000011013506092451733
          0.0000010831836401879795 0.0000010833745282863257 0.0000010836269295362187 0.000001068406580777665 0.0000010689259751787313 0.0000010696080033938104
          0.0000010594047003676948 0.0000010598991967418677 0.0000010619171589240762 0.0000010619489991441454 0.0000010625785980994951 0.0000010649853358217012
          0.0000010720058118821832 0.0000010727620766675356 0.0000010756696634189619 0.0000010927308685134526 0.0000010937671160179723 0.0000010976340684954527
          0.000001130210383010849 0.0000011316669096377587 0.000001136939793498788 0.0000011871092771768225 0.0000011892711723028982 0.0000011968170905023906
          0.000001261072190562096 0.0000012643779139440124 0.0000012762382644794942 0.0000013486482814422882 0.0000013540749261208813 0.0000013733683100182996
          0.0000014417009040156712 0.0000014504338866191413 0.0000014828053937419115 0.0000015337339438688021 0.0000015475879495145548 0.0000016007803184660216
          0.0000016265861726182515 0.0000016475864830000107 0.0000017306172320025435 0.0000017541763167541697 0.000001781867936196908 0.0000018959488910156067
          0.0000012034985330504765 0.0000012366980530857278 0.0000012074527400350316 0.0000012375594386184114 0.0000012150691008367425 0.00000124068130848389
          0.0000012647395059704118 0.0000012651152995790297 0.0000012660546305270455 0.00000126645148206946 0.0000012666146763368912 0.0000012671190119925608
          0.0000012572107309304127 0.000001257411150164331 0.0000012577114567101318 0.0000012421352391358075 0.0000012417973889320714 0.0000012418333404117818
          0.0000012247380011514482 0.0000012248463394480512 0.0000012248916052639628 0.0000012106125004321523 0.0000012107991659070187 0.0000012109363940852295
          0.0000012001342764078555 0.0000012005988287303088 0.0000012012983839295255 0.0000011975360202644267 0.0000011981392961862423 0.0000012001528923552325
          0.0000012070039566163514 0.0000012079806318136332 0.0000012112071566493143 0.0000012317488122225965 0.0000012331368609580034 0.0000012376448962416418
          0.0000012760389203849048 0.0000012779468802862282 0.0000012840163438469243 0.000001341899993588962 0.00000134465032719827 0.0000013533670158237863
          0.0000014275136752612347 0.0000014317395587857903 0.0000014452607639710132 0.0000015315093812243014 0.0000015380213810503875 0.0000015590421767692867
          0.00000165029706631904 0.000001660135115185483 0.0000016923599782109548 0.0000017832605691592345 0.0000017979203986878342 0.0000018462867773437226
          0.000001941581193320773 0.0000019625503881255198 0.0000020309701423226637 0.0000021528882682041743 0.000002180234485139003 0.0000022734299543842355
          0.0000024932159892023536 0.000002523369604402439 0.0000026305288218933507 0.0000030251793927388716 0.0000030610298504479196 0.000003176028520617374
          0.000001801551362330837 0.00000173911515184986 0.0000018036363615229849 0.0000017262532019049703 0.000001807457073068973 0.0000017395041396823502
          0.000001831111146481703 0.000001831212386115525 0.0000018320286062550609 0.0000018272556499414301 0.0000018273692769018648 0.0000018278788851701012
          0.0000018167548619362706 0.0000018167983409387918 0.0000018172172141050096 0.0000018034983880232085 0.0000018034903761606095 0.0000018035558538209696
          0.0000017899111060307336 0.000001789776992478964 0.000001789499275159528 0.000002395870234289199 0.000002406174285036383 0.000002435288590706722
          0.000002678528378567203 0.000002691510867342185 0.0000027275902339016822 0.000003055555909740729 0.000003070942435219792 0.000003112102249280574
          0.0000035606595320256382 0.000003577514711815609 0.0000036196045743264976 0.000004233011858429612 0.000004250991078033614 0.000004289606359201016
          0.0000069094729256247355 0.000006919166683887322 0.000006958195400462576 0.000005136595741762162 0.000005152694449666724 0.00000518235073655709
          0.000008360320936012093 0.000008364758087019777 0.000008390324986203658 0.00000632833016446035 0.000006340493952941466 0.000006352823682901383
          0.000010125707328141983 0.00001012418036141206 0.000010134129577127299 0.000007851024102884493 0.000007857464833607557 0.000007850735313412358
          0.000012231909515969371 0.000012224031004555502 0.000012215108694188628 1.7311809797945091e-7 0 1.7595140612895823e-7
          0 1.8468884687250523e-7 0 3.4920131089947325e-7 3.5510923705118593e-7 3.7487544545911894e-7
          5.354779868562726e-7 5.458421285671644e-7 5.805071773821537e-7 7.399143348887343e-7 7.578150174904507e-7 8.125761686646041e-7
          9.66438967156727e-7 9.954390268038016e-7 0.0000010786050871701016 0.0000012304334387555977 0.0000012715190768506207 0.0000013901229203030461
          0.0000015575583884800648 0.0000016050811747409651 0.0000017445546226086528 0.000001978662932204599 0.000002011048769080322 0.000002151923206982926
          0.000002332740960429994 0.0000023743641772347226 0.0000025387655663979183 0.000003833975234167115 0.0000029556541600437773 0.000003869007792657349
          0.0000030001556271723383 0.000003982249421347368 0.000003172411917091153 0.000002416796273185778 0.0000024739115164342484 0.0000024151483913029852
          0.000002481744764587871 0.0000024118594487357104 0.0000024654635463176908 0.000002394678800743188 0.000002394384628814329 0.0000023930481324231547
          0.0000023882653131578674 0.0000023879056419616315 0.0000023869025779884937 0.0000023769985505676077 0.00000237667670230306 0.0000023757936760460745
          0.0000023644432145741537 0.0000023642872114198487 0.0000023637011603973917 0.00000235284943547344 0.0000023531523826897944 0.000002353211487498323
          0.0000017769499248754047 0.000001777041504014757 0.0000017768469331358998 0.000002341122608015024 0.000002341498237803486 0.000002342781554935391
          0.0000017633153733750244 0.0000017636094439188126 0.0000017642675161570885 0.0000017552977437355457 0.0000017564114256599677 0.0000017596268129647347
          0.0000017735462952716515 0.0000017755574644704765 0.0000017812641615750775 0.0000018225060104906056 0.0000018254634859652852 0.0000018337911205304024
          0.0000019047095448603134 0.0000019086700368310323 0.000001920295265465429 0.000002022802460660859 0.0000020284543110807325 0.000002044663776668907
          0.0000021833008030712613 0.0000021910219117600366 0.0000022130444141155486 0.0000035739582104259413 0.0000031728938387865705 0.000003587885387187755
          0.0000031847687981166687 0.000003632043290564979 0.0000032219156742584136 0.000004111203187677355 0.000004126457832503111 0.00000417585407500007
          0.000004820444327490878 0.00000483578116344033 0.000004886944551658923 0.000005740630260121196 0.000005754221685881516 0.000005802298856874638
          0.000010189703725558837 0.000008557755945902554 0.000010200970507788551 0.00000857202596013794 0.000010233135485047952 0.000008613493620303295
          0.000012115002324755135 0.000012122159768727087 0.000012142358606768715 0.000014343088267545221 0.000014345617121716888 0.000014351799630052808
          0.000016873074187251458 0.000016870032736593587 0.000016860305836796736 0.000009759248195431546 0.0000050469079991039045 0.000009759551512862283
          0.000005077232879660656 0.00000973518420104747 0.000005173833170564157 0.000014693021018458688 0.000014678907756696712 0.000014650341968182404
          0.00001968451684663837 0.000019675348253879253 0.000019648031507933573
        </DataArray>
        <DataArray type="Float64" Name="disp_y" format="ascii" RangeMin="-0.00001575447587649314" RangeMax="0">
          0 0 -1.5373024003001838e-7 -1.538609330395975e-7 0 0
          -1.5362295995931453e-7 -1.5376962344534535e-7 0 0 -1.5278768746674425e-7 -1.5369998659789314e-7
          -3.128017731455805e-7 -3.1291762149800966e-7 -3.1267436538572537e-7 -3.1282544963449505e-7 -3.123567017480495e-7 -3.1274839256890177e-7
          -4.768647422573566e-7 -4.770969924478792e-7 -4.770576572529096e-7 -4.772604225841558e-7 -4.779224500771491e-7 -4.77069298299499e-7
          -6.419416826775774e-7 -6.426379259452235e-7 -6.42368975647261e-7 -6.430784295487914e-7 -6.438350487759034e-7 -6.448789296119219e-7
          -8.000537590458536e-7 -8.007332542313931e-7 -8.005679727553204e-7 -8.012890465172493e-7 -8.030126730404441e-7 -8.038264278171741e-7
          -9.437107229356765e-7 -9.437672086642151e-7 -9.441158548065991e-7 -9.442083318294441e-7 -9.451085885658165e-7 -9.451938880029573e-7
          -0.0000010800414153048669 -0.0000010795926219054094 -0.0000010800456891144594 -0.0000010795867360141134 -0.0000010796288741332295 -0.0000010790722453363644
          -0.0000012157532208778912 -0.000001215179329140129 -0.0000012154916435676043 -0.0000012148949457411428 -0.0000012143085706626819 -0.0000012136394205411585
          -0.0000013541380628545695 -0.000001353587382715502 -0.0000013538167423832727 -0.0000013532683056528938 -0.0000013527142042785053 -0.0000013521463827605626
          -0.0000014949369613402637 -0.0000014944859866214503 -0.0000014946323248981541 -0.0000014941932934274956 -0.0000014937239187777663 -0.0000014932755951854026
          -0.000001638178965224202 -0.0000016377855676984255 -0.0000016377713855424203 -0.0000016373976735760672 -0.0000016366466548531436 -0.000001636296664307111
          -0.0000017868204114839764 -0.0000017863462862868843 -0.0000017861868720087623 -0.0000017857256403565606 -0.0000017843295703097635 -0.0000017839081304709573
          -0.0000019471324837944315 -0.0000019464917519642362 -0.000001946222726716645 -0.00000194562124126282 -0.000001943483393421718 -0.0000019428426123461733
          -0.0000021267269197573366 -0.0000021260242492937953 -0.000002125634117528281 -0.000002124965069864547 -0.000002122257774471619 -0.000002121598592075052
          -0.000002331138875336437 -0.0000023304312911981056 -0.0000023299942172552735 -0.0000023292847559030732 -0.0000023265152993845527 -0.0000023259015024226446
          -0.000002562330496969128 -0.0000025614754924725648 -0.0000025613281997642586 -0.000002560495220961357 -0.000002558196439350745 -0.0000025573386248870802
          -0.0000028196239230129487 -0.0000028189265689844353 -0.000002818853046467376 -0.0000028182546432114746 -0.000002816455499890153 -0.0000028158580544664328
          -0.0000030986135966102017 -0.0000030992595622116136 -0.000003098031469466135 -0.0000030988192094911525 -0.000003097173544059414 -0.0000030983267879040157
          -0.0000033840280602362026 -0.000003385209137303105 -0.000003383411857524246 -0.0000033848164331448164 -0.0000033845264551605342 -0.0000033866158863800744
          0 -1.5360903612722645e-7 0 -1.5345703108463244e-7 0 -1.5259035867674705e-7
          -3.1251932186353894e-7 -3.123734493117678e-7 -3.1167293003875173e-7 -4.7598057363085973e-7 -4.7617173593054087e-7 -4.771338630995202e-7
          -6.399754059568245e-7 -6.403411263989051e-7 -6.414782627608764e-7 -7.980604394549071e-7 -7.985255150555165e-7 -8.006217425318709e-7
          -9.435869760756476e-7 -9.439228945506829e-7 -9.449858721621916e-7 -0.0000010814079806876174 -0.000001081447605046177 -0.0000010813335487314984
          -0.000001217520483870791 -0.000001217348684278938 -0.0000012164209438312978 -0.0000013558354014087806 -0.000001355554087932942 -0.0000013545834131432064
          -0.0000014963353207302087 -0.0000014960365885669106 -0.0000014951788265673894 -0.00000163943139135846 -0.0000016390090451451706 -0.000001637859417260461
          -0.000001788323555575976 -0.0000017876727278829521 -0.0000017857837027168381 -0.0000019491435098678245 -0.000001948205539518062 -0.000001945457232242072
          -0.0000021289586616230793 -0.000002127829127284994 -0.0000021244523124858437 -0.0000023334424867996903 -0.000002332285955884132 -0.0000023287937053809615
          -0.000002564978949986213 -0.000002563907450198334 -0.000002560792402526494 -0.0000028217871097438457 -0.000002820812450360594 -0.0000028183852081414013
          -0.000003097421169209516 -0.0000030964840743890854 -0.0000030946985430508776 -0.000003380853908247913 -0.000003379492302778089 -0.0000033784237853376814
          0 -1.535205100061731e-7 0 -1.5341282144088095e-7 0 -1.5318856669962134e-7
          -3.120964979912326e-7 -3.1196426903935026e-7 -3.1177872523562724e-7 -4.7466580037423823e-7 -4.747110867743567e-7 -4.7455915954520515e-7
          -6.367524031504094e-7 -6.370391938303035e-7 -6.378862168924344e-7 -7.948888816515454e-7 -7.952936044514652e-7 -7.968306613296725e-7
          -9.432777907816026e-7 -9.435445312795073e-7 -9.447053847603126e-7 -0.000001083412646642427 -0.0000010834998426464875 -0.000001083814054268357
          -0.0000012203357182645472 -0.0000012202738079211875 -0.0000012197687381513797 -0.0000013584878502135334 -0.0000013582920421744252 -0.000001357552016442235
          -0.000001498546135607447 -0.0000014982654226058922 -0.0000014974831572590174 -0.0000016414461775499037 -0.0000016410119850551313 -0.0000016398235405072535
          -0.0000017907902444630992 -0.0000017901130112435833 -0.00000178817653052607 -0.0000019524332506645302 -0.0000019514798903473783 -0.0000019486980604652026
          -0.000002132778893479859 -0.0000021316324335543618 -0.000002128239789499747 -0.000002337387578227041 -0.0000023361469398799674 -0.000002332563752826234
          -0.0000025691124073751377 -0.0000025678172363007954 -0.0000025645167748891396 -0.00000282511588218284 -0.000002823787966898627 -0.0000028209828279477234
          -0.0000030970360174459144 -0.00000309547072845986 -0.000003092222375061195 -0.000003377492657804271 -0.0000033751816869338764 -0.000003370279825786432
          0 -1.532429797413773e-7 0 -1.5316594477583408e-7 0 -1.5282610232182135e-7
          -3.115859133020223e-7 -3.114882668654355e-7 -3.1124644615319185e-7 -4.7337536425593787e-7 -4.7330517676576307e-7 -4.7321522444135026e-7
          -6.334477433105083e-7 -6.336401829125263e-7 -6.339452655641827e-7 -7.904021035156988e-7 -7.907226794988444e-7 -7.915110779343352e-7
          -9.422723441353479e-7 -9.424995485093695e-7 -9.436739212030359e-7 -0.0000010859337439421316 -0.0000010860577800976276 -0.0000010869049525911188
          -0.0000012239821149126104 -0.000001224026652841756 -0.0000012240527527103277 -0.0000013620014747690836 -0.0000013619033257072697 -0.0000013614758694756882
          -0.0000015015057585940575 -0.0000015012452025541942 -0.0000015005473822787276 -0.0000016442720429798097 -0.0000016438139236965832 -0.0000016425587617993615
          -0.0000017943093712525487 -0.000001793599214761367 -0.0000017915622523327448 -0.0000019571333226008473 -0.0000019561398870262124 -0.0000019533513391996977
          -0.0000021384165603357517 -0.00000213721164058491 -0.000002133788082452153 -0.0000023432058962623677 -0.0000023417997680942597 -0.000002337936482917459
          -0.0000025746151954182298 -0.0000025729506935172288 -0.000002569082231151673 -0.0000028297815349365416 -0.00000282782104544317 -0.000002823923315422186
          -0.000003099247726602407 -0.0000030966321336459055 -0.0000030910010728850853 -0.0000033788488034552724 -0.0000033749618002808433 -0.0000033650449937398143
          0 -1.5280485695528818e-7 0 -1.5265973743971864e-7 0 -1.521365086367688e-7
          -3.1113192952410213e-7 -3.110096131449274e-7 -3.1069671563228007e-7 -4.722493453919766e-7 -4.721945064367257e-7 -4.721197956037347e-7
          -6.309417384914008e-7 -6.310039485394315e-7 -6.309917925281383e-7 -7.862419594297928e-7 -7.864435239022489e-7 -7.865552233412125e-7
          -9.39428661643738e-7 -9.396585872548854e-7 -9.404290416352267e-7 -0.0000010878714036442106 -0.0000010880495562009893 -0.0000010893698037654573
          -0.0000012283179198268942 -0.0000012284434160925 -0.0000012291400920579775 -0.0000013660091357122684 -0.0000013659966898449087 -0.0000013659045774976375
          -0.0000015050862206903143 -0.000001504836485347032 -0.0000015042228611818632 -0.0000016478710759877075 -0.0000016473760529911658 -0.0000016460141961408442
          -0.0000017989496396259353 -0.000001798183270566385 -0.0000017960036120552556 -0.000001963415236683992 -0.000001962362722334777 -0.0000019594576832901558
          -0.0000021460072358038876 -0.000002144655226813157 -0.000002141071181069631 -0.000002351074176726284 -0.0000023493741448574927 -0.000002344997001991731
          -0.0000025816513134670223 -0.0000025794474358916746 -0.000002574436319320594 -0.0000028360816501367187 -0.0000028332114632916987 -0.000002827110973901288
          -0.0000031059732760060305 -0.000003101989228705491 -0.0000030929246017352973 -0.000003389536018785286 -0.000003383961577479579 -0.000003367786536501417
          0 -1.522382726206161e-7 0 -1.520322312909855e-7 0 -1.5124451735505355e-7
          -3.108759510582326e-7 -3.107200608823965e-7 -3.1032382758486667e-7 -4.7156259702097907e-7 -4.71514955060627e-7 -4.7143497302252654e-7
          -6.290477941436714e-7 -6.290339773195806e-7 -6.288645729846976e-7 -7.834774934648889e-7 -7.835080658780652e-7 -7.833294558428046e-7
          -9.363076805407341e-7 -9.365174155954612e-7 -9.367275814091313e-7 -0.0000010875822925813281 -0.0000010878424778628492 -0.0000010891434300359458
          -0.0000012323211192141468 -0.0000012325165909361943 -0.0000012338723035705135 -0.0000013702356066806657 -0.0000013702834247863113 -0.0000013705379947429693
          -0.0000015090866611407304 -0.000001508827708521331 -0.000001508255947714437 -0.0000016522288184346223 -0.000001651682077258758 -0.000001650166616130439
          -0.0000018048280488642135 -0.0000018039805414665064 -0.0000018016088405338338 -0.0000019714037951518643 -0.000001970239861224985 -0.0000019670705424926414
          -0.0000021556960617645946 -0.000002154110948500308 -0.000002150045827030563 -0.0000023613226824400947 -0.0000023591981565228716 -0.0000023538984965193
          -0.000002591038636241245 -0.000002588129178644441 -0.0000025812046629367864 -0.000002844989839040827 -0.0000028409963905266383 -0.0000028313876917905473
          -0.000003120010710399767 -0.0000031145896332790887 -0.00000310044760447728 -0.000003414553104262463 -0.0000034080929520212684 -0.0000033860009166365967
          0 -1.5157386873161605e-7 0 -1.513601114950234e-7 0 -1.5018826043995578e-7
          -3.110465419936483e-7 -3.108480733511507e-7 -3.1037419256191833e-7 -4.714538738498988e-7 -4.714214510505716e-7 -4.7134062673159705e-7
          -6.277517299983029e-7 -6.276861630168032e-7 -6.274754536391544e-7 -7.81367540205904e-7 -7.813185235282572e-7 -7.810447273378553e-7
          -9.341420407250138e-7 -9.342500259183945e-7 -9.341692775603516e-7 -0.0000010860773256881913 -0.0000010863522167217741 -0.0000010872666227920275
          -0.0000012343868378032803 -0.0000012346990061520325 -0.0000012363277943745029 -0.0000013744184406923083 -0.000001374480739498992 -0.0000013751182552681507
          -0.0000015132094137397053 -0.0000015129320979305756 -0.0000015122928579618073 -0.0000016574053750791283 -0.0000016567934257281177 -0.0000016550803936034273
          -0.000001812090898798081 -0.0000018111381736914196 -0.0000018085012393851347 -0.0000019812438879054814 -0.000001979914232817223 -0.000001976312775817283
          -0.0000021677541249530364 -0.000002165880482530277 -0.000002161035831397147 -0.0000023744091212136654 -0.000002371793765427756 -0.0000023650347548752585
          -0.0000026040938198179224 -0.0000026004180904176257 -0.0000025906959877044163 -0.0000028593932519944826 -0.0000028542341212218584 -0.0000028398550344198465
          -0.0000031435187213556404 -0.0000031366615194188792 -0.000003116143080443075 -0.000003461963642276682 -0.000003453096931298317 -0.0000034234817722992143
          0 -1.5079801558697064e-7 0 -1.505790368393072e-7 0 -1.4893922906292205e-7
          -3.1198063354886463e-7 -3.1176476989730273e-7 -3.1127941072797913e-7 -4.7204096835932424e-7 -4.7199968300076334e-7 -4.719309633034251e-7
          -6.268123800663261e-7 -6.268224488317856e-7 -6.266287563142325e-7 -7.797771687288557e-7 -7.797011156932901e-7 -7.794289506636107e-7
          -9.325573995107352e-7 -9.324721766052529e-7 -9.322965640075404e-7 -0.0000010844232704519625 -0.0000010846792349449964 -0.0000010851854486012214
          -0.000001234986547095973 -0.0000012353302645361076 -0.0000012368907765299976 -0.0000013774695226406264 -0.0000013775383595154357 -0.0000013783555054913164
          -0.000001517397921957375 -0.0000015170838433014097 -0.0000015162920157021487 -0.0000016634826853365728 -0.000001662780678562364 -0.0000016608091259202295
          -0.0000018209347338098733 -0.0000018198601470099538 -0.0000018168590025959695 -0.000001993229051746549 -0.000001991675778249072 -0.0000019874407988050898
          -0.0000021826601075468497 -0.0000021804445662398776 -0.0000021744479476916167 -0.000002391460001521266 -0.000002388295577138193 -0.000002379485688871046
          -0.000002623320317035316 -0.0000026186973911333954 -0.0000026053360630815565 -0.0000028837030427194772 -0.000002877210893090168 -0.000002857012838299027
          -0.0000031833440411647768 -0.0000031742699887794014 -0.000003145825480145543 -0.0000035399635312937798 -0.000003528466421239258 -0.0000034890041181343973
          0 -1.4952910537249412e-7 0 -1.4915753249712852e-7 0 -1.4737540975803354e-7
          -3.1445144022328445e-7 -3.1441508768851676e-7 -3.139360471800296e-7 -4.7306498501896497e-7 -4.730134317524691e-7 -4.729561769784562e-7
          -6.263882395826584e-7 -6.263861810461416e-7 -6.262263165501761e-7 -7.785615344531315e-7 -7.785022741248786e-7 -7.782841522692749e-7
          -9.310453466320444e-7 -9.309441702459374e-7 -9.307530122449919e-7 -0.000001083186831033281 -0.00000108335879591785 -0.0000010836046215707658
          -0.0000012345394870020155 -0.0000012348649756600237 -0.0000012360760074557635 -0.000001378952419033072 -0.0000013790466368970943 -0.0000013797312601812017
          -0.0000015215461658444557 -0.0000015211946896015942 -0.0000015201745293621624 -0.000001670607322744737 -0.0000016698012081640826 -0.0000016674842113341917
          -0.0000018317052697031753 -0.000001830478733854116 -0.0000018269383026849857 -0.0000020078612440904846 -0.0000020061003593239104 -0.0000020009837208882735
          -0.0000022011955757616854 -0.00000219872946328177 -0.0000021912249381460835 -0.000002414447103877311 -0.000002410805841046611 -0.000002399258244065262
          -0.000002652236306151988 -0.000002646887637540257 -0.000002628904203088522 -0.0000029246191019986456 -0.000002916956919075743 -0.0000028895370504693896
          -0.0000032492507971902814 -0.000003238925965517003 -0.000003200448222997352 -0.000003654629627939084 -0.0000036401352661408886 -0.000003589317715659741
          -0.000004176837359200525 -0.000004157421706478026 -0.000004091163428714521 -0.000004875400300662182 -0.000004852882253702309 -0.000004776988045588927
          -1.8152419828995034e-7 0 -1.82919072423924e-7 0 -1.885794329296503e-7 0
          -3.318284604414826e-7 -3.3235568312927613e-7 -3.3319466598379586e-7 -4.786742713275433e-7 -4.786282612895585e-7 -4.786912357376554e-7
          -6.263083521840916e-7 -6.263198279315232e-7 -6.264400642068654e-7 -7.755605076488405e-7 -7.755389917547135e-7 -7.754720370549026e-7
          -9.26558830932459e-7 -9.265889138518507e-7 -9.265419920046923e-7 -0.0000026355637572595596 -0.000002629044331726715 -0.0000026093237502069375
          -0.000002965176905480848 -0.0000029560695736649734 -0.000002928327233929578 -0.0000033736601208383222 -0.0000033614292165479645 -0.000003324120505359491
          -0.000003895466047364691 -0.000003879999724256108 -0.00000383285513602038 -0.000004574234634937642 -0.0000045560570642612576 -0.00000450127348931189
          -0.000006121040781245074 -0.000006106065511721847 -0.000006060281396795394 -0.000005458909717781021 -0.000005439188085224094 -0.0000053800400329425805
          -0.000007369921988376056 -0.000007355214982354002 -0.0000073107982494850766 -0.00000659068786123478 -0.000006570477729319155 -0.000006511323364965211
          -0.000008878365121435252 -0.000008864907589272625 -0.00000882430704099556 -0.000008007141292697719 -0.000007989023195032896 -0.00000793455589214572
          -0.000010665087258903547 -0.000010653856472792577 -0.000010620064316602132 -0.0000036474879209136796 -0.000003646651685654859 -0.0000036459984793554786
          -0.0000036455097855149227 -0.0000036449907846479445 -0.000003645362429000908 -0.0000036507783083660495 -0.000003648303368706871 -0.0000036447264095156893
          -0.0000036578267884976294 -0.000003653731401309074 -0.0000036454241130590005 -0.000003671310285443701 -0.000003665568185697276 -0.000003650416258845187
          -0.000003699120872958736 -0.0000036921977046839098 -0.000003668972148983336 -0.0000037522337843154003 -0.000003743192048560807 -0.000003710680471454113
          -0.000003843097417597492 -0.000003831527692547451 -0.000003787794955895286 -0.00000398351707681378 -0.0000039666816931176555 -0.000003911809796360148
          -0.0000045680971595935345 -0.000004549154280584257 -0.000004483341183300213 -0.000005809505655555 -0.000005358868074378032 -0.000005784815060586427
          -0.000005337243678448088 -0.000005709659182203757 -0.000005266775702031023 -1.8285321838667242e-7 0 -1.8430578087025116e-7
          0 -1.907839018327727e-7 0 -3.3251511106571315e-7 -3.333069075319898e-7 -3.342097310792157e-7
          -4.7683402975623236e-7 -4.767303373507647e-7 -4.765518511950751e-7 -6.235256028829632e-7 -6.235656865308804e-7 -6.237498109951473e-7
          -7.724585038590208e-7 -7.724866136686401e-7 -7.727436183849611e-7 -9.229122167450766e-7 -9.22695714271865e-7 -9.225535313744056e-7
          -0.000001078971191235368 -0.0000010789453846946065 -0.0000010790727782810069 -0.0000010750334459174449 -0.000001074481599656421 -0.0000010731226335680703
          -0.0000012312182576889995 -0.0000012310122654186038 -0.000001230697601254621 -0.0000013850207193447138 -0.0000013845016514716159 -0.0000013831053304437313
          -0.0000015460579670741971 -0.000001545068071001911 -0.0000015423298863019819 -0.0000017189137149030184 -0.0000017173884532700746 -0.0000017129984000371874
          -0.0000019087337694133695 -0.0000019064357827974786 -0.0000018999868742229673 -0.000002120157965739242 -0.0000021169346958161723 -0.000002107560566934763
          -0.0000023593299311397946 -0.0000023547359112814513 -0.0000023410543855334863 -0.0000031299573799447087 -0.0000027121575203207774 -0.000003121095013028398
          -0.0000027051909015377146 -0.000003093530319957477 -0.000002683647295446726 -0.0000036467690346751133 -0.0000036358943270163482 -0.0000036020496977354683
          -0.00000429368723290489 -0.00000428091560804483 -0.000004241405084338207 -0.0000051062217902952934 -0.000005091974938153598 -0.000005048081158397227
          -0.000008167306477073844 -0.000006830312754740495 -0.00000815561646748192 -0.0000068180042686496595 -0.000008120775788346844 -0.0000067810386530677435
          -0.000009728350822600947 -0.000009718128769355224 -0.00000968766868892835 -0.000011520657193817525 -0.000011512579916618532 -0.000011488691122932215
          -0.000013537747370408773 -0.000013532713273007925 -0.000013517709898310686 -0.000009746624196695843 -0.000007025108164235492 -0.000009732289408503975
          -0.000007000045125553019 -0.000009688740737138578 -0.000006929813988494824 -0.000012734745524016018 -0.000012727212079255538 -0.00001270456576852894
          -0.00001575447587649314 -0.00001575359096785575 -0.00001575065729361014
        </DataArray>
        <DataArray type="Float64" Name="disp_z" format="ascii" RangeMin="-0.0000018369496199208146" RangeMax="0">
          0 0 0 0 -5.5280438971946593e-8 -5.5095226874267926e-8
          -5.56568289691241e-8 -5.534186354605525e-8 -1.103717932058668e-7 -1.1052491977881661e-7 -1.1073622218459515e-7 -1.1111194369436395e-7
          0 0 -5.4995592715338767e-8 -5.737103455909796e-8 -1.1391312524004652e-7 -1.1172338450823647e-7
          0 0 -5.5967849973899706e-8 -5.594358908774216e-8 -1.1167467947026352e-7 -1.1173278793681576e-7
          0 0 -5.5272279290654757e-8 -5.521334772087063e-8 -1.1084812994252278e-7 -1.1067078801341443e-7
          0 0 -4.874985364724537e-8 -4.820872970547236e-8 -9.831023890695333e-8 -9.750058243489829e-8
          0 0 -4.5136573824683396e-8 -4.4621578140962533e-8 -9.177113834410494e-8 -9.079590020112323e-8
          0 0 -4.5455295037148546e-8 -4.525965802888926e-8 -9.186877611617358e-8 -9.142250406083393e-8
          0 0 -4.819903995351508e-8 -4.8164335254110484e-8 -9.675563466144924e-8 -9.666137313252214e-8
          0 0 -5.099379462832677e-8 -5.1059199254059904e-8 -1.0194720733967406e-7 -1.019848027945053e-7
          0 0 -5.299219141158879e-8 -5.308682208706794e-8 -1.0581103139834424e-7 -1.0598988340406556e-7
          0 0 -5.468616256373242e-8 -5.4780768988993404e-8 -1.0922314578207936e-7 -1.0939424354908597e-7
          0 0 -5.7223669283704005e-8 -5.7297460477245025e-8 -1.1434036848622055e-7 -1.1449365352564718e-7
          0 0 -6.149783470103108e-8 -6.159275668676881e-8 -1.228928341146359e-7 -1.2302184354329041e-7
          0 0 -6.746204860023107e-8 -6.7517765918715e-8 -1.346156840932143e-7 -1.3491948242005332e-7
          0 0 -7.381295936887881e-8 -7.393119611586103e-8 -1.475114473322337e-7 -1.4758775943214587e-7
          0 0 -8.019628801414971e-8 -8.036542918278827e-8 -1.600126222421331e-7 -1.6021316627651086e-7
          0 0 -8.58879426505434e-8 -8.633504682742235e-8 -1.7122725919019647e-7 -1.72067740739906e-7
          0 0 -8.8370726132349e-8 -8.905119122548668e-8 -1.7702216817419257e-7 -1.7785539748363309e-7
          0 0 -8.360440670899169e-8 -8.305773555115533e-8 -1.7006331839460988e-7 -1.6868676500467184e-7
          0 0 -5.5042677508700167e-8 -5.565806079725036e-8 -1.1042768952205544e-7 -1.106749469244186e-7
          0 -5.4662678108712564e-8 -1.1391985268183624e-7 0 -5.600691552920773e-8 -1.1178029404769621e-7
          0 -5.550265126499916e-8 -1.1126850789393622e-7 0 -5.050037096404172e-8 -1.008937760079808e-7
          0 -4.682600553410226e-8 -9.472020315206903e-8 0 -4.617036143999127e-8 -9.333793852276504e-8
          0 -4.8331884373877916e-8 -9.713094099047331e-8 0 -5.0847931616608825e-8 -1.0175203604624627e-7
          0 -5.270170649652031e-8 -1.0528363140366078e-7 0 -5.4398853650909396e-8 -1.0868807931001094e-7
          0 -5.69826824220456e-8 -1.1391075671123025e-7 0 -6.124978392565455e-8 -1.225033410456018e-7
          0 -6.702359274267917e-8 -1.3393046180021284e-7 0 -7.351738601435299e-8 -1.4727564431604663e-7
          0 -7.964524029462579e-8 -1.5934457164804374e-7 0 -8.446124420111613e-8 -1.6918179021423974e-7
          0 -8.661688223441094e-8 -1.7482643574096806e-7 0 -8.502304258388666e-8 -1.7438556199130855e-7
          0 0 -5.510714242656425e-8 -5.535252303585105e-8 -1.1005630824538248e-7 -1.1092569535142275e-7
          0 -5.671150080249131e-8 -1.1177657654088036e-7 0 -5.6083052333249195e-8 -1.1206356454344608e-7
          0 -5.58423215028948e-8 -1.1177780146299181e-7 0 -5.3232527527781626e-8 -1.0629010619921512e-7
          0 -4.9980885159114354e-8 -9.944738391628476e-8 0 -4.775124874211079e-8 -9.620818701308941e-8
          0 -4.868777459059507e-8 -9.793552797268765e-8 0 -5.0648444648604806e-8 -1.0149151254200398e-7
          0 -5.2232564208854894e-8 -1.044634249604736e-7 0 -5.390671163734397e-8 -1.0783627713510832e-7
          0 -5.6606728674062015e-8 -1.1330795849364674e-7 0 -6.08641526025859e-8 -1.2194148169040982e-7
          0 -6.643706894102215e-8 -1.3330690327552315e-7 0 -7.311440910354244e-8 -1.46590640833927e-7
          0 -7.871299527546053e-8 -1.584460721509291e-7 0 -8.240240560723018e-8 -1.670557740233501e-7
          0 -8.449042415715796e-8 -1.7317646340788932e-7 0 -8.723564952618898e-8 -1.8212394491585187e-7
          0 0 -5.489809882967322e-8 -5.536572137348985e-8 -1.0971568065174285e-7 -1.1075976024210672e-7
          0 -5.632106151795748e-8 -1.1206332605556283e-7 0 -5.621129272185012e-8 -1.1235126756092825e-7
          0 -5.616177603185672e-8 -1.1222895046593981e-7 0 -5.580332742340489e-8 -1.1193672153636469e-7
          0 -5.393590647891185e-8 -1.0753616242858832e-7 0 -5.0659364551912514e-8 -1.0052314766940387e-7
          0 -4.943085074245799e-8 -9.94879110206322e-8 0 -5.04692142431252e-8 -1.0128264758884403e-7
          0 -5.163342698454513e-8 -1.0349067193504461e-7 0 -5.3271209049393275e-8 -1.0682004474068388e-7
          0 -5.615259298080752e-8 -1.1266962456634783e-7 0 -6.044762658799107e-8 -1.214853269905879e-7
          0 -6.60171230661626e-8 -1.3280714854953156e-7 0 -7.2349114421624e-8 -1.4569152466098047e-7
          0 -7.768231815639113e-8 -1.580121897084997e-7 0 -8.085086283384794e-8 -1.6693673998405804e-7
          0 -8.366102456914599e-8 -1.7573685671917355e-7 0 -9.169163581678212e-8 -1.9674537845924276e-7
          0 0 -5.4521359251070407e-8 -5.524537663087521e-8 -1.0905092506965914e-7 -1.1054758079005999e-7
          0 -5.618786251135193e-8 -1.121050315118687e-7 0 -5.633402486942693e-8 -1.1263844880798227e-7
          0 -5.6447722672825694e-8 -1.1277089694912503e-7 0 -5.724990348124492e-8 -1.1433528145214912e-7
          0 -5.704518342909265e-8 -1.1477788910782785e-7 0 -5.435907504662309e-8 -1.0818560812651526e-7
          0 -5.081150196844e-8 -1.016717458718906e-7 0 -5.045121806642733e-8 -1.014432814891924e-7
          0 -5.1037727160207374e-8 -1.025909425026704e-7 0 -5.265897703295689e-8 -1.0595082607450467e-7
          0 -5.5767488089323935e-8 -1.1231602748102608e-7 0 -6.018175336582587e-8 -1.2144177981817234e-7
          0 -6.556397487402082e-8 -1.327189780539536e-7 0 -7.162353496612946e-8 -1.4593729493106065e-7
          0 -7.732298982562724e-8 -1.594309474493435e-7 0 -8.175578970463663e-8 -1.7223672035711055e-7
          0 -8.752678100296217e-8 -1.8810826673993025e-7 0 -1.0256088419736681e-7 -2.253818402668179e-7
          0 0 -5.369409684791006e-8 -5.496538487860781e-8 -1.0778532149896131e-7 -1.1015797483943378e-7
          0 -5.619910466179394e-8 -1.1229729852776491e-7 0 -5.6478912652480885e-8 -1.1294856489609252e-7
          0 -5.67034191917802e-8 -1.1331584788449222e-7 0 -5.76948124608382e-8 -1.1510700297686562e-7
          0 -5.843596224559001e-8 -1.1623144616066054e-7 0 -5.733531135244277e-8 -1.1545596612274671e-7
          0 -5.291775802698058e-8 -1.049803073595514e-7 0 -5.077848750096297e-8 -1.0219814136945725e-7
          0 -5.071032957287722e-8 -1.0215238049081306e-7 0 -5.2383421127210715e-8 -1.0572441058546591e-7
          0 -5.579337613773906e-8 -1.1273885601610377e-7 0 -6.041412694812926e-8 -1.2241712641697215e-7
          0 -6.584926657558511e-8 -1.339796404910406e-7 0 -7.228302128982087e-8 -1.4861631971031741e-7
          0 -7.955199531228927e-8 -1.6564736649830478e-7 0 -8.837430077604576e-8 -1.8708263886646223e-7
          0 -1.0137987348623042e-7 -2.1892733080096798e-7 0 -1.2810527785429125e-7 -2.7370249789120807e-7
          0 0 -5.191187635298065e-8 -5.4437835749672794e-8 -1.053195866495039e-7 -1.0950472928697029e-7
          0 -5.631321578538835e-8 -1.1260985924390118e-7 0 -5.6646453430359446e-8 -1.1330182710699871e-7
          0 -5.6925505169215505e-8 -1.1377364739417933e-7 0 -5.774838452074807e-8 -1.1537809698878807e-7
          0 -5.8597877378391214e-8 -1.1656629019210827e-7 0 -5.870026836301507e-8 -1.1708554542373707e-7
          0 -5.520442803038014e-8 -1.1016307900649883e-7 0 -5.164348010210741e-8 -1.0342231123831239e-7
          0 -5.104737450967056e-8 -1.0277182242604717e-7 0 -5.2930867041011965e-8 -1.0671115683011891e-7
          0 -5.674734308712785e-8 -1.1458634059733675e-7 0 -6.187296252083501e-8 -1.251365846069562e-7
          0 -6.801461312083304e-8 -1.383098615174603e-7 0 -7.61745524744e-8 -1.5589674927073767e-7
          0 -8.773027100246661e-8 -1.8045599178954837e-7 0 -1.0532855919560875e-7 -2.1725712350205837e-7
          0 -1.3276091207446034e-7 -2.7456919904119773e-7 0 -1.7691222708808922e-7 -3.611316378739793e-7
          0 0 -4.792648205575678e-8 -5.3621747484302963e-8 -1.0143303893398908e-7 -1.0866235172198439e-7
          0 -5.6458289845126386e-8 -1.1303102408191437e-7 0 -5.684020644141352e-8 -1.136861818786844e-7
          0 -5.7071671000915855e-8 -1.1415460025772772e-7 0 -5.798845804293363e-8 -1.1549590758297087e-7
          0 -5.8393368065631895e-8 -1.1645972479565562e-7 0 -5.885241889908896e-8 -1.1718054229750976e-7
          0 -5.690605009809115e-8 -1.1391061601055153e-7 0 -5.3023560396056053e-8 -1.0559279650569762e-7
          0 -5.242875771725563e-8 -1.0490137912893686e-7 0 -5.4736487675779867e-8 -1.0959486229978056e-7
          0 -5.917519662064452e-8 -1.1848254165780792e-7 0 -6.525853437620011e-8 -1.307147990196253e-7
          0 -7.341177514658927e-8 -1.4721494939685377e-7 0 -8.5393179041461e-8 -1.7084860216188661e-7
          0 -1.047780097575005e-7 -2.0820813388875063e-7 0 -1.3620909430990045e-7 -2.680030929522027e-7
          0 -1.8564302645255277e-7 -3.619359663159474e-7 0 -2.5434914267945125e-7 -4.93560412134893e-7
          0 0 -4.6653659908301616e-8 -5.3547914826722305e-8 -8.540819371495499e-8 -1.0739668388666188e-7
          0 -5.6693916960653084e-8 -1.1322774615643442e-7 0 -5.7044825359569906e-8 -1.1412643768042209e-7
          0 -5.7200051257922726e-8 -1.1446661851894052e-7 0 -5.785377648204565e-8 -1.1547466380415814e-7
          0 -5.817942855440365e-8 -1.1614171547361051e-7 0 -5.859743584243555e-8 -1.1692162132268455e-7
          0 -5.751408319903683e-8 -1.1498581461446005e-7 0 -5.43719201998506e-8 -1.0907710097449166e-7
          0 -5.4414859747665903e-8 -1.0970947219402089e-7 0 -5.735014812098742e-8 -1.1583213683344473e-7
          0 -6.245795823318924e-8 -1.264374623141761e-7 0 -6.979236093560548e-8 -1.4165089391067044e-7
          0 -8.103696674591014e-8 -1.6504099181804708e-7 0 -9.833128817188277e-8 -2.0072214983056435e-7
          0 -1.2699326498055396e-7 -2.591929789508142e-7 0 -1.7379408618804835e-7 -3.532963174509045e-7
          0 -2.464685535921191e-7 -4.976671896826363e-7 0 -3.44255429315229e-7 -6.930964807757973e-7
          0 -4.716570635821373e-7 -9.40921628377568e-7 0 -6.321530184038395e-7 -0.0000012517662887600568
          0 0 -6.394776874882009e-8 -8.466729129300214e-8 -1.2593315077595805e-7 -1.7557518594580257e-7
          0 -5.830856036554872e-8 -1.1717459440398625e-7 0 -5.825213991840762e-8 -1.1633134525188596e-7
          0 -5.783536721969592e-8 -1.155038835085369e-7 0 -5.773417324731237e-8 -1.1546408293339681e-7
          0 -5.800552873405454e-8 -1.1606451278257423e-7 0 -1.4111349912031419e-7 -2.844406440181268e-7
          0 -1.8493905327320856e-7 -3.7156771749571043e-7 0 -2.4623500302908377e-7 -4.924917281433635e-7
          0 -3.268620333643979e-7 -6.504451930506842e-7 0 -4.2597607696218825e-7 -8.43806708843629e-7
          0 -5.120463811997219e-7 -0.0000010259160968212642 0 -5.33023836707184e-7 -0.0000010548376795137217
          0 -5.974391072136187e-7 -0.0000011959543062567083 0 -6.469325079889095e-7 -0.0000012779319738185122
          0 -6.768113990221326e-7 -0.0000013549160667736458 0 -7.563140698646274e-7 -0.00000149475384485965
          0 -7.466438236619994e-7 -0.000001493997774497251 0 0 -7.379217619767958e-8
          -7.226541636449092e-8 -1.536865797062809e-7 -1.5050113429564607e-7 0 -7.918038088563833e-8 -1.6627000339428418e-7
          0 -9.006308519786619e-8 -1.933987399106828e-7 0 -1.0727168177737035e-7 -2.3453564807360695e-7
          0 -1.3427250973286725e-7 -2.94828863690629e-7 0 -1.8150811206066627e-7 -3.868533865161288e-7
          0 -2.561537673376093e-7 -5.134747228508441e-7 0 -3.578644122980982e-7 -6.818433169550136e-7
          0 -4.926446291519497e-7 -9.517897830629423e-7 0 0 -7.917853455586717e-7
          -6.453783960790998e-7 -0.0000015618295164424518 -0.000001245670296616098 0 0 -6.455053819254501e-8
          -8.066799664654278e-8 -1.26425268834136e-7 -1.765969281832259e-7 0 -5.789499401237425e-8 -1.1643500378988137e-7
          0 -5.8772587010457486e-8 -1.1749532430529465e-7 0 -5.850630833932206e-8 -1.1689782712467715e-7
          0 -5.792872788069012e-8 -1.1591030662688647e-7 0 -5.700797683488115e-8 -1.142862354491595e-7
          0 -5.7874869850934455e-8 -1.1585598451475567e-7 0 -5.7501924946091085e-8 -1.1542615812183062e-7
          0 -5.718206585993633e-8 -1.1460503867452794e-7 0 -5.8399215100734966e-8 -1.1726805978821071e-7
          0 -6.175059108539827e-8 -1.2415902155198232e-7 0 -6.777923314358061e-8 -1.36466315554295e-7
          0 -7.700687266319253e-8 -1.5537772824226794e-7 0 -9.057530061234883e-8 -1.829241276771837e-7
          0 -1.1097674069953059e-7 -2.240394420873099e-7 0 0 -2.1803083717805053e-7
          -1.7171971730593087e-7 -4.397995644901385e-7 -3.470495066228836e-7 0 -2.765160625293025e-7 -5.565562232287235e-7
          0 -3.4673404418730804e-7 -6.965124773189819e-7 0 -4.2631186671216704e-7 -8.551065935034555e-7
          0 0 -5.91103917681488e-7 -5.2291755012741e-7 -0.0000011788964838277728 -0.0000010431408266468715
          0 -6.526910916824774e-7 -0.0000013018860643501207 0 -7.039590756609791e-7 -0.0000014041021376694642
          0 -7.405404580156862e-7 -0.0000014771938159663303 0 0 -8.503513649398521e-7
          -9.313778282432771e-7 -0.0000016817341820260956 -0.0000018369496199208146 0 -8.0117233418995e-7 -0.0000016018097019640931
          0 -7.575738512462117e-7 -0.0000015111209294396777
        </DataArray>
      </PointData>
      <CellData>
        <DataArray type="Int32" Name="libmesh_elem_id" format="ascii" RangeMin="0" RangeMax="1173">
          0 1 2 3 4 5
          6 7 8 9 10 11
          12 13 14 15 16 17
          18 19 20 21 22 23
          24 25 26 27 28 29
          30 31 32 33 34 35
          36 37 38 39 58 59
          60 61 62 63 64 65
          66 67 68 69 70 71
          72 73 74 75 76 77
          78 79 80 81 82 83
          84 85 86 87 88 89
          90 91 92 93 94 95
          96 97 116 117 118 119
          120 121 122 123 124 125
          126 127 128 129 130 131
          132 133 134 135 136 137
          138 139 140 141 142 143
          144 145 146 147 148 149
          150 151 152 153 154 155
          174 175 176 177 178 179
          180 181 182 183 184 185
          186 187 188 189 190 191
          192 193 194 195 196 197
          198 199 200 201 202 203
          204 205 206 207 208 209
          210 211 212 213 232 233
          234 235 236 237 238 239
          240 241 242 243 244 245
          246 247 248 249 250 251
          252 253 254 255 256 257
          258 259 260 261 262 263
          264 265 266 267 268 269
          270 271 290 291 292 293
          294 295 296 297 298 299
          300 301 302 303 304 305
          306 307 308 309 310 311
          312 313 314 315 316 317
          318 319 320 321 322 323
          324 325 326 327 328 329
          348 349 350 351 352 353
          354 355 356 357 358 359
          360 361 362 363 364 365
          366 367 368 369 370 371
          372 373 374 375 376 377
          378 379 380 381 382 383
          384 385 386 387 406 407
          408 409 410 411 412 413
          414 415 416 417 418 419
          420 421 422 423 424 425
          426 427 428 429 430 431
          432 433 434 435 436 437
          438 439 440 441 442 443
          444 445 464 465 466 467
          468 469 470 471 472 473
          474 475 476 477 478 479
          480 481 482 483 484 485
          486 487 488 489 490 491
          492 493 494 495 496 497
          498 499 500 501 502 503
          504 505 506 507 772 773
          774 775 790 791 792 793
          808 809 810 811 826 827
          828 829 844 845 846 847
          862 863 864 865 880 881
          882 883 898 899 916 917
          934 935 952 953 970 971
          988 989 1006 1007 1024 1025
          1026 1027 1042 1043 1044 1045
          1060 1061 1062 1063 1078 1079
          1080 1081 1096 1097 1098 1099
          1100 1101 1114 1115 1116 1117
          1118 1119 1132 1133 1134 1135
          1136 1137 1150 1151 1152 1153
          1154 1155 1168 1169 1170 1171
          1172 1173
        </DataArray>
        <DataArray type="Int32" Name="subdomain_id" format="ascii" RangeMin="103" RangeMax="105">
          103 103 103 103 103 103
          103 103 103 103 103 103
          103 103 103 103 103 103
          103 103 103 103 103 103
          103 103 103 103 103 103
          103 103 103 103 103 103
          103 103 103 103 103 103
          103 103 103 103 103 103
          103 103 103 103 103 103
          103 103 103 103 103 103
          103 103 103 103 103 103
          103 103 103 103 103 103
          103 103 103 103 103 103
          103 103 103 103 103 103
          103 103 103 103 103 103
          103 103 103 103 103 103
          103 103 103 103 103 103
          103 103 103 103 103 103
          103 103 103 103 103 103
          103 103 103 103 103 103
          103 103 103 103 103 103
          103 103 103 103 103 103
          103 103 103 103 103 103
          103 103 103 103 103 103
          103 103 103 103 103 103
          103 103 103 103 103 103
          103 103 103 103 103 103
          103 103 103 103 103 103
          103 103 103 103 103 103
          103 103 103 103 103 103
          103 103 103 103 103 103
          103 103 103 103 103 103
          103 103 103 103 103 103
          103 103 103 103 103 103
          103 103 103 103 103 103
          103 103 103 103 103 103
          103 103 103 103 103 103
          103 103 103 103 103 103
          103 103 103 103 103 103
          103 103 103 103 103 103
          103 103 103 103 103 103
          103 103 103 103 103 103
          103 103 103 103 103 103
          103 103 103 103 103 103
          103 103 103 103 103 103
          103 103 103 103 103 103
          103 103 103 103 103 103
          103 103 103 103 103 103
          103 103 103 103 103 103
          103 103 103 103 103 103
          103 103 103 103 103 103
          103 103 103 103 103 103
          103 103 103 103 103 103
          103 103 103 103 103 103
          103 103 103 103 103 103
          103 103 103 103 103 103
          103 103 103 103 103 103
          103 103 103 103 103 103
          103 103 103 103 103 103
          103 103 103 103 103 103
          103 103 103 103 105 105
          105 105 105 105 105 105
          105 105 105 105 105 105
          105 105 105 105 105 105
          105 105 105 105 105 105
          105 105 105 105 105 105
          105 105 105 105 105 105
          105 105 105 105 105 105
          105 105 105 105 105 105
          105 105 105 105 105 105
          105 105 105 105 105 105
          105 105 105 105 105 105
          105 105 105 105 105 105
          105 105 105 105 105 105
          105 105 105 105 105 105
          105 105
        </DataArray>
        <DataArray type="Int32" Name="processor_id" format="ascii" RangeMin="7" RangeMax="7">
          7 7 7 7 7 7
          7 7 7 7 7 7
          7 7 7 7 7 7
          7 7 7 7 7 7
          7 7 7 7 7 7
          7 7 7 7 7 7
          7 7 7 7 7 7
          7 7 7 7 7 7
          7 7 7 7 7 7
          7 7 7 7 7 7
          7 7 7 7 7 7
          7 7 7 7 7 7
          7 7 7 7 7 7
          7 7 7 7 7 7
          7 7 7 7 7 7
          7 7 7 7 7 7
          7 7 7 7 7 7
          7 7 7 7 7 7
          7 7 7 7 7 7
          7 7 7 7 7 7
          7 7 7 7 7 7
          7 7 7 7 7 7
          7 7 7 7 7 7
          7 7 7 7 7 7
          7 7 7 7 7 7
          7 7 7 7 7 7
          7 7 7 7 7 7
          7 7 7 7 7 7
          7 7 7 7 7 7
          7 7 7 7 7 7
          7 7 7 7 7 7
          7 7 7 7 7 7
          7 7 7 7 7 7
          7 7 7 7 7 7
          7 7 7 7 7 7
          7 7 7 7 7 7
          7 7 7 7 7 7
          7 7 7 7 7 7
          7 7 7 7 7 7
          7 7 7 7 7 7
          7 7 7 7 7 7
          7 7 7 7 7 7
          7 7 7 7 7 7
          7 7 7 7 7 7
          7 7 7 7 7 7
          7 7 7 7 7 7
          7 7 7 7 7 7
          7 7 7 7 7 7
          7 7 7 7 7 7
          7 7 7 7 7 7
          7 7 7 7 7 7
          7 7 7 7 7 7
          7 7 7 7 7 7
          7 7 7 7 7 7
          7 7 7 7 7 7
          7 7 7 7 7 7
          7 7 7 7 7 7
          7 7 7 7 7 7
          7 7 7 7 7 7
          7 7 7 7 7 7
          7 7 7 7 7 7
          7 7 7 7 7 7
          7 7 7 7 7 7
          7 7 7 7 7 7
          7 7 7 7 7 7
          7 7 7 7 7 7
          7 7 7 7 7 7
          7 7 7 7 7 7
          7 7 7 7 7 7
          7 7 7 7 7 7
          7 7 7 7 7 7
          7 7 7 7 7 7
          7 7 7 7 7 7
          7 7 7 7 7 7
          7 7 7 7 7 7
          7 7
        </DataArray>
      </CellData>
      <Points>
        <DataArray type="Float64" Name="Points" NumberOfComponents="3" format="ascii" RangeMin="0" RangeMax="0.009803689505302022">
          0 0 0 0.00011111111111093 0 0
          0.00011111111111095 0.00041379310344969 0 0 0.00041379310344996 0
          0 0 0.00015 0.00011111111111093 0 0.00015
          0.00011111111111095 0.00041379310344969 0.00015 0 0.00041379310344996 0.00015
          0 0 0.0003 0.00011111111111093 0 0.0003
          0.00011111111111095 0.00041379310344969 0.0003 0 0.00041379310344996 0.0003
          0.00011111111111096 0.00082758620689912 0 0 0.00082758620689964 0
          0.00011111111111096 0.00082758620689912 0.00015 0 0.00082758620689964 0.00015
          0.00011111111111096 0.00082758620689912 0.0003 0 0.00082758620689964 0.0003
          0.00011111111111098 0.0012413793103467 0 0 0.0012413793103472 0
          0.00011111111111098 0.0012413793103467 0.00015 0 0.0012413793103472 0.00015
          0.00011111111111098 0.0012413793103467 0.0003 0 0.0012413793103472 0.0003
          0.00011111111111099 0.0016551724137963 0 0 0.0016551724137971 0
          0.00011111111111099 0.0016551724137963 0.00015 0 0.0016551724137971 0.00015
          0.00011111111111099 0.0016551724137963 0.0003 0 0.0016551724137971 0.0003
          0.00011111111111101 0.002068965517246 0 0 0.0020689655172471 0
          0.00011111111111101 0.002068965517246 0.00015 0 0.0020689655172471 0.00015
          0.00011111111111101 0.002068965517246 0.0003 0 0.0020689655172471 0.0003
          0.00011111111111102 0.0024827586206956 0 0 0.002482758620697 0
          0.00011111111111102 0.0024827586206956 0.00015 0 0.002482758620697 0.00015
          0.00011111111111102 0.0024827586206956 0.0003 0 0.002482758620697 0.0003
          0.00011111111111104 0.0028965517241444 0 0 0.002896551724146 0
          0.00011111111111104 0.0028965517241444 0.00015 0 0.002896551724146 0.00015
          0.00011111111111104 0.0028965517241444 0.0003 0 0.002896551724146 0.0003
          0.00011111111111105 0.0033103448275919 0 0 0.0033103448275936 0
          0.00011111111111105 0.0033103448275919 0.00015 0 0.0033103448275936 0.00015
          0.00011111111111105 0.0033103448275919 0.0003 0 0.0033103448275936 0.0003
          0.00011111111111107 0.0037241379310415 0 0 0.0037241379310435 0
          0.00011111111111107 0.0037241379310415 0.00015 0 0.0037241379310435 0.00015
          0.00011111111111107 0.0037241379310415 0.0003 0 0.0037241379310435 0.0003
          0.00011111111111108 0.0041379310344912 0 0 0.0041379310344935 0
          0.00011111111111108 0.0041379310344912 0.00015 0 0.0041379310344935 0.00015
          0.00011111111111108 0.0041379310344912 0.0003 0 0.0041379310344935 0.0003
          0.0001111111111111 0.0045517241379399 0 0 0.0045517241379424 0
          0.0001111111111111 0.0045517241379399 0.00015 0 0.0045517241379424 0.00015
          0.0001111111111111 0.0045517241379399 0.0003 0 0.0045517241379424 0.0003
          0.00011111111111111 0.004965517241389 0 0 0.0049655172413917 0
          0.00011111111111111 0.004965517241389 0.00015 0 0.0049655172413917 0.00015
          0.00011111111111111 0.004965517241389 0.0003 0 0.0049655172413917 0.0003
          0.00011111111111113 0.0053793103448383 0 0 0.0053793103448414 0
          0.00011111111111113 0.0053793103448383 0.00015 0 0.0053793103448414 0.00015
          0.00011111111111113 0.0053793103448383 0.0003 0 0.0053793103448414 0.0003
          0.00011111111111114 0.005793103448287 0 0 0.0057931034482903 0
          0.00011111111111114 0.005793103448287 0.00015 0 0.0057931034482903 0.00015
          0.00011111111111114 0.005793103448287 0.0003 0 0.0057931034482903 0.0003
          0.00011111111111116 0.0062068965517355 0 0 0.0062068965517387 0
          0.00011111111111116 0.0062068965517355 0.00015 0 0.0062068965517387 0.00015
          0.00011111111111116 0.0062068965517355 0.0003 0 0.0062068965517387 0.0003
          0.00011111111111117 0.006620689655183 0 0 0.006620689655186 0
          0.00011111111111117 0.006620689655183 0.00015 0 0.006620689655186 0.00015
          0.00011111111111117 0.006620689655183 0.0003 0 0.006620689655186 0.0003
          0.00011111111111119 0.0070344827586302 0 0 0.007034482758633 0
          0.00011111111111119 0.0070344827586302 0.00015 0 0.007034482758633 0.00015
          0.00011111111111119 0.0070344827586302 0.0003 0 0.007034482758633 0.0003
          0.0001111111111112 0.0074482758620775 0 0 0.00744827586208 0
          0.0001111111111112 0.0074482758620775 0.00015 0 0.00744827586208 0.00015
          0.0001111111111112 0.0074482758620775 0.0003 0 0.00744827586208 0.0003
          0.00011111111111122 0.0078620689655252 0 0 0.0078620689655276 0
          0.00011111111111122 0.0078620689655252 0.00015 0 0.0078620689655276 0.00015
          0.00011111111111122 0.0078620689655252 0.0003 0 0.0078620689655276 0.0003
          0.00022222222222175 0 0 0.00022222222222178 0.00041379310344941 0
          0.00022222222222175 0 0.00015 0.00022222222222178 0.00041379310344941 0.00015
          0.00022222222222175 0 0.0003 0.00022222222222178 0.00041379310344941 0.0003
          0.00022222222222182 0.0008275862068986 0 0.00022222222222182 0.0008275862068986 0.00015
          0.00022222222222182 0.0008275862068986 0.0003 0.00022222222222185 0.0012413793103461 0
          0.00022222222222185 0.0012413793103461 0.00015 0.00022222222222185 0.0012413793103461 0.0003
          0.00022222222222188 0.0016551724137956 0 0.00022222222222188 0.0016551724137956 0.00015
          0.00022222222222188 0.0016551724137956 0.0003 0.00022222222222192 0.0020689655172449 0
          0.00022222222222192 0.0020689655172449 0.00015 0.00022222222222192 0.0020689655172449 0.0003
          0.00022222222222195 0.0024827586206942 0 0.00022222222222195 0.0024827586206942 0.00015
          0.00022222222222195 0.0024827586206942 0.0003 0.00022222222222199 0.0028965517241428 0
          0.00022222222222199 0.0028965517241428 0.00015 0.00022222222222199 0.0028965517241428 0.0003
          0.00022222222222202 0.0033103448275902 0 0.00022222222222202 0.0033103448275902 0.00015
          0.00022222222222202 0.0033103448275902 0.0003 0.00022222222222205 0.0037241379310395 0
          0.00022222222222205 0.0037241379310395 0.00015 0.00022222222222205 0.0037241379310395 0.0003
          0.00022222222222209 0.0041379310344889 0 0.00022222222222209 0.0041379310344889 0.00015
          0.00022222222222209 0.0041379310344889 0.0003 0.00022222222222212 0.0045517241379374 0
          0.00022222222222212 0.0045517241379374 0.00015 0.00022222222222212 0.0045517241379374 0.0003
          0.00022222222222216 0.0049655172413862 0 0.00022222222222216 0.0049655172413862 0.00015
          0.00022222222222216 0.0049655172413862 0.0003 0.00022222222222219 0.0053793103448353 0
          0.00022222222222219 0.0053793103448353 0.00015 0.00022222222222219 0.0053793103448353 0.0003
          0.00022222222222222 0.0057931034482838 0 0.00022222222222222 0.0057931034482838 0.00015
          0.00022222222222222 0.0057931034482838 0.0003 0.00022222222222226 0.0062068965517323 0
          0.00022222222222226 0.0062068965517323 0.00015 0.00022222222222226 0.0062068965517323 0.0003
          0.00022222222222229 0.0066206896551799 0 0.00022222222222229 0.0066206896551799 0.00015
          0.00022222222222229 0.0066206896551799 0.0003 0.00022222222222232 0.0070344827586275 0
          0.00022222222222232 0.0070344827586275 0.00015 0.00022222222222232 0.0070344827586275 0.0003
          0.00022222222222236 0.007448275862075 0 0.00022222222222236 0.007448275862075 0.00015
          0.00022222222222236 0.007448275862075 0.0003 0.00022222222222239 0.0078620689655229 0
          0.00022222222222239 0.0078620689655229 0.00015 0.00022222222222239 0.0078620689655229 0.0003
          0.00033333333333257 0 0 0.00033333333333262 0.00041379310344914 0
          0.00033333333333257 0 0.00015 0.00033333333333262 0.00041379310344914 0.00015
          0.00033333333333257 0 0.0003 0.00033333333333262 0.00041379310344914 0.0003
          0.00033333333333268 0.00082758620689808 0 0.00033333333333268 0.00082758620689808 0.00015
          0.00033333333333268 0.00082758620689808 0.0003 0.00033333333333273 0.0012413793103456 0
          0.00033333333333273 0.0012413793103456 0.00015 0.00033333333333273 0.0012413793103456 0.0003
          0.00033333333333278 0.0016551724137948 0 0.00033333333333278 0.0016551724137948 0.00015
          0.00033333333333278 0.0016551724137948 0.0003 0.00033333333333283 0.0020689655172438 0
          0.00033333333333283 0.0020689655172438 0.00015 0.00033333333333283 0.0020689655172438 0.0003
          0.00033333333333289 0.0024827586206928 0 0.00033333333333289 0.0024827586206928 0.00015
          0.00033333333333289 0.0024827586206928 0.0003 0.00033333333333294 0.0028965517241412 0
          0.00033333333333294 0.0028965517241412 0.00015 0.00033333333333294 0.0028965517241412 0.0003
          0.00033333333333299 0.0033103448275885 0 0.00033333333333299 0.0033103448275885 0.00015
          0.00033333333333299 0.0033103448275885 0.0003 0.00033333333333305 0.0037241379310375 0
          0.00033333333333305 0.0037241379310375 0.00015 0.00033333333333305 0.0037241379310375 0.0003
          0.0003333333333331 0.0041379310344865 0 0.0003333333333331 0.0041379310344865 0.00015
          0.0003333333333331 0.0041379310344865 0.0003 0.00033333333333315 0.0045517241379349 0
          0.00033333333333315 0.0045517241379349 0.00015 0.00033333333333315 0.0045517241379349 0.0003
          0.0003333333333332 0.0049655172413834 0 0.0003333333333332 0.0049655172413834 0.00015
          0.0003333333333332 0.0049655172413834 0.0003 0.00033333333333326 0.0053793103448322 0
          0.00033333333333326 0.0053793103448322 0.00015 0.00033333333333326 0.0053793103448322 0.0003
          0.00033333333333331 0.0057931034482806 0 0.00033333333333331 0.0057931034482806 0.00015
          0.00033333333333331 0.0057931034482806 0.0003 0.00033333333333336 0.006206896551729 0
          0.00033333333333336 0.006206896551729 0.00015 0.00033333333333336 0.006206896551729 0.0003
          0.00033333333333342 0.0066206896551769 0 0.00033333333333342 0.0066206896551769 0.00015
          0.00033333333333342 0.0066206896551769 0.0003 0.00033333333333347 0.0070344827586248 0
          0.00033333333333347 0.0070344827586248 0.00015 0.00033333333333347 0.0070344827586248 0.0003
          0.00033333333333352 0.0074482758620725 0 0.00033333333333352 0.0074482758620725 0.00015
          0.00033333333333352 0.0074482758620725 0.0003 0.00033333333333357 0.0078620689655205 0
          0.00033333333333357 0.0078620689655205 0.00015 0.00033333333333357 0.0078620689655205 0.0003
          0.00044444444444337 0 0 0.00044444444444345 0.00041379310344886 0
          0.00044444444444337 0 0.00015 0.00044444444444345 0.00041379310344886 0.00015
          0.00044444444444337 0 0.0003 0.00044444444444345 0.00041379310344886 0.0003
          0.00044444444444352 0.00082758620689756 0 0.00044444444444352 0.00082758620689756 0.00015
          0.00044444444444352 0.00082758620689756 0.0003 0.00044444444444359 0.0012413793103451 0
          0.00044444444444359 0.0012413793103451 0.00015 0.00044444444444359 0.0012413793103451 0.0003
          0.00044444444444367 0.001655172413794 0 0.00044444444444367 0.001655172413794 0.00015
          0.00044444444444367 0.001655172413794 0.0003 0.00044444444444374 0.0020689655172427 0
          0.00044444444444374 0.0020689655172427 0.00015 0.00044444444444374 0.0020689655172427 0.0003
          0.00044444444444382 0.0024827586206914 0 0.00044444444444382 0.0024827586206914 0.00015
          0.00044444444444382 0.0024827586206914 0.0003 0.00044444444444389 0.0028965517241395 0
          0.00044444444444389 0.0028965517241395 0.00015 0.00044444444444389 0.0028965517241395 0.0003
          0.00044444444444397 0.0033103448275869 0 0.00044444444444397 0.0033103448275869 0.00015
          0.00044444444444397 0.0033103448275869 0.0003 0.00044444444444404 0.0037241379310355 0
          0.00044444444444404 0.0037241379310355 0.00015 0.00044444444444404 0.0037241379310355 0.0003
          0.00044444444444412 0.0041379310344842 0 0.00044444444444412 0.0041379310344842 0.00015
          0.00044444444444412 0.0041379310344842 0.0003 0.00044444444444419 0.0045517241379324 0
          0.00044444444444419 0.0045517241379324 0.00015 0.00044444444444419 0.0045517241379324 0.0003
          0.00044444444444426 0.0049655172413807 0 0.00044444444444426 0.0049655172413807 0.00015
          0.00044444444444426 0.0049655172413807 0.0003 0.00044444444444434 0.0053793103448292 0
          0.00044444444444434 0.0053793103448292 0.00015 0.00044444444444434 0.0053793103448292 0.0003
          0.00044444444444441 0.0057931034482774 0 0.00044444444444441 0.0057931034482774 0.00015
          0.00044444444444441 0.0057931034482774 0.0003 0.00044444444444449 0.0062068965517258 0
          0.00044444444444449 0.0062068965517258 0.00015 0.00044444444444449 0.0062068965517258 0.0003
          0.00044444444444456 0.0066206896551738 0 0.00044444444444456 0.0066206896551738 0.00015
          0.00044444444444456 0.0066206896551738 0.0003 0.00044444444444464 0.007034482758622 0
          0.00044444444444464 0.007034482758622 0.00015 0.00044444444444464 0.007034482758622 0.0003
          0.00044444444444471 0.00744827586207 0 0.00044444444444471 0.00744827586207 0.00015
          0.00044444444444471 0.00744827586207 0.0003 0.00044444444444479 0.0078620689655182 0
          0.00044444444444479 0.0078620689655182 0.00015 0.00044444444444479 0.0078620689655182 0.0003
          0.00055555555555442 0 0 0.0005555555555545 0.00041379310344859 0
          0.00055555555555442 0 0.00015 0.0005555555555545 0.00041379310344859 0.00015
          0.00055555555555442 0 0.0003 0.0005555555555545 0.00041379310344859 0.0003
          0.00055555555555458 0.00082758620689704 0 0.00055555555555458 0.00082758620689704 0.00015
          0.00055555555555458 0.00082758620689704 0.0003 0.00055555555555465 0.0012413793103446 0
          0.00055555555555465 0.0012413793103446 0.00015 0.00055555555555465 0.0012413793103446 0.0003
          0.00055555555555473 0.0016551724137932 0 0.00055555555555473 0.0016551724137932 0.00015
          0.00055555555555473 0.0016551724137932 0.0003 0.00055555555555481 0.0020689655172416 0
          0.00055555555555481 0.0020689655172416 0.00015 0.00055555555555481 0.0020689655172416 0.0003
          0.00055555555555489 0.0024827586206899 0 0.00055555555555489 0.0024827586206899 0.00015
          0.00055555555555489 0.0024827586206899 0.0003 0.00055555555555497 0.0028965517241379 0
          0.00055555555555497 0.0028965517241379 0.00015 0.00055555555555497 0.0028965517241379 0.0003
          0.00055555555555504 0.0033103448275852 0 0.00055555555555504 0.0033103448275852 0.00015
          0.00055555555555504 0.0033103448275852 0.0003 0.00055555555555512 0.0037241379310336 0
          0.00055555555555512 0.0037241379310336 0.00015 0.00055555555555512 0.0037241379310336 0.0003
          0.0005555555555552 0.0041379310344819 0 0.0005555555555552 0.0041379310344819 0.00015
          0.0005555555555552 0.0041379310344819 0.0003 0.00055555555555528 0.0045517241379299 0
          0.00055555555555528 0.0045517241379299 0.00015 0.00055555555555528 0.0045517241379299 0.0003
          0.00055555555555535 0.0049655172413779 0 0.00055555555555535 0.0049655172413779 0.00015
          0.00055555555555535 0.0049655172413779 0.0003 0.00055555555555543 0.0053793103448261 0
          0.00055555555555543 0.0053793103448261 0.00015 0.00055555555555543 0.0053793103448261 0.0003
          0.00055555555555551 0.0057931034482741 0 0.00055555555555551 0.0057931034482741 0.00015
          0.00055555555555551 0.0057931034482741 0.0003 0.00055555555555559 0.0062068965517226 0
          0.00055555555555559 0.0062068965517226 0.00015 0.00055555555555559 0.0062068965517226 0.0003
          0.00055555555555566 0.0066206896551708 0 0.00055555555555566 0.0066206896551708 0.00015
          0.00055555555555566 0.0066206896551708 0.0003 0.00055555555555574 0.0070344827586193 0
          0.00055555555555574 0.0070344827586193 0.00015 0.00055555555555574 0.0070344827586193 0.0003
          0.00055555555555582 0.0074482758620675 0 0.00055555555555582 0.0074482758620675 0.00015
          0.00055555555555582 0.0074482758620675 0.0003 0.0005555555555559 0.0078620689655158 0
          0.0005555555555559 0.0078620689655158 0.00015 0.0005555555555559 0.0078620689655158 0.0003
          0.00066666666666586 0 0 0.0006666666666659 0.00041379310344831 0
          0.00066666666666586 0 0.00015 0.0006666666666659 0.00041379310344831 0.00015
          0.00066666666666586 0 0.0003 0.0006666666666659 0.00041379310344831 0.0003
          0.00066666666666595 0.00082758620689653 0 0.00066666666666595 0.00082758620689653 0.00015
          0.00066666666666595 0.00082758620689653 0.0003 0.00066666666666599 0.0012413793103441 0
          0.00066666666666599 0.0012413793103441 0.00015 0.00066666666666599 0.0012413793103441 0.0003
          0.00066666666666604 0.0016551724137924 0 0.00066666666666604 0.0016551724137924 0.00015
          0.00066666666666604 0.0016551724137924 0.0003 0.00066666666666608 0.0020689655172404 0
          0.00066666666666608 0.0020689655172404 0.00015 0.00066666666666608 0.0020689655172404 0.0003
          0.00066666666666613 0.0024827586206885 0 0.00066666666666613 0.0024827586206885 0.00015
          0.00066666666666613 0.0024827586206885 0.0003 0.00066666666666617 0.0028965517241363 0
          0.00066666666666617 0.0028965517241363 0.00015 0.00066666666666617 0.0028965517241363 0.0003
          0.00066666666666622 0.0033103448275835 0 0.00066666666666622 0.0033103448275835 0.00015
          0.00066666666666622 0.0033103448275835 0.0003 0.00066666666666626 0.0037241379310316 0
          0.00066666666666626 0.0037241379310316 0.00015 0.00066666666666626 0.0037241379310316 0.0003
          0.0006666666666663 0.0041379310344796 0 0.0006666666666663 0.0041379310344796 0.00015
          0.0006666666666663 0.0041379310344796 0.0003 0.00066666666666635 0.0045517241379274 0
          0.00066666666666635 0.0045517241379274 0.00015 0.00066666666666635 0.0045517241379274 0.0003
          0.00066666666666639 0.0049655172413752 0 0.00066666666666639 0.0049655172413752 0.00015
          0.00066666666666639 0.0049655172413752 0.0003 0.00066666666666644 0.0053793103448231 0
          0.00066666666666644 0.0053793103448231 0.00015 0.00066666666666644 0.0053793103448231 0.0003
          0.00066666666666648 0.0057931034482709 0 0.00066666666666648 0.0057931034482709 0.00015
          0.00066666666666648 0.0057931034482709 0.0003 0.00066666666666653 0.0062068965517194 0
          0.00066666666666653 0.0062068965517194 0.00015 0.00066666666666653 0.0062068965517194 0.0003
          0.00066666666666657 0.0066206896551677 0 0.00066666666666657 0.0066206896551677 0.00015
          0.00066666666666657 0.0066206896551677 0.0003 0.00066666666666661 0.0070344827586165 0
          0.00066666666666661 0.0070344827586165 0.00015 0.00066666666666661 0.0070344827586165 0.0003
          0.00066666666666666 0.0074482758620651 0 0.00066666666666666 0.0074482758620651 0.00015
          0.00066666666666666 0.0074482758620651 0.0003 0.0006666666666667 0.0078620689655135 0
          0.0006666666666667 0.0078620689655135 0.00015 0.0006666666666667 0.0078620689655135 0.0003
          0.00077777777777724 0 0 0.00077777777777728 0.00041379310344804 0
          0.00077777777777724 0 0.00015 0.00077777777777728 0.00041379310344804 0.00015
          0.00077777777777724 0 0.0003 0.00077777777777728 0.00041379310344804 0.0003
          0.00077777777777731 0.00082758620689601 0 0.00077777777777731 0.00082758620689601 0.00015
          0.00077777777777731 0.00082758620689601 0.0003 0.00077777777777734 0.0012413793103436 0
          0.00077777777777734 0.0012413793103436 0.00015 0.00077777777777734 0.0012413793103436 0.0003
          0.00077777777777737 0.0016551724137916 0 0.00077777777777737 0.0016551724137916 0.00015
          0.00077777777777737 0.0016551724137916 0.0003 0.0007777777777774 0.0020689655172393 0
          0.0007777777777774 0.0020689655172393 0.00015 0.0007777777777774 0.0020689655172393 0.0003
          0.00077777777777743 0.0024827586206871 0 0.00077777777777743 0.0024827586206871 0.00015
          0.00077777777777743 0.0024827586206871 0.0003 0.00077777777777747 0.0028965517241347 0
          0.00077777777777747 0.0028965517241347 0.00015 0.00077777777777747 0.0028965517241347 0.0003
          0.0007777777777775 0.0033103448275818 0 0.0007777777777775 0.0033103448275818 0.00015
          0.0007777777777775 0.0033103448275818 0.0003 0.00077777777777753 0.0037241379310296 0
          0.00077777777777753 0.0037241379310296 0.00015 0.00077777777777753 0.0037241379310296 0.0003
          0.00077777777777756 0.0041379310344773 0 0.00077777777777756 0.0041379310344773 0.00015
          0.00077777777777756 0.0041379310344773 0.0003 0.00077777777777759 0.0045517241379249 0
          0.00077777777777759 0.0045517241379249 0.00015 0.00077777777777759 0.0045517241379249 0.0003
          0.00077777777777762 0.0049655172413724 0 0.00077777777777762 0.0049655172413724 0.00015
          0.00077777777777762 0.0049655172413724 0.0003 0.00077777777777765 0.00537931034482 0
          0.00077777777777765 0.00537931034482 0.00015 0.00077777777777765 0.00537931034482 0.0003
          0.00077777777777769 0.0057931034482677 0 0.00077777777777769 0.0057931034482677 0.00015
          0.00077777777777769 0.0057931034482677 0.0003 0.00077777777777772 0.0062068965517161 0
          0.00077777777777772 0.0062068965517161 0.00015 0.00077777777777772 0.0062068965517161 0.0003
          0.00077777777777775 0.0066206896551647 0 0.00077777777777775 0.0066206896551647 0.00015
          0.00077777777777775 0.0066206896551647 0.0003 0.00077777777777778 0.0070344827586137 0
          0.00077777777777778 0.0070344827586137 0.00015 0.00077777777777778 0.0070344827586137 0.0003
          0.00077777777777781 0.0074482758620625 0 0.00077777777777781 0.0074482758620625 0.00015
          0.00077777777777781 0.0074482758620625 0.0003 0.00077777777777784 0.0078620689655112 0
          0.00077777777777784 0.0078620689655112 0.00015 0.00077777777777784 0.0078620689655112 0.0003
          0.00088888888888862 0 0 0.00088888888888863 0.00041379310344776 0
          0.00088888888888862 0 0.00015 0.00088888888888863 0.00041379310344776 0.00015
          0.00088888888888862 0 0.0003 0.00088888888888863 0.00041379310344776 0.0003
          0.00088888888888864 0.00082758620689549 0 0.00088888888888864 0.00082758620689549 0.00015
          0.00088888888888864 0.00082758620689549 0.0003 0.00088888888888865 0.0012413793103431 0
          0.00088888888888865 0.0012413793103431 0.00015 0.00088888888888865 0.0012413793103431 0.0003
          0.00088888888888866 0.0016551724137908 0 0.00088888888888866 0.0016551724137908 0.00015
          0.00088888888888866 0.0016551724137908 0.0003 0.00088888888888867 0.0020689655172382 0
          0.00088888888888867 0.0020689655172382 0.00015 0.00088888888888867 0.0020689655172382 0.0003
          0.00088888888888868 0.0024827586206857 0 0.00088888888888868 0.0024827586206857 0.00015
          0.00088888888888868 0.0024827586206857 0.0003 0.00088888888888868 0.002896551724133 0
          0.00088888888888868 0.002896551724133 0.00015 0.00088888888888868 0.002896551724133 0.0003
          0.00088888888888869 0.0033103448275802 0 0.00088888888888869 0.0033103448275802 0.00015
          0.00088888888888869 0.0033103448275802 0.0003 0.0008888888888887 0.0037241379310276 0
          0.0008888888888887 0.0037241379310276 0.00015 0.0008888888888887 0.0037241379310276 0.0003
          0.00088888888888871 0.004137931034475 0 0.00088888888888871 0.004137931034475 0.00015
          0.00088888888888871 0.004137931034475 0.0003 0.00088888888888872 0.0045517241379224 0
          0.00088888888888872 0.0045517241379224 0.00015 0.00088888888888872 0.0045517241379224 0.0003
          0.00088888888888873 0.0049655172413697 0 0.00088888888888873 0.0049655172413697 0.00015
          0.00088888888888873 0.0049655172413697 0.0003 0.00088888888888874 0.005379310344817 0
          0.00088888888888874 0.005379310344817 0.00015 0.00088888888888874 0.005379310344817 0.0003
          0.00088888888888875 0.0057931034482644 0 0.00088888888888875 0.0057931034482644 0.00015
          0.00088888888888875 0.0057931034482644 0.0003 0.00088888888888876 0.0062068965517129 0
          0.00088888888888876 0.0062068965517129 0.00015 0.00088888888888876 0.0062068965517129 0.0003
          0.00088888888888877 0.0066206896551616 0 0.00088888888888877 0.0066206896551616 0.00015
          0.00088888888888877 0.0066206896551616 0.0003 0.00088888888888877 0.007034482758611 0
          0.00088888888888877 0.007034482758611 0.00015 0.00088888888888877 0.007034482758611 0.0003
          0.00088888888888878 0.00744827586206 0 0.00088888888888878 0.00744827586206 0.00015
          0.00088888888888878 0.00744827586206 0.0003 0.00088888888888879 0.0078620689655088 0
          0.00088888888888879 0.0078620689655088 0.00015 0.00088888888888879 0.0078620689655088 0.0003
          0.001 0 0 0.001 0.00041379310344749 0
          0.001 0 0.00015 0.001 0.00041379310344749 0.00015
          0.001 0 0.0003 0.001 0.00041379310344749 0.0003
          0.001 0.00082758620689497 0 0.001 0.00082758620689497 0.00015
          0.001 0.00082758620689497 0.0003 0.001 0.0012413793103426 0
          0.001 0.0012413793103426 0.00015 0.001 0.0012413793103426 0.0003
          0.001 0.0016551724137901 0 0.001 0.0016551724137901 0.00015
          0.001 0.0016551724137901 0.0003 0.001 0.0020689655172371 0
          0.001 0.0020689655172371 0.00015 0.001 0.0020689655172371 0.0003
          0.001 0.0024827586206843 0 0.001 0.0024827586206843 0.00015
          0.001 0.0024827586206843 0.0003 0.001 0.0028965517241314 0
          0.001 0.0028965517241314 0.00015 0.001 0.0028965517241314 0.0003
          0.001 0.0033103448275785 0 0.001 0.0033103448275785 0.00015
          0.001 0.0033103448275785 0.0003 0.001 0.0037241379310256 0
          0.001 0.0037241379310256 0.00015 0.001 0.0037241379310256 0.0003
          0.001 0.0041379310344727 0 0.001 0.0041379310344727 0.00015
          0.001 0.0041379310344727 0.0003 0.001 0.0045517241379199 0
          0.001 0.0045517241379199 0.00015 0.001 0.0045517241379199 0.0003
          0.001 0.0049655172413669 0 0.001 0.0049655172413669 0.00015
          0.001 0.0049655172413669 0.0003 0.001 0.0053793103448139 0
          0.001 0.0053793103448139 0.00015 0.001 0.0053793103448139 0.0003
          0.001 0.0057931034482612 0 0.001 0.0057931034482612 0.00015
          0.001 0.0057931034482612 0.0003 0.001 0.0062068965517097 0
          0.001 0.0062068965517097 0.00015 0.001 0.0062068965517097 0.0003
          0.001 0.0066206896551586 0 0.001 0.0066206896551586 0.00015
          0.001 0.0066206896551586 0.0003 0.001 0.0070344827586082 0
          0.001 0.0070344827586082 0.00015 0.001 0.0070344827586082 0.0003
          0.001 0.0074482758620575 0 0.001 0.0074482758620575 0.00015
          0.001 0.0074482758620575 0.0003 0.001 0.0078620689655065 0
          0.001 0.0078620689655065 0.00015 0.001 0.0078620689655065 0.0003
          0.001 0.0082758620689564 0 0.001 0.0082758620689564 0.00015
          0.001 0.0082758620689564 0.0003 0.001 0.0086896551724064 0
          0.001 0.0086896551724064 0.00015 0.001 0.0086896551724064 0.0003
          0.0014444444444438 0.00041379310344749 0 0.0014444444444438 0 0
          0.0014444444444438 0.00041379310344749 0.00015 0.0014444444444438 0 0.00015
          0.0014444444444438 0.00041379310344749 0.0003 0.0014444444444438 0 0.0003
          0.0014444444444439 0.00082758620689497 0 0.0014444444444439 0.00082758620689497 0.00015
          0.0014444444444439 0.00082758620689497 0.0003 0.001444444444444 0.0012413793103426 0
          0.001444444444444 0.0012413793103426 0.00015 0.001444444444444 0.0012413793103426 0.0003
          0.001444444444444 0.0016551724137901 0 0.001444444444444 0.0016551724137901 0.00015
          0.001444444444444 0.0016551724137901 0.0003 0.0014444444444441 0.0020689655172371 0
          0.0014444444444441 0.0020689655172371 0.00015 0.0014444444444441 0.0020689655172371 0.0003
          0.0014444444444441 0.0024827586206843 0 0.0014444444444441 0.0024827586206843 0.00015
          0.0014444444444441 0.0024827586206843 0.0003 0.0014444444444446 0.0062068965517097 0
          0.0014444444444446 0.0062068965517097 0.00015 0.0014444444444446 0.0062068965517097 0.0003
          0.0014444444444447 0.0066206896551586 0 0.0014444444444447 0.0066206896551586 0.00015
          0.0014444444444447 0.0066206896551586 0.0003 0.0014444444444448 0.0070344827586082 0
          0.0014444444444448 0.0070344827586082 0.00015 0.0014444444444448 0.0070344827586082 0.0003
          0.0014444444444448 0.0074482758620576 0 0.0014444444444448 0.0074482758620576 0.00015
          0.0014444444444448 0.0074482758620576 0.0003 0.0014444444444449 0.0078620689655065 0
          0.0014444444444449 0.0078620689655065 0.00015 0.0014444444444449 0.0078620689655065 0.0003
          0.0018888888888896 0.0078620689655065 0 0.0018888888888896 0.0078620689655065 0.00015
          0.0018888888888896 0.0078620689655065 0.0003 0.0014444444444449 0.0082758620689564 0
          0.0014444444444449 0.0082758620689564 0.00015 0.0014444444444449 0.0082758620689564 0.0003
          0.0018888888888898 0.0082758620689564 0 0.0018888888888898 0.0082758620689564 0.00015
          0.0018888888888898 0.0082758620689564 0.0003 0.001444444444445 0.0086896551724064 0
          0.001444444444445 0.0086896551724064 0.00015 0.001444444444445 0.0086896551724064 0.0003
          0.0018888888888899 0.0086896551724064 0 0.0018888888888899 0.0086896551724064 0.00015
          0.0018888888888899 0.0086896551724064 0.0003 0.0014444444444451 0.0091034482758539 0
          0.0014444444444451 0.0091034482758539 0.00015 0.0014444444444451 0.0091034482758539 0.0003
          0.00188888888889 0.0091034482758539 0 0.00188888888889 0.0091034482758539 0.00015
          0.00188888888889 0.0091034482758539 0.0003 0.00011111111111123 0.0082758620689751 0
          0 0.0082758620689774 0 0.00011111111111123 0.0082758620689751 0.00015
          0 0.0082758620689774 0.00015 0.00011111111111123 0.0082758620689751 0.0003
          0 0.0082758620689774 0.0003 0.00022222222222243 0.0082758620689727 0
          0.00022222222222243 0.0082758620689727 0.00015 0.00022222222222243 0.0082758620689727 0.0003
          0.00033333333333363 0.0082758620689704 0 0.00033333333333363 0.0082758620689704 0.00015
          0.00033333333333363 0.0082758620689704 0.0003 0.00044444444444486 0.0082758620689681 0
          0.00044444444444486 0.0082758620689681 0.00015 0.00044444444444486 0.0082758620689681 0.0003
          0.00055555555555597 0.0082758620689657 0 0.00055555555555597 0.0082758620689657 0.00015
          0.00055555555555597 0.0082758620689657 0.0003 0.00066666666666675 0.0082758620689634 0
          0.00066666666666675 0.0082758620689634 0.00015 0.00066666666666675 0.0082758620689634 0.0003
          0.00077777777777787 0.0082758620689611 0 0.00077777777777787 0.0082758620689611 0.00015
          0.00077777777777787 0.0082758620689611 0.0003 0.0008888888888888 0.0082758620689588 0
          0.0008888888888888 0.0082758620689588 0.00015 0.0008888888888888 0.0082758620689588 0.0003
          0.00088888888888881 0.0086896551724084 0 0.00088888888888881 0.0086896551724084 0.00015
          0.00088888888888881 0.0086896551724084 0.0003 0.001 0.0091034482758539 0
          0.00088888888888882 0.0091034482758559 0 0.001 0.0091034482758539 0.00015
          0.00088888888888882 0.0091034482758559 0.00015 0.001 0.0091034482758539 0.0003
          0.00088888888888882 0.0091034482758559 0.0003 0.0018888888888873 0.00041379310344749 0
          0.0018888888888872 0 0 0.0018888888888873 0.00041379310344749 0.00015
          0.0018888888888872 0 0.00015 0.0018888888888873 0.00041379310344749 0.0003
          0.0018888888888872 0 0.0003 0.0018888888888875 0.00082758620689497 0
          0.0018888888888875 0.00082758620689497 0.00015 0.0018888888888875 0.00082758620689497 0.0003
          0.0018888888888876 0.0012413793103426 0 0.0018888888888876 0.0012413793103426 0.00015
          0.0018888888888876 0.0012413793103426 0.0003 0.0018888888888877 0.0016551724137901 0
          0.0018888888888877 0.0016551724137901 0.00015 0.0018888888888877 0.0016551724137901 0.0003
          0.0018888888888879 0.0020689655172371 0 0.0018888888888879 0.0020689655172371 0.00015
          0.0018888888888879 0.0020689655172371 0.0003 0.001888888888888 0.0024827586206843 0
          0.001888888888888 0.0024827586206843 0.00015 0.001888888888888 0.0024827586206843 0.0003
          0.0014444444444442 0.0028965517241314 0 0.0014444444444442 0.0028965517241314 0.00015
          0.0014444444444442 0.0028965517241314 0.0003 0.0018888888888881 0.0028965517241314 0
          0.0018888888888881 0.0028965517241314 0.00015 0.0018888888888881 0.0028965517241314 0.0003
          0.0014444444444442 0.0033103448275785 0 0.0014444444444442 0.0033103448275785 0.00015
          0.0014444444444442 0.0033103448275785 0.0003 0.0014444444444443 0.0037241379310256 0
          0.0014444444444443 0.0037241379310256 0.00015 0.0014444444444443 0.0037241379310256 0.0003
          0.0014444444444444 0.0041379310344727 0 0.0014444444444444 0.0041379310344727 0.00015
          0.0014444444444444 0.0041379310344727 0.0003 0.0014444444444444 0.0045517241379199 0
          0.0014444444444444 0.0045517241379199 0.00015 0.0014444444444444 0.0045517241379199 0.0003
          0.0014444444444445 0.0049655172413669 0 0.0014444444444445 0.0049655172413669 0.00015
          0.0014444444444445 0.0049655172413669 0.0003 0.0014444444444445 0.0053793103448139 0
          0.0014444444444445 0.0053793103448139 0.00015 0.0014444444444445 0.0053793103448139 0.0003
          0.0014444444444446 0.0057931034482612 0 0.0014444444444446 0.0057931034482612 0.00015
          0.0014444444444446 0.0057931034482612 0.0003 0.0018888888888891 0.0062068965517097 0
          0.001888888888889 0.0057931034482612 0 0.0018888888888891 0.0062068965517097 0.00015
          0.001888888888889 0.0057931034482612 0.00015 0.0018888888888891 0.0062068965517097 0.0003
          0.001888888888889 0.0057931034482612 0.0003 0.0018888888888893 0.0066206896551586 0
          0.0018888888888893 0.0066206896551586 0.00015 0.0018888888888893 0.0066206896551586 0.0003
          0.0018888888888894 0.0070344827586082 0 0.0018888888888894 0.0070344827586082 0.00015
          0.0018888888888894 0.0070344827586082 0.0003 0.0018888888888895 0.0074482758620575 0
          0.0018888888888895 0.0074482758620575 0.00015 0.0018888888888895 0.0074482758620575 0.0003
          0.0023333333333346 0.0078620689655065 0 0.0023333333333344 0.0074482758620575 0
          0.0023333333333346 0.0078620689655065 0.00015 0.0023333333333344 0.0074482758620575 0.00015
          0.0023333333333346 0.0078620689655065 0.0003 0.0023333333333344 0.0074482758620575 0.0003
          0.0023333333333348 0.0082758620689564 0 0.0023333333333348 0.0082758620689564 0.00015
          0.0023333333333348 0.0082758620689564 0.0003 0.002333333333335 0.0086896551724064 0
          0.002333333333335 0.0086896551724064 0.00015 0.002333333333335 0.0086896551724064 0.0003
          0.0023333333333351 0.0091034482758539 0 0.0023333333333351 0.0091034482758539 0.00015
          0.0023333333333351 0.0091034482758539 0.0003 0.0014444444444451 0.0095172413793029 0
          0.001 0.0095172413793029 0 0.0014444444444451 0.0095172413793029 0.00015
          0.001 0.0095172413793029 0.00015 0.0014444444444451 0.0095172413793029 0.0003
          0.001 0.0095172413793029 0.0003 0.0018888888888902 0.0095172413793029 0
          0.0018888888888902 0.0095172413793029 0.00015 0.0018888888888902 0.0095172413793029 0.0003
          0.0023333333333353 0.0095172413793029 0 0.0023333333333353 0.0095172413793029 0.00015
          0.0023333333333353 0.0095172413793029 0.0003
          <InformationKey name="L2_NORM_RANGE" location="vtkDataArray" length="2">
            <Value index="0">
              0
            </Value>
            <Value index="1">
              0.0098036895053
            </Value>
          </InformationKey>
        </DataArray>
      </Points>
      <Cells>
        <DataArray type="Int64" Name="connectivity" format="ascii" RangeMin="0" RangeMax="788">
          0 1 2 3 4 5
          6 7 4 5 6 7
          8 9 10 11 3 2
          12 13 7 6 14 15
          7 6 14 15 11 10
          16 17 13 12 18 19
          15 14 20 21 15 14
          20 21 17 16 22 23
          19 18 24 25 21 20
          26 27 21 20 26 27
          23 22 28 29 25 24
          30 31 27 26 32 33
          27 26 32 33 29 28
          34 35 31 30 36 37
          33 32 38 39 33 32
          38 39 35 34 40 41
          37 36 42 43 39 38
          44 45 39 38 44 45
          41 40 46 47 43 42
          48 49 45 44 50 51
          45 44 50 51 47 46
          52 53 49 48 54 55
          51 50 56 57 51 50
          56 57 53 52 58 59
          55 54 60 61 57 56
          62 63 57 56 62 63
          59 58 64 65 61 60
          66 67 63 62 68 69
          63 62 68 69 65 64
          70 71 67 66 72 73
          69 68 74 75 69 68
          74 75 71 70 76 77
          73 72 78 79 75 74
          80 81 75 74 80 81
          77 76 82 83 79 78
          84 85 81 80 86 87
          81 80 86 87 83 82
          88 89 85 84 90 91
          87 86 92 93 87 86
          92 93 89 88 94 95
          91 90 96 97 93 92
          98 99 93 92 98 99
          95 94 100 101 97 96
          102 103 99 98 104 105
          99 98 104 105 101 100
          106 107 103 102 108 109
          105 104 110 111 105 104
          110 111 107 106 112 113
          109 108 114 115 111 110
          116 117 111 110 116 117
          113 112 118 119 115 114
          663 664 117 116 665 666
          117 116 665 666 119 118
          667 668 1 120 121 2
          5 122 123 6 5 122
          123 6 9 124 125 10
          2 121 126 12 6 123
          127 14 6 123 127 14
          10 125 128 16 12 126
          129 18 14 127 130 20
          14 127 130 20 16 128
          131 22 18 129 132 24
          20 130 133 26 20 130
          133 26 22 131 134 28
          24 132 135 30 26 133
          136 32 26 133 136 32
          28 134 137 34 30 135
          138 36 32 136 139 38
          32 136 139 38 34 137
          140 40 36 138 141 42
          38 139 142 44 38 139
          142 44 40 140 143 46
          42 141 144 48 44 142
          145 50 44 142 145 50
          46 143 146 52 48 144
          147 54 50 145 148 56
          50 145 148 56 52 146
          149 58 54 147 150 60
          56 148 151 62 56 148
          151 62 58 149 152 64
          60 150 153 66 62 151
          154 68 62 151 154 68
          64 152 155 70 66 153
          156 72 68 154 157 74
          68 154 157 74 70 155
          158 76 72 156 159 78
          74 157 160 80 74 157
          160 80 76 158 161 82
          78 159 162 84 80 160
          163 86 80 160 163 86
          82 161 164 88 84 162
          165 90 86 163 166 92
          86 163 166 92 88 164
          167 94 90 165 168 96
          92 166 169 98 92 166
          169 98 94 167 170 100
          96 168 171 102 98 169
          172 104 98 169 172 104
          100 170 173 106 102 171
          174 108 104 172 175 110
          104 172 175 110 106 173
          176 112 108 174 177 114
          110 175 178 116 110 175
          178 116 112 176 179 118
          114 177 669 663 116 178
          670 665 116 178 670 665
          118 179 671 667 120 180
          181 121 122 182 183 123
          122 182 183 123 124 184
          185 125 121 181 186 126
          123 183 187 127 123 183
          187 127 125 185 188 128
          126 186 189 129 127 187
          190 130 127 187 190 130
          128 188 191 131 129 189
          192 132 130 190 193 133
          130 190 193 133 131 191
          194 134 132 192 195 135
          133 193 196 136 133 193
          196 136 134 194 197 137
          135 195 198 138 136 196
          199 139 136 196 199 139
          137 197 200 140 138 198
          201 141 139 199 202 142
          139 199 202 142 140 200
          203 143 141 201 204 144
          142 202 205 145 142 202
          205 145 143 203 206 146
          144 204 207 147 145 205
          208 148 145 205 208 148
          146 206 209 149 147 207
          210 150 148 208 211 151
          148 208 211 151 149 209
          212 152 150 210 213 153
          151 211 214 154 151 211
          214 154 152 212 215 155
          153 213 216 156 154 214
          217 157 154 214 217 157
          155 215 218 158 156 216
          219 159 157 217 220 160
          157 217 220 160 158 218
          221 161 159 219 222 162
          160 220 223 163 160 220
          223 163 161 221 224 164
          162 222 225 165 163 223
          226 166 163 223 226 166
          164 224 227 167 165 225
          228 168 166 226 229 169
          166 226 229 169 167 227
          230 170 168 228 231 171
          169 229 232 172 169 229
          232 172 170 230 233 173
          171 231 234 174 172 232
          235 175 172 232 235 175
          173 233 236 176 174 234
          237 177 175 235 238 178
          175 235 238 178 176 236
          239 179 177 237 672 669
          178 238 673 670 178 238
          673 670 179 239 674 671
          180 240 241 181 182 242
          243 183 182 242 243 183
          184 244 245 185 181 241
          246 186 183 243 247 187
          183 243 247 187 185 245
          248 188 186 246 249 189
          187 247 250 190 187 247
          250 190 188 248 251 191
          189 249 252 192 190 250
          253 193 190 250 253 193
          191 251 254 194 192 252
          255 195 193 253 256 196
          193 253 256 196 194 254
          257 197 195 255 258 198
          196 256 259 199 196 256
          259 199 197 257 260 200
          198 258 261 201 199 259
          262 202 199 259 262 202
          200 260 263 203 201 261
          264 204 202 262 265 205
          202 262 265 205 203 263
          266 206 204 264 267 207
          205 265 268 208 205 265
          268 208 206 266 269 209
          207 267 270 210 208 268
          271 211 208 268 271 211
          209 269 272 212 210 270
          273 213 211 271 274 214
          211 271 274 214 212 272
          275 215 213 273 276 216
          214 274 277 217 214 274
          277 217 215 275 278 218
          216 276 279 219 217 277
          280 220 217 277 280 220
          218 278 281 221 219 279
          282 222 220 280 283 223
          220 280 283 223 221 281
          284 224 222 282 285 225
          223 283 286 226 223 283
          286 226 224 284 287 227
          225 285 288 228 226 286
          289 229 226 286 289 229
          227 287 290 230 228 288
          291 231 229 289 292 232
          229 289 292 232 230 290
          293 233 231 291 294 234
          232 292 295 235 232 292
          295 235 233 293 296 236
          234 294 297 237 235 295
          298 238 235 295 298 238
          236 296 299 239 237 297
          675 672 238 298 676 673
          238 298 676 673 239 299
          677 674 240 300 301 241
          242 302 303 243 242 302
          303 243 244 304 305 245
          241 301 306 246 243 303
          307 247 243 303 307 247
          245 305 308 248 246 306
          309 249 247 307 310 250
          247 307 310 250 248 308
          311 251 249 309 312 252
          250 310 313 253 250 310
          313 253 251 311 314 254
          252 312 315 255 253 313
          316 256 253 313 316 256
          254 314 317 257 255 315
          318 258 256 316 319 259
          256 316 319 259 257 317
          320 260 258 318 321 261
          259 319 322 262 259 319
          322 262 260 320 323 263
          261 321 324 264 262 322
          325 265 262 322 325 265
          263 323 326 266 264 324
          327 267 265 325 328 268
          265 325 328 268 266 326
          329 269 267 327 330 270
          268 328 331 271 268 328
          331 271 269 329 332 272
          270 330 333 273 271 331
          334 274 271 331 334 274
          272 332 335 275 273 333
          336 276 274 334 337 277
          274 334 337 277 275 335
          338 278 276 336 339 279
          277 337 340 280 277 337
          340 280 278 338 341 281
          279 339 342 282 280 340
          343 283 280 340 343 283
          281 341 344 284 282 342
          345 285 283 343 346 286
          283 343 346 286 284 344
          347 287 285 345 348 288
          286 346 349 289 286 346
          349 289 287 347 350 290
          288 348 351 291 289 349
          352 292 289 349 352 292
          290 350 353 293 291 351
          354 294 292 352 355 295
          292 352 355 295 293 353
          356 296 294 354 357 297
          295 355 358 298 295 355
          358 298 296 356 359 299
          297 357 678 675 298 358
          679 676 298 358 679 676
          299 359 680 677 300 360
          361 301 302 362 363 303
          302 362 363 303 304 364
          365 305 301 361 366 306
          303 363 367 307 303 363
          367 307 305 365 368 308
          306 366 369 309 307 367
          370 310 307 367 370 310
          308 368 371 311 309 369
          372 312 310 370 373 313
          310 370 373 313 311 371
          374 314 312 372 375 315
          313 373 376 316 313 373
          376 316 314 374 377 317
          315 375 378 318 316 376
          379 319 316 376 379 319
          317 377 380 320 318 378
          381 321 319 379 382 322
          319 379 382 322 320 380
          383 323 321 381 384 324
          322 382 385 325 322 382
          385 325 323 383 386 326
          324 384 387 327 325 385
          388 328 325 385 388 328
          326 386 389 329 327 387
          390 330 328 388 391 331
          328 388 391 331 329 389
          392 332 330 390 393 333
          331 391 394 334 331 391
          394 334 332 392 395 335
          333 393 396 336 334 394
          397 337 334 394 397 337
          335 395 398 338 336 396
          399 339 337 397 400 340
          337 397 400 340 338 398
          401 341 339 399 402 342
          340 400 403 343 340 400
          403 343 341 401 404 344
          342 402 405 345 343 403
          406 346 343 403 406 346
          344 404 407 347 345 405
          408 348 346 406 409 349
          346 406 409 349 347 407
          410 350 348 408 411 351
          349 409 412 352 349 409
          412 352 350 410 413 353
          351 411 414 354 352 412
          415 355 352 412 415 355
          353 413 416 356 354 414
          417 357 355 415 418 358
          355 415 418 358 356 416
          419 359 357 417 681 678
          358 418 682 679 358 418
          682 679 359 419 683 680
          360 420 421 361 362 422
          423 363 362 422 423 363
          364 424 425 365 361 421
          426 366 363 423 427 367
          363 423 427 367 365 425
          428 368 366 426 429 369
          367 427 430 370 367 427
          430 370 368 428 431 371
          369 429 432 372 370 430
          433 373 370 430 433 373
          371 431 434 374 372 432
          435 375 373 433 436 376
          373 433 436 376 374 434
          437 377 375 435 438 378
          376 436 439 379 376 436
          439 379 377 437 440 380
          378 438 441 381 379 439
          442 382 379 439 442 382
          380 440 443 383 381 441
          444 384 382 442 445 385
          382 442 445 385 383 443
          446 386 384 444 447 387
          385 445 448 388 385 445
          448 388 386 446 449 389
          387 447 450 390 388 448
          451 391 388 448 451 391
          389 449 452 392 390 450
          453 393 391 451 454 394
          391 451 454 394 392 452
          455 395 393 453 456 396
          394 454 457 397 394 454
          457 397 395 455 458 398
          396 456 459 399 397 457
          460 400 397 457 460 400
          398 458 461 401 399 459
          462 402 400 460 463 403
          400 460 463 403 401 461
          464 404 402 462 465 405
          403 463 466 406 403 463
          466 406 404 464 467 407
          405 465 468 408 406 466
          469 409 406 466 469 409
          407 467 470 410 408 468
          471 411 409 469 472 412
          409 469 472 412 410 470
          473 413 411 471 474 414
          412 472 475 415 412 472
          475 415 413 473 476 416
          414 474 477 417 415 475
          478 418 415 475 478 418
          416 476 479 419 417 477
          684 681 418 478 685 682
          418 478 685 682 419 479
          686 683 420 480 481 421
          422 482 483 423 422 482
          483 423 424 484 485 425
          421 481 486 426 423 483
          487 427 423 483 487 427
          425 485 488 428 426 486
          489 429 427 487 490 430
          427 487 490 430 428 488
          491 431 429 489 492 432
          430 490 493 433 430 490
          493 433 431 491 494 434
          432 492 495 435 433 493
          496 436 433 493 496 436
          434 494 497 437 435 495
          498 438 436 496 499 439
          436 496 499 439 437 497
          500 440 438 498 501 441
          439 499 502 442 439 499
          502 442 440 500 503 443
          441 501 504 444 442 502
          505 445 442 502 505 445
          443 503 506 446 444 504
          507 447 445 505 508 448
          445 505 508 448 446 506
          509 449 447 507 510 450
          448 508 511 451 448 508
          511 451 449 509 512 452
          450 510 513 453 451 511
          514 454 451 511 514 454
          452 512 515 455 453 513
          516 456 454 514 517 457
          454 514 517 457 455 515
          518 458 456 516 519 459
          457 517 520 460 457 517
          520 460 458 518 521 461
          459 519 522 462 460 520
          523 463 460 520 523 463
          461 521 524 464 462 522
          525 465 463 523 526 466
          463 523 526 466 464 524
          527 467 465 525 528 468
          466 526 529 469 466 526
          529 469 467 527 530 470
          468 528 531 471 469 529
          532 472 469 529 532 472
          470 530 533 473 471 531
          534 474 472 532 535 475
          472 532 535 475 473 533
          536 476 474 534 537 477
          475 535 538 478 475 535
          538 478 476 536 539 479
          477 537 687 684 478 538
          688 685 478 538 688 685
          479 539 689 686 480 540
          541 481 482 542 543 483
          482 542 543 483 484 544
          545 485 481 541 546 486
          483 543 547 487 483 543
          547 487 485 545 548 488
          486 546 549 489 487 547
          550 490 487 547 550 490
          488 548 551 491 489 549
          552 492 490 550 553 493
          490 550 553 493 491 551
          554 494 492 552 555 495
          493 553 556 496 493 553
          556 496 494 554 557 497
          495 555 558 498 496 556
          559 499 496 556 559 499
          497 557 560 500 498 558
          561 501 499 559 562 502
          499 559 562 502 500 560
          563 503 501 561 564 504
          502 562 565 505 502 562
          565 505 503 563 566 506
          504 564 567 507 505 565
          568 508 505 565 568 508
          506 566 569 509 507 567
          570 510 508 568 571 511
          508 568 571 511 509 569
          572 512 510 570 573 513
          511 571 574 514 511 571
          574 514 512 572 575 515
          513 573 576 516 514 574
          577 517 514 574 577 517
          515 575 578 518 516 576
          579 519 517 577 580 520
          517 577 580 520 518 578
          581 521 519 579 582 522
          520 580 583 523 520 580
          583 523 521 581 584 524
          522 582 585 525 523 583
          586 526 523 583 586 526
          524 584 587 527 525 585
          588 528 526 586 589 529
          526 586 589 529 527 587
          590 530 528 588 591 531
          529 589 592 532 529 589
          592 532 530 590 593 533
          531 591 594 534 532 592
          595 535 532 592 595 535
          533 593 596 536 534 594
          597 537 535 595 598 538
          535 595 598 538 536 596
          599 539 537 597 600 687
          538 598 601 688 538 598
          601 688 539 599 602 689
          687 600 603 690 688 601
          604 691 688 601 604 691
          689 602 605 692 690 603
          693 694 691 604 695 696
          691 604 695 696 692 605
          697 698 606 541 540 607
          608 543 542 609 608 543
          542 609 610 545 544 611
          699 606 607 700 701 608
          609 702 701 608 609 702
          703 610 611 704 612 546
          541 606 613 547 543 608
          613 547 543 608 614 548
          545 610 705 612 606 699
          706 613 608 701 706 613
          608 701 707 614 610 703
          615 549 546 612 616 550
          547 613 616 550 547 613
          617 551 548 614 708 615
          612 705 709 616 613 706
          709 616 613 706 710 617
          614 707 618 552 549 615
          619 553 550 616 619 553
          550 616 620 554 551 617
          711 618 615 708 712 619
          616 709 712 619 616 709
          713 620 617 710 621 555
          552 618 622 556 553 619
          622 556 553 619 623 557
          554 620 714 621 618 711
          715 622 619 712 715 622
          619 712 716 623 620 713
          624 558 555 621 625 559
          556 622 625 559 556 622
          626 560 557 623 717 624
          621 714 718 625 622 715
          718 625 622 715 719 626
          623 716 720 561 558 624
          721 562 559 625 721 562
          559 625 722 563 560 626
          723 720 624 717 724 721
          625 718 724 721 625 718
          725 722 626 719 726 564
          561 720 727 565 562 721
          727 565 562 721 728 566
          563 722 729 567 564 726
          730 568 565 727 730 568
          565 727 731 569 566 728
          732 570 567 729 733 571
          568 730 733 571 568 730
          734 572 569 731 735 573
          570 732 736 574 571 733
          736 574 571 733 737 575
          572 734 738 576 573 735
          739 577 574 736 739 577
          574 736 740 578 575 737
          741 579 576 738 742 580
          577 739 742 580 577 739
          743 581 578 740 744 582
          579 741 745 583 580 742
          745 583 580 742 746 584
          581 743 627 585 582 744
          628 586 583 745 628 586
          583 745 629 587 584 746
          747 627 744 748 749 628
          745 750 749 628 745 750
          751 629 746 752 630 588
          585 627 631 589 586 628
          631 589 586 628 632 590
          587 629 753 630 627 747
          754 631 628 749 754 631
          628 749 755 632 629 751
          633 591 588 630 634 592
          589 631 634 592 589 631
          635 593 590 632 756 633
          630 753 757 634 631 754
          757 634 631 754 758 635
          632 755 636 594 591 633
          637 595 592 634 637 595
          592 634 638 596 593 635
          759 636 633 756 760 637
          634 757 760 637 634 757
          761 638 635 758 639 597
          594 636 640 598 595 637
          640 598 595 637 641 599
          596 638 642 639 636 759
          643 640 637 760 643 640
          637 760 644 641 638 761
          762 642 759 763 764 643
          760 765 764 643 760 765
          766 644 761 767 645 600
          597 639 646 601 598 640
          646 601 598 640 647 602
          599 641 648 645 639 642
          649 646 640 643 649 646
          640 643 650 647 641 644
          768 648 642 762 769 649
          643 764 769 649 643 764
          770 650 644 766 651 603
          600 645 652 604 601 646
          652 604 601 646 653 605
          602 647 654 651 645 648
          655 652 646 649 655 652
          646 649 656 653 647 650
          771 654 648 768 772 655
          649 769 772 655 649 769
          773 656 650 770 657 693
          603 651 658 695 604 652
          658 695 604 652 659 697
          605 653 660 657 651 654
          661 658 652 655 661 658
          652 655 662 659 653 656
          774 660 654 771 775 661
          655 772 775 661 655 772
          776 662 656 773 777 778
          693 657 779 780 695 658
          779 780 695 658 781 782
          697 659 783 777 657 660
          784 779 658 661 784 779
          658 661 785 781 659 662
          786 783 660 774 787 784
          661 775 787 784 661 775
          788 785 662 776
        </DataArray>
        <DataArray type="Int64" Name="offsets" format="ascii" RangeMin="8" RangeMax="3616">
          8 16 24 32 40 48
          56 64 72 80 88 96
          104 112 120 128 136 144
          152 160 168 176 184 192
          200 208 216 224 232 240
          248 256 264 272 280 288
          296 304 312 320 328 336
          344 352 360 368 376 384
          392 400 408 416 424 432
          440 448 456 464 472 480
          488 496 504 512 520 528
          536 544 552 560 568 576
          584 592 600 608 616 624
          632 640 648 656 664 672
          680 688 696 704 712 720
          728 736 744 752 760 768
          776 784 792 800 808 816
          824 832 840 848 856 864
          872 880 888 896 904 912
          920 928 936 944 952 960
          968 976 984 992 1000 1008
          1016 1024 1032 1040 1048 1056
          1064 1072 1080 1088 1096 1104
          1112 1120 1128 1136 1144 1152
          1160 1168 1176 1184 1192 1200
          1208 1216 1224 1232 1240 1248
          1256 1264 1272 1280 1288 1296
          1304 1312 1320 1328 1336 1344
          1352 1360 1368 1376 1384 1392
          1400 1408 1416 1424 1432 1440
          1448 1456 1464 1472 1480 1488
          1496 1504 1512 1520 1528 1536
          1544 1552 1560 1568 1576 1584
          1592 1600 1608 1616 1624 1632
          1640 1648 1656 1664 1672 1680
          1688 1696 1704 1712 1720 1728
          1736 1744 1752 1760 1768 1776
          1784 1792 1800 1808 1816 1824
          1832 1840 1848 1856 1864 1872
          1880 1888 1896 1904 1912 1920
          1928 1936 1944 1952 1960 1968
          1976 1984 1992 2000 2008 2016
          2024 2032 2040 2048 2056 2064
          2072 2080 2088 2096 2104 2112
          2120 2128 2136 2144 2152 2160
          2168 2176 2184 2192 2200 2208
          2216 2224 2232 2240 2248 2256
          2264 2272 2280 2288 2296 2304
          2312 2320 2328 2336 2344 2352
          2360 2368 2376 2384 2392 2400
          2408 2416 2424 2432 2440 2448
          2456 2464 2472 2480 2488 2496
          2504 2512 2520 2528 2536 2544
          2552 2560 2568 2576 2584 2592
          2600 2608 2616 2624 2632 2640
          2648 2656 2664 2672 2680 2688
          2696 2704 2712 2720 2728 2736
          2744 2752 2760 2768 2776 2784
          2792 2800 2808 2816 2824 2832
          2840 2848 2856 2864 2872 2880
          2888 2896 2904 2912 2920 2928
          2936 2944 2952 2960 2968 2976
          2984 2992 3000 3008 3016 3024
          3032 3040 3048 3056 3064 3072
          3080 3088 3096 3104 3112 3120
          3128 3136 3144 3152 3160 3168
          3176 3184 3192 3200 3208 3216
          3224 3232 3240 3248 3256 3264
          3272 3280 3288 3296 3304 3312
          3320 3328 3336 3344 3352 3360
          3368 3376 3384 3392 3400 3408
          3416 3424 3432 3440 3448 3456
          3464 3472 3480 3488 3496 3504
          3512 3520 3528 3536 3544 3552
          3560 3568 3576 3584 3592 3600
          3608 3616
        </DataArray>
        <DataArray type="UInt8" Name="types" format="ascii" RangeMin="12" RangeMax="12">
          12 12 12 12 12 12
          12 12 12 12 12 12
          12 12 12 12 12 12
          12 12 12 12 12 12
          12 12 12 12 12 12
          12 12 12 12 12 12
          12 12 12 12 12 12
          12 12 12 12 12 12
          12 12 12 12 12 12
          12 12 12 12 12 12
          12 12 12 12 12 12
          12 12 12 12 12 12
          12 12 12 12 12 12
          12 12 12 12 12 12
          12 12 12 12 12 12
          12 12 12 12 12 12
          12 12 12 12 12 12
          12 12 12 12 12 12
          12 12 12 12 12 12
          12 12 12 12 12 12
          12 12 12 12 12 12
          12 12 12 12 12 12
          12 12 12 12 12 12
          12 12 12 12 12 12
          12 12 12 12 12 12
          12 12 12 12 12 12
          12 12 12 12 12 12
          12 12 12 12 12 12
          12 12 12 12 12 12
          12 12 12 12 12 12
          12 12 12 12 12 12
          12 12 12 12 12 12
          12 12 12 12 12 12
          12 12 12 12 12 12
          12 12 12 12 12 12
          12 12 12 12 12 12
          12 12 12 12 12 12
          12 12 12 12 12 12
          12 12 12 12 12 12
          12 12 12 12 12 12
          12 12 12 12 12 12
          12 12 12 12 12 12
          12 12 12 12 12 12
          12 12 12 12 12 12
          12 12 12 12 12 12
          12 12 12 12 12 12
          12 12 12 12 12 12
          12 12 12 12 12 12
          12 12 12 12 12 12
          12 12 12 12 12 12
          12 12 12 12 12 12
          12 12 12 12 12 12
          12 12 12 12 12 12
          12 12 12 12 12 12
          12 12 12 12 12 12
          12 12 12 12 12 12
          12 12 12 12 12 12
          12 12 12 12 12 12
          12 12 12 12 12 12
          12 12 12 12 12 12
          12 12 12 12 12 12
          12 12 12 12 12 12
          12 12 12 12 12 12
          12 12 12 12 12 12
          12 12 12 12 12 12
          12 12 12 12 12 12
          12 12 12 12 12 12
          12 12 12 12 12 12
          12 12 12 12 12 12
          12 12 12 12 12 12
          12 12 12 12 12 12
          12 12 12 12 12 12
          12 12 12 12 12 12
          12 12 12 12 12 12
          12 12 12 12 12 12
          12 12
        </DataArray>
      </Cells>
    </Piece>
  </UnstructuredGrid>
</VTKFile>
