<?xml version="1.0"?>
<VTKFile type="UnstructuredGrid" version="0.1" byte_order="LittleEndian" header_type="UInt32" compressor="vtkZLibDataCompressor">
  <UnstructuredGrid>
    <Piece NumberOfPoints="819" NumberOfCells="454">
      <PointData>
        <DataArray type="Int32" Name="libmesh_node_id" format="ascii" RangeMin="2316" RangeMax="5735">
          2316 2317 2318 2319 2320 2321
          2322 2323 2324 2325 2326 2327
          2433 2434 2435 2436 2437 2438
          2439 2440 2441 2442 2443 2444
          2598 2599 2600 2601 2602 2603
          2643 2644 2645 2646 2647 2648
          2649 2650 2651 2709 2710 2711
          2712 2713 2714 2715 2716 2717
          2718 2719 2720 2766 2767 2768
          2769 2770 2771 2772 2773 2774
          2775 2776 2777 2808 2809 2810
          2811 2812 2813 2814 2815 2816
          2817 2818 2819 2852 2853 2856
          2857 2860 2861 2970 2971 2973
          2974 2976 2977 2991 2994 2995
          2998 2999 3002 3081 3082 3083
          3084 3085 3086 3087 3088 3089
          3090 3091 3092 3187 3190 3193
          3241 3243 3245 3270 3271 3272
          3312 3313 3314 3315 3316 3317
          3495 3496 3497 3498 3499 3500
          3501 3502 3503 3504 3505 3506
          3765 3766 3767 3768 3769 3770
          3852 3853 3854 4470 4471 4472
          4584 4585 4586 4587 4588 4589
          4635 4636 4637 4638 4639 4640
          4641 4642 4643 4644 4645 4646
          4659 4660 4661 4662 4663 4664
          4722 4723 4724 4782 4783 4784
          4791 4792 4793 4794 4795 4796
          4797 4798 4799 4812 4813 4814
          4815 4816 4817 4818 4819 4820
          4833 4834 4835 4836 4837 4838
          4848 4849 4850 4851 4852 4853
          4896 4897 4898 4899 4900 4901
          4911 4912 4913 4935 4936 4937
          4938 4939 4940 4944 4945 4946
          4947 4948 4949 4950 4951 4952
          4953 4954 4955 4956 4957 4958
          4992 4993 4994 5007 5008 5009
          5010 5011 5012 5013 5014 5015
          5016 5017 5018 5019 5020 5021
          5025 5026 5027 5028 5029 5030
          5040 5041 5042 5043 5044 5045
          5055 5056 5057 5073 5074 5075
          5079 5080 5081 5088 5089 5090
          5094 5095 5096 5103 5104 5105
          5151 5152 5153 5160 5161 5162
          5169 5170 5171 5178 5179 5180
          5187 5188 5189 5202 5203 5204
          5205 5206 5207 5208 5209 5210
          5211 5212 5213 5214 5215 5216
          5217 5218 5219 5220 5221 5222
          5223 5224 5225 5226 5227 5228
          5229 5230 5231 5232 5233 5234
          5235 5236 5237 5238 5239 5240
          5241 5242 5243 5244 5245 5246
          5247 5248 5249 5253 5254 5255
          5256 5257 5258 5259 5260 5261
          5262 5263 5264 5265 5266 5267
          5268 5269 5270 5271 5272 5273
          5274 5275 5276 5280 5281 5282
          5283 5284 5285 5286 5287 5288
          5289 5290 5291 5292 5293 5294
          5295 5296 5297 5298 5299 5300
          5301 5302 5303 5307 5308 5309
          5310 5311 5312 5313 5314 5315
          5316 5317 5318 5319 5320 5321
          5322 5323 5324 5325 5326 5327
          5328 5329 5330 5334 5335 5336
          5337 5338 5339 5340 5341 5342
          5343 5344 5345 5346 5347 5348
          5349 5350 5351 5352 5353 5354
          5355 5356 5357 5358 5359 5360
          5361 5362 5363 5364 5365 5366
          5367 5368 5369 5370 5371 5372
          5373 5374 5375 5376 5377 5378
          5379 5380 5381 5382 5383 5384
          5385 5386 5387 5388 5389 5390
          5391 5392 5393 5394 5395 5396
          5397 5398 5399 5400 5401 5402
          5403 5404 5405 5406 5407 5408
          5409 5410 5411 5412 5413 5414
          5415 5416 5417 5418 5419 5420
          5421 5422 5423 5424 5425 5426
          5427 5428 5429 5430 5431 5432
          5433 5434 5435 5436 5437 5438
          5439 5440 5441 5442 5443 5444
          5445 5446 5447 5448 5449 5450
          5451 5452 5453 5454 5455 5456
          5457 5458 5459 5460 5461 5462
          5463 5464 5465 5466 5467 5468
          5469 5470 5471 5472 5473 5474
          5475 5476 5477 5478 5479 5480
          5481 5482 5483 5484 5485 5486
          5487 5488 5489 5490 5491 5492
          5493 5494 5495 5496 5497 5498
          5499 5500 5501 5502 5503 5504
          5505 5506 5507 5508 5509 5510
          5511 5512 5513 5514 5515 5516
          5517 5518 5519 5520 5521 5522
          5523 5524 5525 5526 5527 5528
          5529 5530 5531 5532 5533 5534
          5535 5536 5537 5538 5539 5540
          5541 5542 5543 5544 5545 5546
          5547 5548 5549 5550 5551 5552
          5553 5554 5555 5556 5557 5558
          5559 5560 5561 5562 5563 5564
          5565 5566 5567 5568 5569 5570
          5571 5572 5573 5574 5575 5576
          5577 5578 5579 5580 5581 5582
          5583 5584 5585 5586 5587 5588
          5589 5590 5591 5592 5593 5594
          5595 5596 5597 5598 5599 5600
          5601 5602 5603 5604 5605 5606
          5607 5608 5609 5610 5611 5612
          5613 5614 5615 5616 5617 5618
          5619 5620 5621 5622 5623 5624
          5625 5626 5627 5628 5629 5630
          5631 5632 5633 5634 5635 5636
          5637 5638 5639 5640 5641 5642
          5643 5644 5645 5646 5647 5648
          5649 5650 5651 5652 5653 5654
          5655 5656 5657 5658 5659 5660
          5661 5662 5663 5664 5665 5666
          5667 5668 5669 5670 5671 5672
          5673 5674 5675 5676 5677 5678
          5679 5680 5681 5682 5683 5684
          5685 5686 5687 5688 5689 5690
          5691 5692 5693 5694 5695 5696
          5697 5698 5699 5700 5701 5702
          5703 5704 5705 5706 5707 5708
          5709 5710 5711 5712 5713 5714
          5715 5716 5717 5718 5719 5720
          5721 5722 5723 5724 5725 5726
          5727 5728 5729 5730 5731 5732
          5733 5734 5735
        </DataArray>
        <DataArray type="Float64" Name="resid_x" format="ascii" RangeMin="-2.538947295412278" RangeMax="69.20664820621288">
          0.39370346509866927 -0.055713325850407 0.020547020407569505 0.017141445035930403 0.784286608594865 -0.014637252152471802
          -0.015277080673153698 0.0005327191122326269 0.3788138842334092 0.00977489478282223 -0.05073016850436396 -0.040998179149561054
          0.011473508175547487 -0.06915717842650881 -0.004612880814088172 -0.030305908239467882 0.013635563996723832 -0.031913669790341714
          -0.053979314039562354 -0.016104737731230223 -0.0016276334470477494 0.01954532284019006 -0.09956729689181465 -0.017280767265980046
          -0.0510513966185453 0.016192809576146105 -0.029024004956763605 0.05662463077129709 -0.06894080742686093 -0.022441029314257177
          0.07137557523530624 -0.036320846902404114 -0.02102835969901662 0.13729954194536909 -0.10243087579157617 0.03850416763031106
          0.018289778355040198 -0.07579023644835026 -0.01908203148312282 -0.05123728095921526 -0.05228844456755244 -0.11891612356539438
          0.030255286545758153 -0.07719717260598197 -0.10414403449246912 -0.3096332925486669 0.04338153148411017 -0.05693526549921457
          -0.05906469347068999 -0.2351932114967057 -0.04380320038888996 0.0524985587534843 -0.0043891315943591636 -0.0009356376507332342
          -0.019767984125117266 0.10900207785659166 -0.007443155305828064 0.055650429321047135 -0.10531338251632416 0.05539331014853488
          -0.026444071300227634 0.027088650227351962 -0.10081793937398054 -0.09902609875245716 -0.07541314126926046 -0.16206692527394928
          0.08187073561239888 -0.08509123837177412 -0.12152203801855155 0.06986338481617427 -0.05284342526892516 -0.04728362850003087
          1.166402547365335 2.401396434698624 1.2223349139980968 0.026770810494330277 -0.04026575843329283 0.04316980180176344
          -0.05837632663995862 -0.08219711671560681 -0.01542576097360282 0.24484289190015573 -0.7933316779711017 0.5429197481663994
          -1.1773959375062262 0.15682411355210846 -0.5011215346424454 -0.025844917120597444 -0.0071083605831994134 0.0025573178099982385
          0.019357638711781533 0.07183994266596017 0.08225851360264969 0.21381779336367757 -0.02488937093362764 -0.030845936718698397
          0.06758492844701619 0.39062987408693495 -0.05639259222408077 -0.05736045549380897 0.13778111661740033 -0.029508198238591632
          -0.008129790604907594 -0.030875441285054706 -0.0394698183436456 -0.06056152472557841 -0.06580007604244997 -0.025143254089520894
          -0.020616233867222 -0.004175943170709573 0.004718193030772255 0.7850128462229886 1.0806884848793459 0.5092129616559866
          0.011142435024429576 0.020339936659530267 0.047449608340845995 0.0270962025594077 0.0055199569144588345 -0.005549857413792658
          -0.15505573653618931 -0.119849118136794 -0.0070418833423611105 -0.0013147340384698225 -0.2341816813308526 -0.07342744383544186
          -0.04220904803105441 0.1630046478647884 -0.01471521699809486 0.09689511954451557 0.05729042613826607 0.11505731848664702
          -0.002338846966939201 0.025592542880432112 0.011245617160996702 0.04940403456172737 0.0056744247794782154 -0.021701527714056645
          -0.01666074929579775 -0.05382723504774489 -0.010482968594811126 -0.00581913226185371 0.034769840051306566 -0.0070828304888577165
          -0.03484247507955196 -0.0023000927117644565 -0.04207931124184938 -0.020462076664882645 -0.0757278373138508 -0.022844977052431936
          -0.07812829561956902 0.04429461040265359 -0.13891600074687016 0.04257320264648534 -0.05811811502341113 0.020427418636317363
          -0.053226779754902864 0.006248151417763914 0.011845258360941191 0.0024062088791447778 -0.047281542469150395 -0.048575155915178136
          0.023344536202447586 0.07612653175449147 0.028825431307629046 -0.02527158579872779 0.020535600889934003 0.0018170148276226428
          -0.08132125838431103 -0.09207745942878154 0.05625146155045213 -0.02452404365384231 -0.006628876415855078 -0.025507045094916858
          0.008063126882297489 0.011036329981962467 -0.022361438873333306 0.041715004200258754 0.026504275833042712 0.053292536590101136
          0.0028133558777874157 0.023381590449029765 -0.02121798394499308 0.02481347084059493 0.07375031781931085 0.012304576749354368
          0.005232080943848416 -0.0021983931464264472 0.03701613771454859 0.008607133822778223 -0.018824822792833373 -0.02439574755055851
          0.0053166362288141755 0.00399927758717844 0.026785467783870587 0.002668567423699919 -0.035192291908016315 0.007747856054687752
          0.014637434306655095 -0.012835646489558705 0.048023103653834553 -0.0026030197911124375 -0.06212696326771727 -0.005550736637141895
          -0.009054011609320511 -0.027857948398936294 -0.03837444745192364 0.06417840053930846 0.12779299858465976 0.07198365317545985
          -0.11904685555794181 -0.008072690557295203 -0.018219362140444062 -0.10759693887888222 -0.0804070757219586 -0.03487379039224692
          -0.15980393412745553 -0.046830011834009255 -0.10190114771629233 0.23706745781229976 0.10047778986966538 0.48434933655916446
          0.21706152008481805 0.2477247920381691 0.10989182096733074 -0.22213803182869452 -0.06576350537116049 -0.19628546944681524
          -0.30953444302902167 -0.15853020132014883 -0.39567539254141604 -0.1787293714487408 -0.12756240308007083 -0.23376046215576896
          0.1578359593342631 0.30233450197091116 0.14545681892575146 0.014253221622059442 -0.003869711926311581 0.05031378052945179
          0.02008188173566605 -0.006691348026974353 -0.011365909104059213 0.00899533539533337 -0.03867931672276548 0.02081083685937024
          0.037586444643038064 -0.02167951498782994 -0.010382227166020996 -0.21155392859023792 -0.4026798078417091 -0.22091626507950934
          0.0817107252599234 0.17061219155519147 0.0857034005914441 -0.008295907936015645 0.006732727077854328 -0.007683326620854913
          0.009426715253489704 0.011623737999261863 0.020694457181496873 0.020457788739336458 0.01607614502098187 -0.00201731261420246
          0.03361364033770098 0.06450187480969394 0.022569300660125968 0.0018152638352733064 0.040719028572222093 0.03022053797738078
          -0.024330446822716567 0.051540976365609836 0.0182176324952259 0.004064687757557195 0.04831384250878479 0.022326677177241017
          0.009673747940607491 0.06202162647799092 0.019421371087171124 0.01921491631038741 0.0979985461738817 0.08256358875671843
          -0.2536870453252842 -0.44316818352891474 -0.07721084579019255 -1.2898477304329248 -2.538947295412278 -1.2970677936757617
          -0.4479545931430593 -0.8612118176813652 -0.4677703443141823 0.042507580948424106 0.14160075684922901 0.09187826419600498
          0.04246851464369783 0.14528082973215461 0.11416006359564967 0.00015565783157001079 0.0006225060493054713 0.00020807033994429958
          0.0015898957595403829 0.01051329467076556 0.004111191027714511 -0.00018588480156545018 -0.0002551451982650832 -0.0003834936903714947
          -0.0011932656942974518 0.010205363006747348 0.005994032192052856 0.0017806831937949852 0.0011897091562005357 -0.0005555110266897145
          -0.0005050286188357234 0.006191209591746016 0.004659333372138974 0.007449135495461334 0.004835602857482968 0.00014660444096570302
          -0.000347057979190879 0.007278913403236942 0.003436171091300011 0.0021090572360620286 0.0026097505207083316 0.00042138194545771057
          -0.0003036966533027652 0.003011245822634123 0.0007558631318609343 0.0009275470303862221 -0.0003545699696161364 0.0005341340215156976
          0.0002571207316961477 -0.0007839767360717786 -0.0010494536441036928 -0.00242797727873878 -0.001995172435584891 0.0005385364580305918
          0.0001637569843992992 -0.000042912408165562965 0.0005688294143055828 -0.003522204213364688 -0.0022339766671173322 0.00034774902388434725
          0.00010518164727812973 -0.0008303216870544361 -0.0006504923555716857 0.0007007931909441822 0.002463474542899746 0.009300461399156745
          0.0009769426729473452 0.0007501214040495086 0.006312123975513728 0.004515382906639331 -0.0014333895553590992 0.00850927312272276
          0.004954196726567162 -0.0010100906224366213 0.008304924313605966 0.0036383196021052555 0.000031801990791890944 0.0022197407298580885
          0.002189894203404208 0.0005782685818545019 0.0012447923226588387 -0.0019520165580466653 0.0005798503803617905 0.0030453223754527414
          0.0011423175064351199 0.0002507374886597802 0.003350880277185553 -0.050238400096993985 -0.09918136515869236 0.012666256785706764
          0.001265921090251254 0.0009966382336639157 0.007725758430931151 0.005064742027132141 0.001128834321647787 0.008069138552961874
          0.0036198834316216733 0.000792829758104574 0.006933070520830142 0.002799109467208183 0.0008817695407348225 0.0031264948448566088
          0.001291565707646214 0.0008173190660123453 0.0021019879995751722 0.00014124014465899393 0.0010165319631205705 0.002976485760829206
          0.0007095227459537057 0.0005667017187604984 0.004618646784646074 0.46538266458062694 0.9044930242822815 0.5498714806301734
          -0.39063321345597046 -0.7803301383287025 -0.39998788753817216 0.006745163743099525 0.0018460454466335818 0.009023893240920344
          0.004884622154282425 0.0012370092576752256 0.00642912277674057 0.0021429738982003954 0.0011419397090630667 0.003665768011135384
          0.0012369574674799821 0.001075625634248567 0.001699782855160592 0.000006151217666783282 0.0012890442085655707 0.0017288542021010045
          -0.0004971455734832375 0.0006013681747312205 0.004749306634447947 0.1538811563507494 0.2523316426677127 0.14079931784360156
          -0.1799291603389399 -0.3617985526028207 -0.16967113425650915 0.005143697491481802 0.002431558749458773 0.008292530590038538
          0.0035907634216751916 0.001869992990181757 0.005689108928560671 0.001451149460034884 0.000911171928606791 0.004504056688139357
          0.0014985402799858605 0.0010487710253492821 0.00356905728758683 0.0014600372497284297 0.0014791533347988661 0.004642039759767513
          0.001749754809257098 0.0007593770650942133 0.006196531779306014 -0.12696483380681478 -0.22246279645845846 -0.061719457554403334
          0.0030716940048591823 -0.032695947667356506 0.02855463249175827 0.030278033192351117 0.06374206178387709 0.03939515272372063
          -0.005216989429968066 -0.012175228952772343 -0.0007442308298930556 0.001865319672639032 0.0026511446101196157 0.003980062894163083
          -0.000965712577620792 -0.0003221880151649259 0.0045939449079277495 0.0023995742551932153 0.0011504265890174281 0.0056624244590874895
          0.004724324589771456 0.001384125433435912 0.004918676761670682 0.0032370826012613207 0.0008850330134322348 0.00430891961123514
          0.06508892350695916 0.01286580890538147 -0.023674748943900426 -0.029805244264727193 -0.09488702538122595 0.031036721421498825
          0.016807467812549604 0.06239368135508805 -0.04165439862757658 -0.016464817703575108 -0.021719579304617653 -0.010362399623495833
          0.0005364358712593997 0.003244831887478483 0.003876541184574478 -0.0018025929289340326 -0.0023246044111875364 0.004445833038248637
          0.0029029142617673642 0.002130333664400297 0.005514199651331708 0.005252826113004261 0.0010939989758949054 -0.0003073631106982333
          -0.0012888174544176678 0.00011672233292259193 -0.003856913511347315 0.1275694781304182 0.047307909741462595 -0.12658541639472887
          -0.0445385749757925 -0.04138384525955807 0.049986876151550064 0.01178897291432257 0.034261338297156385 -0.049558999907215906
          0.026408702288000185 0.06918541722992266 0.04592075589894051 -0.016783502780198134 -0.03588382625848219 -0.010061995949479652
          0.00018158297109494015 -0.0011678595267046177 0.00534834277818419 0.002261843213908321 0.0026132623400307864 0.002681096877577005
          0.0011189128665511916 -0.000134182070905986 -0.0061077591264346864 -0.006646055371520632 -0.0011654311555169272 -0.006093542661970375
          0.07462917541875314 0.005342981166137406 -0.07664497042720164 -0.01504886092403801 -0.005800262209344709 0.04475744207580412
          0.010871686724657437 0.02954345202694597 0.01236351129602653 0.06332045818974485 0.1367853404550008 0.10054688152764157
          -0.09247079706189254 -0.1903484260008632 -0.08614621350199592 -0.005844554433441118 -0.017671388172233904 -0.007508209728873894
          -0.007097200048123753 -0.013281939265231912 -0.007142994926105928 -0.008665966777753553 -0.009894227716065629 -0.0059834032844658935
          -0.00535710113455945 -0.004636266929450628 -0.003449764954525314 -0.0012432571370268874 -0.0016777171913773259 0.0001450663317328349
          0.0002843782111270343 -0.001164241393805554 -0.0017319001004416634 0.0021972488103507715 0.00047199801217345794 0.0004157485704041619
          0.0038608596933364936 0.0006203828225856967 0.003947735436575783 0.0030761505793392985 0.0009742519034894315 0.004506890113123774
          0.005195620670065182 0.0013984632469110636 0.0031201048557569777 0.0035703806174662844 0.0010644008589455467 -0.0015964966614134823
          -0.002535215947425229 -0.0003793140448351551 -0.005873802311654686 -0.004771057412780166 -0.0017308625049938797 -0.005390003492806272
          -0.0012179412981465632 -0.002162114436355722 -0.003596333314866307 -0.0012356292980939543 -0.001836586361370962 0.000051947677487618193
          0.00023337226390651722 -0.0014805792445535815 -0.003300874535753451 0.0008083545214390142 0.00029719204152911516 -0.0022384405367503746
          0.003740729272973198 0.0004365858242856291 0.0011871549437181272 0.0038926640562735315 0.0005677152242711259 0.0008580392770056733
          0.0025254764430968635 0.0006154611153803557 -0.002905350844031318 -0.0005065659970320269 0.0005758243696636356 -0.006781041322872383
          -0.005134326691949909 0.0002383908121199596 -0.008431008716078381 -0.00456681801420622 -0.0006379035406709477 -0.01043037151552717
          -0.003289464392452146 -0.0015096810791774828 -0.00674792399844204 -0.001208588690371215 -0.002976347663150136 0.0001429642814514409
          0.00023616477308863182 -0.0013692537653504644 -0.0034760050016053867 -0.0023210325541747068 0.00029208987069395675 -0.002624226017779563
          0.0002167783266813217 0.0004212201257693948 -0.00014910787342259368 0.00011535477385393733 0.0005999648237420274 -0.000541498870148871
          -0.0034514745503191335 0.0011354954640534487 -0.003364058128649816 -0.00802117671552871 0.0007403730125883357 -0.006619794479096441
          -0.009979314884061452 0.0002900854561183053 -0.009374089474025737 -0.010585881946383324 -0.0006111846393004328 -0.012172837133791248
          -0.006874315778160778 -0.0010835599160152753 -0.006594969226942027 -0.0015811571661394908 -0.003348497551225904 0.00017932473387816117
          0.00026378541470251093 -0.0014183263665970003 -0.002352527407879279 -0.002767753559968611 0.00032285753621508206 -0.000743530327923736
          -0.0004206620375235559 0.00043732091434378617 0.000918408122142722 0.0006055218573060017 0.0005769714279040272 0.0001597364181762373
          -0.002187476641157815 0.0006343555644949816 -0.002259494541352325 -0.005071750749033654 0.0005323994020809408 -0.005942515954950878
          -0.007428270862565256 0.00032084160954681806 -0.009314296614178375 -0.010550263851156316 -0.00039166664226897296 -0.010673890171418066
          -0.006349213633688677 -0.0006015472545986 -0.006085936952493043 -0.001542772462528319 -0.002272223197731904 0.00012014052692421728
          0.00023399650634203795 -0.0021596317182428493 -0.0017717379754884632 -0.0010797245771243524 0.00035387855710311555 0.0013809540844640367
          0.0011696054158498725 0.00034622023255082013 0.0020461305753016745 0.001939388068343817 0.00038128677478610484 0.0014159600897336588
          0.000329835525480604 0.0006063606247135311 -0.00011805543245912986 -0.003068827817191533 0.00003078715624305062 -0.005241690343648742
          -0.007006685529988843 -0.00020617233374231603 -0.007729929947855041 -0.010057276878992383 -0.0006077455029611656 -0.007301805320372168
          -0.005783951992160752 -0.00045577048780387486 -0.005116445077499421 -0.0019047939343153075 -0.0015201965423834451 0.00005460115197664095
          0.00016152999141993973 -0.0016685116721291138 -0.0006030131999636978 0.0008116603853487447 0.00035573954790280027 0.0026363100150099683
          0.0005938723887659592 0.0002473942031535614 0.0011794051206770462 -0.001615181173752589 0.00009797948029977022 -0.0012934172132901267
          -0.005463486637486525 0.00005456576280593595 -0.006423113087421939 -0.010261862576971481 0.00039144337713814537 -0.012256836740021981
          -0.013225879259971762 0.0005967258594203884 -0.011433404428997207 -0.012028506537236083 0.0003095728562119149 -0.0119251187054914
          -0.0059744903803959915 -0.00007955766363743066 -0.006263118425540171 -0.00198807505059051 -0.0006794404160928025 0.000036750969936605316
          0.00015610712188518505 -0.0006276751763820698 -0.00011775298953153879 0.002761034202656276 0.00023842931623008212 0.0017525953670514127
          0.0010927421520925407 0.00031545766742269166 0.0002079721944063806 -0.0012735879223537694 0.00014420176131579865 -0.002874085512658553
          -0.0063779110289878815 -0.0009471178531743618 -0.009854883456718255 -0.012985780283010229 -0.0012773095312610394 -0.014184975935123134
          -0.013057015245653503 -0.0007316681534650371 -0.013119531998224687 -0.012235876907649157 -0.0016565388225409095 -0.014439430739367154
          -0.007850296153117498 -0.0011297943091275187 -0.005872240670086626 -0.000867376581034307 0.000310767322638128 -0.000017030153074415466
          0.0002090584657388206 -0.0004006709645310025 -0.00018138890753860437 0.0026392388064522265 0.0005766762138570414 0.0005677170207043503
          0.0018296078669450822 0.0015875337954120994 0.00010243524396358339 0.0029854749831059735 0.007072671728126423 0.0002296620155934903
          0.007999962441367359 0.023603199289418342 0.004313235248599057 0.01646335858126946 0.04550616766971061 0.010232501670799365
          0.01738181652317472 0.04623304442223031 0.012246535526237778 0.023860313142813894 0.05728467434686024 0.017804056344180808
          0.010262847467666703 0.02635401174651797 0.008292329716219626 17.404916090240626 34.60320233294601 34.81026999060091
          69.20664820621288 17.40693357713781 34.60701840171671 33.98071009662999 67.96096332702052 33.983747087579545
          32.936807452757726 65.87349000486208 32.93843699598476 31.473641257004047 62.947573434011936 31.47071368435476
          29.631116033197458 59.263380074607966 29.619709854625945 27.53752198450944 55.076573829950085 27.51817655150331
          25.46837578833168 50.9380883656491 25.459485472280065 23.866537227524486 47.7336486079572 23.853971989660714
          11.626035312332522 23.252209795177265 11.618542057999736
        </DataArray>
        <DataArray type="Float64" Name="resid_y" format="ascii" RangeMin="-7.415204816138985" RangeMax="5.745770688951006">
          0.26501028101819246 0.013758176114743392 -0.02297513401909472 -0.0026335595423795932 0.5268720596917572 0.028003739410889794
          -0.017936890526730837 -0.01798199895212238 0.25485108855326144 -0.027705099388301624 -0.02476779792935771 -0.04623874923283433
          -0.004540159337230586 0.011358488501427455 -0.008934931052921757 -0.008887846126752447 0.006400333225361793 0.024398142787283916
          -0.02207540266655683 0.0014934160896289406 0.0019256638954138205 -0.014094356208688513 -0.05439116800674715 -0.001606525773832912
          -0.008755788598325709 -0.023664390542960434 0.0400418140150423 -0.011306060097052456 0.006985544827172979 -0.014283126229025944
          0.0404939825103936 0.1057671295705892 0.014002548544911564 0.10825598166074402 0.2301790086987492 0.05659523076073247
          0.002398562395862003 0.03315245157306501 -0.019066019206842588 -0.018968401022337857 0.008134918487244555 0.059267729173824855
          -0.07342866358790712 -0.03991940306638652 0.0057008733139052165 0.048570570028676985 -0.12042307771821562 -0.01977949164316325
          0.00017085402302810526 0.022902649090268345 -0.03418587051241914 -0.0010733187114671458 -0.0025604762590481223 -0.024308164692396023
          0.017291786420056708 -0.007940365626775624 -0.0041308213351051865 -0.02244485990479389 0.05976827005193468 -0.020550120175514965
          -0.00606923810706575 -0.01625029281949779 -0.002772300483524892 -0.032974177732639304 -0.035837181001791674 0.03898852065223102
          -0.047735897990565435 -0.0412281808845284 0.08401456593705536 -0.03866172378505872 -0.03202026400184632 0.03243707882193414
          0.0894885511099498 0.22254375512692404 0.01481626211978082 -0.031627627171477934 -0.034269754103170125 -0.03527554807819944
          -0.03832746724768232 0.008927339353275277 -0.01639023495167269 -0.25302385634645497 0.031460793367071416 -0.45880779175346575
          -0.20147088437339233 -0.3563225965581548 -0.053957159942319866 0.0017780977233179396 -0.026689922749206965 0.015453875736735734
          -0.04644977460988958 0.05933178889877733 0.03948981380442834 0.014344442173431147 0.004521924359556145 -0.005976725576616312
          -0.06300261679202583 0.03528475356602911 0.016924278086249106 -0.010681206445292496 -0.08577905866778077 -0.0340401580953654
          0.004873154653192206 0.001640937339979498 -0.07282396245052891 0.022994729241370915 0.03092700807377513 0.0467759546730733
          -0.016849786760222227 -0.017054943666540465 0.0007159903259551653 0.14158117220443733 0.2661807586077152 0.12696172376932946
          -0.014383725582536346 -0.000536592658153201 -0.013439871311923781 -0.0005635315577735278 -0.030985791727901224 -0.017724067546938865
          0.006238693425873965 0.010255176564767987 -0.005653593130209189 -0.012322493955960245 0.0014140701940815736 0.032925556759044905
          0.04172524203001704 0.0667962297165138 0.008259909420056971 0.04888621988576261 0.03626500123966192 -0.005338630104888095
          -0.022393543333656576 -0.025025158114137025 -0.04455226118992542 -0.048123255546310806 -0.06087140159583339 -0.03105537445452239
          0.007924885438829271 -0.0011564399141157922 0.011710554539406337 -0.03890374353733316 -0.06056383968350977 -0.07187249649662847
          -0.0036290854806245443 -0.04725943109981167 -0.004875513636235007 -0.05542425048376024 0.0011863245383509496 -0.03766274389891542
          0.06282760527154146 0.011976968829220475 0.1451121326713466 0.02922458772554068 0.05279602217802581 -0.005068869806927556
          -0.02509088054132909 -0.016180458141100307 -0.02416513009362148 -0.03500621490993544 -0.007133430744612215 0.003540065585129426
          -0.006166691225124782 -0.02072567628208817 -0.05254172487066336 -0.004153055800450334 -0.0206912263622393 0.005586344755824979
          0.0022830510443135332 0.027867783510916233 -0.009217857261804865 -0.03353783826158968 -0.07788609331180724 -0.04211928975023549
          0.02087091296025952 0.05444191349882467 0.012042707807690766 0.009306633774635503 0.031933051471539436 0.003859562336537725
          0.06230647836257875 -0.020556281570504376 0.020286116055360126 -0.02409206873909002 -0.03710707798687123 -0.030140704543132626
          0.000508638720508145 0.0030254889896588963 0.002493159359660671 0.00346309290641917 -0.005425100021824225 0.0030850178012668886
          -0.02916901408726283 0.028182610705457578 -0.05307245970438062 0.01855200723780187 -0.029495017814396562 -0.025601295074183406
          -0.04506723549746666 -0.03352925930972622 -0.05390711247582845 -0.04024816341593041 0.010740817673331265 -0.03662945905780654
          0.03187523730885574 0.06741841361674673 0.029387926482339885 0.07680648011066968 0.16056828373880822 0.09927660928001378
          0.031814635054983054 -0.026207982620634673 -0.03830858136106596 0.08615291954419077 -0.05352773343243847 0.25479260620751787
          -0.11078610139077015 0.14121751055978435 -0.06713544239835853 0.1249987589232085 0.0747868392185583 0.25268439444343044
          0.16431575491111355 0.12427665134287219 0.09207542943256994 -0.11612365915661926 -0.052659599384716024 -0.18286781090257112
          -0.20478463580352918 -0.10357272434344267 -0.3614963434063751 -0.12460303591767365 -0.05457262077553855 -0.190937784431721
          0.225585096557335 0.47251988334010164 0.23731791464557928 -0.028054436128838206 -0.014014822108140326 -0.04559967821251365
          -0.021243444408386436 -0.0218148274443834 -0.010941388443088507 -0.01773338835901589 0.002828104798943909 0.002943588303601863
          0.006258131178310339 -0.005890427993675229 -0.007382658167723294 -0.03662909513517379 -0.06108131010491617 -0.03165079516743026
          -0.08019185560489972 -0.14942369260512803 -0.07756233881669095 -0.005998052167508788 -0.008523769915076654 -0.013411910441142691
          0.006050436083324902 -0.004284128722930575 0.002049683223712455 0.000047696454621260626 -0.003045859878686337 -0.0002193867639683142
          -0.005822240086082328 -0.001552325388827172 0.00041376185245664554 -0.0038392206459579165 -0.021418280532333068 -0.01987109916288117
          -0.008419383706066125 -0.013900464127818368 -0.00860953483738014 -0.013722497601322261 0.0031081238948394104 -0.0016583260870960716
          -0.009911338242654708 -0.00036298928484067294 -0.002673394945032978 -0.024976049977226578 -0.0013021740241928037 -0.022057711888294806
          -0.37245251774255284 -0.7265854157943306 -0.49749240073962886 -0.008154492523675616 0.0007055525920438566 -0.06251344381378587
          0.21933535161280077 0.502171689562823 0.22043353059965198 -0.02997282508939464 -0.013503455537635656 -0.0436892655136798
          -0.01687290961133503 0.029428236549181364 0.0057836563200728275 0.0005840706407027607 -3.7104862556738727 0.0010755723382895876
          -7.415204816138985 -0.007475311329307566 -3.6939265454307137 -0.00018257520236075742 -3.2464871152409875 -0.0003639307766178934
          -6.49225159669812 -0.0033174017094586006 -3.263633597976039 0.0010986034860840377 -2.523493906258132 -0.00014601517504608807
          -5.048317289741064 -0.00097819959077583 -2.5308993642645343 0.0019029377288766192 -1.6147924008930752 0.00013128609745938213
          -3.230432710590387 -0.0006808872216186312 -1.6217054072915833 0.0012605492146273711 -0.6152574406390321 -0.000012922430492001702
          -1.2312657491358745 -0.0005116838098310761 -0.6200337033844118 0.0006996629374623753 0.374341680155332 0.00004438467451478578
          0.7484973569055542 -0.000922222973837511 0.37369359129362084 0.0005341114308748951 1.2855963599367026 0.00008452395375546651
          2.5710699326697575 -0.0007217468041070818 1.2890272857566099 -0.00025432811885545137 1.7100083732963387 -0.000015477263035412747
          3.4202041636721976 -0.00044223981104801746 1.7153643040580873 -0.00789599685209863 -0.00595051256499568 -0.004724104586961264
          -0.004942776270423277 -0.0009199544471603094 -0.006155592090500095 0.0004790597585484502 0.00003489823442093254 -0.005392795357348712
          0.0017686043520108718 0.000594677179849179 -0.002092645024529771 0.00037855397776292987 0.0009091551229343242 -0.0017732323093435642
          0.0007096757637634621 0.00035480436240578964 -0.001542249455981158 0.000012315512322835787 0.000315154230312642 -0.001500347245951883
          -0.0008484335421380385 0.0004928062700611524 -0.001056614934031308 -0.03920251240104067 -0.043998887189598435 -0.02612530872514096
          -0.004546544248423157 -0.00024172562355451177 -0.004723885757096813 0.001329129852348565 -0.0013753051336733435 -0.0022233950758341336
          -0.001042998927557992 0.00043415804563973204 -0.00019234277224633445 -0.000660721941411091 0.00036477699697756716 0.00031735018627343514
          -0.0005801572982269132 0.00018393034602132152 -0.00013718073503116157 -0.001029403848297361 -0.000010569443131741574 -0.002044150177885562
          -0.0016187857731594923 0.00018557414029680974 -0.0024124673931964005 -0.0623313314109073 -0.11388708583549567 -0.07452410775753915
          -0.22385857272138798 -0.43145494833064735 -0.22193731944876527 -0.005048505237324363 0.0010560374314985133 -0.0013002279717262422
          -0.0009040309270915703 0.0007665066084256988 0.00020285766796312998 -0.00015919862063684675 0.000644218974838795 0.0014969138680926974
          -0.0002493712558461203 0.0004578802921694769 0.001021665683235029 -0.0025330842965143596 0.00016531772566501235 -0.0030794438260679236
          -0.0028877219394484177 0.00027600584301556985 -0.0038448152210391884 0.09112686878833887 0.1833317181069769 0.0729178866621707
          0.1032538347767451 0.21222700813287165 0.0958298355374092 -0.002652124960533353 0.0008329842527117215 -0.002068572510193434
          0.00038145605981965147 0.0014776270803378289 0.001288305758722963 0.0006837277990845436 0.001263677652439954 0.0026753798382654903
          0.00034156064065549163 0.0006646188379724194 0.001801547548442528 -0.0029248085344207864 0.00035463223596404747 -0.003252544015281078
          -0.0046093862987907075 0.00046399585223266815 -0.0036052850353124333 -0.015799864031585342 -0.03227748380276263 -0.02562869451615668
          0.0009689082712096564 0.008574798867865496 -0.008712082872178506 -0.0353940451340673 -0.06083362138331383 -0.034939244860684227
          -0.007390758759008076 -0.005688686712427504 -0.002905995258888794 0.0011996680781085622 0.0027968024043731887 0.004486863815078124
          0.0015961007093858726 0.001828869997986926 0.0036929968526364654 0.001089030019661097 0.0011373507281935424 0.002425235567655726
          -0.0027326021592177785 0.0009523191932538921 -0.0028990313364396503 -0.004065218042063057 0.0009009747444916893 -0.0018079704702558264
          0.038972377787214185 0.08299747548360337 0.018296012189290556 -0.002564091775707711 0.05210310537202978 0.02462292049690884
          -0.06065477146545639 -0.09377170724918305 -0.04532607111964437 -0.0024840535865542357 0.006931528740543147 0.005347666897698389
          0.0002612308304925648 0.0028708160000432414 0.004428149640248513 0.002144001944101248 0.0017347429957279559 0.0017998195720894117
          0.001603171569313222 0.0021797250878796692 0.0013216182535742416 -0.002250213141877344 0.001828183159340302 -0.0001485767882540845
          -0.002320502941892677 0.0012542971292088811 0.00009969701145573495 -0.005397601607274316 -0.01784320247984006 -0.04648074291999782
          -0.0806493598589712 -0.1279721360239274 -0.08581295129397426 -0.056252904531493675 -0.09735217177085809 -0.0606458261103382
          -0.0343569947163469 -0.05851076006453848 -0.025974219649833152 -0.02180102780997828 -0.043999744407315244 -0.015264605090480998
          0.0037436311393883592 0.0021752691626311105 0.0029845616717461 0.002316681179693081 0.0035882482482811895 0.0030783964778589024
          -0.00037024154658493735 0.003556763456855183 0.003672983754021253 -0.00004074446348556471 0.0013398649244571459 0.0005479126861687167
          -0.02597671403940538 0.01320364719697853 -0.012729890897842377 -0.019151172447680054 0.026293731789486685 0.005635988927744862
          -0.031120201343267873 -0.03226180558002145 -0.02102606591807099 0.07380959018243072 0.15648644132495892 0.08279396646796933
          -0.024184935840525945 -0.05337810941596377 -0.024106965887723764 -0.0015624456563942957 -0.0060583024185882905 -0.0020978126238979655
          -0.00136313865143034 -0.004696559116658783 -0.0012461967465595691 -0.00012677530733817832 -0.0018384133654332224 -0.00035905728256580005
          -0.0011617790007203421 -0.0006061689547787186 -0.00007151934116311764 1.7972756867496917 -0.0005172588428059566 3.5948423935559486
          0.000022246625375199613 1.8027866922137095 -0.0009210997280286737 -0.0015646227375490374 0.0002904365588066171 -0.000858897141572057
          -0.0018271797234502424 0.00018421842800442345 -0.0005860253178369967 -0.0025786333616154566 0.00009563339185036934 -0.001713074925106417
          -0.003133465593023299 0.00006195741442782676 -0.0010809269190923398 -0.001582770841851211 0.000574399367392564 0.00006122234433347806
          0.00009632864052977475 0.0008417409780592244 0.000014814130184781504 -0.0011445057935641767 0.00046389289484127794 0.0001779370081615994
          -0.0009009369014654212 -0.00018163173222895956 0.00020066277936647836 2.079838983910622 -0.000786331342498725 4.160083026983184
          0.00011658486365750953 2.085876048125156 -0.0010873489449025886 -0.0020378437622442513 0.00047901227591362616 -0.001093763699050121
          -0.0017653472533236125 0.00030150930090866446 -0.0005969795813019485 -0.0012236630925201442 0.00037314205878929974 -0.0011120840975022
          -0.001622053472391305 0.0002663111283597308 -0.0010358624449300358 -0.000515551842352302 0.0004868824660624327 -0.0007300886325154465
          -0.0005119576487011557 0.0004846451136137908 -0.0008600522120532084 -0.0008160570700429526 0.00042399011126448283 -0.0001250151256733112
          -0.0008598622986903948 0.00015543736647338768 0.0008753955191944662 2.3137120613481272 -0.0007138832428627007 4.6278112609442115
          0.00011593415461186307 2.320011167438043 -0.000930834405813874 -0.0019077273460931243 0.0005104291986249843 -0.0014403414690977723
          -0.001884296537922825 0.00026772081415682436 -0.0012335399554709303 -0.0012507640569593692 0.00028086599834747407 -0.0016036227182105803
          -0.00037744111744042463 0.00039597181045647467 -0.001578925818187693 -0.00015570012396426414 0.0005214252013906462 -0.0019888202255469167
          -0.0005056161251559832 0.000429927129495411 -0.001609480080833059 -0.0004404050604019938 0.0004105139356492815 0.0005444523112175803
          -0.0006842914266269595 0.00016807798077778102 0.001801393271720575 2.5016717244643747 -0.000509081950702317 5.00365001994363
          0.00008779903216216134 2.5080268193141286 -0.0006550971184962062 -0.0018133772535533499 0.0005211766359457526 -0.0016936663753737147
          -0.0025782372908643714 0.00020242855384045022 -0.0015123724471820532 -0.001667783638987147 0.00027744024986495197 -0.0012258926972512907
          -0.000642205775768262 0.0004402518288824375 -0.0011796178323460749 -0.0005794267033942813 0.00044969969654151676 -0.001321368044907345
          -0.0008364074466558069 0.0004134828378563604 0.00004121488553998631 0.00002167250788892572 0.00038593897261662846 0.002693928294504211
          0.0005825983442263594 0.00011243771212576803 0.001804612884338419 2.647527986186864 -0.0005330489338073452 5.29536608047413
          0.00010093063576532835 2.653916190862466 -0.0006146180964547998 -0.0018372613324012521 0.0005853423155576243 -0.002477884794157892
          -0.0026099970633666203 0.0002632222789220595 -0.0027859282420178433 -0.002019885380270481 0.00037599394634502126 -0.0032318754570356267
          -0.0014457660709824016 0.0006109654624208219 -0.0033944687263172055 -0.0015702870875566322 0.0005562951701807983 -0.0027427840507862067
          -0.0009881474378570232 0.0005736174930380811 0.0006507976078764521 0.00004133044320597801 0.00045098823494765794 0.001953443134565913
          0.0004462072888183344 0.00008032384191086761 0.0011624237597051001 2.755499787095642 -0.0006997485107913537 5.511395847817093
          0.00014115916207324553 2.761962756331825 -0.0006269495540909276 -0.0019077537446818837 0.0005590529378278752 -0.00263953062715383
          -0.002841840808121665 0.00018074250718658202 -0.003611983579685507 -0.002966252240634626 0.00015739724708280223 -0.004057061893173508
          -0.002909971397222849 0.0003952119675953991 -0.0038396739113005507 -0.002147424511581675 0.0005802710413978229 -0.0022696641590920774
          -0.0013243445113028662 0.0006564233668454045 0.00030177351090743265 0.0008252185376434462 0.00043627475031857155 -0.0004727870989920113
          0.001172632814038066 0.00013756502132888926 0.00015106911342521734 2.829457006926037 -0.0012247801277136539 5.659515480678227
          0.00015149950909632004 2.8359767901808843 -0.0009282987798788778 -0.0026934195204373346 0.0007224389145636945 -0.0015232344326687741
          -0.0038331169258187803 0.00037001500362765505 0.0006834259598886838 -0.003338374176895087 0.00044684283485041387 0.0030487382096642257
          -0.0019838640112163075 0.0011656436585598673 0.0028951167628910035 -0.00023004984006530504 0.001645197240014995 0.0035207440619300368
          0.00023369999068828529 0.0008602027263502621 0.0020088289439030294 0.0010507124281146363 -0.0007465825219008931 -0.0018370013383062905
          0.00013702027297030073 -0.0001286730330144481 -0.001171099956049526 2.872648219179249 -0.0011232147940172243 5.745770688951006
          0.00018918298514880583 2.879045291608336 -0.0018638263527410714 -0.0029113155737601204 0.0015723331465213874 -0.001572107549632884
          -0.002809641454348366 0.0006505847185847013 0.004794244955376836 0.0009989590428807205 0.0011192331241819398 0.0062255734023380915
          0.00415323159512182 0.0027747266572486495 0.005928255207986899 0.003798040708208106 0.00353206712294335 0.0037741607700186863
          -0.000013895880153297346 0.0012927762655104147 0.0009850924595617983 -0.0047800865072058 -0.0007219947858667997 -0.00421671634053203
          -0.007189541173485622 -0.005178007564888704 -0.003083511778541062 1.443314969503579 -0.0011677163435488414 2.8870295359556475
          0.00000539717721226296 1.4466887793661163 -0.0007580422176691748 -0.00210981010618716 0.0008503508410822036 -0.00047062755576909865
          0.0003527370803271257 0.0005612881804561987 0.0017204435607758306 0.004473779671592126 0.001960379744283536 0.002210255563518837
          0.007711060635049227 0.005498289704398807 0.002370171265349219 0.0027012567452189273 0.0001882250939283514 0.001020057979367217
          -0.001580813781526802 0.0006567867642408021 0.002629291385132626 -0.0026113007933921267 0.0014830077885371051 -0.0006451952389166793
          -0.006300459426828585 -0.007149603913575421 -0.0036578896254928182
        </DataArray>
        <DataArray type="Float64" Name="resid_z" format="ascii" RangeMin="0" RangeMax="0">
          0 0 0 0 0 0
          0 0 0 0 0 0
          0 0 0 0 0 0
          0 0 0 0 0 0
          0 0 0 0 0 0
          0 0 0 0 0 0
          0 0 0 0 0 0
          0 0 0 0 0 0
          0 0 0 0 0 0
          0 0 0 0 0 0
          0 0 0 0 0 0
          0 0 0 0 0 0
          0 0 0 0 0 0
          0 0 0 0 0 0
          0 0 0 0 0 0
          0 0 0 0 0 0
          0 0 0 0 0 0
          0 0 0 0 0 0
          0 0 0 0 0 0
          0 0 0 0 0 0
          0 0 0 0 0 0
          0 0 0 0 0 0
          0 0 0 0 0 0
          0 0 0 0 0 0
          0 0 0 0 0 0
          0 0 0 0 0 0
          0 0 0 0 0 0
          0 0 0 0 0 0
          0 0 0 0 0 0
          0 0 0 0 0 0
          0 0 0 0 0 0
          0 0 0 0 0 0
          0 0 0 0 0 0
          0 0 0 0 0 0
          0 0 0 0 0 0
          0 0 0 0 0 0
          0 0 0 0 0 0
          0 0 0 0 0 0
          0 0 0 0 0 0
          0 0 0 0 0 0
          0 0 0 0 0 0
          0 0 0 0 0 0
          0 0 0 0 0 0
          0 0 0 0 0 0
          0 0 0 0 0 0
          0 0 0 0 0 0
          0 0 0 0 0 0
          0 0 0 0 0 0
          0 0 0 0 0 0
          0 0 0 0 0 0
          0 0 0 0 0 0
          0 0 0 0 0 0
          0 0 0 0 0 0
          0 0 0 0 0 0
          0 0 0 0 0 0
          0 0 0 0 0 0
          0 0 0 0 0 0
          0 0 0 0 0 0
          0 0 0 0 0 0
          0 0 0 0 0 0
          0 0 0 0 0 0
          0 0 0 0 0 0
          0 0 0 0 0 0
          0 0 0 0 0 0
          0 0 0 0 0 0
          0 0 0 0 0 0
          0 0 0 0 0 0
          0 0 0 0 0 0
          0 0 0 0 0 0
          0 0 0 0 0 0
          0 0 0 0 0 0
          0 0 0 0 0 0
          0 0 0 0 0 0
          0 0 0 0 0 0
          0 0 0 0 0 0
          0 0 0 0 0 0
          0 0 0 0 0 0
          0 0 0 0 0 0
          0 0 0 0 0 0
          0 0 0 0 0 0
          0 0 0 0 0 0
          0 0 0 0 0 0
          0 0 0 0 0 0
          0 0 0 0 0 0
          0 0 0 0 0 0
          0 0 0 0 0 0
          0 0 0 0 0 0
          0 0 0 0 0 0
          0 0 0 0 0 0
          0 0 0 0 0 0
          0 0 0 0 0 0
          0 0 0 0 0 0
          0 0 0 0 0 0
          0 0 0 0 0 0
          0 0 0 0 0 0
          0 0 0 0 0 0
          0 0 0 0 0 0
          0 0 0 0 0 0
          0 0 0 0 0 0
          0 0 0 0 0 0
          0 0 0 0 0 0
          0 0 0 0 0 0
          0 0 0 0 0 0
          0 0 0 0 0 0
          0 0 0 0 0 0
          0 0 0 0 0 0
          0 0 0 0 0 0
          0 0 0 0 0 0
          0 0 0 0 0 0
          0 0 0 0 0 0
          0 0 0 0 0 0
          0 0 0 0 0 0
          0 0 0 0 0 0
          0 0 0 0 0 0
          0 0 0 0 0 0
          0 0 0 0 0 0
          0 0 0 0 0 0
          0 0 0 0 0 0
          0 0 0 0 0 0
          0 0 0 0 0 0
          0 0 0 0 0 0
          0 0 0 0 0 0
          0 0 0 0 0 0
          0 0 0 0 0 0
          0 0 0 0 0 0
          0 0 0 0 0 0
          0 0 0 0 0 0
          0 0 0 0 0 0
          0 0 0 0 0 0
          0 0 0 0 0 0
          0 0 0 0 0 0
          0 0 0 0 0 0
          0 0 0 0 0 0
          0 0 0 0 0 0
          0 0 0 0 0 0
          0 0 0 0 0 0
          0 0 0
        </DataArray>
        <DataArray type="Float64" Name="stress_zz" format="ascii" RangeMin="-12018554.864614155" RangeMax="7843289.140857309">
          2592893.27827422 1476972.6852068282 1807334.867353819 2253609.691540874 2612939.1836585053 1489372.2500918687
          1817111.4021134526 2233574.9473262737 2632985.0890427907 1501771.8149769092 1826887.9368730867 2213540.203111672
          1395051.2294613787 2647645.877009101 3140770.713363133 2253853.1177191036 1355450.151384352 2575687.6676309113
          3074467.4624650665 2218284.0567574175 1315849.0733073251 2503729.458252721 3008164.2115670005 2182714.995795731
          3433283.7835049485 727548.0940328182 3379219.1348548797 702738.9796888733 3325154.4862048114 677929.8653449282
          3504121.792945047 2791681.5746914935 5137406.559401276 3457783.3857450825 2716734.640918006 5085831.264314307
          3411444.9785451177 2641787.707144519 5034255.969227338 -3257.4040596349514 -34933.38094224843 529707.8671954536
          225880.9947848682 -20204.98507687531 -109854.21800085809 369017.6052327531 179936.29857847834 -37152.56609411561
          -184775.05505946776 208327.34327005278 133991.60237208853 508289.27680547535 2203912.9365788526 362694.16520921147
          70517.80422392774 583124.6265930042 2028331.2705125634 308641.6701717393 72024.73695432441 657959.976380533
          1852749.6044462745 254589.17513426705 73531.66968472107 1760151.2242534698 3647680.332502002 4743783.05725744
          1698633.2769118894 3658801.951332129 4758617.854105824 1637115.329570309 3669923.5701622562 4773452.650954206
          3560812.620720808 3636323.7125415904 3711834.804362374 3221710.4794516563 2781923.483397873 3176867.6210348285
          2793765.5659229322 3132024.7626179997 2805607.648447992 3581637.051253114 2686697.826045287 3619294.218346675
          2499693.50412743 3656951.3854402364 2312689.182209573 -2418248.99633582 -1832773.1758624548 -2218365.718884492
          -1615664.685034666 -2018482.441433164 -1398556.1942068767 15110.720683403866 787145.0815142526 330393.94009403983
          213984.34230907177 -137549.36330338466 725752.3524654101 306035.57058688445 182944.7514814828 -290209.44729017327
          664359.6234165675 281677.20107972884 151905.16065389378 1846679.6342938698 1809185.8665366443 1771692.098779419
          -614699.3644467534 -632213.1414118081 -649726.9183768627 2747141.673104779 2695358.6984987035 2643575.7238926287
          744120.4618446489 796709.4580493792 742317.962682684 827692.4537021719 740515.4635207191 858675.449354965
          123567.39091800962 -2406763.1224567974 -2182222.429247378 -1828330.9680826997 34341.401206673356 -2719060.816606363
          -2513834.6615338917 -2057621.9200059362 -54884.58850466297 -3031358.5107559287 -2845446.893820406 -2286912.8719291724
          970874.4103123551 1574527.1584729033 996433.6360410772 1525811.7537881422 1021992.8617697993 1477096.349103381
          69286.73518920038 85715.60984472034 102144.48450024036 1206029.935801511 1092226.084170718 978422.2325399248
          7843289.140857309 7456818.965207339 7709113.902775436 7264992.550529274 7574938.66469356 7073166.135851207
          302611.2371568922 239529.41950416128 166356.22412784028 209543.69496608904 30101.211098788423 179557.97042801682
          -1609713.4040272147 -3465290.2348773233 -1740348.7248624074 -3741269.0538828657 -1870984.0456975999 -4017247.872888409
          -1241347.5529415545 -1052346.5529614652 -863345.5529813762 563431.3001289733 540354.2401626245 517277.18019627576
          -2344537.0994261554 -2308289.3782899613 -2272041.6571537666 -511194.15266813966 -469531.0634272772 -427867.9741864146
          3463719.6387923164 3433422.9009159943 3403126.1630396727 1744677.575458332 1115684.8851091824 1626613.1590642126
          1085129.6785819125 1508548.7426700932 1054574.4720546422 306430.8378437812 309406.81816675037 312382.7984897195
          742287.3283859885 822127.7839833007 763433.0248382997 872835.5679805974 784578.7212906112 923543.3519778941
          -887814.1743824095 -534358.6639574934 -876928.8301159757 -601609.4975633627 -866043.4858495421 -668860.3311692318
          1362029.419169305 913797.3831640875 1219044.6113102909 796755.5127570775 1076059.8034512766 679713.6423500674
          2222792.444098344 2172450.800395668 2122109.156692992 -11007.28802109405 141639.9499401365 294287.187901367
          2078482.9676102472 1994448.3714192908 1910413.7752283337 -3593365.7572292043 -6020133.963993116 -3611446.8603920266
          -5616726.978974704 -3629527.9635548485 -5213319.993956289 -918860.359671134 571856.347849801 -604815.2718241106
          857767.2480176609 -290770.183977087 1143678.148185521 -3367247.3547548503 1910316.1163577056 -1980406.9843334402
          -3293927.6547409254 1876045.6738553725 -1654287.2705323906 -3220607.9547270006 1841775.2313530394 -1328167.556731341
          -1138186.2187227644 -633188.8423336677 -128191.4659445709 -330289.8980994868 498664.9894622018 -226969.64799017197
          525098.241072664 -123649.39788085711 551531.4926831261 905980.7881917262 1255980.295812735 857961.9680052187
          1206468.9696213496 809943.1478187114 1156957.643429964 2833252.8653738173 2845858.1890579993 2858463.5127421813
          -4077083.8924937407 -3664687.1752569084 -3252290.458020077 727593.6765643898 813020.6208838084 898447.5652032266
          402131.3517769092 1013714.5998421465 460393.51780599443 1101405.9526540746 518655.6838350796 1189097.3054660028
          3962892.8137982097 3688279.1361104213 3413665.4584226334 476473.79529434664 416999.7747330929 357525.75417183933
          812986.681642398 795487.9230117558 777989.1643811135 1924956.8645087094 1812891.3935406236 1700825.922572538
          2830013.269317992 2725908.9094078112 2621804.549497631 1911653.3713359123 1901892.8373879758 1892132.303440039
          3703755.223528235 3681698.709323995 3659642.1951197544 3408762.7424060674 3416369.9479604205 3423977.153514774
          2315123.9358739504 2311332.926224005 2307541.9165740586 1560235.927660878 1549632.1738318987 1539028.4200029192
          1055457.5477817326 1057658.1518055855 1059858.7558294386 2184247.6349651488 2799588.9297597776 2158419.715572975
          2771596.875227064 2132591.7961808015 2743604.8206943506 -563049.2667460294 -698318.8939842358 -557387.9781046674
          -692217.7771829187 -551726.6894633054 -686116.6603816019 74478.55563944147 85506.53027529178 78775.1095327555
          89886.6186579169 83071.66342606951 94266.70704054204 718.2088171657924 2654.04894971435 -2237.2842938024505
          -282.8244204852472 -5192.7774047706935 -3219.697790684844 58555.905315266245 62803.44951095249 60065.18304879722
          64614.055289416174 61574.46078232817 66424.66106787985 73278.80419777922 77402.39752777631 72720.73137287456
          76777.26106378005 72162.6585479699 76152.1245997838 61409.93379233153 67407.73684952878 61699.793149582314
          67807.98599129127 61989.652506833096 68208.23513305376 14693.663534262603 25330.931304212143 14623.103251995128
          25355.566503114555 14552.542969727652 25380.201702016962 339748.0660791283 319155.0384763186 298562.0108735089
          -159929.9020775286 -162212.71735911485 -164495.53264070104 -20704.0911897196 -17499.583046077823 -14295.074902436048
          45952.26705295756 44302.38818193606 42652.50931091454 65903.144104484 66543.14680866999 67183.14951285596
          76646.70764728138 76613.32777328747 76579.94789929356 51795.60067976358 52059.28873348232 52322.97678720106
          -17012.287976559848 -17006.39514465233 -17000.502312744815 -2388906.484680743 -2393701.0356743922 -2398495.586668041
          388350.2289363321 373863.35443247674 359376.47992862127 45979.4163858267 45881.64991423045 45783.88344263419
          74478.62826013198 76345.51639803797 78212.40453594396 80572.80436102176 80047.95088233761 79523.09740365343
          84053.80928681513 84242.34962496474 84430.88996311436 34979.88379606027 34947.125931043316 34914.36806602637
          -73868.94688603554 -74465.8513743529 -75062.75586267028 -4661087.461691389 -4648782.304726681 -4636477.147761972
          -386517.8163656107 -406063.7668125074 -425609.7172594039 572778.4926461042 560995.1935950627 549211.8945440211
          -36989.80412190697 -34659.424551086995 -32329.044980267015 93548.10936017909 93557.39816084829 93566.68696151748
          72959.84686404673 72710.96152896638 72462.07619388602 -5606.785335455279 -4496.750182089869 -3386.715028724462
          -161107.70529523396 -161188.9327349303 -161270.1601746267 -5238749.330851625 -5211836.047744709 -5184922.7646377925
          -3077544.2327004117 -3075224.1239858107 -3072904.0152712106 259088.17873297562 242932.89012599515 226777.60151901457
          122257.36141820523 121125.5084864923 119993.65555477937 30885.896602096043 32427.9271534235 33969.95770475096
          46498.35107660711 45558.80680562008 44619.262534633046 -84702.45314468925 -85136.52023770394 -85570.58733071864
          -309511.2113870282 -312258.33570957487 -315005.4600321214 630750.4146996876 609255.540156069 587760.6656124505
          -3163639.743180294 -3163005.408418846 -3162371.073657397 -5604120.0958844405 -5585341.479686847 -5566562.863489254
          -2270725.1058097305 -2274589.268986036 -2278453.432162341 436213.83528112154 424718.75074984366 413223.66621856566
          -102335.24616409665 -103406.05977698191 -104476.87338986718 45782.617899165765 47631.73062098089 49480.843342796004
          -143468.86406840183 -141588.99297657353 -139709.12188474523 -485090.02002300485 -484821.7993405593 -484553.5786581138
          4523967.692485094 4489087.22155789 4454206.750630686 1213195.4251831118 1178883.7045852174 1144571.9839873228
          -5089367.464719009 -5075439.695450599 -5061511.926182191 -5164385.125270646 -5147089.743708875 -5129794.362147106
          -385120.14940223034 -399897.31868901476 -414674.48797579936 170595.60319159183 162550.22922411174 154504.85525663162
          -17285.591251005313 -14255.724994406715 -11225.858737808121 -640849.9693256833 -639079.914569997 -637309.8598143104
          -1297368.5355359039 -1300437.2718144786 -1303506.0080930532 4639174.243680372 4614975.832560065 4590777.421439759
          352920.89803944225 321462.420107834 290003.9421762258 -5918623.7768289605 -5908544.790919209 -5898465.805009457
          -9118218.96760378 -9081889.002244942 -9045559.036886103 -3264243.1278728275 -3267177.676756583 -3270112.225640338
          1041957.8499953677 1024162.183118442 1006366.5162415163 430176.97697695845 431642.7638172782 433108.55065759795
          -298486.49695863883 -296392.8597598524 -294299.22256106586 -1547340.2647099134 -1556625.1910881172 -1565910.1174663207
          2221645.755535347 2196237.3213490574 2170828.887162768 -3004102.0409782343 -3034276.3073738674 -3064450.5737695005
          -8153480.60583908 -8148166.4005210735 -8142852.195203066 -12018554.864614155 -11977078.514434282 -11935602.164254405
          -5260147.708558142 -5256587.592975692 -5253027.477393242 1579730.745162869 1556144.811294033 1532558.8774251966
          955443.9496822887 957442.5029267005 959441.0561711126 534199.8552480256 542108.3890753749 550016.9229027241
          -1063659.5641558024 -1068852.3588205813 -1074045.1534853606 -11671.164338870978 -19993.994987369035 -11594.959606501194
          -19912.314108955226 -11518.75487413141 -19830.63323054142 -45167.45284038036 -44892.50541277013 -44617.55798515989
          -86127.93854853655 -86030.36038856723 -85932.78222859793 -138059.42079270937 -137005.2164347693 -135951.01207682927
          -222047.16913396545 -222083.26343214107 -222119.35773031673 -285612.5793573427 -282730.76538450684 -279848.95141167095
          -777347.111784956 -773114.6733654719 -768882.2349459876 -397718.8039030396 -391803.1550847295 -385887.5062664194
          466244.75078383915 477822.97835021804 489401.2059165966 -25725.591146322877 -30000.671084776826 -25721.38022194338
          -29970.42574594143 -25717.16929756388 -29940.18040710604 -42387.81905102962 -42252.18245760527 -42116.54586418091
          -60346.35348794304 -60253.21496898979 -60160.07645003655 -78781.37901256664 -78361.20552367832 -77941.03203479
          -101351.96081944524 -101210.4458212757 -101068.93082310617 -110184.14364049307 -109005.74075072524 -107827.3378609574
          -326151.7733739219 -324615.25629316963 -323078.73921241733 521558.18962397205 520719.9659135521 519881.74220313213
          1590385.6222256166 1588578.9797998962 1586772.337374176 -39101.35595461901 -43543.807311382785 -39101.02530650354
          -43548.49738666831 -39100.694658388085 -43553.187461953814 -56300.76996928494 -56346.506265943404 -56392.24256260185
          -75419.53368858396 -75595.09979241279 -75770.6658962416 -98560.69083607511 -98853.21678483083 -99145.74273358652
          -126664.68898972512 -127345.09028989261 -128025.49159006009 -178255.51531777854 -179302.74940047218 -180349.98348316585
          -242673.13869787092 -244940.1362809793 -247207.13386408763 355574.9624197638 351282.25868822687 346989.55495669
          982416.954013757 977316.1946673633 972215.4353209697 -52747.099159860154 -57178.24216711745 -52764.8076034549
          -57173.627852416554 -52782.51604704965 -57169.01353771565 -69119.86807279637 -69068.66915420422 -69017.47023561208
          -86287.11080520847 -86207.7552298978 -86128.39965458712 -106694.19669779233 -106552.12518584913 -106410.05367390593
          -132432.04345867608 -132154.7968174818 -131877.55017628756 -155584.17210185528 -155164.19780849095 -154744.22351512665
          -98356.82949903095 -97412.0505061848 -96467.27151333864 386036.5241715389 388546.3043636363 391056.0845557337
          805037.9272983957 808654.2776386909 812270.6279789864 -65343.17353008801 -70124.6880964558 -65357.09057443146
          -70118.56771565555 -65371.00761877491 -70112.44733485531 -82150.0304536818 -82125.40772303262 -82100.78499238344
          -98138.79745810336 -98162.27540861694 -98185.75335913055 -116331.37418946889 -116418.3878923062 -116505.40159514353
          -132180.18078329854 -132271.7208050515 -132363.26082680447 -119023.70267374703 -119415.142563939 -119806.58245413101
          -3810.927013356224 -4307.072409917015 -4803.217806477805 364696.84952982597 363748.04596540914 362799.2424009923
          637549.4975981963 635940.3976763132 634331.29775443 -76870.29205527526 -81577.61785656736 -76906.12136734865
          -81566.15540803073 -76941.95067942204 -81554.6929594941 -93041.47883368886 -92982.57636684431 -92923.67389999976
          -107115.2582639702 -107085.26462576569 -107055.27098756118 -120040.09416174554 -120056.76068116588 -120073.42720058619
          -121066.59613677382 -121081.35799356479 -121096.11985035578 -78959.70191762365 -79079.47907139805 -79199.25622517246
          58333.505341683405 58573.58123465099 58813.65712761857 343259.3536170664 343898.09695685643 344536.8402966465
          528417.7991839973 528970.8338929683 529523.8686019392 -86822.47799475098 -90971.37897079778 -86876.96586959498
          -90966.3808136026 -86931.45374443897 -90961.38265640743 -101820.45700945987 -101755.1791136559 -101689.90121785192
          -114880.27486725146 -114834.87219798913 -114789.46952872678 -122333.55765624363 -122233.9824133551 -122134.40717046658
          -108943.42314402833 -108595.07902898385 -108246.73491393935 -48311.08418028544 -47991.11377142701 -47671.143362568575
          93952.98315099254 94367.28391731641 94781.5846836403 325493.21673507086 325845.5268470284 326197.836958986
          460917.94544558285 460911.6334741041 460905.32150262536 -93702.64304951843 -97583.76655764962 -93664.06403830636
          -97529.24636925434 -93625.48502709428 -97474.72618085906 -109781.58984835155 -109668.57871897458 -109555.56758959759
          -128499.17090198689 -128358.82413117455 -128218.47736036222 -149002.48632711387 -148559.1276551921 -148115.76898327036
          -161002.14375407473 -159833.36743715525 -158664.59112023583 -107373.91359133579 -106071.95699698015 -104770.00040262452
          51423.26171099841 52415.559762846686 53407.85781469497 262440.7381007481 263166.0205876068 263891.3030744655
          370186.49262380105 370680.4067440885 371174.32086437603 -96168.2150572657 -100113.08417305321 -96050.79209184609
          -100022.83946843157 -95933.36912642648 -99932.59476380993 -113711.15546387399 -113581.7092957255 -113452.263127577
          -137853.49261052746 -137690.34150972025 -137527.19040891304 -173312.60741607228 -172781.94972168858 -172251.29202730488
          -217073.15363548405 -215722.55579173844 -214371.9579479928 -177324.38540675864 -175754.80277500965 -174185.22014326067
          -1838.6746411098575 -593.4999819814911 651.6746771468825 208063.69686222164 208966.33306651 209868.96927079838
          305019.692214117 305703.42396007 306387.155706023
        </DataArray>
        <DataArray type="Float64" Name="peeq" format="ascii" RangeMin="0" RangeMax="0.00846193945358771">
          0.005133135662276268 0.005288719522162353 0.005402883142491043 0.0054715206660968406 0.005133293922654036 0.005288926187946644
          0.005402712840719269 0.0054706423089261845 0.005133452183031804 0.005289132853730934 0.005402542538947493 0.0054697639517555284
          0.005942270389223585 0.006071171517839786 0.005774906683991696 0.005774899859317898 0.005942360108250065 0.0060717831269916775
          0.005773987140561743 0.005773856005309096 0.005942449827276545 0.006072394736143569 0.00577306759713179 0.005772812151300294
          0.00550352449715437 0.005604064329764034 0.005502585735015279 0.005602921423042174 0.005501646972876188 0.005601778516320314
          0.005783734772654607 0.005168686939882029 0.005341378552167808 0.005783813341700714 0.0051687403161031304 0.005340802171014892
          0.005783891910746824 0.005168793692324231 0.005340225789861976 0.005455221892571757 0.005318675734074182 0.005224255377383756
          0.005494652635154019 0.0054547510298380425 0.00531816339685983 0.005224822525710224 0.00549496300253138 0.005454280167104329
          0.005317651059645476 0.005225389674036693 0.005495273369908742 0.00522221346560873 0.005097785805504814 0.005224247943664117
          0.005383044104248813 0.0052214282222859875 0.005096016678436975 0.00522325575516704 0.0053822927598523975 0.005220642978963245
          0.005094247551369136 0.005222263566669961 0.005381541415455984 0.006298147692612427 0.006749107529616994 0.006323536537695159
          0.006300195865485591 0.006750286743865552 0.006324743049217177 0.006302244038358756 0.006751465958114111 0.006325949560739199
          0.004781372257897167 0.00478193531830727 0.004782498378717371 0.006915616175558048 0.007488643471913494 0.006916058760804538
          0.0074874969087883846 0.006916501346051028 0.007486350345663273 0.004514124682838207 0.0050167697922262906 0.004514871435028114
          0.005017445420789997 0.004515618187218021 0.005018121049353704 0.004986203988571702 0.005355997698880714 0.004988925887626024
          0.0053587827558475385 0.004991647786680347 0.005361567812814362 0.005345985736465171 0.0055490800481932225 0.005895602738648178
          0.005594914822028209 0.005346602206761527 0.0055501490645402645 0.005895983632890793 0.0055955560874646195 0.005347218677057884
          0.0055512180808873065 0.0058963645271334075 0.00559619735290103 0.00846193945358771 0.008461474387006349 0.008461009320424984
          0.005809260825525414 0.005812133968243146 0.005815007110960879 0.006022431531766655 0.006024045396740491 0.006025659261714327
          0.0057345520073495936 0.005839221193457566 0.005733859330601496 0.005839487982364466 0.005733166653853399 0.005839754771271365
          0.00801499073249051 0.0075908428359925395 0.007084017856687254 0.007452558329904942 0.008015489199235788 0.007588056054663917
          0.007082809207249759 0.007454080148702111 0.008015987665981064 0.007585269273335293 0.007081600557812265 0.0074556019674992795
          0.00558502385464231 0.005522995878134794 0.005584253941122563 0.005521709769613227 0.005583484027602814 0.005520423661091657
          0.005618279730909172 0.005621195355722575 0.005624110980535979 0.005021156892523806 0.005021880170673515 0.005022603448823221
          0.0063333486003219145 0.006008611580948016 0.0063345919160694795 0.006009837961587594 0.006335835231817045 0.00601106434222717
          0.005399452822625034 0.0053033538026360984 0.005398699383434964 0.005303282129095298 0.005397945944244894 0.005303210455554498
          0.006782771377849368 0.007179793043386184 0.006781730460632267 0.007176846166476339 0.006780689543415168 0.007173899289566494
          0.005295726177791861 0.005298259339123581 0.0053007925004553025 0.00791639841484378 0.007913566324927606 0.007910734235011426
          0.005062835000665945 0.005064814797263791 0.005066794593861637 0.007049898564651164 0.007049175941671989 0.007048453318692815
          0.00579936940241405 0.0058011668439287584 0.005802964285443467 0.004793231642456224 0.00481799882658062 0.004794098242235826
          0.004819062386262745 0.004794964842015428 0.004820125945944867 0.005644379812882749 0.0056442009326825296 0.0056440220524823104
          0.0057398554673124946 0.0059322572665612755 0.005740448777012694 0.005933457223175045 0.005741042086712894 0.005934657179788815
          0.006339179242480524 0.006549783146549258 0.006339060410654186 0.006549188547611105 0.006338941578827846 0.006548593948672953
          0.005451520675419225 0.005376256186975513 0.00545028528644426 0.005375655175201371 0.005449049897469294 0.005375054163427228
          0.006135226322619185 0.006135436774729399 0.0061356472268396115 0.004871037996563118 0.004872756048074639 0.004874474099586159
          0.006846024165621076 0.0068478674950504725 0.006849710824479869 0.0049022464917444705 0.0047609916461091506 0.004904418274810146
          0.004764100787543971 0.004906590057875822 0.004767209928978794 0.004590803729754778 0.004553228660368023 0.004594000608140028
          0.004556547188527079 0.0045971974865252774 0.004559865716686134 0.00475627205965869 0.0048419239786833814 0.004579852968478793
          0.004759005536704956 0.004843227020123592 0.004583351040575152 0.004761739013751221 0.004844530061563804 0.00458684911267151
          0.004490612113696963 0.004494534844094605 0.004498457574492247 0.006521560955904836 0.006202291210898686 0.006523225020251778
          0.0062037220672291095 0.006524889084598719 0.006205152923559535 0.005403945581586264 0.005406062204368477 0.0054036951701404885
          0.005405979442629191 0.005403444758694714 0.005405896680889906 0.004747750057632274 0.004749499250654253 0.0047512484436762325
          0.004680669522037492 0.004683691462738411 0.004686713403439329 0.005933726647475403 0.005934952836258455 0.005936179025041507
          0.005242261572514307 0.005155391900482637 0.005242583443819908 0.0051543215521319685 0.005242905315125509 0.0051532512037812984
          0.005031023031405898 0.005028774639246784 0.005026526247087671 0.005337242349250858 0.005336995376617639 0.005336748403984419
          0.006072400436403981 0.006073863896040909 0.006075327355677839 0.005415593290021876 0.005414906733099217 0.0054142201761765586
          0.005430509848664541 0.005429936982588985 0.00542936411651343 0.005366938603938032 0.005366618887826056 0.00536629917171408
          0.0038358039606780415 0.0038357999252973006 0.00383579588991656 0.00423250414153461 0.004232524699256522 0.004232545256978434
          0.004635903162974617 0.004635870903129928 0.004635838643285239 0.005013797467408607 0.005013594424692347 0.005013391381976087
          0.0051865613901522535 0.005186270890176365 0.005185980390200476 0 0 0
          0 0 0 0 0 0
          0 0 0 0 0 0
          0 0 0 0 0 0
          0 0 0 0 0 0
          0 0 0 0 0 0
          0 0 0 0 0 0
          0 0 0 0 0 0
          0 0 0 0 0 0
          0 0 0 0 0 0
          0 0 0 0 0 0
          0 0 0 0 0 0
          0 0 0 0.000017494522144358595 0.00001763976691464983 0.000017785011684941063
          0 0 0 0 0 0
          0 0 0 0 0 0
          0 0 0 0 0 0
          0 0 0 0.00011686618935972089 0.00011726505945755616 0.00011766392955539144
          0.0000013068618857625796 0.0000013658297452251205 0.0000014247976046876615 0 0 0
          0 0 0 0 0 0
          0 0 0 0 0 0
          0 0 0 0.00038232110929693346 0.00038289557391734357 0.00038347003853775373
          0.00005269793307657374 0.00005297758023526877 0.00005325722739396379 0 0 0
          0 0 0 0 0 0
          0 0 0 0 0 0
          0 0 0 0.0017963964113663687 0.0017963058189120551 0.0017962152264577415
          0.0008573270521404083 0.0008578253860099141 0.0008583237198794202 0.0002315251033167708 0.00023214154458011744 0.000232757985843464
          0.000015465278343041353 0.000015658650726767126 0.000015852023110492896 0 0 0
          0 0 0 0 0 0
          0 0 0 0 0 0
          0.002576141835850003 0.002575585272000487 0.00257502870815097 0.001526343816966317 0.0015264194229688798 0.001526495028971442
          0.0005917147556010639 0.0005924747272319706 0.0005932346988628772 0.00009922795960047638 0.00009969625173891047 0.00010016454387734455
          0 0 0 0 0 0
          0 0 0 0 0 0
          0 0 0 0.0034488360647837455 0.0034477009501355012 0.003446565835487258
          0.0023595511973470143 0.0023590136228920497 0.002358476048437085 0.0011461597071922261 0.0011467446987228757 0.0011473296902535257
          0.0002858721922218871 0.0002865239897446607 0.0002871757872674343 0.0000035101322232033254 0.0000035947508388434628 0.0000036793694544836
          0 0 0 0 0 0
          0 0 0 0 0 0
          0.003908082814093066 0.003906662726931376 0.0039052426397696866 0.0028151699808790683 0.0028142986091172937 0.002813427237355519
          0.0014691579674342434 0.001469599531161958 0.0014700410948896726 0.0004042190219289042 0.0004049727774650347 0.0004057265330011653
          0.000007020264446406651 0.0000071895016776869255 0.0000073587389089672 0 0 0
          0 0 0 0 0 0
          0 0 0 0 0 0
          0 0 0 0 0 0
          0 0 0 0 0 0
          0 0 0 0 0 0
          0 0 0 0 0 0
          0 0 0 0 0 0
          0 0 0 0 0 0
          0 0 0 0 0 0
          0 0 0 0 0 0
          0 0 0 0 0 0
          0 0 0 0 0 0
          0 0 0 0 0 0
          0 0 0 0 0 0
          0 0 0 0 0 0
          0 0 0 0 0 0
          0 0 0 0 0 0
          0 0 0 0 0 0
          0 0 0 0 0 0
          0 0 0 0 0 0
          0 0 0 0 0 0
          0 0 0 0 0 0
          0 0 0 0 0 0
          0 0 0 0 0 0
          0 0 0 0 0 0
          0 0 0 0 0 0
          0 0 0 0 0 0
          0 0 0 0 0 0
          0 0 0 0 0 0
          0 0 0 0 0 0
          0 0 0 0 0 0
          0 0 0 0 0 0
          0 0 0 0 0 0
          0 0 0 0 0 0
          0 0 0 0 0 0
          0 0 0 0 0 0
          0 0 0 0 0 0
          0 0 0 0 0 0
          0 0 0 0 0 0
          0 0 0 0 0 0
          0 0 0 0 0 0
          0 0 0 0 0 0
          0 0 0 0 0 0
          0 0 0 0 0 0
          0 0 0 0 0 0
          0 0 0 0 0 0
          0 0 0
        </DataArray>
        <DataArray type="Float64" Name="pe11" format="ascii" RangeMin="0" RangeMax="0.008459208806800903">
          0.0051318610628751215 0.00528814941975178 0.005402198799551259 0.005470515488037168 0.00513201207177343 0.005288346900964017
          0.005402011987380694 0.005469627599441108 0.005132163080671737 0.005288544382176253 0.005401825175210129 0.005468739710845049
          0.005941473223673088 0.0060700161206806635 0.0057735809174939015 0.005773997676647177 0.005941553013991321 0.006070604844024913
          0.0057726496613791905 0.005772945816782699 0.005941632804309554 0.006071193567369164 0.005771718405264477 0.005771893956918221
          0.005502381172439496 0.005603062421798578 0.005501435743423742 0.005601912294322479 0.005500490314407988 0.00560076216684638
          0.00578199004299199 0.005166750703054584 0.005339910566390694 0.005782044219041216 0.005166788081641068 0.0053393236331524055
          0.005782098395090442 0.005166825460227553 0.0053387366999141156 0.005454709748730649 0.005318200524051231 0.005223653507004964
          0.005493988879320826 0.005454236988329285 0.005317682179803254 0.00522421750520709 0.0054942970686296605 0.005453764227927921
          0.005317163835555277 0.005224781503409217 0.005494605257938495 0.005221851219207983 0.005097429555848043 0.0052238726301112245
          0.005382607444975026 0.005221062027637548 0.0050956581264537905 0.005222876874339564 0.005381862344012191 0.005220272836067112
          0.005093886697059538 0.005221881118567904 0.005381117243049358 0.006297089982181831 0.006747168449166267 0.006321782600751584
          0.006299124527929594 0.006748331193224204 0.006322951363970571 0.0063011590736773565 0.006749493937282143 0.006324120127189559
          0.00477940580270246 0.004779957865904824 0.004780509929107187 0.00691244000487087 0.007485605250647584 0.006912861013511712
          0.007484464004663552 0.006913282022152554 0.007483322758679521 0.004511553937090868 0.005013638462052675 0.004512286087637718
          0.005014286666500643 0.004513018238184567 0.005014934870948613 0.004985577413342597 0.005355215578661556 0.004988285271460396
          0.0053579883863295414 0.004990993129578194 0.005360761193997527 0.0053451851085374626 0.005548121337786954 0.005894634958950895
          0.005594164579119581 0.00534580188161015 0.0055491914145491305 0.005895011845670607 0.005594801354098457 0.0053464186546828395
          0.0055502614913113075 0.005895388732390318 0.005595438129077334 0.008459208806800903 0.008458753387031693 0.008458297967262484
          0.005808321294033024 0.005811192494564752 0.00581406369509648 0.006019334371135818 0.006020907357154446 0.006022480343173073
          0.0057337985269404115 0.005838630100997617 0.005733096408679855 0.005838888064569562 0.005732394290419298 0.0058391460281415055
          0.008012538815259262 0.00758847887804571 0.007082090775791191 0.0074506136495164875 0.008013040135040455 0.007585712725396428
          0.0070808824420734735 0.007452132264679905 0.008013541454821648 0.007582946572747146 0.007079674108355755 0.007453650879843322
          0.005584281330374882 0.005522275860332798 0.005583504381818027 0.005520988987253346 0.005582727433261171 0.005519702114173892
          0.005617379056971808 0.005620295824745406 0.005623212592519003 0.005020700065420891 0.005021420780658287 0.005022141495895681
          0.006331295459661857 0.006007324475157114 0.006332558255601866 0.0060085704100030475 0.0063338210515418766 0.006009816344848981
          0.005399011161629204 0.005303015528837945 0.005398265175932756 0.005302937683519893 0.005397519190236307 0.0053028598382018404
          0.006780999168022915 0.007177461410552213 0.0067799591894488346 0.007174537931812212 0.006778919210874755 0.007171614453072212
          0.005294852206799167 0.005297379176243388 0.005299906145687609 0.007913803845136333 0.007910999906689548 0.007908195968242762
          0.005062055863315353 0.005064026606179367 0.005065997349043383 0.007047665804622028 0.00704696309729566 0.00704626038996929
          0.00579830878113273 0.005800115461766528 0.005801922142400324 0.004792939772487494 0.004817652850282522 0.004793779301992149
          0.004818695116880061 0.004794618831496804 0.0048197373834776005 0.005643647345811138 0.005643459883509952 0.005643272421208765
          0.005739208935047976 0.005931627986561479 0.005739793123903457 0.005932817903065353 0.005740377312758938 0.005934007819569228
          0.006338002290265209 0.006547938447025959 0.006337877231938082 0.006547351005601914 0.006337752173610956 0.00654676356417787
          0.005450945429847356 0.005375883444438874 0.005449703634297958 0.0053752666093061265 0.0054484618387485575 0.005374649774173376
          0.006133686133628643 0.0061339100629302454 0.006134133992231849 0.004870612441853718 0.00487231743541592 0.004874022428978121
          0.006843649913361739 0.006845506708687841 0.006847363504013944 0.004901664316719262 0.004760525382257081 0.004903830574692637
          0.004763623628265759 0.004905996832666013 0.0047667218742744365 0.004590473970781441 0.004552928770117979 0.004593647015614181
          0.004556208740102655 0.004596820060446921 0.004559488710087331 0.004755843416726413 0.004841505461544623 0.004579492036555302
          0.004758576140780735 0.004842805290041687 0.004582979154648385 0.004761308864835056 0.004844105118538753 0.004586466272741467
          0.0044902818176007445 0.004494183643642793 0.004498085469684842 0.006520195154224897 0.006201550444057442 0.006521860973610476
          0.006202973199204217 0.006523526792996054 0.006204395954350992 0.005403463284654844 0.005405626367570135 0.0054031937871662035
          0.005405530124641493 0.005402924289677563 0.00540543388171285 0.004747317993244457 0.0047490577163035 0.004750797439362544
          0.004680314786900935 0.0046833284061972335 0.004686342025493533 0.005933237370617804 0.005934454846753844 0.005935672322889885
          0.005241988048664302 0.005155087395938477 0.005242296617282623 0.005154003860810922 0.005242605185900945 0.0051529203256833675
          0.005030643423708311 0.005028388322442116 0.0050261332211759225 0.0053369278279695575 0.005336664649883274 0.0053364014717969905
          0.006071780254565003 0.0060732355807040055 0.006074690906843008 0.005415169736980583 0.005414463347147165 0.005413756957313745
          0.005430117177490407 0.005429530521298192 0.005428943865105977 0.005366552876511318 0.005366225589712283 0.005365898302913249
          0.0038313406290326237 0.00383132562150125 0.0038313106139698768 0.004229086021119802 0.004229098229794642 0.0042291104384694815
          0.004633766562315103 0.004633728625988895 0.004633690689662688 0.005012658481391773 0.005012450214507619 0.005012241947623465
          0.005185773412018515 0.005185477107893922 0.005185180803769328 0 0 0
          0 0 0 0 0 0
          0 0 0 0 0 0
          0 0 0 0 0 0
          0 0 0 0 0 0
          0 0 0 0 0 0
          0 0 0 0 0 0
          0 0 0 0 0 0
          0 0 0 0 0 0
          0 0 0 0 0 0
          0 0 0 0 0 0
          0 0 0 0 0 0
          0 0 0 0.000017297774285133707 0.000017441231381538893 0.000017584688477944082
          0 0 0 0 0 0
          0 0 0 0 0 0
          0 0 0 0 0 0
          0 0 0 0.0001153674928272325 0.00011576232475847088 0.00011615715668970928
          0.0000012889253981768574 0.0000013470267030499313 0.0000014051280079230054 0 0 0
          0 0 0 0 0 0
          0 0 0 0 0 0
          0 0 0 0.00037698463833666865 0.0003775560400153584 0.00037812744169404806
          0.00005177540876661996 0.00005205244618316307 0.00005232948359970618 0 0 0
          0 0 0 0 0 0
          0 0 0 0 0 0
          0 0 0 0.0017801805209074159 0.0017800937836964887 0.0017800070464855614
          0.0008442853258393821 0.0008447958644541402 0.0008453064030688982 0.0002266134082645671 0.00022723363103051384 0.0002278538537964606
          0.000015074263227916735 0.000015264681316078785 0.000015455099404240834 0 0 0
          0 0 0 0 0 0
          0 0 0 0 0 0
          0.00255498737320283 0.0025544289321289006 0.0025538704910549707 0.001500930288630852 0.0015010371441605737 0.0015011439996902953
          0.0005754612492173841 0.0005762490312580227 0.0005770368132986612 0.00009529953598574065 0.00009576984351684365 0.00009624015104794665
          0 0 0 0 0 0
          0 0 0 0 0 0
          0 0 0 0.003420633833024987 0.003419479016719916 0.003418324200414844
          0.0023118177300335578 0.0023113384422274903 0.002310859154421423 0.0011013817338320837 0.0011020684344287374 0.0011027551350253914
          0.0002685742591529392 0.0002692626285328675 0.0002699509979127958 0.0000031667027161202484 0.000003244603951154728 0.000003322505186189207
          0 0 0 0 0 0
          0 0 0 0 0 0
          0.0038750402803398123 0.0038735922943475836 0.0038721443083553552 0.0027525156948950357 0.0027517244317652612 0.0027509331686354863
          0.001404094819021647 0.0014046952294422313 0.001405295639862815 0.00037669797279023053 0.00037751493266420527 0.00037833189253817995
          0.000006333405432240497 0.000006489207902309456 0.000006645010372378414 0 0 0
          0 0 0 0 0 0
          0 0 0 0 0 0
          0 0 0 0 0 0
          0 0 0 0 0 0
          0 0 0 0 0 0
          0 0 0 0 0 0
          0 0 0 0 0 0
          0 0 0 0 0 0
          0 0 0 0 0 0
          0 0 0 0 0 0
          0 0 0 0 0 0
          0 0 0 0 0 0
          0 0 0 0 0 0
          0 0 0 0 0 0
          0 0 0 0 0 0
          0 0 0 0 0 0
          0 0 0 0 0 0
          0 0 0 0 0 0
          0 0 0 0 0 0
          0 0 0 0 0 0
          0 0 0 0 0 0
          0 0 0 0 0 0
          0 0 0 0 0 0
          0 0 0 0 0 0
          0 0 0 0 0 0
          0 0 0 0 0 0
          0 0 0 0 0 0
          0 0 0 0 0 0
          0 0 0 0 0 0
          0 0 0 0 0 0
          0 0 0 0 0 0
          0 0 0 0 0 0
          0 0 0 0 0 0
          0 0 0 0 0 0
          0 0 0 0 0 0
          0 0 0 0 0 0
          0 0 0 0 0 0
          0 0 0 0 0 0
          0 0 0 0 0 0
          0 0 0 0 0 0
          0 0 0 0 0 0
          0 0 0 0 0 0
          0 0 0 0 0 0
          0 0 0 0 0 0
          0 0 0 0 0 0
          0 0 0 0 0 0
          0 0 0
        </DataArray>
        <DataArray type="Float64" Name="pe22" format="ascii" RangeMin="-0.004212342402407462" RangeMax="0">
          -0.0025563721879889854 -0.002639418115241616 -0.0026939010158815945 -0.002724099747596467 -0.002556780508434134 -0.0026396046740524127
          -0.002694183533165163 -0.002724265807041925 -0.002557188828879282 -0.0026397912328632103 -0.0026944660504487315 -0.002724431866487382
          -0.002947768927311721 -0.0029971581413470575 -0.0028443120777197914 -0.0028552810607904216 -0.0029479226114191254 -0.0029972086225137926
          -0.002844331060668681 -0.002855368087335727 -0.0029480762955265295 -0.0029972591036805277 -0.0028443500436175708 -0.002855455113881033
          -0.002727862238125183 -0.0027841649542279497 -0.002727985918515829 -0.0027841892568066916 -0.0027281095989064755 -0.0027842135593854327
          -0.00283361321977052 -0.002545325513628885 -0.0026394068802853754 -0.0028336483307787176 -0.0025455347169652306 -0.0026395454865331004
          -0.0028336834417869152 -0.0025457439203015776 -0.0026396840927808253 -0.002721315907113569 -0.0026598974294822666 -0.0026128397923948204
          -0.002742621260488128 -0.0027211436585272662 -0.0026595823401583812 -0.002612574616973276 -0.0027423884452018633 -0.0027209714099409635
          -0.002659267250834496 -0.0026123094415517324 -0.0027421556299155993 -0.0026102263948916456 -0.002552938378230471 -0.0026134969244889766
          -0.002682536204153342 -0.0026102313624755324 -0.002552508582411945 -0.002613307587958285 -0.002682697849966316 -0.0026102363300594196
          -0.0025520787865934186 -0.0026131182514275934 -0.0026828594957792897 -0.003107801760196057 -0.0033028702690254034 -0.003099975762728184
          -0.003107824455240898 -0.003302299074613642 -0.003099703970815144 -0.003107847150285739 -0.0033017278802018805 -0.003099432178902105
          -0.002375033220547134 -0.002375502501711521 -0.0023759717828759084 -0.00336507084176349 -0.0036439613976079564 -0.0033651274891139406
          -0.003643581565548299 -0.003365184136464391 -0.0036432017334886418 -0.0022362058321302924 -0.002459818123382059 -0.0022366260872731724
          -0.0024600232618073197 -0.0022370463424160525 -0.002460228400232581 -0.0024891021631797622 -0.0026842677712059382 -0.002489694454712038
          -0.002684581005439391 -0.0024902867462443137 -0.002684894239672843 -0.0026686364964886517 -0.0027763522128018045 -0.0029513879892034177
          -0.002794709679995588 -0.0026683273160794515 -0.002776111785455221 -0.0029507732013581327 -0.0027944702520521507 -0.002668018135670251
          -0.0027758713581086383 -0.002950158413512848 -0.0027942308241087135 -0.004212342402407462 -0.004212118828260437 -0.00421189525411341
          -0.0029295182883843683 -0.0029296198699351496 -0.0029297214514859304 -0.0029283313263389586 -0.0029286732017591494 -0.0029290150771793403
          -0.002846581916948856 -0.0029083246099662883 -0.0028465487074749254 -0.0029081762964801236 -0.0028465154980009946 -0.0029080279829939593
          -0.00401444599075166 -0.0037420866371749005 -0.003501340966776563 -0.0037330780634202898 -0.004014790780230133 -0.0037417749572903995
          -0.0035011265357273503 -0.0037339842345006213 -0.004015135569708607 -0.0037414632774058986 -0.0035009121046781374 -0.0037348904055809536
          -0.0027792649705934962 -0.002746521960466858 -0.0027792049931236735 -0.002746580876729348 -0.002779145015653851 -0.002746639792991839
          -0.002822271545627456 -0.0028220800866706024 -0.002821888627713749 -0.002515842583846324 -0.002515742492662759 -0.002515642401479194
          -0.0031991034259408516 -0.003036993475392252 -0.003197307913805781 -0.0030349916197659602 -0.00319551240167071 -0.0030329897641396698
          -0.002686128940353322 -0.0026478986635825414 -0.002686418755217536 -0.0026480921745869576 -0.002686708570081751 -0.002648285685591374
          -0.0033336423717123427 -0.003505131650731522 -0.003332863527944226 -0.003504590021449226 -0.0033320846841761085 -0.0035040483921669314
          -0.0026456870312834804 -0.0026457334747695188 -0.002645779918255557 -0.003886651843243368 -0.003885929473413351 -0.0038852071035833323
          -0.002521977013412716 -0.0025220780193017486 -0.002522179025190781 -0.0034433219488659616 -0.003442758284847556 -0.0034421946208291507
          -0.0029191847017400714 -0.0029184777817598834 -0.002917770861779695 -0.002401706090093503 -0.002412965039379804 -0.002401933909283496
          -0.0024132957479271206 -0.002402161728473489 -0.002413626456474437 -0.002808932350212941 -0.0028087293630137166 -0.002808526375814492
          -0.0028629514339517208 -0.0029654412276478785 -0.002862642345844738 -0.002965127401104841 -0.002862333257737756 -0.0029648135745618037
          -0.003152270799154908 -0.003267889457799565 -0.003150988776513399 -0.00326650306337859 -0.003149706753871891 -0.003265116668957615
          -0.0027115275015113156 -0.0026836586945670057 -0.0027117113770538767 -0.0026837402347985283 -0.002711895252596439 -0.00268382177503005
          -0.003088136224283783 -0.0030867768440642094 -0.0030854174638446355 -0.002436267735020889 -0.0024367349667711656 -0.0024372021985214426
          -0.003441462791123803 -0.0034411657660344858 -0.003440868740945168 -0.002445657477055435 -0.0023764913437438638 -0.0024458533696724424
          -0.002377226662418046 -0.0024460492622894493 -0.002377961981092228 -0.002299520091746323 -0.002280924897593085 -0.0023006598397170433
          -0.0022818845921936666 -0.0023017995876877637 -0.002282844286794248 -0.002379985368123375 -0.0024251514741925224 -0.0022901241612041114
          -0.0023804656493312845 -0.0024256713911562622 -0.002291296998341984 -0.0023809459305391936 -0.002426191308120001 -0.0022924698354798564
          -0.0022443992200063866 -0.002245915174436526 -0.002247431128866665 -0.0032103857068879913 -0.0030868927477834757 -0.0032102450359786493
          -0.0030864764776604332 -0.0032101043650693065 -0.00308606020753739 -0.002700464074607067 -0.0027027168079343487 -0.002700505308307587
          -0.0027026485116716675 -0.0027005465420081066 -0.002702580215408987 -0.002377399987934486 -0.0023784078284296807 -0.0023794156689248753
          -0.0023433497259786307 -0.002344309936600034 -0.0023452701472214377 -0.0029634153298446647 -0.002963256267125912 -0.002963097204407159
          -0.0026236873101863124 -0.0025807195211868666 -0.002623772795138619 -0.002580480382354255 -0.002623858280090925 -0.0025802412435216443
          -0.0025215032572127975 -0.0025207938676849364 -0.0025200844781570753 -0.0026705791496136177 -0.0026705009146811742 -0.0026704226797487317
          -0.003021139100217103 -0.0030211976125601244 -0.0030212561249031464 -0.0027086293765034315 -0.002708444302600123 -0.0027082592286968143
          -0.0027145382816980597 -0.0027143473130565306 -0.002714156344415001 -0.0026780933270411844 -0.002678051099794014 -0.0026780088725468438
          -0.0018724209046178954 -0.0018725565607617526 -0.0018726922169056094 -0.002078472222131276 -0.0020786825157356964 -0.0020788928093401163
          -0.0022914299308703927 -0.002291619656561111 -0.0022918093822518297 -0.002485613076142542 -0.0024856670375591116 -0.002485720998975681
          -0.002571100719093877 -0.002571074516515298 -0.0025710483139367193 0 0 0
          0 0 0 0 0 0
          0 0 0 0 0 0
          0 0 0 0 0 0
          0 0 0 0 0 0
          0 0 0 0 0 0
          0 0 0 0 0 0
          0 0 0 0 0 0
          0 0 0 0 0 0
          0 0 0 0 0 0
          0 0 0 0 0 0
          0 0 0 0 0 0
          0 0 0 -0.000006851429147582993 -0.000006898740602739299 -0.0000069460520578956055
          0 0 0 0 0 0
          0 0 0 0 0 0
          0 0 0 0 0 0
          0 0 0 -0.000046264993332691515 -0.000046365150897559314 -0.00004646530846242712
          -4.860961898161358e-7 -5.072518276324113e-7 -5.284074654486868e-7 0 0 0
          0 0 0 0 0 0
          0 0 0 0 0 0
          0 0 0 -0.00015309240893570625 -0.00015317906259668736 -0.00015326571625766847
          -0.000020148522203474053 -0.0000202297752197479 -0.00002031102823602175 0 0 0
          0 0 0 0 0 0
          0 0 0 0 0 0
          0 0 0 -0.0007812233280753575 -0.0007811053443380921 -0.0007809873606008268
          -0.0003513699888234858 -0.0003514030861865373 -0.00035143618354958883 -0.0000907650860443174 -0.00009093195141830387 -0.00009109881679229033
          -0.000006006061675625746 -0.000006075858869926361 -0.000006145656064226976 0 0 0
          0 0 0 0 0 0
          0 0 0 0 0 0
          -0.001162093575680649 -0.0011617917881547018 -0.0011614900006287545 -0.0006545899496008252 -0.0006544004697469018 -0.0006542109898929781
          -0.00024291990896230795 -0.00024305297313872995 -0.00024318603731515194 -0.000039646502571897536 -0.00003979396439878308 -0.00003994142622566861
          0 0 0 0 0 0
          0 0 0 0 0 0
          0 0 0 -0.0015944675486866506 -0.001593683144066481 -0.0015928987394463114
          -0.001044547975701449 -0.001043948364293111 -0.0010433487528847731 -0.00048308596360833734 -0.0004830380729077807 -0.00048299018220722406
          -0.00011494507766891454 -0.0001151207779292765 -0.00011529647818963846 -0.0000012808140339119886 -0.0000013108638363956784 -0.000001340913638879368
          0 0 0 0 0 0
          0 0 0 0 0 0
          -0.0018153505047088744 -0.001814303553879287 -0.0018132566030496997 -0.0012552983403470233 -0.0012544766568617584 -0.0012536549733764934
          -0.0006225374293533778 -0.0006223890555904783 -0.0006222406818275787 -0.0001626092735452855 -0.00016280534480083957 -0.00016300141605639365
          -0.000002561628067823977 -0.000002621727672791357 -0.000002681827277758736 0 0 0
          0 0 0 0 0 0
          0 0 0 0 0 0
          0 0 0 0 0 0
          0 0 0 0 0 0
          0 0 0 0 0 0
          0 0 0 0 0 0
          0 0 0 0 0 0
          0 0 0 0 0 0
          0 0 0 0 0 0
          0 0 0 0 0 0
          0 0 0 0 0 0
          0 0 0 0 0 0
          0 0 0 0 0 0
          0 0 0 0 0 0
          0 0 0 0 0 0
          0 0 0 0 0 0
          0 0 0 0 0 0
          0 0 0 0 0 0
          0 0 0 0 0 0
          0 0 0 0 0 0
          0 0 0 0 0 0
          0 0 0 0 0 0
          0 0 0 0 0 0
          0 0 0 0 0 0
          0 0 0 0 0 0
          0 0 0 0 0 0
          0 0 0 0 0 0
          0 0 0 0 0 0
          0 0 0 0 0 0
          0 0 0 0 0 0
          0 0 0 0 0 0
          0 0 0 0 0 0
          0 0 0 0 0 0
          0 0 0 0 0 0
          0 0 0 0 0 0
          0 0 0 0 0 0
          0 0 0 0 0 0
          0 0 0 0 0 0
          0 0 0 0 0 0
          0 0 0 0 0 0
          0 0 0 0 0 0
          0 0 0 0 0 0
          0 0 0 0 0 0
          0 0 0 0 0 0
          0 0 0 0 0 0
          0 0 0 0 0 0
          0 0 0
        </DataArray>
        <DataArray type="Float64" Name="pe33" format="ascii" RangeMin="-0.004246866404393441" RangeMax="0">
          -0.0025754888748861357 -0.0026487313045101637 -0.0027082977836696636 -0.0027464157404406995 -0.0025752315633392952 -0.002648742226911604
          -0.002707828454215531 -0.002745361792399183 -0.0025749742517924548 -0.002648753149313044 -0.0027073591247613977 -0.0027443078443576663
          -0.0029937042963613667 -0.003072857979333605 -0.0029292688397741097 -0.0029187166158567545 -0.002993630402572195 -0.0030733962215111206
          -0.002928318600710508 -0.0029175777294469713 -0.0029935565087830236 -0.0030739344636886356 -0.0029273683616469056 -0.0029164388430371877
          -0.0027745189343143122 -0.0028188974675706266 -0.002773449824907911 -0.0028177230375157868 -0.0027723807155015105 -0.0028165486074609464
          -0.002948376823221469 -0.0026214251894256992 -0.0027005036861053183 -0.002948395888262498 -0.0026212533646758364 -0.0026997781466193034
          -0.0029484149533035267 -0.002621081539925974 -0.0026990526071332894 -0.0027333938416170787 -0.002658303094568964 -0.0026108137146101445
          -0.0027513676188326984 -0.002733093329802018 -0.002658099839644872 -0.0026116428882338146 -0.0027519086234277968 -0.0027327928179869568
          -0.00265789658472078 -0.002612472061857484 -0.002752449628022895 -0.002611624824316337 -0.0025444911776175702 -0.002610375705622247
          -0.0027000712408216834 -0.002610830665162015 -0.0025431495440418456 -0.002609569286381279 -0.002699164494045876 -0.002610036506007693
          -0.0025418079104661197 -0.002608762867140311 -0.0026982577472700674 -0.003189288221985773 -0.0034442981801408616 -0.003221806838023397
          -0.003191300072688695 -0.0034460321186105623 -0.0032232473931554256 -0.0031933119233916174 -0.003447766057080263 -0.003224687948287454
          -0.002404372582155326 -0.002404455364193301 -0.002404538146231277 -0.0035473691631073773 -0.0038416438530396242 -0.00354773352439777
          -0.0038408824391152523 -0.0035480978856881618 -0.003840121025190881 -0.0022753481049605766 -0.0025538203386706155 -0.002275660000364545
          -0.0025542634046933233 -0.0022759718957685135 -0.0025547064707160307 -0.002496475250162834 -0.002670947807455617 -0.002498590816748356
          -0.0026734073808901498 -0.0025007063833338786 -0.002675866954324682 -0.002676548612048809 -0.0027717691249851475 -0.002943246969747476
          -0.002799454899123991 -0.0026774745655306987 -0.002773079629093908 -0.0029442386443124724 -0.002800331102046306 -0.0026784005190125877
          -0.0027743901332026684 -0.002945230318877469 -0.0028012073049686207 -0.004246866404393441 -0.004246634558771257 -0.004246402713149073
          -0.002878803005648653 -0.0028815726246296013 -0.002884342243610549 -0.003091003044796858 -0.0030922341553952944 -0.003093465265993731
          -0.0028872166099915557 -0.00293030549103133 -0.0028865477012049293 -0.0029307117680894366 -0.0028858787924183017 -0.0029311180451475436
          -0.003998092824507603 -0.0038463922408708095 -0.0035807498090146294 -0.003717535586096198 -0.0039982493548103215 -0.003843937768106028
          -0.0035797559063461236 -0.003718148030179283 -0.003998405885113039 -0.003841483295341246 -0.0035787620036776173 -0.0037187604742623683
          -0.0028050163597813866 -0.0027757538998659397 -0.0028042993886943533 -0.0027744081105239965 -0.0028035824176073196 -0.002773062321182053
          -0.002795107511344351 -0.0027982157380748024 -0.002801323964805253 -0.002504857481574568 -0.0025056782879955275 -0.002506499094416487
          -0.0031321920337210054 -0.0029703309997648614 -0.0031352503417960854 -0.0029735787902370864 -0.003138308649871165 -0.002976826580709311
          -0.0027128822212758815 -0.0026551168652554037 -0.0027118464207152183 -0.0026548455089329356 -0.002710810620154555 -0.002654574152610467
          -0.0034473567963105725 -0.003672329759820691 -0.0034470956615046083 -0.0036699479103629857 -0.003446834526698645 -0.0036675660609052797
          -0.0026491651755156847 -0.0026516457014738675 -0.0026541262274320503 -0.004027152001892964 -0.004025070433276196 -0.004022988864659428
          -0.0025400788499026355 -0.002541948586877618 -0.0025438183238526003 -0.003604343855756065 -0.0036042048124481025 -0.0036040657691401405
          -0.0028791240793926585 -0.0028816376800066433 -0.0028841512806206285 -0.0023912336823939907 -0.0024046878109027186 -0.0023918453927086534
          -0.002405399368952941 -0.002392457103023316 -0.002406110927003163 -0.002834714995598197 -0.002834730520496235 -0.0028347460453942725
          -0.002876257501096255 -0.0029661867589136 -0.002877150778058718 -0.0029676905019605116 -0.0028780440550211814 -0.002969194245007423
          -0.0031857314911103015 -0.003280048989226396 -0.003186888455424683 -0.003280847942223325 -0.0031880454197390634 -0.003281646895220254
          -0.0027394179283360396 -0.0026922247498718686 -0.002737992257244079 -0.0026915263745075978 -0.0027365665861521188 -0.002690827999143327
          -0.00304554990934486 -0.0030471332188660365 -0.003048716528387214 -0.002434344706832829 -0.002435582468644753 -0.0024368202304566777
          -0.0034021871222379364 -0.003404340942653356 -0.003406494763068775 -0.0024560068396638265 -0.002384034038513217 -0.0024579772050201945
          -0.002386396965847712 -0.0024599475703765625 -0.002388759893182207 -0.002290953879035119 -0.002272003872524895 -0.0022929871758971387
          -0.0022743241479089896 -0.002295020472759158 -0.002276644423293084 -0.002375858048603039 -0.0024163539873521007 -0.0022893678753511918
          -0.0023781104914494503 -0.002417133898885426 -0.002291682156306402 -0.002380362934295861 -0.0024179138104187506 -0.002293996437261612
          -0.002245882597594359 -0.002248268469206268 -0.0022506543408181766 -0.003309809447336905 -0.003114657696273966 -0.0033116159376318263
          -0.003116496721543783 -0.0033134224279267478 -0.0031183357468136004 -0.002702999210047775 -0.002702909559635784 -0.002702688478858616
          -0.0027028816129698236 -0.002702377747669457 -0.002702853666303863 -0.0023699180053099707 -0.002370649887873819 -0.0023713817704376673
          -0.0023369650609223044 -0.0023390184695971992 -0.0023410718782720945 -0.0029698220407731375 -0.0029711985796279316 -0.0029725751184827252
          -0.0026183007384779898 -0.002574367874751609 -0.002618523822144005 -0.0025735234784566665 -0.0026187469058100202 -0.002572679082161724
          -0.0025091401664955114 -0.002507594454757179 -0.0025060487430188464 -0.00266634867835594 -0.0026661637352020993 -0.002665978792048259
          -0.003050641154347901 -0.0030520379681438802 -0.00305343478193986 -0.00270654036047715 -0.0027060190445470406 -0.002705497728616931
          -0.002715578895792345 -0.002715183208241661 -0.0027147875206909766 -0.0026884595494701307 -0.0026881744899182685 -0.0026878894303664063
          -0.0019589197244147287 -0.001958769060739498 -0.001958618397064267 -0.002150613798988527 -0.0021504157140589454 -0.0021502176291293635
          -0.00234233663144471 -0.0023421089694277836 -0.0023418813074108577 -0.002527045405249231 -0.002526783176948507 -0.0025265209486477827
          -0.002614672692924637 -0.002614402591378623 -0.0026141324898326084 0 0 0
          0 0 0 0 0 0
          0 0 0 0 0 0
          0 0 0 0 0 0
          0 0 0 0 0 0
          0 0 0 0 0 0
          0 0 0 0 0 0
          0 0 0 0 0 0
          0 0 0 0 0 0
          0 0 0 0 0 0
          0 0 0 0 0 0
          0 0 0 0 0 0
          0 0 0 -0.000010446345137550712 -0.000010542490778799594 -0.000010638636420048474
          0 0 0 0 0 0
          0 0 0 0 0 0
          0 0 0 0 0 0
          0 0 0 -0.00006910249949454096 -0.00006939717386091156 -0.00006969184822728215
          -8.028292083607218e-7 -8.397748754175203e-7 -8.76720542474319e-7 0 0 0
          0 0 0 0 0 0
          0 0 0 0 0 0
          0 0 0 -0.00022389222940096237 -0.00022437697741867096 -0.00022486172543637964
          -0.00003162688656314589 -0.00003182267096341515 -0.00003201845536368442 0 0 0
          0 0 0 0 0 0
          0 0 0 0 0 0
          0 0 0 -0.0009989571928320587 -0.0009989884393583966 -0.0009990196858847347
          -0.0004929153370158962 -0.0004933927782676029 -0.0004938702195193096 -0.00013584832222024969 -0.00013630167961221 -0.0001367550370041703
          -0.000009068201552290988 -0.000009188822446152422 -0.000009309443340013855 0 0 0
          0 0 0 0 0 0
          0 0 0 0 0 0
          -0.0013928937975221812 -0.0013926371439741988 -0.0013923804904262165 -0.0008463403390300266 -0.0008466366744136718 -0.0008469330097973173
          -0.00033254134025507607 -0.00033319605811929265 -0.00033385077598350934 -0.000055653033413843114 -0.00005597587911806057 -0.00005629872482227801
          0 0 0 0 0 0
          0 0 0 0 0 0
          0 0 0 -0.0018261662843383362 -0.0018257958726534342 -0.001825425460968532
          -0.0012672697543321086 -0.0012673900779343794 -0.00126751040153665 -0.0006182957702237463 -0.0006190303615209566 -0.0006197649528181671
          -0.0001536291814840247 -0.000154141850603591 -0.0001546545197231573 -0.000001885888682208259 -0.0000019337401147590494 -0.0000019815915473098393
          0 0 0 0 0 0
          0 0 0 0 0 0
          -0.002059689775630937 -0.0020592887404682963 -0.002058887705305655 -0.0014972173545480124 -0.0014972477749035026 -0.001497278195258993
          -0.0007815573896682693 -0.0007823061738517526 -0.000783054958035236 -0.00021408869924494515 -0.00021470958786336573 -0.00021533047648178633
          -0.000003771777364416518 -0.000003867480229518099 -0.000003963183094619679 0 0 0
          0 0 0 0 0 0
          0 0 0 0 0 0
          0 0 0 0 0 0
          0 0 0 0 0 0
          0 0 0 0 0 0
          0 0 0 0 0 0
          0 0 0 0 0 0
          0 0 0 0 0 0
          0 0 0 0 0 0
          0 0 0 0 0 0
          0 0 0 0 0 0
          0 0 0 0 0 0
          0 0 0 0 0 0
          0 0 0 0 0 0
          0 0 0 0 0 0
          0 0 0 0 0 0
          0 0 0 0 0 0
          0 0 0 0 0 0
          0 0 0 0 0 0
          0 0 0 0 0 0
          0 0 0 0 0 0
          0 0 0 0 0 0
          0 0 0 0 0 0
          0 0 0 0 0 0
          0 0 0 0 0 0
          0 0 0 0 0 0
          0 0 0 0 0 0
          0 0 0 0 0 0
          0 0 0 0 0 0
          0 0 0 0 0 0
          0 0 0 0 0 0
          0 0 0 0 0 0
          0 0 0 0 0 0
          0 0 0 0 0 0
          0 0 0 0 0 0
          0 0 0 0 0 0
          0 0 0 0 0 0
          0 0 0 0 0 0
          0 0 0 0 0 0
          0 0 0 0 0 0
          0 0 0 0 0 0
          0 0 0 0 0 0
          0 0 0 0 0 0
          0 0 0 0 0 0
          0 0 0 0 0 0
          0 0 0 0 0 0
          0 0 0
        </DataArray>
        <DataArray type="Float64" Name="disp_x" format="ascii" RangeMin="0.00013710071361195013" RangeMax="0.00025000000000000006">
          0.0001846152814781483 0.00017898259095418896 0.00017180048844440314 0.00017328774757537847 0.0001846131658457249 0.00017898236931123936
          0.00017179895571524785 0.0001732858636175059 0.00018460698587912503 0.000178982068809325 0.00017179491977496942 0.00017328021516760053
          0.00016818394561107515 0.00017080851464923422 0.00017730889748740402 0.0001731953369973218 0.00016818327093229017 0.00017080709343283984
          0.0001773068116212673 0.0001731944343908972 0.00016818138107031432 0.00017080270552309633 0.00017730165500185675 0.00017319209372926073
          0.0001783719201756815 0.00017152867485925493 0.00017836971871761328 0.0001715281926210453 0.00017836239798323957 0.00017152660428547753
          0.0001803874144865877 0.0001878935707301935 0.00018373070969451236 0.00018038524535569055 0.00018788900725914874 0.00018372716172705523
          0.00018037901676684438 0.00018787561582878727 0.00018371516258050381 0.00015928030716983043 0.00015552691621854603 0.0001520482751215912
          0.00015745227236742555 0.00015928119456190329 0.000155528562119472 0.00015204920101858217 0.00015745305359767483 0.0001592829164764827
          0.00015553331599124987 0.00015205379315042444 0.00015745559122326113 0.00015762862070567896 0.00015388323301403093 0.00015490671521497637
          0.00016001259014465925 0.00015762943177413246 0.00015388535248405383 0.00015490876780747183 0.00016001306567948792 0.00015763158139183806
          0.00015389098271515123 0.00015491330122978706 0.00016001579370803544 0.00016463780545184628 0.00016505684235995597 0.00017256239625666777
          0.00016463696407873252 0.00016505165296996875 0.00017256001765528494 0.00016463166028585677 0.00016503729197831616 0.00017255070270311794
          0.00018972611414061962 0.0001897236210568647 0.0001897159404253755 0.00017268132103979517 0.0001642691042279422 0.00017267468356050173
          0.00016426390019291332 0.00017265254883225682 0.00016424838069022577 0.00019429591184768992 0.00019166161697415022 0.00019429333805717083
          0.00019165875052669793 0.00019428510429444305 0.0001916477133869082 0.00014184024859611763 0.00013944414223302352 0.00014183853946416229
          0.00013944081167741203 0.00014183142490883422 0.00013943102107140347 0.0001498928277122852 0.00014712089026773658 0.00015204278918402907
          0.00015501500185798086 0.000149892560300935 0.00014712132760504528 0.0001520417100780939 0.00015501516268366555 0.00014989136906225009
          0.00014712298494213335 0.00015203894395262772 0.00015501519030658472 0.00014707245043662443 0.00014707173280093408 0.00014706869481050366
          0.00013712092031828563 0.00013711618641032395 0.00013710071361195013 0.0001830123555829648 0.00018300616837051717 0.0001829902784336601
          0.0001682407944901773 0.00016481960111934296 0.00016824088238124297 0.00016481942044231792 0.00016824032973817101 0.00016481927710449004
          0.00014568357050518497 0.00015108072966804343 0.0001492716677924582 0.00014416097302732235 0.00014568293863130715 0.000151079884902669
          0.0001492684062343858 0.0001441591463184846 0.00014568155618349457 0.00015107841138201213 0.00014926102733150873 0.00014415110441459068
          0.00016502008924112639 0.00016619501540151075 0.00016502054488183091 0.00016619540024846293 0.00016502177235659137 0.00016619638643554388
          0.00014083318449796756 0.00014083050671500615 0.00014082284906289806 0.00015087201821177587 0.00015087485711722632 0.000150882021551919
          0.000142146534511818 0.0001416622107352263 0.00014214511448960396 0.00014166034815964903 0.00014214296251858753 0.00014165440305411592
          0.00016250761844924082 0.00016107568059247254 0.00016250916679542106 0.0001610761290624311 0.00016251231889713165 0.00016107882787982821
          0.00015399820946168378 0.00015454795872681316 0.00015399556969814403 0.00015454348552327888 0.00015398354255563912 0.00015452620093399253
          0.0001432163969598181 0.00014321553409348765 0.00014321283637147767 0.00015543171170438286 0.0001554285116372299 0.00015541697667503226
          0.00014550834556219236 0.00014550938284437168 0.00014551269027905035 0.00015871925888822955 0.00015871443143330186 0.00015869653208273378
          0.00014401120284821393 0.0001440105388161503 0.00014400910794049284 0.00014096628150241398 0.0001410215414883564 0.00014095982192554305
          0.00014101805115233605 0.00014095069403977054 0.00014100720666956288 0.00016290271872275818 0.00016290322458970363 0.0001629038024156412
          0.00016032984804433703 0.00015854212778408395 0.00016033017541484514 0.00015854115850685556 0.00016033076729663522 0.00015853739827913525
          0.00015310622543846485 0.00014800718244040178 0.0001531037498136283 0.00014800558124213154 0.0001530970176806472 0.00014800137148612814
          0.00016614731990366915 0.00016481248506082023 0.00016614686522460512 0.00016481286547992936 0.0001661439707776491 0.00016481416513266974
          0.00014641623588574295 0.00014641516823645366 0.0001464104286493461 0.0001411853023991276 0.0001411832476460062 0.00014117287881942067
          0.00014301352747727485 0.00014301380250409377 0.00014300956409752844 0.00014698676719842888 0.00014436598093086462 0.00014698824166839127
          0.00014436629041257893 0.00014699120567447654 0.00014436521561302226 0.00014403175268686228 0.00014401691817112654 0.0001440298789723108
          0.0001440184366616161 0.0001440251119909261 0.0001440117828696906 0.0001473014325546424 0.00015033783460171205 0.00014706020674101685
          0.0001473035965788449 0.00015034109676213 0.0001470604441487687 0.00014730959467974055 0.00015035135322785792 0.00014706285404180448
          0.00014694349020408196 0.0001469448947088522 0.00014694623046679933 0.0001590231752116389 0.00015844661231071555 0.00015901931087172297
          0.00015844474728763538 0.00015900811568305282 0.000158437672876184 0.00016876971230052795 0.000170682472389313 0.00016876946171885158
          0.00017068308394918534 0.00016876847298332283 0.000170682555586115 0.0001498649064706741 0.00014986902946019612 0.00014988263064603656
          0.0001442167058825819 0.00014421615483166427 0.00014421401015077853 0.00016229551595912408 0.00016229535699681928 0.00016229378311697886
          0.000159591253660945 0.0001562963150086492 0.00015959279305440805 0.00015629688431495348 0.00015959680980307876 0.00015629786009871023
          0.00015304041965362084 0.0001530431076857575 0.00015305040289859356 0.0001629380698158351 0.00016293984805222937 0.00016294410336261156
          0.00016342788771635058 0.0001634272204431235 0.00016342317741073625 0.00016635165316824054 0.00016635358010780478 0.0001663571349796101
          0.00016982046635972696 0.0001698208502962614 0.00016982183393453244 0.0001732958177009388 0.00017329611299732209 0.00017329592990697574
          0.00020344520990213865 0.0002034436425554508 0.00020343907685652887 0.0001993243068287773 0.00019932349027005207 0.00019932097354505385
          0.00019483350165259305 0.00019483268101294055 0.00019482990596415581 0.0001898624078403262 0.000189861427049289 0.00018985802882388094
          0.0001844937190760502 0.00018449343043303235 0.00018449241024310343 0.0002248099430954475 0.00022475005271045619 0.00022481016584447898
          0.00022475028321915517 0.00022481084111443958 0.0002247509751975642 0.00022671748743365779 0.00022664578958861295 0.0002267172745591324
          0.00022664555471673035 0.00022671660307080983 0.00022664481539419137 0.0002286103458453702 0.00022852781459019536 0.00022861029826026384
          0.00022852777854416367 0.00022861017673572436 0.00022852770380170354 0.00023050474160834093 0.00023041402285607046 0.0002305046248915934
          0.0002304139040370226 0.00023050427859761164 0.0002304135526615997 0.00023240201767548628 0.00023230796372885636 0.00023240191907195472
          0.0002323078612773859 0.00023240162301806647 0.00023230757500458267 0.0002343018987591969 0.0002342109877588986 0.00023430179682172117
          0.00023421089162738282 0.00023430149224733227 0.00023421059506946123 0.00023620072122560498 0.00023612100515795704 0.00023620063074040342
          0.00023612091961879706 0.00023620035778706416 0.0002361206573271296 0.000238093700615265 0.0002380344889840373 0.00023809362224810155
          0.00023803441111050648 0.00023809337722269108 0.00023803417063196622 0.00022493496102469769 0.00022493508731023996 0.00022493549435742593
          0.00022685885069481472 0.00022685870382441276 0.00022685823139870242 0.0002287747076171963 0.0002287746244645466 0.00022877440865372943
          0.00023068776385553547 0.00023068764478743613 0.00023068728581848215 0.0002325989018496084 0.0002325987883787395 0.00023259845941478094
          0.0002345050208422406 0.0002345049110432423 0.00023450458527411023 0.00023639974601886356 0.0002363996550398639 0.00023639937438565
          0.00023827638436681615 0.00023827629768558343 0.00023827604491845412 0.00022511300081852159 0.00022511297156674285 0.00022511296183175348
          0.00022708071288215508 0.0002270806975429912 0.00022708063953558595 0.00022903241087653188 0.00022903223413082914 0.00022903169718105416
          0.0002309768758773884 0.00023097676559650845 0.00023097644843125025 0.00023291429126699625 0.0002329141581342259 0.00023291375663281132
          0.00023483538739645427 0.0002348352677653154 0.00023483491055846588 0.00023673190496363453 0.00023673180382497949 0.0002367315010323901
          0.0002385951918987921 0.00023859510289758003 0.0002385948350569751 0.00022540617737719048 0.00022540527046221027 0.00022540256904679374
          0.00022739640526328543 0.00022739648315080971 0.00022739677916778616 0.00022940437192542316 0.00022940424536366184 0.00022940385217289034
          0.00023140188377521076 0.0002314016905494705 0.00023140112088376781 0.00023337488512902474 0.00023337475012275577 0.00023337434981028597
          0.0002353172661849111 0.00023531712441704445 0.00023531669680851533 0.00023721851443772745 0.0002372184087619141 0.00023721809346497868
          0.00023906870155871265 0.00023906860801591498 0.000239068324621651 0.00022569090265659307 0.00022568860145549696 0.0002256818070775182
          0.00022787744525107708 0.00022787707182836425 0.00022787596667712005 0.000229949482821883 0.0002299494358591581 0.00022994933832000376
          0.00023200269624714856 0.00023200245001195942 0.00023200168078025028 0.00023401640797448986 0.000234016258727467 0.00023401583310933907
          0.00023598115580053457 0.00023598099276029883 0.00023598049358428754 0.00023788454395367296 0.00023788442978881763 0.00023788409055295253
          0.000239716664799447 0.00023971656176621819 0.00023971625083088553 0.0002216757106770859 0.00022167198406053103 0.00022166060578866038
          0.0002257921679482011 0.00022578857536752507 0.00022577779041994865 0.00022855384454872083 0.00022855210604384068 0.00022854683219845082
          0.00023071562329776232 0.0002307153967039174 0.0002307148106499956 0.0002328246609101748 0.0002328245338891564 0.0002328241463421216
          0.00023488011041571778 0.00023487988662497953 0.00023487920191420366 0.00023685852239729212 0.0002368583511817848 0.00023685784599129163
          0.00023875356009128934 0.00023875344596958607 0.00023875311620145262 0.0002405537963722344 0.000240553698123427 0.00024055341839246858
          0.0002202256407339799 0.00022022195290036188 0.0002202112104222283 0.0002256352715316151 0.00022563075874976 0.00022561721804515052
          0.00022928931709897173 0.00022928601103062264 0.00022927597083594438 0.0002317596089617204 0.00023175864829913756 0.00023175575975448642
          0.00023392319262703962 0.00023392313546792334 0.00023392300708481795 0.00023600245428733496 0.00023600223910358152 0.00023600157072263338
          0.0002379809426794994 0.00023798070724821596 0.00023798000006613457 0.0002398489668946503 0.00023984880914377544 0.00023984833937550843
          0.00024158501674461055 0.00024158488088252245 0.00024158446154858116 0.00021826545005196454 0.00021826208413854438 0.0002182522543719529
          0.00022519114912499633 0.00022518605427138065 0.00022517056449282167 0.00023002718194680197 0.0002300223062004047 0.00023000771427029597
          0.00023308998596155255 0.0002330877763361803 0.0002330811288713546 0.00023532203072405207 0.0002353218117203974 0.00023532130068130134
          0.00023742297860368451 0.00023742286972668555 0.00023742252527848232 0.00023939917010749797 0.00023939882559507108 0.00023939777542973602
          0.00024119713494731565 0.00024119707607731222 0.00024119696592459638 0.00024278175925665098 0.00024278169850141482 0.00024278150232375387
          0.0002159508348642839 0.00021594777257288509 0.0002159392258471564 0.00022457219517597058 0.00022456617964469736 0.00022454785320381656
          0.00023078605702917237 0.00023077913758262638 0.000230758164034783 0.0002346322996989263 0.0002346286130873473 0.00023461720342962672
          0.000237057497840937 0.00023705697139844023 0.0002370554083761809 0.00023925364238960221 0.0002392535094765332 0.00023925318353528295
          0.00024123775809209113 0.00024123710147213456 0.00024123502714091226 0.00024287146710392086 0.00024287122552267895 0.00024287048858152277
          0.00024403729845242213 0.00024403726763637417 0.0002440371453698771 0.0002393726576174653 0.0002394278446225097 0.00023937258678349637
          0.00023942777235608505 0.00023937237064267498 0.0002394275519564842 0.00023959725951748503 0.00023959718018747394 0.0002395969458159263
          0.000239890869613622 0.00023989078356277807 0.00023989053303631136 0.0002403225889279164 0.00024032249741093688 0.00024032222193641066
          0.00024090596398392407 0.00024090586183833125 0.00024090556389547784 0.00024164772971787884 0.00024164761616683004 0.00024164726819435607
          0.00024253535096380405 0.0002425352546505906 0.00024253495763755617 0.00024351857951441329 0.00024351844289054699 0.00024351796380781706
          0.0002443171099154141 0.0002443174113226734 0.00024431834823637836 0.00024070974258426253 0.00024076001127832524 0.00024070968019679684
          0.0002407599477970103 0.00024070948798657002 0.00024075975344918434 0.00024091377592083782 0.00024091370958568726 0.0002409135130581217
          0.0002411787566461546 0.00024117868850004654 0.0002411784940674316 0.00024156506856836839 0.00024156500185521936 0.0002415648139777045
          0.00024208126174804238 0.00024208120261920687 0.0002420810360408771 0.00024272685019574103 0.00024272680707765297 0.00024272669055713051
          0.00024347904019816346 0.0002434790566458421 0.00024347911331110096 0.00024425505904296515 0.0002442551524408561 0.0002442554593882899
          0.00024476838250736256 0.00024476892132761937 0.0002447706114500082 0.00024204477067651893 0.00024208936416805427 0.00024204471684424145
          0.00024208931079998435 0.00024204455249725242 0.00024208914471130345 0.00024222541536226256 0.00024222536178916107 0.00024222519415995224
          0.00024245875162244343 0.00024245869619561903 0.00024245852902512056 0.00024279648936648186 0.00024279643639195186 0.00024279627450747793
          0.00024324312010928656 0.00024324307638897867 0.00024324293217827366 0.00024379287348311998 0.0002437928524832089 0.00024379276292864444
          0.0002444141470369399 0.00024441416141313257 0.00024441417305611103 0.000245010881512851 0.00024501097547230876 0.00024501121744558807
          0.00024535059978065513 0.00024535084629811587 0.00024535150933102494 0.0002433770889323288 0.0002434153720203898 0.00024337704524252863
          0.0002434153287004409 0.000243376908098108 0.0002434151920377726 0.00024353186788191898 0.00024353182491113588 0.00024353168984977446
          0.00024373081679659968 0.0002437307738199131 0.00024373064345793792 0.00024401700017958092 0.0002440169591563243 0.00024401683887240977
          0.0002443918678048099 0.00024439183838977394 0.0002443917461322371 0.00024484590833934297 0.000244845898506274 0.0002448458624655926
          0.0002453431878638291 0.0002453432149910053 0.00024534328997866036 0.00024579269437104216 0.0002457927878027084 0.0002457930558715627
          0.0002460204278010247 0.0002460206275264305 0.00024602123614462926 0.00024470641693977933 0.00024473783424887145 0.00024470638164632573
          0.00024473779912545377 0.000244706269856705 0.0002447376901553101 0.0002448331656048405 0.0002448331316407539 0.0002448330265970069
          0.00024499533347524055 0.00024499529867917516 0.00024499519774695257 0.00024522736267442943 0.0002452273309200726 0.0002452272414942302
          0.0002455286750917732 0.00024552865312931974 0.0002455285912498238 0.00024588802003581956 0.0002458880158561989 0.0002458880017045322
          0.00024627074036782573 0.0002462707685341956 0.0002462708428165657 0.00024660046029748 0.000246600539366664 0.0002466007574685723
          0.0002467530551635934 0.0002467531924446412 0.0002467535744447393 0.0002460328384375677 0.0002460568972103045 0.0002460328137918179
          0.00024605687114662595 0.0002460327309992277 0.0002460567905687635 0.0002461297007518387 0.00024612967472250583 0.00024612959838293396
          0.00024625308754696934 0.00024625306271085223 0.0002462529891047861 0.000246428848129318 0.0002464288288259782 0.00024642876653010705
          0.00024665537384451207 0.000246655363730757 0.0002466553217612032 0.00024692198616782713 0.0002469219911681889 0.00024692198663186214
          0.00024719964445845907 0.00024719967590625347 0.00024719974133334934 0.0002474304086961852 0.00024743046871556976 0.00024743062774839204
          0.0002475300276678369 0.0002475301201519372 0.00024753038537753537 0.0002473567629830688 0.00024737305308383513 0.0002473567491097977
          0.00024737303569196284 0.00024735669637606283 0.0002473729821190218 0.0002474222367505568 0.00024742221702153574 0.0002474221658511462
          0.00024750532746592885 0.0002475053113252365 0.0002475052638703298 0.00024762329791511 0.00024762328499984093 0.0002476232447095755
          0.00024777445091301166 0.0002477744439396084 0.0002477744135826091 0.00024795061617841096 0.00024795062441088507 0.0002479506194655792
          0.0002481311366320986 0.00024813116081387254 0.0002481312094652134 0.0002482774967612332 0.00024827753655381037 0.0002482776371728466
          0.0002483375597280021 0.00024833762844895076 0.00024833779753884953 0.0002486788634345029 0.0002486870882586572 0.0002486788559224289
          0.00024868707898082366 0.00024867882918365073 0.000248687051815736 0.0002487118770155603 0.0002487118662944645 0.00024871184054616293
          0.00024875367008687764 0.00024875366214496564 0.00024875364005679006 0.000248812884992333 0.00024881287973929845 0.00024881286445496665
          0.00024888851590425595 0.00024888851882886584 0.0002488885203775545 0.0002489761835973951 0.0002489761946628726 0.0002489762181447543
          0.00024906512181010153 0.0002490651321529576 0.00024906515345847545 0.0002491362157180144 0.0002491362355066863 0.00024913628905809247
          0.0002491644220590785 0.00024916445103442266 0.00024916452980637874 0.00025000000000000006 0.00025000000000000006 0.00025000000000000006
          0.00025000000000000006 0.00025000000000000006 0.00025000000000000006 0.00025000000000000006 0.00025000000000000006 0.00025000000000000006
          0.00025000000000000006 0.00025000000000000006 0.00025000000000000006 0.00025000000000000006 0.00025000000000000006 0.00025000000000000006
          0.00025000000000000006 0.00025000000000000006 0.00025000000000000006 0.00025000000000000006 0.00025000000000000006 0.00025000000000000006
          0.00025000000000000006 0.00025000000000000006 0.00025000000000000006 0.00025000000000000006 0.00025000000000000006 0.00025000000000000006
          0.00025000000000000006 0.00025000000000000006 0.00025000000000000006
        </DataArray>
        <DataArray type="Float64" Name="disp_y" format="ascii" RangeMin="-0.000052589447408197046" RangeMax="0">
          -0.00002539505564864604 -0.00002972957582256154 -0.00003418697976579312 -0.0000327080764250897 -0.000025393890249025755 -0.000029728998771740647
          -0.00003418724169157868 -0.00003270879549409756 -0.000025390204275137027 -0.00002972703016160603 -0.000034188377903095886 -0.00003271070033412824
          -0.00003292598008113287 -0.00003032303659274639 -0.00002719117742605807 -0.00003066037981953805 -0.00003292711250846531 -0.000030323922801912583
          -0.000027191346020807247 -0.00003066103034470307 -0.000032930982946673415 -0.00003032594940711402 -0.00002719181243454203 -0.00003066260829364517
          -0.000028360300911903487 -0.00003304573225209916 -0.000028360181196314246 -0.00003304611673472745 -0.000028360417514031597 -0.000033047833672979483
          -0.000023973669984509924 -0.000020442418166910467 -0.00002420762465361683 -0.000023973154708789805 -0.0000204414104450557 -0.000024207189793390633
          -0.000023971761420929838 -0.00002043830298900751 -0.00002420617333756941 -0.00004101009386435899 -0.000043342543068921267 -0.00004497154640811657
          -0.000041431914696562515 -0.000041011433789578874 -0.000043344189242322297 -0.000044974313591773344 -0.0000414334118133403 -0.0000410150390321553
          -0.00004334916595721808 -0.00004498138033848518 -0.00004143796006601015 -0.00004316558390306809 -0.00004527125241326017 -0.00004415473822907854
          -0.00004122375077143415 -0.00004316754278379873 -0.00004527366584682814 -0.00004415640739864592 -0.000041225183872816474 -0.00004317321899129877
          -0.000045279683897799325 -0.000044161741739286304 -0.00004122978831640018 -0.00003334080144625565 -0.000031520613612348686 -0.000027844593019694765
          -0.00003334294611052047 -0.00003152402402784456 -0.000027846815049688488 -0.00003334950968728353 -0.00003153520633568239 -0.000027853271771884554
          -0.000021263039648293176 -0.000021261776836727095 -0.000021258086371614266 -0.00002578372944859496 -0.000029593330058745322 -0.000025787357856038956
          -0.000029597986211398744 -0.000025799180935366616 -0.000029613554105844164 -0.000017364177055385803 -0.00001677155793535888 -0.00001736354122608949
          -0.000016771523764871642 -0.0000173619978433802 -0.00001677060719555238 -0.000050075001468730076 -0.000050353186962408626 -0.00005007601999737893
          -0.000050354478847071105 -0.00005007915791767599 -0.00005035682160445191 -0.00004526650450487732 -0.000045777877849149864 -0.00004242600819289416
          -0.000042057029019447815 -0.00004526950211891253 -0.000045781334334132984 -0.000042428981801672854 -0.0000420587114129622 -0.000045278803355632366
          -0.000045791952160348954 -0.000042437576006067564 -0.00004206425639695264 -0.00003406972899052419 -0.00003407360248815827 -0.000034086652814969046
          -0.00005037501018311488 -0.000050375496679562914 -0.0000503785891975101 -0.000020502199178023163 -0.00002050265903006646 -0.000020504108763306577
          -0.00003428862149029846 -0.00003559589492244395 -0.00003428937698290776 -0.00003559723737292753 -0.00003429220129340026 -0.000035600848647140074
          -0.00003738768094424175 -0.00003696648266985844 -0.00003957174611157489 -0.00004048598135119407 -0.00003739182174602038 -0.000036970561141047365
          -0.000039576935458676445 -0.00004049016818034617 -0.00003740288292340311 -0.00003698195832480994 -0.00003959492314567088 -0.00004050497068533391
          -0.00003734207523380589 -0.00003725512154487235 -0.0000373428804967137 -0.000037255632790779447 -0.00003734544569605481 -0.000037257099600363004
          -0.000048380852678878664 -0.00004838348215083968 -0.000048392803818041114 -0.000046375054854099204 -0.00004637751271168204 -0.00004638543276623484
          -0.00004541211459454874 -0.00004668855060329807 -0.000045417333802039994 -0.00004669152741198262 -0.000045432432004680755 -0.00004670427963209705
          -0.000040018567134204517 -0.000041195502837076245 -0.000040019797551553355 -0.00004119723943797914 -0.000040024700048350047 -0.000041203429153209306
          -0.00003813507883524196 -0.0000365614333358839 -0.00003813961971340837 -0.00003656560217778722 -0.00003815537375141105 -0.000036578613794796125
          -0.000048218255853151624 -0.00004822125905437676 -0.00004823058054815865 -0.00003322552022090203 -0.00003323007498055667 -0.00003324272869062094
          -0.00004790930537824459 -0.00004791186816446135 -0.00004792073886354366 -0.00003453101153720744 -0.00003453487589957964 -0.00003454602610744888
          -0.000046353695345647165 -0.00004635734363883721 -0.00004636828525466423 -0.00005258771262605566 -0.00005197348574564985 -0.00005258907487094236
          -0.00005197343414580348 -0.000052589447408197046 -0.000051972185216216946 -0.000037907868558258994 -0.0000379088030613711 -0.000037912064419218026
          -0.00003865023242094372 -0.000038761179589973735 -0.00003865161946509506 -0.000038763136845689106 -0.00003865575639079275 -0.000038769179091221393
          -0.00004014225444256223 -0.00004198216490582842 -0.00004014576980994193 -0.000041987149787531475 -0.00004015662111865579 -0.000042001597050775464
          -0.00003776121893893188 -0.00003894684289553264 -0.000037761824064994634 -0.00003894807365486918 -0.00003776389372692364 -0.00003895239471296739
          -0.00004424392007835443 -0.000044247684020436224 -0.000044259176025200097 -0.00005124437410604103 -0.00005124419951377358 -0.00005124246321414405
          -0.00004321053930594534 -0.00004321672040988093 -0.00004323430993162177 -0.00004781634654840534 -0.00004927604026440459 -0.00004781872713940424
          -0.000049278265974148255 -0.00004782751237722351 -0.00004928693208271344 -0.00005050150733778019 -0.00005104679910310478 -0.000050501364798123685
          -0.00005104625593277468 -0.00005050175203519192 -0.000051043333294375076 -0.000048272928670861065 -0.000047232327495294695 -0.00004896886561647711
          -0.0000482754573384118 -0.0000472354138839716 -0.00004897183774130058 -0.00004828457327387691 -0.000047245883482342866 -0.000048980721934259696
          -0.000049535178822056805 -0.00004953987522069599 -0.00004955268785017084 -0.000035973652926285144 -0.00003764551157895437 -0.00003597720643932671
          -0.000037648013056611195 -0.00003598711664834188 -0.00003765523424721143 -0.0000364961725191143 -0.00003540963064168302 -0.00003649602131347053
          -0.00003540944566700316 -0.00003649591852845968 -0.000035408328183063526 -0.000047991779496129606 -0.00004799517451174673 -0.000048008585397377815
          -0.00004982378872978387 -0.00004982481894776418 -0.0000498288346447719 -0.000036513361694750953 -0.0000365146904135093 -0.00003651965353384534
          -0.000042451001634746114 -0.00004438147094046322 -0.00004245270016469902 -0.00004438328509016186 -0.000042458213793138214 -0.000044389323043467266
          -0.00004622979774091185 -0.00004623154203215675 -0.000046238061211396446 -0.000040438076666618246 -0.000040439787721266976 -0.00004044458653680093
          -0.00003517379118650903 -0.00003517532230691252 -0.00003518107442359041 -0.00003835782612336084 -0.000038357171396527185 -0.00003835765444227817
          -0.00003626353121540997 -0.00003626192141007118 -0.0000362581088275753 -0.00003418946475084776 -0.000034188361624723214 -0.00003418577873208316
          -0.000012228020419706821 -0.00001222675276656685 -0.000012222981387436088 -0.000015619879210756477 -0.000015618636628258318 -0.000015614967900704612
          -0.000019304232147997044 -0.000019302394178664446 -0.000019297093915917227 -0.000023341481194894937 -0.00002333996084559423 -0.000023335460743641237
          -0.00002763946278809975 -0.000027638389889309306 -0.000027635863544479734 -3.2453747258178776e-7 0 -3.2457041280775133e-7
          0 -3.2467398288878987e-7 0 -3.5440842306701143e-7 0 -3.5439583144022993e-7
          0 -3.543586818538219e-7 0 -4.0613283486367795e-7 0 -4.0612040697477396e-7
          0 -4.0607930262543304e-7 0 -4.77859248030644e-7 0 -4.778540991257468e-7
          0 -4.778349141341086e-7 0 -5.629725323492684e-7 0 -5.629733248241411e-7
          0 -5.629724830245561e-7 0 -6.560847674073628e-7 0 -6.560901799718012e-7
          0 -6.561057601064115e-7 0 -7.527692423448818e-7 0 -7.527800591272153e-7
          0 -7.528109652742788e-7 0 -8.500355192587217e-7 0 -8.500478161714395e-7
          0 -8.500849208952301e-7 0 -6.465090987114855e-7 -6.465954207416539e-7 -6.46874730399348e-7
          -7.059742511249773e-7 -7.058759065030959e-7 -7.055740428584638e-7 -8.132355540210004e-7 -8.132281448390398e-7 -8.132125695672435e-7
          -9.589894408894226e-7 -9.589807213203378e-7 -9.589478978212046e-7 -0.0000011303753086343947 -0.000001130378971330583 -0.0000011303932085633328
          -0.0000013157674696492489 -0.0000013157827172137363 -0.0000013158259957265988 -0.0000015066314270780595 -0.000001506654666068757 -0.000001506725456405013
          -0.0000016972344584709938 -0.000001697261045773421 -0.0000016973426595408592 -9.610021753300309e-7 -9.609992019304786e-7 -9.610861451489925e-7
          -0.0000010548397265089475 -0.0000010548322779743146 -0.0000010547987110056736 -0.0000012205424630826653 -0.0000012204967248250253 -0.0000012203493127533197
          -0.0000014447596624496734 -0.0000014447461240806917 -0.0000014447134137067117 -0.000001703487113177283 -0.0000017034957260791606 -0.000001703521019767875
          -0.000001978769057395444 -0.0000019787936492893237 -0.000001978869378185673 -0.000002259321082219223 -0.000002259360381148466 -0.00000225947809207153
          -0.0000025366167307723826 -0.0000025366606593659774 -0.0000025367937145244865 -0.0000012691842629552723 -0.0000012685973199853625 -0.000001266885628354048
          -0.000001400163578509323 -0.0000014002392520079098 -0.0000014005216689254017 -0.000001629864995550886 -0.0000016297664789770006 -0.0000016294568797442836
          -0.0000019370329806765795 -0.000001937039046382984 -0.0000019370634307208803 -0.0000022803889010669297 -0.000002280408919989888 -0.0000022804684189613773
          -0.0000026408158671586394 -0.000002640858940436817 -0.0000026409880455178598 -0.0000030040979160228146 -0.0000030041585112164727 -0.0000030043474462520903
          -0.0000033588476961321373 -0.0000033589166198267427 -0.000003359129000269676 -0.00000164536535655034 -0.0000016436250680234231 -0.0000016383576021642393
          -0.0000017177259468468805 -0.000001717419437751557 -0.000001716573660312485 -0.000002044591674916164 -0.0000020446810217697913 -0.0000020449720624554238
          -0.0000024310593850874005 -0.000002431050498594063 -0.000002431014906717112 -0.00000285373518038985 -0.000002853782219047032 -0.0000028539282560532647
          -0.0000032906943093373966 -0.000003290758813653673 -0.000003290948857106913 -0.0000037274097619333408 -0.0000037274963268224727 -0.00000372775729389681
          -0.0000041486614903137694 -0.0000041487500132633026 -0.000004149017606554058 -0.0000036450755618261115 -0.000003641940517250711 -0.000003632398767075077
          -0.0000022574756675934515 -0.0000022547334519416094 -0.000002246359186041191 -0.000002065591335549104 -0.0000020644943132179694 -0.000002061200031683086
          -0.000002451239050567863 -0.000002451281723937919 -0.000002451468116356502 -0.000002918063868379221 -0.00000291809899833207 -0.000002918185273704136
          -0.000003406884225669552 -0.0000034069508781752173 -0.0000034071505153795274 -0.00000390668680727085 -0.000003906784994151475 -0.000003907078596891875
          -0.000004407367466597621 -0.000004407511326731125 -0.000004407956801556633 -0.000004883575756391779 -0.000004883737280333242 -0.000004884240385752969
          -0.000005440324767352638 -0.0000054372575385273554 -0.00000542807367508028 -0.0000032794836270212285 -0.000003276561944827267 -0.0000032679382180066746
          -0.0000025617595282798346 -0.000002560029595121056 -0.0000025548126754987673 -0.000002842302714580018 -0.000002842026911484099 -0.0000028412544577337047
          -0.000003382115808461545 -0.000003382308407490018 -0.0000033829071009421033 -0.000003908636840242237 -0.000003908713908591115 -0.000003908936857353598
          -0.000004456025199931502 -0.000004456142972977392 -0.000004456492672913884 -0.000005012487705937694 -0.0000050126342956255335 -0.000005013069996508877
          -0.000005531255091439489 -0.000005531382294877144 -0.000005531750958919121 -0.000007926500226138376 -0.00000792273600892832 -0.000007911245939968958
          -0.000004907047433884598 -0.000004903261198887325 -0.000004891959255561992 -0.00000339164436778987 -0.0000033890344444369183 -0.000003381141535917545
          -0.0000032637748985688065 -0.0000032629762216888842 -0.000003260680183222611 -0.0000037969810928146736 -0.0000037971168564996798 -0.000003797570517436389
          -0.0000043196339789048916 -0.000004319687615625712 -0.0000043198275328915725 -0.000004887763048219798 -0.000004887940316115838 -0.000004888478700678055
          -0.000005481335102517764 -0.000005481685249799048 -0.000005482757204228517 -0.000006035315239634399 -0.000006035795890100467 -0.000006037224989682826
          -0.000011116130448622248 -0.000011110535776403886 -0.000011094026272229076 -0.000007202631848481878 -0.000007197164593382212 -0.000007180882463158339
          -0.00000468123720400227 -0.000004677776269313183 -0.000004667206769765161 -0.0000037904468009590434 -0.000003789398434253032 -0.000003786031543663919
          -0.000004128685345726137 -0.000004128730011213933 -0.0000041288241164570945 -0.000004593850483490009 -0.000004593849728832704 -0.00000459384630348828
          -0.0000051030714947744164 -0.000005103327792759677 -0.000005104084125500615 -0.0000056671528121705535 -0.000005667803249380455 -0.000005669743344369641
          -0.00000630103353712568 -0.000006301975007323785 -0.000006304852912971675 0 -8.828090685274432e-7 0
          -8.828239536521328e-7 0 -8.828689792807517e-7 -0.0000017608641381633584 -0.0000017608941860231166 -0.0000017609883703109497
          -0.000002627562551051906 -0.000002627611578037165 -0.000002627761024810851 -0.000003472893804785526 -0.0000034729687650030494 -0.0000034732016074717004
          -0.000004282255612446931 -0.00000428235477569476 -0.000004282655006486072 -0.000005035365042422335 -0.0000050355339863700676 -0.000005036052409918916
          -0.000005705465294381628 -0.00000570564111120413 -0.000005706159244459289 -0.000006250926444686126 -0.000006251365114805609 -0.0000062526981822938246
          -0.00000659130451480669 -0.000006592095761339731 -0.000006594483079530537 0 -9.099652484762457e-7 0
          -9.099806230575901e-7 0 -9.100279133972771e-7 -0.0000018131381482143086 -0.0000018131686790947157 -0.0000018132653671270496
          -0.000002701172114323583 -0.0000027012222372714518 -0.0000027013759208350245 -0.000003562910730710314 -0.0000035629850852834088 -0.0000035632087764894572
          -0.000004383384195283607 -0.000004383485516991614 -0.000004383793576037025 -0.00000514286869943569 -0.000005143012383331708 -0.0000051434431398774775
          -0.000005815864610315068 -0.0000058160444650126485 -0.000005816586860940991 -0.000006356856624192629 -0.000006357139258733174 -0.000006357978008884929
          -0.0000067290004211327165 -0.000006729360548763759 -0.000006730444712275292 0 -9.317551849359819e-7 0
          -9.317709646985473e-7 0 -9.318192806092899e-7 -0.000001854669488893321 -0.000001854700994861028 -0.000001854800053474417
          -0.0000027585094720276344 -0.0000027585599720504673 -0.000002758714343577942 -0.000003630592419328611 -0.000003630664588733618 -0.0000036308841306520198
          -0.000004454883017304248 -0.000004454980978412621 -0.00000445527450339381 -0.000005211187369712139 -0.000005211314859772019 -0.000005211698212113802
          -0.0000058724172313805366 -0.000005872574355003972 -0.000005873046774019812 -0.000006402498461402299 -0.000006402687808049989 -0.000006403255625036261
          -0.000006798074602557365 -0.00000679827609852644 -0.0000067988884845588134 0 -9.486697485099886e-7 0
          -9.486857014029706e-7 0 -9.487338734125123e-7 -0.0000018865113563103393 -0.0000018865431370641568 -0.0000018866422018676493
          -0.000002801377003329596 -0.000002801425627709096 -0.0000028015771645611485 -0.0000036788823535408003 -0.0000036789510847256653 -0.0000036791602130876483
          -0.000004501722684232144 -0.000004501812512761983 -0.000004502083257515683 -0.000005248835316581375 -0.000005248946283383155 -0.000005249279584366713
          -0.000005894923618117515 -0.000005895051828246544 -0.000005895439626381461 -0.000006417364909788354 -0.000006417490961138677 -0.000006417868275049923
          -0.000006832152874814812 -0.000006832270139746433 -0.000006832615271881765 0 -9.61317724587015e-7 0
          -9.613334627906767e-7 0 -9.613811434676474e-7 -0.000001909956991542571 -0.0000019099884589831183 -0.0000019100871793239527
          -0.000002831981000974595 -0.0000028320287887907806 -0.0000028321771738464738 -0.0000037114136231036545 -0.0000037114792158914353 -0.0000037116796270679827
          -0.000004529734557054061 -0.000004529817389644396 -0.000004530068090866205 -0.0000052658763667886214 -0.000005265972663882364 -0.000005266265280410722
          -0.000005898581181549303 -0.00000589868483764183 -0.000005898997893721958 -0.000006417032834125936 -0.000006417120068006137 -0.0000064173813743020775
          -0.000006847419340699365 -0.000006847486280039739 -0.000006847686359072612 0 -9.703272153681571e-7 0
          -9.70342776057024e-7 0 -9.703900792874709e-7 -0.0000019263551747664608 -0.000001926386392057474 -0.000001926483687500923
          -0.0000028526404887682753 -0.0000028526874541830326 -0.0000028528331089259072 -0.000003731874108694466 -0.0000037319366145158357 -0.0000037321290670692863
          -0.000004544709548829282 -0.000004544784671388916 -0.000004545016626677906 -0.000005270851406103608 -0.000005270935752888457 -0.000005271193306628377
          -0.000005893481534525196 -0.000005893565694706852 -0.000005893823096340684 -0.000006410416723486847 -0.0000064104798652460436 -0.000006410668929725147
          -0.0000068528305350746915 -0.000006852872732333953 -0.000006852991874504978 0 -9.762847968513803e-7 0
          -9.76299596906542e-7 0 -9.76346736634121e-7 -0.0000019369827007180355 -0.0000019370121352741044 -0.00000193710620738094
          -0.00000286551083535393 -0.0000028655542640993975 -0.000002865692373408584 -0.000003743617697909952 -0.0000037436739515620727 -0.0000037438502230890674
          -0.000004551564976362872 -0.000004551633299591761 -0.000004551844727805308 -0.000005270103293608938 -0.0000052701781948592415 -0.000005270403917905906
          -0.0000058860240279355 -0.0000058860960245096405 -0.000005886313764147056 -0.000006402760039895768 -0.00000640281048217471 -0.0000064029527630425255
          -0.0000068537441656042065 -0.000006853770690654819 -0.000006853846645850431 0 -9.796572303687702e-7 0
          -9.796732486299067e-7 0 -9.79721509731787e-7 -0.0000019428956224756116 -0.0000019429251837523114 -0.0000019430201918442783
          -0.0000028724187019438422 -0.000002872458950131407 -0.000002872588270194231 -0.000003749469957956036 -0.0000037495263853313264 -0.000003749696826301032
          -0.000004554166793236064 -0.000004554234246779011 -0.000004554433317715888 -0.000005268040450795982 -0.000005268112727500255 -0.000005268326447725212
          -0.00000588019666451942 -0.00000588026357481477 -0.000005880461960769679 -0.000006397160950151301 -0.000006397198421328928 -0.000006397319533676082
          -0.0000068531853440587715 -0.000006853191441231943 -0.000006853234527519578 0 -9.807549227697852e-7 0
          -9.807690741875422e-7 0 -9.808158700114082e-7 -0.0000019447985341276224 -0.0000019448237369794 -0.0000019449145442272204
          -0.000002874585645086859 -0.000002874631291451376 -0.000002874763664114615 -0.000003751214532859286 -0.0000037512782384964117 -0.000003751449656087799
          -0.000004554765063035359 -0.000004554839321568269 -0.000004555034570064989 -0.00000526711258824131 -0.000005267190034075216 -0.000005267407617214321
          -0.0000058779978720380955 -0.000005878056187889585 -0.000005878247998085237 -0.0000063950867358809835 -0.000006395119024832563 -0.0000063952240887838785
          -0.0000068528449284799265 -0.0000068528518883317515 -0.000006852894772916692
        </DataArray>
        <DataArray type="Float64" Name="disp_z" format="ascii" RangeMin="-0.0000013957783576579294" RangeMax="0">
          0 0 0 0 -4.366695375759966e-7 -4.532392769956479e-7
          -4.619526350280281e-7 -4.7536549592424547e-7 -8.734745772026022e-7 -9.064857433365689e-7 -9.243184713438916e-7 -9.502501466478463e-7
          0 0 0 0 -5.054490233509433e-7 -5.192253559156094e-7
          -5.004999807209458e-7 -4.983542630495881e-7 -0.000001010757418584831 -0.0000010385923549549118 -0.000001000283143431671 -9.962297385939105e-7
          0 0 -4.808443806908571e-7 -4.856041753255101e-7 -9.613384130640964e-7 -9.70544719877357e-7
          0 0 0 -4.99596079527573e-7 -4.599870693778691e-7 -4.6942268646467897e-7
          -9.98732727304175e-7 -9.197046813561208e-7 -9.387856631772248e-7 0 0 0
          0 -4.6835291705928794e-7 -4.5877456876376926e-7 -4.462914157415371e-7 -4.7197489134480124e-7 -9.362963304121298e-7
          -9.175752292362829e-7 -8.933965633710675e-7 -9.439079521925461e-7 0 0 0
          0 -4.4943851973324546e-7 -4.4253104598977696e-7 -4.499811221171848e-7 -4.6355276557938945e-7 -8.983495756985295e-7
          -8.842383308054848e-7 -8.99243346152095e-7 -9.268362089312911e-7 0 0 0
          -5.327740230534817e-7 -5.6724073006118e-7 -5.298076789135454e-7 -0.0000010667194890775511 -0.0000011358850564122874 -0.0000010607100143819195
          0 -4.0464621677339524e-7 -8.093753784505046e-7 0 0 -5.939204761464562e-7
          -6.375115648512845e-7 -0.000001188354949569287 -0.0000012744722028604438 0 0 -3.907436410133278e-7
          -4.372093922319947e-7 -7.819601998917933e-7 -8.754692772702684e-7 0 0 -4.279608139090397e-7
          -4.517482160728457e-7 -8.569828637923991e-7 -9.047210998129922e-7 0 0 0
          0 -4.5775068438793974e-7 -4.745508155706766e-7 -4.96740080152411e-7 -4.737376910255786e-7 -9.155103139797491e-7
          -9.491129538893263e-7 -9.934613381904533e-7 -9.47819151897622e-7 0 -6.980526038699068e-7 -0.0000013957783576579294
          0 -4.828657393345388e-7 -9.665207661813103e-7 0 -5.037056533447266e-7 -0.0000010080735733622488
          0 0 -4.922006198624462e-7 -4.974413947526294e-7 -9.842007071185712e-7 -9.949149507538227e-7
          0 0 0 0 -6.476084318643296e-7 -6.47711292792962e-7
          -5.96144417220729e-7 -6.233920869639424e-7 -0.0000012963819592932338 -0.0000012931267528227945 -0.0000011926645785176687 -0.0000012470076352272222
          0 0 -4.778953816367757e-7 -4.788881622242095e-7 -9.557737786242935e-7 -9.572547218607582e-7
          0 -4.6916841933304795e-7 -9.389638983702641e-7 0 -4.3262300603780664e-7 -8.645370062104266e-7
          0 0 -5.280033573031208e-7 -4.920958276463104e-7 -0.0000010574532204197046 -9.850242353432313e-7
          0 0 -4.668207513096642e-7 -4.5494233574930236e-7 -9.339232496752009e-7 -9.099729401826076e-7
          0 0 -5.75537324007304e-7 -6.310187496374533e-7 -0.0000011508651986261583 -0.0000012604044689145903
          0 -4.4594191790445273e-7 -8.935170598514436e-7 0 -6.681519752194819e-7 -0.000001335654269562221
          0 -4.352087624482388e-7 -8.709236195699568e-7 0 -5.920399925130036e-7 -0.0000011839056805423582
          0 -4.837870512631259e-7 -9.688672843743776e-7 0 0 -4.115129826030005e-7
          -4.18263849220926e-7 -8.22868167760541e-7 -8.367843580143537e-7 0 -4.839928017927012e-7 -9.67952936255303e-7
          0 0 -4.865835965773307e-7 -4.980760540905493e-7 -9.735270247487094e-7 -9.967120852147678e-7
          0 0 -5.373506425391722e-7 -5.444301658677338e-7 -0.0000010753024466808674 -0.0000010886868358128105
          0 0 -4.734528339569347e-7 -4.629317052529023e-7 -9.455768341685662e-7 -9.254305274211068e-7
          0 -5.089354362910567e-7 -0.000001018055085661039 0 -4.203880732899267e-7 -8.414023312714474e-7
          0 -5.597363980114393e-7 -0.000001119811012112333 0 0 -4.233563939696178e-7
          -4.126970737049022e-7 -8.47643373595735e-7 -8.257448739139825e-7 0 0 -3.96966469622437e-7
          -3.9449106091175533e-7 -7.942769151305534e-7 -7.918247847964013e-7 0 0 0
          -4.0983202945028e-7 -4.1860271803168916e-7 -3.955991834102835e-7 -8.212982756163187e-7 -8.379621252447539e-7 -7.921403681254768e-7
          0 -3.764673174422835e-7 -7.521843114757287e-7 0 0 -5.475396818374625e-7
          -5.234852367709096e-7 -0.0000010961450216716973 -0.0000010475152191218344 0 0 -4.6360058966946685e-7
          -4.615116072141787e-7 -9.27485203598794e-7 -9.233820264405154e-7 0 -4.004341353412775e-7 -8.01273575832351e-7
          0 -4.0213758887017157e-7 -8.055173501059672e-7 0 -4.986827937321323e-7 -9.978439415592692e-7
          0 0 -4.434414555537323e-7 -4.35498977332512e-7 -8.87530088550499e-7 -8.707801929760313e-7
          0 -4.3188854300944716e-7 -8.624380474903733e-7 0 -4.5212298759621176e-7 -9.042005622115002e-7
          0 -5.127034442123953e-7 -0.000001025875019501144 0 -4.624268606439395e-7 -9.243453124535322e-7
          0 -4.7002805289417225e-7 -9.401924213864418e-7 0 -4.6903107814341057e-7 -9.378227641701719e-7
          0 -3.5735545500312295e-7 -7.145749783277377e-7 0 -3.8101160109390766e-7 -7.620487580487584e-7
          0 -4.079080666437223e-7 -8.158057136555076e-7 0 -4.4388354712950576e-7 -8.875910197393225e-7
          0 -4.636768911899193e-7 -9.272396665492931e-7 0 0 -6.477590164330634e-8
          -6.521202707123127e-8 -1.2952535447393627e-7 -1.304085697092104e-7 0 0 -6.070134757122666e-8
          -6.042781519525641e-8 -1.2137820248776335e-7 -1.208049421402955e-7 0 0 -5.9371779809424555e-8
          -5.9314899095800654e-8 -1.1876672109363633e-7 -1.186625291791553e-7 0 0 -5.724732879568948e-8
          -5.718869004785016e-8 -1.1448326074491084e-7 -1.1435971813831524e-7 0 0 -5.507443358853502e-8
          -5.508879822381385e-8 -1.1015358261152506e-7 -1.1018417888491255e-7 0 0 -5.292394743045177e-8
          -5.2997979338320655e-8 -1.0584650136733423e-7 -1.0599392969266492e-7 0 0 -5.089191332153662e-8
          -5.102631699605e-8 -1.0178447030502959e-7 -1.020528944484401e-7 0 0 -4.909013213949164e-8
          -4.924640213279702e-8 -9.818012392049408e-8 -9.849226044141852e-8 0 -6.375917140638258e-8 -1.2753314469155677e-7
          0 -6.130186391116264e-8 -1.2256109217097413e-7 0 -5.968907652480928e-8 -1.193985756860112e-7
          0 -5.734037235881594e-8 -1.14672126603778e-7 0 -5.497016958353868e-8 -1.0994263182342112e-7
          0 -5.2652065769950995e-8 -1.0530355516207085e-7 0 -5.045978712851152e-8 -1.009193658931782e-7
          0 -4.858654212619666e-8 -9.717337142699619e-8 0 -6.173702340255804e-8 -1.2356704030192632e-7
          0 -6.359595554129626e-8 -1.271794388853436e-7 0 -5.989822802624118e-8 -1.1978944201582663e-7
          0 -5.75680185718291e-8 -1.1514598970878847e-7 0 -5.478762605393197e-8 -1.0956963342010729e-7
          0 -5.216235481806774e-8 -1.0432813604843026e-7 0 -4.968125688017899e-8 -9.936027010625456e-8
          0 -4.767152709179422e-8 -9.53433258085979e-8 0 -6.530816606870344e-8 -1.3084341720869042e-7
          0 -6.166656108307522e-8 -1.2338100024462956e-7 0 -6.170103118287378e-8 -1.2336327925098854e-7
          0 -5.7531903610695165e-8 -1.1506663858971392e-7 0 -5.441065822638979e-8 -1.0882337362642716e-7
          0 -5.132359102722308e-8 -1.0264718404607375e-7 0 -4.843136822004064e-8 -9.68635889505707e-8
          0 -4.623807487030606e-8 -9.248040675797495e-8 0 -8.713509508765766e-8 -1.7468561238820833e-7
          0 -6.255597533664885e-8 -1.2530148524705185e-7 0 -6.243767176287671e-8 -1.2488669372553242e-7
          0 -5.7301666749050385e-8 -1.1458032416948388e-7 0 -5.362359107085835e-8 -1.0726088357310588e-7
          0 -5.0015928070790434e-8 -1.0002782613190805e-7 0 -4.655120341009767e-8 -9.309653507616255e-8
          0 -4.4111144612445654e-8 -8.821791302968328e-8 0 -2.140142671931034e-7 -4.280253923413533e-7
          0 -1.3273281366563265e-7 -2.65726748739473e-7 0 -7.49742584552363e-8 -1.5023215901201885e-7
          0 -5.9014396119145794e-8 -1.1807731484195482e-7 0 -5.744825181419743e-8 -1.1488765037753975e-7
          0 -5.214625278053914e-8 -1.0427575630623342e-7 0 -4.811003966670123e-8 -9.623843166367393e-8
          0 -4.3831909083747245e-8 -8.766354579254193e-8 0 -4.114870029005841e-8 -8.232010147858137e-8
          0 -2.761268981061621e-7 -5.520310236595807e-7 0 -1.9016456030336694e-7 -3.805104588830481e-7
          0 -1.0399924704828053e-7 -2.0845028410706617e-7 0 -6.098010817841153e-8 -1.222234632765646e-7
          0 -5.5025759112097186e-8 -1.1007998321411953e-7 0 -5.053730218300764e-8 -1.0104757525542754e-7
          0 -4.540114167990735e-8 -9.081604100687668e-8 0 -3.973138616906465e-8 -7.943289827365232e-8
          0 -3.645953350756477e-8 -7.290799751179918e-8 0 -3.368177751265357e-7 -6.734511531833083e-7
          0 -2.476449354903501e-7 -4.953782611826825e-7 0 -1.439954619217802e-7 -2.884428933734042e-7
          0 -6.93677370206085e-8 -1.389923208823212e-7 0 -5.0127338789706874e-8 -1.0034508422042602e-7
          0 -4.894211687093819e-8 -9.786334464874986e-8 0 -4.215839252832048e-8 -8.433155769931781e-8
          0 -3.4917464458460715e-8 -6.982903520921962e-8 0 -3.151587639877502e-8 -6.305444684066477e-8
          0 -4.3217073571362743e-7 -8.641741613249181e-7 0 -3.418067426537175e-7 -6.835224077552838e-7
          0 -2.0719744410046824e-7 -4.1488949213676585e-7 0 -8.907371705737221e-8 -1.7871382008032776e-7
          0 -4.844050853401379e-8 -9.7007158784584e-8 0 -4.8556204944557476e-8 -9.712775832088603e-8
          0 -3.668237214165052e-8 -7.335408331482389e-8 0 -2.1417419213837875e-8 -4.282449973792494e-8
          0 -1.0696835790400513e-8 -2.1394257450129308e-8 0 0 -4.813123740405417e-8
          -4.7942579553322085e-8 -9.626255312265226e-8 -9.588508060854663e-8 0 -4.734993518831276e-8 -9.469910333200556e-8
          0 -4.629847924549185e-8 -9.259456277789009e-8 0 -4.4677621237233063e-8 -8.935371382439754e-8
          0 -4.231475826287744e-8 -8.46202622451987e-8 0 -3.9048991995235114e-8 -7.809498993668672e-8
          0 -3.3927861630450073e-8 -6.783111858560906e-8 0 -2.777203177712435e-8 -5.550966354407537e-8
          0 -1.0081849535862542e-8 -2.0105031581340014e-8 0 0 -4.7126236816274994e-8
          -4.692626577405874e-8 -9.425227215073332e-8 -9.385257551502031e-8 0 -4.63121211806706e-8 -9.262488442261772e-8
          0 -4.52386486465221e-8 -9.047865100816752e-8 0 -4.361852137734302e-8 -8.724000271239056e-8
          0 -4.1338092811615e-8 -8.268048491043228e-8 0 -3.818660904838149e-8 -7.638466908997676e-8
          0 -3.392911953594458e-8 -6.78698579260128e-8 0 -2.829016122208016e-8 -5.661604221847961e-8
          0 -1.9654081636521624e-8 -3.93460066783657e-8 0 0 -4.62535294575258e-8
          -4.604752298864968e-8 -9.25071665934786e-8 -9.209517797991508e-8 0 -4.541965453816051e-8 -9.083915355543125e-8
          0 -4.433382066612457e-8 -8.866709712950073e-8 0 -4.273345320779491e-8 -8.546564950738102e-8
          0 -4.0532622762744535e-8 -8.106275173597811e-8 0 -3.7639196833688115e-8 -7.527476690071448e-8
          0 -3.3942209625967285e-8 -6.78751318545508e-8 0 -2.9490034825406164e-8 -5.896556702967974e-8
          0 -2.430628597936172e-8 -4.855465792431687e-8 0 0 -4.551461333511331e-8
          -4.530855528352827e-8 -9.102921816190295e-8 -9.061712245956664e-8 0 -4.4679033764119804e-8 -8.935816152978697e-8
          0 -4.360339410279171e-8 -8.720711108986419e-8 0 -4.204901198043265e-8 -8.409839476349662e-8
          0 -3.997705795867268e-8 -7.995505498175424e-8 0 -3.736932355063342e-8 -7.473953836958258e-8
          0 -3.424454040668211e-8 -6.84929973813532e-8 0 -3.0844028444942394e-8 -6.169216923722864e-8
          0 -2.7757350929236285e-8 -5.5527722792717426e-8 0 0 -4.491176435976932e-8
          -4.470683174390264e-8 -8.982344221415666e-8 -8.941365809204201e-8 0 -4.408314261502974e-8 -8.816615854042261e-8
          0 -4.3028028633666e-8 -8.605595472412256e-8 0 -4.153267065008018e-8 -8.306526471323078e-8
          0 -3.959862595554162e-8 -7.91971808331205e-8 0 -3.7261558648782654e-8 -7.452267958595775e-8
          0 -3.4632953234660656e-8 -6.926567327844568e-8 0 -3.204623305949296e-8 -6.40895667456432e-8
          0 -3.01337493780253e-8 -6.025658502934077e-8 0 0 -4.4446091874609275e-8
          -4.424176984803223e-8 -8.889256139609148e-8 -8.848354470165569e-8 0 -4.362661933499836e-8 -8.72529858638079e-8
          0 -4.2594110553624215e-8 -8.518824295021888e-8 0 -4.11577911253637e-8 -8.23155044194799e-8
          0 -3.934697100318997e-8 -7.869359135887557e-8 0 -3.72402251120905e-8 -7.447977829676213e-8
          0 -3.5004141420328846e-8 -7.000963840742834e-8 0 -3.2988877648312495e-8 -6.597642823849626e-8
          0 -3.1763133783682225e-8 -6.352721492178699e-8 0 0 -4.41159762592431e-8
          -4.391187032387664e-8 -8.823224686627908e-8 -8.782364821325558e-8 0 -4.3304047526829744e-8 -8.660789095899637e-8
          0 -4.229618417880412e-8 -8.459252472836017e-8 0 -4.091245273364257e-8 -8.182501040468155e-8
          0 -3.9198462165644367e-8 -7.839748976572306e-8 0 -3.7270075863784714e-8 -7.454121374371385e-8
          0 -3.530556269778753e-8 -7.061044214732948e-8 0 -3.3666254860916525e-8 -6.733071754104954e-8
          0 -3.284522385456441e-8 -6.568847612413062e-8 0 0 -4.3919110488001264e-8
          -4.371433286135966e-8 -8.783781419741276e-8 -8.742873145212743e-8 0 -4.311363827065357e-8 -8.622713103659976e-8
          0 -4.21265277380369e-8 -8.425328107849282e-8 0 -4.077521184727828e-8 -8.154967492430519e-8
          0 -3.912909910782716e-8 -7.825719374464897e-8 0 -3.730044133563576e-8 -7.459728530113018e-8
          0 -3.5514296020778246e-8 -7.102936622198944e-8 0 -3.4074610677303625e-8 -6.81480415420406e-8
          0 -3.346454420754813e-8 -6.692794760694873e-8 0 0 -4.3854365007625074e-8
          -4.3647267936469524e-8 -8.770813816879032e-8 -8.729491246555206e-8 0 -4.3053522196608036e-8 -8.610687328441972e-8
          0 -4.2077733984084174e-8 -8.415503102991732e-8 0 -4.0767065001064576e-8 -8.153367549252632e-8
          0 -3.919908120567332e-8 -7.839490046508778e-8 0 -3.7503385782296716e-8 -7.500338037054314e-8
          0 -3.557315045282714e-8 -7.114505052205951e-8 0 -3.4249497161402016e-8 -6.849707968645964e-8
          0 -3.3684401425124286e-8 -6.736617974844962e-8
        </DataArray>
      </PointData>
      <CellData>
        <DataArray type="Int32" Name="libmesh_elem_id" format="ascii" RangeMin="1398" RangeMax="3643">
          1398 1399 1422 1423 1460 1461
          1470 1471 1482 1483 1494 1495
          1502 1503 1506 1507 1520 1521
          1528 1529 1580 1581 1584 1585
          1612 1613 1636 1637 1652 1653
          1722 1723 1798 1799 1850 1851
          2298 2299 2406 2407 2442 2443
          2450 2451 2472 2473 2558 2559
          2610 2611 2646 2647 2648 2649
          2662 2663 2672 2673 2680 2681
          2748 2749 2756 2757 2776 2777
          2808 2809 2814 2815 2822 2823
          2828 2829 2836 2837 2852 2853
          2876 2877 2898 2899 2910 2911
          2926 2927 2936 2937 2950 2951
          2952 2953 2954 2955 2966 2967
          2980 2981 2982 2983 2990 2991
          3006 3007 3014 3015 3026 3027
          3068 3069 3074 3075 3104 3105
          3110 3111 3124 3125 3126 3127
          3168 3169 3194 3195 3204 3205
          3208 3209 3210 3211 3212 3213
          3220 3221 3222 3223 3224 3225
          3226 3227 3234 3235 3236 3237
          3240 3241 3252 3253 3254 3255
          3264 3265 3296 3297 3302 3303
          3308 3309 3314 3315 3324 3325
          3326 3327 3328 3329 3330 3331
          3332 3333 3334 3335 3336 3337
          3342 3343 3344 3345 3346 3347
          3348 3349 3350 3351 3352 3353
          3354 3355 3360 3361 3362 3363
          3364 3365 3366 3367 3368 3369
          3370 3371 3372 3373 3378 3379
          3380 3381 3382 3383 3384 3385
          3386 3387 3388 3389 3390 3391
          3396 3397 3398 3399 3400 3401
          3402 3403 3404 3405 3406 3407
          3408 3409 3414 3415 3416 3417
          3418 3419 3420 3421 3422 3423
          3424 3425 3426 3427 3430 3431
          3432 3433 3434 3435 3436 3437
          3438 3439 3440 3441 3442 3443
          3444 3445 3448 3449 3450 3451
          3452 3453 3454 3455 3456 3457
          3458 3459 3460 3461 3462 3463
          3466 3467 3468 3469 3470 3471
          3472 3473 3474 3475 3476 3477
          3478 3479 3480 3481 3482 3483
          3484 3485 3486 3487 3488 3489
          3490 3491 3492 3493 3494 3495
          3496 3497 3498 3499 3500 3501
          3502 3503 3504 3505 3506 3507
          3508 3509 3510 3511 3512 3513
          3514 3515 3516 3517 3518 3519
          3520 3521 3522 3523 3524 3525
          3526 3527 3528 3529 3530 3531
          3532 3533 3534 3535 3536 3537
          3538 3539 3540 3541 3542 3543
          3544 3545 3546 3547 3548 3549
          3550 3551 3552 3553 3554 3555
          3556 3557 3558 3559 3560 3561
          3562 3563 3564 3565 3566 3567
          3568 3569 3570 3571 3572 3573
          3574 3575 3576 3577 3578 3579
          3580 3581 3582 3583 3584 3585
          3586 3587 3588 3589 3590 3591
          3592 3593 3594 3595 3596 3597
          3598 3599 3600 3601 3602 3603
          3604 3605 3606 3607 3608 3609
          3610 3611 3612 3613 3614 3615
          3616 3617 3618 3619 3620 3621
          3622 3623 3624 3625 3626 3627
          3628 3629 3630 3631 3632 3633
          3634 3635 3636 3637 3638 3639
          3640 3641 3642 3643
        </DataArray>
        <DataArray type="Int32" Name="subdomain_id" format="ascii" RangeMin="107" RangeMax="110">
          107 107 107 107 107 107
          107 107 107 107 107 107
          107 107 107 107 107 107
          107 107 107 107 107 107
          107 107 107 107 107 107
          107 107 107 107 107 107
          107 107 107 107 107 107
          107 107 107 107 107 107
          107 107 107 107 107 107
          107 107 107 107 107 107
          107 107 107 107 107 107
          107 107 107 107 107 107
          107 107 107 107 107 107
          107 107 107 107 107 107
          107 107 107 107 107 107
          107 107 107 107 107 107
          107 107 107 107 107 107
          107 107 107 107 107 107
          107 107 107 107 107 107
          107 107 107 107 107 107
          107 107 107 107 107 107
          107 107 107 107 107 107
          107 107 107 107 107 107
          107 107 107 107 107 107
          107 107 107 107 107 107
          107 107 108 108 108 108
          108 108 108 108 109 109
          109 109 109 109 109 109
          109 109 109 109 109 109
          109 109 109 109 109 109
          109 109 109 109 109 109
          109 109 109 109 109 109
          109 109 109 109 109 109
          109 109 109 109 109 109
          109 109 109 109 109 109
          109 109 109 109 109 109
          109 109 109 109 109 109
          109 109 109 109 109 109
          109 109 109 109 109 109
          109 109 109 109 109 109
          109 109 109 109 109 109
          109 109 109 109 109 109
          109 109 109 109 109 109
          109 109 109 109 109 109
          109 109 109 109 109 109
          109 109 109 109 109 109
          109 109 109 109 109 109
          109 109 109 109 109 109
          109 109 109 109 110 110
          110 110 110 110 110 110
          110 110 110 110 110 110
          110 110 110 110 110 110
          110 110 110 110 110 110
          110 110 110 110 110 110
          110 110 110 110 110 110
          110 110 110 110 110 110
          110 110 110 110 110 110
          110 110 110 110 110 110
          110 110 110 110 110 110
          110 110 110 110 110 110
          110 110 110 110 110 110
          110 110 110 110 110 110
          110 110 110 110 110 110
          110 110 110 110 110 110
          110 110 110 110 110 110
          110 110 110 110 110 110
          110 110 110 110 110 110
          110 110 110 110 110 110
          110 110 110 110 110 110
          110 110 110 110 110 110
          110 110 110 110 110 110
          110 110 110 110 110 110
          110 110 110 110 110 110
          110 110 110 110 110 110
          110 110 110 110 110 110
          110 110 110 110
        </DataArray>
        <DataArray type="Int32" Name="processor_id" format="ascii" RangeMin="0" RangeMax="0">
          0 0 0 0 0 0
          0 0 0 0 0 0
          0 0 0 0 0 0
          0 0 0 0 0 0
          0 0 0 0 0 0
          0 0 0 0 0 0
          0 0 0 0 0 0
          0 0 0 0 0 0
          0 0 0 0 0 0
          0 0 0 0 0 0
          0 0 0 0 0 0
          0 0 0 0 0 0
          0 0 0 0 0 0
          0 0 0 0 0 0
          0 0 0 0 0 0
          0 0 0 0 0 0
          0 0 0 0 0 0
          0 0 0 0 0 0
          0 0 0 0 0 0
          0 0 0 0 0 0
          0 0 0 0 0 0
          0 0 0 0 0 0
          0 0 0 0 0 0
          0 0 0 0 0 0
          0 0 0 0 0 0
          0 0 0 0 0 0
          0 0 0 0 0 0
          0 0 0 0 0 0
          0 0 0 0 0 0
          0 0 0 0 0 0
          0 0 0 0 0 0
          0 0 0 0 0 0
          0 0 0 0 0 0
          0 0 0 0 0 0
          0 0 0 0 0 0
          0 0 0 0 0 0
          0 0 0 0 0 0
          0 0 0 0 0 0
          0 0 0 0 0 0
          0 0 0 0 0 0
          0 0 0 0 0 0
          0 0 0 0 0 0
          0 0 0 0 0 0
          0 0 0 0 0 0
          0 0 0 0 0 0
          0 0 0 0 0 0
          0 0 0 0 0 0
          0 0 0 0 0 0
          0 0 0 0 0 0
          0 0 0 0 0 0
          0 0 0 0 0 0
          0 0 0 0 0 0
          0 0 0 0 0 0
          0 0 0 0 0 0
          0 0 0 0 0 0
          0 0 0 0 0 0
          0 0 0 0 0 0
          0 0 0 0 0 0
          0 0 0 0 0 0
          0 0 0 0 0 0
          0 0 0 0 0 0
          0 0 0 0 0 0
          0 0 0 0 0 0
          0 0 0 0 0 0
          0 0 0 0 0 0
          0 0 0 0 0 0
          0 0 0 0 0 0
          0 0 0 0 0 0
          0 0 0 0 0 0
          0 0 0 0 0 0
          0 0 0 0 0 0
          0 0 0 0 0 0
          0 0 0 0 0 0
          0 0 0 0 0 0
          0 0 0 0 0 0
          0 0 0 0
        </DataArray>
      </CellData>
      <Points>
        <DataArray type="Float64" Name="Points" NumberOfComponents="3" format="ascii" RangeMin="0.019949534490770096" RangeMax="0.057059767276955435">
          0.025 0.010111111111103 0 0.025 0.011555555555552 0
          0.023969654121399 0.011643457228511 0 0.023712354871128 0.010827306146479 0
          0.025 0.010111111111103 0.00015 0.025 0.011555555555552 0.00015
          0.023969654121399 0.011643457228511 0.00015 0.023712354871128 0.010827306146479 0.00015
          0.025 0.010111111111103 0.0003 0.025 0.011555555555552 0.0003
          0.023969654121399 0.011643457228511 0.0003 0.023712354871128 0.010827306146479 0.0003
          0.021832836898909 0.0086447924127183 0 0.021823224979211 0.0078559681587773 0
          0.022737846371709 0.0079006862580081 0 0.022634898807434 0.0088549234284915 0
          0.021832836898909 0.0086447924127183 0.00015 0.021823224979211 0.0078559681587773 0.00015
          0.022737846371709 0.0079006862580081 0.00015 0.022634898807434 0.0088549234284915 0.00015
          0.021832836898909 0.0086447924127183 0.0003 0.021823224979211 0.0078559681587773 0.0003
          0.022737846371709 0.0079006862580081 0.0003 0.022634898807434 0.0088549234284915 0.0003
          0.023595500831214 0.0092794942281182 0 0.023071107871262 0.010124307969263 0
          0.023595500831214 0.0092794942281182 0.00015 0.023071107871262 0.010124307969263 0.00015
          0.023595500831214 0.0092794942281182 0.0003 0.023071107871262 0.010124307969263 0.0003
          0.022679909737796 0.0068405181074087 0 0.023816654948859 0.0069324696013164 0
          0.023805320189621 0.0081867285281858 0 0.022679909737796 0.0068405181074087 0.00015
          0.023816654948859 0.0069324696013164 0.00015 0.023805320189621 0.0081867285281858 0.00015
          0.022679909737796 0.0068405181074087 0.0003 0.023816654948859 0.0069324696013164 0.0003
          0.023805320189621 0.0081867285281858 0.0003 0.021890570917318 0.011219591567605 0
          0.021490495874743 0.011513015985888 0 0.020878683694742 0.011349585571751 0
          0.021380466308845 0.010767094219468 0 0.021890570917318 0.011219591567605 0.00015
          0.021490495874743 0.011513015985888 0.00015 0.020878683694742 0.011349585571751 0.00015
          0.021380466308845 0.010767094219468 0.00015 0.021890570917318 0.011219591567605 0.0003
          0.021490495874743 0.011513015985888 0.0003 0.020878683694742 0.011349585571751 0.0003
          0.021380466308845 0.010767094219468 0.0003 0.022336312736143 0.012467557709352 0
          0.021763745105177 0.012476629724541 0 0.021622459990569 0.011931223094182 0
          0.02233098651665 0.011816769005978 0 0.022336312736143 0.012467557709352 0.00015
          0.021763745105177 0.012476629724541 0.00015 0.021622459990569 0.011931223094182 0.00015
          0.02233098651665 0.011816769005978 0.00015 0.022336312736143 0.012467557709352 0.0003
          0.021763745105177 0.012476629724541 0.0003 0.021622459990569 0.011931223094182 0.0003
          0.02233098651665 0.011816769005978 0.0003 0.021047379294988 0.0079667793778881 0
          0.020813290684512 0.007243328880283 0 0.021666975794544 0.0069715825078724 0
          0.021047379294988 0.0079667793778881 0.00015 0.020813290684512 0.007243328880283 0.00015
          0.021666975794544 0.0069715825078724 0.00015 0.021047379294988 0.0079667793778881 0.0003
          0.020813290684512 0.007243328880283 0.0003 0.021666975794544 0.0069715825078724 0.0003
          0.025 0.0086666666666559 0 0.025 0.0086666666666559 0.00015
          0.025 0.0086666666666559 0.0003 0.021356284292895 0.0061182113295331 0
          0.020489019208248 0.0065103794253073 0 0.021356284292895 0.0061182113295331 0.00015
          0.020489019208248 0.0065103794253073 0.00015 0.021356284292895 0.0061182113295331 0.0003
          0.020489019208248 0.0065103794253073 0.0003 0.025 0.0072222222222063 0
          0.023829479378086 0.0056593315311521 0 0.025 0.0072222222222063 0.00015
          0.023829479378086 0.0056593315311521 0.00015 0.025 0.0072222222222063 0.0003
          0.023829479378086 0.0056593315311521 0.0003 0.019357361519954 0.01157618305141 0
          0.01884046117173 0.011223113854601 0 0.019357361519954 0.01157618305141 0.00015
          0.01884046117173 0.011223113854601 0.00015 0.019357361519954 0.01157618305141 0.0003
          0.01884046117173 0.011223113854601 0.0003 0.020274347850796 0.01080512315655 0
          0.019692191057164 0.010418143528135 0 0.020104676199583 0.0097475599042502 0
          0.020792052735599 0.010316149813733 0 0.020274347850796 0.01080512315655 0.00015
          0.019692191057164 0.010418143528135 0.00015 0.020104676199583 0.0097475599042502 0.00015
          0.020792052735599 0.010316149813733 0.00015 0.020274347850796 0.01080512315655 0.0003
          0.019692191057164 0.010418143528135 0.0003 0.020104676199583 0.0097475599042502 0.0003
          0.020792052735599 0.010316149813733 0.0003 0.018734278863615 0.0068564365277259 0
          0.018734278863615 0.0068564365277259 0.00015 0.018734278863615 0.0068564365277259 0.0003
          0.018384253973557 0.010894663204421 0 0.018384253973557 0.010894663204421 0.00015
          0.018384253973557 0.010894663204421 0.0003 0.022477642087048 0.0055533155338694 0
          0.022477642087048 0.0055533155338694 0.00015 0.022477642087048 0.0055533155338694 0.0003
          0.022333445868241 0.0096250088550796 0 0.021678233976573 0.0092839168226163 0
          0.022333445868241 0.0096250088550796 0.00015 0.021678233976573 0.0092839168226163 0.00015
          0.022333445868241 0.0096250088550796 0.0003 0.021678233976573 0.0092839168226163 0.0003
          0.018696511924608 0.0075816988835645 0 0.019307778433714 0.0076950261479263 0
          0.019244919669154 0.0083241905034728 0 0.018643245907353 0.0082916041839039 0
          0.018696511924608 0.0075816988835645 0.00015 0.019307778433714 0.0076950261479263 0.00015
          0.019244919669154 0.0083241905034728 0.00015 0.018643245907353 0.0082916041839039 0.00015
          0.018696511924608 0.0075816988835645 0.0003 0.019307778433714 0.0076950261479263 0.0003
          0.019244919669154 0.0083241905034728 0.0003 0.018643245907353 0.0082916041839039 0.0003
          0.02247089481133 0.010746063389313 0 0.022956441030322 0.011313723369763 0
          0.02247089481133 0.010746063389313 0.00015 0.022956441030322 0.011313723369763 0.00015
          0.02247089481133 0.010746063389313 0.0003 0.022956441030322 0.011313723369763 0.0003
          0.018817000838468 0.010560792840001 0 0.018817000838468 0.010560792840001 0.00015
          0.018817000838468 0.010560792840001 0.0003 0.021028725472558 0.011993213484042 0
          0.021028725472558 0.011993213484042 0.00015 0.021028725472558 0.011993213484042 0.0003
          0.018719100515555 0.0096191331103102 0 0.018769006148643 0.010016813571171 0
          0.018719100515555 0.0096191331103102 0.00015 0.018769006148643 0.010016813571171 0.00015
          0.018719100515555 0.0096191331103102 0.0003 0.018769006148643 0.010016813571171 0.0003
          0.022845614094026 0.012068678060928 0 0.022870050818517 0.012481997757377 0
          0.022845614094026 0.012068678060928 0.00015 0.022870050818517 0.012481997757377 0.00015
          0.022845614094026 0.012068678060928 0.0003 0.022870050818517 0.012481997757377 0.0003
          0.01980903614198 0.0082923028866096 0 0.019733887771193 0.007830319872041 0
          0.01980903614198 0.0082923028866096 0.00015 0.019733887771193 0.007830319872041 0.00015
          0.01980903614198 0.0082923028866096 0.0003 0.019733887771193 0.007830319872041 0.0003
          0.019287865107188 0.010870204720027 0 0.019287865107188 0.010870204720027 0.00015
          0.019287865107188 0.010870204720027 0.0003 0.019611341590458 0.0069319215290848 0
          0.019611341590458 0.0069319215290848 0.00015 0.019611341590458 0.0069319215290848 0.0003
          0.019793192887703 0.011218191570876 0 0.019793192887703 0.011218191570876 0.00015
          0.019793192887703 0.011218191570876 0.0003 0.02014052068744 0.0075597001530957 0
          0.02014052068744 0.0075597001530957 0.00015 0.02014052068744 0.0075597001530957 0.0003
          0.019142781766586 0.010156284019367 0 0.019142781766586 0.010156284019367 0.00015
          0.019142781766586 0.010156284019367 0.0003 0.019871794871807 0.013 0
          0.019671681078705 0.012567114388191 0 0.019871794871807 0.013 0.00015
          0.019671681078705 0.012567114388191 0.00015 0.019871794871807 0.013 0.0003
          0.019671681078705 0.012567114388191 0.0003 0.02189605775595 0.01024368797285 0
          0.02189605775595 0.01024368797285 0.00015 0.02189605775595 0.01024368797285 0.0003
          0.021306208963658 0.0098107932917518 0 0.020830530356293 0.0093484326970494 0
          0.021306208963658 0.0098107932917518 0.00015 0.020830530356293 0.0093484326970494 0.00015
          0.021306208963658 0.0098107932917518 0.0003 0.020830530356293 0.0093484326970494 0.0003
          0.019927087042343 0.0089401115508047 0 0.019284140679376 0.0089915496868705 0
          0.019927087042343 0.0089401115508047 0.00015 0.019284140679376 0.0089915496868705 0.00015
          0.019927087042343 0.0089401115508047 0.0003 0.019284140679376 0.0089915496868705 0.0003
          0.023272296973232 0.01187913061167 0 0.023408043049707 0.012441583397961 0
          0.023272296973232 0.01187913061167 0.00015 0.023408043049707 0.012441583397961 0.00015
          0.023272296973232 0.01187913061167 0.0003 0.023408043049707 0.012441583397961 0.0003
          0.019291729405334 0.009640079412969 0 0.019291729405334 0.009640079412969 0.00015
          0.019291729405334 0.009640079412969 0.0003 0.019497075330812 0.012129782091497 0
          0.019497075330812 0.012129782091497 0.00015 0.019497075330812 0.012129782091497 0.0003
          0.018655444813331 0.0089912542068827 0 0.018655444813331 0.0089912542068827 0.00015
          0.018655444813331 0.0089912542068827 0.0003 0.020217772280624 0.01161574996656 0
          0.019866459267603 0.011787315550137 0 0.020217772280624 0.01161574996656 0.00015
          0.019866459267603 0.011787315550137 0.00015 0.020217772280624 0.01161574996656 0.0003
          0.019866459267603 0.011787315550137 0.0003 0.020169909004412 0.012559422291794 0
          0.020384615384626 0.013 0 0.020169909004412 0.012559422291794 0.00015
          0.020384615384626 0.013 0.00015 0.020169909004412 0.012559422291794 0.0003
          0.020384615384626 0.013 0.0003 0.02048968364866 0.012063778985416 0
          0.021216890903006 0.012503701361908 0 0.020684692364028 0.012535095885709 0
          0.02048968364866 0.012063778985416 0.00015 0.021216890903006 0.012503701361908 0.00015
          0.020684692364028 0.012535095885709 0.00015 0.02048968364866 0.012063778985416 0.0003
          0.021216890903006 0.012503701361908 0.0003 0.020684692364028 0.012535095885709 0.0003
          0.020897435897446 0.013 0 0.020897435897446 0.013 0.00015
          0.020897435897446 0.013 0.0003 0.020387511226442 0.0081443073342907 0
          0.02056343795537 0.0087688297792787 0 0.020387511226442 0.0081443073342907 0.00015
          0.02056343795537 0.0087688297792787 0.00015 0.020387511226442 0.0081443073342907 0.0003
          0.02056343795537 0.0087688297792787 0.0003 0.023967653117571 0.012391671962311 0
          0.024322147732379 0.012509260561901 0 0.023967653117571 0.012391671962311 0.00015
          0.024322147732379 0.012509260561901 0.00015 0.023967653117571 0.012391671962311 0.0003
          0.024322147732379 0.012509260561901 0.0003 0.021410256410266 0.013 0
          0.021410256410266 0.013 0.00015 0.021410256410266 0.013 0.0003
          0.019993073529409 0.012116879865089 0 0.019993073529409 0.012116879865089 0.00015
          0.019993073529409 0.012116879865089 0.0003 0.02122910202584 0.0090825003429501 0
          0.02122910202584 0.0090825003429501 0.00015 0.02122910202584 0.0090825003429501 0.0003
          0.022948717948721 0.013 0 0.022435897435903 0.013 0
          0.022948717948721 0.013 0.00015 0.022435897435903 0.013 0.00015
          0.022948717948721 0.013 0.0003 0.022435897435903 0.013 0.0003
          0.021923076923085 0.013 0 0.021923076923085 0.013 0.00015
          0.021923076923085 0.013 0.0003 0.023461538461539 0.013 0
          0.023461538461539 0.013 0.00015 0.023461538461539 0.013 0.0003
          0.021171209164951 0.0086229949315581 0 0.021171209164951 0.0086229949315581 0.00015
          0.021171209164951 0.0086229949315581 0.0003 0.023974358974358 0.013 0
          0.023974358974358 0.013 0.00015 0.023974358974358 0.013 0.0003
          0.024487179487177 0.013 0 0.024487179487177 0.013 0.00015
          0.024487179487177 0.013 0.0003 0.025 0.013 0
          0.025 0.013 0.00015 0.025 0.013 0.0003
          0.026666666666667 0.0072222222222063 0 0.026666666666667 0.0072222222222063 0.00015
          0.026666666666667 0.0072222222222063 0.0003 0.026666666666668 0.0086666666666559 0
          0.026666666666668 0.0086666666666559 0.00015 0.026666666666668 0.0086666666666559 0.0003
          0.026666666666669 0.010111111111103 0 0.026666666666669 0.010111111111103 0.00015
          0.026666666666669 0.010111111111103 0.0003 0.026666666666669 0.011555555555552 0
          0.026666666666669 0.011555555555552 0.00015 0.026666666666669 0.011555555555552 0.0003
          0.02666666666667 0.013 0 0.02666666666667 0.013 0.00015
          0.02666666666667 0.013 0.0003 0.033201501647561 0.0014698753983525 0
          0.033179797338052 0 0 0.033201501647561 0.0014698753983525 0.00015
          0.033179797338052 0 0.00015 0.033201501647561 0.0014698753983525 0.0003
          0.033179797338052 0 0.0003 0.034800103200053 0.0015015548376625 0
          0.034769696007096 0 0 0.034800103200053 0.0015015548376625 0.00015
          0.034769696007096 0 0.00015 0.034800103200053 0.0015015548376625 0.0003
          0.034769696007096 0 0.0003 0.03639613666046 0.0015457026119765 0
          0.036359594676111 0 0 0.03639613666046 0.0015457026119765 0.00015
          0.036359594676111 0 0.00015 0.03639613666046 0.0015457026119765 0.0003
          0.036359594676111 0 0.0003 0.037988764334349 0.001602116400018 0
          0.037949493345121 0 0 0.037988764334349 0.001602116400018 0.00015
          0.037949493345121 0 0.00015 0.037988764334349 0.001602116400018 0.0003
          0.037949493345121 0 0.0003 0.039577164134098 0.001670537667151 0
          0.039539392014149 0 0 0.039577164134098 0.001670537667151 0.00015
          0.039539392014149 0 0.00015 0.039577164134098 0.001670537667151 0.0003
          0.039539392014149 0 0.0003 0.041160533348121 0.0017506528505884 0
          0.041129290683195 0 0 0.041160533348121 0.0017506528505884 0.00015
          0.041129290683195 0 0.00015 0.041160533348121 0.0017506528505884 0.0003
          0.041129290683195 0 0.0003 0.042738092320879 0.0018420947973532 0
          0.042719189352233 0 0 0.042738092320879 0.0018420947973532 0.00015
          0.042719189352233 0 0.00015 0.042738092320879 0.0018420947973532 0.0003
          0.042719189352233 0 0.0003 0.044309088021254 0.0019444444444413 0
          0.044309088021254 0 0 0.044309088021254 0.0019444444444413 0.00015
          0.044309088021254 0 0.00015 0.044309088021254 0.0019444444444413 0.0003
          0.044309088021254 0 0.0003 0.033223205957069 0.0029397507967035 0
          0.033223205957069 0.0029397507967035 0.00015 0.033223205957069 0.0029397507967035 0.0003
          0.03483051039301 0.0030031096753234 0 0.03483051039301 0.0030031096753234 0.00015
          0.03483051039301 0.0030031096753234 0.0003 0.036432678644808 0.0030914052239513 0
          0.036432678644808 0.0030914052239513 0.00015 0.036432678644808 0.0030914052239513 0.0003
          0.038028035323577 0.0032042328000343 0 0.038028035323577 0.0032042328000343 0.00015
          0.038028035323577 0.0032042328000343 0.0003 0.039614936254047 0.0033410753343001 0
          0.039614936254047 0.0033410753343001 0.00015 0.039614936254047 0.0033410753343001 0.0003
          0.041191776013048 0.0035013057011749 0 0.041191776013048 0.0035013057011749 0.00015
          0.041191776013048 0.0035013057011749 0.0003 0.042756995289524 0.0036841895947044 0
          0.042756995289524 0.0036841895947044 0.00015 0.042756995289524 0.0036841895947044 0.0003
          0.044309088021254 0.0038888888888803 0 0.044309088021254 0.0038888888888803 0.00015
          0.044309088021254 0.0038888888888803 0.0003 0.033244910266578 0.0044096261950543 0
          0.033244910266578 0.0044096261950543 0.00015 0.033244910266578 0.0044096261950543 0.0003
          0.034860917585967 0.004504664512984 0 0.034860917585967 0.004504664512984 0.00015
          0.034860917585967 0.004504664512984 0.0003 0.036469220629156 0.0046371078359259 0
          0.036469220629156 0.0046371078359259 0.00015 0.036469220629156 0.0046371078359259 0.0003
          0.038067306312805 0.0048063492000502 0 0.038067306312805 0.0048063492000502 0.00015
          0.038067306312805 0.0048063492000502 0.0003 0.039652708373995 0.0050116130014489 0
          0.039652708373995 0.0050116130014489 0.00015 0.039652708373995 0.0050116130014489 0.0003
          0.041223018677975 0.005251958551761 0 0.041223018677975 0.005251958551761 0.00015
          0.041223018677975 0.005251958551761 0.0003 0.04277589825817 0.0055262843920551 0
          0.04277589825817 0.0055262843920551 0.00015 0.04277589825817 0.0055262843920551 0.0003
          0.044309088021254 0.0058333333333189 0 0.044309088021254 0.0058333333333189 0.00015
          0.044309088021254 0.0058333333333189 0.0003 0.033266614576087 0.0058795015934051 0
          0.033266614576087 0.0058795015934051 0.00015 0.033266614576087 0.0058795015934051 0.0003
          0.034891324778924 0.0060062193506447 0 0.034891324778924 0.0060062193506447 0.00015
          0.034891324778924 0.0060062193506447 0.0003 0.036505762613504 0.0061828104479004 0
          0.036505762613504 0.0061828104479004 0.00015 0.036505762613504 0.0061828104479004 0.0003
          0.038106577302032 0.0064084656000662 0 0.038106577302032 0.0064084656000662 0.00015
          0.038106577302032 0.0064084656000662 0.0003 0.039690480493944 0.0066821506685977 0
          0.039690480493944 0.0066821506685977 0.00015 0.039690480493944 0.0066821506685977 0.0003
          0.041254261342902 0.0070026114023471 0 0.041254261342902 0.0070026114023471 0.00015
          0.041254261342902 0.0070026114023471 0.0003 0.042794801226816 0.0073683791894058 0
          0.042794801226816 0.0073683791894058 0.00015 0.042794801226816 0.0073683791894058 0.0003
          0.044309088021254 0.0077777777777574 0 0.044309088021254 0.0077777777777574 0.00015
          0.044309088021254 0.0077777777777574 0.0003 0.033288318885596 0.0073493769917596 0
          0.033288318885596 0.0073493769917596 0.00015 0.033288318885596 0.0073493769917596 0.0003
          0.034921731971881 0.0075077741883091 0 0.034921731971881 0.0075077741883091 0.00015
          0.034921731971881 0.0075077741883091 0.0003 0.036542304597852 0.0077285130598789 0
          0.036542304597852 0.0077285130598789 0.00015 0.036542304597852 0.0077285130598789 0.0003
          0.03814584829126 0.0080105820000862 0 0.03814584829126 0.0080105820000862 0.00015
          0.03814584829126 0.0080105820000862 0.0003 0.039728252613893 0.0083526883357508 0
          0.039728252613893 0.0083526883357508 0.00015 0.039728252613893 0.0083526883357508 0.0003
          0.041285504007829 0.0087532642529377 0 0.041285504007829 0.0087532642529377 0.00015
          0.041285504007829 0.0087532642529377 0.0003 0.042813704195461 0.0092104739867613 0
          0.042813704195461 0.0092104739867613 0.00015 0.042813704195461 0.0092104739867613 0.0003
          0.044309088021254 0.0097222222222011 0 0.044309088021254 0.0097222222222011 0.00015
          0.044309088021254 0.0097222222222011 0.0003 0.031657595460571 0.0087048568522863 0
          0.031657595460571 0.0087048568522863 0.00015 0.031657595460571 0.0087048568522863 0.0003
          0.033310023195106 0.0088192523901195 0 0.033310023195106 0.0088192523901195 0.00015
          0.033310023195106 0.0088192523901195 0.0003 0.034952139164838 0.009009329025979 0
          0.034952139164838 0.009009329025979 0.00015 0.034952139164838 0.009009329025979 0.0003
          0.0365788465822 0.0092742156718627 0 0.0365788465822 0.0092742156718627 0.00015
          0.0365788465822 0.0092742156718627 0.0003 0.038185119280488 0.0096126984001116 0
          0.038185119280488 0.0096126984001116 0.00015 0.038185119280488 0.0096126984001116 0.0003
          0.039766024733842 0.010023226002909 0 0.039766024733842 0.010023226002909 0.00015
          0.039766024733842 0.010023226002909 0.0003 0.041316746672756 0.010503917103534 0
          0.041316746672756 0.010503917103534 0.00015 0.041316746672756 0.010503917103534 0.0003
          0.042832607164107 0.011052568784123 0 0.042832607164107 0.011052568784123 0.00015
          0.042832607164107 0.011052568784123 0.0003 0.044309088021254 0.011666666666651 0
          0.044309088021254 0.011666666666651 0.00015 0.044309088021254 0.011666666666651 0.0003
          0.031668878259163 0.010155666327672 0 0.031668878259163 0.010155666327672 0.00015
          0.031668878259163 0.010155666327672 0.0003 0.033331727504615 0.010289127788478 0
          0.033331727504615 0.010289127788478 0.00015 0.033331727504615 0.010289127788478 0.0003
          0.034982546357795 0.010510883863647 0 0.034982546357795 0.010510883863647 0.00015
          0.034982546357795 0.010510883863647 0.0003 0.036615388566549 0.010819918283845 0
          0.036615388566549 0.010819918283845 0.00015 0.036615388566549 0.010819918283845 0.0003
          0.038224390269716 0.011214814800136 0 0.038224390269716 0.011214814800136 0.00015
          0.038224390269716 0.011214814800136 0.0003 0.039803796853791 0.011693763670067 0
          0.039803796853791 0.011693763670067 0.00015 0.039803796853791 0.011693763670067 0.0003
          0.041347989337683 0.012254569954129 0 0.041347989337683 0.012254569954129 0.00015
          0.041347989337683 0.012254569954129 0.0003 0.042851510132752 0.012894663581483 0
          0.042851510132752 0.012894663581483 0.00015 0.042851510132752 0.012894663581483 0.0003
          0.044309088021254 0.0136111111111 0 0.044309088021254 0.0136111111111 0.00015
          0.044309088021254 0.0136111111111 0.0003 0.031680161057755 0.011606475803059 0
          0.031680161057755 0.011606475803059 0.00015 0.031680161057755 0.011606475803059 0.0003
          0.033353431814124 0.011759003186837 0 0.033353431814124 0.011759003186837 0.00015
          0.033353431814124 0.011759003186837 0.0003 0.035012953550752 0.012012438701317 0
          0.035012953550752 0.012012438701317 0.00015 0.035012953550752 0.012012438701317 0.0003
          0.036651930550897 0.012365620895829 0 0.036651930550897 0.012365620895829 0.00015
          0.036651930550897 0.012365620895829 0.0003 0.038263661258944 0.012816931200161 0
          0.038263661258944 0.012816931200161 0.00015 0.038263661258944 0.012816931200161 0.0003
          0.03984156897374 0.013364301337225 0 0.03984156897374 0.013364301337225 0.00015
          0.03984156897374 0.013364301337225 0.0003 0.04137923200261 0.014005222804725 0
          0.04137923200261 0.014005222804725 0.00015 0.04137923200261 0.014005222804725 0.0003
          0.042870413101398 0.014736758378844 0 0.042870413101398 0.014736758378844 0.00015
          0.042870413101398 0.014736758378844 0.0003 0.044309088021254 0.015555555555549 0
          0.044309088021254 0.015555555555549 0.00015 0.044309088021254 0.015555555555549 0.0003
          0.031691443856347 0.013057285278446 0 0.031691443856347 0.013057285278446 0.00015
          0.031691443856347 0.013057285278446 0.0003 0.033375136123633 0.013228878585196 0
          0.033375136123633 0.013228878585196 0.00015 0.033375136123633 0.013228878585196 0.0003
          0.035043360743709 0.013513993538986 0 0.035043360743709 0.013513993538986 0.00015
          0.035043360743709 0.013513993538986 0.0003 0.036688472535245 0.013911323507812 0
          0.036688472535245 0.013911323507812 0.00015 0.036688472535245 0.013911323507812 0.0003
          0.038302932248172 0.014419047600187 0 0.038302932248172 0.014419047600187 0.00015
          0.038302932248172 0.014419047600187 0.0003 0.039879341093689 0.015034839004384 0
          0.039879341093689 0.015034839004384 0.00015 0.039879341093689 0.015034839004384 0.0003
          0.041410474667538 0.015755875655322 0 0.041410474667538 0.015755875655322 0.00015
          0.041410474667538 0.015755875655322 0.0003 0.042889316070044 0.016578853176207 0
          0.042889316070044 0.016578853176207 0.00015 0.042889316070044 0.016578853176207 0.0003
          0.044309088021254 0.0175 0 0.044309088021254 0.0175 0.00015
          0.044309088021254 0.0175 0.0003 0.045420199132363 0 0
          0.045420199132363 0.0019444444444413 0 0.045420199132363 0 0.00015
          0.045420199132363 0.0019444444444413 0.00015 0.045420199132363 0 0.0003
          0.045420199132363 0.0019444444444413 0.0003 0.045420199132363 0.0038888888888803 0
          0.045420199132363 0.0038888888888803 0.00015 0.045420199132363 0.0038888888888803 0.0003
          0.045420199132363 0.0058333333333189 0 0.045420199132363 0.0058333333333189 0.00015
          0.045420199132363 0.0058333333333189 0.0003 0.045420199132363 0.0077777777777574 0
          0.045420199132363 0.0077777777777574 0.00015 0.045420199132363 0.0077777777777574 0.0003
          0.045420199132363 0.0097222222222011 0 0.045420199132363 0.0097222222222011 0.00015
          0.045420199132363 0.0097222222222011 0.0003 0.045420199132363 0.011666666666651 0
          0.045420199132363 0.011666666666651 0.00015 0.045420199132363 0.011666666666651 0.0003
          0.045420199132363 0.0136111111111 0 0.045420199132363 0.0136111111111 0.00015
          0.045420199132363 0.0136111111111 0.0003 0.045420199132363 0.015555555555549 0
          0.045420199132363 0.015555555555549 0.00015 0.045420199132363 0.015555555555549 0.0003
          0.045420199132363 0.0175 0 0.045420199132363 0.0175 0.00015
          0.045420199132363 0.0175 0.0003 0.046531310243475 0 0
          0.046531310243475 0.0019444444444413 0 0.046531310243475 0 0.00015
          0.046531310243475 0.0019444444444413 0.00015 0.046531310243475 0 0.0003
          0.046531310243475 0.0019444444444413 0.0003 0.046531310243475 0.0038888888888803 0
          0.046531310243475 0.0038888888888803 0.00015 0.046531310243475 0.0038888888888803 0.0003
          0.046531310243475 0.0058333333333189 0 0.046531310243475 0.0058333333333189 0.00015
          0.046531310243475 0.0058333333333189 0.0003 0.046531310243475 0.0077777777777574 0
          0.046531310243475 0.0077777777777574 0.00015 0.046531310243475 0.0077777777777574 0.0003
          0.046531310243475 0.0097222222222011 0 0.046531310243475 0.0097222222222011 0.00015
          0.046531310243475 0.0097222222222011 0.0003 0.046531310243475 0.011666666666651 0
          0.046531310243475 0.011666666666651 0.00015 0.046531310243475 0.011666666666651 0.0003
          0.046531310243475 0.0136111111111 0 0.046531310243475 0.0136111111111 0.00015
          0.046531310243475 0.0136111111111 0.0003 0.046531310243475 0.015555555555549 0
          0.046531310243475 0.015555555555549 0.00015 0.046531310243475 0.015555555555549 0.0003
          0.046531310243475 0.0175 0 0.046531310243475 0.0175 0.00015
          0.046531310243475 0.0175 0.0003 0.04764242135458 0 0
          0.04764242135458 0.0019444444444413 0 0.04764242135458 0 0.00015
          0.04764242135458 0.0019444444444413 0.00015 0.04764242135458 0 0.0003
          0.04764242135458 0.0019444444444413 0.0003 0.04764242135458 0.0038888888888803 0
          0.04764242135458 0.0038888888888803 0.00015 0.04764242135458 0.0038888888888803 0.0003
          0.04764242135458 0.0058333333333189 0 0.04764242135458 0.0058333333333189 0.00015
          0.04764242135458 0.0058333333333189 0.0003 0.04764242135458 0.0077777777777574 0
          0.04764242135458 0.0077777777777574 0.00015 0.04764242135458 0.0077777777777574 0.0003
          0.04764242135458 0.0097222222222011 0 0.04764242135458 0.0097222222222011 0.00015
          0.04764242135458 0.0097222222222011 0.0003 0.04764242135458 0.011666666666651 0
          0.04764242135458 0.011666666666651 0.00015 0.04764242135458 0.011666666666651 0.0003
          0.04764242135458 0.0136111111111 0 0.04764242135458 0.0136111111111 0.00015
          0.04764242135458 0.0136111111111 0.0003 0.04764242135458 0.015555555555549 0
          0.04764242135458 0.015555555555549 0.00015 0.04764242135458 0.015555555555549 0.0003
          0.04764242135458 0.0175 0 0.04764242135458 0.0175 0.00015
          0.04764242135458 0.0175 0.0003 0.048753532465692 0 0
          0.048753532465692 0.0019444444444413 0 0.048753532465692 0 0.00015
          0.048753532465692 0.0019444444444413 0.00015 0.048753532465692 0 0.0003
          0.048753532465692 0.0019444444444413 0.0003 0.048753532465692 0.0038888888888803 0
          0.048753532465692 0.0038888888888803 0.00015 0.048753532465692 0.0038888888888803 0.0003
          0.048753532465692 0.0058333333333189 0 0.048753532465692 0.0058333333333189 0.00015
          0.048753532465692 0.0058333333333189 0.0003 0.048753532465692 0.0077777777777574 0
          0.048753532465692 0.0077777777777574 0.00015 0.048753532465692 0.0077777777777574 0.0003
          0.048753532465692 0.0097222222222011 0 0.048753532465692 0.0097222222222011 0.00015
          0.048753532465692 0.0097222222222011 0.0003 0.048753532465692 0.011666666666651 0
          0.048753532465692 0.011666666666651 0.00015 0.048753532465692 0.011666666666651 0.0003
          0.048753532465692 0.0136111111111 0 0.048753532465692 0.0136111111111 0.00015
          0.048753532465692 0.0136111111111 0.0003 0.048753532465692 0.015555555555549 0
          0.048753532465692 0.015555555555549 0.00015 0.048753532465692 0.015555555555549 0.0003
          0.048753532465692 0.0175 0 0.048753532465692 0.0175 0.00015
          0.048753532465692 0.0175 0.0003 0.0498646435768 0 0
          0.0498646435768 0.0019444444444413 0 0.0498646435768 0 0.00015
          0.0498646435768 0.0019444444444413 0.00015 0.0498646435768 0 0.0003
          0.0498646435768 0.0019444444444413 0.0003 0.0498646435768 0.0038888888888803 0
          0.0498646435768 0.0038888888888803 0.00015 0.0498646435768 0.0038888888888803 0.0003
          0.0498646435768 0.0058333333333189 0 0.0498646435768 0.0058333333333189 0.00015
          0.0498646435768 0.0058333333333189 0.0003 0.0498646435768 0.0077777777777574 0
          0.0498646435768 0.0077777777777574 0.00015 0.0498646435768 0.0077777777777574 0.0003
          0.0498646435768 0.0097222222222011 0 0.0498646435768 0.0097222222222011 0.00015
          0.0498646435768 0.0097222222222011 0.0003 0.0498646435768 0.011666666666651 0
          0.0498646435768 0.011666666666651 0.00015 0.0498646435768 0.011666666666651 0.0003
          0.0498646435768 0.0136111111111 0 0.0498646435768 0.0136111111111 0.00015
          0.0498646435768 0.0136111111111 0.0003 0.0498646435768 0.015555555555549 0
          0.0498646435768 0.015555555555549 0.00015 0.0498646435768 0.015555555555549 0.0003
          0.0498646435768 0.0175 0 0.0498646435768 0.0175 0.00015
          0.0498646435768 0.0175 0.0003 0.050975754687912 0 0
          0.050975754687912 0.0019444444444413 0 0.050975754687912 0 0.00015
          0.050975754687912 0.0019444444444413 0.00015 0.050975754687912 0 0.0003
          0.050975754687912 0.0019444444444413 0.0003 0.050975754687912 0.0038888888888803 0
          0.050975754687912 0.0038888888888803 0.00015 0.050975754687912 0.0038888888888803 0.0003
          0.050975754687912 0.0058333333333189 0 0.050975754687912 0.0058333333333189 0.00015
          0.050975754687912 0.0058333333333189 0.0003 0.050975754687912 0.0077777777777574 0
          0.050975754687912 0.0077777777777574 0.00015 0.050975754687912 0.0077777777777574 0.0003
          0.050975754687912 0.0097222222222011 0 0.050975754687912 0.0097222222222011 0.00015
          0.050975754687912 0.0097222222222011 0.0003 0.050975754687912 0.011666666666651 0
          0.050975754687912 0.011666666666651 0.00015 0.050975754687912 0.011666666666651 0.0003
          0.050975754687912 0.0136111111111 0 0.050975754687912 0.0136111111111 0.00015
          0.050975754687912 0.0136111111111 0.0003 0.050975754687912 0.015555555555549 0
          0.050975754687912 0.015555555555549 0.00015 0.050975754687912 0.015555555555549 0.0003
          0.050975754687912 0.0175 0 0.050975754687912 0.0175 0.00015
          0.050975754687912 0.0175 0.0003 0.052086865799025 0 0
          0.052086865799025 0.0019444444444413 0 0.052086865799025 0 0.00015
          0.052086865799025 0.0019444444444413 0.00015 0.052086865799025 0 0.0003
          0.052086865799025 0.0019444444444413 0.0003 0.052086865799025 0.0038888888888803 0
          0.052086865799025 0.0038888888888803 0.00015 0.052086865799025 0.0038888888888803 0.0003
          0.052086865799025 0.0058333333333189 0 0.052086865799025 0.0058333333333189 0.00015
          0.052086865799025 0.0058333333333189 0.0003 0.052086865799025 0.0077777777777574 0
          0.052086865799025 0.0077777777777574 0.00015 0.052086865799025 0.0077777777777574 0.0003
          0.052086865799025 0.0097222222222011 0 0.052086865799025 0.0097222222222011 0.00015
          0.052086865799025 0.0097222222222011 0.0003 0.052086865799025 0.011666666666651 0
          0.052086865799025 0.011666666666651 0.00015 0.052086865799025 0.011666666666651 0.0003
          0.052086865799025 0.0136111111111 0 0.052086865799025 0.0136111111111 0.00015
          0.052086865799025 0.0136111111111 0.0003 0.052086865799025 0.015555555555549 0
          0.052086865799025 0.015555555555549 0.00015 0.052086865799025 0.015555555555549 0.0003
          0.052086865799025 0.0175 0 0.052086865799025 0.0175 0.00015
          0.052086865799025 0.0175 0.0003 0.05319797691014 0 0
          0.05319797691014 0.0019444444444413 0 0.05319797691014 0 0.00015
          0.05319797691014 0.0019444444444413 0.00015 0.05319797691014 0 0.0003
          0.05319797691014 0.0019444444444413 0.0003 0.05319797691014 0.0038888888888803 0
          0.05319797691014 0.0038888888888803 0.00015 0.05319797691014 0.0038888888888803 0.0003
          0.05319797691014 0.0058333333333189 0 0.05319797691014 0.0058333333333189 0.00015
          0.05319797691014 0.0058333333333189 0.0003 0.05319797691014 0.0077777777777574 0
          0.05319797691014 0.0077777777777574 0.00015 0.05319797691014 0.0077777777777574 0.0003
          0.05319797691014 0.0097222222222011 0 0.05319797691014 0.0097222222222011 0.00015
          0.05319797691014 0.0097222222222011 0.0003 0.05319797691014 0.011666666666651 0
          0.05319797691014 0.011666666666651 0.00015 0.05319797691014 0.011666666666651 0.0003
          0.05319797691014 0.0136111111111 0 0.05319797691014 0.0136111111111 0.00015
          0.05319797691014 0.0136111111111 0.0003 0.05319797691014 0.015555555555549 0
          0.05319797691014 0.015555555555549 0.00015 0.05319797691014 0.015555555555549 0.0003
          0.05319797691014 0.0175 0 0.05319797691014 0.0175 0.00015
          0.05319797691014 0.0175 0.0003 0.054309088021254 0 0
          0.054309088021254 0.0019444444444413 0 0.054309088021254 0 0.00015
          0.054309088021254 0.0019444444444413 0.00015 0.054309088021254 0 0.0003
          0.054309088021254 0.0019444444444413 0.0003 0.054309088021254 0.0038888888888803 0
          0.054309088021254 0.0038888888888803 0.00015 0.054309088021254 0.0038888888888803 0.0003
          0.054309088021254 0.0058333333333189 0 0.054309088021254 0.0058333333333189 0.00015
          0.054309088021254 0.0058333333333189 0.0003 0.054309088021254 0.0077777777777574 0
          0.054309088021254 0.0077777777777574 0.00015 0.054309088021254 0.0077777777777574 0.0003
          0.054309088021254 0.0097222222222011 0 0.054309088021254 0.0097222222222011 0.00015
          0.054309088021254 0.0097222222222011 0.0003 0.054309088021254 0.011666666666651 0
          0.054309088021254 0.011666666666651 0.00015 0.054309088021254 0.011666666666651 0.0003
          0.054309088021254 0.0136111111111 0 0.054309088021254 0.0136111111111 0.00015
          0.054309088021254 0.0136111111111 0.0003 0.054309088021254 0.015555555555549 0
          0.054309088021254 0.015555555555549 0.00015 0.054309088021254 0.015555555555549 0.0003
          0.054309088021254 0.0175 0 0.054309088021254 0.0175 0.00015
          0.054309088021254 0.0175 0.0003
          <InformationKey name="L2_NORM_RANGE" location="vtkDataArray" length="2">
            <Value index="0">
              0.019949534491
            </Value>
            <Value index="1">
              0.057059767277
            </Value>
          </InformationKey>
        </DataArray>
      </Points>
      <Cells>
        <DataArray type="Int64" Name="connectivity" format="ascii" RangeMin="0" RangeMax="818">
          0 1 2 3 4 5
          6 7 4 5 6 7
          8 9 10 11 12 13
          14 15 16 17 18 19
          16 17 18 19 20 21
          22 23 24 0 3 25
          26 4 7 27 26 4
          7 27 28 8 11 29
          30 31 32 14 33 34
          35 18 33 34 35 18
          36 37 38 22 39 40
          41 42 43 44 45 46
          43 44 45 46 47 48
          49 50 51 52 53 54
          55 56 57 58 55 56
          57 58 59 60 61 62
          13 63 64 65 17 66
          67 68 17 66 67 68
          21 69 70 71 0 24
          32 72 4 26 35 73
          4 26 35 73 8 28
          38 74 24 15 14 32
          26 19 18 35 26 19
          18 35 28 23 22 38
          13 65 30 14 17 68
          33 18 17 68 33 18
          21 71 36 22 93 94
          95 96 97 98 99 100
          97 98 99 100 101 102
          103 104 72 32 31 81
          73 35 34 83 73 35
          34 83 74 38 37 85
          53 40 39 54 57 44
          43 58 57 44 43 58
          61 48 47 62 31 30
          111 82 34 33 112 84
          34 33 112 84 37 36
          113 86 12 15 114 115
          16 19 116 117 16 19
          116 117 20 23 118 119
          120 121 122 123 124 125
          126 127 124 125 126 127
          128 129 130 131 64 76
          75 65 67 78 77 68
          67 78 77 68 70 80
          79 71 132 133 54 39
          134 135 58 43 134 135
          58 43 136 137 62 47
          53 141 41 40 57 142
          45 44 57 142 45 44
          61 143 49 48 111 30
          65 75 112 33 68 77
          112 33 68 77 113 36
          71 79 54 150 151 51
          58 152 153 55 58 152
          153 55 62 154 155 59
          156 122 121 157 158 126
          125 159 158 126 125 159
          160 130 129 161 162 88
          108 138 163 90 109 139
          163 90 109 139 164 92
          110 140 168 87 88 162
          169 89 90 163 169 89
          90 163 170 91 92 164
          121 165 171 157 125 166
          172 159 125 166 172 159
          129 167 173 161 132 39
          42 183 134 43 46 184
          134 43 46 184 136 47
          50 185 186 96 95 187
          188 100 99 189 188 100
          99 189 190 104 103 191
          192 193 122 156 194 195
          126 158 194 195 126 158
          196 197 130 160 183 42
          96 186 184 46 100 188
          184 46 100 188 185 50
          104 190 151 150 198 199
          153 152 200 201 153 152
          200 201 155 154 202 203
          174 145 144 204 175 147
          146 205 175 147 146 205
          176 149 148 206 193 192
          95 204 195 194 99 205
          195 194 99 205 197 196
          103 206 123 122 193 210
          127 126 195 211 127 126
          195 211 131 130 197 212
          93 96 42 41 97 100
          46 45 97 100 46 45
          101 104 50 49 213 214
          87 168 215 216 89 169
          215 216 89 169 217 218
          91 170 178 219 220 177
          180 221 222 179 180 221
          222 179 182 223 224 181
          225 141 226 227 228 142
          229 230 228 142 229 230
          231 143 232 233 120 105
          165 121 124 106 166 125
          124 106 166 125 128 107
          167 129 210 193 204 144
          211 195 205 146 211 195
          205 146 212 197 206 148
          219 227 234 220 221 230
          235 222 221 230 235 222
          223 233 236 224 94 174
          204 95 98 175 205 99
          98 175 205 99 102 176
          206 103 192 156 237 238
          194 158 239 240 194 158
          239 240 196 160 241 242
          243 2 1 244 245 6
          5 246 245 6 5 246
          247 10 9 248 227 226
          249 234 230 229 250 235
          230 229 250 235 233 232
          251 236 238 187 95 192
          240 189 99 194 240 189
          99 194 242 191 103 196
          252 207 87 214 253 208
          89 216 253 208 89 216
          254 209 91 218 187 255
          115 186 189 256 117 188
          189 256 117 188 191 257
          119 190 94 162 138 174
          98 163 139 175 98 163
          139 175 102 164 140 176
          64 63 237 171 67 66
          239 172 67 66 239 172
          70 69 241 173 41 213
          168 93 45 215 169 97
          45 215 169 97 49 217
          170 101 2 198 133 3
          6 200 135 7 6 200
          135 7 10 202 137 11
          25 114 15 24 27 116
          19 26 27 116 19 26
          29 118 23 28 114 183
          186 115 116 184 188 117
          116 184 188 117 118 185
          190 119 51 151 258 259
          55 153 260 261 55 153
          260 261 59 155 262 263
          226 52 264 249 229 56
          265 250 229 56 265 250
          232 60 266 251 198 150
          54 133 200 152 58 135
          200 152 58 135 202 154
          62 137 64 171 165 76
          67 172 166 78 67 172
          166 78 70 173 167 80
          52 51 259 264 56 55
          261 265 56 55 261 265
          60 59 263 266 171 237
          156 157 172 239 158 159
          172 239 158 159 173 241
          160 161 252 214 213 225
          253 216 215 228 253 216
          215 228 254 218 217 231
          151 199 267 258 153 201
          268 260 153 201 268 260
          155 203 269 262 63 13
          12 270 66 17 16 271
          66 17 16 271 69 21
          20 272 270 255 187 238
          271 256 189 240 271 256
          189 240 272 257 191 242
          199 198 2 243 201 200
          6 245 201 200 6 245
          203 202 10 247 225 213
          41 141 228 215 45 142
          228 215 45 142 231 217
          49 143 52 226 141 53
          56 229 142 57 56 229
          142 57 60 232 143 61
          25 132 183 114 27 134
          184 116 27 134 184 116
          29 136 185 118 252 225
          227 219 253 228 230 221
          253 228 230 221 254 231
          233 223 219 178 207 252
          221 180 208 253 221 180
          208 253 223 182 209 254
          25 3 133 132 27 7
          135 134 27 7 135 134
          29 11 137 136 93 168
          162 94 97 169 163 98
          97 169 163 98 101 170
          164 102 270 12 115 255
          271 16 117 256 271 16
          117 256 272 20 119 257
          199 243 273 267 201 245
          274 268 201 245 274 268
          203 247 275 269 63 270
          238 237 66 271 240 239
          66 271 240 239 69 272
          242 241 243 244 276 273
          245 246 277 274 245 246
          277 274 247 248 278 275
          276 244 1 279 277 246
          5 280 277 246 5 280
          278 248 9 281 285 72
          81 282 286 73 83 283
          286 73 83 283 287 74
          85 284 288 0 72 285
          289 4 73 286 289 4
          73 286 290 8 74 287
          291 1 0 288 292 5
          4 289 292 5 4 289
          293 9 8 290 294 279
          1 291 295 280 5 292
          295 280 5 292 296 281
          9 293 303 297 298 304
          305 299 300 306 305 299
          300 306 307 301 302 308
          309 303 304 310 311 305
          306 312 311 305 306 312
          313 307 308 314 315 309
          310 316 317 311 312 318
          317 311 312 318 319 313
          314 320 321 315 316 322
          323 317 318 324 323 317
          318 324 325 319 320 326
          327 321 322 328 329 323
          324 330 329 323 324 330
          331 325 326 332 333 327
          328 334 335 329 330 336
          335 329 330 336 337 331
          332 338 339 333 334 340
          341 335 336 342 341 335
          336 342 343 337 338 344
          348 345 297 303 349 346
          299 305 349 346 299 305
          350 347 301 307 351 348
          303 309 352 349 305 311
          352 349 305 311 353 350
          307 313 354 351 309 315
          355 352 311 317 355 352
          311 317 356 353 313 319
          357 354 315 321 358 355
          317 323 358 355 317 323
          359 356 319 325 360 357
          321 327 361 358 323 329
          361 358 323 329 362 359
          325 331 363 360 327 333
          364 361 329 335 364 361
          329 335 365 362 331 337
          366 363 333 339 367 364
          335 341 367 364 335 341
          368 365 337 343 372 369
          345 348 373 370 346 349
          373 370 346 349 374 371
          347 350 375 372 348 351
          376 373 349 352 376 373
          349 352 377 374 350 353
          378 375 351 354 379 376
          352 355 379 376 352 355
          380 377 353 356 381 378
          354 357 382 379 355 358
          382 379 355 358 383 380
          356 359 384 381 357 360
          385 382 358 361 385 382
          358 361 386 383 359 362
          387 384 360 363 388 385
          361 364 388 385 361 364
          389 386 362 365 390 387
          363 366 391 388 364 367
          391 388 364 367 392 389
          365 368 396 393 369 372
          397 394 370 373 397 394
          370 373 398 395 371 374
          399 396 372 375 400 397
          373 376 400 397 373 376
          401 398 374 377 402 399
          375 378 403 400 376 379
          403 400 376 379 404 401
          377 380 405 402 378 381
          406 403 379 382 406 403
          379 382 407 404 380 383
          408 405 381 384 409 406
          382 385 409 406 382 385
          410 407 383 386 411 408
          384 387 412 409 385 388
          412 409 385 388 413 410
          386 389 414 411 387 390
          415 412 388 391 415 412
          388 391 416 413 389 392
          420 417 393 396 421 418
          394 397 421 418 394 397
          422 419 395 398 423 420
          396 399 424 421 397 400
          424 421 397 400 425 422
          398 401 426 423 399 402
          427 424 400 403 427 424
          400 403 428 425 401 404
          429 426 402 405 430 427
          403 406 430 427 403 406
          431 428 404 407 432 429
          405 408 433 430 406 409
          433 430 406 409 434 431
          407 410 435 432 408 411
          436 433 409 412 436 433
          409 412 437 434 410 413
          438 435 411 414 439 436
          412 415 439 436 412 415
          440 437 413 416 447 444
          417 420 448 445 418 421
          448 445 418 421 449 446
          419 422 450 447 420 423
          451 448 421 424 451 448
          421 424 452 449 422 425
          453 450 423 426 454 451
          424 427 454 451 424 427
          455 452 425 428 456 453
          426 429 457 454 427 430
          457 454 427 430 458 455
          428 431 459 456 429 432
          460 457 430 433 460 457
          430 433 461 458 431 434
          462 459 432 435 463 460
          433 436 463 460 433 436
          464 461 434 437 465 462
          435 438 466 463 436 439
          466 463 436 439 467 464
          437 440 471 468 441 444
          472 469 442 445 472 469
          442 445 473 470 443 446
          474 471 444 447 475 472
          445 448 475 472 445 448
          476 473 446 449 477 474
          447 450 478 475 448 451
          478 475 448 451 479 476
          449 452 480 477 450 453
          481 478 451 454 481 478
          451 454 482 479 452 455
          483 480 453 456 484 481
          454 457 484 481 454 457
          485 482 455 458 486 483
          456 459 487 484 457 460
          487 484 457 460 488 485
          458 461 489 486 459 462
          490 487 460 463 490 487
          460 463 491 488 461 464
          492 489 462 465 493 490
          463 466 493 490 463 466
          494 491 464 467 498 495
          468 471 499 496 469 472
          499 496 469 472 500 497
          470 473 501 498 471 474
          502 499 472 475 502 499
          472 475 503 500 473 476
          504 501 474 477 505 502
          475 478 505 502 475 478
          506 503 476 479 507 504
          477 480 508 505 478 481
          508 505 478 481 509 506
          479 482 510 507 480 483
          511 508 481 484 511 508
          481 484 512 509 482 485
          513 510 483 486 514 511
          484 487 514 511 484 487
          515 512 485 488 516 513
          486 489 517 514 487 490
          517 514 487 490 518 515
          488 491 519 516 489 492
          520 517 490 493 520 517
          490 493 521 518 491 494
          525 522 495 498 526 523
          496 499 526 523 496 499
          527 524 497 500 528 525
          498 501 529 526 499 502
          529 526 499 502 530 527
          500 503 531 528 501 504
          532 529 502 505 532 529
          502 505 533 530 503 506
          534 531 504 507 535 532
          505 508 535 532 505 508
          536 533 506 509 537 534
          507 510 538 535 508 511
          538 535 508 511 539 536
          509 512 540 537 510 513
          541 538 511 514 541 538
          511 514 542 539 512 515
          543 540 513 516 544 541
          514 517 544 541 514 517
          545 542 515 518 546 543
          516 519 547 544 517 520
          547 544 517 520 548 545
          518 521 340 549 550 339
          342 551 552 341 342 551
          552 341 344 553 554 343
          339 550 555 366 341 552
          556 367 341 552 556 367
          343 554 557 368 366 555
          558 390 367 556 559 391
          367 556 559 391 368 557
          560 392 390 558 561 414
          391 559 562 415 391 559
          562 415 392 560 563 416
          414 561 564 438 415 562
          565 439 415 562 565 439
          416 563 566 440 438 564
          567 465 439 565 568 466
          439 565 568 466 440 566
          569 467 465 567 570 492
          466 568 571 493 466 568
          571 493 467 569 572 494
          492 570 573 519 493 571
          574 520 493 571 574 520
          494 572 575 521 519 573
          576 546 520 574 577 547
          520 574 577 547 521 575
          578 548 549 579 580 550
          551 581 582 552 551 581
          582 552 553 583 584 554
          550 580 585 555 552 582
          586 556 552 582 586 556
          554 584 587 557 555 585
          588 558 556 586 589 559
          556 586 589 559 557 587
          590 560 558 588 591 561
          559 589 592 562 559 589
          592 562 560 590 593 563
          561 591 594 564 562 592
          595 565 562 592 595 565
          563 593 596 566 564 594
          597 567 565 595 598 568
          565 595 598 568 566 596
          599 569 567 597 600 570
          568 598 601 571 568 598
          601 571 569 599 602 572
          570 600 603 573 571 601
          604 574 571 601 604 574
          572 602 605 575 573 603
          606 576 574 604 607 577
          574 604 607 577 575 605
          608 578 579 609 610 580
          581 611 612 582 581 611
          612 582 583 613 614 584
          580 610 615 585 582 612
          616 586 582 612 616 586
          584 614 617 587 585 615
          618 588 586 616 619 589
          586 616 619 589 587 617
          620 590 588 618 621 591
          589 619 622 592 589 619
          622 592 590 620 623 593
          591 621 624 594 592 622
          625 595 592 622 625 595
          593 623 626 596 594 624
          627 597 595 625 628 598
          595 625 628 598 596 626
          629 599 597 627 630 600
          598 628 631 601 598 628
          631 601 599 629 632 602
          600 630 633 603 601 631
          634 604 601 631 634 604
          602 632 635 605 603 633
          636 606 604 634 637 607
          604 634 637 607 605 635
          638 608 609 639 640 610
          611 641 642 612 611 641
          642 612 613 643 644 614
          610 640 645 615 612 642
          646 616 612 642 646 616
          614 644 647 617 615 645
          648 618 616 646 649 619
          616 646 649 619 617 647
          650 620 618 648 651 621
          619 649 652 622 619 649
          652 622 620 650 653 623
          621 651 654 624 622 652
          655 625 622 652 655 625
          623 653 656 626 624 654
          657 627 625 655 658 628
          625 655 658 628 626 656
          659 629 627 657 660 630
          628 658 661 631 628 658
          661 631 629 659 662 632
          630 660 663 633 631 661
          664 634 631 661 664 634
          632 662 665 635 633 663
          666 636 634 664 667 637
          634 664 667 637 635 665
          668 638 639 669 670 640
          641 671 672 642 641 671
          672 642 643 673 674 644
          640 670 675 645 642 672
          676 646 642 672 676 646
          644 674 677 647 645 675
          678 648 646 676 679 649
          646 676 679 649 647 677
          680 650 648 678 681 651
          649 679 682 652 649 679
          682 652 650 680 683 653
          651 681 684 654 652 682
          685 655 652 682 685 655
          653 683 686 656 654 684
          687 657 655 685 688 658
          655 685 688 658 656 686
          689 659 657 687 690 660
          658 688 691 661 658 688
          691 661 659 689 692 662
          660 690 693 663 661 691
          694 664 661 691 694 664
          662 692 695 665 663 693
          696 666 664 694 697 667
          664 694 697 667 665 695
          698 668 669 699 700 670
          671 701 702 672 671 701
          702 672 673 703 704 674
          670 700 705 675 672 702
          706 676 672 702 706 676
          674 704 707 677 675 705
          708 678 676 706 709 679
          676 706 709 679 677 707
          710 680 678 708 711 681
          679 709 712 682 679 709
          712 682 680 710 713 683
          681 711 714 684 682 712
          715 685 682 712 715 685
          683 713 716 686 684 714
          717 687 685 715 718 688
          685 715 718 688 686 716
          719 689 687 717 720 690
          688 718 721 691 688 718
          721 691 689 719 722 692
          690 720 723 693 691 721
          724 694 691 721 724 694
          692 722 725 695 693 723
          726 696 694 724 727 697
          694 724 727 697 695 725
          728 698 699 729 730 700
          701 731 732 702 701 731
          732 702 703 733 734 704
          700 730 735 705 702 732
          736 706 702 732 736 706
          704 734 737 707 705 735
          738 708 706 736 739 709
          706 736 739 709 707 737
          740 710 708 738 741 711
          709 739 742 712 709 739
          742 712 710 740 743 713
          711 741 744 714 712 742
          745 715 712 742 745 715
          713 743 746 716 714 744
          747 717 715 745 748 718
          715 745 748 718 716 746
          749 719 717 747 750 720
          718 748 751 721 718 748
          751 721 719 749 752 722
          720 750 753 723 721 751
          754 724 721 751 754 724
          722 752 755 725 723 753
          756 726 724 754 757 727
          724 754 757 727 725 755
          758 728 729 759 760 730
          731 761 762 732 731 761
          762 732 733 763 764 734
          730 760 765 735 732 762
          766 736 732 762 766 736
          734 764 767 737 735 765
          768 738 736 766 769 739
          736 766 769 739 737 767
          770 740 738 768 771 741
          739 769 772 742 739 769
          772 742 740 770 773 743
          741 771 774 744 742 772
          775 745 742 772 775 745
          743 773 776 746 744 774
          777 747 745 775 778 748
          745 775 778 748 746 776
          779 749 747 777 780 750
          748 778 781 751 748 778
          781 751 749 779 782 752
          750 780 783 753 751 781
          784 754 751 781 784 754
          752 782 785 755 753 783
          786 756 754 784 787 757
          754 784 787 757 755 785
          788 758 759 789 790 760
          761 791 792 762 761 791
          792 762 763 793 794 764
          760 790 795 765 762 792
          796 766 762 792 796 766
          764 794 797 767 765 795
          798 768 766 796 799 769
          766 796 799 769 767 797
          800 770 768 798 801 771
          769 799 802 772 769 799
          802 772 770 800 803 773
          771 801 804 774 772 802
          805 775 772 802 805 775
          773 803 806 776 774 804
          807 777 775 805 808 778
          775 805 808 778 776 806
          809 779 777 807 810 780
          778 808 811 781 778 808
          811 781 779 809 812 782
          780 810 813 783 781 811
          814 784 781 811 814 784
          782 812 815 785 783 813
          816 786 784 814 817 787
          784 814 817 787 785 815
          818 788
        </DataArray>
        <DataArray type="Int64" Name="offsets" format="ascii" RangeMin="8" RangeMax="3632">
          8 16 24 32 40 48
          56 64 72 80 88 96
          104 112 120 128 136 144
          152 160 168 176 184 192
          200 208 216 224 232 240
          248 256 264 272 280 288
          296 304 312 320 328 336
          344 352 360 368 376 384
          392 400 408 416 424 432
          440 448 456 464 472 480
          488 496 504 512 520 528
          536 544 552 560 568 576
          584 592 600 608 616 624
          632 640 648 656 664 672
          680 688 696 704 712 720
          728 736 744 752 760 768
          776 784 792 800 808 816
          824 832 840 848 856 864
          872 880 888 896 904 912
          920 928 936 944 952 960
          968 976 984 992 1000 1008
          1016 1024 1032 1040 1048 1056
          1064 1072 1080 1088 1096 1104
          1112 1120 1128 1136 1144 1152
          1160 1168 1176 1184 1192 1200
          1208 1216 1224 1232 1240 1248
          1256 1264 1272 1280 1288 1296
          1304 1312 1320 1328 1336 1344
          1352 1360 1368 1376 1384 1392
          1400 1408 1416 1424 1432 1440
          1448 1456 1464 1472 1480 1488
          1496 1504 1512 1520 1528 1536
          1544 1552 1560 1568 1576 1584
          1592 1600 1608 1616 1624 1632
          1640 1648 1656 1664 1672 1680
          1688 1696 1704 1712 1720 1728
          1736 1744 1752 1760 1768 1776
          1784 1792 1800 1808 1816 1824
          1832 1840 1848 1856 1864 1872
          1880 1888 1896 1904 1912 1920
          1928 1936 1944 1952 1960 1968
          1976 1984 1992 2000 2008 2016
          2024 2032 2040 2048 2056 2064
          2072 2080 2088 2096 2104 2112
          2120 2128 2136 2144 2152 2160
          2168 2176 2184 2192 2200 2208
          2216 2224 2232 2240 2248 2256
          2264 2272 2280 2288 2296 2304
          2312 2320 2328 2336 2344 2352
          2360 2368 2376 2384 2392 2400
          2408 2416 2424 2432 2440 2448
          2456 2464 2472 2480 2488 2496
          2504 2512 2520 2528 2536 2544
          2552 2560 2568 2576 2584 2592
          2600 2608 2616 2624 2632 2640
          2648 2656 2664 2672 2680 2688
          2696 2704 2712 2720 2728 2736
          2744 2752 2760 2768 2776 2784
          2792 2800 2808 2816 2824 2832
          2840 2848 2856 2864 2872 2880
          2888 2896 2904 2912 2920 2928
          2936 2944 2952 2960 2968 2976
          2984 2992 3000 3008 3016 3024
          3032 3040 3048 3056 3064 3072
          3080 3088 3096 3104 3112 3120
          3128 3136 3144 3152 3160 3168
          3176 3184 3192 3200 3208 3216
          3224 3232 3240 3248 3256 3264
          3272 3280 3288 3296 3304 3312
          3320 3328 3336 3344 3352 3360
          3368 3376 3384 3392 3400 3408
          3416 3424 3432 3440 3448 3456
          3464 3472 3480 3488 3496 3504
          3512 3520 3528 3536 3544 3552
          3560 3568 3576 3584 3592 3600
          3608 3616 3624 3632
        </DataArray>
        <DataArray type="UInt8" Name="types" format="ascii" RangeMin="12" RangeMax="12">
          12 12 12 12 12 12
          12 12 12 12 12 12
          12 12 12 12 12 12
          12 12 12 12 12 12
          12 12 12 12 12 12
          12 12 12 12 12 12
          12 12 12 12 12 12
          12 12 12 12 12 12
          12 12 12 12 12 12
          12 12 12 12 12 12
          12 12 12 12 12 12
          12 12 12 12 12 12
          12 12 12 12 12 12
          12 12 12 12 12 12
          12 12 12 12 12 12
          12 12 12 12 12 12
          12 12 12 12 12 12
          12 12 12 12 12 12
          12 12 12 12 12 12
          12 12 12 12 12 12
          12 12 12 12 12 12
          12 12 12 12 12 12
          12 12 12 12 12 12
          12 12 12 12 12 12
          12 12 12 12 12 12
          12 12 12 12 12 12
          12 12 12 12 12 12
          12 12 12 12 12 12
          12 12 12 12 12 12
          12 12 12 12 12 12
          12 12 12 12 12 12
          12 12 12 12 12 12
          12 12 12 12 12 12
          12 12 12 12 12 12
          12 12 12 12 12 12
          12 12 12 12 12 12
          12 12 12 12 12 12
          12 12 12 12 12 12
          12 12 12 12 12 12
          12 12 12 12 12 12
          12 12 12 12 12 12
          12 12 12 12 12 12
          12 12 12 12 12 12
          12 12 12 12 12 12
          12 12 12 12 12 12
          12 12 12 12 12 12
          12 12 12 12 12 12
          12 12 12 12 12 12
          12 12 12 12 12 12
          12 12 12 12 12 12
          12 12 12 12 12 12
          12 12 12 12 12 12
          12 12 12 12 12 12
          12 12 12 12 12 12
          12 12 12 12 12 12
          12 12 12 12 12 12
          12 12 12 12 12 12
          12 12 12 12 12 12
          12 12 12 12 12 12
          12 12 12 12 12 12
          12 12 12 12 12 12
          12 12 12 12 12 12
          12 12 12 12 12 12
          12 12 12 12 12 12
          12 12 12 12 12 12
          12 12 12 12 12 12
          12 12 12 12 12 12
          12 12 12 12 12 12
          12 12 12 12 12 12
          12 12 12 12 12 12
          12 12 12 12 12 12
          12 12 12 12 12 12
          12 12 12 12 12 12
          12 12 12 12 12 12
          12 12 12 12 12 12
          12 12 12 12
        </DataArray>
      </Cells>
    </Piece>
  </UnstructuredGrid>
</VTKFile>
