<?xml version="1.0"?>
<VTKFile type="UnstructuredGrid" version="0.1" byte_order="LittleEndian" header_type="UInt32" compressor="vtkZLibDataCompressor">
  <UnstructuredGrid>
    <Piece NumberOfPoints="795" NumberOfCells="454">
      <PointData>
        <DataArray type="Int32" Name="libmesh_node_id" format="ascii" RangeMin="2220" RangeMax="4979">
          2220 2221 2222 2223 2224 2225
          2226 2227 2228 2229 2230 2231
          2388 2389 2390 2391 2392 2393
          2394 2395 2396 2397 2398 2399
          2402 2405 2408 2409 2410 2411
          2463 2464 2465 2466 2467 2468
          2469 2470 2471 2472 2473 2474
          2475 2476 2477 2478 2479 2480
          2499 2500 2501 2502 2503 2504
          2505 2506 2507 2508 2509 2510
          2511 2512 2513 2514 2515 2516
          2517 2518 2519 2520 2521 2522
          2613 2614 2616 2617 2618 2620
          2621 2622 2624 2652 2653 2654
          2655 2656 2657 2658 2659 2660
          2661 2662 2663 2697 2701 2705
          2721 2722 2723 2724 2725 2726
          2736 2737 2738 2739 2740 2741
          2742 2743 2744 2745 2746 2747
          2748 2749 2750 2751 2752 2753
          2754 2755 2756 2757 2758 2759
          2760 2761 2762 2763 2764 2765
          2778 2779 2780 2781 2782 2783
          2784 2785 2786 2862 2863 2864
          2865 2866 2867 2868 2869 2870
          2871 2872 2873 2922 2923 2924
          2925 2926 2927 2940 2941 2942
          2943 2944 2945 2946 2947 2948
          2958 2959 2960 2961 2962 2963
          2964 2965 2966 2967 2968 2969
          2992 2993 2996 2997 3000 3001
          3018 3019 3020 3021 3022 3023
          3036 3039 3040 3043 3044 3047
          3060 3061 3062 3063 3064 3065
          3066 3067 3068 3069 3070 3071
          3072 3073 3074 3075 3076 3077
          3180 3181 3182 3183 3184 3185
          3204 3205 3206 3207 3208 3209
          3240 3242 3244 3258 3260 3262
          3273 3274 3275 3276 3277 3278
          3279 3280 3281 3282 3283 3284
          3285 3286 3287 3288 3289 3290
          3291 3292 3293 3294 3295 3296
          3297 3298 3299 3348 3349 3350
          3351 3352 3353 3354 3355 3356
          3357 3358 3359 3360 3361 3362
          3363 3364 3365 3369 3370 3371
          3372 3373 3374 3399 3400 3401
          3402 3403 3404 3405 3406 3407
          3408 3409 3410 3411 3412 3413
          3414 3415 3416 3417 3418 3419
          3420 3421 3422 3462 3463 3464
          3486 3487 3488 3489 3490 3491
          3507 3508 3509 3510 3511 3512
          3527 3530 3533 3534 3535 3536
          3555 3556 3557 3558 3559 3560
          3561 3562 3563 3579 3580 3581
          3594 3595 3596 3597 3598 3599
          3603 3604 3605 3606 3607 3608
          3621 3622 3623 3624 3625 3626
          3627 3628 3629 3642 3643 3644
          3645 3646 3647 3648 3649 3650
          3651 3652 3653 3669 3670 3671
          3672 3673 3674 3675 3676 3677
          3678 3679 3680 3681 3682 3683
          3750 3751 3752 3753 3754 3755
          3756 3757 3758 3759 3760 3761
          3780 3781 3782 3783 3784 3785
          3909 3910 3911 3912 3913 3914
          3915 3916 3917 3918 3919 3920
          3951 3952 3953 3966 3967 3968
          3975 3976 3977 3978 3979 3980
          3981 3982 3983 3984 3985 3986
          3987 3988 3989 3990 3991 3992
          4008 4009 4010 4011 4012 4013
          4014 4015 4016 4017 4018 4019
          4020 4021 4022 4023 4024 4025
          4026 4027 4028 4029 4030 4031
          4041 4042 4043 4044 4045 4046
          4047 4048 4049 4050 4051 4052
          4068 4069 4070 4080 4081 4082
          4092 4093 4094 4095 4096 4097
          4098 4099 4100 4101 4102 4103
          4122 4123 4124 4125 4126 4127
          4146 4147 4148 4149 4150 4151
          4152 4153 4154 4155 4156 4157
          4158 4159 4160 4173 4174 4175
          4176 4177 4178 4179 4180 4181
          4182 4183 4184 4188 4189 4190
          4194 4195 4196 4197 4198 4199
          4200 4201 4202 4203 4204 4205
          4218 4219 4220 4221 4222 4223
          4230 4231 4232 4266 4267 4268
          4281 4282 4283 4299 4300 4301
          4305 4306 4307 4308 4309 4310
          4311 4312 4313 4335 4336 4337
          4341 4342 4343 4395 4396 4397
          4455 4456 4457 4473 4474 4475
          4476 4477 4478 4515 4516 4517
          4578 4579 4580 4581 4582 4583
          4614 4615 4616 4704 4705 4706
          4707 4708 4709 4710 4711 4712
          4713 4714 4715 4737 4738 4739
          4740 4741 4742 4821 4822 4823
          4842 4843 4844 4845 4846 4847
          4854 4855 4856 4857 4858 4859
          4860 4861 4862 4863 4864 4865
          4866 4867 4868 4875 4876 4877
          4878 4879 4880 4908 4909 4910
          4914 4915 4916 4932 4933 4934
          4941 4942 4943 4977 4978 4979
          2400 2401 2403 2404 2406 2407
          2615 2619 2623 2698 2699 2700
          2702 2703 2704 2706 2707 2708
          2991 2994 2995 2998 2999 3002
          2331 2330 2335 2334 2339 2338
          3241 3243 3245 3259 3186 3188
          3261 3189 3191 3263 3192 3194
          3448 3450 3452 3525 3526 3528
          3529 3531 3532 3537 3538 3539
          3540 3541 3542 3654 3657 3660
          2328 2332 2336 3852 3853 3854
          3993 3994 3995 4338 4339 4340
          3513 3514 3515 4458 4321 4459
          4324 4460 4327 4584 4585 4586
          4587 4588 4589 4791 4792 4793
          4794 4795 4796 4797 4798 4799
          4431 4432 4433 3495 3187 3499
          3190 3503 3193 3954 3957 3958
          3961 3962 3965 4899 4900 4901
          4968 4969 4970 4911 4912 4913
          3498 3502 3506 4902 4903 4904
          4434 4436 4438
        </DataArray>
        <DataArray type="Float64" Name="resid_x" format="ascii" RangeMin="-0.00010938064789556279" RangeMax="0.00030345968154055214">
          -0.000007703230052946708 -0.0000029545534232511272 -0.0000029492854309864924 -0.000003907724375196153 -0.000016382369196321633 -0.000009338693682359178
          -0.000014836495205727829 -0.000017535923945821708 -0.00003593421404968211 -0.00002351182711013422 -0.000030765708062929775 -0.000034271402968855114
          -0.0000026961919656898203 -0.000012190477338691608 -0.000011479089667254527 -0.0000045988456767176444 -0.000012604090316337135 -0.000041642887950388285
          -0.000032489898335263945 -0.00003409782683938545 -0.00005401749807543155 -0.00006091089368176483 -0.00005275642918434187 -0.00006063072461692798
          -0.00007477869253413871 -0.00010938064789556279 -0.0000714605513696398 -0.00007875936910117787 -0.00010288731847118981 -0.00006680804020131603
          -0.000009915610138966358 -0.000015256507025718236 -0.000014284288086141572 -0.000023219530371487718 -0.000026924568647279656 -0.00002994893476304661
          -0.0000027898787884339526 5.511006597735957e-7 2.4741238657810527e-7 5.843158223939326e-7 -0.000007229249632256796 -0.000004408158380542204
          -0.000010935112766397026 -0.000008468912582326737 -0.000029556491468074597 -0.00003281929687037888 -0.00003108481135161156 -0.000019556872917547707
          -0.000004049112425796864 -0.000002214118016041766 -0.0000018906049792377644 -5.716945294942377e-7 -0.000013602796249401194 -0.000010018196406669233
          -0.000016103441705439536 -0.00001288127440890463 -0.00003168312528600836 -0.000027306388370895718 -0.00002675708921540121 -0.00002711594512394555
          -0.000004385056641353913 -0.0000030585209067623964 -0.0000020886914429141257 -0.0000016656396271130802 -0.000013770837350879361 -0.000018741478529982203
          -0.00001563048797237343 -0.00001657072648608704 -0.000031176333436633286 -0.00003808255133996852 -0.00003784641049886517 -0.00003949442901962641
          -0.000002274205091801207 -0.000010102493246844091 0.0000033375565253734862 -0.000007704518743878452 -0.00002168247312672733 -0.000014562554112806936
          -0.00003416199185934943 -0.00003290567698899238 -0.00004856614479642474 -0.0000017673322272315772 0.000001934293374361573 9.359543771680912e-7
          0.000003648701221159456 -0.000006638343342579844 -0.000009115684219906939 -0.0000058666984419919466 -0.000009947511075303339 -0.000037351444319710936
          -0.00002829287044114892 -0.00004259070236189988 -0.000047392094074893976 -0.00006048882575715453 -0.00009325055415221328 -0.000059879132761953
          -0.000010482241956655258 -0.000008988498281681245 -0.000013980125423085354 -0.000013400564882637411 -0.0000246112755721839 -0.000028004118596491878
          -0.00000675770399016784 -0.000012675354805757877 -0.000004018323520149636 -0.000011432326620486322 -0.000012677438540720232 -0.000012277921309866713
          -0.000025450494331558104 -0.000027281031254489108 -0.000030734482207250835 -0.000003614741686641665 -0.0000031351615756847195 -0.00000296877090377734
          -2.974884425188673e-7 -0.000010120718604178514 -0.000010764009840791289 -0.000013863179180617635 -0.000009462839097751363 -0.000024066124013955026
          -0.000028764996380381547 -0.00003400474300185863 -0.000027299991872342666 -0.000007368284859587959 -0.000012977299209904203 -0.000005982413519234342
          -0.000013237578109226433 -0.000011575234080130059 -0.00001632053145517176 -0.00002596223801720754 -0.000019317320147926864 -0.000028100723373114533
          -0.000016406089936360502 -0.00002140702327491084 -0.000015414458602869274 -0.000012770816129048512 -0.000016020154147700083 -0.00001562094577778339
          -0.00001375076279774845 -0.000020991343072207513 -0.00003629720006070869 -0.00001806087996136796 -0.000008011219347459075 -0.000003140413746050008
          -0.000017919871443172752 -0.000019712702663543524 -0.00001232669460193847 -0.000008422764372809088 -0.00002179784593026035 -0.00004224351238724111
          -0.000024240610366099702 -0.000024853558807519383 -0.00004518386294960486 -0.000002511911330493888 -0.000007170805679912462 -0.000005888314737134692
          -0.00001542828443579225 -0.000038658856861495394 -0.000043266008360909325 -0.000005147619853040908 -0.000005242793109871968 -0.00001698641611902474
          -0.0000071181044907220326 -0.000011685618812151688 -0.000013421682877989838 -0.00003561290156461894 -0.0000352601096365035 -0.00002922459938581312
          -0.000004839550439950102 -0.000002981609782182204 -0.000006497657238924148 -0.000014826537285017594 -0.00000834897266410728 -0.00000823017559259398
          -0.000011259323495771412 -0.000014230576497631375 -0.00002489641684477739 -0.00002437054633297464 -0.000025667338974244558 -0.000028491583499601347
          -0.00001036155149325424 -0.00000940184842690428 -0.000021904380106185783 -0.000018821559648607433 -0.000019438044875919047 -0.000026360498009303512
          -0.000013920241048737125 -0.000013912394703829989 -0.000014464882199582973 -0.0000140555338532522 -0.00003250961079714898 -0.000022688769460543767
          -0.000051108080532991096 -0.00004305143689631308 -0.00007674667676305091 -0.00006641107718863282 -0.00005301099493504324 -0.00004664104575358152
          -0.000013705482556858328 -0.000011098329383507632 -0.000016860595484224916 -0.000013016169894353169 -0.000027370834143169986 -0.000023633912755727238
          -0.000026228124911042983 -0.000017614977471769322 -0.000027398660033206568 -0.000020401995785235272 -0.00002369255342493659 -0.00002358413788972058
          -0.000005184205530639474 -0.0000011932591235108703 -0.0000017601775050835045 -0.000008108678453133678 -0.00003870696994567879 -0.000044534065072987516
          -0.0000196386086133149 -0.000029336983097927316 -0.00001268718158353721 -0.00004974043862571165 -0.00003077877731572087 -0.000046990255041734486
          -0.00001670597976621835 -0.000028038516644457445 0.000002099666284394175 -0.0000484363345680805 -0.000026227374761988997 -0.000045414242762831236
          -0.000021697467614600896 -0.000022157456154303645 -0.000025426473488465717 -0.000013294352234183293 -0.00002450134800824344 -0.000038637007198971673
          -0.00002544985148311696 -0.00001498024655965935 -0.00002125048095358295 -0.000011029073405666168 -0.00001896514654298187 -0.000027163529580320755
          -0.000015728372974699312 -0.000004387685932805141 -0.00002972787487731665 -0.0000264913545224843 -0.000028078477773973987 -0.00002524303270590167
          -0.000009973150638775685 -0.000007408268477782087 -0.00001469628904526843 -0.000008833720671008738 -0.000006860439833111798 -0.000012949005875562136
          -0.00001604917237674197 -0.00002188233458344513 -0.000030431987757761902 -0.000017532209239057295 -0.000015078819881608752 -0.000012686966058217397
          -0.000010169218581879136 -0.000021944753805680506 -0.000029190292178959965 -0.00001757718950567977 -0.00000702239007743799 -0.00002779250328899252
          -0.000005752789435931049 -0.0000045703090840731875 -0.000019825555162000796 -0.000018377655005785698 -0.000013742398659921662 -0.000012558692698672047
          -0.00003453675157061298 -0.0000310940356049727 -0.00003202431234683445 -0.000036242073376158146 -0.00004960283991994885 -0.00004788705860736542
          -0.000023034546785538623 -0.000008556334752718442 -0.00003575420978130239 -0.000025630920169383842 -0.000008399194370234397 -0.00003001981095884787
          -0.00004074824051247816 -0.00004306876726190012 -0.000039138513155734245 -0.000022152927590113336 -0.000006229993465112216 -0.000019250997538744485
          -0.000005621763937924129 -0.00002977803502623999 -0.00001092136612435013 -0.00001752210424044165 -0.000018258350505284682 -0.000017294902088238473
          -0.000011876298356305881 -0.000034462126583534314 -0.00003198392980863218 -0.000018762592071119855 -0.000020264736327213484 -0.000007715581292089269
          -0.000006586696515764601 -0.000026786673481105083 -0.00002449300824736156 -0.00001851951359377324 -0.000014876202142133366 -0.000014694542045390335
          -0.000015106614689841535 -0.000022036209931464157 -0.00002585110884645303 -0.000019889680460183357 -0.000014790804813147318 -0.00003262268173509497
          -0.000020085524338853133 -0.000020198171155172417 -0.000014475095660770876 -0.000015479101113768934 -0.000027743677019742563 -0.00002829175503094028
          -0.000018187438254879673 -0.000012635577051778313 -0.000012843079586599693 -0.000009520028753540188 -0.000021058947722973897 -0.00001652963971499055
          -0.000031733346740114854 -0.000052639527384545914 -0.000046288754983248026 -0.000022612906557029078 -0.000005384218384918427 -0.00003778876407078968
          -0.000019765155339523943 -0.00000931830278272372 -0.000012098920051828443 -0.000006356205079605104 -0.000019148814918157342 -0.00000816764594979702
          -0.00002444356031627848 0.000002028602764880816 -0.000027169536713778086 -0.00002113276729165392 -0.00001242910759557958 -0.00003266087756959024
          -0.000044456030829032045 -0.000048087841038046975 -8.073954500531499e-7 -0.0000018108958030893518 -0.00003818173903002986 -0.000029859665297671256
          -0.000025035146300922406 -0.000014527000711694882 -0.000010294778782338199 -0.000010119578037759425 -0.00002740272357071305 -0.00003062824255284369
          -0.00002423369179194168 -0.00002243218777664424 -0.000017769293926050977 -0.000012765255670288411 -0.000016595369842775654 -0.00001162139103438875
          -0.00001739724290672484 -0.00001793947377404237 -0.000016675259502996198 -0.000009546367726542826 -8.297814084734512e-7 -0.000007611748449320999
          -0.000017901010616938606 -0.000012784844149571484 -0.0000049318694577138444 -0.00000696024885993296 -0.000028317132497512887 -0.000036940487943226685
          -0.00002137205617724902 -0.000027034238923029363 -0.000048625829701443024 -0.000005555257120093415 -0.000013293063605424038 -0.000017537739976702937
          -3.7591160406691415e-7 -0.00001924770336181325 -0.000018686651431565338 -0.00004815380264489022 -0.000016904363373093645 -0.00005435696006816926
          -0.00006269792408097885 -0.00006484759653346828 -0.00005804881180448973 -0.000045393450129438406 -0.000012921739054760906 -0.000034961251060394716
          -0.000011977900500337313 -0.000014857053635353168 -0.000011728517911757663 -0.000013058422902112454 -0.000039278909458762 -0.00003573876229978623
          -0.000012978627198734216 -0.000020898592635987256 -0.0000180109853946675 -0.000043114278058808964 -0.00003788352809142026 -0.00003204643464638224
          -0.000012233634107960967 -0.000019581492968462344 -0.000011569773619157786 -0.00001524254459120411 -0.00003818033348501615 -0.0000465177205628553
          -0.000028228818279352197 -0.00003659608077377641 -0.00001476743916750678 -0.000031074381364959436 -0.00005456287498617485 -0.00005464229694673861
          -0.000031646727642886674 -0.000027164599420093083 -0.00001524352640913662 -0.000015277981375128036 -0.000054772834110039526 -0.00004744291196212558
          -0.000037101817357942934 -0.00001658162823936493 -0.00003147645626988549 -0.00002630487207078147 -0.000008752832142189249 -0.00003639528125720659
          -0.00000897130069210661 -0.000016270472397827973 -0.000032741226590360384 -0.000027577779298404437 -0.000013499570739483602 -0.000017378721794081287
          -0.000035284205333052654 -0.000026902142495899284 -0.00003355647186964461 -0.000019880489281476343 -0.000045235268857357624 -0.00004335963099943996
          -0.00004093832962270838 -0.000014118281454145176 -0.0000625418156627866 0.000004892030958991711 -0.00004926204209132479 -0.000021567381301323962
          0.000014399367460171675 -0.00004358138490978547 -0.0000071962269228009745 0.00004292550453266486 0.000025480509739495005 -0.00009243785039814156
          -0.00001437880615018372 0.00008492999888076724 1.307283739038212e-7 -0.00007240521973450598 -0.000029423062323896687 0.000029794815567640853
          -0.00006248393656882456 -0.00005689240711959087 -0.0000659452670070948 -0.00007158453875177884 -0.00009965770301967325 -0.00009178969779277679
          -0.00005579976578662382 -0.0000579371059563627 -0.000058792452667155715 -0.0000648140533479058 -0.00004233987264257166 -0.00007277710044428787
          -0.000022908854242054133 -0.000022067017241389486 -0.000017867007771066312 -0.00001648691852368378 -0.000022563455144286593 -0.000022475362899121443
          -0.00004318167940287054 -0.00003513506189101179 -0.0000250777003794056 -0.000021487772314365827 -0.00004610080740352629 -0.000034888121221321455
          -0.000038345470958489614 -0.00001868361160362042 -0.00004232819433802604 -0.00004520237206318001 -0.0000061560114517078546 -0.000023929413957901602
          -0.000031756629836010575 -0.000016542921888351714 -0.000010710026802307482 -0.000014242699322153385 -0.000025143183562725824 -0.000017173245052681807
          -0.000044129752229782326 0.000030507908863608435 -0.00003284651542490025 0.00008364421073991934 -0.000042365409215427974 0.000028448320321672327
          0.00004331941078117296 0.000049228588809846485 0.00009982938656261098 0.00010862452948590118 0.000035724812566861885 0.0000411111048324031
          0.00005122989891770402 -0.000026850043377102395 0.00006196268563218865 0.0001184952086727975 -0.00002191439999510436 0.00013267590981413946
          0.00004562574056343749 -0.00003285257461715929 0.00005695040198361312 -0.000042918039497408245 -0.00003602106639544189 -0.00003208284203815026
          -0.00002768884744241973 -0.00003806791986349367 -0.00003628141581923927 -0.00003775660335358921 -0.000028995243021245898 -0.000032134525959293114
          -0.000025726589726104976 -0.00004407676049611453 -0.0000390428627992101 -0.0000333414314575009 0.00006063141080669965 -0.000015975616745933507
          0.00014297648320038547 -0.00002809608036979938 0.00006333941499381268 -0.00005401414196359866 -0.00006654230848290865 -0.00005635886933141876
          -0.000005635753467903015 -0.000003671266592064626 0.00012880342430365843 0.0001203932463824664 -0.000008059652187419886 -0.000010576657539562717
          0.00025394065907313745 0.0002382838109666885 -0.00001482771192140575 -0.000018927289127113056 0.00011944518606910037 0.00011240901604558928
          0.00013333784544355964 -0.000010440747216122759 0.0002717541392125433 -0.000012442806810675222 0.00012990006142921118 -0.000018584278406841293
          -0.000015953540687618784 -0.0000044372135921122435 -0.000012012303379549394 0.00006941323380615927 0.00015567968965601864 0.00006690665177000454
          -0.00002431153816040421 -0.000009242876882531448 -0.000030285492908177503 -0.00005123545350382841 -0.00004044784128343082 -0.0000463729254009948
          -0.00003662990377995001 -0.000019017338911631043 -0.000032717822779471106 -0.000023159676127093576 -0.000017920353795553012 -0.000012080904497224765
          -0.000013653207821207047 -0.000022232829860691083 -0.000019082475631648776 -0.000025710536979417498 -0.00000980293864305537 -0.00001845948530032615
          -0.00003602636874422416 -0.00004031089501310703 -0.00004413559908300613 -0.00007745761784150318 -0.0001000809090623278 -0.00007189231310711364
          -0.00003537452315161005 -0.00002075015113778278 -0.00002373269895183938 -0.00006948491223823794 -0.00005483224762770078 -0.000091126589187418
          -0.00007266848569731366 -0.000058948153363047595 -0.00005020631643226636 -0.00004684824192624504 -0.000008225402867712006 -0.000025770979855010978
          -0.00003248874733774443 -0.000022285037518443573 -0.00002961102151122219 -0.0000224151729693034 -0.000009700279503199738 -0.000010330735483954356
          -0.000036923513286879484 -0.000005125062861655039 -0.000013145583511509074 -0.000018702016017613232 -0.000014363288444840805 -0.000025685536035879863
          -0.00003480432136004907 -0.00003522815185252881 -0.00003407693063195438 -0.000017306753478329995 0.00014013205664564765 -0.00002584007024264423
          0.00028586213449610653 -0.0000218767408792786 0.00013890503792346465 -0.000018816040802338563 0.00007784755935968946 -0.000011975009982734264
          0.00016600439931302446 -0.00002412160648201933 0.00007566410140480428 -0.000020908641401806705 -0.000015017222382063267 -0.00002009170297334606
          0.000035011607134372014 0.00009617512169768361 0.00003715410007210096 -0.0000432337311595532 -0.00007216966562673122 -0.0000439168994725847
          -0.000017726881647917025 -0.000014243574748995513 -0.000026076042737077643 -0.000013892942752669057 -0.00002300613718242417 -0.000018461739281327993
          0.00009629210678552269 -0.000008249285150085939 0.00010274800405518647 0.00019280452451697627 -0.000007590368154009042 0.00020216670362760425
          0.00009032306664469303 -0.000012441541128893618 0.00009151736499024565 0.00010548156318668234 -0.000015771346895565586 0.0002208241938417288
          -0.000008922375156039664 0.0001064379605506538 -0.000010108872338765451 -0.000019147750491388393 -0.000012908090291308127 -0.00001702713740270312
          -0.00002203835296121781 -0.000014030532613507063 -0.000018142466572612648 0.00008024112135363026 0.00017957120306011376 0.00008573843710601992
          -0.00005406949608888212 -0.00006261351564962325 -0.000042823086787269204 -0.000030341073113504535 -0.000012192296036772632 -0.000022324524943329038
          -0.00007393299771241146 -0.000015608319709592422 -0.00010648839830729173 -0.000021578645738706825 -0.0000720055923579821 -0.00003016608780281871
          -0.00001935710211053987 -0.000021149706421752512 -0.000047096382249200985 -0.00002936972250822123 -0.000033973128160447175 -0.000011081773198196032
          -0.000055128476901700196 -0.000017387029291882072 0.000003051053687475047 -0.00004311624386232893 -0.00003357987019025899 -0.00001608441436662389
          -0.00001712849929624838 -0.000011372410195775728 -0.00002765517895753078 -0.000022496224534762632 -0.000029452029808751945 -0.00002270449292129939
          -0.000021966296040676347 0.0000020996440743825673 -0.00005531097963817899 -0.0000015089878373508725 -0.00004880947547336589 -0.000028168901475167374
          -0.0000133777781057276 -0.000029215213581679222 -0.000025085227551180367 -0.000028779526042299608 -0.000017077598831960472 -0.000018617743547721943
          -0.000027731685570131503 -0.000009652786481240128 -0.000032209643860525716 -0.00003161043789567941 -0.000037725578462044496 -0.000034856622549206406
          -0.000014626759269109613 -0.000007164192200370678 -0.00003007558049761272 -0.00002242312055500406 -0.00003993996496021168 -0.00005315569805119935
          -0.000060734467194123454 -0.0000435929660014267 -0.00004133833768094064 -0.000028504031206466607 -0.000022588410884871735 -0.000030603894536795906
          -0.000013409260930075106 -0.000026446781820510523 -0.000018770084217578642 -0.000018278132114524226 -0.00004230003783511904 -0.00003748262845615358
          -0.000016626454280910252 -0.000037536189184450564 -0.00003871413165335014 -0.000013823883354469046 -0.00002782136522938572 -0.000025477945560403725
          -0.00003680317347676265 -0.00003870774800152077 -0.00003728389780821573 -0.00001635532544153051 -0.00001937953745567711 -0.00003190615185122425
          -0.000017293807924367854 -0.000008845838939564032 -0.00002656234684383918 -0.00004466115326984266 -0.00003605799481753991 -0.00008765965626444938
          -0.00007981011884083955 -0.00006169792678001329 -0.00006038974308886225 -0.000013826620810064583 -0.000008350433593484752 -0.000025645073364444215
          -0.000015545783574211214 -0.000024817110139352394 -0.000012723700908878754 -0.000014696300452143873 -0.00002075133835610643 -0.00002316412257474809
          0.00015445441518791014 -0.000012836475184130336 0.00030345968154055214 -0.000027679284949400085 0.0001441203370871058 -0.00002484080993436777
          -0.000028083073893458987 -0.000028243638131364435 -0.00002444875708995653 -0.00002513209070365008 -0.000032033442225909425 -0.000052062535939256804
          -0.000050805041148294094 -0.00004274573792173442 -0.000041655648653105004 -0.000025182431098613733 -0.000028524793474815624 -0.000055208324013733545
          -0.000040149095196895246 -0.00004045267600716329 -0.000024860060433340436 -0.000020184671434719803 -0.000033305107894676667 -0.0000256473606725649
          -0.000048534236754438354 -0.00006519987057895804 -0.00003865260537416759 -0.000026279673843276896 -0.00003776112979281265 -0.00003866367270610738
          -0.000019651439737700116 -0.00004264975342138655 -0.000040967299980820826 -0.00005053311222447121 -0.00006212807757677297 -0.00004056498122473329
          -0.00003014375107213141 -0.00006203298351081799 -0.0000483770201373801
        </DataArray>
        <DataArray type="Float64" Name="resid_y" format="ascii" RangeMin="-0.000029878788185916383" RangeMax="0.0000684172888854237">
          -5.897671790603548e-7 -4.69575956882351e-7 -8.835612151404659e-7 -3.5953009784595036e-8 -0.0000017563672117196921 -0.000003448537430202417
          -4.935644288585339e-7 -0.0000027431683722531353 -0.000005823835348060108 -0.0000030165329961591436 -0.0000026100280274936327 -0.000007895036211520712
          0.000003970921270426975 0.000014430054526809455 0.000011210383146595393 0.000009097910910034479 0.000007309950885180105 0.000030234491742650582
          0.000021614433176053716 0.00003124943289505716 0.000011309262159239775 0.000019252755914370145 0.00001777879393387305 0.000024724110664793575
          0.00003020816713839025 0.00005922287380832891 0.000030999838026499194 0.000029242728831223308 0.000037728454126112476 0.000018696161552131385
          -1.3125953026056625e-7 -2.5717286572480777e-7 -0.000003898042890637882 -0.000006563453564621419 -0.000006667854616723007 -0.000010371396451084973
          -0.0000010513651837722876 -0.00000211624869070684 -0.000001889687648824745 -0.0000015108174313306633 -2.0593836099792873e-7 -0.000002864179338079101
          0.0000011742183325946787 0.000001879026432045558 0.000008548105356120245 0.000009290891137313587 0.000006379797712070812 0.00000644650999820362
          4.983654650105029e-7 2.7042254234933144e-7 0.000001066989867628057 -7.924124986458114e-7 0.000004016308978626454 0.0000023960616706382096
          0.000005874542507976373 3.211474348075935e-7 0.000007653810861052608 0.000006081819379839815 0.000007019052635423399 0.000005576763320170285
          8.685975980814858e-7 0.000001976081597554989 -2.3836438219244915e-7 0.000001662154358534132 -2.811558335279185e-7 0.0000041354631320784235
          -0.0000059103032201768615 8.497238672892753e-7 -0.0000056612304159420895 -8.27291668739627e-7 -0.000006077989638601268 -0.000007472060130087662
          0.0000044171793170469376 0.000005186462769668845 0.000004646704513167066 0.000008450204240624537 0.000013415333889061493 0.000010509693949375953
          0.000011150430672093176 0.000015223031762514466 0.000012532485461375087 0.000003220416527865977 -0.0000018120967365323204 -0.0000010991336605575136
          -0.000001057678092896558 0.000008535955568992476 -8.001788036685054e-7 0.0000013352062415098592 0.000012416019819931623 0.000024145090321801843
          0.000012912193208827749 0.00002531208783952514 0.000030377549812284077 0.00003579192014165067 0.0000684172888854237 0.00004184759490806489
          -0.0000047597983354832375 -0.000006298137101568013 -0.000003130497804393253 -0.000005028210784730619 -0.0000012900774186276436 -0.00000397409684259678
          0.0000017735688780835812 0.0000017874527044273864 4.887515512317156e-7 3.4347447244731377e-7 0.000003587289295971935 -0.000002452367636475092
          -0.0000013361945822090715 0.0000015031020839471193 -0.000005643660689461094 -5.177880582816173e-7 -7.746132454772292e-7 -2.1660898989750432e-7
          -8.309558748172911e-7 1.4240403690881503e-8 0.0000032318506322896734 -7.544439440190787e-7 0.0000014216594851393892 0.000005497108868107378
          0.000010262118104016615 0.000010393772848126676 0.000008682279036863584 0.0000036964144695759288 0.000004426649226378903 0.000006584386279250357
          0.0000029367676731405917 0.000005359548344129571 0.000005297828548378805 0.000004594007975708761 0.000006080583329946734 0.000005556503732804044
          0.000005847697978613939 -0.0000010524839942258578 -0.0000016822202546229459 0.000004724793525920541 3.4340330152182394e-7 4.78368341258039e-7
          0.000004023853947628456 0.000002781097328901326 0.000006945223440095374 0.000017206969777739528 7.523556450599739e-7 5.933685756098241e-7
          0.000009632178783787124 0.000010723199768180106 2.1886024113414865e-7 0.0000020152838921361042 0.000010595766604068815 0.000010369224095840499
          0.00000306974580339351 0.0000066126901454468916 0.0000162251450526521 0.000009710353208645939 0.000017674575924091912 0.0000053491481072850955
          0.000009339300060542954 0.00001836166800706779 0.000017419684291541254 0.0000056002957038170376 0.0000018503593214105885 -4.291646019949358e-7
          0.0000015570884815893637 -0.0000026439157180119244 -0.000003814076052960358 0.000006941407507576186 0.000001037779397465577 0.0000025447484988116997
          -0.0000031335149394753903 -0.00000224317371909713 -0.000003749297825331177 -8.856055618636227e-7 -0.0000035691384903495382 -0.0000018865554528846307
          -0.000006076191901238648 -5.689933502452116e-7 7.057338562363458e-7 0.00000239866185505061 0.0000010667200228860196 0.00000497041343472393
          -0.000008196287174831035 -0.000003354901842308848 -0.00001682588668757562 -0.000006685201574784406 -0.000010987317638062183 -0.000009868225486413078
          -0.000005425752193648822 -0.000003853870764606096 -0.0000026684910660150496 -0.00000311835735863214 -0.000006693367589984383 -0.0000068619412884433906
          0.000003482208904389411 4.656259530722018e-7 -0.000012921266918028418 -0.000008719497643278062 -0.0000048181178778881895 -0.0000014500017341510796
          -0.00000398609568870445 -0.000008808513582248684 -0.000007195119122938715 -0.0000032860083377334124 -0.000008066582722291576 -0.000020101107814498448
          -0.00001716568298015808 -0.000007824273955056148 -0.000007360959960008712 -0.000012714793893624926 -0.000013204858566560895 -0.000008166620328289484
          0.000008078382958208452 -0.000002394056219493651 -0.0000031774442454113316 -0.000007876979096124032 0.000008296922980627341 0.000007383286706526271
          0.000020157378771087225 0.000017092181450489852 0.000012739511680936663 0.000010056620413569084 0.000023606113647642313 0.000019209813522248764
          0.00001617870904595405 0.000009944961811308994 -9.352413366885658e-7 -0.000006042578770938667 0.000018854045771431356 0.000011067754371568705
          -0.00001126256151003785 -0.00000609006545425686 -0.000007462147867808022 -0.000002508512304863486 -0.0000051513618796530936 -0.000004902119995243981
          7.840178992482572e-7 2.811758995600877e-7 0.0000032104194791840457 0.0000015593997057666842 0.0000014793854696097675 0.000004434252813347722
          -7.685402352644588e-7 -0.000004088863303084583 0.000007151556264531345 0.000003110607838321955 -0.000001094417206908005 9.100391159394539e-8
          0.000008633371026712253 0.000006379164114601182 0.000006435953398491179 0.000004266717813962624 0.000003905914483941925 0.0000024427880196201124
          0.000005325208302882356 0.000007574096888156995 0.000010557409601659462 0.000005400118629589681 0.0000010056269610092539 0.000006613603623898193
          0.0000019054803641338491 0.000012313170831886738 0.00001580835177793921 -0.0000013770400676960115 -0.000004557920014525152 -0.0000016603962243247339
          6.605143810221349e-7 0.0000018066620739590547 -0.000004463149152587539 0.0000012387660572456098 -1.642892155954631e-8 -3.560144149952066e-7
          -0.0000031534039345217785 -0.0000020021191153348633 -0.0000060977797623229 -0.0000042265123352805065 -0.0000078144938619705 -0.000009470321744010045
          0.0000036017885725846133 -0.00000813963750622218 0.00000526856637762807 -0.0000011456945105230154 -0.000010976695691861105 -0.000006429586633157486
          0.000009284849205176693 0.00001171554672076136 0.000007890825910246424 -0.000007979708079456152 -9.673569172355054e-7 -0.00000431683037432299
          8.46150762628603e-7 -0.00001050348541297829 -0.0000034171091346565236 -0.000007364767410152073 -0.000005405265915206514 -0.000008609218540005237
          -0.000007706955170889984 -0.000004488269255864541 -0.000005033695916624448 0.000008108330638828543 0.0000032608996244042066 0.000004206500545698294
          0.0000016194468731231537 0.000015359593580000636 0.000014273047569280523 -0.0000057711871837493045 -0.000004788780766696449 -0.000003611335921145653
          -0.0000019264783143735364 0.000002722175824025619 0.0000011919921356073893 0.000011583503080253577 0.000005573527104013251 0.000013210903832414772
          -0.0000034694645351801556 -0.000007642076742395837 -0.000006234130053343889 -0.00000658267013392555 -0.0000022395950356711436 -0.000005164002729127898
          0.000002119327593413196 -7.4819539112609e-7 0.0000015378176337422014 -7.202537851448698e-7 0.0000051938979354845555 0.0000012947179121860705
          0.000011414463494275467 0.0000015164266516168312 0.000014220074108929615 0.000009820738756084746 -0.0000032921211546126095 0.000009202068610193737
          0.000006963889428793224 1.3702411744663523e-7 6.922297938593419e-7 -0.0000012638439672463947 0.0000030333541714104573 3.6996226219707107e-7
          0.000019083541681216842 3.087568972576227e-7 0.00001602370325688024 -0.000004585606925011643 -0.000010123557265082073 -0.000007813412780381668
          0.000017071853041332463 0.000014538683582102085 -4.6225706484825935e-7 2.63672228485029e-7 0.00001863216189400968 0.000013756517931270973
          0.000012501669994519765 0.000009398169069890772 0.0000036018348317998217 0.000006457159941131163 0.00001372383353603554 0.00001680020021877643
          -2.5844768763560316e-7 0.0000025700169058069655 8.253322807735136e-7 -5.366030441690539e-7 -0.0000018054730601037988 -5.703240306877827e-7
          9.563250952951755e-7 0.0000010316379515998286 2.6897605798735513e-7 0.000007071530107344293 0.0000019317193466275584 0.00001364062655561521
          0.00001134372955198179 0.0000030518154887429483 0.0000015334798880084141 0.000011020250500435105 0.00001456853975171507 0.000004271812619568993
          0.0000028686660448378268 0.000012526299059473917 0.000020658799491110255 0.000003091775654367329 -0.000005180137748972413 0.000004796785410828008
          0.0000030896308512509685 0.000006329544709641338 0.000007274135793090136 0.000012686829954026979 0.000008752966234218396 0.000002785470158254283
          0.000006967993054971672 0.000011515321013285534 0.000008485289400748941 0.000028573192156350347 0.000007333205234980045 0.00001817529911028737
          0.000011353108275779914 0.000014003413547632182 0.0000047101566333141755 0.000007729632582574586 0.000008134556532480176 0.000008482029806008984
          0.000015160470549942934 0.00001272945593460903 0.00003015057034283508 0.00002807084490302411 0.000023433777850197235 0.000018681469642838067
          0.000008586212685773604 0.000014715341486722794 0.000002845773030068794 0.00000534966558598908 0.000003494326549409628 0.000004437756957754654
          0.00000948303792969174 0.00002361929046936634 0.000008141060976581127 0.000013293690733568592 0.000007947723540485674 0.0000013907535212284716
          0.000002328792549424752 -0.0000025984775534381235 0.0000071436042565001245 0.000008757378235735996 0.000016707998292952997 0.000009230951470711075
          0.000011471875863901249 0.000003961844626844402 0.000013887137474064004 0.000010066926116408803 -0.000003602383028586398 0.000007945952716473942
          6.654919604753493e-7 -0.000004635155649653985 -0.000009786340091297481 -0.000004747559959942388 0.000003876553419726592 -8.447542826015009e-8
          7.887493596514181e-7 -0.0000026205113719535156 0.000002104664190233363 0.000001246262877728152 0.0000020428151470061606 -2.4050789339952194e-7
          0.000015830142405519332 0.00002015309950267885 0.0000032242866709660672 -0.000004329694772427922 0.000011275522760985368 0.000007019614320039752
          -0.000011839444652932346 -0.000003669278780645685 9.243909489635438e-7 7.248954197285051e-7 -0.00001989890525255821 -0.000008122891775826091
          0.0000018638990048353704 0.000006362246975169256 -0.0000033746410796067165 3.0776670630582037e-7 0.0000030782868183738474 0.000009466022215700708
          0.000029041139786904757 0.00001523158112400752 -0.000010657908092306934 0.000054757293698068366 0.00002842284065977807 -0.00001879266794335005
          0.000029907235879020333 0.000017229765084947335 -0.000005807636807225042 0.000008012797431778546 0.000011913763638324998 0.000019484715996168772
          0.000012529382499692349 0.00000939006442263364 0.000004442293951505832 0.000007779256703845105 0.000005817458216560156 0.000006810895625865461
          0.000015159233159357105 -0.000001295693739251924 0.000007568572763960724 4.885493895545601e-7 0.000013873456475434892 0.000005724986114549746
          0.0000072076149976764425 0.0000040394379411529124 6.547065767234517e-7 0.000022198672400775 0.0000011319549588148514 0.000010092459414058619
          0.000006030125864378566 0.00000365840637334483 0.000004162024264408454 0.000002778432582922763 0.000007437558153439161 0.0000036111357239049235
          0.00000468662385138402 -0.0000016797934498055146 0.0000054711544046955746 -0.000001960781547059344 -0.0000013290583704989728 -0.000002100414141862402
          -0.000008138831816080841 -0.000006271303816456119 -0.000005783948217286247 -0.000002440505282636082 -0.000006543015569046616 -0.000003968840693066187
          -0.00000694588515212939 0.0000015513471822653849 -0.000003937164803447446 -0.00000361737853542439 -5.6844911191372693e-8 -0.0000018464939891797575
          -9.749852022475228e-7 -1.7434944591570092e-7 0.0000014386470457077938 0.000007696372692512013 0.0000026437597791407336 0.000007016158857144766
          0.000001271616642251755 0.000004975934234563786 0.0000016354335144932314 0.0000053062001689960225 0.000002994771048500308 7.204546893808256e-7
          0.000002750684139933221 -0.000004444024419320014 0.000003870457510748472 0.000010350880774920128 0.0000016308547361914075 0.000008909105866067302
          0.000001515486677805696 0.000006464753814088269 0.0000013815689854498533 -0.000002879561673375247 -0.000015894423995202467 -0.000004291954058197045
          -0.0000015302380706495866 -5.456989647344146e-7 -5.878603633914514e-8 2.6457902751477434e-7 -0.0000011407255964624233 3.2063333027781277e-7
          -0.0000055192698437177366 -0.000003216795574399441 -0.000003441961367205322 -0.0000032725420828910723 -0.000006903974046594628 -0.0000054207568293566846
          -5.295027734166305e-7 -2.774200563568016e-7 -0.000003116388594398903 0.0000020075923355088177 -0.000006377419749051174 -0.000004857880811200491
          0.0000022485088340233605 0.0000016556683784148263 0.000002208163999331547 0.000003436458178116431 8.063288229443561e-7 0.000002117422810190661
          9.32164914892869e-7 0.0000035284857844500306 0.000003969948126267969 0.000021079686383269902 0.00003153195520882307 0.00002200546407119669
          0.000007447395637028183 2.7695971890201454e-7 0.0000016327813112328345 0.0000011072728588867181 0.000007776800969466237 0.000002281415109800511
          0.0000033896962145091303 0.000005042181862618955 0.0000050599095773483024 0.000011801186225426225 0.000007452781632272601 0.000005981865413768814
          -0.000015118879209775893 -0.00001642809447559984 -0.00001183234340999123 0.000024811405918374885 0.000035143226466721744 0.000019541978162146423
          0.000013247289741828705 0.000010419049399332941 0.000009180533276080538 0.000022549181725749212 0.000008575059155205289 0.000027186204055097696
          0.00000202917895749527 0.000023111314729519494 0.000007255364903584194 0.000016752581577428663 -0.000005621898020620464 0.000005727541805293848
          0.000012581749943889331 -0.0000025889389787536743 0.000004237998660137909 0.000008287953815192678 0.00000476826384671232 0.000003944049117384288
          0.000013421448909464728 0.0000024352611612266095 0.000003934903434900383 -0.000014362648480356621 -0.000028849989288440292 -0.000014712313849904457
          -0.000015312647278942215 -0.000020225264975616553 -0.000011285474056439704 -0.0000037281231453746913 -7.529711786393757e-7 -0.0000031333634083622122
          -0.000004621774191387873 -0.000005340657822922382 -0.000006022084572533063 0.000003125753333264999 -7.796833423293368e-7 0.0000011494779704795868
          4.646335677473254e-7 -9.718296537692978e-7 -7.927991823785069e-8 -0.000011684517619180677 -0.000006167569019694275 -0.000006822823665494394
          -0.00000495859176822969 -0.000004277971977421956 -0.000005402538686145441 0.000022654295785407008 0.000044718392881497315 0.000026936249161967074
          -0.000012730858042137201 -0.000013911276671385586 -0.000007964272914165287 -0.000009288487771001632 -0.000006394149663151941 -0.000009920990489458315
          6.608597121090761e-7 -0.0000021578834121086833 -0.000002616458180106475 5.253389634425729e-7 9.753787305914405e-8 -0.000001904018991643816
          -0.000001494434363651868 -0.0000011032097310668433 -0.0000037351337420371295 -0.000001462201765325185 -0.000003034260152349734 -8.32566464511672e-8
          0.0000025422907372537338 -0.0000016857529634615141 -9.570757672425347e-7 -0.000012087400199250944 -0.000005785266418792748 -0.000007773403955941595
          -0.0000051863707426580506 -0.0000035020666155846387 -0.0000031992870014997763 -0.000002022788635462668 6.019208342201846e-7 -4.0626292833724703e-7
          0.0000182603190436708 0.000005569846263176262 0.000007807154451399886 0.000009041653719129607 0.0000022765758902580646 0.0000013065403625615174
          0.000022085257094520833 0.000010938852677007393 0.000023699337371646534 0.000024368819848186174 0.000018697670877240724 0.00001758310959890097
          0.000005073496851991377 0.000022590325150742552 0.000021155195490122486 -0.000003842077057183979 0.00003181605276485547 0.000028534665300287282
          -7.021643262800081e-7 0.0000210715458387363 0.000025602984971555276 0.000016800893714620513 0.000021777983219234062 0.00001942498799097081
          -0.000008887983035128083 -0.000006241681769676016 -0.00000841192118652273 -0.000013389006699431744 -0.00001160496046577475 -0.000010841649120865715
          0.0000112094661709755 0.0000049514817099033034 0.000030419099234563988 0.000006731467441079171 0.000023431477302723576 0.000009181873435822399
          -0.000010557835820417666 -0.00002390988354137452 -0.00001526954481671436 -0.0000018100748006982803 -0.000008248085017516227 -9.149488279409923e-7
          -0.000004210793494177634 -0.00001884033636668364 -0.000007871657507749208 -0.000003769818201498562 -0.000011827408703913439 -0.000009545433635099743
          0.000006893266294716316 0.000023657996676286486 0.000016915654015209336 0.000003038726165201233 0.000025652224404426605 0.00001207036114252158
          0.000023393747106276175 0.000021270967481772096 0.000023184498026067313 -9.7796994350495e-7 3.0077518070950604e-7 0.000005440387466755514
          0.000005961943734977826 0.000005452237844639357 0.000005448020424601158 2.9934816725418756e-7 0.00000918599962858313 0.000019007464675212943
          0.000024021274644882296 0.0000499130584269078 0.00003099400362406232 -0.000005875288949963586 -0.000015468038611757273 -0.000013311561838487418
          0.000024861846460572795 0.00003361377870626098 0.000019455195378506596 0.000021455710407160267 0.00002412477994188228 0.000016080553248108698
          0.0000032879417052357474 0.0000026934626517517712 7.014560195264807e-7 0.00002143973911838612 0.000008858968004468726 0.00004111053100067097
          0.000029176728340712943 0.000025195088936551258 0.000030700801364677566 -0.000005884669240036056 -0.00000543886814526745 -0.000010832523288123452
          -0.00000800830612775194 -0.000007845799854806768 -0.000004307733431137273 -0.000009517636204069146 -0.000012245526735663037 -0.000010259477431540792
          -6.830082457430844e-7 -0.000002238652408939265 -0.000003181356356428411 -0.00000422025248525415 -0.000003511785270902002 -0.000004628109260467438
          0.00002698339548489609 0.000042496208963384297 0.000025763252574296375 -0.000013921094444230286 -0.000013406766656870461 -0.000029878788185916383
          -0.000023755758942589633 -0.000019632509142650245 -0.000016627878453204237 0.000013018825779691212 0.000027368208799260704 0.000026896082617230976
          0.00003494880188233129 0.000022161322194062805 0.00002107733899149502 -0.000014742987271623709 -0.000013383095054980004 -0.000009316947045033205
          0.00003656640592572275 0.00004918100846746168 0.000027930688662591158 -0.00001678270120412939 -0.00001920335991573152 -0.00001448019498111186
          -0.000010772153909738291 -0.00002156905557076927 -0.00001671694545760105 0.00002532526319876799 0.000003042407513614842 0.000009186242011731405
          0.000007409474486776146 0.000006590523594710018 0.00001578601392458051
        </DataArray>
        <DataArray type="Float64" Name="resid_z" format="ascii" RangeMin="0" RangeMax="0">
          0 0 0 0 0 0
          0 0 0 0 0 0
          0 0 0 0 0 0
          0 0 0 0 0 0
          0 0 0 0 0 0
          0 0 0 0 0 0
          0 0 0 0 0 0
          0 0 0 0 0 0
          0 0 0 0 0 0
          0 0 0 0 0 0
          0 0 0 0 0 0
          0 0 0 0 0 0
          0 0 0 0 0 0
          0 0 0 0 0 0
          0 0 0 0 0 0
          0 0 0 0 0 0
          0 0 0 0 0 0
          0 0 0 0 0 0
          0 0 0 0 0 0
          0 0 0 0 0 0
          0 0 0 0 0 0
          0 0 0 0 0 0
          0 0 0 0 0 0
          0 0 0 0 0 0
          0 0 0 0 0 0
          0 0 0 0 0 0
          0 0 0 0 0 0
          0 0 0 0 0 0
          0 0 0 0 0 0
          0 0 0 0 0 0
          0 0 0 0 0 0
          0 0 0 0 0 0
          0 0 0 0 0 0
          0 0 0 0 0 0
          0 0 0 0 0 0
          0 0 0 0 0 0
          0 0 0 0 0 0
          0 0 0 0 0 0
          0 0 0 0 0 0
          0 0 0 0 0 0
          0 0 0 0 0 0
          0 0 0 0 0 0
          0 0 0 0 0 0
          0 0 0 0 0 0
          0 0 0 0 0 0
          0 0 0 0 0 0
          0 0 0 0 0 0
          0 0 0 0 0 0
          0 0 0 0 0 0
          0 0 0 0 0 0
          0 0 0 0 0 0
          0 0 0 0 0 0
          0 0 0 0 0 0
          0 0 0 0 0 0
          0 0 0 0 0 0
          0 0 0 0 0 0
          0 0 0 0 0 0
          0 0 0 0 0 0
          0 0 0 0 0 0
          0 0 0 0 0 0
          0 0 0 0 0 0
          0 0 0 0 0 0
          0 0 0 0 0 0
          0 0 0 0 0 0
          0 0 0 0 0 0
          0 0 0 0 0 0
          0 0 0 0 0 0
          0 0 0 0 0 0
          0 0 0 0 0 0
          0 0 0 0 0 0
          0 0 0 0 0 0
          0 0 0 0 0 0
          0 0 0 0 0 0
          0 0 0 0 0 0
          0 0 0 0 0 0
          0 0 0 0 0 0
          0 0 0 0 0 0
          0 0 0 0 0 0
          0 0 0 0 0 0
          0 0 0 0 0 0
          0 0 0 0 0 0
          0 0 0 0 0 0
          0 0 0 0 0 0
          0 0 0 0 0 0
          0 0 0 0 0 0
          0 0 0 0 0 0
          0 0 0 0 0 0
          0 0 0 0 0 0
          0 0 0 0 0 0
          0 0 0 0 0 0
          0 0 0 0 0 0
          0 0 0 0 0 0
          0 0 0 0 0 0
          0 0 0 0 0 0
          0 0 0 0 0 0
          0 0 0 0 0 0
          0 0 0 0 0 0
          0 0 0 0 0 0
          0 0 0 0 0 0
          0 0 0 0 0 0
          0 0 0 0 0 0
          0 0 0 0 0 0
          0 0 0 0 0 0
          0 0 0 0 0 0
          0 0 0 0 0 0
          0 0 0 0 0 0
          0 0 0 0 0 0
          0 0 0 0 0 0
          0 0 0 0 0 0
          0 0 0 0 0 0
          0 0 0 0 0 0
          0 0 0 0 0 0
          0 0 0 0 0 0
          0 0 0 0 0 0
          0 0 0 0 0 0
          0 0 0 0 0 0
          0 0 0 0 0 0
          0 0 0 0 0 0
          0 0 0 0 0 0
          0 0 0 0 0 0
          0 0 0 0 0 0
          0 0 0 0 0 0
          0 0 0 0 0 0
          0 0 0 0 0 0
          0 0 0 0 0 0
          0 0 0 0 0 0
          0 0 0 0 0 0
          0 0 0 0 0 0
          0 0 0 0 0 0
          0 0 0 0 0 0
          0 0 0 0 0 0
          0 0 0 0 0 0
          0 0 0
        </DataArray>
        <DataArray type="Float64" Name="stress_zz" format="ascii" RangeMin="-21036.426918479305" RangeMax="18788.333046668224">
          -3675.8767508094797 1904.6228466541452 5183.713550546365 781.6369673281047 -3666.141949554414 1958.3956140542964
          5364.208248753937 849.4415028087375 -3656.407148299348 2012.1683814544479 5544.702946961509 917.2460382893698
          3045.0054930857586 8246.54268455524 3697.6431804547683 -4308.372552252113 3037.012844390677 8115.651247534436
          3596.1193499293463 -4407.168682273465 3029.0201956955952 7984.759810513631 3494.5955194039243 -4505.964812294817
          8167.414955036602 8190.31914030738 8213.22332557816 12742.555499043669 12568.474468785029 12394.393438526387
          3317.1133647603892 -176.41152958836142 3385.652549516205 -102.85263589402518 3454.1917342720208 -29.293742199689177
          1156.094325220689 2073.6463032547067 1183.5681164491905 -1032.829667500798 1144.7129004933317 2027.7458596570632
          1271.285423832922 -1094.1510088178818 1133.3314757659743 1981.8454160594201 1359.0027312166542 -1155.4723501349652
          2159.74506721622 2349.676670080614 4410.56599905684 5853.492159990749 2067.3953436280062 2280.7902255546223
          4564.764616569928 6341.4137655355225 1975.0456200397944 2211.903781028632 4718.963234083017 6829.335371080297
          -3011.261438224862 -1765.7253732170343 2225.849881250763 3515.549482911175 -3343.071011811258 -1795.6134104117734
          2275.7996822925156 3436.67747293976 -3674.8805853976555 -1825.501447606513 2325.749483334268 3357.8054629683443
          5625.072996183357 5960.642123244422 764.6492164114934 5651.129085484568 6157.518886784818 889.2784331551097
          5677.185174785779 6354.395650325215 1013.907649898727 -4443.642560513475 -7078.48714701533 -5937.987049278299
          -1070.932388455155 -4585.370686831502 -7343.863172098413 -5930.828529468788 -1069.7087997181739 -4727.09881314953
          -7609.239197181495 -5923.670009659274 -1068.4852109811923 -3006.6359771587777 -3010.3650363999404 -3014.094095641103
          4278.365786990175 6133.436470794239 4278.497880052999 6226.52743286742 4278.629973115822 6319.618394940604
          -4230.818279056154 -6138.448321288728 1914.591259702319 -4320.452046915336 -6315.404695315041 2261.973348873381
          -4410.0858147745175 -6492.361069341354 2609.355438044443 627.5282303395026 -2221.429150802284 2176.9479229341428
          2272.8536701086614 623.2204236380738 -2310.5103383255537 2083.110192290893 2229.024457337896 618.9126169366453
          -2399.591525848824 1989.2724616476426 2185.1952445671304 1040.1980226443484 2902.5065365055643 -3553.3984577229558
          1234.5952574456328 3389.8113642920584 -3879.547724042919 1428.9924922469165 3877.1161920785526 -4205.6969903628815
          5022.201650671052 -3493.9150498256345 1638.6344633568756 5801.9827982662755 -3556.057489222773 1584.0069302098375
          6581.7639458614985 -3618.1999286199116 1529.379397062798 -2433.581964144597 -9402.165419036379 -6893.3189636765865
          -1625.495001471821 -2390.8006345197527 -9642.536752831555 -6982.854771305405 -1675.2322983388935 -2348.01930489491
          -9882.908086626729 -7072.3905789342225 -1724.969595205967 -2830.8040408829575 1827.3545761880105 -2693.0216360914787
          1771.9129803846379 -2555.2392313 1716.4713845812655 1981.7319236396502 547.5745565025828 -369.5901554500974
          2006.0539927903174 636.2629657320616 -259.0300828669632 2030.3760619409843 724.9513749615405 -148.4700102838288
          -2699.2547946427153 -331.5444314022287 -889.0842177459031 -2413.570764791405 -2685.6483076094214 -439.529904026983
          -913.7789447106225 -2416.831206759274 -2672.041820576128 -547.5153766517376 -938.4736716753418 -2420.0916487271434
          3985.6289274829155 2012.2249131471901 4410.210351378922 2208.162793927238 4834.791775274926 2404.1006747072856
          133.1856725479348 -8140.574093495132 87.88705800790042 -8356.523973080695 42.58844346786615 -8572.47385266626
          -13136.627281677558 -13697.9159248678 -13003.736915443547 -13524.035252874743 -12870.846549209535 -13350.154580881685
          -9914.128177812254 -11660.546913470162 -4722.155238990904 -851.2601043125667 -9851.543623073947 -11512.555181090132
          -4697.707874568931 -902.9884599300331 -9788.959068335638 -11364.563448710103 -4673.260510146958 -954.7168155474997
          977.4685803556379 791.079855267426 944.6319086309826 919.8257721792095 911.7952369063275 1048.571689090993
          -2634.995940341502 -1621.6723562968511 -2693.815226890027 -1724.7117196712384 -2752.634513438552 -1827.7510830456258
          1740.479165577433 1298.490995407852 1861.4297817118072 1222.9882820123548 1982.3803978461815 1147.485568616857
          -1516.0175438556755 -1534.3337152711033 -1552.6498866865313 -2374.136266667041 -2362.89153177295 -2351.646796878859
          -749.790469905202 -68.21370021459822 -496.42062958179724 445.2354180522934 -673.7171168768865 -53.040844405419406
          -489.3834685701049 481.291363800116 -597.6437638485711 -37.867988596240565 -482.34630755841255 517.3473095479385
          2709.1930220733934 4108.967171991526 2106.8128050046207 2854.280787270936 4062.9740334534727 2059.7881792086764
          2999.3685524684774 4016.980894915418 2012.7635534127317 -9079.380585868288 -6351.669609157748 -9325.341006743149
          -6458.707190375393 -9571.30142761801 -6565.744771593038 -2967.147809795568 -2932.157446619341 -2897.167083443114
          3645.295919370189 837.8091595585563 3795.2003813090123 3318.9041799599017 3711.0942057326088 949.0760173392041
          3952.611619721517 3355.84888616222 3776.8924920950285 1060.3428751198526 4110.0228581340225 3392.793592364538
          1856.3350933034344 1822.7958782945886 1789.2566632857433 -2130.844799535255 -2088.788692449123 -2046.7325853629927
          -5399.2781737912155 -5453.617905277619 -5507.957636764023 542.0097841200131 3764.077303519447 684.3092584522809
          4114.160435150279 826.6087327845487 4464.243566781111 -2167.2157758638195 -6092.035653655375 -2166.925628399831
          -6103.993349300856 -2166.635480935843 -6115.951044946335 -5034.396945264769 -3969.415409561952 -5147.175978800428
          -4001.032157910194 -5259.955012336087 -4032.648906258436 2481.964356826972 4498.541985130316 2502.1466122182223
          4585.6281661972625 2522.328867609472 4672.714347264211 4109.33484947818 4067.188021524166 4025.0411935701504
          4789.984651147674 5747.779770581728 4866.544285128658 5837.412485621379 4943.103919109642 5927.04520066103
          -1172.673991209803 3046.1382824066213 -1224.885081895339 2999.333720670636 -1277.0961725808754 2952.5291589346502
          1106.0176424604542 965.1427658048215 824.2678891491888 1612.815218783655 1558.077053325224 1503.338887866793
          -596.143786515398 983.1934483913514 -574.3747273362844 817.0213844541662 -552.6056681571706 650.849320516981
          704.9648464242117 708.7416603339666 712.5184742437214 -2915.907638615983 -2842.964982403903 -2770.0223261918222
          771.2061520519076 874.6948163946188 829.6738753276298 777.5100044091329 888.1415986033523 680.3251924236467
          432.48413425985063 -3977.3189608231746 505.52437623061434 -3980.5451194847 578.5646182013782 -3983.7712781462255
          -3795.7303918733755 -142.08440055997494 -3723.76015253117 -3820.0665026056686 -47.82585113467201 -3963.4379117990347
          -3844.4026133379616 46.43269829063115 -4203.115671066899 -817.5539021397085 7518.326684604675 4679.347762519108
          -3415.785045311366 -845.0112796839655 7490.074450940549 4493.171841864163 -3450.1518766555087 -872.4686572282226
          7461.82221727642 4306.995921209218 -3484.5187079996504 -435.60208793428 215.12533691903644 5233.04041090696
          5844.231787743457 -463.2238630738848 229.91822321475374 5311.834186775032 5882.181486606469 -490.84563821348934
          244.71110951047086 5390.627962643106 5920.13118546948 -3966.2096163265965 -3938.813109496495 -3911.4166026663925
          -1348.2011200649133 2019.4409929402293 -1340.4847276576863 1924.5959873387446 -1332.76833525046 1829.7509817372597
          -3677.0097369192054 -11036.248060656173 -3761.7813689056456 -11526.190960301543 -3846.553000892084 -12016.13385994691
          -6761.649842683324 -6455.29300276072 -6792.493087209364 -6688.707989390346 -6823.336331735402 -6922.122976019971
          4099.806902150191 -4088.0405297115817 4175.669700232327 -4144.02203750619 4251.532498314464 -4200.003545300798
          11188.16705171234 9872.543287798026 11224.472770165989 9697.112725920131 11260.778488619637 9521.682164042237
          782.3374374434514 778.1165929584511 773.8957484734506 2806.5897837179505 2755.4871229349537 2704.384462151957
          -2224.7939441513963 -2241.666040302796 3344.9731533965323 -1289.4451042290548 -2214.7478232593194 -2620.40060982563
          3404.2165394906233 -1216.5323696923392 -2204.7017023672424 -2999.135179348465 3463.4599255847124 -1143.6196351556239
          621.5293969746579 -1631.7236730243158 671.547299939065 -1642.809499138275 721.565202903472 -1653.8953252522335
          18514.323919333074 2975.036286416129 2751.6882637348144 11086.017690648421 18651.32848300065 2927.367502737018
          2798.843192875671 11038.904591329794 18788.333046668224 2879.698719057907 2845.998122016526 10991.791492011165
          3575.133352333067 8304.046539936171 15220.386362339561 3477.444642220278 8234.711931724883 15245.120050232272
          3379.7559321074896 8165.377323513595 15269.853738124977 1240.4542268909165 1193.9521974165848 1147.4501679422526
          1601.332779893898 1770.2542218854528 1657.9757136676844 1722.4013273272906 1714.6186474414706 1674.548432769128
          -579.9057621226408 -1122.3436763912337 -585.6647807342554 -966.7134525080276 -591.4237993458698 -811.0832286248216
          -5440.095491659609 -5371.157147095663 -5302.2188025317155 1535.3803315289556 1575.284528513822 1615.1887254986882
          12329.50036989859 16250.851300899167 12675.103901039318 16525.109769463448 13020.707432180043 16799.36823802772
          2617.331085672997 7821.325488783936 2573.2580372380226 7822.1121701131 2529.1849888030483 7822.898851442265
          6009.566761450292 5415.617736322054 5921.374299408725 5354.957392784757 5833.1818373671595 5294.297049247459
          4902.424792111318 -228.84703354742607 2283.109950036575 4995.798970058891 -225.16346766115635 2378.322302340678
          5089.173148006463 -221.4799017748865 2473.534654644781 933.9286800489285 201.81350042238057 1041.2285787811595
          376.9302779064926 1148.5284775133903 552.0470553906046 -9971.970993925615 -13080.352866999992 -10253.971526706935
          -13535.620160119255 -10535.972059488253 -13990.887453238523 -73.80109883900143 18.58187815699057 -232.89747590733495
          -59.57395872147478 -391.9938529756686 -137.72979559994013 -5438.056018005573 -5424.102947834259 -5410.149877662944
          -2271.1755187940694 1585.7185316266737 5214.874708980119 2985.824779595205 -2476.651884270368 1542.2318962799075
          5480.206659310639 2811.505803721153 -2682.1282497466673 1498.7452609331413 5745.53860964116 2637.1868278471
          5623.903212821623 1084.8727959213454 5958.0567594870245 994.3260642470482 6292.210306152425 903.7793325727507
          -18899.003401758713 -19113.11090386146 -19327.21840596421 4868.7228775302565 4797.489104742584 4726.255331954911
          -7394.961328863878 -7455.252589954784 -7515.543851045689 -1855.2309837938567 -1975.061631657753 -2094.8922795216504
          -5787.215690979775 -5766.002867554317 -5744.790044128859 -7101.344422661567 -5172.35395880842 -7121.796319149501
          -5357.189186449119 -7142.248215637434 -5542.024414089818 -9633.926688701536 -9734.624719892712 -9835.322751083888
          -2410.0389380833235 -2384.247081921297 -2358.4552257592713 14120.79670661427 14219.857441325621 14318.918176036976
          2211.1924861736643 2336.2033778322807 2461.214269490898 -154.52035129296746 3675.296489217326 -209.88490024768538
          3520.042414716495 -265.2494492024032 3364.7883402156635 85.9291539204836 -37.733836257853966 -161.39682643619142
          11095.88926718655 11111.246314651715 11126.60336211688 -12067.419989743188 -12283.220575141195 -12499.021160539201
          9416.09245829802 9696.644229294543 9977.196000291067 -2730.123765091201 -2641.8784574353813 -2553.63314977956
          -4386.559245007183 -4366.766219498678 -4346.973193990172 1437.9466727806923 6315.755577898162 1303.4480159408763
          6480.743795706112 1168.9493591010603 6645.732013514062 3694.7157372373044 11547.128245355998 3660.683106959291
          11597.68396887292 3626.6504766812786 11648.239692389841 -1540.3010197186434 -1452.717363376113 -1365.1337070335835
          6394.40229094586 6410.0112907270595 6425.620290508259 -6202.682674218575 -6284.559914410206 -6366.437154601837
          -1471.7802881916375 -918.2329272849208 -1474.5561973432696 -1001.7944468862205 -1477.332106494901 -1085.3559664875204
          1631.2833805283076 5325.639733999193 6238.513194745497 1205.2213422413274 5153.949501872441 6171.695805395387
          779.1593039543469 4982.25926974569 6104.87841604528 5610.776848888113 48.76851570185439 5466.209926373877
          -238.4545674871712 5321.643003859642 -525.6776506761968 1267.306426322159 1269.5880394380235 1271.8696525538883
          7439.282045087119 7578.232043275536 7717.182041463952 7759.934306618067 7599.262919161377 7438.591531704688
          -1955.4940618695314 -1890.9733786258244 -1826.4526953821176 -11951.262686989241 -11820.004520133067 -11688.746353276892
          4011.027574206658 1489.1964986468247 4222.701866940721 1490.3373566672612 4434.3761596747845 1491.4782146876983
          162.00761907342886 185.85429701743988 209.70097496145098 -2085.2435240928853 -1208.7360847169534 -4016.22160518163
          -2076.618449390542 -1145.1551260444876 -4087.638597080738 -2067.993374688198 -1081.5741673720222 -4159.055588979845
          4394.654637374505 2082.8043174272134 4578.1830514185185 1923.4433014513286 4761.711465462533 1764.0822854754438
          -2549.044560150664 -2994.7716642426094 -2481.198262243972 -3079.2859011988376 -2413.351964337279 -3163.8001381550666
          -4358.049100376841 -4546.709616226746 -4735.37013207665 2075.5070984164736 -4197.072857882238 -3580.2095440323947
          2146.883111089959 -4205.3357597341765 -3539.934851159845 2218.2591237634456 -4213.598661586115 -3499.660158287296
          -4475.603301291732 -4577.6846284197845 -4679.765955547837 3704.478023639503 2998.652539966224 3889.664867509891
          2912.742045642537 4074.851711380278 2826.83155131885 -623.8264628396462 -4705.992280891498 -533.6869186732372
          -4823.641915459675 -443.5473745068275 -4941.2915500278505 -629.7797796367614 -539.1196586794387 -448.4595377221159
          -8607.709814045109 -8719.340239528101 -8830.97066501109 -4963.04001340901 -4975.339835781784 -4987.639658154559
          -4230.874814466244 -4265.128119041238 -4299.3814236162325 -3387.1375775147035 -3413.0616852218773 -3438.9857929290515
          3781.3463000796837 3989.4762985714237 4197.606297063163 792.093190049902 -1427.0995270317464 835.5979459323784
          -1389.000290363376 879.1027018148545 -1350.9010536950059 -18292.051480518483 -20799.109250046386 -18402.306416416795
          -20917.768084262843 -18512.56135231511 -21036.426918479305 -15665.645057939735 -15941.162172757977 -16216.679287576222
          6556.753244994023 496.2852375381967 6630.370762211752 268.7952615583714 6703.988279429481 41.30528557854609
          -4560.285245273146 -4483.917729181483 -4407.55021308982 -6568.414570766801 -62.56710187027836 -6809.865294134415
          -142.9873069105077 -7051.316017502029 -223.40751195073614 -2761.1499681339437 -6597.947078632653 -2671.390414428833
          -6649.472594873261 -2581.6308607237224 -6700.998111113869 -1591.5248980483566 -1721.1782396096814 -1850.8315811710063
          -5268.702426666164 -5406.850453132807 -5544.998479599451 -5035.39505378954 -5057.01911096561 -5078.64316814168
          -77.73923190586606 -120.63314513342914 -163.52705836099227 2556.8968863944565 2497.0022610488804 2437.1076357033044
          1822.2398305305164 1977.3420560909483 2132.44428165138
        </DataArray>
        <DataArray type="Float64" Name="peeq" format="ascii" RangeMin="0" RangeMax="0">
          0 0 0 0 0 0
          0 0 0 0 0 0
          0 0 0 0 0 0
          0 0 0 0 0 0
          0 0 0 0 0 0
          0 0 0 0 0 0
          0 0 0 0 0 0
          0 0 0 0 0 0
          0 0 0 0 0 0
          0 0 0 0 0 0
          0 0 0 0 0 0
          0 0 0 0 0 0
          0 0 0 0 0 0
          0 0 0 0 0 0
          0 0 0 0 0 0
          0 0 0 0 0 0
          0 0 0 0 0 0
          0 0 0 0 0 0
          0 0 0 0 0 0
          0 0 0 0 0 0
          0 0 0 0 0 0
          0 0 0 0 0 0
          0 0 0 0 0 0
          0 0 0 0 0 0
          0 0 0 0 0 0
          0 0 0 0 0 0
          0 0 0 0 0 0
          0 0 0 0 0 0
          0 0 0 0 0 0
          0 0 0 0 0 0
          0 0 0 0 0 0
          0 0 0 0 0 0
          0 0 0 0 0 0
          0 0 0 0 0 0
          0 0 0 0 0 0
          0 0 0 0 0 0
          0 0 0 0 0 0
          0 0 0 0 0 0
          0 0 0 0 0 0
          0 0 0 0 0 0
          0 0 0 0 0 0
          0 0 0 0 0 0
          0 0 0 0 0 0
          0 0 0 0 0 0
          0 0 0 0 0 0
          0 0 0 0 0 0
          0 0 0 0 0 0
          0 0 0 0 0 0
          0 0 0 0 0 0
          0 0 0 0 0 0
          0 0 0 0 0 0
          0 0 0 0 0 0
          0 0 0 0 0 0
          0 0 0 0 0 0
          0 0 0 0 0 0
          0 0 0 0 0 0
          0 0 0 0 0 0
          0 0 0 0 0 0
          0 0 0 0 0 0
          0 0 0 0 0 0
          0 0 0 0 0 0
          0 0 0 0 0 0
          0 0 0 0 0 0
          0 0 0 0 0 0
          0 0 0 0 0 0
          0 0 0 0 0 0
          0 0 0 0 0 0
          0 0 0 0 0 0
          0 0 0 0 0 0
          0 0 0 0 0 0
          0 0 0 0 0 0
          0 0 0 0 0 0
          0 0 0 0 0 0
          0 0 0 0 0 0
          0 0 0 0 0 0
          0 0 0 0 0 0
          0 0 0 0 0 0
          0 0 0 0 0 0
          0 0 0 0 0 0
          0 0 0 0 0 0
          0 0 0 0 0 0
          0 0 0 0 0 0
          0 0 0 0 0 0
          0 0 0 0 0 0
          0 0 0 0 0 0
          0 0 0 0 0 0
          0 0 0 0 0 0
          0 0 0 0 0 0
          0 0 0 0 0 0
          0 0 0 0 0 0
          0 0 0 0 0 0
          0 0 0 0 0 0
          0 0 0 0 0 0
          0 0 0 0 0 0
          0 0 0 0 0 0
          0 0 0 0 0 0
          0 0 0 0 0 0
          0 0 0 0 0 0
          0 0 0 0 0 0
          0 0 0 0 0 0
          0 0 0 0 0 0
          0 0 0 0 0 0
          0 0 0 0 0 0
          0 0 0 0 0 0
          0 0 0 0 0 0
          0 0 0 0 0 0
          0 0 0 0 0 0
          0 0 0 0 0 0
          0 0 0 0 0 0
          0 0 0 0 0 0
          0 0 0 0 0 0
          0 0 0 0 0 0
          0 0 0 0 0 0
          0 0 0 0 0 0
          0 0 0 0 0 0
          0 0 0 0 0 0
          0 0 0 0 0 0
          0 0 0 0 0 0
          0 0 0 0 0 0
          0 0 0 0 0 0
          0 0 0 0 0 0
          0 0 0 0 0 0
          0 0 0 0 0 0
          0 0 0 0 0 0
          0 0 0 0 0 0
          0 0 0 0 0 0
          0 0 0 0 0 0
          0 0 0 0 0 0
          0 0 0 0 0 0
          0 0 0 0 0 0
          0 0 0 0 0 0
          0 0 0 0 0 0
          0 0 0
        </DataArray>
        <DataArray type="Float64" Name="pe11" format="ascii" RangeMin="0" RangeMax="0">
          0 0 0 0 0 0
          0 0 0 0 0 0
          0 0 0 0 0 0
          0 0 0 0 0 0
          0 0 0 0 0 0
          0 0 0 0 0 0
          0 0 0 0 0 0
          0 0 0 0 0 0
          0 0 0 0 0 0
          0 0 0 0 0 0
          0 0 0 0 0 0
          0 0 0 0 0 0
          0 0 0 0 0 0
          0 0 0 0 0 0
          0 0 0 0 0 0
          0 0 0 0 0 0
          0 0 0 0 0 0
          0 0 0 0 0 0
          0 0 0 0 0 0
          0 0 0 0 0 0
          0 0 0 0 0 0
          0 0 0 0 0 0
          0 0 0 0 0 0
          0 0 0 0 0 0
          0 0 0 0 0 0
          0 0 0 0 0 0
          0 0 0 0 0 0
          0 0 0 0 0 0
          0 0 0 0 0 0
          0 0 0 0 0 0
          0 0 0 0 0 0
          0 0 0 0 0 0
          0 0 0 0 0 0
          0 0 0 0 0 0
          0 0 0 0 0 0
          0 0 0 0 0 0
          0 0 0 0 0 0
          0 0 0 0 0 0
          0 0 0 0 0 0
          0 0 0 0 0 0
          0 0 0 0 0 0
          0 0 0 0 0 0
          0 0 0 0 0 0
          0 0 0 0 0 0
          0 0 0 0 0 0
          0 0 0 0 0 0
          0 0 0 0 0 0
          0 0 0 0 0 0
          0 0 0 0 0 0
          0 0 0 0 0 0
          0 0 0 0 0 0
          0 0 0 0 0 0
          0 0 0 0 0 0
          0 0 0 0 0 0
          0 0 0 0 0 0
          0 0 0 0 0 0
          0 0 0 0 0 0
          0 0 0 0 0 0
          0 0 0 0 0 0
          0 0 0 0 0 0
          0 0 0 0 0 0
          0 0 0 0 0 0
          0 0 0 0 0 0
          0 0 0 0 0 0
          0 0 0 0 0 0
          0 0 0 0 0 0
          0 0 0 0 0 0
          0 0 0 0 0 0
          0 0 0 0 0 0
          0 0 0 0 0 0
          0 0 0 0 0 0
          0 0 0 0 0 0
          0 0 0 0 0 0
          0 0 0 0 0 0
          0 0 0 0 0 0
          0 0 0 0 0 0
          0 0 0 0 0 0
          0 0 0 0 0 0
          0 0 0 0 0 0
          0 0 0 0 0 0
          0 0 0 0 0 0
          0 0 0 0 0 0
          0 0 0 0 0 0
          0 0 0 0 0 0
          0 0 0 0 0 0
          0 0 0 0 0 0
          0 0 0 0 0 0
          0 0 0 0 0 0
          0 0 0 0 0 0
          0 0 0 0 0 0
          0 0 0 0 0 0
          0 0 0 0 0 0
          0 0 0 0 0 0
          0 0 0 0 0 0
          0 0 0 0 0 0
          0 0 0 0 0 0
          0 0 0 0 0 0
          0 0 0 0 0 0
          0 0 0 0 0 0
          0 0 0 0 0 0
          0 0 0 0 0 0
          0 0 0 0 0 0
          0 0 0 0 0 0
          0 0 0 0 0 0
          0 0 0 0 0 0
          0 0 0 0 0 0
          0 0 0 0 0 0
          0 0 0 0 0 0
          0 0 0 0 0 0
          0 0 0 0 0 0
          0 0 0 0 0 0
          0 0 0 0 0 0
          0 0 0 0 0 0
          0 0 0 0 0 0
          0 0 0 0 0 0
          0 0 0 0 0 0
          0 0 0 0 0 0
          0 0 0 0 0 0
          0 0 0 0 0 0
          0 0 0 0 0 0
          0 0 0 0 0 0
          0 0 0 0 0 0
          0 0 0 0 0 0
          0 0 0 0 0 0
          0 0 0 0 0 0
          0 0 0 0 0 0
          0 0 0 0 0 0
          0 0 0 0 0 0
          0 0 0 0 0 0
          0 0 0 0 0 0
          0 0 0 0 0 0
          0 0 0 0 0 0
          0 0 0
        </DataArray>
        <DataArray type="Float64" Name="pe22" format="ascii" RangeMin="0" RangeMax="0">
          0 0 0 0 0 0
          0 0 0 0 0 0
          0 0 0 0 0 0
          0 0 0 0 0 0
          0 0 0 0 0 0
          0 0 0 0 0 0
          0 0 0 0 0 0
          0 0 0 0 0 0
          0 0 0 0 0 0
          0 0 0 0 0 0
          0 0 0 0 0 0
          0 0 0 0 0 0
          0 0 0 0 0 0
          0 0 0 0 0 0
          0 0 0 0 0 0
          0 0 0 0 0 0
          0 0 0 0 0 0
          0 0 0 0 0 0
          0 0 0 0 0 0
          0 0 0 0 0 0
          0 0 0 0 0 0
          0 0 0 0 0 0
          0 0 0 0 0 0
          0 0 0 0 0 0
          0 0 0 0 0 0
          0 0 0 0 0 0
          0 0 0 0 0 0
          0 0 0 0 0 0
          0 0 0 0 0 0
          0 0 0 0 0 0
          0 0 0 0 0 0
          0 0 0 0 0 0
          0 0 0 0 0 0
          0 0 0 0 0 0
          0 0 0 0 0 0
          0 0 0 0 0 0
          0 0 0 0 0 0
          0 0 0 0 0 0
          0 0 0 0 0 0
          0 0 0 0 0 0
          0 0 0 0 0 0
          0 0 0 0 0 0
          0 0 0 0 0 0
          0 0 0 0 0 0
          0 0 0 0 0 0
          0 0 0 0 0 0
          0 0 0 0 0 0
          0 0 0 0 0 0
          0 0 0 0 0 0
          0 0 0 0 0 0
          0 0 0 0 0 0
          0 0 0 0 0 0
          0 0 0 0 0 0
          0 0 0 0 0 0
          0 0 0 0 0 0
          0 0 0 0 0 0
          0 0 0 0 0 0
          0 0 0 0 0 0
          0 0 0 0 0 0
          0 0 0 0 0 0
          0 0 0 0 0 0
          0 0 0 0 0 0
          0 0 0 0 0 0
          0 0 0 0 0 0
          0 0 0 0 0 0
          0 0 0 0 0 0
          0 0 0 0 0 0
          0 0 0 0 0 0
          0 0 0 0 0 0
          0 0 0 0 0 0
          0 0 0 0 0 0
          0 0 0 0 0 0
          0 0 0 0 0 0
          0 0 0 0 0 0
          0 0 0 0 0 0
          0 0 0 0 0 0
          0 0 0 0 0 0
          0 0 0 0 0 0
          0 0 0 0 0 0
          0 0 0 0 0 0
          0 0 0 0 0 0
          0 0 0 0 0 0
          0 0 0 0 0 0
          0 0 0 0 0 0
          0 0 0 0 0 0
          0 0 0 0 0 0
          0 0 0 0 0 0
          0 0 0 0 0 0
          0 0 0 0 0 0
          0 0 0 0 0 0
          0 0 0 0 0 0
          0 0 0 0 0 0
          0 0 0 0 0 0
          0 0 0 0 0 0
          0 0 0 0 0 0
          0 0 0 0 0 0
          0 0 0 0 0 0
          0 0 0 0 0 0
          0 0 0 0 0 0
          0 0 0 0 0 0
          0 0 0 0 0 0
          0 0 0 0 0 0
          0 0 0 0 0 0
          0 0 0 0 0 0
          0 0 0 0 0 0
          0 0 0 0 0 0
          0 0 0 0 0 0
          0 0 0 0 0 0
          0 0 0 0 0 0
          0 0 0 0 0 0
          0 0 0 0 0 0
          0 0 0 0 0 0
          0 0 0 0 0 0
          0 0 0 0 0 0
          0 0 0 0 0 0
          0 0 0 0 0 0
          0 0 0 0 0 0
          0 0 0 0 0 0
          0 0 0 0 0 0
          0 0 0 0 0 0
          0 0 0 0 0 0
          0 0 0 0 0 0
          0 0 0 0 0 0
          0 0 0 0 0 0
          0 0 0 0 0 0
          0 0 0 0 0 0
          0 0 0 0 0 0
          0 0 0 0 0 0
          0 0 0 0 0 0
          0 0 0 0 0 0
          0 0 0 0 0 0
          0 0 0 0 0 0
          0 0 0
        </DataArray>
        <DataArray type="Float64" Name="pe33" format="ascii" RangeMin="0" RangeMax="0">
          0 0 0 0 0 0
          0 0 0 0 0 0
          0 0 0 0 0 0
          0 0 0 0 0 0
          0 0 0 0 0 0
          0 0 0 0 0 0
          0 0 0 0 0 0
          0 0 0 0 0 0
          0 0 0 0 0 0
          0 0 0 0 0 0
          0 0 0 0 0 0
          0 0 0 0 0 0
          0 0 0 0 0 0
          0 0 0 0 0 0
          0 0 0 0 0 0
          0 0 0 0 0 0
          0 0 0 0 0 0
          0 0 0 0 0 0
          0 0 0 0 0 0
          0 0 0 0 0 0
          0 0 0 0 0 0
          0 0 0 0 0 0
          0 0 0 0 0 0
          0 0 0 0 0 0
          0 0 0 0 0 0
          0 0 0 0 0 0
          0 0 0 0 0 0
          0 0 0 0 0 0
          0 0 0 0 0 0
          0 0 0 0 0 0
          0 0 0 0 0 0
          0 0 0 0 0 0
          0 0 0 0 0 0
          0 0 0 0 0 0
          0 0 0 0 0 0
          0 0 0 0 0 0
          0 0 0 0 0 0
          0 0 0 0 0 0
          0 0 0 0 0 0
          0 0 0 0 0 0
          0 0 0 0 0 0
          0 0 0 0 0 0
          0 0 0 0 0 0
          0 0 0 0 0 0
          0 0 0 0 0 0
          0 0 0 0 0 0
          0 0 0 0 0 0
          0 0 0 0 0 0
          0 0 0 0 0 0
          0 0 0 0 0 0
          0 0 0 0 0 0
          0 0 0 0 0 0
          0 0 0 0 0 0
          0 0 0 0 0 0
          0 0 0 0 0 0
          0 0 0 0 0 0
          0 0 0 0 0 0
          0 0 0 0 0 0
          0 0 0 0 0 0
          0 0 0 0 0 0
          0 0 0 0 0 0
          0 0 0 0 0 0
          0 0 0 0 0 0
          0 0 0 0 0 0
          0 0 0 0 0 0
          0 0 0 0 0 0
          0 0 0 0 0 0
          0 0 0 0 0 0
          0 0 0 0 0 0
          0 0 0 0 0 0
          0 0 0 0 0 0
          0 0 0 0 0 0
          0 0 0 0 0 0
          0 0 0 0 0 0
          0 0 0 0 0 0
          0 0 0 0 0 0
          0 0 0 0 0 0
          0 0 0 0 0 0
          0 0 0 0 0 0
          0 0 0 0 0 0
          0 0 0 0 0 0
          0 0 0 0 0 0
          0 0 0 0 0 0
          0 0 0 0 0 0
          0 0 0 0 0 0
          0 0 0 0 0 0
          0 0 0 0 0 0
          0 0 0 0 0 0
          0 0 0 0 0 0
          0 0 0 0 0 0
          0 0 0 0 0 0
          0 0 0 0 0 0
          0 0 0 0 0 0
          0 0 0 0 0 0
          0 0 0 0 0 0
          0 0 0 0 0 0
          0 0 0 0 0 0
          0 0 0 0 0 0
          0 0 0 0 0 0
          0 0 0 0 0 0
          0 0 0 0 0 0
          0 0 0 0 0 0
          0 0 0 0 0 0
          0 0 0 0 0 0
          0 0 0 0 0 0
          0 0 0 0 0 0
          0 0 0 0 0 0
          0 0 0 0 0 0
          0 0 0 0 0 0
          0 0 0 0 0 0
          0 0 0 0 0 0
          0 0 0 0 0 0
          0 0 0 0 0 0
          0 0 0 0 0 0
          0 0 0 0 0 0
          0 0 0 0 0 0
          0 0 0 0 0 0
          0 0 0 0 0 0
          0 0 0 0 0 0
          0 0 0 0 0 0
          0 0 0 0 0 0
          0 0 0 0 0 0
          0 0 0 0 0 0
          0 0 0 0 0 0
          0 0 0 0 0 0
          0 0 0 0 0 0
          0 0 0 0 0 0
          0 0 0 0 0 0
          0 0 0 0 0 0
          0 0 0 0 0 0
          0 0 0 0 0 0
          0 0 0 0 0 0
          0 0 0
        </DataArray>
        <DataArray type="Float64" Name="disp_x" format="ascii" RangeMin="0.000011869164551316662" RangeMax="0.000023237140998203542">
          0.000019295185388403645 0.000019076373708597754 0.000019631099222565377 0.00001998663372609029 0.000019295190527373613 0.000019076378161099337
          0.000019631104795913062 0.000019986638806709168 0.000019295207236196774 0.000019076391127462275 0.00001963112287541033 0.00001998665571638835
          0.000013192640273054744 0.000012614805664736753 0.000012546782477958375 0.000013125771502239558 0.000013192645558344455 0.000012614811033764517
          0.000012546787525565562 0.000013125775906578825 0.000013192662821927776 0.000012614827665222592 0.00001254680164485682 0.000013125791133357922
          0.000011992861746306777 0.00001199286648572341 0.000011992881832648025 0.000012086026416669488 0.000012086032791827824 0.000012086050908776353
          0.000020203153693355155 0.00002057294939486974 0.000020203161202634296 0.00002057295649814542 0.00002020318248410055 0.00002057297777848816
          0.000018246490057994802 0.000018034879948316737 0.000018611788519888204 0.000018655345719309642 0.000018246495834702135 0.000018034884634540555
          0.000018611794174858646 0.00001865535092085835 0.000018246513314236245 0.000018034900160597358 0.000018611812028574046 0.000018655368941561607
          0.00001665670554528523 0.00001658121297935527 0.00001707437192580649 0.000017196726158170317 0.00001665670934253595 0.000016581217357107654
          0.000017074375908777945 0.000017196730385918934 0.000016656721805934655 0.00001658123233348872 0.000017074387065040287 0.000017196741898913684
          0.000014962682682852692 0.00001550525340329323 0.00001554113771299229 0.000014961780520391396 0.000014962688626815206 0.00001550525805017678
          0.000015541142245558735 0.000014961785635067682 0.00001496270743253681 0.000015505271017463786 0.00001554115659468197 0.000014961802248257005
          0.00001768279210121342 0.000017489343297239646 0.000018354035146384403 0.0000176827961725142 0.000017489347073451147 0.00001835404023170526
          0.000017682808398386397 0.000017489359723543482 0.000018354056985732638 0.00001512833268526986 0.000015649837054425934 0.000015848779190668142
          0.00001516079371088707 0.000015128336210866728 0.000015649840592194303 0.000015848783356700875 0.000015160797517057177 0.00001512834811952489
          0.00001564985109801364 0.000015848797410755195 0.000015160809234259948 0.000014493823183314343 0.000014493827156279446 0.000014493837699643857
          0.000019301283249219683 0.000019835736929463113 0.000019301288906787854 0.000019835743088694573 0.00001930130552187828 0.000019835761110627938
          0.000018385303177873673 0.0000185386099339596 0.000019000665224088367 0.000018385306891597812 0.00001853861516240428 0.000019000669280934263
          0.000018385315586196943 0.000018538629342366165 0.00001900068248445009 0.000018468004252564985 0.000017996171842998647 0.000017532225977051695
          0.00001804703384362747 0.000018468009219952218 0.00001799617710153813 0.00001753223087681526 0.000018047038834462025 0.000018468025183239127
          0.000017996193973156404 0.000017532247260653305 0.00001804705505563611 0.000017514235842422894 0.000017528819158082277 0.000017001422240612187
          0.00001751424028319511 0.000017528824523538816 0.000017001426238136944 0.000017514252609538788 0.00001752883905450818 0.0000170014383025909
          0.000017522871082335802 0.000017854235498144367 0.00001744598825917942 0.000017522877218860827 0.000017854241270541576 0.000017445992158643047
          0.00001752289567235837 0.00001785425852007295 0.00001744600515255071 0.00001749171218760404 0.000016847338932171198 0.000016496352743446075
          0.00001698272850603106 0.00001749171731271971 0.00001684734376294703 0.00001649635751238076 0.000016982733559430624 0.00001749173199573248
          0.000016847356930018165 0.00001649637423043643 0.00001698274739436126 0.000015756067098126215 0.00001518490383105309 0.0000157560721165196
          0.000015184908136063308 0.00001575608769066844 0.000015184920534975905 0.000018556505935906847 0.000019193124680092535 0.00001919082991866668
          0.000018556511367871956 0.000019193130470330073 0.000019190836898171926 0.00001855652798111776 0.000019193149149619505 0.00001919085624179913
          0.0000196536742660904 0.00001932401436856079 0.000018805496459262352 0.000019063882595418706 0.000019653680649213407 0.000019324019831698055
          0.000018805502348790628 0.000019063889484284056 0.000019653701020962087 0.000019324037687435722 0.000018805520890152565 0.000019063906671602082
          0.000022143088167223364 0.00002147987901774686 0.000022143095098931908 0.00002147988527189619 0.000022143116979244526 0.000021479904816466508
          0.00001970515346022379 0.000019806624477636543 0.000019705157674923236 0.00001980663000794343 0.000019705171888172327 0.000019806644299929794
          0.000012374690770417766 0.000012599468481185874 0.000012374701076337092 0.000012599477109859384 0.000012374728487805522 0.000012599505151084768
          0.0000213594246798999 0.000021654113320128088 0.00002114030574217748 0.00002077187531865526 0.000021359433153463093 0.00002165412193375277
          0.00002114031449476913 0.00002077188369035461 0.000021359457708979367 0.000021654148800242157 0.00002114033746385753 0.000020771909073712386
          0.00001775288085225928 0.00001841975957979326 0.000017752885143642385 0.000018419764442159168 0.000017752898073594907 0.00001841977971246031
          0.000015939521672225662 0.000015456639182967177 0.000015939525390294067 0.00001545664254348845 0.000015939534908819862 0.00001545665307723923
          0.000016271774700590872 0.000015693554692163777 0.00001627177861993481 0.000015693558125553844 0.000016271790417297566 0.000015693567963386693
          0.000020997833082863554 0.000020997840980785362 0.000020997862246163757 0.000020518477737928667 0.000020518484162968983 0.000020518504513603304
          0.000019082704472935344 0.000019759207062138538 0.000019822932240807544 0.00001914624035592792 0.000019082711047733772 0.000019759212853818008
          0.000019822939797205065 0.00001914624666067666 0.000019082728947994256 0.000019759231933652387 0.000019822960242697403 0.00001914626510325245
          0.000018141719606655664 0.000017740849496152627 0.000017564430352407542 0.0000181417259266164 0.000017740855325175107 0.000017564435485236563
          0.000018141741678494412 0.00001774087161332812 0.000017564451644353776 0.000016295839845868925 0.000016310679271224502 0.000016295845120642734
          0.00001631068444511027 0.00001629585985573988 0.000016310698660079675 0.000019828162716430652 0.000019828170364471246 0.000019828191362949975
          0.000013829756959625844 0.00001388040452649597 0.000014441768511012785 0.000014403587857635206 0.000013829763047770378 0.000013880410485140976
          0.000014441775064204824 0.000014403594250482007 0.000013829783038107304 0.000013880426210834989 0.000014441796336442386 0.000014403612446565292
          0.000018488084242548795 0.00001848809072149746 0.00001848810727683762 0.000019866666910846222 0.00001986667477927638 0.000019866695164979213
          0.00001905915023051838 0.000019059156773992237 0.00001905917541164848 0.000020422642184021152 0.00002098544920971623 0.00002042264818123279
          0.000020985455397568613 0.000020422661843382174 0.000020985473596288125 0.000020276432685587728 0.00002048263638953111 0.000020276440074748293
          0.000020482644053917994 0.00002027646154461438 0.00002048266611756051 0.000016681502958995834 0.000016849697213597095 0.000016681506938006914
          0.000016849701977419055 0.000016681517828177353 0.00001684971405212905 0.000018907505299127227 0.000019402789714594223 0.000018907511895452097
          0.000019402795734312723 0.000018907528509796816 0.00001940281305626703 0.000017181529472891448 0.000017181534868029926 0.000017181550092578846
          0.000019893285971264986 0.00002038784841986162 0.00001989329356014808 0.000020387856867483665 0.000019893312370320925 0.000020387880158363967
          0.00001845392761589418 0.000018821956399938488 0.000018453933879856555 0.0000188219624106681 0.000018453949560370913 0.00001882197762519251
          0.000015838977969692235 0.0000158389813917875 0.000015838990560310236 0.00001781628084730959 0.00001781628601436788 0.000017816300447595026
          0.000018147733742862802 0.000018504482722690875 0.000018147740236551645 0.000018504488868346928 0.000018147757662090213 0.00001850450563554355
          0.00001643959808015941 0.00001643960247851502 0.00001643961458570007 0.00002053789778435396 0.000020537906014159767 0.00002053792805457989
          0.000016984306089563965 0.00001708965254983275 0.000016984310946070814 0.000017089658065919775 0.00001698432473382936 0.000017089671687113897
          0.00001697193885271797 0.000016351703078491832 0.00001697194465416613 0.00001635170766495544 0.000016971958489966386 0.000016351720514770067
          0.00001799862994585136 0.00001803826546262432 0.00001854755114100613 0.00001799863667924033 0.000018038271828014202 0.000018547557688068903
          0.000017998654891957168 0.00001803829098784941 0.000018547573466579498 0.000015612105651875854 0.000015061761493656254 0.000015165469726705699
          0.000015728259217025126 0.000015612110684508524 0.000015061766775288822 0.000015165475285067723 0.000015728264767325454 0.000015612126554133583
          0.000015061783352842715 0.000015165491781019022 0.00001572828094220402 0.000014130521766291987 0.000013820560076434513 0.000013237959916007181
          0.000013538539741860987 0.00001413052808302119 0.000013820566658963657 0.000013237966384735385 0.000013538546381733118 0.000014130547360743373
          0.000013820586160381002 0.000013237987136742845 0.000013538567908850426 0.000016380125713999116 0.000016380131212674697 0.00001638014409651111
          0.000015375646175498455 0.00001483849974316969 0.000015375651165967627 0.000014838504962636901 0.000015375664957872376 0.000014838520560098382
          0.000016586424055748456 0.000016354102992557838 0.000016586427038335747 0.000016354106353879333 0.000016586436032149067 0.000016354115257244507
          0.00001512886185544226 0.00001457449931406534 0.00001512886670031698 0.000014574504519857625 0.000015128880440625457 0.000014574520058928889
          0.000013754799591584539 0.000014351138146418952 0.000013754806418781897 0.000014351144879355897 0.00001375482739077743 0.000014351163744600209
          0.000013162579032078746 0.00001300101758632162 0.00001316258573857585 0.000013001024639090333 0.000013162602782725109 0.000013001043523006643
          0.000017428061042962294 0.000017428067259322294 0.000017428082423839967 0.000017906531692918196 0.000017906537922606643 0.00001790655417528203
          0.00001533488685615745 0.000014931549145316542 0.00001452911617676979 0.000014713351982190705 0.00001533489222349797 0.000014931555772833228
          0.000014529123012333974 0.000014713358038798944 0.00001533490862846954 0.000014931574976434216 0.000014529143062796418 0.000014713374835307639
          0.00001591438690336601 0.000016498873101171135 0.00001591439018690724 0.000016498877103142995 0.00001591439986567063 0.000016498889494691953
          0.000011970630302927048 0.000012183532252627446 0.00001273266695542926 0.00001255959443466519 0.0000119706418470647 0.000012183543272363279
          0.000012732676129324 0.000012559605036387452 0.000011970678783775646 0.000012183575899572375 0.000012732704415426598 0.000012559638382885585
          0.000012730218400663016 0.00001226940982542674 0.000012517538691017253 0.000012730226141738478 0.000012269417059683988 0.000012517545947136134
          0.000012730246476092059 0.000012269440001932058 0.000012517568622849834 0.000013928416902446635 0.000013928422611581034 0.000013928438081175327
          0.00001846788238507619 0.000018924864234132172 0.000018467889572913393 0.000018924871581837773 0.000018467908507188853 0.000018924890005145988
          0.00001641117059656897 0.000015965979783625767 0.000016411176595104787 0.000015965986078571055 0.000016411191772509107 0.00001596600318392323
          0.000014924524724092666 0.000014924531244755075 0.000014924548967262608 0.00001726346976716949 0.000017263475659723276 0.000017263489723376415
          0.000014442543320967628 0.000014719867897192879 0.000014442548656575501 0.000014719873300998053 0.000014442562096047066 0.000014719891446596947
          0.000013287664008448701 0.000013149345274054433 0.000013287672852966132 0.000013149354276548867 0.00001328769653092901 0.000013149379095623747
          0.00001433070428876855 0.000014922149662738478 0.000014330710854135426 0.000014922155532947795 0.000014330729547092752 0.00001492217187962617
          0.000015514017621492313 0.000016116663302105596 0.000016106272186252074 0.00001551402323878674 0.00001611666827220978 0.000016106276706406348
          0.00001551403730513197 0.000016116682961887168 0.000016106290307346472 0.000016075096308117366 0.00001602921854581384 0.000016075102341008526
          0.000016029224575920308 0.00001607511799045531 0.00001602924066692052 0.000013332714455231449 0.000013225128637622796 0.000013332722143603884
          0.000013225136550765906 0.00001333274298616386 0.000013225158730347891 0.000016725582290699002 0.000016698875387767935 0.000016725587698008016
          0.0000166988794524787 0.00001672560054205639 0.00001669888990539941 0.000012895507285197773 0.000012895515711508187 0.000012895539270148267
          0.000020607691679385935 0.00002123471292208605 0.000021449960269389576 0.000020855027792288374 0.00002060769660148175 0.00002123471671723077
          0.000021449964487926703 0.000020855030925857415 0.000020607709519949054 0.00002123473088709128 0.000021449976103201953 0.00002085504351754743
          0.000022045245039317846 0.00002182654734878254 0.000022045250865607147 0.000021826553267681934 0.000022045265464279458 0.0000218265694887002
          0.000012910619142753995 0.000012910628306600763 0.000012910656228014686 0.00001729180964098328 0.000017291813419720253 0.000017291820911422143
          0.000015491935929213306 0.000015491941814771714 0.00001549195922777228 0.000013695116502135242 0.000013695120525704638 0.0000136951299608936
          0.000015685518166064357 0.000015685524352127913 0.000015685540064324163 0.000016038660986437477 0.000016528223982036865 0.000016038666921392065
          0.000016528229537185427 0.00001603868180448742 0.000016528245861359647 0.000016181978760281668 0.000016181985434653816 0.00001618200270744937
          0.00002102911447895716 0.00002102912314356239 0.000021029147692436644 0.000012619728613510909 0.00001261973559742347 0.000012619755658246108
          0.000017063964766337317 0.000017063969616851178 0.000017063978224953934 0.000014569329388394505 0.000014624270141198976 0.000014569333716516964
          0.000014624274605918934 0.000014569344834364069 0.000014624287638914839 0.00001708041170861527 0.000017080416738462812 0.00001708042793333265
          0.000014682218861476601 0.000014682224460242808 0.000014682239866287165 0.000016505916398259358 0.00001650592346324703 0.000016505940280445263
          0.000014215968412939863 0.000014215972861867829 0.000014215981788606951 0.000021221277725223944 0.00002122128722926579 0.0000212213140306864
          0.000021164173254067356 0.000021164182079475794 0.000021164205552441475 0.000022425912160108893 0.000022640939012563246 0.000022425919509049315
          0.000022640945961256538 0.000022425939370708416 0.000022640964730743086 0.00001813944435188541 0.00001788492961052308 0.00001813944906846283
          0.000017884933418197004 0.00001813946070758284 0.000017884944734615445 0.00002048072407918771 0.000020480729870202627 0.000020480743745043465
          0.000013739743958039186 0.000013739752364929402 0.00001373977413207385 0.000015939638131397256 0.000015939641453334623 0.00001593965399405288
          0.00002225324867089212 0.00002165665411303401 0.000022253256160101074 0.000021656661221961727 0.0000222532776428233 0.00002165667866975664
          0.00001907212000948795 0.00001914084896603979 0.00001966621965440811 0.00001907212349484047 0.00001914085387521912 0.00001966622287538112
          0.00001907213505894808 0.000019140866723066753 0.000019666229590926536 0.000020260402365745512 0.000020237123903320166 0.000020260407074638997
          0.000020237129836067532 0.000020260419290147354 0.000020237142788122685 0.0000210804159780009 0.000021080423690290458 0.00002108044362460778
          0.000018781035664010734 0.000018781040516399475 0.000018781052050831478 0.000018478377841500805 0.00001847838367615448 0.00001847839799379468
          0.00001593697943086314 0.00001593698373601758 0.000015936994608750098 0.0000128427715165299 0.000012842781199493259 0.000012842809545586188
          0.000011869164551316662 0.00001244317909702603 0.000011869167246408042 0.000012443183182618187 0.000011869175399611604 0.000012443196485367215
          0.00001826548436683788 0.000018265489607538444 0.00001826550465289831 0.00001393383540625926 0.000013869935563726412 0.000014413251054092941
          0.000013933838272221388 0.000013869938699985339 0.000014413254148383329 0.000013933847541872434 0.000013869945833863476 0.00001441326456388659
          0.000022679631964226383 0.00002208447932127996 0.00002267963996544267 0.00002208448694347516 0.000022679664092691765 0.00002208450955159005
          0.000017114775918761414 0.000017643656918088242 0.00001711477911536417 0.00001764366037196972 0.000017114788919508903 0.000017643671485891013
          0.000021558751561144623 0.000021558758476734604 0.000021558781068692846 0.000020463767813726347 0.00002121684726061915 0.000021230854746963412
          0.000020463775966957502 0.000021216855630706726 0.000021230862645102413 0.0000204637983047715 0.000021216879035416202 0.000021230887405600732
          0.000019151065248081793 0.000019151070850688553 0.00001915108701044731 0.000015155572138016929 0.00001527396694099213 0.000015155575147431142
          0.000015273970112161837 0.000015155587160086822 0.000015273980194066516 0.000019728677134158638 0.00001980277358005546 0.00001972868347895076
          0.000019802780146071382 0.000019728698981020398 0.00001980279802398654 0.000014974131153370261 0.000014974133968107411 0.000014974142072898313
          0.000016614606520369563 0.00001661460922819631 0.00001661461794257414 0.000022070247234385664 0.000022070255758004768 0.000022070281575287382
          0.000013018873274401168 0.000013018877480442806 0.000013018889207335227 0.000013565547424646076 0.00001356555087568503 0.000013565561303015189
          0.000020379840582566842 0.000020379847385506808 0.000020379866554684796 0.000014092798559824152 0.000014009473911773564 0.000014092801964986833
          0.000014009477095899672 0.000014092812885609819 0.000014009486812577816 0.000021970359845943155 0.00002202311146309373 0.00002197036965812271
          0.000022023121015990908 0.00002197040093378981 0.000022023152474286752 0.000022458093829935725 0.000022458103846801388 0.000022458129615784056
          0.000023237114561649678 0.00002301832587371219 0.00002323712088373437 0.00002301833324800607 0.000023237140998203542 0.000023018356051473436
          0.000015982447179923235 0.000015982450633063248 0.00001598245855904308 0.00002196110674197986 0.000022007247627829057 0.000021961115209329133
          0.000022007257064787267 0.000021961143091636124 0.000022007282849373705 0.000015397746625015623 0.00001543139101342836 0.00001539774934387075
          0.00001543139329596928 0.000015397757112970176 0.000015431398455888227 0.000022827882374748328 0.000022827890979292244 0.000022827915455958476
          0.000014821908148008865 0.000014821912234313675 0.000014821921313623041 0.000021903138863432197 0.00002190314906363921 0.000021903177442083935
          0.00002189489100619096 0.0000218948984436337 0.000021894922306944726 0.000015350460894922312 0.000015350464598415485 0.000015350473938177685
          0.000015390933533129278 0.000015390936166197572 0.000015390943861098776
        </DataArray>
        <DataArray type="Float64" Name="disp_y" format="ascii" RangeMin="-0.000004603359218296608" RangeMax="-0.0000012973294596457636">
          -0.000004023146861178552 -0.000003827345745508227 -0.0000037267849903834815 -0.0000038720989832000835 -0.000004023156003477415 -0.000003827354036486704
          -0.000003726793508182526 -0.000003872108282927586 -0.0000040231829045935114 -0.000003827378448787564 -0.000003726820499440962 -0.000003872134787259217
          -0.000003383527815888931 -0.0000033698527060660015 -0.0000031941471990688306 -0.0000031907053047110774 -0.0000033835385015123076 -0.0000033698638383123214
          -0.0000031941582480869467 -0.000003190715254110079 -0.0000033835714482823706 -0.000003369897192987336 -0.0000031941904787554202 -0.0000031907452288205593
          -0.0000032085111164765724 -0.0000032085229788350576 -0.000003208557282481131 -0.000003377884395925417 -0.000003377896461190164 -0.0000033779341215180008
          -0.000003598165617001976 -0.0000037406824307198535 -0.0000035981747693089857 -0.000003740692478651978 -0.000003598201423502565 -0.0000037407214638799305
          -0.0000029270262653726034 -0.000002733169035017485 -0.000002679612258231546 -0.0000028148516919724346 -0.000002927033053078698 -0.0000027331758231337584
          -0.000002679618362506282 -0.00000281485841782934 -0.000002927054504604781 -0.000002733195408196938 -0.0000026796369461712016 -0.0000028148775796205842
          -0.000004218657768469107 -0.000004065491038949812 -0.000004042756607458546 -0.00000418506699560243 -0.000004218664811525553 -0.000004065498902182281
          -0.000004042764548708445 -0.000004185074710477853 -0.000004218685800939858 -0.000004065522375461144 -0.00000404279093424952 -0.000004185095745139103
          -0.000004264165875695108 -0.000004251022357088767 -0.000004412534909697136 -0.000004418981019068007 -0.000004264172588806854 -0.000004251029224739531
          -0.000004412542138426737 -0.000004418987967404845 -0.0000042641943041497345 -0.000004251049288069777 -0.00000441256341791895 -0.000004419009198949723
          -0.0000018826184909046214 -0.000001701672444028799 -0.0000018419664573972588 -0.0000018826229260706554 -0.0000017016773764143588 -0.0000018419711165694744
          -0.000001882635311670753 -0.0000017016924251367627 -0.0000018419853007606946 -0.0000025427846340162304 -0.0000025777358352819823 -0.0000027329767126356827
          -0.0000027526752016999055 -0.0000025427921453285173 -0.000002577742814713282 -0.000002732984202504684 -0.0000027526831978970247 -0.000002542814457292418
          -0.000002577764722218944 -0.0000027330071104751974 -0.0000027527076199430625 -0.000002589349690278182 -0.000002589357672127438 -0.000002589382055103219
          -0.0000035877102084093335 -0.000003457734457283148 -0.0000035877185180239427 -0.0000034577426255689676 -0.000003587743725330918 -0.0000034577670223618416
          -0.000004201824997409402 -0.000004036729275211449 -0.0000042313404527671495 -0.0000042018341377725625 -0.000004036737862014035 -0.000004231350395053157
          -0.000004201861966413683 -0.000004036765064565911 -0.0000042313802624364266 -0.0000033708515503882117 -0.0000035055156736022567 -0.0000033880886971563074
          -0.000003268569449176949 -0.000003370859629173257 -0.0000035055233360267007 -0.000003388096265247738 -0.000003268577136513893 -0.000003370882879197347
          -0.000003505547066939948 -0.000003388118281843047 -0.000003268600519792982 -0.000003875748126988095 -0.000004025396507025195 -0.000003898029665532957
          -0.00000387575658429848 -0.0000040254045645920545 -0.000003898038164071717 -0.000003875781617425944 -0.000004025429394944661 -0.000003898063531550456
          -0.000004131770863295935 -0.000004173365242816549 -0.000004334874135384831 -0.000004131778636880731 -0.000004173373112217022 -0.000004334882272981344
          -0.0000041318008876048615 -0.000004173395306530025 -0.0000043349067456473695 -0.0000036784936089497324 -0.000003761627426798156 -0.0000036432499220183338
          -0.000003514860855211939 -0.000003678502010789204 -0.000003761635199968365 -0.0000036432573856849115 -0.000003514868616338956 -0.000003678527083863941
          -0.000003761658210493198 -0.0000036432792700885847 -0.000003514891221725086 -0.0000029455175409654084 -0.000002935967314844397 -0.0000029455249953007252
          -0.00000293597531950231 -0.000002945546717386379 -0.0000029359989045724572 -0.0000024815754538870594 -0.000002481191314570875 -0.0000026798471551888145
          -0.0000024815816533269055 -0.0000024811972691575886 -0.000002679853552200178 -0.0000024816003249327688 -0.000002481215008129869 -0.000002679872365952453
          -0.0000029178204358250426 -0.000003087118756538481 -0.0000030094071181407236 -0.0000028556161209882366 -0.0000029178273565293528 -0.000003087126288156882
          -0.0000030094142046002433 -0.0000028556228319031444 -0.0000029178479673972198 -0.000003087148808016049 -0.0000030094360647549735 -0.0000028556433575589137
          -0.000004027555635759958 -0.000003966705350587611 -0.000004027567633946479 -0.000003966717134985707 -0.000004027603408170261 -0.000003966753513587439
          -0.0000042977100492993735 -0.000004114564725166498 -0.000004297720418502709 -0.000004114574274993289 -0.000004297751654406884 -0.000004114604613002924
          -0.000004290817069442077 -0.000004164468187743225 -0.000004290824563564495 -0.000004164476021202194 -0.000004290847666190447 -0.000004164498636954763
          -0.0000033439409362989862 -0.000003495684956443474 -0.0000036084546205699413 -0.0000034624553316325898 -0.0000033439493620505196 -0.0000034956948168511657
          -0.000003608464548592488 -0.000003462464019880261 -0.0000033439744769673546 -0.0000034957257105984747 -0.0000036084933210181376 -0.0000034624895596673805
          -0.0000020877030434971563 -0.000002059013296178924 -0.0000020877082305631096 -0.00000205901812177412 -0.000002087723765399745 -0.000002059032811084983
          -0.0000024628507484861578 -0.0000023766163941616336 -0.0000024628570674430926 -0.000002376622654465719 -0.0000024628745587437568 -0.00000237664133520734
          -0.0000022882841769313876 -0.0000022161082672450126 -0.0000022882902036893827 -0.0000022161142742959857 -0.000002288307916540466 -0.0000022161328795529166
          -0.000003862654367701332 -0.000003862664779679103 -0.0000038626988623774605 -0.0000023052707502707483 -0.0000023052758515065807 -0.000002305291963383909
          -0.000002043437009273089 -0.0000020568151491575224 -0.000002280162309860105 -0.0000022587290579157052 -0.00000204344209778748 -0.0000020568197411237645
          -0.0000022801677121454906 -0.0000022587344834298924 -0.0000020434572654689533 -0.000002056834020250434 -0.0000022801833797810103 -0.000002258750676221587
          -0.000003082451706115002 -0.0000031487078620247223 -0.0000029962124659282 -0.0000030824591502332504 -0.000003148715254334288 -0.000002996219976135586
          -0.0000030824805578873066 -0.0000031487381545211783 -0.000002996241281007301 -0.0000028096965982398515 -0.000002947000193198079 -0.000002809703414122358
          -0.000002947007420912312 -0.0000028097237205482214 -0.000002947030383354562 -0.000002723912208394628 -0.000002723918791107638 -0.0000027239386237512283
          -0.000004431885395322607 -0.000004268708647055272 -0.000004265395440323128 -0.000004424814947480809 -0.000004431891948283163 -0.000004268715389286439
          -0.000004265401910522807 -0.000004424821436628852 -0.000004431910825556899 -0.000004268734942077106 -0.000004265420963955957 -0.000004424839542226781
          -0.0000022668617511845605 -0.0000022668671228517067 -0.0000022668833922438995 -0.0000025089255581804244 -0.000002508931672006844 -0.000002508949365275809
          -0.0000018346415076205464 -0.0000018346462762210268 -0.0000018346611515736145 -0.000004031926908862969 -0.000004066585917129668 -0.000004031937533839245
          -0.000004066597193474006 -0.000004031969575556023 -0.000004066629356695344 -0.0000029945736768676183 -0.000002775972419836177 -0.00000299458129374084
          -0.0000027759788097231166 -0.000002994604999584569 -0.000002775998164884556 -0.0000027309952406193546 -0.000002900600978923147 -0.0000027310020750180395
          -0.0000029006084000231297 -0.0000027310210489752296 -0.0000029006312167860842 -0.0000034727407345882025 -0.0000033373347160614077 -0.000003472748386227792
          -0.000003337342685833867 -0.000003472773004196583 -0.000003337367567625111 -0.00000323918665709583 -0.000003239194246954049 -0.0000032392168865284045
          -0.0000031819689405330994 -0.000003308425760049698 -0.000003181977582613779 -0.0000033084337878284035 -0.0000031820039568093617 -0.00000330845778517747
          -0.0000035996946131824605 -0.0000036972539240177046 -0.0000035997029107784087 -0.0000036972623313910272 -0.0000035997275926521643 -0.000003697288062680475
          -0.000002041476182706271 -0.0000020414817395718957 -0.0000020414987449247304 -0.0000023102555667598793 -0.0000023102615251050823 -0.0000023102792426478913
          -0.000003732239079650334 -0.0000037690957381032144 -0.000003732247649344784 -0.0000037691037821905045 -0.0000037322734548594224 -0.0000037691272072506643
          -0.0000020898774112038143 -0.0000020898833456507624 -0.000002089901461706591 -0.000002542313062482155 -0.0000025423190089082448 -0.000002542336494613122
          -0.000002382267192245825 -0.0000021114457269218966 -0.0000023822734210629096 -0.000002111451378927977 -0.000002382292325012735 -0.0000021114683916830997
          -0.0000030759601036313873 -0.000003126043748425142 -0.0000030759674446532745 -0.0000031260515257738216 -0.00000307599028820738 -0.000003126074711851116
          -0.000004030888523675981 -0.0000038793674265064 -0.000003878990017196062 -0.000004030896514706637 -0.0000038793757009377155 -0.000003878998220305575
          -0.000004030919011991508 -0.0000038794006462935965 -0.000003879021634864655 -0.0000033044889624285714 -0.000003256382782017923 -0.0000031064082245499164
          -0.000003129015562446051 -0.0000033044973648585044 -0.0000032563906036563986 -0.0000031064164946244546 -0.0000031290230202150076 -0.0000033045224449088697
          -0.000003256414012765757 -0.000003106441038409662 -0.000003129046159289344 -0.000003869300543565951 -0.000004065284092380106 -0.000003934628924756317
          -0.0000037890841461495214 -0.000003869308983153703 -0.0000040652915340553975 -0.0000039346371747308945 -0.0000037890930336424456 -0.000003869334346572099
          -0.000004065314697537264 -0.000003934662095523902 -0.000003789119175622408 -0.000002580664682569485 -0.0000025806712073190235 -0.000002580691094545713
          -0.000003468053565567279 -0.0000033914707327550115 -0.000003468061766607688 -0.0000033914784306916015 -0.000003468086699171267 -0.000003391498521305895
          -0.0000016860972962232914 -0.000001534639746502544 -0.0000016861022276755655 -0.0000015346444046169454 -0.000001686118369898786 -0.0000015346576278911875
          -0.0000036239678667784136 -0.0000035380902480780505 -0.0000036239760048689907 -0.0000035380985943091287 -0.0000036240009799890022 -0.0000035381234033441795
          -0.00000362324710371565 -0.0000037017328325708944 -0.000003623256216688216 -0.000003701741768300642 -0.0000036232836842923113 -0.0000037017677107941457
          -0.0000035630019647358624 -0.0000037168095405568636 -0.000003563011613285078 -0.0000037168185191295373 -0.000003563040997164574 -0.000003716845561664554
          -0.0000028151814990514 -0.000002815188095171579 -0.0000028152077783375166 -0.0000025320301641596744 -0.00000253203644188257 -0.000002532055902509678
          -0.000004059049811585001 -0.000004146903165019498 -0.000004106651773112255 -0.000003948747670787124 -0.000004059057315835552 -0.000004146910084603232
          -0.00000410665895794477 -0.00000394875578500913 -0.0000040590797862369405 -0.0000041469283599573456 -0.000004106681637524978 -0.000003948780545168709
          -0.0000018602993478710208 -0.000001894816655189512 -0.0000018603047401653707 -0.0000018948220952483361 -0.000001860320273532366 -0.0000018948380822858244
          -0.000004603319202113869 -0.0000044429087991465084 -0.000004447006551979533 -0.0000045985689502997435 -0.000004603328961826829 -0.000004442917519153643
          -0.000004447014109382276 -0.000004598576645895627 -0.000004603359218296608 -0.000004442944999589379 -0.000004447035776971795 -0.000004598599355673723
          -0.0000038486572065175355 -0.0000037732614028299584 -0.000003660186158843011 -0.000003848666285112704 -0.0000037732707939983026 -0.000003660196051522222
          -0.000003848695223577956 -0.0000037732980435019874 -0.0000036602252258480833 -0.0000034055883368194774 -0.0000034055970961119503 -0.000003405623908953259
          -0.0000031455194147437776 -0.00000323746498524884 -0.0000031455272286170727 -0.0000032374728987772595 -0.0000031455491720482685 -0.0000032374968721369284
          -0.000003348990579171326 -0.000003546046467647037 -0.0000033489984534979824 -0.000003546053925797969 -0.000003349022732499489 -0.000003546077466666839
          -0.0000037849359211711817 -0.0000037849442186620355 -0.000003784968820965372 -0.000002618782951695077 -0.0000026187894454796637 -0.000002618809476430889
          -0.0000032836827658122805 -0.0000032166658705287634 -0.00000328369062630417 -0.0000032166737329164834 -0.0000032837123130100336 -0.0000032166994853797416
          -0.000004441007001673947 -0.000004593483072751365 -0.000004441014314063496 -0.000004593490253026447 -0.0000044410367843012565 -0.000004593512322145234
          -0.000004582081873429018 -0.000004575772416831584 -0.000004582088264502683 -0.0000045757793280769765 -0.000004582108707297636 -0.0000045758001021392506
          -0.000004569008584083992 -0.000004401844216187661 -0.000004561765519471327 -0.000004569015573536387 -0.000004401851412637761 -0.000004561773058567657
          -0.000004569037479066811 -0.0000044018732859105635 -0.000004561796017613907 -0.000004237200917229354 -0.000004071186844040791 -0.000004237208062867204
          -0.000004071194664037378 -0.000004237228317107363 -0.0000040712185786119 -0.000004291284596864788 -0.0000041574458373827525 -0.000004291291729463196
          -0.0000041574528225174395 -0.0000042913143558844595 -0.0000041574716420013305 -0.000004384757317241361 -0.000004554027968577362 -0.000004384765187710488
          -0.000004554036238308493 -0.000004384788097591137 -0.000004554062599650236 -0.000004052891040293583 -0.000004052898646549967 -0.000004052919267798802
          -0.000004346204176302985 -0.000004329090231797457 -0.000004468078940782125 -0.000004481628331461883 -0.000004346216547324407 -0.000004329102600545054
          -0.0000044680939297394885 -0.000004481640693947046 -0.00000434624976118259 -0.000004329142720262898 -0.0000044681383637425396 -0.000004481681531422152
          -0.000004453490457591663 -0.000004312044955712833 -0.000004453506415056661 -0.000004312059170588501 -0.000004453554818394571 -0.000004312102062213021
          -0.000004208100952900111 -0.000004208107525208695 -0.000004208130725486261 -0.000004545713218555563 -0.000004545723207359339 -0.000004545753603895461
          -0.000003860015752464251 -0.000003860023466676486 -0.000003860047087595919 -0.0000031767191926358386 -0.0000031767281695809786 -0.0000031767547168800197
          -0.0000036994643264070937 -0.0000036994721254781305 -0.000003699493181204061 -0.000003908752494712757 -0.000003919591490233052 -0.0000039087605425968685
          -0.000003919599934235293 -0.000003908785837945068 -0.000003919624596568541 -0.0000037675578005348043 -0.0000037675656450010558 -0.0000037675886291265513
          -0.000003106369483220782 -0.0000031063774043945312 -0.000003106401387784449 -0.0000035284090313452475 -0.000003528419469207583 -0.0000035284517060332466
          -0.000001768813879629951 -0.000001768818697959704 -0.0000017688303217727186 -0.000002764035734088247 -0.000002941321199495233 -0.000002764043776284124
          -0.000002941329945920095 -0.0000027640682643207015 -0.0000029413559584160923 -0.000001906770331295477 -0.0000019067750746015413 -0.0000019067895702539627
          -0.000003103426882266011 -0.0000031034356691980887 -0.0000031034630385549552 -0.0000038146262518775608 -0.000003814634184797307 -0.00000381465848999806
          -0.000003134486601882975 -0.000003134495463691093 -0.000003134523225085698 -0.000002561402196748243 -0.000002561407814225591 -0.000002561424342679542
          -0.0000028100104376136773 -0.0000028100176540379133 -0.000002810039281359532 -0.0000042946911757949595 -0.000004437817628191678 -0.00000429470660500114
          -0.000004437835014917103 -0.000004294752227752789 -0.000004437889586777791 -0.000004368962780982614 -0.000004536843989705942 -0.000004368972955296383
          -0.0000045368546202802636 -0.000004369003651149911 -0.00000453688985290839 -0.0000042182222184658855 -0.000004218232939538088 -0.000004218264703977414
          -0.000004587991271209743 -0.0000045879980387262425 -0.0000045880196034342094 -0.000001512556137442742 -0.0000015125603941706401 -0.000001512573489137612
          -0.000004145166538530625 -0.000004163060403122177 -0.000004145179044932788 -0.000004163072445644159 -0.000004145214759693109 -0.000004163106357598886
          -0.000004517083823511407 -0.000004407108577102214 -0.000004506073444452475 -0.0000045170929523617536 -0.000004407118814799495 -0.000004506085261772756
          -0.00000451712575038213 -0.000004407146837198192 -0.000004506118109481603 -0.000004494388976967441 -0.000004386930123898894 -0.000004494402589910473
          -0.000004386942713354802 -0.000004494453781788571 -0.00000438698030464995 -0.000004184706911911185 -0.000004184718129452339 -0.0000041847499918795
          -0.000004383833164942721 -0.000004383843005318802 -0.000004383868979891507 -0.000004527224392866669 -0.000004527234683016476 -0.0000045272664504356975
          -0.0000016802063076067497 -0.0000016802115244133427 -0.0000016802277606749884 -0.000004306719511496814 -0.000004306726809244252 -0.000004306748397003589
          -0.0000030340199652492386 -0.000003010403184024108 -0.0000030340312876650994 -0.000003010414113238159 -0.0000030340655281729148 -0.0000030104475844662665
          -0.0000015945329539993053 -0.0000015945367288065437 -0.000001594548731292417 -0.000002610861744848802 -0.0000024402088132471723 -0.00000242431893604772
          -0.0000026108699154925714 -0.000002440216650434136 -0.0000024243261705872235 -0.0000026108944873277317 -0.0000024402410132343744 -0.0000024243480342419645
          -0.00000394102695326181 -0.000003833826246750856 -0.000003941039193083687 -0.000003833838400364787 -0.000003941076496784288 -0.000003833876781302396
          -0.0000015507859036859322 -0.000001423744543912653 -0.0000015507906205042896 -0.0000014237484545587267 -0.000001550805930667419 -0.000001423759931138734
          -0.0000037326078045378854 -0.0000037326187787254433 -0.0000037326498101362013 -0.000002070036565082681 -0.0000020701918568050665 -0.0000023180711991494434
          -0.000002070040727177691 -0.0000020701964218835474 -0.000002318076437288257 -0.0000020700515589271154 -0.00000207021020775094 -0.000002318092399173304
          -0.0000016356977375993927 -0.0000016357007854805953 -0.000001635709981651163 -0.000002155449355226048 -0.0000019939871864342088 -0.0000021554553979836253
          -0.000001993993380181475 -0.000002155473558636274 -0.0000019940118412740613 -0.000001854320128379767 -0.0000016786616451924734 -0.0000018543243955339082
          -0.000001678665371438645 -0.000001854337715622757 -0.0000016786763514334196 -0.0000023052573621678594 -0.000002305263813015769 -0.000002305281318040805
          -0.0000013997399785094614 -0.0000013997435664670592 -0.0000013997532787886125 -0.000003603244199912216 -0.0000036032554317021222 -0.0000036032880403069373
          -0.0000030004492498897424 -0.000003000458970988827 -0.000003000487663513802 -0.0000029850619838192997 -0.000002985070832184394 -0.0000029850970389790905
          -0.0000018557454597425177 -0.000001855750197461386 -0.0000018557641589469732 -0.0000029598608729041295 -0.0000027824023035732925 -0.000002959869580193614
          -0.0000027824109738033584 -0.000002959896592978528 -0.0000027824365530036636 -0.000003277782169596203 -0.0000034148193029315247 -0.000003277790203877864
          -0.000003414828716964424 -0.0000032778131928907866 -0.000003414855481301849 -0.000003451892623927182 -0.0000034519040318782324 -0.0000034519404406035754
          -0.0000044209897055860264 -0.000004276710175693072 -0.000004421007309008177 -0.00000427672639967918 -0.000004421062472719313 -0.000004276776164844222
          -0.0000013553151322445117 -0.0000013553186633703423 -0.000001355328530631894 -0.000002571002081207169 -0.00000231993787924164 -0.000002571008513995896
          -0.0000023199414416134673 -0.0000025710279145002834 -0.0000023199508026023504 -0.0000014753564611869745 -0.0000012973294596457636 -0.0000014753612224010684
          -0.0000012973332742512353 -0.0000014753759499124709 -0.0000012973448218357942 -0.000004129759267573089 -0.000004129772669390273 -0.000004129811324917307
          -0.000002416211485162988 -0.0000024162178075485336 -0.0000024162379159411792 -0.000003061132750218813 -0.000003061139839216366 -0.00000306116131099461
          -0.000002818359187758227 -0.000002818366702640666 -0.0000028183900700666257 -0.0000018230173287097769 -0.0000018230225967761877 -0.000001823038035086762
          -0.0000016504529365391459 -0.000001650457864541965 -0.0000016504726891521325
        </DataArray>
        <DataArray type="Float64" Name="disp_z" format="ascii" RangeMin="-1.0595005731659105e-7" RangeMax="0">
          0 0 0 0 -5.2264971619700063e-8 -5.2312338459084625e-8
          -5.2379982218285285e-8 -5.2353006021626466e-8 -1.0452973549969158e-7 -1.0462382547494597e-7 -1.0476067202475652e-7 -1.0470495172595826e-7
          0 0 0 0 -5.211833222925826e-8 -5.2087570925472465e-8
          -5.2158342491982755e-8 -5.2192156948575295e-8 -1.042365034623069e-7 -1.0417475667553373e-7 -1.0431692906669653e-7 -1.0438354088026953e-7
          0 -5.212443559266446e-8 -1.0425025576923162e-7 0 -5.205088473637406e-8 -1.0410193916534456e-7
          0 0 -5.246423019894285e-8 -5.244274305052467e-8 -1.0492860096206066e-7 -1.0488538058885483e-7
          0 0 0 0 -5.2535160743655936e-8 -5.257059338760474e-8
          -5.26203955662821e-8 -5.259419677772405e-8 -1.0507037704256619e-7 -1.0514099958225102e-7 -1.0524052497915412e-7 -1.0518886659534437e-7
          0 0 0 0 -5.206748236737686e-8 -5.2107473563718485e-8
          -5.213743950464611e-8 -5.2095471445928633e-8 -1.0413484488812012e-7 -1.0421553737311407e-7 -1.0427534120770072e-7 -1.0419021326139414e-7
          0 0 0 0 -5.196226373123093e-8 -5.1994786090202935e-8
          -5.195463358493894e-8 -5.1918534494048107e-8 -1.0392402906274261e-7 -1.039892800911528e-7 -1.0390922521590715e-7 -1.0383721572376474e-7
          0 0 0 -5.273629721459203e-8 -5.2754015777682024e-8 -5.2780892022576115e-8
          -1.0547280565205263e-7 -1.0550756288695641e-7 -1.055619264290994e-7 0 0 0
          0 -5.248193894939302e-8 -5.250115124760495e-8 -5.245777790902899e-8 -5.2418665979674975e-8 -1.0496259461529348e-7
          -1.0500536807816886e-7 -1.0491437781072237e-7 -1.0483733305205107e-7 0 -5.244360125123456e-8 -1.0488801126810154e-7
          0 0 -5.240543986232331e-8 -5.248104451475454e-8 -1.0481062820560379e-7 -1.0496241969696901e-7
          0 0 0 -5.2158549660915135e-8 -5.2223523642547754e-8 -5.216265652740286e-8
          -1.043165509407849e-7 -1.044476993550397e-7 -1.0432349640216652e-7 0 0 0
          0 -5.242439607574269e-8 -5.235762287563141e-8 -5.2360249541893395e-8 -5.242745344133871e-8 -1.0484901725964475e-7
          -1.0471571621940126e-7 -1.0472051239879472e-7 -1.0485471235803377e-7 0 0 0
          -5.220856090835108e-8 -5.216193885354011e-8 -5.218342635865114e-8 -1.0441697244833539e-7 -1.0432486934306187e-7 -1.0436712124792973e-7
          0 0 0 -5.212728780276771e-8 -5.214405322595437e-8 -5.207192430267209e-8
          -1.042527961967736e-7 -1.0428871010634871e-7 -1.0414338674368202e-7 0 0 0
          0 -5.2271283799421185e-8 -5.2217395259439634e-8 -5.22314318637675e-8 -5.229396701124075e-8 -1.0454241631564049e-7
          -1.0443481794942954e-7 -1.0446277855721454e-7 -1.0458797321866634e-7 0 0 -5.239312734268848e-8
          -5.2366661766292506e-8 -1.047860753674734e-7 -1.0473385385075235e-7 0 0 0
          -5.2664814380620656e-8 -5.2707983817783135e-8 -5.266150631568184e-8 -1.0532952280268907e-7 -1.0541602670899161e-7 -1.0532295104426846e-7
          0 0 0 0 -5.2633188289460195e-8 -5.256530509141442e-8
          -5.255085806416567e-8 -5.2609275857807434e-8 -1.0526603245074669e-7 -1.0513062240600942e-7 -1.0510171195881887e-7 -1.0521852574971978e-7
          0 0 -5.2427186913020774e-8 -5.240921074792849e-8 -1.0485367141155655e-7 -1.0481838547304657e-7
          0 0 -5.218178760803163e-8 -5.227035340359449e-8 -1.043615307509784e-7 -1.0454468047689771e-7
          0 0 -5.173670485727047e-8 -5.179615081711022e-8 -1.0347228428778897e-7 -1.035931400906485e-7
          0 0 0 0 -5.2647793976780885e-8 -5.2617986567628294e-8
          -5.253352661708063e-8 -5.255777229982726e-8 -1.0529662454289057e-7 -1.0523453882794091e-7 -1.0506636163795129e-7 -1.0511595783703076e-7
          0 0 -5.27037721395066e-8 -5.274521819314082e-8 -1.0540717067240139e-7 -1.0549048627672362e-7
          0 0 -5.2534629891066356e-8 -5.2535140365198916e-8 -1.0506881395470111e-7 -1.0506970925113994e-7
          0 0 -5.2586102156963204e-8 -5.2583573682361235e-8 -1.0517226650793879e-7 -1.0516785145201767e-7
          0 -5.242839995640074e-8 -1.048573412248521e-7 0 -5.284503908338485e-8 -1.0568985104126558e-7
          0 0 0 0 -5.279055346618046e-8 -5.2833800475852725e-8
          -5.2796596884848035e-8 -5.275236573947966e-8 -1.0558113244705483e-7 -1.0566758406634543e-7 -1.0559294491400127e-7 -1.0550470308610034e-7
          0 0 0 -5.248316015408233e-8 -5.2445788065857285e-8 -5.247608865142365e-8
          -1.0496441834715802e-7 -1.0489290267654573e-7 -1.0495242676106876e-7 0 0 -5.246830277400957e-8
          -5.242699936121398e-8 -1.0493870601132019e-7 -1.0485312311240423e-7 0 -5.269768710756932e-8 -1.053954518161533e-7
          0 0 0 0 -5.1836071812107973e-8 -5.1874742752796777e-8
          -5.1914486996101224e-8 -5.1878665826484034e-8 -1.0367246456810748e-7 -1.0374901239208074e-7 -1.038284181115847e-7 -1.037575449004311e-7
          0 -5.270856716263936e-8 -1.0541744280398987e-7 0 -5.275151395999355e-8 -1.055028663431161e-7
          0 -5.282995020699592e-8 -1.056589674096722e-7 0 0 -5.23190719647899e-8
          -5.233260748342772e-8 -1.0463789953662787e-7 -1.0466434560848566e-7 0 0 -5.266193460333387e-8
          -5.2737539867187786e-8 -1.053240941783147e-7 -1.0547498170893159e-7 0 0 -5.25028427127508e-8
          -5.2463643925494146e-8 -1.0500555472082287e-7 -1.0492703101416052e-7 0 0 -5.241849003608949e-8
          -5.2492183164128886e-8 -1.0483666045249972e-7 -1.0498465532344722e-7 0 -5.238172841252379e-8 -1.047632304482403e-7
          0 0 -5.257248025301762e-8 -5.2564854979971255e-8 -1.0514516070075256e-7 -1.051291451893345e-7
          0 0 -5.235387034189012e-8 -5.234375644948939e-8 -1.0470737917671998e-7 -1.0468812343743381e-7
          0 -5.262723799275649e-8 -1.0525416780648228e-7 0 -5.266039423393732e-8 -1.0532068187114501e-7
          0 0 -5.2293075154444015e-8 -5.230361080002209e-8 -1.0458619256303988e-7 -1.0460735353089644e-7
          0 -5.263868416807534e-8 -1.0527723318677595e-7 0 -5.279568034645076e-8 -1.0559159735705151e-7
          0 0 -5.260202816794799e-8 -5.266731411086729e-8 -1.0520434872230134e-7 -1.0533461260068369e-7
          0 0 -5.241742773678519e-8 -5.237817076761452e-8 -1.0483422428214388e-7 -1.04757021491621e-7
          0 0 0 -5.2190967514645056e-8 -5.22376897829579e-8 -5.227545700555382e-8
          -1.0438137830314143e-7 -1.0447546978531362e-7 -1.0455098412087845e-7 0 0 0
          0 -5.2279759359956076e-8 -5.2260973267781196e-8 -5.231350377073546e-8 -5.234162841987934e-8 -1.0455921975233551e-7
          -1.0452240786424288e-7 -1.0462674453733083e-7 -1.0468284362010011e-7 0 0 0
          0 -5.201862564908621e-8 -5.1928629792861834e-8 -5.1916140400492184e-8 -5.199276755132788e-8 -1.0403872224251832e-7
          -1.0385753725929777e-7 -1.0383070901519178e-7 -1.0398605580430234e-7 0 -5.2523413324875976e-8 -1.0504628491976655e-7
          0 0 -5.221556341965885e-8 -5.2210310034685664e-8 -1.044312459705749e-7 -1.0442078327131156e-7
          0 0 -5.2728271263524984e-8 -5.2756777688020305e-8 -1.054558612227461e-7 -1.0551665640469928e-7
          0 0 -5.215356842566395e-8 -5.2156484199742674e-8 -1.0430645273056848e-7 -1.0431406434763782e-7
          0 0 -5.206204832160339e-8 -5.2084083873439115e-8 -1.041229955041801e-7 -1.0416755001585535e-7
          0 0 -5.2043673368627955e-8 -5.197990263889093e-8 -1.0408756906979481e-7 -1.0396030207744783e-7
          0 -5.251542967318937e-8 -1.0503136279685388e-7 0 -5.2613410095384236e-8 -1.0522712280668437e-7
          0 0 0 0 -5.2035247419236825e-8 -5.199185713191208e-8
          -5.196563684187118e-8 -5.2025066232671545e-8 -1.0407015339518477e-7 -1.0398658198797946e-7 -1.0393095998187828e-7 -1.0404925804796324e-7
          0 0 -5.266735053942332e-8 -5.2684726058881704e-8 -1.0533523860400027e-7 -1.0536959217673751e-7
          0 0 0 0 -5.1578948702116275e-8 -5.1670715042662315e-8
          -5.173311992489317e-8 -5.1669182009555474e-8 -1.031572188423592e-7 -1.0334031306863486e-7 -1.0346673301765331e-7 -1.033381731011185e-7
          0 0 0 -5.191386756522001e-8 -5.1900843056077196e-8 -5.196182174036973e-8
          -1.0382857787722884e-7 -1.0380185094871559e-7 -1.0392396191293346e-7 0 -5.215557528821974e-8 -1.0431151238216895e-7
          0 0 -5.248961386336327e-8 -5.249290147375654e-8 -1.049797963040052e-7 -1.0498537732779697e-7
          0 0 -5.2311730530749374e-8 -5.222298348599642e-8 -1.0462353628534298e-7 -1.0444603171836011e-7
          0 -5.2091646498710944e-8 -1.0418263934619665e-7 0 -5.255413211998639e-8 -1.0510815346394797e-7
          0 0 -5.220886240558137e-8 -5.2249424809224874e-8 -1.0441587902936171e-7 -1.04500759183006e-7
          0 0 -5.178886060024392e-8 -5.173347598713885e-8 -1.0357721127744691e-7 -1.0346573544809861e-7
          0 0 -5.183399918505681e-8 -5.187424358403077e-8 -1.0366708357274799e-7 -1.0374829334706634e-7
          0 0 0 -5.190951146386131e-8 -5.198816045156831e-8 -5.194103869033131e-8
          -1.0381865189912855e-7 -1.0397583224669091e-7 -1.0388161351017218e-7 0 0 -5.2028577873963026e-8
          -5.2069962332489486e-8 -1.0405727596265714e-7 -1.0413936743806789e-7 0 0 -5.1836601000220895e-8
          -5.186475898378567e-8 -1.0367269924221356e-7 -1.0373074191342268e-7 0 0 -5.202659167391734e-8
          -5.197098210941172e-8 -1.040539050768851e-7 -1.0394101107433923e-7 0 -5.185704577363595e-8 -1.0371470852942098e-7
          0 0 0 0 -5.2202426539913124e-8 -5.2241002965283814e-8
          -5.2172246890906724e-8 -5.214511354250953e-8 -1.0440364086302773e-7 -1.0448195390407912e-7 -1.0434367908092167e-7 -1.0429000442325815e-7
          0 0 -5.2202541733029595e-8 -5.2277922474095837e-8 -1.0440471265186498e-7 -1.0455518028828305e-7
          0 -5.181772013261564e-8 -1.036342508484106e-7 0 -5.198895903163191e-8 -1.0397690988848926e-7
          0 -5.211049024889034e-8 -1.0422211184989753e-7 0 -5.222636575760059e-8 -1.0445349419990706e-7
          0 -5.216327648091225e-8 -1.0432668586767387e-7 0 0 -5.212448133162712e-8
          -5.214885021994444e-8 -1.0424899498904579e-7 -1.0429729915677496e-7 0 -5.217496660421605e-8 -1.0434951260252996e-7
          0 -5.268678151896331e-8 -1.053737808466435e-7 0 -5.2022405676957196e-8 -1.0404561086677222e-7
          0 -5.272941087147471e-8 -1.054595798792221e-7 0 0 -5.2391659144379304e-8
          -5.233918144777432e-8 -1.047834105014006e-7 -1.0467890000645797e-7 0 -5.271004289933531e-8 -1.0542020245215002e-7
          0 -5.2285264712936606e-8 -1.0457116892023544e-7 0 -5.2181462559201455e-8 -1.0436250136677582e-7
          0 -5.225071729795148e-8 -1.0450165202999608e-7 0 -5.285066225212583e-8 -1.0570143215418175e-7
          0 -5.2785284889090486e-8 -1.0557022431195295e-7 0 0 -5.2323659733332015e-8
          -5.224075647261182e-8 -1.046480404801838e-7 -1.0447959476090864e-7 0 0 -5.209226280532238e-8
          -5.2008666064649934e-8 -1.0418531448844592e-7 -1.040166384562001e-7 0 -5.224240851408976e-8 -1.0448299471296742e-7
          0 -5.178716295616752e-8 -1.0357366395167014e-7 0 -5.273727163870766e-8 -1.0547401878891117e-7
          0 0 -5.238492419485525e-8 -5.234050919844949e-8 -1.0476893154110509e-7 -1.0468081040878246e-7
          0 0 0 -5.207202734949056e-8 -5.2119412831711866e-8 -5.2093947132212204e-8
          -1.0414089005015926e-7 -1.0424340102819116e-7 -1.0418852844599754e-7 0 0 -5.210742479289611e-8
          -5.2176907853001345e-8 -1.0420802807693076e-7 -1.0436013792558855e-7 0 -5.229834589567652e-8 -1.0459843648444455e-7
          0 -5.210697991544828e-8 -1.0421378778248302e-7 0 -5.2038801723173404e-8 -1.0407653332940794e-7
          0 -5.2702488587438486e-8 -1.0540418017724837e-7 0 -5.178059688674504e-8 -1.0355993423570409e-7
          0 0 -5.21882701705727e-8 -5.222575643973425e-8 -1.043758966538679e-7 -1.0445156004198364e-7
          0 -5.281839193095573e-8 -1.0563691512386405e-7 0 0 0
          -5.241566668953981e-8 -5.2465457517362685e-8 -5.2487837419925243e-8 -1.0483108183782563e-7 -1.0493136049479335e-7 -1.0497461861056181e-7
          0 0 -5.251045291163806e-8 -5.2518206829851215e-8 -1.0502125887597547e-7 -1.0503643240039125e-7
          0 0 -5.2770604732118035e-8 -5.281870940048051e-8 -1.0554095150791756e-7 -1.0563807627718378e-7
          0 -5.2524023028359925e-8 -1.050484058720685e-7 0 0 0
          -5.288448476595994e-8 -5.294841492857586e-8 -5.289808361345607e-8 -1.0576983262605272e-7 -1.0589675811144323e-7 -1.057957416322953e-7
          0 -5.286892549772267e-8 -1.0573843935924602e-7 0 0 -5.2573500123926615e-8
          -5.2618721572399365e-8 -1.0514720087099387e-7 -1.0523802011511996e-7 0 0 -5.286894423804626e-8
          -5.2902282695691595e-8 -1.0573860331934853e-7 -1.0580424648828079e-7 0 -5.2534789177763055e-8 -1.0506989127845418e-7
          0 -5.277684865899556e-8 -1.0555231048068491e-7 0 -5.261499082671985e-8 -1.0523022009510233e-7
          0 -5.225475640776743e-8 -1.0450906839174621e-7 0 -5.2282283487927564e-8 -1.045643931345469e-7
          0 -5.290153371993248e-8 -1.0580161613608644e-7 0 0 -5.230888490756148e-8
          -5.236407223296268e-8 -1.0461735576887779e-7 -1.0472794236127083e-7 0 0 -5.2722389375470544e-8
          -5.26901144835142e-8 -1.054430307828597e-7 -1.0538089098455242e-7 0 -5.271970591120948e-8 -1.0543862212159705e-7
          0 0 -5.228548507307341e-8 -5.237145807773807e-8 -1.0457123352628322e-7 -1.047420540924312e-7
          0 -5.2757828140711376e-8 -1.0551494590431388e-7 0 0 -5.292649920331399e-8
          -5.297482265556016e-8 -1.0585190332495517e-7 -1.0595005731659105e-7 0 0 -5.2722614231071406e-8
          -5.275684918762929e-8 -1.0544487767067806e-7 -1.0551389091625679e-7 0 -5.243833517399779e-8 -1.0487787794858935e-7
          0 -5.2506775432279545e-8 -1.0501454810106589e-7 0 -5.277795189894711e-8 -1.0555602658697506e-7
          0 -5.28432472863426e-8 -1.0568670846139204e-7 0 -5.2656374540774406e-8 -1.0531223275634827e-7
          0 -5.269033555454036e-8 -1.0538112063780482e-7
        </DataArray>
      </PointData>
      <CellData>
        <DataArray type="Int32" Name="libmesh_elem_id" format="ascii" RangeMin="1380" RangeMax="3259">
          1380 1381 1412 1413 1414 1415
          1416 1417 1428 1429 1430 1431
          1438 1439 1440 1441 1464 1465
          1472 1473 1480 1481 1484 1485
          1488 1489 1490 1491 1492 1493
          1496 1497 1516 1517 1534 1535
          1538 1539 1544 1545 1548 1549
          1556 1557 1562 1563 1568 1569
          1574 1575 1576 1577 1604 1605
          1610 1611 1620 1621 1626 1627
          1632 1633 1640 1641 1642 1643
          1644 1645 1646 1647 1660 1661
          1664 1665 1666 1667 1668 1669
          1670 1671 1674 1675 1676 1677
          1688 1689 1690 1691 1692 1693
          1694 1695 1706 1707 1716 1717
          1720 1721 1724 1725 1732 1733
          1736 1737 1738 1739 1742 1743
          1744 1745 1756 1757 1758 1759
          1768 1769 1776 1777 1780 1781
          1784 1785 1786 1787 1788 1789
          1792 1793 1796 1797 1800 1801
          1806 1807 1808 1809 1812 1813
          1820 1821 1822 1823 1826 1827
          1842 1843 1844 1845 1860 1861
          1870 1871 1886 1887 1898 1899
          1912 1913 1934 1935 1938 1939
          1940 1941 1954 1955 1958 1959
          1962 1963 1964 1965 1966 1967
          1974 1975 1976 1977 1978 1979
          1980 1981 1984 1985 1990 1991
          1992 1993 1994 1995 2002 2003
          2012 2013 2016 2017 2022 2023
          2032 2033 2034 2035 2036 2037
          2042 2043 2056 2057 2066 2067
          2072 2073 2076 2077 2080 2081
          2086 2087 2090 2091 2094 2095
          2098 2099 2104 2105 2108 2109
          2114 2115 2118 2119 2122 2123
          2142 2143 2152 2153 2156 2157
          2168 2169 2172 2173 2174 2175
          2182 2183 2188 2189 2190 2191
          2192 2193 2194 2195 2198 2199
          2210 2211 2240 2241 2272 2273
          2280 2281 2300 2301 2322 2323
          2326 2327 2338 2339 2376 2377
          2378 2379 2380 2381 2384 2385
          2386 2387 2388 2389 2394 2395
          2428 2429 2438 2439 2446 2447
          2454 2455 2492 2493 2508 2509
          2514 2515 2516 2517 2528 2529
          2536 2537 2538 2539 2544 2545
          2548 2549 2552 2553 2576 2577
          2604 2605 2606 2607 2614 2615
          2618 2619 2626 2627 2630 2631
          2632 2633 2652 2653 2654 2655
          2674 2675 2676 2677 2686 2687
          2692 2693 2698 2699 2706 2707
          2712 2713 2718 2719 2728 2729
          2730 2731 2732 2733 2744 2745
          2752 2753 2758 2759 2770 2771
          2784 2785 2786 2787 2792 2793
          2812 2813 2816 2817 2818 2819
          2820 2821 2842 2843 2856 2857
          2866 2867 2882 2883 2894 2895
          2900 2901 2906 2907 2914 2915
          2942 2943 2970 2971 2976 2977
          2992 2993 3010 3011 3012 3013
          3016 3017 3046 3047 3056 3057
          3058 3059 3070 3071 3078 3079
          3084 3085 3094 3095 3098 3099
          3118 3119 3122 3123 3128 3129
          3134 3135 3152 3153 3180 3181
          3192 3193 3196 3197 3200 3201
          3202 3203 3214 3215 3244 3245
          3248 3249 3258 3259
        </DataArray>
        <DataArray type="Int32" Name="subdomain_id" format="ascii" RangeMin="107" RangeMax="107">
          107 107 107 107 107 107
          107 107 107 107 107 107
          107 107 107 107 107 107
          107 107 107 107 107 107
          107 107 107 107 107 107
          107 107 107 107 107 107
          107 107 107 107 107 107
          107 107 107 107 107 107
          107 107 107 107 107 107
          107 107 107 107 107 107
          107 107 107 107 107 107
          107 107 107 107 107 107
          107 107 107 107 107 107
          107 107 107 107 107 107
          107 107 107 107 107 107
          107 107 107 107 107 107
          107 107 107 107 107 107
          107 107 107 107 107 107
          107 107 107 107 107 107
          107 107 107 107 107 107
          107 107 107 107 107 107
          107 107 107 107 107 107
          107 107 107 107 107 107
          107 107 107 107 107 107
          107 107 107 107 107 107
          107 107 107 107 107 107
          107 107 107 107 107 107
          107 107 107 107 107 107
          107 107 107 107 107 107
          107 107 107 107 107 107
          107 107 107 107 107 107
          107 107 107 107 107 107
          107 107 107 107 107 107
          107 107 107 107 107 107
          107 107 107 107 107 107
          107 107 107 107 107 107
          107 107 107 107 107 107
          107 107 107 107 107 107
          107 107 107 107 107 107
          107 107 107 107 107 107
          107 107 107 107 107 107
          107 107 107 107 107 107
          107 107 107 107 107 107
          107 107 107 107 107 107
          107 107 107 107 107 107
          107 107 107 107 107 107
          107 107 107 107 107 107
          107 107 107 107 107 107
          107 107 107 107 107 107
          107 107 107 107 107 107
          107 107 107 107 107 107
          107 107 107 107 107 107
          107 107 107 107 107 107
          107 107 107 107 107 107
          107 107 107 107 107 107
          107 107 107 107 107 107
          107 107 107 107 107 107
          107 107 107 107 107 107
          107 107 107 107 107 107
          107 107 107 107 107 107
          107 107 107 107 107 107
          107 107 107 107 107 107
          107 107 107 107 107 107
          107 107 107 107 107 107
          107 107 107 107 107 107
          107 107 107 107 107 107
          107 107 107 107 107 107
          107 107 107 107 107 107
          107 107 107 107 107 107
          107 107 107 107 107 107
          107 107 107 107 107 107
          107 107 107 107 107 107
          107 107 107 107 107 107
          107 107 107 107 107 107
          107 107 107 107 107 107
          107 107 107 107
        </DataArray>
        <DataArray type="Int32" Name="processor_id" format="ascii" RangeMin="3" RangeMax="3">
          3 3 3 3 3 3
          3 3 3 3 3 3
          3 3 3 3 3 3
          3 3 3 3 3 3
          3 3 3 3 3 3
          3 3 3 3 3 3
          3 3 3 3 3 3
          3 3 3 3 3 3
          3 3 3 3 3 3
          3 3 3 3 3 3
          3 3 3 3 3 3
          3 3 3 3 3 3
          3 3 3 3 3 3
          3 3 3 3 3 3
          3 3 3 3 3 3
          3 3 3 3 3 3
          3 3 3 3 3 3
          3 3 3 3 3 3
          3 3 3 3 3 3
          3 3 3 3 3 3
          3 3 3 3 3 3
          3 3 3 3 3 3
          3 3 3 3 3 3
          3 3 3 3 3 3
          3 3 3 3 3 3
          3 3 3 3 3 3
          3 3 3 3 3 3
          3 3 3 3 3 3
          3 3 3 3 3 3
          3 3 3 3 3 3
          3 3 3 3 3 3
          3 3 3 3 3 3
          3 3 3 3 3 3
          3 3 3 3 3 3
          3 3 3 3 3 3
          3 3 3 3 3 3
          3 3 3 3 3 3
          3 3 3 3 3 3
          3 3 3 3 3 3
          3 3 3 3 3 3
          3 3 3 3 3 3
          3 3 3 3 3 3
          3 3 3 3 3 3
          3 3 3 3 3 3
          3 3 3 3 3 3
          3 3 3 3 3 3
          3 3 3 3 3 3
          3 3 3 3 3 3
          3 3 3 3 3 3
          3 3 3 3 3 3
          3 3 3 3 3 3
          3 3 3 3 3 3
          3 3 3 3 3 3
          3 3 3 3 3 3
          3 3 3 3 3 3
          3 3 3 3 3 3
          3 3 3 3 3 3
          3 3 3 3 3 3
          3 3 3 3 3 3
          3 3 3 3 3 3
          3 3 3 3 3 3
          3 3 3 3 3 3
          3 3 3 3 3 3
          3 3 3 3 3 3
          3 3 3 3 3 3
          3 3 3 3 3 3
          3 3 3 3 3 3
          3 3 3 3 3 3
          3 3 3 3 3 3
          3 3 3 3 3 3
          3 3 3 3 3 3
          3 3 3 3 3 3
          3 3 3 3 3 3
          3 3 3 3 3 3
          3 3 3 3 3 3
          3 3 3 3
        </DataArray>
      </CellData>
      <Points>
        <DataArray type="Float64" Name="Points" NumberOfComponents="3" format="ascii" RangeMin="0.013166738443807365" RangeMax="0.02374822585851783">
          0.016451229180203 0.011589607556601 0 0.016255198485848 0.011015934042219 0
          0.016728572005863 0.010757201031786 0 0.017039955631379 0.011194422572054 0
          0.016451229180203 0.011589607556601 0.00015 0.016255198485848 0.011015934042219 0.00015
          0.016728572005863 0.010757201031786 0.00015 0.017039955631379 0.011194422572054 0.00015
          0.016451229180203 0.011589607556601 0.0003 0.016255198485848 0.011015934042219 0.0003
          0.016728572005863 0.010757201031786 0.0003 0.017039955631379 0.011194422572054 0.0003
          0.011186406523754 0.0095188731742926 0 0.010689703280164 0.0094649590365737 0
          0.010634679710187 0.008964429555675 0 0.011131650337527 0.0089687060727404 0
          0.011186406523754 0.0095188731742926 0.00015 0.010689703280164 0.0094649590365737 0.00015
          0.010634679710187 0.008964429555675 0.00015 0.011131650337527 0.0089687060727404 0.00015
          0.011186406523754 0.0095188731742926 0.0003 0.010689703280164 0.0094649590365737 0.0003
          0.010634679710187 0.008964429555675 0.0003 0.011131650337527 0.0089687060727404 0.0003
          0.010158980545183 0.0089928081418126 0 0.010158980545183 0.0089928081418126 0.00015
          0.010158980545183 0.0089928081418126 0.0003 0.010234809282542 0.0094751596931164 0
          0.010234809282542 0.0094751596931164 0.00015 0.010234809282542 0.0094751596931164 0.0003
          0.017215305681839 0.010421173498473 0 0.017538322616078 0.010852535251392 0
          0.017215305681839 0.010421173498473 0.00015 0.017538322616078 0.010852535251392 0.00015
          0.017215305681839 0.010421173498473 0.0003 0.017538322616078 0.010852535251392 0.0003
          0.015522227276376 0.0083950727535023 0 0.015339273065407 0.0078314073000753 0
          0.015832583415208 0.0077039482324782 0 0.015871156677641 0.0080932538621961 0
          0.015522227276376 0.0083950727535023 0.00015 0.015339273065407 0.0078314073000753 0.00015
          0.015832583415208 0.0077039482324782 0.00015 0.015871156677641 0.0080932538621961 0.00015
          0.015522227276376 0.0083950727535023 0.0003 0.015339273065407 0.0078314073000753 0.0003
          0.015832583415208 0.0077039482324782 0.0003 0.015871156677641 0.0080932538621961 0.0003
          0.014182404182597 0.012030933394166 0 0.014112697634716 0.011586899500601 0
          0.01453762000082 0.011541498939039 0 0.014647727851392 0.011956202120878 0
          0.014182404182597 0.012030933394166 0.00015 0.014112697634716 0.011586899500601 0.00015
          0.01453762000082 0.011541498939039 0.00015 0.014647727851392 0.011956202120878 0.00015
          0.014182404182597 0.012030933394166 0.0003 0.014112697634716 0.011586899500601 0.0003
          0.01453762000082 0.011541498939039 0.0003 0.014647727851392 0.011956202120878 0.0003
          0.012718807262617 0.012100913225318 0 0.01318790653826 0.012081424726463 0
          0.013223560157694 0.012548837560718 0 0.012721969255655 0.012547975923311 0
          0.012718807262617 0.012100913225318 0.00015 0.01318790653826 0.012081424726463 0.00015
          0.013223560157694 0.012548837560718 0.00015 0.012721969255655 0.012547975923311 0.00015
          0.012718807262617 0.012100913225318 0.0003 0.01318790653826 0.012081424726463 0.0003
          0.013223560157694 0.012548837560718 0.0003 0.012721969255655 0.012547975923311 0.0003
          0.015037276113604 0.0053883886132418 0 0.014872829902632 0.0048660088618751 0
          0.015610482342583 0.0052949834846695 0 0.015037276113604 0.0053883886132418 0.00015
          0.014872829902632 0.0048660088618751 0.00015 0.015610482342583 0.0052949834846695 0.00015
          0.015037276113604 0.0053883886132418 0.0003 0.014872829902632 0.0048660088618751 0.0003
          0.015610482342583 0.0052949834846695 0.0003 0.012853333735139 0.0071862564407273 0
          0.013298874998351 0.0073010052974168 0 0.013468505581478 0.0077481198485017 0
          0.012879769579272 0.0077824950988095 0 0.012853333735139 0.0071862564407273 0.00015
          0.013298874998351 0.0073010052974168 0.00015 0.013468505581478 0.0077481198485017 0.00015
          0.012879769579272 0.0077824950988095 0.00015 0.012853333735139 0.0071862564407273 0.0003
          0.013298874998351 0.0073010052974168 0.0003 0.013468505581478 0.0077481198485017 0.0003
          0.012879769579272 0.0077824950988095 0.0003 0.012310751390795 0.0073009210446318 0
          0.012310751390795 0.0073009210446318 0.00015 0.012310751390795 0.0073009210446318 0.0003
          0.016440539131042 0.010340248821358 0 0.016895401758078 0.0099970418145034 0
          0.016440539131042 0.010340248821358 0.00015 0.016895401758078 0.0099970418145034 0.00015
          0.016440539131042 0.010340248821358 0.0003 0.016895401758078 0.0099970418145034 0.0003
          0.015674284513358 0.012057735082989 0 0.015799992883172 0.011590312491375 0
          0.01620648935985 0.012173309797103 0 0.015674284513358 0.012057735082989 0.00015
          0.015799992883172 0.011590312491375 0.00015 0.01620648935985 0.012173309797103 0.00015
          0.015674284513358 0.012057735082989 0.0003 0.015799992883172 0.011590312491375 0.0003
          0.01620648935985 0.012173309797103 0.0003 0.015719396244314 0.0096761034796614 0
          0.015317179218416 0.010039615829248 0 0.014916285335657 0.0096823062625427 0
          0.015356151892906 0.0093633130446295 0 0.015719396244314 0.0096761034796614 0.00015
          0.015317179218416 0.010039615829248 0.00015 0.014916285335657 0.0096823062625427 0.00015
          0.015356151892906 0.0093633130446295 0.00015 0.015719396244314 0.0096761034796614 0.0003
          0.015317179218416 0.010039615829248 0.0003 0.014916285335657 0.0096823062625427 0.0003
          0.015356151892906 0.0093633130446295 0.0003 0.014911939516014 0.011080222539295 0
          0.01492908374418 0.011511002202991 0 0.014470673144967 0.011122308960465 0
          0.014911939516014 0.011080222539295 0.00015 0.01492908374418 0.011511002202991 0.00015
          0.014470673144967 0.011122308960465 0.00015 0.014911939516014 0.011080222539295 0.0003
          0.01492908374418 0.011511002202991 0.0003 0.014470673144967 0.011122308960465 0.0003
          0.014927498433442 0.011816834084778 0 0.015214955739546 0.01195124117686 0
          0.014868481741766 0.012398226678167 0 0.014927498433442 0.011816834084778 0.00015
          0.015214955739546 0.01195124117686 0.00015 0.014868481741766 0.012398226678167 0.00015
          0.014927498433442 0.011816834084778 0.0003 0.015214955739546 0.01195124117686 0.0003
          0.014868481741766 0.012398226678167 0.0003 0.014887382940214 0.010512753679506 0
          0.01433465747601 0.010724165901292 0 0.014030150330029 0.010370439204794 0
          0.01444626395613 0.010022024912649 0 0.014887382940214 0.010512753679506 0.00015
          0.01433465747601 0.010724165901292 0.00015 0.014030150330029 0.010370439204794 0.00015
          0.01444626395613 0.010022024912649 0.00015 0.014887382940214 0.010512753679506 0.0003
          0.01433465747601 0.010724165901292 0.0003 0.014030150330029 0.010370439204794 0.0003
          0.01444626395613 0.010022024912649 0.0003 0.013388886812482 0.0083497293814167 0
          0.012899574253998 0.0083038014764745 0 0.013388886812482 0.0083497293814167 0.00015
          0.012899574253998 0.0083038014764745 0.00015 0.013388886812482 0.0083497293814167 0.0003
          0.012899574253998 0.0083038014764745 0.0003 0.015784016264429 0.0071345425111119 0
          0.016328429431772 0.0071626451349231 0 0.016328043288569 0.0077322573762078 0
          0.015784016264429 0.0071345425111119 0.00015 0.016328429431772 0.0071626451349231 0.00015
          0.016328043288569 0.0077322573762078 0.00015 0.015784016264429 0.0071345425111119 0.0003
          0.016328429431772 0.0071626451349231 0.0003 0.016328043288569 0.0077322573762078 0.0003
          0.016727166785252 0.0084386331054829 0 0.01644772366367 0.0089064975551763 0
          0.016002189190704 0.0086574712541786 0 0.016221340977963 0.0082297464535469 0
          0.016727166785252 0.0084386331054829 0.00015 0.01644772366367 0.0089064975551763 0.00015
          0.016002189190704 0.0086574712541786 0.00015 0.016221340977963 0.0082297464535469 0.00015
          0.016727166785252 0.0084386331054829 0.0003 0.01644772366367 0.0089064975551763 0.0003
          0.016002189190704 0.0086574712541786 0.0003 0.016221340977963 0.0082297464535469 0.0003
          0.018901908985383 0.011783468628847 0 0.018328257152057 0.011560564570719 0
          0.018901908985383 0.011783468628847 0.00015 0.018328257152057 0.011560564570719 0.00015
          0.018901908985383 0.011783468628847 0.0003 0.018328257152057 0.011560564570719 0.0003
          0.016817438697449 0.012401495631919 0 0.016895899239308 0.011880939878953 0
          0.016817438697449 0.012401495631919 0.00015 0.016895899239308 0.011880939878953 0.00015
          0.016817438697449 0.012401495631919 0.0003 0.016895899239308 0.011880939878953 0.0003
          0.010475172867508 0.012102844227475 0 0.010669582432454 0.011743114144408 0
          0.010475172867508 0.012102844227475 0.00015 0.010669582432454 0.011743114144408 0.00015
          0.010475172867508 0.012102844227475 0.0003 0.010669582432454 0.011743114144408 0.0003
          0.018198082784875 0.0097658337520035 0 0.018455934862008 0.010221918525687 0
          0.018019877493881 0.01050989807829 0 0.017698489924893 0.010066971919266 0
          0.018198082784875 0.0097658337520035 0.00015 0.018455934862008 0.010221918525687 0.00015
          0.018019877493881 0.01050989807829 0.00015 0.017698489924893 0.010066971919266 0.00015
          0.018198082784875 0.0097658337520035 0.0003 0.018455934862008 0.010221918525687 0.0003
          0.018019877493881 0.01050989807829 0.0003 0.017698489924893 0.010066971919266 0.0003
          0.015096658749896 0.0059763609132825 0 0.015666288430535 0.0059190759170471 0
          0.015096658749896 0.0059763609132825 0.00015 0.015666288430535 0.0059190759170471 0.00015
          0.015096658749896 0.0059763609132825 0.0003 0.015666288430535 0.0059190759170471 0.0003
          0.013546901289865 0.0069836782833127 0 0.013134929749538 0.0067248500217048 0
          0.013546901289865 0.0069836782833127 0.00015 0.013134929749538 0.0067248500217048 0.00015
          0.013546901289865 0.0069836782833127 0.0003 0.013134929749538 0.0067248500217048 0.0003
          0.013831418153218 0.0064982603089606 0 0.013338214474932 0.0062766362868091 0
          0.013831418153218 0.0064982603089606 0.00015 0.013338214474932 0.0062766362868091 0.00015
          0.013831418153218 0.0064982603089606 0.0003 0.013338214474932 0.0062766362868091 0.0003
          0.017908784385217 0.011229685010797 0 0.017908784385217 0.011229685010797 0.00015
          0.017908784385217 0.011229685010797 0.0003 0.017460830811305 0.0067242961174433 0
          0.017460830811305 0.0067242961174433 0.00015 0.017460830811305 0.0067242961174433 0.0003
          0.016232724398465 0.0059010997942707 0 0.016810957053741 0.0059693958220605 0
          0.016865945400018 0.0066157033945985 0 0.016287343165999 0.0065221003589061 0
          0.016232724398465 0.0059010997942707 0.00015 0.016810957053741 0.0059693958220605 0.00015
          0.016865945400018 0.0066157033945985 0.00015 0.016287343165999 0.0065221003589061 0.00015
          0.016232724398465 0.0059010997942707 0.0003 0.016810957053741 0.0059693958220605 0.0003
          0.016865945400018 0.0066157033945985 0.0003 0.016287343165999 0.0065221003589061 0.0003
          0.015434451036398 0.0088351663483508 0 0.015091649000167 0.0090065479673052 0
          0.0149386527618 0.008562942865766 0 0.015434451036398 0.0088351663483508 0.00015
          0.015091649000167 0.0090065479673052 0.00015 0.0149386527618 0.008562942865766 0.00015
          0.015434451036398 0.0088351663483508 0.0003 0.015091649000167 0.0090065479673052 0.0003
          0.0149386527618 0.008562942865766 0.0003 0.013851103268646 0.0079817773379183 0
          0.013864053371773 0.0083733293390323 0 0.013851103268646 0.0079817773379183 0.00015
          0.013864053371773 0.0083733293390323 0.00015 0.013851103268646 0.0079817773379183 0.0003
          0.013864053371773 0.0083733293390323 0.0003 0.016873832756735 0.0078915607150548 0
          0.016873832756735 0.0078915607150548 0.00015 0.016873832756735 0.0078915607150548 0.0003
          0.011740832768399 0.012550565772382 0 0.011781425344485 0.012080160842703 0
          0.012267797740114 0.012087686226532 0 0.012238354096222 0.012547223275944 0
          0.011740832768399 0.012550565772382 0.00015 0.011781425344485 0.012080160842703 0.00015
          0.012267797740114 0.012087686226532 0.00015 0.012238354096222 0.012547223275944 0.00015
          0.011740832768399 0.012550565772382 0.0003 0.011781425344485 0.012080160842703 0.0003
          0.012267797740114 0.012087686226532 0.0003 0.012238354096222 0.012547223275944 0.0003
          0.015724816214821 0.0065169349202822 0 0.015724816214821 0.0065169349202822 0.00015
          0.015724816214821 0.0065169349202822 0.0003 0.016904663245172 0.0072759580116152 0
          0.016904663245172 0.0072759580116152 0.00015 0.016904663245172 0.0072759580116152 0.0003
          0.016212759806586 0.0053000490100875 0 0.016212759806586 0.0053000490100875 0.00015
          0.016212759806586 0.0053000490100875 0.0003 0.017422284858474 0.011679101640391 0
          0.017908527792884 0.011814582379248 0 0.017422284858474 0.011679101640391 0.00015
          0.017908527792884 0.011814582379248 0.00015 0.017422284858474 0.011679101640391 0.0003
          0.017908527792884 0.011814582379248 0.0003 0.017261702763099 0.0086939606584207 0
          0.017434489396122 0.0080779876667089 0 0.017261702763099 0.0086939606584207 0.00015
          0.017434489396122 0.0080779876667089 0.00015 0.017261702763099 0.0086939606584207 0.0003
          0.017434489396122 0.0080779876667089 0.0003 0.014181033506022 0.0077713348891544 0
          0.014325604474543 0.0082610969383043 0 0.014181033506022 0.0077713348891544 0.00015
          0.014325604474543 0.0082610969383043 0.00015 0.014181033506022 0.0077713348891544 0.0003
          0.014325604474543 0.0082610969383043 0.0003 0.016099115219063 0.0099899847281115 0
          0.016520689982407 0.0096278486407962 0 0.016099115219063 0.0099899847281115 0.00015
          0.016520689982407 0.0096278486407962 0.00015 0.016099115219063 0.0099899847281115 0.0003
          0.016520689982407 0.0096278486407962 0.0003 0.014613026918956 0.0092413149543641 0
          0.014613026918956 0.0092413149543641 0.00015 0.014613026918956 0.0092413149543641 0.0003
          0.016937453954769 0.0092095292918499 0 0.017364558514239 0.0096012653805297 0
          0.016937453954769 0.0092095292918499 0.00015 0.017364558514239 0.0096012653805297 0.00015
          0.016937453954769 0.0092095292918499 0.0003 0.017364558514239 0.0096012653805297 0.0003
          0.015712843676617 0.010331364913168 0 0.016032046384524 0.010629553115583 0
          0.015712843676617 0.010331364913168 0.00015 0.016032046384524 0.010629553115583 0.00015
          0.015712843676617 0.010331364913168 0.0003 0.016032046384524 0.010629553115583 0.0003
          0.01346343572409 0.0057857389411653 0 0.01346343572409 0.0057857389411653 0.00015
          0.01346343572409 0.0057857389411653 0.0003 0.015150761096164 0.0066142159223768 0
          0.015150761096164 0.0066142159223768 0.00015 0.015150761096164 0.0066142159223768 0.0003
          0.015453261139866 0.010697023165802 0 0.015761290368715 0.010819971207646 0
          0.015453261139866 0.010697023165802 0.00015 0.015761290368715 0.010819971207646 0.00015
          0.015453261139866 0.010697023165802 0.0003 0.015761290368715 0.010819971207646 0.0003
          0.013975551316416 0.0059398855735222 0 0.013975551316416 0.0059398855735222 0.00015
          0.013975551316416 0.0059398855735222 0.0003 0.017479032913359 0.0074088673936633 0
          0.017479032913359 0.0074088673936633 0.00015 0.017479032913359 0.0074088673936633 0.0003
          0.014439802315681 0.0067889662935499 0 0.014530319307898 0.006021518089632 0
          0.014439802315681 0.0067889662935499 0.00015 0.014530319307898 0.006021518089632 0.00015
          0.014439802315681 0.0067889662935499 0.0003 0.014530319307898 0.006021518089632 0.0003
          0.014431521900925 0.0087663339265048 0 0.013899975831329 0.0088854517032459 0
          0.014431521900925 0.0087663339265048 0.00015 0.013899975831329 0.0088854517032459 0.00015
          0.014431521900925 0.0087663339265048 0.0003 0.013899975831329 0.0088854517032459 0.0003
          0.015334349753872 0.011547922560075 0 0.015363465895193 0.011114260619116 0
          0.015801980011793 0.011137474992711 0 0.015334349753872 0.011547922560075 0.00015
          0.015363465895193 0.011114260619116 0.00015 0.015801980011793 0.011137474992711 0.00015
          0.015334349753872 0.011547922560075 0.0003 0.015363465895193 0.011114260619116 0.0003
          0.015801980011793 0.011137474992711 0.0003 0.01326617738197 0.0093680808515997 0
          0.012793423392144 0.00921210926252 0 0.012882512800283 0.0087881474090036 0
          0.013365259810227 0.0088714473068585 0 0.01326617738197 0.0093680808515997 0.00015
          0.012793423392144 0.00921210926252 0.00015 0.012882512800283 0.0087881474090036 0.00015
          0.013365259810227 0.0088714473068585 0.00015 0.01326617738197 0.0093680808515997 0.0003
          0.012793423392144 0.00921210926252 0.0003 0.012882512800283 0.0087881474090036 0.0003
          0.013365259810227 0.0088714473068585 0.0003 0.011993243876189 0.010936510200926 0
          0.011726815341297 0.011491075647124 0 0.011222013645511 0.011097826594996 0
          0.011481744371717 0.010688234667639 0 0.011993243876189 0.010936510200926 0.00015
          0.011726815341297 0.011491075647124 0.00015 0.011222013645511 0.011097826594996 0.00015
          0.011481744371717 0.010688234667639 0.00015 0.011993243876189 0.010936510200926 0.0003
          0.011726815341297 0.011491075647124 0.0003 0.011222013645511 0.011097826594996 0.0003
          0.011481744371717 0.010688234667639 0.0003 0.013923252507151 0.0073329122207352 0
          0.013923252507151 0.0073329122207352 0.00015 0.013923252507151 0.0073329122207352 0.0003
          0.013063793506476 0.0098271989985527 0 0.012601634550352 0.009590277262082 0
          0.013063793506476 0.0098271989985527 0.00015 0.012601634550352 0.009590277262082 0.00015
          0.013063793506476 0.0098271989985527 0.0003 0.012601634550352 0.009590277262082 0.0003
          0.014102855237989 0.0047969187863067 0 0.013905759673286 0.0043612537888552 0
          0.014102855237989 0.0047969187863067 0.00015 0.013905759673286 0.0043612537888552 0.00015
          0.014102855237989 0.0047969187863067 0.0003 0.013905759673286 0.0043612537888552 0.0003
          0.012852488428802 0.010265076045094 0 0.012374691983482 0.010000797580735 0
          0.012852488428802 0.010265076045094 0.00015 0.012374691983482 0.010000797580735 0.00015
          0.012852488428802 0.010265076045094 0.0003 0.012374691983482 0.010000797580735 0.0003
          0.011668611956603 0.010219239111219 0 0.012182731119778 0.010462377133106 0
          0.011668611956603 0.010219239111219 0.00015 0.012182731119778 0.010462377133106 0.00015
          0.011668611956603 0.010219239111219 0.0003 0.012182731119778 0.010462377133106 0.0003
          0.011158560753842 0.010029990414111 0 0.011017968815575 0.010465683342369 0
          0.011158560753842 0.010029990414111 0.00015 0.011017968815575 0.010465683342369 0.00015
          0.011158560753842 0.010029990414111 0.0003 0.011017968815575 0.010465683342369 0.0003
          0.014820390261339 0.0080402105998384 0 0.014820390261339 0.0080402105998384 0.00015
          0.014820390261339 0.0080402105998384 0.0003 0.015228397699353 0.0072512250897894 0
          0.015228397699353 0.0072512250897894 0.00015 0.015228397699353 0.0072512250897894 0.0003
          0.0130361735465 0.011522072885309 0 0.012689359184487 0.011761634268536 0
          0.012340499111532 0.011632501505239 0 0.012497431968462 0.011183651982421 0
          0.0130361735465 0.011522072885309 0.00015 0.012689359184487 0.011761634268536 0.00015
          0.012340499111532 0.011632501505239 0.00015 0.012497431968462 0.011183651982421 0.00015
          0.0130361735465 0.011522072885309 0.0003 0.012689359184487 0.011761634268536 0.0003
          0.012340499111532 0.011632501505239 0.0003 0.012497431968462 0.011183651982421 0.0003
          0.013528941600065 0.0052742966774397 0 0.014027103455945 0.0053875982273864 0
          0.013528941600065 0.0052742966774397 0.00015 0.014027103455945 0.0053875982273864 0.00015
          0.013528941600065 0.0052742966774397 0.0003 0.014027103455945 0.0053875982273864 0.0003
          0.010128205128219 0.013 0 0.010310686327751 0.012539165738252 0
          0.010788384596096 0.012564579045747 0 0.01064102564104 0.013 0
          0.010128205128219 0.013 0.00015 0.010310686327751 0.012539165738252 0.00015
          0.010788384596096 0.012564579045747 0.00015 0.01064102564104 0.013 0.00015
          0.010128205128219 0.013 0.0003 0.010310686327751 0.012539165738252 0.0003
          0.010788384596096 0.012564579045747 0.0003 0.01064102564104 0.013 0.0003
          0.010783127360108 0.010836567412064 0 0.010385522435479 0.010608007769118 0
          0.010601303654319 0.010290632654442 0 0.010783127360108 0.010836567412064 0.00015
          0.010385522435479 0.010608007769118 0.00015 0.010601303654319 0.010290632654442 0.00015
          0.010783127360108 0.010836567412064 0.0003 0.010385522435479 0.010608007769118 0.0003
          0.010601303654319 0.010290632654442 0.0003 0.011818930007254 0.009602160287834 0
          0.011818930007254 0.009602160287834 0.00015 0.011818930007254 0.009602160287834 0.0003
          0.015715008716269 0.0090308288850156 0 0.01610853428864 0.0093166480881369 0
          0.015715008716269 0.0090308288850156 0.00015 0.01610853428864 0.0093166480881369 0.00015
          0.015715008716269 0.0090308288850156 0.0003 0.01610853428864 0.0093166480881369 0.0003
          0.013952831965685 0.0095243725467762 0 0.013572358856734 0.010071658883703 0
          0.013952831965685 0.0095243725467762 0.00015 0.013572358856734 0.010071658883703 0.00015
          0.013952831965685 0.0095243725467762 0.0003 0.013572358856734 0.010071658883703 0.0003
          0.012677817340078 0.010719835797972 0 0.012677817340078 0.010719835797972 0.00015
          0.012677817340078 0.010719835797972 0.0003 0.014678664229456 0.0074733115324236 0
          0.014678664229456 0.0074733115324236 0.00015 0.014678664229456 0.0074733115324236 0.0003
          0.012261506677236 0.0092701804285872 0 0.012499922412859 0.0090879994978671 0
          0.012261506677236 0.0092701804285872 0.00015 0.012499922412859 0.0090879994978671 0.00015
          0.012261506677236 0.0092701804285872 0.0003 0.012499922412859 0.0090879994978671 0.0003
          0.011270478587413 0.012561768236337 0 0.011153846153863 0.013 0
          0.011270478587413 0.012561768236337 0.00015 0.011153846153863 0.013 0.00015
          0.011270478587413 0.012561768236337 0.0003 0.011153846153863 0.013 0.0003
          0.012179487179506 0.013 0 0.012692307692328 0.013 0
          0.012179487179506 0.013 0.00015 0.012692307692328 0.013 0.00015
          0.012179487179506 0.013 0.0003 0.012692307692328 0.013 0.0003
          0.013205128205151 0.013 0 0.013721380024409 0.012538570920528 0
          0.013717948717973 0.013 0 0.013205128205151 0.013 0.00015
          0.013721380024409 0.012538570920528 0.00015 0.013717948717973 0.013 0.00015
          0.013205128205151 0.013 0.0003 0.013721380024409 0.012538570920528 0.0003
          0.013717948717973 0.013 0.0003 0.013680323008888 0.01206206640945 0
          0.0136362676363 0.011582155921186 0 0.013680323008888 0.01206206640945 0.00015
          0.0136362676363 0.011582155921186 0.00015 0.013680323008888 0.01206206640945 0.0003
          0.0136362676363 0.011582155921186 0.0003 0.011306940297591 0.012129646322267 0
          0.011212076662234 0.01173976422044 0 0.011306940297591 0.012129646322267 0.00015
          0.011212076662234 0.01173976422044 0.00015 0.011306940297591 0.012129646322267 0.0003
          0.011212076662234 0.01173976422044 0.0003 0.014247558447628 0.012512499343239 0
          0.014230769230793 0.013 0 0.014247558447628 0.012512499343239 0.00015
          0.014230769230793 0.013 0.00015 0.014247558447628 0.012512499343239 0.0003
          0.014230769230793 0.013 0.0003 0.010925822172272 0.011428925131881 0
          0.010925822172272 0.011428925131881 0.00015 0.010925822172272 0.011428925131881 0.0003
          0.017598702187272 0.012594388856786 0 0.018138509806267 0.012585421267124 0
          0.018333333333352 0.013 0 0.017820512820533 0.013 0
          0.017598702187272 0.012594388856786 0.00015 0.018138509806267 0.012585421267124 0.00015
          0.018333333333352 0.013 0.00015 0.017820512820533 0.013 0.00015
          0.017598702187272 0.012594388856786 0.0003 0.018138509806267 0.012585421267124 0.0003
          0.018333333333352 0.013 0.0003 0.017820512820533 0.013 0.0003
          0.01884615384617 0.013 0 0.018647619061649 0.012577247456601 0
          0.01884615384617 0.013 0.00015 0.018647619061649 0.012577247456601 0.00015
          0.01884615384617 0.013 0.0003 0.018647619061649 0.012577247456601 0.0003
          0.010939820280367 0.01187760398484 0 0.010939820280367 0.01187760398484 0.00015
          0.010939820280367 0.01187760398484 0.0003 0.014743589743616 0.013 0
          0.014743589743616 0.013 0.00015 0.014743589743616 0.013 0.0003
          0.013168261777023 0.010955167755454 0 0.013168261777023 0.010955167755454 0.00015
          0.013168261777023 0.010955167755454 0.0003 0.011620435633551 0.0089440866322713 0
          0.011620435633551 0.0089440866322713 0.00015 0.011620435633551 0.0089440866322713 0.0003
          0.01333281098878 0.010501143990949 0 0.01333281098878 0.010501143990949 0.00015
          0.01333281098878 0.010501143990949 0.0003 0.013640766026071 0.011115210745046 0
          0.014063261910082 0.011165191959691 0 0.013640766026071 0.011115210745046 0.00015
          0.014063261910082 0.011165191959691 0.00015 0.013640766026071 0.011115210745046 0.0003
          0.014063261910082 0.011165191959691 0.0003 0.013761635093034 0.010714997264381 0
          0.013761635093034 0.010714997264381 0.00015 0.013761635093034 0.010714997264381 0.0003
          0.01790845301636 0.0090613468730877 0 0.01790845301636 0.0090613468730877 0.00015
          0.01790845301636 0.0090613468730877 0.0003 0.010691300612525 0.0099168298135774 0
          0.010691300612525 0.0099168298135774 0.00015 0.010691300612525 0.0099168298135774 0.0003
          0.014509683505008 0.0050450954358061 0 0.014509683505008 0.0050450954358061 0.00015
          0.014509683505008 0.0050450954358061 0.0003 0.012373637985884 0.0077974643404521 0
          0.012419274731686 0.0083019280664676 0 0.012373637985884 0.0077974643404521 0.00015
          0.012419274731686 0.0083019280664676 0.00015 0.012373637985884 0.0077974643404521 0.0003
          0.012419274731686 0.0083019280664676 0.0003 0.014523119140279 0.0054383897453177 0
          0.014523119140279 0.0054383897453177 0.00015 0.014523119140279 0.0054383897453177 0.0003
          0.012468015808598 0.0087643938641043 0 0.012468015808598 0.0087643938641043 0.00015
          0.012468015808598 0.0087643938641043 0.0003 0.014041697947841 0.010862771985015 0
          0.014041697947841 0.010862771985015 0.00015 0.014041697947841 0.010862771985015 0.0003
          0.012067821946234 0.0088387705315247 0 0.012067821946234 0.0088387705315247 0.00015
          0.012067821946234 0.0088387705315247 0.0003 0.018063704813091 0.0075049932447581 0
          0.018063704813091 0.0075049932447581 0.00015 0.018063704813091 0.0075049932447581 0.0003
          0.01801805728244 0.008218173104411 0 0.01801805728244 0.008218173104411 0.00015
          0.01801805728244 0.008218173104411 0.0003 0.019162849649621 0.012571706415164 0
          0.019358974358988 0.013 0 0.019162849649621 0.012571706415164 0.00015
          0.019358974358988 0.013 0.00015 0.019162849649621 0.012571706415164 0.0003
          0.019358974358988 0.013 0.0003 0.015469042768348 0.012527612124711 0
          0.015256410256436 0.013 0 0.015469042768348 0.012527612124711 0.00015
          0.015256410256436 0.013 0.00015 0.015469042768348 0.012527612124711 0.0003
          0.015256410256436 0.013 0.0003 0.017482035345823 0.012218317378284 0
          0.017482035345823 0.012218317378284 0.00015 0.017482035345823 0.012218317378284 0.0003
          0.011666666666685 0.013 0 0.011666666666685 0.013 0.00015
          0.011666666666685 0.013 0.0003 0.013552812333296 0.0042895499786344 0
          0.013552812333296 0.0042895499786344 0.00015 0.013552812333296 0.0042895499786344 0.0003
          0.019003973493589 0.012129001566083 0 0.018491681451249 0.012137078785851 0
          0.019003973493589 0.012129001566083 0.00015 0.018491681451249 0.012137078785851 0.00015
          0.019003973493589 0.012129001566083 0.0003 0.018491681451249 0.012137078785851 0.0003
          0.016282051282076 0.013 0 0.016335894010033 0.012686725241599 0
          0.016794871794894 0.013 0 0.016282051282076 0.013 0.00015
          0.016335894010033 0.012686725241599 0.00015 0.016794871794894 0.013 0.00015
          0.016282051282076 0.013 0.0003 0.016335894010033 0.012686725241599 0.0003
          0.016794871794894 0.013 0.0003 0.017307692307713 0.013 0
          0.017281329535555 0.012689387511733 0 0.017307692307713 0.013 0.00015
          0.017281329535555 0.012689387511733 0.00015 0.017307692307713 0.013 0.0003
          0.017281329535555 0.012689387511733 0.0003 0.017996855365792 0.012159940978259 0
          0.017996855365792 0.012159940978259 0.00015 0.017996855365792 0.012159940978259 0.0003
          0.016023960213719 0.012601258532672 0 0.016023960213719 0.012601258532672 0.00015
          0.016023960213719 0.012601258532672 0.0003 0.015769230769256 0.013 0
          0.015769230769256 0.013 0.00015 0.015769230769256 0.013 0.0003
          0.013549428097692 0.0047645614477775 0 0.013549428097692 0.0047645614477775 0.00015
          0.013549428097692 0.0047645614477775 0.0003 0.010881954871342 0.01216105032025 0
          0.010881954871342 0.01216105032025 0.00015 0.010881954871342 0.01216105032025 0.0003
          0.010057653370411 0.0084974472595183 0 0.01054988842507 0.0084422245958245 0
          0.010057653370411 0.0084974472595183 0.00015 0.01054988842507 0.0084422245958245 0.00015
          0.010057653370411 0.0084974472595183 0.0003 0.01054988842507 0.0084422245958245 0.0003
          0.015535554193674 0.0045828394817383 0 0.015535554193674 0.0045828394817383 0.00015
          0.015535554193674 0.0045828394817383 0.0003 0.011832021157187 0.0073476785459853 0
          0.011779780861271 0.0068646395959748 0 0.012243708910156 0.0068324173193727 0
          0.011832021157187 0.0073476785459853 0.00015 0.011779780861271 0.0068646395959748 0.00015
          0.012243708910156 0.0068324173193727 0.00015 0.011832021157187 0.0073476785459853 0.0003
          0.011779780861271 0.0068646395959748 0.0003 0.012243708910156 0.0068324173193727 0.0003
          0.019357361519954 0.01157618305141 0 0.01884046117173 0.011223113854601 0
          0.019357361519954 0.01157618305141 0.00015 0.01884046117173 0.011223113854601 0.00015
          0.019357361519954 0.01157618305141 0.0003 0.01884046117173 0.011223113854601 0.0003
          0.014554004584986 0.0044253882271801 0 0.015005639561329 0.0040763460944633 0
          0.014554004584986 0.0044253882271801 0.00015 0.015005639561329 0.0040763460944633 0.00015
          0.014554004584986 0.0044253882271801 0.0003 0.015005639561329 0.0040763460944633 0.0003
          0.018384253973557 0.010894663204421 0 0.018384253973557 0.010894663204421 0.00015
          0.018384253973557 0.010894663204421 0.0003 0.017413401850906 0.0060417176080878 0
          0.018057579772584 0.0060827128421873 0 0.018070157245618 0.0068021820766994 0
          0.017413401850906 0.0060417176080878 0.00015 0.018057579772584 0.0060827128421873 0.00015
          0.018070157245618 0.0068021820766994 0.00015 0.017413401850906 0.0060417176080878 0.0003
          0.018057579772584 0.0060827128421873 0.0003 0.018070157245618 0.0068021820766994 0.0003
          0.016291762387835 0.0047307906783276 0 0.016291762387835 0.0047307906783276 0.00015
          0.016291762387835 0.0047307906783276 0.0003 0.012879713087233 0.0060908484912964 0
          0.012982043505355 0.0056371881930815 0 0.012879713087233 0.0060908484912964 0.00015
          0.012982043505355 0.0056371881930815 0.00015 0.012879713087233 0.0060908484912964 0.0003
          0.012982043505355 0.0056371881930815 0.0003 0.01678493258985 0.0053840721103251 0
          0.016848637368385 0.0048798435935376 0 0.01678493258985 0.0053840721103251 0.00015
          0.016848637368385 0.0048798435935376 0.00015 0.01678493258985 0.0053840721103251 0.0003
          0.016848637368385 0.0048798435935376 0.0003 0.012723582323863 0.006509831652106 0
          0.012723582323863 0.006509831652106 0.00015 0.012723582323863 0.006509831652106 0.0003
          0.014128459199836 0.0039835282877348 0 0.014128459199836 0.0039835282877348 0.00015
          0.014128459199836 0.0039835282877348 0.0003 0.018817000838468 0.010560792840001 0
          0.018817000838468 0.010560792840001 0.00015 0.018817000838468 0.010560792840001 0.0003
          0.011043213382792 0.0084269911709333 0 0.011043213382792 0.0084269911709333 0.00015
          0.011043213382792 0.0084269911709333 0.0003 0.011511795106494 0.0083968566041475 0
          0.011511795106494 0.0083968566041475 0.00015 0.011511795106494 0.0083968566041475 0.0003
          0.017341722495578 0.0054175123203669 0 0.017341722495578 0.0054175123203669 0.00015
          0.017341722495578 0.0054175123203669 0.0003 0.01196380743939 0.0083394019710021 0
          0.011894488312007 0.0078344841271679 0 0.01196380743939 0.0083394019710021 0.00015
          0.011894488312007 0.0078344841271679 0.00015 0.01196380743939 0.0083394019710021 0.0003
          0.011894488312007 0.0078344841271679 0.0003 0.018719100515555 0.0096191331103102 0
          0.018769006148643 0.010016813571171 0 0.018719100515555 0.0096191331103102 0.00015
          0.018769006148643 0.010016813571171 0.00015 0.018719100515555 0.0096191331103102 0.0003
          0.018769006148643 0.010016813571171 0.0003 0.019142781766586 0.010156284019367 0
          0.019142781766586 0.010156284019367 0.00015 0.019142781766586 0.010156284019367 0.0003
          0.019871794871807 0.013 0 0.019671681078705 0.012567114388191 0
          0.019871794871807 0.013 0.00015 0.019671681078705 0.012567114388191 0.00015
          0.019871794871807 0.013 0.0003 0.019671681078705 0.012567114388191 0.0003
          0.013590285783394 0.0038446716816234 0 0.013590285783394 0.0038446716816234 0.00015
          0.013590285783394 0.0038446716816234 0.0003 0.018696511924608 0.0075816988835645 0
          0.018734278863615 0.0068564365277259 0 0.018696511924608 0.0075816988835645 0.00015
          0.018734278863615 0.0068564365277259 0.00015 0.018696511924608 0.0075816988835645 0.0003
          0.018734278863615 0.0068564365277259 0.0003 0.013091675611077 0.0041736873632184 0
          0.013121586466294 0.0036708577033715 0 0.013091675611077 0.0041736873632184 0.00015
          0.013121586466294 0.0036708577033715 0.00015 0.013091675611077 0.0041736873632184 0.0003
          0.013121586466294 0.0036708577033715 0.0003 0.019497075330812 0.012129782091497 0
          0.019497075330812 0.012129782091497 0.00015 0.019497075330812 0.012129782091497 0.0003
          0.012592651705639 0.0068198098450163 0 0.012592651705639 0.0068198098450163 0.00015
          0.012592651705639 0.0068198098450163 0.0003 0.018655444813331 0.0089912542068827 0
          0.018655444813331 0.0089912542068827 0.00015 0.018655444813331 0.0089912542068827 0.0003
          0.018643245907353 0.0082916041839039 0 0.018643245907353 0.0082916041839039 0.00015
          0.018643245907353 0.0082916041839039 0.0003 0.013048655853798 0.0051555709380823 0
          0.013048655853798 0.0051555709380823 0.00015 0.013048655853798 0.0051555709380823 0.0003
          0.013084530633285 0.0046685927017207 0 0.013084530633285 0.0046685927017207 0.00015
          0.013084530633285 0.0046685927017207 0.0003
          <InformationKey name="L2_NORM_RANGE" location="vtkDataArray" length="2">
            <Value index="0">
              0.013166738444
            </Value>
            <Value index="1">
              0.023748225859
            </Value>
          </InformationKey>
        </DataArray>
      </Points>
      <Cells>
        <DataArray type="Int64" Name="connectivity" format="ascii" RangeMin="0" RangeMax="794">
          0 1 2 3 4 5
          6 7 4 5 6 7
          8 9 10 11 12 13
          14 15 16 17 18 19
          16 17 18 19 20 21
          22 23 666 667 14 24
          668 669 18 25 668 669
          18 25 670 671 22 26
          24 14 13 27 25 18
          17 28 25 18 17 28
          26 22 21 29 30 31
          3 2 32 33 7 6
          32 33 7 6 34 35
          11 10 36 37 38 39
          40 41 42 43 40 41
          42 43 44 45 46 47
          48 49 50 51 52 53
          54 55 52 53 54 55
          56 57 58 59 60 61
          62 63 64 65 66 67
          64 65 66 67 68 69
          70 71 72 73 672 74
          75 76 673 77 75 76
          673 77 78 79 674 80
          81 82 83 84 85 86
          87 88 85 86 87 88
          89 90 91 92 93 675
          676 677 94 678 679 680
          94 678 679 680 95 681
          682 683 2 96 97 30
          6 98 99 32 6 98
          99 32 10 100 101 34
          102 103 0 104 105 106
          4 107 105 106 4 107
          108 109 8 110 111 112
          113 114 115 116 117 118
          115 116 117 118 119 120
          121 122 123 124 50 125
          126 127 54 128 126 127
          54 128 129 130 58 131
          132 133 134 51 135 136
          137 55 135 136 137 55
          138 139 140 59 141 142
          143 144 145 146 147 148
          145 146 147 148 149 150
          151 152 112 141 144 113
          116 145 148 117 116 145
          148 117 120 149 152 121
          84 83 153 154 88 87
          155 156 88 87 155 156
          92 91 157 158 159 160
          161 38 162 163 164 42
          162 163 164 42 165 166
          167 46 168 169 170 171
          172 173 174 175 172 173
          174 175 176 177 178 179
          684 180 181 685 686 182
          183 687 686 182 183 687
          688 184 185 689 186 104
          0 187 188 107 4 189
          188 107 4 189 190 110
          8 191 690 691 672 73
          692 693 673 76 692 693
          673 76 694 695 674 79
          198 199 200 201 202 203
          204 205 202 203 204 205
          206 207 208 209 210 72
          74 211 212 75 77 213
          212 75 77 213 214 78
          80 215 216 82 81 217
          218 86 85 219 218 86
          85 219 220 90 89 221
          222 216 217 223 224 218
          219 225 224 218 219 225
          226 220 221 227 171 39
          38 161 175 43 42 164
          175 43 42 164 179 47
          46 167 228 696 685 181
          229 697 687 183 229 697
          687 183 230 698 689 185
          231 699 700 701 232 702
          703 704 232 702 703 704
          233 705 706 707 31 30
          201 200 33 32 205 204
          33 32 205 204 35 34
          209 208 234 235 236 237
          238 239 240 241 238 239
          240 241 242 243 244 245
          36 246 247 248 40 249
          250 251 40 249 250 251
          44 252 253 254 83 255
          256 153 87 257 258 155
          87 257 258 155 91 259
          260 157 235 699 231 236
          239 702 232 240 239 702
          232 240 243 705 233 244
          168 171 161 261 172 175
          164 262 172 175 164 262
          176 179 167 263 171 170
          36 39 175 174 40 43
          175 174 40 43 179 178
          44 47 264 265 266 267
          268 269 270 271 268 269
          270 271 272 273 274 275
          237 276 211 234 241 277
          213 238 241 277 213 238
          245 278 215 242 279 160
          237 236 280 163 241 240
          280 163 241 240 281 166
          245 244 234 211 74 282
          238 213 77 283 238 213
          77 283 242 215 80 284
          285 228 181 286 287 229
          183 288 287 229 183 288
          289 230 185 290 291 168
          261 292 293 172 262 294
          293 172 262 294 295 176
          263 296 297 298 256 255
          299 300 258 257 299 300
          258 257 301 302 260 259
          303 304 97 96 305 306
          99 98 305 306 99 98
          307 308 101 100 309 247
          114 113 310 250 118 117
          310 250 118 117 311 253
          122 121 304 312 313 97
          306 314 315 99 306 314
          315 99 308 316 317 101
          282 74 672 708 283 77
          673 709 283 77 673 709
          284 80 674 710 318 303
          96 319 320 305 98 321
          320 305 98 321 322 307
          100 323 285 187 0 3
          287 189 4 7 287 189
          4 7 289 191 8 11
          223 711 712 324 225 713
          714 325 225 713 714 325
          227 715 716 326 327 210
          211 276 328 212 213 277
          328 212 213 277 329 214
          215 278 717 282 708 718
          719 283 709 720 719 283
          709 720 721 284 710 722
          276 237 160 159 277 241
          163 162 277 241 163 162
          278 245 166 165 330 318
          319 331 332 320 321 333
          332 320 321 333 334 322
          323 335 324 336 222 223
          325 337 224 225 325 337
          224 225 326 338 226 227
          292 261 279 339 294 262
          280 340 294 262 280 340
          296 263 281 341 342 343
          210 327 344 345 212 328
          344 345 212 328 346 347
          214 329 696 228 31 200
          697 229 33 204 697 229
          33 204 698 230 35 208
          298 348 349 256 300 350
          351 258 300 350 351 258
          302 352 353 260 336 343
          342 222 337 345 344 224
          337 345 344 224 338 347
          346 226 96 2 1 319
          98 6 5 321 98 6
          5 321 100 10 9 323
          103 354 355 356 106 357
          358 359 106 357 358 359
          109 360 361 362 339 279
          236 231 340 280 240 232
          340 280 240 232 341 281
          244 233 363 364 365 366
          367 368 369 370 367 368
          369 370 371 372 373 374
          375 376 377 378 379 380
          381 382 379 380 381 382
          383 384 385 386 169 168
          291 312 173 172 293 314
          173 172 293 314 177 176
          295 316 216 222 342 387
          218 224 344 388 218 224
          344 388 220 226 346 389
          223 217 723 711 225 219
          724 713 225 219 724 713
          227 221 725 715 160 279
          261 161 163 280 262 164
          163 280 262 164 166 281
          263 167 356 355 330 331
          359 358 332 333 359 358
          332 333 362 361 334 335
          363 390 391 364 367 392
          393 368 367 392 393 368
          371 394 395 372 396 397
          726 690 398 399 727 692
          398 399 727 692 400 401
          728 694 390 402 403 391
          392 404 405 393 392 404
          405 393 394 406 407 395
          235 234 282 717 239 238
          283 719 239 238 283 719
          243 242 284 721 313 201
          30 97 315 205 32 99
          315 205 32 99 317 209
          34 101 248 247 309 348
          251 250 310 350 251 250
          310 350 254 253 311 352
          200 199 729 696 204 203
          730 697 204 203 730 697
          208 207 731 698 408 409
          375 378 410 411 379 382
          410 411 379 382 412 413
          383 386 153 256 349 366
          155 258 351 370 155 258
          351 370 157 260 353 374
          414 408 378 415 416 410
          382 417 416 410 382 417
          418 412 386 419 420 248
          348 298 421 251 350 300
          421 251 350 300 422 254
          352 302 423 327 276 159
          424 328 277 162 424 328
          277 162 425 329 278 165
          426 427 428 429 430 431
          432 433 430 431 432 433
          434 435 436 437 336 324
          438 439 337 325 440 441
          337 325 440 441 338 326
          442 443 667 732 15 14
          669 733 19 18 669 733
          19 18 671 734 23 22
          444 445 446 447 448 449
          450 451 448 449 450 451
          452 453 454 455 415 456
          457 458 417 459 460 461
          417 459 460 461 419 462
          463 464 12 465 408 414
          16 466 410 416 16 466
          410 416 20 467 412 418
          465 403 409 408 466 405
          411 410 466 405 411 410
          467 407 413 412 376 375
          429 428 380 379 433 432
          380 379 433 432 384 383
          437 436 114 468 469 111
          118 470 471 115 118 470
          471 115 122 472 473 119
          37 423 159 38 41 424
          162 42 41 424 162 42
          45 425 165 46 474 475
          390 363 476 477 392 367
          476 477 392 367 478 479
          394 371 429 375 409 480
          433 379 411 481 433 379
          411 481 437 383 413 482
          342 483 297 387 344 484
          299 388 344 484 299 388
          346 485 301 389 348 309
          474 349 350 310 476 351
          350 310 476 351 352 311
          478 353 480 409 403 402
          481 411 405 404 481 411
          405 404 482 413 407 406
          266 265 376 428 270 269
          380 432 270 269 380 432
          274 273 384 436 486 487
          364 391 488 489 368 393
          488 489 368 393 490 491
          372 395 447 446 492 493
          451 450 494 495 451 450
          494 495 455 454 496 497
          483 420 298 297 484 421
          300 299 484 421 300 299
          485 422 302 301 498 267
          63 499 500 271 67 501
          500 271 67 501 502 275
          71 503 378 377 456 415
          382 381 459 417 382 381
          459 417 386 385 462 419
          504 62 505 506 507 66
          508 509 507 66 508 509
          510 70 511 512 513 61
          426 514 515 65 430 516
          515 65 430 516 517 69
          434 518 499 63 62 504
          501 67 66 507 501 67
          66 507 503 71 70 510
          474 363 366 349 476 367
          370 351 476 367 370 351
          478 371 374 353 519 520
          376 265 521 522 380 269
          521 522 380 269 523 524
          384 273 506 505 525 526
          509 508 527 528 509 508
          527 528 512 511 529 530
          531 377 376 520 532 381
          380 522 532 381 380 522
          533 385 384 524 534 535
          536 537 538 539 540 541
          538 539 540 541 542 543
          544 545 546 536 535 547
          548 540 539 549 548 540
          539 549 550 544 543 551
          141 330 355 123 145 332
          358 126 145 332 358 126
          149 334 361 129 327 423
          483 342 328 424 484 344
          328 424 484 344 329 425
          485 346 193 531 520 552
          195 532 522 553 195 532
          522 553 197 533 524 554
          134 555 526 525 137 556
          528 527 137 556 528 527
          140 557 530 529 480 558
          426 429 481 559 430 433
          481 559 430 433 482 560
          434 437 391 403 465 486
          393 405 466 488 393 405
          466 488 395 407 467 490
          465 12 15 561 466 16
          19 562 466 16 19 562
          467 20 23 563 402 390
          475 564 404 392 477 565
          404 392 477 565 406 394
          479 566 567 568 49 514
          569 570 53 516 569 570
          53 516 571 572 57 518
          558 567 514 426 559 569
          516 430 559 569 516 430
          560 571 518 434 564 475
          143 573 565 477 147 574
          565 477 147 574 566 479
          151 575 561 15 732 735
          562 19 733 736 562 19
          733 736 563 23 734 737
          228 285 3 31 229 287
          7 33 229 287 7 33
          230 289 11 35 576 198
          201 313 577 202 205 315
          577 202 205 315 578 206
          209 317 356 331 319 1
          359 333 321 5 359 333
          321 5 362 335 323 9
          1 0 103 356 5 4
          106 359 5 4 106 359
          9 8 109 362 558 480
          402 564 559 481 404 565
          559 481 404 565 560 482
          406 566 699 235 717 738
          702 239 719 739 702 239
          719 739 705 243 721 740
          73 582 396 690 76 583
          398 692 76 583 398 692
          79 584 400 694 741 742
          585 586 743 744 587 588
          743 744 587 588 745 746
          589 590 72 210 343 591
          75 212 345 592 75 212
          345 592 78 214 347 593
          439 591 343 336 441 592
          345 337 441 592 345 337
          443 593 347 338 576 313
          312 291 577 315 314 293
          577 315 314 293 578 317
          316 295 469 169 312 304
          471 173 314 306 471 173
          314 306 473 177 316 308
          594 365 364 487 595 369
          368 489 595 369 368 489
          596 373 372 491 591 439
          396 582 592 441 398 583
          592 441 398 583 593 443
          400 584 564 573 567 558
          565 574 569 559 565 574
          569 559 566 575 571 560
          573 597 568 567 574 598
          570 569 574 598 570 569
          575 599 572 571 747 748
          199 198 749 750 203 202
          749 750 203 202 751 752
          207 206 420 483 423 37
          421 484 424 41 421 484
          424 41 422 485 425 45
          600 486 465 561 601 488
          466 562 601 488 466 562
          602 490 467 563 561 735
          741 600 562 736 743 601
          562 736 743 601 563 737
          745 602 37 36 248 420
          41 40 251 421 41 40
          251 421 45 44 254 422
          594 487 486 600 595 489
          488 601 595 489 488 601
          596 491 490 602 468 170
          169 469 470 174 173 471
          470 174 173 471 472 178
          177 473 264 492 519 265
          268 494 521 269 268 494
          521 269 272 496 523 273
          414 579 13 12 416 580
          17 16 416 580 17 16
          418 581 21 20 154 153
          366 365 156 155 370 369
          156 155 370 369 158 157
          374 373 339 231 701 603
          340 232 704 604 340 232
          704 604 341 233 707 605
          591 582 73 72 592 583
          76 75 592 583 76 75
          593 584 79 78 606 292
          339 603 607 294 340 604
          607 294 340 604 608 296
          341 605 547 609 610 546
          549 611 612 548 549 611
          612 548 551 613 614 550
          60 427 426 61 64 431
          430 65 64 431 430 65
          68 435 434 69 576 291
          292 606 577 293 294 607
          577 293 294 607 578 295
          296 608 615 616 555 134
          617 618 556 137 617 618
          556 137 619 620 557 140
          586 594 600 741 588 595
          601 743 588 595 601 743
          590 596 602 745 83 387
          297 255 87 388 299 257
          87 388 299 257 91 389
          301 259 144 143 475 474
          148 147 477 476 148 147
          477 476 152 151 479 478
          111 469 304 303 115 471
          306 305 115 471 306 305
          119 473 308 307 753 729
          199 748 754 730 203 750
          754 730 203 750 755 731
          207 752 505 62 61 513
          508 66 65 515 508 66
          65 515 511 70 69 517
          756 610 609 757 758 612
          611 759 758 612 611 759
          760 614 613 761 216 387
          83 82 218 388 87 86
          218 388 87 86 220 389
          91 90 285 621 186 187
          287 622 188 189 287 622
          188 189 289 623 190 191
          264 624 493 492 268 625
          495 494 268 625 495 494
          272 626 497 496 726 397
          627 762 727 399 628 763
          727 399 628 763 728 401
          629 764 630 631 181 180
          632 633 183 182 632 633
          183 182 634 635 185 184
          586 154 365 594 588 156
          369 595 588 156 369 595
          590 158 373 596 765 603
          701 766 767 604 704 768
          767 604 704 768 769 605
          707 770 636 637 186 638
          639 640 188 641 639 640
          188 641 642 643 190 644
          125 50 49 568 128 54
          53 570 128 54 53 570
          131 58 57 572 645 638
          186 646 647 641 188 648
          647 641 188 648 649 644
          190 650 534 646 186 621
          538 648 188 622 538 648
          188 622 542 650 190 623
          93 585 742 675 94 587
          744 678 94 587 744 678
          95 589 746 681 48 51
          134 525 52 55 137 527
          52 55 137 527 56 59
          140 529 627 771 772 762
          628 773 774 763 628 773
          774 763 629 775 776 764
          630 180 684 777 632 182
          686 778 632 182 686 778
          634 184 688 779 154 586
          585 84 156 588 587 88
          156 588 587 88 158 590
          589 92 651 286 181 631
          652 288 183 633 652 288
          183 633 653 290 185 635
          186 637 654 104 188 640
          655 107 188 640 655 107
          190 643 656 110 474 309
          113 144 476 310 117 148
          476 310 117 148 478 311
          121 152 63 267 266 60
          67 271 270 64 67 271
          270 64 71 275 274 68
          616 615 654 657 618 617
          655 658 618 617 655 658
          620 619 656 659 627 397
          396 660 628 399 398 661
          628 399 398 661 629 401
          400 662 579 414 415 458
          580 416 417 461 580 416
          417 461 581 418 419 464
          651 631 547 535 652 633
          549 539 652 633 549 539
          653 635 551 543 723 217
          81 780 724 219 85 781
          724 219 85 781 725 221
          89 782 663 446 445 192
          664 450 449 194 664 450
          449 194 665 454 453 196
          142 597 573 143 146 598
          574 147 146 598 574 147
          150 599 575 151 783 747
          198 576 784 749 202 577
          784 749 202 577 785 751
          206 578 48 513 514 49
          52 515 516 53 52 515
          516 53 56 517 518 57
          318 330 141 112 320 332
          145 116 320 332 145 116
          322 334 149 120 651 621
          285 286 652 622 287 288
          652 622 287 288 653 623
          289 290 60 266 428 427
          64 270 432 431 64 270
          432 431 68 274 436 435
          354 124 123 355 357 127
          126 358 357 127 126 358
          360 130 129 361 303 318
          112 111 305 320 116 115
          305 320 116 115 307 322
          120 119 630 777 757 609
          632 778 759 611 632 778
          759 611 634 779 761 613
          468 246 36 170 470 249
          40 174 470 249 40 174
          472 252 44 178 615 102
          104 654 617 105 107 655
          617 105 107 655 619 108
          110 656 786 783 576 606
          787 784 577 607 787 784
          577 607 788 785 578 608
          519 492 446 663 521 494
          450 664 521 494 450 664
          523 496 454 665 637 636
          657 654 640 639 658 655
          640 639 658 655 643 642
          659 656 663 192 193 552
          664 194 195 553 664 194
          195 553 665 196 197 554
          789 438 324 712 790 440
          325 714 790 440 325 714
          791 442 326 716 102 133
          354 103 105 136 357 106
          105 136 357 106 108 139
          360 109 646 534 537 645
          648 538 541 647 648 538
          541 647 650 542 545 649
          525 505 513 48 527 508
          515 52 527 508 515 52
          529 511 517 56 660 396
          439 438 661 398 441 440
          661 398 441 440 662 400
          443 442 765 786 606 603
          767 787 607 604 767 787
          607 604 769 788 608 605
          624 264 267 498 625 268
          271 500 625 268 271 500
          626 272 275 502 468 114
          247 246 470 118 250 249
          470 118 250 249 472 122
          253 252 535 534 621 651
          539 538 622 652 539 538
          622 652 543 542 623 653
          93 81 84 585 94 85
          88 587 94 85 88 587
          95 89 92 589 438 789
          792 660 440 790 793 661
          440 790 793 661 442 791
          794 662 124 132 51 50
          127 135 55 54 127 135
          55 54 130 138 59 58
          663 552 520 519 664 553
          522 521 664 553 522 521
          665 554 524 523 609 547
          631 630 611 549 633 632
          611 549 633 632 613 551
          635 634 125 142 141 123
          128 146 145 126 128 146
          145 126 131 150 149 129
          102 615 134 133 105 617
          137 136 105 617 137 136
          108 619 140 139 142 125
          568 597 146 128 570 598
          146 128 570 598 150 131
          572 599 124 354 133 132
          127 357 136 135 127 357
          136 135 130 360 139 138
          660 792 771 627 661 793
          773 628 661 793 773 628
          662 794 775 629 81 93
          677 780 85 94 680 781
          85 94 680 781 89 95
          683 782
        </DataArray>
        <DataArray type="Int64" Name="offsets" format="ascii" RangeMin="8" RangeMax="3632">
          8 16 24 32 40 48
          56 64 72 80 88 96
          104 112 120 128 136 144
          152 160 168 176 184 192
          200 208 216 224 232 240
          248 256 264 272 280 288
          296 304 312 320 328 336
          344 352 360 368 376 384
          392 400 408 416 424 432
          440 448 456 464 472 480
          488 496 504 512 520 528
          536 544 552 560 568 576
          584 592 600 608 616 624
          632 640 648 656 664 672
          680 688 696 704 712 720
          728 736 744 752 760 768
          776 784 792 800 808 816
          824 832 840 848 856 864
          872 880 888 896 904 912
          920 928 936 944 952 960
          968 976 984 992 1000 1008
          1016 1024 1032 1040 1048 1056
          1064 1072 1080 1088 1096 1104
          1112 1120 1128 1136 1144 1152
          1160 1168 1176 1184 1192 1200
          1208 1216 1224 1232 1240 1248
          1256 1264 1272 1280 1288 1296
          1304 1312 1320 1328 1336 1344
          1352 1360 1368 1376 1384 1392
          1400 1408 1416 1424 1432 1440
          1448 1456 1464 1472 1480 1488
          1496 1504 1512 1520 1528 1536
          1544 1552 1560 1568 1576 1584
          1592 1600 1608 1616 1624 1632
          1640 1648 1656 1664 1672 1680
          1688 1696 1704 1712 1720 1728
          1736 1744 1752 1760 1768 1776
          1784 1792 1800 1808 1816 1824
          1832 1840 1848 1856 1864 1872
          1880 1888 1896 1904 1912 1920
          1928 1936 1944 1952 1960 1968
          1976 1984 1992 2000 2008 2016
          2024 2032 2040 2048 2056 2064
          2072 2080 2088 2096 2104 2112
          2120 2128 2136 2144 2152 2160
          2168 2176 2184 2192 2200 2208
          2216 2224 2232 2240 2248 2256
          2264 2272 2280 2288 2296 2304
          2312 2320 2328 2336 2344 2352
          2360 2368 2376 2384 2392 2400
          2408 2416 2424 2432 2440 2448
          2456 2464 2472 2480 2488 2496
          2504 2512 2520 2528 2536 2544
          2552 2560 2568 2576 2584 2592
          2600 2608 2616 2624 2632 2640
          2648 2656 2664 2672 2680 2688
          2696 2704 2712 2720 2728 2736
          2744 2752 2760 2768 2776 2784
          2792 2800 2808 2816 2824 2832
          2840 2848 2856 2864 2872 2880
          2888 2896 2904 2912 2920 2928
          2936 2944 2952 2960 2968 2976
          2984 2992 3000 3008 3016 3024
          3032 3040 3048 3056 3064 3072
          3080 3088 3096 3104 3112 3120
          3128 3136 3144 3152 3160 3168
          3176 3184 3192 3200 3208 3216
          3224 3232 3240 3248 3256 3264
          3272 3280 3288 3296 3304 3312
          3320 3328 3336 3344 3352 3360
          3368 3376 3384 3392 3400 3408
          3416 3424 3432 3440 3448 3456
          3464 3472 3480 3488 3496 3504
          3512 3520 3528 3536 3544 3552
          3560 3568 3576 3584 3592 3600
          3608 3616 3624 3632
        </DataArray>
        <DataArray type="UInt8" Name="types" format="ascii" RangeMin="12" RangeMax="12">
          12 12 12 12 12 12
          12 12 12 12 12 12
          12 12 12 12 12 12
          12 12 12 12 12 12
          12 12 12 12 12 12
          12 12 12 12 12 12
          12 12 12 12 12 12
          12 12 12 12 12 12
          12 12 12 12 12 12
          12 12 12 12 12 12
          12 12 12 12 12 12
          12 12 12 12 12 12
          12 12 12 12 12 12
          12 12 12 12 12 12
          12 12 12 12 12 12
          12 12 12 12 12 12
          12 12 12 12 12 12
          12 12 12 12 12 12
          12 12 12 12 12 12
          12 12 12 12 12 12
          12 12 12 12 12 12
          12 12 12 12 12 12
          12 12 12 12 12 12
          12 12 12 12 12 12
          12 12 12 12 12 12
          12 12 12 12 12 12
          12 12 12 12 12 12
          12 12 12 12 12 12
          12 12 12 12 12 12
          12 12 12 12 12 12
          12 12 12 12 12 12
          12 12 12 12 12 12
          12 12 12 12 12 12
          12 12 12 12 12 12
          12 12 12 12 12 12
          12 12 12 12 12 12
          12 12 12 12 12 12
          12 12 12 12 12 12
          12 12 12 12 12 12
          12 12 12 12 12 12
          12 12 12 12 12 12
          12 12 12 12 12 12
          12 12 12 12 12 12
          12 12 12 12 12 12
          12 12 12 12 12 12
          12 12 12 12 12 12
          12 12 12 12 12 12
          12 12 12 12 12 12
          12 12 12 12 12 12
          12 12 12 12 12 12
          12 12 12 12 12 12
          12 12 12 12 12 12
          12 12 12 12 12 12
          12 12 12 12 12 12
          12 12 12 12 12 12
          12 12 12 12 12 12
          12 12 12 12 12 12
          12 12 12 12 12 12
          12 12 12 12 12 12
          12 12 12 12 12 12
          12 12 12 12 12 12
          12 12 12 12 12 12
          12 12 12 12 12 12
          12 12 12 12 12 12
          12 12 12 12 12 12
          12 12 12 12 12 12
          12 12 12 12 12 12
          12 12 12 12 12 12
          12 12 12 12 12 12
          12 12 12 12 12 12
          12 12 12 12 12 12
          12 12 12 12 12 12
          12 12 12 12 12 12
          12 12 12 12 12 12
          12 12 12 12 12 12
          12 12 12 12
        </DataArray>
      </Cells>
    </Piece>
  </UnstructuredGrid>
</VTKFile>
