<?xml version="1.0"?>
<VTKFile type="UnstructuredGrid" version="0.1" byte_order="LittleEndian" header_type="UInt32" compressor="vtkZLibDataCompressor">
  <UnstructuredGrid>
    <Piece NumberOfPoints="798" NumberOfCells="454">
      <PointData>
        <DataArray type="Int32" Name="libmesh_node_id" format="ascii" RangeMin="2250" RangeMax="5441">
          2250 2251 2252 2253 2254 2255
          2256 2257 2258 2259 2260 2261
          2274 2275 2276 2277 2278 2279
          2280 2281 2282 2283 2284 2285
          2298 2299 2300 2301 2302 2303
          2304 2305 2306 2307 2308 2309
          2328 2329 2330 2331 2332 2333
          2334 2335 2336 2337 2338 2339
          2352 2353 2354 2355 2356 2357
          2358 2359 2360 2361 2362 2363
          2376 2377 2378 2379 2380 2381
          2382 2383 2384 2385 2386 2387
          2424 2425 2426 2427 2428 2429
          2430 2431 2432 2445 2446 2447
          2448 2449 2450 2451 2452 2453
          2454 2455 2456 2457 2458 2459
          2460 2461 2462 2481 2482 2483
          2484 2485 2486 2493 2494 2495
          2496 2497 2498 2535 2536 2537
          2538 2539 2540 2541 2542 2543
          2544 2545 2546 2547 2548 2549
          2562 2563 2564 2565 2566 2567
          2568 2569 2570 2571 2572 2573
          2604 2605 2606 2607 2608 2609
          2610 2611 2612 2615 2619 2623
          2625 2626 2627 2628 2629 2630
          2631 2632 2633 2664 2665 2666
          2667 2668 2669 2670 2671 2672
          2787 2788 2789 2790 2791 2792
          2793 2794 2795 2820 2821 2822
          2823 2824 2825 2850 2851 2854
          2855 2858 2859 2880 2882 2884
          2886 2887 2888 2889 2890 2891
          2892 2893 2894 2895 2896 2897
          2898 2899 2900 2928 2929 2930
          2931 2932 2933 2934 2935 2936
          2937 2938 2939 2972 2975 2978
          2979 2980 2981 2982 2983 2984
          2985 2986 2987 2988 2989 2990
          3078 3079 3080 3111 3112 3113
          3114 3115 3116 3129 3130 3131
          3132 3133 3134 3135 3136 3137
          3138 3139 3140 3141 3142 3143
          3144 3145 3146 3147 3148 3149
          3150 3151 3152 3153 3154 3155
          3156 3157 3158 3159 3160 3161
          3162 3163 3164 3165 3166 3167
          3186 3188 3189 3191 3192 3194
          3259 3261 3263 3342 3343 3344
          3345 3346 3347 3435 3436 3437
          3438 3439 3440 3447 3448 3449
          3450 3451 3452 3513 3514 3515
          3519 3520 3521 3522 3523 3524
          3537 3538 3539 3540 3541 3542
          3714 3715 3716 3717 3718 3719
          3720 3721 3722 3792 3793 3794
          3822 3823 3824 3825 3826 3827
          3828 3829 3830 3831 3832 3833
          3855 3856 3857 3858 3859 3860
          3867 3868 3869 3870 3871 3872
          3873 3874 3875 3876 3877 3878
          3879 3880 3881 3883 3886 3889
          3921 3922 3923 3957 3961 3965
          4065 4066 4067 4077 4078 4079
          4086 4087 4088 4119 4120 4121
          4191 4192 4193 4206 4207 4210
          4211 4214 4215 4224 4225 4226
          4227 4228 4229 4251 4252 4253
          4260 4261 4262 4263 4264 4265
          4275 4276 4277 4278 4279 4280
          4296 4297 4298 4347 4348 4349
          4401 4402 4403 4404 4405 4406
          4407 4408 4409 4410 4411 4412
          4413 4414 4415 4431 4432 4433
          4452 4453 4454 4461 4462 4463
          4464 4465 4466 4533 4534 4535
          4551 4552 4553 4554 4555 4556
          4557 4558 4559 4560 4561 4562
          4590 4591 4592 4593 4594 4595
          4608 4609 4610 4617 4618 4619
          4620 4621 4622 4623 4624 4625
          4626 4627 4628 4629 4630 4631
          4665 4666 4667 4668 4669 4670
          4680 4681 4682 4683 4684 4685
          4719 4720 4721 4728 4729 4730
          4731 4732 4733 4734 4735 4736
          4752 4753 4754 4761 4762 4763
          4764 4765 4766 4767 4768 4769
          4773 4774 4775 4785 4786 4787
          4869 4870 4871 4881 4882 4883
          4887 4888 4889 4890 4891 4892
          4893 4894 4895 4917 4918 4919
          4920 4921 4922 4926 4927 4928
          4929 4930 4931 4962 4963 4964
          4965 4966 4967 4971 4972 4973
          4974 4975 4976 4995 4996 4997
          4998 4999 5000 5001 5002 5003
          5004 5005 5006 5022 5023 5024
          5031 5032 5033 5037 5038 5039
          5046 5047 5048 5049 5050 5051
          5052 5053 5054 5058 5059 5060
          5064 5065 5066 5067 5068 5069
          5070 5071 5072 5076 5077 5078
          5082 5083 5084 5085 5086 5087
          5091 5092 5093 5097 5098 5099
          5100 5101 5102 5106 5107 5108
          5109 5110 5111 5112 5113 5114
          5115 5116 5117 5118 5119 5120
          5121 5122 5123 5124 5125 5126
          5127 5128 5129 5130 5131 5132
          5133 5134 5135 5136 5137 5138
          5139 5140 5141 5142 5143 5144
          5145 5146 5147 5148 5149 5150
          5154 5155 5156 5157 5158 5159
          5163 5164 5165 5166 5167 5168
          5172 5173 5174 5175 5176 5177
          5181 5182 5183 5184 5185 5186
          5190 5191 5192 5193 5194 5195
          5196 5197 5198 5199 5200 5201
          5250 5251 5252 5277 5278 5279
          5304 5305 5306 5331 5332 5333
          2852 2853 2856 2857 2860 2861
          2970 2644 2971 2973 2647 2974
          2976 2650 2977 3187 3190 3193
          4662 4663 4664 3270 3271 3272
          5151 5152 5153 5160 5161 5162
          5169 5170 5171 5178 5179 5180
          5187 5188 5189 5202 5203 5204
          5205 5206 5207 5253 5254 5255
          5280 5281 5282 5307 5308 5309
          5334 5335 5336 5358 5359 5360
          5361 5362 5363 5385 5386 5387
          5412 5413 5414 5439 5440 5441
        </DataArray>
        <DataArray type="Float64" Name="resid_x" format="ascii" RangeMin="-0.0029474676322571725" RangeMax="0.0026080480053281008">
          0.0000021704684725065704 0.000002208775136125496 0.000002995330218164005 0.0000034523454934820563 0.0000028865041548087333 0.0000016713078414554161
          0.000003796528148636291 0.0000045789677716179256 -0.0000033013947025040125 -0.0000030936345680743216 -4.254102246581404e-7 -0.0000018316293441955622
          0.00000641853751925936 0.000006771586528842022 0.000006486821020335043 0.000008426658680615873 0.000010074954507111045 0.000007042582232053007
          0.00000691426043575305 0.0000063011064885820645 -0.000018833588105060528 -0.0000166995822561411 -0.000015842430551193942 -0.000020739995859830884
          0.00004980685717104194 0.000029055010825729255 0.000037996467719736415 0.00016107072738336115 0.00009834155904897557 0.00005718950651800725
          0.00007548406847579514 0.0003167771386678453 0.000039230813863255776 0.000015188827169332342 0.00002285840033255937 0.0001365995387754282
          -0.000016626454280910252 0.000004372842400179877 0.0000020996440743825673 -0.000021966296040676347 -0.000037536189184450564 0.000006193194028725202
          -0.0000015089878373508725 -0.00005531097963817899 -0.00003871413165335014 -0.000018218061494934545 -0.000028168901475167374 -0.00004880947547336589
          0.000009355807382149806 0.000010351019876786438 0.000010135405982936163 0.000010570205199122995 0.000015359793401614752 0.00001718661008265343
          0.000011281651126182624 0.00001174828363925684 -0.000014628062241506257 -0.000015986936990231015 -0.000019148209238650793 -0.000017942598518949637
          0.000004511835600240488 0.000007169841228282792 0.000007732442509400528 0.000007312974634743341 0.0000054025308724447996 0.000007526538035484975
          0.000011428543824187898 0.000005462021762880909 -0.0000166996743775627 -0.000023987567525196596 -0.000027724113913052406 -0.00002263066775931577
          -0.000002319392414129595 0.000005970999360727092 0.0000019630904959377915 0.000009892282327950142 0.000012090170608214379 0.000006646627462192356
          -0.000020599174432867073 -0.00002256770792152807 -0.000025069705517744012 -0.000009208256499526613 -0.000003412528633006673 0.0000037723048489368693
          0.000008115424157573159 -0.00002634607923113208 -0.000025892263184168485 0.000028784692287953106 0.00001580633145648047 0.000018045293750823532
          0.000034336891962860605 0.000056159116282650245 0.000029048807638432095 0.000032365479057716584 0.00005847935320812958 -0.000011593730953940451
          -0.000011536024973057835 -0.00001286219735519012 -0.00001704096016963419 -0.00000943232584216247 -0.00001415124802672807 -0.0000015402905635397701
          -0.0000035110593179510374 -0.00002398978231532567 -0.00003033696884635617 -0.000014936332242587724 -0.000005139348527194443 0.000004240779332143063
          0.000008229862423991818 -0.000019783520935234833 -0.00002285840626825575 0.000015285185006597146 0.000015866080285142914 0.00002204902637448214
          0.000041505141584075034 0.00003266096596021839 0.00004384407921698141 0.000005632442122482928 0.000003893763466322753 -0.000010842036763492047
          -0.000005813166999546482 -9.453246505586321e-7 0.000001920036493796573 0.000002951717531729514 -0.000014135312244256681 -0.000013626154252044387
          0.000005122832847703762 0.00000678509826324003 0.000008143753149170152 0.000008959516605067108 0.00000778448307947599 0.000007703290916261096
          0.000011360828839457326 0.000008383349275220553 -0.000026478289822495782 -0.00003107547995906401 -0.00002611861723700315 -0.000024550192100569745
          -0.000003332702338099125 -0.000011896081678841597 6.342448028995307e-7 0.000015982728183594475 0.000005856689912597801 0.000015407838608538782
          -0.000017375823746057506 -0.00001786157627048368 -0.0000148568634150692 -0.00001935710211053987 -0.000021149706421752512 -0.000047096382249200985
          -0.000010523578931831423 -0.000003841701409434961 -0.000004118186600843288 0.000001344792869950595 0.000005836859219954249 0.0000024353608008009786
          -0.00003134479772093357 -0.00004425037659139264 -0.000025158009222536748 -7.153980037255536e-7 0.000008303422678768158 -0.00000509733451092842
          0.000026642630585049787 0.000019861067897863904 0.00001242852983329712 -0.000018796680542942923 -0.000018186692691823936 -0.000024476704833631402
          -0.000007254940522116726 -6.017650608924896e-7 -0.000004278504110111214 0.0000017872946918018329 0.0000033955004665742194 -9.724740457350833e-7
          -0.000014288272850215833 -0.0000074863794976565146 -0.000009184815837226523 -0.0000012554597934588685 6.359942092970527e-7 0.0000027576081886859782
          0.000006053253311932849 -0.000004521379405986181 -0.0000026083190691750247 0.0000010998048747268285 0.00000955493606369373 0.0000019454515252093074
          0.000015814398862445955 -0.00003325251235430926 -0.0000340619231433692 0.00000604504088386193 0.00001183987470376735 0.000005032978350527628
          0.000010237042147309694 0.000010991383138758692 0.000024492537171738604 0.000019882482406696766 -0.000016678667378755563 -0.000018496644009768914
          -0.000005386275581997779 -0.000016362206432418702 0.000009367677126004281 0.0000041659573746244405 -0.000020892009088502306 -0.000021065343272397286
          -0.000021364774786647445 0.0000029612261709388576 -0.000020481447934095343 0.000003973828590631001 0.000005506966147983405 0.000006188540465856818
          0.000005765629185638943 0.000005228035642623752 0.000005430952955798318 0.000008235513241139358 0.000004033940052661222 -0.000011180869534221927
          -0.000014263401659775354 -0.000016109148812226692 -0.000014540665699058763 0.000058531630827474146 0.0001173018457567565 -0.00003133388229059619
          0.00010217680245716565 0.000053955768834157425 0.00020614855964318224 0.00011028990780559411 0.000037884424084921875 0.000009945680417899894
          -0.0000015217981705895056 -0.00000399736402290074 0.000002708969060627453 -0.0000023309768648616114 -0.000003614573188981396 -0.000005505673105865583
          -0.0000054816728258799685 0.000018377292020588243 -0.000016542339349001622 -0.000005934573575672175 -0.000006636117685587806 0.000007913955702321118
          0.000013002078484980473 -0.000019433296087001395 -0.000031561137614488644 -0.00001194545571792105 -0.000007702447513580069 -0.000007406251514296969
          -0.0000035175227708350576 1.3632176276701102e-7 8.076053248373682e-8 -0.000008267918495619142 -0.0000031711986006044413 -0.000024867884165225007
          -0.0000127889744092613 -0.000026220315907821146 -0.00002387810882265029 -0.000011154856784933997 -0.000014396015356021863 0.000012815901436091792
          0.000005018783904631174 -0.000008288591688554448 -0.000008253305554428714 -0.0000018262038263827662 0.000009417317188731289 0.00001468565799811472
          0.000013326882613462487 0.000007729642533149672 0.000018867288670953997 0.000021215417210562748 0.00004370090262195703 -0.000005935448783134234
          -0.000004062635788670832 -0.000008349783770178476 -0.000003959973764011693 -0.000014750133513707908 0.00000318902642248986 -0.000028021841140812853
          -0.00000434365170409734 -0.000006397430991622599 0.0000013957153157662106 -9.301644201542558e-7 -0.000008686244745703675 -0.000016081735412676323
          -0.000017077598831960472 -0.000018617743547721943 -0.000009652786481240128 -0.000032209643860525716 -0.000037725578462044496 -0.000034856622549206406
          -0.000028779526042299608 -0.000027731685570131503 -0.00003161043789567941 -0.000020004502193415874 -0.000015850459895494495 -5.670220382114621e-8
          -0.000001338867504419028 -0.000026142673780427117 -0.000022325080078822168 -0.000011315190496824501 -0.000024015218139439298 0.0000031884806667853427
          -0.000012141851621016997 -0.000021818513154331365 -0.000018340497362601127 -0.000013252378719741387 -0.000014626759269109613 0.000007286174556142555
          -0.000007164192200370678 -0.000022442684215917552 -0.00003007558049761272 -0.000017293807924367854 -0.000008845838939564032 -0.00002656234684383918
          -0.000013553371519758883 -0.000009100983806575869 0.000009650488570489557 -0.00000248326794682896 -0.000019240378391849333 -0.000011367783147697708
          -0.000028504031206466607 -0.000022588410884871735 -0.000030603894536795906 -0.000013409260930075106 -0.000026446781820510523 -0.000018770084217578642
          -0.000003773027622777647 -0.000016147332587257424 -0.000010873519009635402 0.0000030149982684912757 -0.0000044449141962665806 -0.0000017851727893702929
          -0.000012251647850014535 -0.000024697563054010274 -0.000020059361120372543 -0.000010790054904452617 0.00000543266862917946 -0.000013541026751662244
          -0.000016884916388626436 -0.000009756187692389062 0.0000034689523262798616 0.000006406293779903649 -0.000018823207175167056 -0.00001547374849675265
          -0.000007116817744012849 -0.000013711047468056847 0.000009497205064157299 0.000006424018139217225 -0.000020985199820522382 -0.000022062752406348807
          0.000021489502912253045 0.0000058491183079212306 0.00007858275155814276 0.00002949921389650001 0.000002499772237651854 -0.000003103324226927384
          -0.0000054934764150971205 -0.0000030579663619079156 0.000004750350588444974 3.54031915783537e-7 -0.000007316314448946315 -0.000003397236080893151
          -0.00001235223447437761 -0.000010026572355825714 -0.00002075329611983534 -0.000017307133187927093 0.000003245720373135086 -0.000018245983730125204
          -0.000014905907303131016 -0.000005551600291142655 -0.00002152695447854569 -0.000011065489893269387 -0.000016246862038826748 -0.000010795620323023059
          -0.000010905591867782505 0.000009629549069689602 -0.000012515289195214052 -0.000028524793474815624 -0.000040149095196895246 -0.000024860060433340436
          -0.0000055356467987266456 0.000002332829935447478 -0.0000017280174495759582 -0.000027698726666081086 0.00000117167663926665 -0.000026128422145443864
          -0.0000028998438295069207 0.0000040948366537563174 -0.000003697413736070132 -0.0000036525570434875476 -0.00000399124911965032 -0.0000033469369338234856
          -0.000013785995037984833 0.00000208375732047017 -0.000016116372024477243 0.00000422360662799548 0.00000910365010575731 0.000007808547589860382
          0.000016511157262755205 0.0000019632121812662717 0.0000046198565541999415 0.0000018642708203842062 0.000002114992085022749 0.0000034875036547532545
          0.0000060498480540793764 -5.443203203725488e-7 -0.0000020043095680932765 0.000008352839212300012 0.000015568965363144116 0.000007290820994043656
          4.881256749911245e-7 -5.054387441916219e-7 0.000003162682484791901 0.0000061415824292865295 -0.0000014009722217878107 -0.0000025303333908155423
          0.00006126597468636419 0.00012937819671954287 0.00013159263161988122 0.00026334232069658015 0.00004013658863222247 0.00007872924836149764
          0.000014551936898143936 0.00005041619294310351 -5.287899451644762e-7 -0.0000075393794425338 -0.00000788169178989051 -0.000004836483888048804
          -0.0000026060099562741357 0.0000072146122720440076 0.000009135721578346079 0.00002117718881766706 -0.000014589227862238374 -0.000010007030593506272
          -0.0000011317375347985603 -4.354835398956425e-7 0.000001644158641234128 0.000002229295649414098 -0.000006313999350915367 -0.000007228403991810239
          -0.000023460542148967534 -0.000009801617167681798 -0.00001532256803482568 -0.000028083073893458987 -0.000028243638131364435 -0.00002444875708995653
          -0.00001426526476566714 -8.999715124247132e-7 -0.0000107056300748809 -0.0000042915358280382065 -0.000001612230668079917 0.0000021271733707806106
          0.0000017524496667142841 -0.00000823039441444351 -0.000004139746638820441 -0.000017134430575715953 0.000006815319196995517 -0.000021238282891911098
          4.6859856439596115e-8 -0.0000035539965530517748 0.000005986800645896295 0.00000428719263734223 0.0000035598254921609396 0.000007045155200557929
          0.000010846172312728442 0.000005594849821655146 -0.000006330957642575186 -0.000014682837904622659 -0.000008532795395588266 -0.000005383435949024573
          -0.00001007290572463404 6.376367016613926e-7 -2.2985913883388776e-7 0.000009260696439916671 -0.000017443343280909573 -0.00000696049405757293
          -0.000017296334852368034 0.000009657946201002687 -0.000015442373946683574 -0.000004116493930617082 -0.000013878804853373339 0.000007218090673610789
          0.000002253328148071887 -0.000011951216461802971 -0.000016761445163382405 -0.000009155926049331242 -8.727318014933871e-7 0.000012621098278486897
          0.0000075357542987930515 -0.00001938108538102057 -0.00001662198948082505 -0.000028021477415762774 0.000004618130893696559 -0.000016757161357183747
          -0.000030042756036241514 0.000008069955913292404 -0.000017616528853237057 -0.000004313750807949379 0.000021314913386916157 -0.000013733559308892751
          -0.000005279353203047066 -0.0000024855501430387505 0.000006301051021839754 0.0000034770615093826507 -0.000001831505794580579 -0.0000010070650393601
          -0.000009700627805142581 0.000013163312708397434 -0.000013213183107541049 0.000008602830623871682 0.000010037121608963417 -1.2605952415256638e-7
          0.000018725250166440333 0.000025816574506842827 0.00001666820039059047 -0.000014128267547874884 -0.000019145436096490442 -0.00002324023991562285
          -0.000008934331232279824 0.000001661434046118515 -0.000008826344292112154 -5.043168975760182e-7 8.276132272833081e-7 -0.000003406361426261384
          0.000003642471181564133 0.000002163787765407932 0.0000029593816699424735 -0.000005515259809740769 -0.000005546877341444656 -0.00000919902199614242
          -0.000004138981079648829 0.000002082008369264088 -0.00000868331906556108 -0.00002563746679928869 0.0000049343792984934964 -0.000023225736897281024
          0.000014332283550189118 0.00006182199077642281 0.000005639195878259784 -0.000009561006796943161 -0.0000030406307027774915 -0.000007723685900629107
          -0.000012110642642948477 -0.000006406545645987194 0.000003223035278221431 9.23728459945039e-7 -0.000009365662005933473 -0.000005776286639669337
          9.560731157876035e-7 0.000024594140739964132 -0.000011397453260286738 -0.000005612400904020376 -0.000010018807470757451 0.000004489963598253155
          -7.036594769083138e-7 -0.0000019761363834192025 -0.000007542330485499349 -0.000011420040222809291 -0.000011466422495942652 0.0000032040020059298513
          -0.0000025212410408315122 -0.000010032124441394785 -0.000006456045264613408 -0.000009521673291601473 -0.000004376386318227787 0.000011812513330156094
          0.000015610439207947024 -0.000007143503568229903 -0.000011653513087850342 0.00001850346817189319 0.000011521141374259969 0.00004562394974527706
          0.000030495326235779885 -0.0000019118412470930934 -0.0000089072779445587 -0.000016406112517408644 -0.0000013724577065943322 0.0000014631722100588718
          0.000009093754774980312 0.0000064587358865608735 0.000010214274293041115 -0.000013552381717296669 -0.000005074755472733727 -0.000004196685061685912
          -0.0000033557130125760892 0.000021976735381956658 -0.000007749601986128951 -0.000004675551305233228 0.000006062524888328369 -0.000005217328078899186
          -0.000005575534292034945 0.000007107037994558141 -0.0000049883501054281965 0.00001964193778825063 0.00006919935480453887 0.000010648783550948338
          0.000004421312699953717 0.000003630203532445364 2.180030937992683e-7 0.000011680756444754081 0.000011402485801781381 0.00002207831195599752
          -0.000003218480955524683 -0.0000012326612477409071 -0.0000037122244407328253 -0.000003926211021187953 0.000006792685091738804 -0.0000033740748630606276
          -0.000002587037176482454 0.000007860261145076208 -0.00000814478941890684 0.000007309827410928449 0.000021599854170162303 0.000029998828788180276
          0.00006329864066678681 0.0000025465079618314235 -2.4395688313916253e-7 0.000003964502633735378 0.000015812036964213405 0.000002221823728554284
          -0.000008614209332957756 0.00001531515769936931 -7.062107987287902e-7 0.00001014619251726856 0.00003180535537339324 0.000014051316338026254
          0.000007418426712035853 0.000020389604348025614 0.0000022253030449448374 0.000015123056279264802 0.00003495698538547032 0.000027631699333063864
          0.00005936771827208531 0.00012245214240103053 0.000056713380615747155 0.0002008990796085186 0.0001042263713895153 0.0004042728969366749
          0.00021061063321781148 0.00019010889770143535 0.00010035002293840023 0.00022859399677699344 0.00011492559771930644 0.0004485830359808318
          0.0002248993309930114 0.00029389687193592806 0.00015399829386275599 0.00023347655164940306 0.00011535534108197965 0.0004489540320182783
          0.00022091545826619097 0.0003583244533249541 0.0001806928429584076 0.00019312991335063145 0.0003891107809987915 0.00016943574960492924
          0.00022554590897705395 0.00044084746266292996 0.00026619045056719415 0.00024071493103328123 0.00045886567735031747 0.0003439340621174125
          0.00016432617617212486 0.00033214314169960346 0.00010548551576405885 0.00021096588748825695 0.0004172716665209464 0.00020739555175630642
          0.00024283989191609123 0.00046902729692810397 0.00030657805141487415 0.00011128097325219244 0.00023018072258196298 -2.7734668961443276e-7
          0.00017526570031023425 0.00035147463320761574 0.00010133065491935156 0.00023484597056899759 0.0004606215979165995 0.0002287557501894355
          0.00009770420990840023 0.00019725309901197363 -0.00008535148403510107 0.0001961658979752201 0.00039057569404832293 0.00006545601876517537
          -0.00006621731234801587 -0.00013098544841660953 -0.00041301401159543616 0.00006449354919979555 0.00013240554187454734 -0.0002913738358927276
          -0.0003413539992447312 -0.000679815451103849 -0.0009093017892478628 0.00014497066288043925 -0.00018478419818990233 -0.0011317543521727202
          -0.0005991996722087833 -0.0011964450635773005 -0.0015296233379142876 0.0006446349659796624 -0.000033493675354989705 -0.0029474676322571725
          0.001299613711978509 0.0026080480053281008 0.000495239270286163 0.0008152408551467261 0.0016518764663882024 -0.0013788011409605616
          0.0002305293621738258 0.00011349191676757187 0.00043530432611582626 0.00021281210495871505 0.0004173619610678969 0.00020654636547234873
          0.0002452919519075891 0.0004592636983709042 0.00042072900259704227 0.0002603310793780622 0.0004961680884729702 0.0004161687357981947
          0.00027675829204198976 0.0005369439427092004 0.00039376447368688616 0.00028599976342746913 0.0005613531411228223 0.0003164711129493014
          -0.0000033090616504694026 -0.000011047958836662986 0.0000035578396619939667 -0.000013707684299646417 -0.00003924610385475091 -0.00003548982274725887
          -0.000012275446655607425 -0.0000047993478808905365 0.000028047470060243995 -0.000008191933899226456 -0.0000059328502821642815 0.00006084960448404786
          -0.0001340765170176894 -0.00008456100190912252 -0.00002999982780771404 -0.000032033442225909425 -0.000050805041148294094 -0.000041655648653105004
          -0.00001386144221360297 -0.00001197965296739767 -0.00003847828923264629 0.000021782436980366526 0.00004762667838953405 -0.00004707884191468281
          0.00002096887821068094 0.00004935681716489171 -0.0001627992704023029 -0.00011891374372652308 -0.00022680589093937442 -0.0003964571596597466
          -0.0002807959271002858 -0.0005493687905016031 -0.0006486494391459985 -0.00040615066418325796 -0.0007970316460870208 -0.0007725938562970214
          0.0011643927814937172 0.0023430367689591947 0.0010267780043573538 0.00019147228884008882 0.00009343855814591961 0.0003855175133224975
          0.00018786986883867485 0.00048282801655119556 0.00023574180067775785 0.00021220307750269285 0.00041905914061857175 0.0005041562548164791
          0.00024096352427704915 0.0004739969021798629 0.0005358169074298758 0.00028131253350238694 0.0005550163373158057 0.0005810422304328711
          0.00033762827190741973 0.0006688444333917687 0.0006464394262515327 0.00024086873099804507 0.0004776535640260704 0.0001163998519704279
          0.00042205928698990647 0.000841461440593605 0.0007507031250515439 -0.0004001265619386629 -0.0004371418892077372 -0.000531527110897656
          -0.0018119173980366554 -0.002141267043818118 -0.002096345592253357 -0.000735581502603111 -0.0014484841530233439 -0.0024186678368351977
        </DataArray>
        <DataArray type="Float64" Name="resid_y" format="ascii" RangeMin="-4.412458044987535" RangeMax="0.028907463907392916">
          -3.571261785522903e-7 -2.065041712854404e-7 -0.0000013624508429996296 -0.000001110820221911571 0.0000011877363401057925 0.0000019088505217911347
          -0.0000012218679210189431 0.0000028348695450645944 0.000005145759022376871 0.000005280633540385819 0.0000043991844243633504 0.0000065761662732012616
          -0.000001972421393112503 -0.0000013524534351050388 -0.0000014590794072122382 -0.000001460407512622608 -0.00000411991285614215 -0.000003334622613357374
          -2.7257477530628904e-7 2.86293420914685e-8 8.241140086713908e-8 6.203529246615047e-7 0.0000023493422857262525 0.000002068413590995688
          -0.00001584864934639496 -0.00000512496333926471 -0.00000898758548872891 -0.000034003970000084927 -0.000032557844225317156 -0.000010990583601544479
          -0.00001774677819182946 -0.00006784900633638458 -0.000020883307203511947 -0.000007836720777310013 -0.00000969898467384489 -0.00003920682190527991
          0.000024021274644882296 6.294412698004681e-7 0.0000049514817099033034 0.0000112094661709755 0.0000499130584269078 -2.6096741753342534e-7
          0.000006731467441079171 0.000030419099234563988 0.00003099400362406232 0.0000028848381127544176 0.000009181873435822399 0.000023431477302723576
          -9.830670743699033e-7 -0.0000020291557500523583 -0.0000011872263514442483 -0.000001231425051297086 -0.0000017375411101167026 -0.0000043362956169690214
          -0.0000022138025389320526 -0.000002950230758393124 -4.061449830339292e-7 -2.9214778529684793e-7 1.2069926651203655e-7 1.031245097093958e-7
          -9.149675261246187e-7 -0.0000016180191294698151 -0.0000029925579806654168 -0.0000031823110154781398 4.5410871582149404e-7 -0.0000024602098471077083
          -0.0000023703354323501014 -0.0000022502703765272386 0.000007661193350182172 0.0000066160126968289185 0.000010541275273633077 0.000009015909559415003
          -0.0000067741539935550765 -0.0000049069445787475185 0.0000018291113366708522 -0.000006637657928021401 -0.000005450255733785436 -0.000004330183376519137
          8.805155721214319e-7 0.0000022553219894139165 0.0000019521515350756635 -0.0000017264463360380788 -0.0000067400234319081945 -8.941843455366472e-7
          -0.000005665125923123675 0.000007560443101109829 0.000007118752041264734 -0.000017989163424686483 -0.000008579415328724416 -0.0000067828746881937185
          -0.000010733994293160576 -0.00003645891516385058 -0.00001708897408506105 -0.000009964230136272345 -0.00001925868226929084 -0.000014574980189252518
          -0.000004447178825334186 5.875116529940883e-7 -0.000007059713827417546 0.00001421113699501611 0.000010873374939431718 0.0000040404395198305465
          -0.0000021598720154961115 0.000008334780080075654 0.000006673512923976305 1.6675910283897588e-7 -0.00000609533109970084 5.945818588662388e-7
          -0.000004818064577298553 0.000006461706579086179 0.0000050209106643994694 -0.000006059858903676769 -0.000004015994757147756 -0.000006542787529900673
          -0.000005902370105409223 -0.000003980039639278621 -0.000011243730070831237 -0.000005031349720110902 -0.0000020485851782298115 -0.000006754306573597546
          -0.0000026872297453775854 -0.0000028869289624196964 -6.943277399348857e-7 0.000002265924683296505 0.000008049050945923251 0.000008449411072461444
          -0.000010385074655130944 -0.000007408350861215496 -0.000006606613218881202 -0.000006938945385046025 -0.000020802114539156258 -0.00001502398430314189
          -0.000011731935541305083 -0.000013633379051004434 -0.000009795633140352589 -0.000006673664807624324 -0.0000027342325263947365 -0.000006035004452390434
          -0.000005044880285645648 0.0000032468052591182184 0.000005170593062722717 -0.000008885064596363124 3.437813172052495e-7 3.5795158495610657e-7
          -0.0000013833301606910875 9.210933075848304e-7 6.538173889514276e-7 0.000005073496851991377 0.000022590325150742552 0.000021155195490122486
          -0.00000812033389797212 -0.000003951376610654422 -0.0000031546728748652053 -0.000009248241538081098 -0.000018557491270991544 -0.000007051381529107892
          -7.324493541405186e-7 -0.000011435645886237467 -0.0000016851632335251887 -0.000008666461039447126 -0.000007803861681171531 -0.000003711741604864316
          -0.000013085644536170449 -0.00001123596273575056 -0.00000950573477556671 -7.908284848645586e-7 8.676888059583332e-7 -2.16110272593939e-8
          0.0000053164859023305255 1.838995986984393e-7 -1.6156148076318377e-7 9.06679445055944e-7 -0.0000015600521297304965 0.00000497139429524434
          0.000008106185763913712 0.000005161367891626939 0.000008969766092413196 0.0000013216295182503363 0.0000016176238122360062 8.405854699626569e-7
          0.0000037004978014876753 0.000003973411993294512 0.000005687382965132576 -0.000024345389814259266 -0.000027676052554520547 -0.00004841577896869814
          -0.000053531149302926684 -0.000023894119478728992 -0.000023914740005931412 0.000009246613299135516 0.00001756033402415015 0.000009451427406818001
          -0.000002835654902944018 0.0000010411051450942566 -0.000005061262864203275 -3.2115632385421033e-7 4.5632438738785197e-7 5.000815588018792e-8
          -0.000006004735418528584 0.000004291154695669486 -0.000007040092256827002 0.000002678716553427586 1.2418760828719622e-7 0.00000504125439855594
          0.000008433561322716138 -3.439503301920152e-7 0.0000017875124980366863 -2.4524548762356463e-7 -3.439890901152376e-7 -0.0000011026333846843317
          -3.880548605072337e-7 2.6680457583701245e-7 1.7204439726331566e-7 -0.0000028297396042053363 5.3915039042659596e-8 0.0000020076398186364905
          0.000001937887415223369 0.0000018117887993027854 0.0000022665883621045962 -0.000126839541068402 -0.00025460517393582904 -0.0001339129403202799
          -0.00009406649801679823 -0.00006104529579382609 -0.00018544115956364848 -0.00011974753342717734 -0.00010067793745527354 -0.00006373750895590988
          0.000001286448347463838 0.000004720719908037421 0.0000011119787023203959 0.000008271626756976846 0.000005492464595345005 0.000007423424905803576
          0.0000019048657705703076 -0.0000060376808215106825 -3.0976479716698924e-7 -0.00000761887760067359 -0.00002637658090374334 -0.000015563614490315958
          -0.00003970232703227189 -0.000005783817814047909 -0.000015039837747962692 -0.000010370354165220586 -0.000007879586734746424 -0.000016903767551923465
          -0.00001721442957755559 -0.00002171852910655414 -0.000011771592986542512 -0.00003718460641807808 -0.00003292366127849444 -0.00000906616842932112
          -0.000003758484566601661 -0.00001697280481852137 -0.000017399712150700797 -0.0000027376346724283795 5.465905806023574e-7 -0.000006071546769945146
          -6.026195960295855e-7 -6.089340827547529e-7 0.0000016756685225771673 0.0000014006742121985827 0.0000010620945976036467 -0.0000015513521438303979
          -0.0000010637841186640282 -0.000001855043683607338 -0.000001069717382021218 -0.000006164562613042435 -0.000013641197670419963 -0.0000017195852633489217
          -0.000002055065064565653 -0.000005623410192362455 -0.000008239374749988149 -0.0000025576398847357296 -0.00000681413393398278 0.0000022881970826379994
          0.000006437502456451208 0.000011683323274915697 0.000003331524609333919 0.000005577708114847674 0.000003064494339998728 0.00000479864458814358
          -0.000008248085017516227 -9.149488279409923e-7 -0.00001884033636668364 -0.000007871657507749208 -0.000011827408703913439 -0.000009545433635099743
          -0.0000018100748006982803 -0.000004210793494177634 -0.000003769818201498562 0.00001695740315004607 0.000015874953317607937 0.000004379932917179807
          2.1291596949066238e-7 0.000005520709293341253 0.0000033686442822804252 0.000011477567953472635 0.000012126593603745475 1.6564223116657256e-7
          -8.596599410798378e-7 0.000008251215183878446 0.0000033502851392169797 -0.0000048327233962072724 0.000006893266294716316 -0.000008822264433744342
          0.000023657996676286486 -0.0000020910617845593116 0.000016915654015209336 0.0000032879417052357474 0.0000026934626517517712 7.014560195264807e-7
          0.000004022851569588509 -8.035325259267423e-7 -0.0000016864440542073422 -5.626984237658283e-7 0.000002079646614149694 4.410724543241207e-7
          -9.7796994350495e-7 3.0077518070950604e-7 0.000005440387466755514 0.000005961943734977826 0.000005452237844639357 0.000005448020424601158
          0.0000018484175932172078 0.000006122070327798171 0.000004548449288566472 -0.0000019647437492452662 0.00000384692748813583 -0.00000969577318786323
          0.0000061252205262776315 0.000014827333827535302 2.0165819776887806e-7 0.0000060963460253803635 -0.0000011089059100692807 0.000009751539552451229
          0.000007557582516283523 -0.0000017290439165151827 0.0000012487141393680012 -0.000003390123334612305 0.000005475060050781633 8.238201304883175e-7
          -0.00000835280929422505 0.000001579313582217301 -0.000010156189140297922 2.8753127020997304e-7 -0.0000022324999242179233 0.000004585791690867036
          -0.00001407714791079595 -0.000004990794131132237 -0.000024800880977449147 -0.000008340272126844406 -0.000014597002700789119 -0.000003821273199255959
          0.000002977909186747084 0.0000016308113856555728 0.000002721881836757062 8.75929372872071e-7 0.000005999152832082515 0.0000013051686679338426
          0.000013900724283213983 0.000007202127610567502 0.000013362728953102143 0.000024502776547516425 0.0000025976709714450874 0.000010651769160013869
          0.000016790348910347697 0.000007870682640827645 0.00001506038840068391 0.000008733568157500565 0.000009350665518347012 0.000006809872889958213
          -0.0000017650829819970681 -0.000003480423637403085 3.89968850746103e-7 0.000027368208799260704 0.00003494880188233129 0.00002107733899149502
          0.000008774492861301705 0.000002129739683137677 0.000004261159797371711 0.000013235779715958795 0.0000015315595920037395 0.000004207496127159316
          0.0000028185954050658803 0.0000017018519920470113 0.000002935017330777355 0.000008918812710152768 0.00001391539030943384 0.000008918421413151023
          0.000007847578061517119 -0.0000010612400219694312 0.000008370220214920683 0.014462411476407696 0.000004083832911928875 0.028907463907392916
          0.0000044139565337046605 0.013963666507583499 0.000004502954700004794 0.008414846873708167 0.0000022652143250572604 0.016835861118382436
          1.3647730373080036e-7 0.008122814786354775 0.0000010617674114903747 0.000007300591373325324 0.000010818788612983188 0.000007352130890161956
          0.001223279562794221 0.0000015189349152257975 0.002423360920039942 -8.92501788281666e-8 0.0010953950044293238 8.018234943793848e-7
          -0.00004127048856769622 -0.00006480333520952897 -0.00007517357361913612 -0.0001215403558127992 -0.000040695732450607425 -0.00006563441397622327
          -0.000015421443582186445 -0.000030657549422774544 -0.000013852926564750234 0.000010090199078494066 0.000010297919851690734 0.000006574878924825792
          -5.556625539415716e-7 -0.000002167981216244508 -0.000003160649920869174 -0.0000030213356979613692 -0.0000032546881509609715 -2.184180100117672e-7
          -0.025699824161466114 -0.036539649294808206 -0.051417237827687944 -0.07310863145226329 -0.025955540403635992 -0.03688485955102645
          0.00000776626796344937 -0.000003191953831069294 0.0000019006504232803312 0.00002698339548489609 0.000042496208963384297 0.000025763252574296375
          0.0000011960492008536439 -0.000003933917761385353 -0.0000010041708903771318 -9.642053783601515e-7 -0.01575254367769997 -9.218823821808587e-7
          -0.03152237874317263 6.471160794874892e-7 -0.015959539799567695 -0.0000012783782275677114 -0.000008752711082457565 -0.0000015553942248475172
          -0.12249463069391561 -0.000004371536821395905 -7.257938082483317e-7 -0.10535271009919597 -0.24513428068767765 -0.0000040784417981235
          -7.611806390472875e-7 -0.21084622235639813 -0.12406566371614117 -8.725647036925133e-7 2.3857435735297194e-8 -0.1068008060935122
          -3.5460718653471113e-7 0.0000011326570709575823 5.736136575139328e-7 1.8273441893326692e-7 0.000001637916866893685 4.220873740384823e-7
          -0.00000309412823615296 -0.000006923041298304011 -0.000001812946281709582 0.000006761494122806133 9.734279064893547e-7 0.0000016855164910976883
          -0.000005234361131076226 -5.547850822559819e-7 -0.0000033030947722834103 0.000001469659487817257 -0.0000015520108078148631 -0.000007835034782998837
          -0.000010481190580821642 -3.9189832947914005e-7 -0.0000032139600306194116 -0.000004494237701536258 -0.000005640972668884137 5.637143145678647e-8
          0.0000020464511619813774 -0.0000013620765741753638 0.0000031208339932448093 -0.0000035191838161086064 -0.000013271534098691085 -0.0000015848918826777414
          9.669497684883883e-7 -0.00679615410139241 -3.746869609558463e-7 -0.013613606269925565 6.23445496133199e-7 -0.006929194504369802
          -0.0000014040481308152941 -0.000013119808593017868 -0.000005060905341233712 -0.000011536212445234506 -0.00002235922763538234 -0.000016753359680585223
          -0.000025203669883733237 -0.000050071929740103105 -0.00002931979827926201 -0.000010693707581832523 -0.000021928523831260538 -0.000010953001837635257
          -0.0000021394664631163574 -0.000007162329874618734 -0.000002688362960467927 -0.060684611986829964 -0.07402934473970871 4.1201383162159377e-7
          -0.12140683992046757 -0.14810368234022475 -0.0000018645881191478586 -0.061659798180323896 -0.0755254219139731 -6.252603706666249e-8
          -0.14077251758780554 -0.28170572086646944 -0.14243646127575096 -0.000005115501379243659 -0.000010348588282457771 -0.0000028132615282200346
          -0.000020490276887663583 -0.000037906365493167726 -0.00001976112037077593 -0.04834272236947055 -0.09672901096259226 -0.04880790728324938
          -0.000005338234959822996 -0.08938995755003226 -0.0000029830594583182823 -0.17884760215393877 -6.871386914394928e-7 -0.09086619362989086
          -0.0000051323640927192216 -0.000016788959483621246 -0.000004284422332578863 0.0000026630010906761314 0.0000026242980220719803 -0.0000015692815538313407
          -5.425645861981826e-7 1.2874709673631884e-7 0.0000010661374912953464 0.0000028583023036028374 9.553262084183167e-9 0.0000011963541575138285
          -0.0000016024759839951275 8.534701157591335e-7 5.909463908146395e-8 -8.73107417920238e-7 -0.000005888627830880067 -0.000012364305533654751
          -0.000016999197144623723 -0.0000053961069237870585 -0.000006199374640331046 -0.000019208868301832938 -0.000010469563066911602 -0.000038570754552720576
          -0.000024605840555302905 -0.00001678178128967922 -0.000009619936260030215 -0.0000026666052139329155 -0.1810502510848949 -0.2031072484649018
          -0.0000024579645633987512 -0.3622436007339524 -0.40650356957520634 -0.0000013030272759673167 -0.1828190368946212 -0.20501377858032044
          -0.0000054674964344719745 -0.00002169480992646189 -0.000009844563351152358 -0.22619288347767175 -0.45287441622412233 -0.22811261709477668
          -0.16039038926675944 -0.320917663454071 -0.1620664829742514 -0.000027421737450628036 -0.00004994444260647546 -0.000023772666543186993
          -0.27546626275928704 -0.30343439719302084 -0.000003113213804611936 -0.5516174115186344 -0.6073187681375987 -0.0000013864587345979729
          -0.2773393969973013 -0.30638050553800467 -0.0000012502314174767104 -0.2489581849452533 -0.4983645686844217 -0.25088024627404293
          -0.000001910648465684728 -0.000012010999784914378 -0.000004901005798273184 -0.00001508064663391373 -0.0000417687891500762 -0.000039620177666621625
          -0.00008412169417926219 -0.000018743417602551382 -0.000042552077869406624 -0.33072494044633194 -0.6613782086714827 -0.333304357597981
          -0.00000253663637383994 5.621470245964488e-7 -3.9482576313920603e-7 0.0000011017114605604839 0.000002315961583815307 5.353242858441298e-7
          -0.3592095543895434 -0.7178280818176829 -0.3634928943732423 -0.396661835048486 -0.7920235401754182 -0.4078912329169002
          -0.9519540958632238 -1.9038743552176673 -0.960407712660751 -0.00003177449301383639 -1.7052899129495747 -0.00006304187861760902
          -3.4106473896098812 -0.000035003545796552515 -1.7045349346134402 -0.0000185701445851727 -2.0023094023971337 -0.00003794057111639049
          -4.004787592329294 -0.000020979370400464603 -2.005048042091979 -7.403806163708282e-7 -2.171208796914432 -0.000004211285517197183
          -4.3426202730119146 -0.000003636668777229346 -2.175084398778826 -0.00006884919255156774 -0.000134030410014363 -0.00007287324913751725
          -0.00004393640862088155 -0.00008953517960819113 -0.00004867741274905413 -0.000005510572059108654 -0.000018966450325397233 -0.000013411884056235834
          -0.00010988760329322389 -0.00021608329665978587 -0.00011746264926726369 -0.00008015730051469383 -0.00016122020384368163 -0.00008918494909182506
          -0.000022782080727923315 -0.00005519649222396339 -0.00003727539069586783 -0.00016231812104927634 -0.00032428447609489375 -0.00017132409677889093
          -0.00013578126586355488 -0.0002719941722655328 -0.0001504042824584939 -0.00006169221772234224 -0.0001324196353311713 -0.00008526305619716013
          -0.0002159503214029801 -0.0004341453743961221 -0.000236653738228787 -0.0001365292033985721 -0.00028132453376583655 -0.00017243444414738462
          -0.0003132566238539525 -0.0006284911276210892 -0.0003406442834790191 -0.0002691207390612682 -0.0005485639755109517 -0.0003246364366475962
          -0.0003550485822942928 -0.000713514887390021 -0.0003844704801079235 -0.0011841625999182703 -0.001624219506532576 -0.0004974986575154716
          -0.00027661283733099173 -0.0005574103410793674 -0.0003022732260116179 0.00039064665736843196 -0.00017698184757097835 -0.0006723687403844547
          -0.00007385710128557377 -0.00015854040708890293 -0.00009230334283003017 -0.00031194913959162185 -0.0006265942634290783 -0.0004228274182501851
          0.000016442778952407977 -2.2060984005439597 0.00003136754605903569 -4.412458044987535 0.000014283642429280263 -2.210427258723178
          0.00003252318762436701 0.000056592178890646494 0.000024747598675656235 0.00003996819084939318 0.00006850577539307956 0.000023401050000648738
          0.00003254340438263448 0.00005265689305478105 0.00000484337611417196 -0.0000013762243313841793 -0.000017575647210055223 -0.00005045986741203379
          -0.00003425135023027437 -0.00003104359925781841 -0.00007101101046136371 -0.000054828009870222516 -0.0000352633137393199 -0.000028967651611644385
          -0.00015631265519355786 -0.00009310870190187837 -0.00008709643782808286 -0.00031765447269860303 -0.00019022167726889805 -0.00018020186270627236
          -0.00016493914616766414 -0.00009680197918170153 -0.00009176789591080342 -0.000013406766656870461 -0.000023755758942589633 -0.000016627878453204237
          -0.00002729978148563461 -0.000052794954406576444 -0.00003062598459507848 -0.00007471127386582399 -0.0001553918324692649 -0.00007801883031677281
          -0.0002184365516375436 -0.00044218817809160704 -0.0002336524612214924 -0.00025936740009768755 -0.0005215968878280464 -0.00027396589016426276
          -0.0002405098882537482 -0.0004805006929329281 -0.00025393473425494584 -0.0001442164374367283 -0.0002795071307427621 -0.00015327415411670042
          -0.00004580051648574168 -0.00007426445560049233 -0.00004032922524380145 0.000030146757807991698 -2.1345932773432184 0.00006013406999016979
          -4.269450110648252 0.00002963737078576223 -2.1394542422801273 0.0000588762835112 0.00011604649369290065 0.00005694875571415903
          0.00008569369907174273 0.0001704210580593113 0.00008021304398919682 0.00010667783331008707 0.00020746117945735776 0.0000909842290681695
          0.00010682387406824034 0.00020609820725558947 0.00007569703333265565 -0.00010323630409825313 -0.00021053382810354293 -0.000170967939073563
          0.000054812196649489664 0.00009951686555353945 0.0000048580303384504475 -0.0006511520867480414 -0.0010543796835777997 -0.0005233367021073576
          -0.0009415690633325369 -0.0019713539992745055 -0.0012512958331099 -0.0008600886723260093 -0.001723393937270279 -0.0011018474139656842
        </DataArray>
        <DataArray type="Float64" Name="resid_z" format="ascii" RangeMin="0" RangeMax="0">
          0 0 0 0 0 0
          0 0 0 0 0 0
          0 0 0 0 0 0
          0 0 0 0 0 0
          0 0 0 0 0 0
          0 0 0 0 0 0
          0 0 0 0 0 0
          0 0 0 0 0 0
          0 0 0 0 0 0
          0 0 0 0 0 0
          0 0 0 0 0 0
          0 0 0 0 0 0
          0 0 0 0 0 0
          0 0 0 0 0 0
          0 0 0 0 0 0
          0 0 0 0 0 0
          0 0 0 0 0 0
          0 0 0 0 0 0
          0 0 0 0 0 0
          0 0 0 0 0 0
          0 0 0 0 0 0
          0 0 0 0 0 0
          0 0 0 0 0 0
          0 0 0 0 0 0
          0 0 0 0 0 0
          0 0 0 0 0 0
          0 0 0 0 0 0
          0 0 0 0 0 0
          0 0 0 0 0 0
          0 0 0 0 0 0
          0 0 0 0 0 0
          0 0 0 0 0 0
          0 0 0 0 0 0
          0 0 0 0 0 0
          0 0 0 0 0 0
          0 0 0 0 0 0
          0 0 0 0 0 0
          0 0 0 0 0 0
          0 0 0 0 0 0
          0 0 0 0 0 0
          0 0 0 0 0 0
          0 0 0 0 0 0
          0 0 0 0 0 0
          0 0 0 0 0 0
          0 0 0 0 0 0
          0 0 0 0 0 0
          0 0 0 0 0 0
          0 0 0 0 0 0
          0 0 0 0 0 0
          0 0 0 0 0 0
          0 0 0 0 0 0
          0 0 0 0 0 0
          0 0 0 0 0 0
          0 0 0 0 0 0
          0 0 0 0 0 0
          0 0 0 0 0 0
          0 0 0 0 0 0
          0 0 0 0 0 0
          0 0 0 0 0 0
          0 0 0 0 0 0
          0 0 0 0 0 0
          0 0 0 0 0 0
          0 0 0 0 0 0
          0 0 0 0 0 0
          0 0 0 0 0 0
          0 0 0 0 0 0
          0 0 0 0 0 0
          0 0 0 0 0 0
          0 0 0 0 0 0
          0 0 0 0 0 0
          0 0 0 0 0 0
          0 0 0 0 0 0
          0 0 0 0 0 0
          0 0 0 0 0 0
          0 0 0 0 0 0
          0 0 0 0 0 0
          0 0 0 0 0 0
          0 0 0 0 0 0
          0 0 0 0 0 0
          0 0 0 0 0 0
          0 0 0 0 0 0
          0 0 0 0 0 0
          0 0 0 0 0 0
          0 0 0 0 0 0
          0 0 0 0 0 0
          0 0 0 0 0 0
          0 0 0 0 0 0
          0 0 0 0 0 0
          0 0 0 0 0 0
          0 0 0 0 0 0
          0 0 0 0 0 0
          0 0 0 0 0 0
          0 0 0 0 0 0
          0 0 0 0 0 0
          0 0 0 0 0 0
          0 0 0 0 0 0
          0 0 0 0 0 0
          0 0 0 0 0 0
          0 0 0 0 0 0
          0 0 0 0 0 0
          0 0 0 0 0 0
          0 0 0 0 0 0
          0 0 0 0 0 0
          0 0 0 0 0 0
          0 0 0 0 0 0
          0 0 0 0 0 0
          0 0 0 0 0 0
          0 0 0 0 0 0
          0 0 0 0 0 0
          0 0 0 0 0 0
          0 0 0 0 0 0
          0 0 0 0 0 0
          0 0 0 0 0 0
          0 0 0 0 0 0
          0 0 0 0 0 0
          0 0 0 0 0 0
          0 0 0 0 0 0
          0 0 0 0 0 0
          0 0 0 0 0 0
          0 0 0 0 0 0
          0 0 0 0 0 0
          0 0 0 0 0 0
          0 0 0 0 0 0
          0 0 0 0 0 0
          0 0 0 0 0 0
          0 0 0 0 0 0
          0 0 0 0 0 0
          0 0 0 0 0 0
          0 0 0 0 0 0
          0 0 0 0 0 0
          0 0 0 0 0 0
          0 0 0 0 0 0
          0 0 0 0 0 0
        </DataArray>
        <DataArray type="Float64" Name="stress_zz" format="ascii" RangeMin="-1520925.0596552629" RangeMax="880526.2055498095">
          4884.522973742716 -534.5185824565245 3807.1426685512706 5389.350888622522 5163.660196272246 -603.0759986315652
          3960.0891109008026 5580.601573090936 5442.797418801777 -671.633414806606 4113.035553250334 5771.85225755935
          5094.422066375295 4304.035330937053 5286.891537604612 6151.242321781432 5055.53149955763 4064.3712143561033
          5953.419843419766 6488.029235606895 5016.640932739965 3824.707097775155 6619.948149234923 6824.816149432357
          9992.485591329467 -80806.19097828107 -15881.296110862748 91114.14178560064 8898.218433104617 -83036.4437645582
          -15339.498150311025 90135.32261472805 7803.9512748797715 -85266.69655083532 -14797.70018975931 89156.50344385546
          -8607.709814045109 -6506.218299627984 -2994.7716642426094 -2549.044560150664 -8719.340239528101 -6592.594649678584
          -3079.2859011988376 -2481.198262243972 -8830.97066501109 -6678.970999729184 -3163.8001381550666 -2413.351964337279
          13381.120707505961 7.103749202695042 2490.928733413286 13589.431519129384 13094.90327656202 -417.955197614788
          2116.5442034622047 13232.135211449282 12808.68584561808 -843.014144432271 1742.1596735111234 12874.838903769181
          5334.415972224421 3191.7063697183185 -331.07744896221175 -2318.873831138407 5364.863625220284 3291.278350357156
          -305.1142237562358 -2539.8168019599407 5395.311278216147 3390.8503309959924 -279.1509985502598 -2760.759772781475
          5961.146074466881 269.2659911315137 1324.116290298959 5875.660357808418 199.8021312589966 1326.995609719428
          5790.174641149955 130.33827138647985 1329.8749291398967 -4213.123804460876 -6316.210225906449 -4226.576317156709
          -6503.557875440249 -4240.028829852541 -6690.905524974049 6716.71109256842 -8295.161388656581 15652.730969738226
          -9888.966506772289 6388.730206245898 -8571.392505568103 16543.178706804123 -9674.073300689159 6060.749319923377
          -8847.623622479623 17433.62644387002 -9459.180094606027 3522.539707081887 189.13548531070364 3703.961777741699
          229.80532985943012 3885.38384840151 270.47517440815636 -3408.5499699425864 -4523.405868985069 -3411.549475702127
          -4681.882623379385 -3414.5489814616676 -4840.3593777737005 30109.00610782092 36591.10555259904 16033.362937250917
          31288.256858192435 38286.65940482305 16786.724867883633 32467.50760856395 39982.21325704706 17540.086798516357
          -3187.3762583271327 3640.881771891746 -3371.320842598032 3675.252666531237 -3555.265426868931 3709.623561170728
          6413.503556939788 721.6056025572939 846.593801023145 16940.538069403654 6294.237522081227 658.5471891667553
          869.5700536289753 17338.683620741256 6174.971487222664 595.4887757762162 892.5463062348058 17736.829172078862
          7169.319227782375 7621.832373079647 11024.439013000087 7397.757514008868 7845.117266146359 11512.994274251945
          7626.195800235361 8068.402159213072 12001.549535503804 162.00761907342886 185.85429701743988 209.70097496145098
          -8807.774627262246 -1297.8061099543243 -11344.296291317989 -8902.080211966855 -1340.3031266987632 -11695.00100669545
          -8996.385796671462 -1382.8001434432026 -12045.705722072911 -9853.536994438717 -12753.464728441742 -6417.570082268591
          -9999.334481336915 -12957.351289607695 -6492.183212376707 -10145.131968235111 -13161.237850773647 -6566.796342484822
          -2668.4290301795018 -952.566572112388 -1135.9936187974147 -2714.253798502402 -1051.2409603627082 -1259.5864785437477
          -2760.078566825302 -1149.9153486130283 -1383.1793382900814 6204.813363571133 2061.432765457712 6565.737304526683
          2124.9096993987405 6926.661245482235 2188.3866333397687 22584.1180097972 -14895.740595959945 22717.07954345716
          -15058.191062047437 22850.041077117123 -15220.641528134933 -1936.0809945186043 -1959.80376304459 -1983.5265315705753
          953.9226577429208 -36170.010561571056 952.5870421625107 -37742.764456507706 951.2514265820992 -39315.51835144436
          -3321.421680121949 -1334.9136154581302 -3323.1216295426634 -1340.5301714119687 -3324.8215789633787 -1346.1467273658077
          3883.6543730535586 3961.20267077295 4038.7509684923416 4954.683707579521 3797.3229449229348 5686.854511009193
          6287.093994693025 4804.5569683138165 3899.2059841070513 5756.449309147773 6050.191383455229 4654.430229048112
          4001.089023291168 5826.044107286355 5813.2887722174355 89361.51998712205 89545.53499060495 89729.54999408784
          115095.75860492936 112005.50394801924 115068.98795074293 111796.3565415969 115042.21729655648 111587.20913517456
          1017.0828781878463 3619.01927782137 937.998627312998 3690.291396507861 858.9143764381498 3761.563515194353
          -4473.60515473876 -4382.879745762876 -4292.154336786991 20291.999908639613 7817.570584380494 20884.954688687023
          7840.305087841194 21477.90946873443 7863.039591301895 -2840.005375797538 10603.676598949585 22649.462028253278
          4518.492822155527 -3073.8405809569585 10462.635120270814 22781.601903629162 4635.795677255434 -3307.67578611638
          10321.593641592044 22913.741779005035 4753.098532355341 -7934.578663307804 -16918.188232948178 -7943.2750808951405
          -17648.672022755207 -7951.971498482477 -18379.15581256224 -44527.5599173523 -895.8094357364216 5259.504334196501
          -22713.097127725836 -46507.3965643688 -1249.9664521439795 6147.117490533645 -22927.267990472854 -48487.2332113853
          -1604.1234685515374 7034.730646870787 -23141.43885321987 2437.7178304568242 2535.178383885666 2632.6389373145075
          8490.488572984254 8162.59094024912 8646.78699544815 8229.745721635181 8803.085417912047 8296.900503021245
          -4197.072857882238 -3580.2095440323947 -4205.3357597341765 -3539.934851159845 -4213.598661586115 -3499.660158287296
          2075.5070984164736 2146.883111089959 2218.2591237634456 704.1741012434219 -737.5027628610576 690.0988135208922
          -650.5748132698176 676.0235257983625 -563.6468636785771 -298.7889122488623 4609.46424670748 -191.0421200761681
          5020.634119750638 -83.29532790347548 5431.803992793796 261.00478620195236 -4475.603301291732 424.0677465022129
          -4577.6846284197845 587.1307068024734 -4679.765955547837 3781.3463000796837 3989.4762985714237 4197.606297063163
          1601.6673835424178 -4195.401727546517 1627.6546947778777 -4836.856773033255 1653.6420060133387 -5478.3118185199955
          -623.8264628396462 -4705.992280891498 -533.6869186732372 -4823.641915459675 -443.5473745068275 -4941.2915500278505
          -3262.652839032438 -5506.86428980397 -7708.767547710048 -3284.1801953381914 -5635.066423905618 -7753.997694760175
          -3305.7075516439445 -5763.268558007267 -7799.227841810305 1747.4722719292909 1919.2710146204822 2091.069757311674
          8474.432623448074 -2865.8841446782817 8784.886311407263 -3027.8551822487952 9095.33999936645 -3189.8262198193092
          -4609.54709139347 -3806.3614695952915 -4575.081954696954 -3829.916355593481 -4540.61681800044 -3853.47124159167
          11281.439738938276 18929.697077033117 11577.396095590399 20169.107841370136 11873.35245224252 21408.518605707162
          2216.5770016755305 4185.49912406286 2327.512406326853 4392.0146898894545 2438.447810978176 4598.530255716048
          -2772.401809253094 -466.18723690160914 -1733.291232778367 -2856.6952226519998 -452.86367196145824 -1668.3905723190867
          -2940.9886360509054 -439.54010702130654 -1603.4899118598062 -6319.253691570939 -6705.137314788731 -7091.020938006523
          -7185.591711118349 -7280.759836006512 -7375.9279608946745 -6597.947078632653 -6649.472594873261 -6700.998111113869
          -5184.023311521176 -5554.942325612601 -5925.861339704026 -1220.2050417069443 -1112.3224338838195 -1004.4398260606945
          -2667.647691278911 -2811.3357288262832 -2955.0237663736552 -1995.9803999692685 -2045.3268398963505 -2094.6732798234316
          -2238.7195827726446 -2176.5568630099606 -2114.3941432472766 4052.493607109141 137.52710835576164 4239.965875934397
          7.544994443872747 4427.438144759654 -122.43711946801595 -2097.5526916679655 -2014.1925663415052 -2032.4793975329758
          -2137.6211687848263 -1967.4061033979858 -2261.0497712281476 -4687.84143472437 -4923.47263040031 -5159.103826076249
          -1124.6804743976784 -2268.128194137731 -863.624468808259 -2300.1598507728786 -602.5684632188397 -2332.1915074080266
          139884.49140786636 141829.72573739674 140507.52528572248 142518.56932490415 141130.55916357864 143207.4129124116
          30573.58009804774 30885.581094337973 31197.582090628206 -4632.0881385319435 -4862.498480041391 -5092.908821550839
          -12743.389791671629 1826.0997464484353 -13699.339361527393 1647.0440507236463 -14655.288931383157 1467.9883549988585
          5732.2255672757365 6155.649057115209 5867.586040427585 6528.832164905172 6002.946513579436 6902.015272695136
          -7471.596122598898 -7520.209903804319 -7568.823685009738 -4560.285245273146 -4483.917729181483 -4407.55021308982
          -3453.9646835120893 -3594.302385194744 -3734.6400868774 2469.5169175807882 3974.61811097234 2306.965596120568
          4065.667682201319 2144.414274660347 4156.717253430298 -7196.690129756536 -7221.8950451099145 -7247.0999604632925
          25210.132999218273 13064.835257431201 12948.366778125079 21667.398533130283 26001.293192416008 12750.808376158042
          12496.988948418088 22386.575804133856 26792.45338561374 12436.781494884883 12045.611118711095 23105.753075137425
          240.07118304848598 -5129.6996605331615 270.56866524182965 -5327.83553108452 301.0661474351732 -5525.9714016358785
          5437.580384686891 5171.320121950253 4905.059859213616 3996.2761463141 4600.449892830698 3607.9372355404394
          4202.797201240987 3219.5983247667796 3805.144509651277 -5299.747545036384 8349.745274209983 -5470.699370055014
          8344.018305263335 -5641.651195073645 8338.291336316686 -9005.951876264786 -9179.173681753244 -9352.395487241702
          -7771.0897761964525 -7796.115273777419 -7821.140771358387 -16319.318056954797 -16441.148380098195 -16562.978703241588
          252.41528349383825 1470.079607912623 195.75925297128697 1675.1340921052208 139.10322244873578 1880.1885762978184
          -1329.2544814960684 -1403.0016201413139 -1476.7487587865594 -41657.60824479573 -54511.83491965304 -25852.29845097442
          -41847.466487469756 -55518.8232348265 -25929.960779235305 -42037.32473014379 -56525.81154999995 -26007.62310749619
          20851.046864788954 21159.635541645457 21468.22421850196 2715.2980362271674 8898.261918070384 -970.7239562486872
          3216.3929853515974 9694.532463514184 -1242.4181118079196 3717.4879344760284 10490.803008957984 -1514.1122673671516
          26940.924312781644 27599.878671371775 28258.833029961905 -3304.309561316434 -3175.102791987867 -3045.8960226593003
          31229.463782380004 30624.879675664855 30020.295568949718 3651.0833340459494 4050.793536152596 4450.503738259242
          10235.976121475283 16229.012221965126 9652.42889067415 16861.744575836507 9068.881659873014 17494.47692970789
          1706.71143686279 1567.5730238414503 1428.4346108201116 -697.7931879386033 4386.982730339582 -798.814713532465
          4234.854364835134 -899.8362391263263 4082.725999330685 6918.897229423426 -1602.100988903063 6952.432293152508
          -1530.6339186597586 6985.967356881591 -1459.1668484164536 11580.275183610993 1331.4142222221444 11525.605300387262
          1504.8117489845367 11470.935417163533 1678.2092757469277 38386.49473237263 22336.67018403784 38604.11431441992
          22825.276671549924 38821.73389646722 23313.883159062 13246.452349152545 23965.80548534401 20160.812977517693
          12910.298598568688 24654.23244467836 21509.569784524363 12574.144847984828 25342.659404012702 22858.326591531033
          10129.93341290312 10789.867315990112 11449.801219077104 21215.560368974286 22248.147220022744 23280.734071071205
          26825.44681929417 27441.936653591463 28058.426487888755 79243.85708014412 79650.86869725576 80057.88031436742
          48502.16824507645 47406.79111376219 6946.851597926749 51679.30694845519 47485.94770274386 4359.781456362725
          54856.44565183394 47565.10429172553 1772.7113147987038 28283.707337541688 29555.423610670347 30827.13988379901
          -18865.243191284615 -18938.125301044507 -19011.007410804406 -2362.6062119297567 65208.139973635196 -2670.5431734957074
          65387.48416487092 -2978.480135061658 65566.82835610663 39383.837277472616 41817.13346407519 44250.42965067777
          -3172.4593840045295 -6069.2475721292185 -8966.035760253906 51338.33816013055 45389.63445294267 39440.93074575477
          -27515.47215444414 -27301.788974811003 -27088.105795177864 48717.22293392483 43279.94702634213 37842.671118759434
          182049.99192689254 181639.3453983299 181228.6988697672 76590.94664260288 87565.12745595883 76841.0093076279
          87894.51066792282 77091.0719726529 88223.8938798868 15393.767928132133 7801.237880831203 15258.317118638723
          7546.409829918951 15122.866309145309 7291.581779006699 -9892.585099784383 -12885.239392342963 -9798.734267277203
          -12758.96390451402 -9704.883434770025 -12632.688416685078 72153.09425001265 72158.50421562909 72163.91418124553
          29952.108705008603 29915.992967822363 29879.87723063613 191.22693878212795 163.72262955775227 136.21832033337614
          87296.46680652992 87267.58630049795 87238.70579446599 52418.94601326056 52490.48173391687 52562.01745457319
          19213.959812147095 19362.384343394282 19510.808874641465 102329.14783561644 102394.95600227642 102460.76416893638
          88315.57354871508 88176.21150196884 88036.84945522263 53730.958206680756 53376.17081078852 53021.383414896285
          133688.73450550644 134040.26865157124 134391.80279763602 112071.04897903725 113223.29733716592 114375.5456952946
          130961.04893215088 131032.88123543304 131104.71353871515 189224.9411838508 187668.2448257526 186111.54846765444
          25095.3521228478 24890.59010620431 24685.82808956082 138714.11823418812 139538.943065639 140363.76789708989
          -683803.7998327527 -681230.2239471837 -678656.6480616147 -737060.4945351855 -728390.4491350324 -719720.4037348791
          -1314542.500552419 -1310023.1818746622 -1305503.8631969055 -1520925.0596552629 -1511775.3666002247 -1502625.6735451869
          -31762.301513596052 -32997.7859463956 -31842.14848725526 -33096.48782599131 -31921.995460914462 -33195.189705587014
          -27537.306853830723 -27604.685806549685 -27672.06475926865 -19183.732087812812 -19166.825757778664 -19149.919427744517
          1882.5159090490542 1354.3072376630262 826.0985662769981 29347.884509064443 30639.84941666122 31931.814324258004
          34156.97170283415 27589.58080742178 34585.527677016624 27514.58424308512 35014.0836511991 27439.58767874846
          47642.358050985196 -36970.1294597306 34420.1902517632 47956.65306217801 -37108.01773259349 34196.09216178679
          48270.94807337083 -37245.906005456374 33971.994071810375 -62.56710187027836 -142.9873069105077 -223.40751195073614
          15026.050041580243 15021.086853302366 15016.123665024488 2876.658776004285 2879.5878890087793 2882.517002013273
          102661.8191211429 102659.60076121792 102657.38240129293 49092.17787276212 49314.57174538175 49536.96561800139
          -72168.38475586356 -72684.35214048729 -73200.31952511102 -101967.25270165892 -104087.26018731514 -106207.26767297139
          -57982.233659400765 -60711.634237845865 -63441.034816290994 -42033.69967282696 -41066.24362557577 -42033.12592277971
          -41050.99466842091 -42032.55217273247 -41035.74571126606 -41464.80322022736 -41528.96582454078 -41593.1284288542
          -36954.955481476674 -36847.128548034496 -36739.30161459232 -20237.64735504294 -20942.041872099937 -21646.43638915693
          9806.007823108208 11444.81777926954 13083.627735430877 192118.241284249 187843.27316258568 183568.30504092237
          184312.9504434716 179356.28316324428 174399.61588301696 701979.4498559043 699586.1885186186 697192.9271813328
          880526.2055498095 879425.4105740514 878324.6155982933 700218.9243050383 690505.9951290177 680793.0659529973
        </DataArray>
        <DataArray type="Float64" Name="peeq" format="ascii" RangeMin="0" RangeMax="0.0001560644871078653">
          0 0 0 0 0 0
          0 0 0 0 0 0
          0 0 0 0 0 0
          0 0 0 0 0 0
          0 0 0 0 0 0
          0 0 0 0 0 0
          0 0 0 0 0 0
          0 0 0 0 0 0
          0 0 0 0 0 0
          0 0 0 0 0 0
          0 0 0 0 0 0
          0 0 0 0 0 0
          0 0 0 0 0 0
          0 0 0 0 0 0
          0 0 0 0 0 0
          0 0 0 0 0 0
          0 0 0 0 0 0
          0 0 0 0 0 0
          0 0 0 0 0 0
          0 0 0 0 0 0
          0 0 0 0 0 0
          0 0 0 0 0 0
          0 0 0 0 0 0
          0 0 0 0 0 0
          0 0 0 0 0 0
          0 0 0 0 0 0
          0 0 0 0 0 0
          0 0 0 0 0 0
          0 0 0 0 0 0
          0 0 0 0 0 0
          0 0 0 0 0 0
          0 0 0 0 0 0
          0 0 0 0 0 0
          0 0 0 0 0 0
          0 0 0 0 0 0
          0 0 0 0 0 0
          0 0 0 0 0 0
          0 0 0 0 0 0
          0 0 0 0 0 0
          0 0 0 0 0 0
          0 0 0 0 0 0
          0 0 0 0 0 0
          0 0 0 0 0 0
          0 0 0 0 0 0
          0 0 0 0 0 0
          0 0 0 0 0 0
          0 0 0 0 0 0
          0 0 0 0 0 0
          0 0 0 0 0 0
          0 0 0 0 0 0
          0 0 0 0 0 0
          0 0 0 0 0 0
          0 0 0 0 0 0
          0 0 0 0 0 0
          0 0 0 0 0 0
          0 0 0 0 0 0
          0 0 0 0 0 0
          0 0 0 0 0 0
          0 0 0 0 0 0
          0 0 0 0 0 0
          0 0 0 0 0 0
          0 0 0 0 0 0
          0 0 0 0 0 0
          0 0 0 0 0 0
          0 0 0 0 0 0
          0 0 0 0 0 0
          0 0 0 0 0 0
          0 0 0 0 0 0
          0 0 0 0 0 0
          0 0 0 0 0 0
          0 0 0 0 0 0
          0 0 0 0 0 0
          0 0 0 0 0 0
          0 0 0 0 0 0
          0 0 0 0 0 0
          0 0 0 0 0 0
          0 0 0 0 0 0
          0 0 0 0 0 0
          0 0 0 0 0 0
          0 0 0 0 0 0
          0 0 0 0 0 0
          0 0 0 0 0 0
          0 0 0 0 0 0
          0 0 0 0 0 0
          0 0 0 0 0 0
          0 0 0 0 0 0
          0 0 0 0 0 0
          0 0 0 0 0 0
          0 0 0 0 0 0
          0 0 0 0 0 0
          0 0 0 0 0 0
          0 0 0 0 0 0
          0 0 0 0 0 0
          0 0 0 0 0 0
          0 0 0 0 0 0
          0 0 0 0 0 0
          0 0 0 0 0 0
          0 0 0 0 0 0
          0 0 0 0 0 0
          0 0 0 0 0 0
          0 0 0 0 0 0
          0 0 0 0 0 0
          0 0 0 0 0 0
          0 0 0 0 0 0
          0 0 0 0 0 0
          0 0 0 0 0 0
          0 0 0 0 0 0
          0 0 0 0 0 0
          0 0 0 0 0 0
          0 0 0 0 0 0
          0 0 0 0 0 0
          0 0 0 0 0 0
          0 0 0 0 0 0
          0 0 0 0 0 0
          0 0 0 0 0 0
          0 0 0 4.2537001762221294e-7 4.1996153242340753e-7 4.145530472246021e-7
          2.2381522946537526e-7 2.3763254069551555e-7 2.5144985192565585e-7 0.000028572359956147425 0.000028559183957841936 0.000028546007959536446
          4.476304589307505e-7 4.752650813910311e-7 5.028997038513117e-7 0.00005629397987705042 0.000056278444850837054 0.000056262909824623685
          0 0 0 0 0 0
          0 0 0 0 0 0
          0 0 0 0 0 0
          0 0 0 0 0 0
          0 0 0 0 0 0
          0 0 0 0 0 0
          0 0 0 0 0 0
          0 0 0 0 0 0
          0 0 0 0 0 0
          0 0 0 0 0 0
          0 0 0 0 0 0
          0 0 0 0 0 0
          0 0 0 0 0 0
          0 0 0 0.000004685019348578071 0.0000046474618851457546 0.000004609904421713439
          0.00008271726290251073 0.000082550227558547 0.00008238319221458328 0.0001560644871078653 0.00015580553134680248 0.00015554657558573967
        </DataArray>
        <DataArray type="Float64" Name="pe11" format="ascii" RangeMin="0" RangeMax="0.00015428395449871608">
          0 0 0 0 0 0
          0 0 0 0 0 0
          0 0 0 0 0 0
          0 0 0 0 0 0
          0 0 0 0 0 0
          0 0 0 0 0 0
          0 0 0 0 0 0
          0 0 0 0 0 0
          0 0 0 0 0 0
          0 0 0 0 0 0
          0 0 0 0 0 0
          0 0 0 0 0 0
          0 0 0 0 0 0
          0 0 0 0 0 0
          0 0 0 0 0 0
          0 0 0 0 0 0
          0 0 0 0 0 0
          0 0 0 0 0 0
          0 0 0 0 0 0
          0 0 0 0 0 0
          0 0 0 0 0 0
          0 0 0 0 0 0
          0 0 0 0 0 0
          0 0 0 0 0 0
          0 0 0 0 0 0
          0 0 0 0 0 0
          0 0 0 0 0 0
          0 0 0 0 0 0
          0 0 0 0 0 0
          0 0 0 0 0 0
          0 0 0 0 0 0
          0 0 0 0 0 0
          0 0 0 0 0 0
          0 0 0 0 0 0
          0 0 0 0 0 0
          0 0 0 0 0 0
          0 0 0 0 0 0
          0 0 0 0 0 0
          0 0 0 0 0 0
          0 0 0 0 0 0
          0 0 0 0 0 0
          0 0 0 0 0 0
          0 0 0 0 0 0
          0 0 0 0 0 0
          0 0 0 0 0 0
          0 0 0 0 0 0
          0 0 0 0 0 0
          0 0 0 0 0 0
          0 0 0 0 0 0
          0 0 0 0 0 0
          0 0 0 0 0 0
          0 0 0 0 0 0
          0 0 0 0 0 0
          0 0 0 0 0 0
          0 0 0 0 0 0
          0 0 0 0 0 0
          0 0 0 0 0 0
          0 0 0 0 0 0
          0 0 0 0 0 0
          0 0 0 0 0 0
          0 0 0 0 0 0
          0 0 0 0 0 0
          0 0 0 0 0 0
          0 0 0 0 0 0
          0 0 0 0 0 0
          0 0 0 0 0 0
          0 0 0 0 0 0
          0 0 0 0 0 0
          0 0 0 0 0 0
          0 0 0 0 0 0
          0 0 0 0 0 0
          0 0 0 0 0 0
          0 0 0 0 0 0
          0 0 0 0 0 0
          0 0 0 0 0 0
          0 0 0 0 0 0
          0 0 0 0 0 0
          0 0 0 0 0 0
          0 0 0 0 0 0
          0 0 0 0 0 0
          0 0 0 0 0 0
          0 0 0 0 0 0
          0 0 0 0 0 0
          0 0 0 0 0 0
          0 0 0 0 0 0
          0 0 0 0 0 0
          0 0 0 0 0 0
          0 0 0 0 0 0
          0 0 0 0 0 0
          0 0 0 0 0 0
          0 0 0 0 0 0
          0 0 0 0 0 0
          0 0 0 0 0 0
          0 0 0 0 0 0
          0 0 0 0 0 0
          0 0 0 0 0 0
          0 0 0 0 0 0
          0 0 0 0 0 0
          0 0 0 0 0 0
          0 0 0 0 0 0
          0 0 0 0 0 0
          0 0 0 0 0 0
          0 0 0 0 0 0
          0 0 0 0 0 0
          0 0 0 0 0 0
          0 0 0 0 0 0
          0 0 0 0 0 0
          0 0 0 0 0 0
          0 0 0 0 0 0
          0 0 0 0 0 0
          0 0 0 0 0 0
          0 0 0 0 0 0
          0 0 0 0 0 0
          0 0 0 0 0 0
          0 0 0 0 0 0
          0 0 0 4.210181410629197e-7 4.156495184794272e-7 4.102808958959347e-7
          2.236532499335765e-7 2.3745736822149334e-7 2.5126148650941015e-7 0.000028455559220504554 0.000028441692818557465 0.000028427826416610377
          4.47306499867153e-7 4.749147364429867e-7 5.025229730188203e-7 0.00005606908215888327 0.00005605208660015608 0.000056035091041428887
          0 0 0 0 0 0
          0 0 0 0 0 0
          0 0 0 0 0 0
          0 0 0 0 0 0
          0 0 0 0 0 0
          0 0 0 0 0 0
          0 0 0 0 0 0
          0 0 0 0 0 0
          0 0 0 0 0 0
          0 0 0 0 0 0
          0 0 0 0 0 0
          0 0 0 0 0 0
          0 0 0 0 0 0
          0 0 0 0.000004614356432735924 0.000004577266751100564 0.000004540177069465204
          0.00008175633368209397 0.00008158960952874652 0.00008142288537539907 0.00015428395449871608 0.0001540246855552919 0.00015376541661186774
        </DataArray>
        <DataArray type="Float64" Name="pe22" format="ascii" RangeMin="-0.00007267558756183673" RangeMax="0">
          0 0 0 0 0 0
          0 0 0 0 0 0
          0 0 0 0 0 0
          0 0 0 0 0 0
          0 0 0 0 0 0
          0 0 0 0 0 0
          0 0 0 0 0 0
          0 0 0 0 0 0
          0 0 0 0 0 0
          0 0 0 0 0 0
          0 0 0 0 0 0
          0 0 0 0 0 0
          0 0 0 0 0 0
          0 0 0 0 0 0
          0 0 0 0 0 0
          0 0 0 0 0 0
          0 0 0 0 0 0
          0 0 0 0 0 0
          0 0 0 0 0 0
          0 0 0 0 0 0
          0 0 0 0 0 0
          0 0 0 0 0 0
          0 0 0 0 0 0
          0 0 0 0 0 0
          0 0 0 0 0 0
          0 0 0 0 0 0
          0 0 0 0 0 0
          0 0 0 0 0 0
          0 0 0 0 0 0
          0 0 0 0 0 0
          0 0 0 0 0 0
          0 0 0 0 0 0
          0 0 0 0 0 0
          0 0 0 0 0 0
          0 0 0 0 0 0
          0 0 0 0 0 0
          0 0 0 0 0 0
          0 0 0 0 0 0
          0 0 0 0 0 0
          0 0 0 0 0 0
          0 0 0 0 0 0
          0 0 0 0 0 0
          0 0 0 0 0 0
          0 0 0 0 0 0
          0 0 0 0 0 0
          0 0 0 0 0 0
          0 0 0 0 0 0
          0 0 0 0 0 0
          0 0 0 0 0 0
          0 0 0 0 0 0
          0 0 0 0 0 0
          0 0 0 0 0 0
          0 0 0 0 0 0
          0 0 0 0 0 0
          0 0 0 0 0 0
          0 0 0 0 0 0
          0 0 0 0 0 0
          0 0 0 0 0 0
          0 0 0 0 0 0
          0 0 0 0 0 0
          0 0 0 0 0 0
          0 0 0 0 0 0
          0 0 0 0 0 0
          0 0 0 0 0 0
          0 0 0 0 0 0
          0 0 0 0 0 0
          0 0 0 0 0 0
          0 0 0 0 0 0
          0 0 0 0 0 0
          0 0 0 0 0 0
          0 0 0 0 0 0
          0 0 0 0 0 0
          0 0 0 0 0 0
          0 0 0 0 0 0
          0 0 0 0 0 0
          0 0 0 0 0 0
          0 0 0 0 0 0
          0 0 0 0 0 0
          0 0 0 0 0 0
          0 0 0 0 0 0
          0 0 0 0 0 0
          0 0 0 0 0 0
          0 0 0 0 0 0
          0 0 0 0 0 0
          0 0 0 0 0 0
          0 0 0 0 0 0
          0 0 0 0 0 0
          0 0 0 0 0 0
          0 0 0 0 0 0
          0 0 0 0 0 0
          0 0 0 0 0 0
          0 0 0 0 0 0
          0 0 0 0 0 0
          0 0 0 0 0 0
          0 0 0 0 0 0
          0 0 0 0 0 0
          0 0 0 0 0 0
          0 0 0 0 0 0
          0 0 0 0 0 0
          0 0 0 0 0 0
          0 0 0 0 0 0
          0 0 0 0 0 0
          0 0 0 0 0 0
          0 0 0 0 0 0
          0 0 0 0 0 0
          0 0 0 0 0 0
          0 0 0 0 0 0
          0 0 0 0 0 0
          0 0 0 0 0 0
          0 0 0 0 0 0
          0 0 0 0 0 0
          0 0 0 0 0 0
          0 0 0 0 0 0
          0 0 0 0 0 0
          0 0 0 0 0 0
          0 0 0 -1.9199734908847907e-7 -1.89490867744213e-7 -1.8698438639994693e-7
          -1.0918821672739171e-7 -1.158953084746493e-7 -1.2260240022190688e-7 -0.000013641629128357392 -0.00001363138845054733 -0.000013621147772737268
          -2.1837643345478343e-7 -2.317906169492986e-7 -2.4520480044381376e-7 -0.000026899263558537826 -0.000026883795165606232 -0.00002686832677267464
          0 0 0 0 0 0
          0 0 0 0 0 0
          0 0 0 0 0 0
          0 0 0 0 0 0
          0 0 0 0 0 0
          0 0 0 0 0 0
          0 0 0 0 0 0
          0 0 0 0 0 0
          0 0 0 0 0 0
          0 0 0 0 0 0
          0 0 0 0 0 0
          0 0 0 0 0 0
          0 0 0 0 0 0
          0 0 0 -0.0000020554379764759435 -0.000002038179008773124 -0.0000020209200410703048
          -0.000038393231757394305 -0.000038304171784013654 -0.00003821511181063299 -0.00007267558756183673 -0.00007253198555048106 -0.00007238838353912537
        </DataArray>
        <DataArray type="Float64" Name="pe33" format="ascii" RangeMin="-0.00008160836693687937" RangeMax="0">
          0 0 0 0 0 0
          0 0 0 0 0 0
          0 0 0 0 0 0
          0 0 0 0 0 0
          0 0 0 0 0 0
          0 0 0 0 0 0
          0 0 0 0 0 0
          0 0 0 0 0 0
          0 0 0 0 0 0
          0 0 0 0 0 0
          0 0 0 0 0 0
          0 0 0 0 0 0
          0 0 0 0 0 0
          0 0 0 0 0 0
          0 0 0 0 0 0
          0 0 0 0 0 0
          0 0 0 0 0 0
          0 0 0 0 0 0
          0 0 0 0 0 0
          0 0 0 0 0 0
          0 0 0 0 0 0
          0 0 0 0 0 0
          0 0 0 0 0 0
          0 0 0 0 0 0
          0 0 0 0 0 0
          0 0 0 0 0 0
          0 0 0 0 0 0
          0 0 0 0 0 0
          0 0 0 0 0 0
          0 0 0 0 0 0
          0 0 0 0 0 0
          0 0 0 0 0 0
          0 0 0 0 0 0
          0 0 0 0 0 0
          0 0 0 0 0 0
          0 0 0 0 0 0
          0 0 0 0 0 0
          0 0 0 0 0 0
          0 0 0 0 0 0
          0 0 0 0 0 0
          0 0 0 0 0 0
          0 0 0 0 0 0
          0 0 0 0 0 0
          0 0 0 0 0 0
          0 0 0 0 0 0
          0 0 0 0 0 0
          0 0 0 0 0 0
          0 0 0 0 0 0
          0 0 0 0 0 0
          0 0 0 0 0 0
          0 0 0 0 0 0
          0 0 0 0 0 0
          0 0 0 0 0 0
          0 0 0 0 0 0
          0 0 0 0 0 0
          0 0 0 0 0 0
          0 0 0 0 0 0
          0 0 0 0 0 0
          0 0 0 0 0 0
          0 0 0 0 0 0
          0 0 0 0 0 0
          0 0 0 0 0 0
          0 0 0 0 0 0
          0 0 0 0 0 0
          0 0 0 0 0 0
          0 0 0 0 0 0
          0 0 0 0 0 0
          0 0 0 0 0 0
          0 0 0 0 0 0
          0 0 0 0 0 0
          0 0 0 0 0 0
          0 0 0 0 0 0
          0 0 0 0 0 0
          0 0 0 0 0 0
          0 0 0 0 0 0
          0 0 0 0 0 0
          0 0 0 0 0 0
          0 0 0 0 0 0
          0 0 0 0 0 0
          0 0 0 0 0 0
          0 0 0 0 0 0
          0 0 0 0 0 0
          0 0 0 0 0 0
          0 0 0 0 0 0
          0 0 0 0 0 0
          0 0 0 0 0 0
          0 0 0 0 0 0
          0 0 0 0 0 0
          0 0 0 0 0 0
          0 0 0 0 0 0
          0 0 0 0 0 0
          0 0 0 0 0 0
          0 0 0 0 0 0
          0 0 0 0 0 0
          0 0 0 0 0 0
          0 0 0 0 0 0
          0 0 0 0 0 0
          0 0 0 0 0 0
          0 0 0 0 0 0
          0 0 0 0 0 0
          0 0 0 0 0 0
          0 0 0 0 0 0
          0 0 0 0 0 0
          0 0 0 0 0 0
          0 0 0 0 0 0
          0 0 0 0 0 0
          0 0 0 0 0 0
          0 0 0 0 0 0
          0 0 0 0 0 0
          0 0 0 0 0 0
          0 0 0 0 0 0
          0 0 0 0 0 0
          0 0 0 0 0 0
          0 0 0 0 0 0
          0 0 0 0 0 0
          0 0 0 -2.2902079197444063e-7 -2.2615865073521426e-7 -2.2329650949598788e-7
          -1.1446503320618483e-7 -1.2156205974684408e-7 -1.2865908628750335e-7 -0.000014813930092147169 -0.000014810304368010139 -0.000014806678643873106
          -2.2893006641236965e-7 -2.4312411949368816e-7 -2.573181725750067e-7 -0.000029169818600345456 -0.000029168291434549845 -0.000029166764268754235
          0 0 0 0 0 0
          0 0 0 0 0 0
          0 0 0 0 0 0
          0 0 0 0 0 0
          0 0 0 0 0 0
          0 0 0 0 0 0
          0 0 0 0 0 0
          0 0 0 0 0 0
          0 0 0 0 0 0
          0 0 0 0 0 0
          0 0 0 0 0 0
          0 0 0 0 0 0
          0 0 0 0 0 0
          0 0 0 -0.0000025589184562599796 -0.00000253908774232744 -0.0000025192570283949
          -0.00004336310192469966 -0.00004328543774473287 -0.00004320777356476607 -0.00008160836693687937 -0.00008149270000481086 -0.00008137703307274234
        </DataArray>
        <DataArray type="Float64" Name="disp_x" format="ascii" RangeMin="0.000013676517561155111" RangeMax="0.000039083757628076796">
          0.000015247430805344677 0.000014846126924570117 0.000014539669184387032 0.000015028283835815619 0.000015247431667961536 0.00001484612692922679
          0.000014539668676147331 0.000015028284525129688 0.000015247435037152935 0.000014846130480561871 0.000014539668058825483 0.000015028287212448658
          0.00002063185719461437 0.000020026200855739516 0.000020277501831752686 0.000020861026125974474 0.000020631862497457494 0.00002002620439188936
          0.000020277505562238414 0.000020861030450039472 0.00002063187916155782 0.000020026216108542534 0.000020277517662468747 0.000020861046892876896
          0.00002780983179340746 0.00002749283233109805 0.000027785235116793347 0.000029183776672459997 0.000027809828843245967 0.00002749283634034506
          0.00002778523481978011 0.000029183774762146702 0.000027809812449942223 0.00002749285390613792 0.000027785226155590612 0.000029183768885487266
          0.000016614606520369563 0.00001718054754146179 0.000017643656918088242 0.000017114775918761414 0.00001661460922819631 0.000017180550522543766
          0.00001764366037196972 0.00001711477911536417 0.00001661461794257414 0.000017180561032561935 0.000017643671485891013 0.000017114788919508903
          0.00002311101034129595 0.000022942257937309927 0.000022308907619282313 0.00002248778872642713 0.000023111015198810068 0.0000229422629493203
          0.000022308913088321607 0.000022487793482894536 0.00002311103249963091 0.000022942280189930802 0.000022308931422165426 0.000022487809999497797
          0.00001746786748451492 0.000018111775293576964 0.000017816735058020104 0.000017162440031349306 0.000017467870355657104 0.00001811177850764866
          0.000017816738518656362 0.000017162441862456142 0.000017467878243269664 0.000018111790911263243 0.000017816749519879318 0.00001716244915549916
          0.000021289269414144682 0.00002103808116861377 0.000020375778755604823 0.000021289275038839772 0.000021038086631457593 0.000020375783555365147
          0.000021289289534712983 0.000021038103597145145 0.000020375800124493686 0.000018800354317301366 0.00001858927786612349 0.00001880035934862239
          0.00001858928289682662 0.000018800372656478304 0.00001858929702498053 0.000024861931304074096 0.00002399450494961334 0.000024196768783145556
          0.000025132066455874318 0.000024861937317476915 0.00002399451003595208 0.000024196774335244423 0.00002513207293256773 0.000024861957014647903
          0.000023994524865613026 0.000024196789822942953 0.000025132096521356767 0.000017635885678017484 0.000018101200783891312 0.00001763588921908202
          0.000018101204923770232 0.000017635898694725225 0.00001810121527568689 0.000019466671567397683 0.00001923265457668228 0.00001946667645823138
          0.00001923265954071898 0.00001946668865219292 0.000019232673008118322 0.000026995912212805603 0.00002725771925975227 0.000027943788199866987
          0.00002699591414264201 0.000027257723659326886 0.00002794380616332306 0.000026995913192934236 0.000027257704421585373 0.000027943915504506667
          0.000016608785309945996 0.000016901006650723676 0.000016608788503350786 0.000016901009066660525 0.000016608795885189395 0.00001690101543995909
          0.00002229366469524152 0.000021564857124802996 0.000021836882905566653 0.000022508629553866834 0.000022293671394344737 0.000021564863325002838
          0.00002183688817102366 0.000022508634988078122 0.000022293692410849697 0.000021564882866310907 0.00002183690656789476 0.000022508648660694357
          0.000021996755748590713 0.000021492933884160654 0.000022163487610596944 0.00002199676239654928 0.000021492940423531132 0.000022163494586113585
          0.000021996779999865052 0.00002149295580675324 0.00002216351416648162 0.00001826548436683788 0.000018265489607538444 0.00001826550465289831
          0.000020891253448367267 0.000021170316054820826 0.000020560965239429363 0.00002089125917625852 0.000021170323458880373 0.000020560971406455847
          0.000020891274305425874 0.000021170345921279 0.00002056098919743231 0.00002288151381738429 0.000022445934962817775 0.00002173289429917424
          0.00002288152196910252 0.000022445940851355432 0.00002173290167130966 0.000022881546057510857 0.000022445959874271863 0.000021732922756443705
          0.0000162596344831959 0.00001582381789729709 0.00001612079428346822 0.000016259637494958838 0.000015823819748452455 0.000016120797069860396
          0.00001625964617940553 0.00001582382674539992 0.000016120804069169175 0.000015715381543660213 0.000015598403544770993 0.000015715383999303476
          0.000015598405854302214 0.000015715390133631693 0.00001559841192187936 0.00002366196431882045 0.00002456502895565893 0.000023661974596285473
          0.000024565040706911108 0.00002366200603099561 0.000024565079052480947 0.000013676517561155111 0.000013676517571802424 0.000013676519304059394
          0.000024261518569269614 0.000024897056938361228 0.000024261527963248133 0.000024897065757136626 0.00002426155926034032 0.000024897098973275843
          0.000019866892578899432 0.00002011683570555102 0.000019866897908696986 0.000020116842165798465 0.000019866913666994214 0.000020116858340826
          0.00001974300735632817 0.00001974301390768652 0.00001974302796724107 0.00001785861746136429 0.000018450503537533634 0.000018392373324787787
          0.00001778197990711908 0.000017858620441118642 0.000018450506968110244 0.000018392376616742647 0.000017781982236581497 0.00001785863035445351
          0.000018450518139617676 0.000018392388150874482 0.000017781991111459028 0.000029287452914027737 0.000029287465238272213 0.000029287503125304578
          0.000029243561859513587 0.000027983391614132747 0.000029243571066918208 0.000027983400329139795 0.000029243598091991156 0.000027983426832625772
          0.000015494656885438897 0.000015777794967416238 0.000015494659317088455 0.00001577779856723612 0.000015494663580653223 0.000015777806039088754
          0.000022844462914334947 0.000022844471537806926 0.000022844497896578445 0.00002317391880586704 0.000023175580994446994 0.00002317392806389651
          0.000023175590579043945 0.00002317395652985824 0.00002317561798139215 0.000022084867258984138 0.000022669062278368273 0.00002281674295899564
          0.00002200687227921342 0.0000220848758158689 0.00002266907039138716 0.000022816751408351166 0.00002200687909942623 0.00002208490043523483
          0.000022669088569590436 0.000022816777563860335 0.00002200689920620581 0.00002351026090298965 0.000023483726608349493 0.00002351026666471727
          0.00002348373650778444 0.000023510274789358382 0.000023483760812650173 0.000025350914102693153 0.000025474082429883293 0.00002598607422060534
          0.00002570654835969272 0.000025350919921064227 0.00002547408526693259 0.0000259860800387563 0.00002570655160695859 0.00002535092619713333
          0.00002547408709475987 0.000025986105524414153 0.000025706556129175393 0.00001870662297844904 0.000018706627897253485 0.000018706641369207432
          0.00001711477355349847 0.00001766978136618638 0.00001711477648443776 0.00001766978484912902 0.000017114785375830226 0.00001766979411468674
          0.00002121684726061915 0.000021230854746963412 0.000021216855630706726 0.000021230862645102413 0.000021216879035416202 0.000021230887405600732
          0.000020463767813726347 0.000020463775966957502 0.0000204637983047715 0.00001900586026237363 0.00001840428948384739 0.00001900586584284685
          0.00001840429472139939 0.00001900588067303928 0.000018404311035321683 0.000017227311401721662 0.000017969645327640517 0.000017227314883023023
          0.00001796965137261873 0.00001722732305200897 0.00001796966509101704 0.000019379744194649405 0.000019151065248081793 0.000019379750118205867
          0.000019151070850688553 0.000019379767114246157 0.00001915108701044731 0.000020379840582566842 0.000020379847385506808 0.000020379866554684796
          0.000019098697046741883 0.00001960829466070193 0.000019098702003977873 0.000019608299897568065 0.000019098717019015717 0.000019608313132673222
          0.000019728677134158638 0.00001980277358005546 0.00001972868347895076 0.000019802780146071382 0.000019728698981020398 0.00001980279802398654
          0.000016362756923116037 0.000016759730036415207 0.000016787903478102015 0.00001636275978252315 0.00001675973420982706 0.00001678790693242726
          0.000016362769711403827 0.00001675974325973297 0.00001678791488744101 0.000015877701017567126 0.00001587770415407436 0.000015877711582258334
          0.000018302613723040797 0.00001902444450536561 0.000018302619870659995 0.00001902445044011611 0.000018302632466027344 0.00001902446669098813
          0.00002051103294087859 0.000020760489659914288 0.000020511038600963453 0.000020760496634985745 0.000020511055475881237 0.000020760514938154353
          0.000026594383905631534 0.000025855232749643186 0.00002659439798667108 0.000025855238701630984 0.000026594447528343366 0.000025855244452607874
          0.000016334038899536485 0.00001672859236987172 0.000016334042300008446 0.00001672859543188368 0.000016334049540793024 0.000016728601548593374
          0.000014903043418551482 0.000015425645764735697 0.00001557884860976529 0.000014903044811806092 0.000015425648022850846 0.000015578850802600585
          0.000014903049872001285 0.00001542565113971169 0.000015578855004188674 0.000014639502379096905 0.000014639504054981182 0.000014639509195861682
          0.00001971890175191496 0.000019718907468030455 0.000019718918167555268 0.00001543139101342836 0.00001543139329596928 0.000015431398455888227
          0.000015093825124338815 0.000015093827443445641 0.000015093829147895236 0.000019634996619111296 0.000019635003144040882 0.000019635019642264172
          0.000016163749565348268 0.00001616375242152054 0.00001616375942955193 0.000014220995506596609 0.000014220997079180652 0.000014220998955228522
          0.000016102356740411696 0.000016102360325450713 0.000016102369151656118 0.000014920550488252844 0.00001474494851011104 0.000014920552081896715
          0.000014744949539997198 0.000014920558810703451 0.000014744952369905755 0.000015523896531903048 0.000015496381695658216 0.00001552389842354252
          0.000015496383561890557 0.00001552390506895483 0.00001549638811751452 0.00001420930327256806 0.000014209304366059094 0.000014209303971983483
          0.000016126781036658882 0.000016116518576869298 0.00001612678334166266 0.000016116521357490162 0.000016126788835673812 0.00001611652662113799
          0.000028003567500193515 0.00002920651758280218 0.000028003570442840726 0.000029206527027780295 0.000028003579027541764 0.000029206556898295133
          0.000025917780305502856 0.000025917786837434705 0.00002591780058198352 0.000014560048879802283 0.000014560052220503408 0.000014560055925141743
          0.000024940298972848135 0.000024338219091152562 0.000024940305098156993 0.000024338226594962544 0.00002494032526949773 0.000024338247972772002
          0.000017932604899177538 0.000018533480393354457 0.00001793260876316183 0.000018533484538918896 0.00001793261800691848 0.000018533495962325303
          0.00001649284696624838 0.00001649285209304276 0.000016492862255798463 0.000015982447179923235 0.000015982450633063248 0.00001598245855904308
          0.00002026414857190625 0.000020264156500130764 0.000020264177926546097 0.000017269912267131086 0.000017331175351720232 0.000017269915575298808
          0.00001733117856948545 0.000017269924048609674 0.00001733118674173579 0.000021430898270286035 0.000021430905584188336 0.000021430925538094986
          0.00002212422003080591 0.000021889620536826303 0.00002128718896456121 0.000021527810298541934 0.00002212422531249075 0.000021889626991616215
          0.000021287193778492043 0.00002152781454567652 0.00002212424077449918 0.000021889643832141744 0.000021287209818777327 0.000021527828377053065
          0.000019063740027055057 0.000019623590616570257 0.000019063745723758372 0.000019623594877396124 0.000019063761301307304 0.00001962361043980902
          0.000023601705971275654 0.000023601713453078452 0.000023601728016523127 0.000021079682618227737 0.0000216852369260534 0.00002107968926573263
          0.000021685244054335575 0.00002107970656882424 0.000021685261513124794 0.000022104951184444686 0.000022728191925013405 0.000022104959297688734
          0.00002272819828924246 0.000022104980579747277 0.00002272821880296771 0.000020003516715162104 0.000020003524681384008 0.00002000354575005408
          0.00002026629906958961 0.000020266306858573865 0.000020266326223513743 0.000023561047444498227 0.00002356105546285952 0.00002356107799140998
          0.000016700319886145204 0.000016729219511273113 0.000016700323627394356 0.00001672922341501098 0.000016700331809435806 0.000016729230988511527
          0.000023081387309681896 0.000023081395389995563 0.000023081413449251314 0.00002483451882295463 0.000025381131889252476 0.000024125987136822723
          0.00002483453067074351 0.00002538114053994027 0.00002412599858676669 0.00002483457432345673 0.000025381163857464787 0.000024126029517000622
          0.000023154541205237898 0.000023154550490536306 0.00002315457166366338 0.00001973340069768068 0.000020332338849690617 0.000020087898403933637
          0.000019733405305396198 0.00002033234246013205 0.00002008790258555798 0.000019733414546939228 0.000020332354339521874 0.000020087913515504472
          0.0000227196608383198 0.000022719667975338498 0.00002271968523015973 0.00002117082717615369 0.000021170835594646494 0.00002117085610711226
          0.000026827848481869277 0.00002682785989559726 0.000026827895704295245 0.00001913375142740518 0.000019133757940489588 0.000019133772097024442
          0.000020715828564536013 0.00002093049134068976 0.000020715835591998277 0.000020930497895193835 0.00002071585064329115 0.00002093051330539603
          0.000024104506210334282 0.0000241045130050895 0.000024104532619630886 0.000016702488836903536 0.000017221565601202 0.00001670249272909342
          0.000017221570244527223 0.00001670249949272275 0.000017221579556496266 0.000020503344575641142 0.000020126881991516507 0.000020503351022340003
          0.000020126888893786383 0.00002050336916408193 0.000020126899910554597 0.000023531577845904683 0.000023832477432148667 0.000023531586773576195
          0.000023832487714397868 0.000023531610041862148 0.000023832518406676173 0.000025975445474598115 0.000025178398351539402 0.000025975454115749742
          0.000025178406622434917 0.000025975483707269816 0.000025178431864214646 0.000023713637714391868 0.00002390725777891522 0.000024499216269430648
          0.000023713646535839326 0.000023907264013116446 0.000024499223157528227 0.000023713666338537148 0.0000239072830114052 0.00002449924232843383
          0.000024481192714968046 0.00002448120229544685 0.000024481219670639045 0.000025089796742807048 0.000025089802879317517 0.000025089815788605762
          0.000023314037106661518 0.00002331404588633802 0.000023314064716823376 0.00002690865468298812 0.00002690866124707478 0.000026908675998865426
          0.00002626650592227731 0.000026852355273181208 0.000026612254204642086 0.00002626651355550265 0.000026852359161471844 0.00002661225875921363
          0.000026266531524470964 0.000026852371775166015 0.00002661228668758605 0.000025678861984455395 0.000025678868478203595 0.00002567888220156325
          0.000025293316530156632 0.00002529332730109475 0.0000252933624185667 0.000025855256062560613 0.000026808180317662347 0.000025855258980203177
          0.00002680818864465352 0.00002585525651188004 0.000026808213720636842 0.000027436386068019204 0.0000274363958288889 0.000027436409861503036
          0.000026452641222244637 0.000026452648091731696 0.000026452653339533394 0.000028492837465635272 0.00002849283971404276 0.000028492827497637545
          0.000028018306878315123 0.00002801831306826851 0.000028018346555993275 0.00002859822075339416 0.000028598198294532625 0.000028598072149174164
          0.000029174229516715274 0.000029174228430182402 0.000029174232925388137 0.000031045957997903714 0.000031034264862525515 0.000031045961784429685
          0.000031034271576845296 0.00003104597384895797 0.00003103428996742669 0.00003288100022234313 0.000032866246087583335 0.00003288099209472956
          0.000032866234291692316 0.00003288096649226825 0.00003286619706997876 0.000034686339521467764 0.00003466839954831878 0.000034686323528159124
          0.00003466838388827397 0.000034686275541896835 0.00003466833715600888 0.00003107941443669413 0.00003107941770098773 0.00003107942571559583
          0.000032924716539896995 0.000032924711448516485 0.00003292469536291025 0.00003473984728426232 0.00003473983405234775 0.00003473979375714483
          0.000031132029811266146 0.00003113203837540434 0.0000311320638321596 0.000032995227608423386 0.00003299522792938339 0.000032995227857562244
          0.00003482803999927333 0.00003482803142433117 0.00003482800531796477 0.00003119850945204882 0.00003119852487269704 0.000031198570623783585
          0.0000330882037834471 0.00003308821252570191 0.00003308823763253473 0.000034948678576737686 0.00003494867873107978 0.00003494867879440201
          0.00003319525444093011 0.000033195276222504034 0.000033195341432597754 0.000035096611737316447 0.000035096626660314146 0.00003509667117749467
          0.00003330058548940741 0.000033300625152314426 0.000033300742493461804 0.000035259855131010865 0.00003525989869293265 0.00003526002848141045
          0.000033375342299502265 0.000033375412949075764 0.00003337562858915182 0.00003540964575093916 0.00003540973066802583 0.000035409988111378194
          0.00003337956338169717 0.000033379631855724955 0.00003337982181896168 0.000035473228902561454 0.00003547346821470064 0.00003547416426370881
          0.00003328144108214093 0.00003328161767923771 0.0000332821473053795 0.00003541785622386828 0.000035418582366621315 0.000035420817683276506
          0.000036393781493405886 0.00003636112417023696 0.0000363937539821809 0.000036361096109588075 0.000036393670498867144 0.000036361010502124655
          0.00003646799916116413 0.00003646797295522635 0.000036467893201053696 0.00003658436433601473 0.000036584340713934836 0.00003658426887934193
          0.00003674340703050485 0.0000367433885920555 0.000036743332384286406 0.000036944764998686716 0.00003694475533479952 0.00003694472537311208
          0.000025067455392558335 0.00002405750578377992 0.00002506746638662847 0.000024057514537990892 0.00002506749668456825 0.00002405753844181641
          0.000029330172702298008 0.000027943922023313727 0.00002793371563456217 0.00002933019104921612 0.000027943934539854706 0.000027933725532409916
          0.00002933024464746268 0.000027943971495579055 0.000027933753318041242 0.000022007247627829057 0.000022007257064787267 0.000022007282849373705
          0.000023032587558288612 0.000023032597567953805 0.000023032626848214526 0.00002636649741689198 0.000026366509733544932 0.00002636654803252354
          0.000031269329647590734 0.00003126935413271919 0.00003126942752562826 0.00003132971742261399 0.00003132975306153537 0.000031329860180959316
          0.00003135913131834463 0.00003135917659808043 0.00003135931002802327 0.00003133679393207166 0.00003133683983118514 0.00003133698367485627
          0.000031247550129881835 0.00003124753874718339 0.00003124749081640454 0.000038077897290173384 0.00003803181162905195 0.00003807785827446617
          0.000038031772873022534 0.00003807774166480384 0.0000380316570371435 0.000038171279421264044 0.00003817123977431632 0.00003817112097743741
          0.00003831408030150292 0.0000383140395403132 0.00003831391740602469 0.00003850986428987082 0.00003850982187714057 0.00003850969452958315
          0.00003876386934924615 0.0000387638245090153 0.000038763690912902866 0.00003718494893680392 0.00003718496316942255 0.000037185006438190466
          0.000039083757628076796 0.00003908370227981076 0.000039083532490843586 0.0000374504797524453 0.000037450516461630185 0.0000374506269386295
          0.0000376889832867623 0.00003768918970849845 0.000037689799657418825 0.00003792233134304176 0.00003792288319777295 0.00003792457839338371
        </DataArray>
        <DataArray type="Float64" Name="disp_y" format="ascii" RangeMin="-0.000004037484924404609" RangeMax="0">
          -5.251685133349774e-7 -5.98484436934565e-7 -4.817392441474409e-7 -3.9163875807441214e-7 -5.251696902100226e-7 -5.984852441831262e-7
          -4.81740758262239e-7 -3.916401288858196e-7 -5.251715283201283e-7 -5.984869736267043e-7 -4.817449980336718e-7 -3.916459073371912e-7
          -5.930893183464477e-7 -5.305215361833968e-7 -3.8876728052095463e-7 -4.350019436271957e-7 -5.930903046028985e-7 -5.305225880490918e-7
          -3.8876876790623693e-7 -4.350028865320634e-7 -5.930919821152468e-7 -5.30528893355028e-7 -3.887692941612992e-7 -4.3500532031912807e-7
          -6.755959096366549e-7 -5.138975971264812e-7 -3.639576154642757e-7 -4.178960545000178e-7 -6.756007470005213e-7 -5.138883465450422e-7
          -3.639536856771227e-7 -4.1789212994625284e-7 -6.75628148850293e-7 -5.138394956817168e-7 -3.639335436164148e-7 -4.1788124324571054e-7
          -0.0000013997399785094614 -0.0000012914820568327617 -0.000001423744543912653 -0.0000015507859036859322 -0.0000013997435664670592 -0.0000012914847059208772
          -0.0000014237484545587267 -0.0000015507906205042896 -0.0000013997532787886125 -0.0000012914933989394866 -0.000001423759931138734 -0.000001550805930667419
          -1.674768608391835e-7 -3.4137949924881247e-7 -3.301214280210958e-7 -1.6182036687123602e-7 -1.674745371845067e-7 -3.413796521194991e-7
          -3.3012190517182584e-7 -1.6181859607659723e-7 -1.6746456245422978e-7 -3.413822180275298e-7 -3.3012713497492527e-7 -1.6180808571647508e-7
          -6.434043413440415e-7 -7.110092408901019e-7 -9.270529485598606e-7 -8.046804294697335e-7 -6.434054265144828e-7 -7.110103603568489e-7
          -9.270554224637847e-7 -8.046821734219499e-7 -6.434088167151349e-7 -7.110124575901461e-7 -9.270638372399532e-7 -8.046865346002505e-7
          -6.494817081899462e-7 -8.243970047519143e-7 -7.563192587258673e-7 -6.494818944605326e-7 -8.243977593007356e-7 -7.563204418713528e-7
          -6.494848404629391e-7 -8.244005680500144e-7 -7.563230895934108e-7 -7.759326884749834e-7 -9.620424623775873e-7 -7.759337557005356e-7
          -9.620446628716478e-7 -7.759363260242376e-7 -9.620524585739667e-7 -8.543922199157886e-7 -7.243104553018395e-7 -5.332442429193238e-7
          -5.402385197505493e-7 -8.5439304155571e-7 -7.243080357612765e-7 -5.332435347293478e-7 -5.402408513990468e-7 -8.543959644645032e-7
          -7.242968994225375e-7 -5.332375362802963e-7 -5.402498165405458e-7 -0.000001173274618745456 -0.0000012803364449964103 -0.0000011732776007355085
          -0.0000012803396503623568 -0.0000011732831464393436 -0.0000012803480408720334 -8.481476227956727e-7 -0.0000010258227922829192 -8.48148788678884e-7
          -0.0000010258249172629142 -8.481521590524966e-7 -0.0000010258324137667075 -3.1768805693629097e-7 -1.5677015244111251e-7 -1.7343632033677468e-7
          -3.1768563441391824e-7 -1.5676688645467739e-7 -1.734411311960427e-7 -3.176828503129768e-7 -1.5676008559380996e-7 -1.7347108750399538e-7
          -7.112742469378152e-7 -5.684859891260154e-7 -7.11275495140051e-7 -5.684864960799216e-7 -7.112801961417994e-7 -5.68488616170411e-7
          -0.0000016125674509796352 -0.0000015403200596979953 -0.000001338822231453337 -0.0000014054555082564658 -0.000001612568514843374 -0.000001540322699709643
          -0.0000013388252033905083 -0.0000014054575584197363 -0.000001612569036249052 -0.0000015403314949353122 -0.0000013388336585381843 -0.000001405464874312224
          -7.009497516386379e-7 -4.759565802495556e-7 -5.106537671075233e-7 -7.009494838301478e-7 -4.759582091725565e-7 -5.106557041771302e-7
          -7.009481303898228e-7 -4.759609672286727e-7 -5.10661090347209e-7 -0.0000015945329539993053 -0.0000015945367288065437 -0.000001594548731292417
          -0.0000014445243241580382 -0.0000017841289281162484 -0.0000016120034948061284 -0.0000014445263406676019 -0.00000178413264230658 -0.00000161200726554313
          -0.0000014445321605548734 -0.0000017841431749689906 -0.000001612017714966205 -7.496413021457044e-7 -9.678868806039687e-7 -8.919107067275431e-7
          -7.496409557927898e-7 -9.678876914411972e-7 -8.919108483392783e-7 -7.496392905716964e-7 -9.67890656098449e-7 -8.919096905613856e-7
          -8.495983795636739e-7 -7.483052451989017e-7 -6.30961632360646e-7 -8.496014332292351e-7 -7.483075602673037e-7 -6.309626625613359e-7
          -8.496094882824631e-7 -7.48315278976132e-7 -6.309661845975321e-7 -4.792417523116068e-7 -3.363098412030726e-7 -4.79243020243334e-7
          -3.363115239252931e-7 -4.792468633030391e-7 -3.363182255396268e-7 -0.0000019175534022219047 -0.0000017505881216168179 -0.0000019175561505936117
          -0.0000017505962157234574 -0.0000019175629985093576 -0.000001750624854408175 -5.020967942008844e-7 -5.020989935224421e-7 -5.021049381054856e-7
          -3.414305237256129e-7 -3.205542332008463e-7 -3.414326448634146e-7 -3.2055509127050774e-7 -3.4144770395732787e-7 -3.2056328350372695e-7
          -0.0000010970705723770883 -9.249330822142708e-7 -0.000001097072893129682 -9.249348289272436e-7 -0.0000010970799496423255 -9.249401638334729e-7
          -6.805876708112e-7 -6.805893499245186e-7 -6.805928325754933e-7 -1.569153629602543e-7 -1.643033476234623e-7 -3.370809340105017e-7
          -3.1573050246713873e-7 -1.569155573124634e-7 -1.6430344423041288e-7 -3.370823300540051e-7 -3.1573121213424804e-7 -1.5691498159162624e-7
          -1.6430273815000666e-7 -3.3708710852796755e-7 -3.1573462026697394e-7 -0.0000017129230382678772 -0.0000017129148269820753 -0.0000017128904028579083
          -0.0000012707759068233474 -0.0000013309855948714594 -0.0000012707687408193666 -0.0000013309767357532222 -0.000001270747926665479 -0.000001330950807824689
          -6.437276401746882e-7 -5.829090094503069e-7 -6.437283447486217e-7 -5.829097101463658e-7 -6.437313605297193e-7 -5.829107514903904e-7
          -5.250604905391582e-7 -5.250610983313244e-7 -5.250624690238896e-7 -0.0000014147523848773055 -0.0000016731723102084265 -0.0000014147539528865003
          -0.0000016731739505905603 -0.0000014147562518207283 -0.0000016731797025334196 -0.000001835326084515297 -0.0000018605167250753461 -0.0000020326021295115586
          -0.0000020695950590750704 -0.0000018353297422762447 -0.000001860520751971188 -0.000002032605787499374 -0.0000020695993018950504 -0.0000018353405423415367
          -0.0000018605373129324112 -0.00000203261530877515 -0.0000020696132967870817 -5.22511462989059e-7 -6.592362883529995e-7 -5.22511119004502e-7
          -6.592357175213372e-7 -5.225076132755025e-7 -6.592386285487447e-7 -2.828341437935965e-7 -1.5658398071539842e-7 -1.5872022800859822e-7
          -3.6852124351163345e-7 -2.828312399591102e-7 -1.5657712717748543e-7 -1.5871331923257425e-7 -3.6852420362106983e-7 -2.828216113624348e-7
          -1.56551462055746e-7 -1.586846666075261e-7 -3.68533803142793e-7 -0.0000013742059534327587 -0.0000013742091928363146 -0.0000013742191177292696
          -4.304064741355502e-7 -4.776129395693917e-7 -4.304081194485755e-7 -4.776149322532891e-7 -4.304114669526976e-7 -4.776196036072572e-7
          -0.0000020701918568050665 -0.0000023180711991494434 -0.0000020701964218835474 -0.000002318076437288257 -0.00000207021020775094 -0.000002318092399173304
          -0.000002070036565082681 -0.000002070040727177691 -0.0000020700515589271154 -0.000001199086373718597 -0.0000011288841227571582 -0.0000011990899988029883
          -0.0000011288875725833718 -0.0000011991007811041495 -0.000001128896713616256 -0.0000010584213787168236 -0.0000010834366564665916 -0.0000010584244441764923
          -0.0000010834396831803862 -0.0000010584344575197378 -0.000001083448837800192 -0.0000014491987530590232 -0.0000016356977375993927 -0.00000144920141889726
          -0.0000016357007854805953 -0.0000014492092202178004 -0.000001635709981651163 -0.0000018557454597425177 -0.000001855750197461386 -0.0000018557641589469732
          -5.568998059811616e-7 -4.722984309549892e-7 -5.569011888027197e-7 -4.7229967560195535e-7 -5.569055120597886e-7 -4.7230489456956193e-7
          -0.000001854320128379767 -0.0000016786616451924734 -0.0000018543243955339082 -0.000001678665371438645 -0.000001854337715622757 -0.0000016786763514334196
          -0.0000010784177251227922 -9.495060392986601e-7 -0.0000011755466701330616 -0.000001078420686978147 -9.495086721235719e-7 -0.0000011755499385834984
          -0.000001078429509438577 -9.495175593713523e-7 -0.0000011755577101416643 -9.80891717832755e-7 -9.808945806577645e-7 -9.809027995495087e-7
          -5.212078136957349e-7 -3.392481704867794e-7 -5.212088701960816e-7 -3.3924871979005016e-7 -5.212119225756289e-7 -3.39252015508971e-7
          -0.00000117415177391121 -9.98131943208023e-7 -0.0000011741539235584566 -9.98133639610279e-7 -0.0000011741613408222262 -9.981388225251393e-7
          -5.25075422597342e-7 -6.391612920933219e-7 -5.25075069804105e-7 -6.391605933724511e-7 -5.250763237295155e-7 -6.391542994539112e-7
          -4.709656379322361e-7 -3.912106946489281e-7 -4.709667550063017e-7 -3.9121173128785843e-7 -4.709699531233854e-7 -3.9121657520339865e-7
          -9.950218763545796e-7 -8.603435787390603e-7 -0.0000011272741415193802 -9.950249296649043e-7 -8.603465939025299e-7 -0.0000011272773105575855
          -9.95034256480182e-7 -8.603561689376425e-7 -0.0000011272848933111045 -7.767796180986691e-7 -7.767818583206865e-7 -7.767899446955158e-7
          -3.2047165470385254e-7 -3.204727998852938e-7 -3.2047519751275543e-7 -0.0000012973294596457636 -0.0000012973332742512353 -0.0000012973448218357942
          -7.230062717897794e-7 -7.230082462260986e-7 -7.23013733506664e-7 -0.0000012720771752126715 -0.0000012720804468509215 -0.0000012720901991931519
          -3.0303478905404265e-7 -3.030358824841959e-7 -3.030393670233922e-7 -6.055129874041319e-7 -6.055147358380177e-7 -6.055190397362102e-7
          -0.000001209245353013355 -0.0000012092484525723258 -0.000001209258096143722 0 -2.171827105849826e-7 0
          -2.1718286641310896e-7 0 -2.1718321650993846e-7 0 -1.7099511100639426e-7 0
          -1.7099570052286455e-7 0 -1.7099649913652288e-7 -3.6996450422358074e-7 -3.699661291910001e-7 -3.699730673949826e-7
          0 -1.531866714106647e-7 0 -1.5318685572988057e-7 0 -1.5318658568090608e-7
          -9.657696607880604e-7 -8.405407290400176e-7 -9.657683516723527e-7 -8.405342590681331e-7 -9.657603178987459e-7 -8.405136100037426e-7
          -8.251457979380903e-7 -8.25143966939857e-7 -8.25136213678335e-7 -6.583057678496815e-7 -6.583075455323274e-7 -6.58309213135269e-7
          -1.5838750634700532e-7 -1.649139907937774e-7 -1.5838213665125921e-7 -1.649115531101566e-7 -1.5835405832681166e-7 -1.6489982486031802e-7
          0 0 0 0 0 0
          -0.000001255713814965787 -0.0000012557164687164043 -0.000001255726100600607 -0.0000013553151322445117 -0.0000013553186633703423 -0.000001355328530631894
          -0.0000017157502462919554 -0.0000017157550494329163 -0.0000017157744082673048 -1.480901831516588e-7 0 -1.4809033708269903e-7
          0 -1.480901474169951e-7 0 -0.000001073968760417854 -0.0000010739710636699842 -0.0000010739791657936152
          0 -1.5216544304786938e-7 -1.401606296600645e-7 0 0 -1.5216343157088034e-7
          -1.4015917345136988e-7 0 0 -1.5215425737712602e-7 -1.4015020857079182e-7 0
          -1.633709051771846e-7 -1.4959268883951539e-7 -1.6337040706505243e-7 -1.4959206997278583e-7 -1.633684574259927e-7 -1.4958848477221337e-7
          -3.4412991227100057e-7 -3.4412934410997114e-7 -3.441301616053672e-7 -2.8524058598583834e-7 -3.102141176878268e-7 -2.85241129476847e-7
          -3.102147292687806e-7 -2.852453910207834e-7 -3.1021959113203013e-7 -0.0000011513525530277954 -0.0000012237201561570199 -0.000001151355542982611
          -0.0000012237236984981647 -0.0000011513652191698778 -0.0000012237343482985038 -0.0000015190848527059428 -0.0000015190873690931228 -0.000001519094673974524
          -0.000001350863832316269 -0.0000013508661091610286 -0.000001350873517073805 -8.973528032848125e-7 -8.973545012755808e-7 -8.973618900771835e-7
          -1.4638025233847212e-7 0 -1.4638058401437568e-7 0 -1.4638029806507065e-7 0
          -0.0000010609393688129248 -0.0000010609426411970962 -0.000001060951630002624 -0.0000013927165724764927 -0.0000015497696106707383 -0.000001536142152693392
          -0.0000013927115081106749 -0.000001549770348969603 -0.0000015361421282673807 -0.0000013926906597243052 -0.0000015497741079102622 -0.0000015361411804698774
          -0.0000012725426158776231 -0.0000012725450487308243 -0.0000012725594464377068 0 0 -1.2894520972921745e-7
          0 0 -1.289452959384554e-7 0 0 -1.2893802031614796e-7
          0 0 0 -0.0000012577436791667492 -0.0000012577458703188463 -0.000001257752641318245
          -7.773123813991762e-7 -7.773127571499155e-7 -7.773137504885674e-7 0 0 0
          -1.3043588066922917e-7 0 -1.304345780010256e-7 0 -1.3042817561148905e-7 0
          -0.0000010414070317809994 -0.0000010414100118341277 -0.0000010414203002884497 -2.8822084406324717e-7 -2.935696400702128e-7 -2.8822200793036045e-7
          -2.935707096360146e-7 -2.882256286945513e-7 -2.9357490759070083e-7 -2.572841412554028e-7 -2.3134934482040212e-7 -2.572846303035376e-7
          -2.3134797690718998e-7 -2.572893074016449e-7 -2.3135590336665252e-7 -0.0000011810567833837286 -0.0000013408050519658102 -0.0000011810593515139405
          -0.0000013408043894670284 -0.0000011810641703356729 -0.000001340802997358918 -0.0000010748265166138587 -0.000001120262946514858 -0.0000010748258538247032
          -0.0000011202623775868482 -0.0000010748263043985815 -0.0000011202627236737184 -1.679050397981706e-7 0 0
          -1.6790296667553628e-7 0 0 -1.6789449869155286e-7 0 0
          -0.0000012197942086803095 -0.000001219793281885465 -0.0000012197915166076897 0 0 0
          0 0 0 -0.000001041318074839623 -0.000001041318393154702 -0.000001041320983672685
          0 0 -1.4772119022056542e-7 0 0 -1.4771704952525073e-7
          0 0 -1.476842767297656e-7 0 0 0
          -0.000001280293929876297 -0.0000012802905714704455 -0.0000012802735445319073 -0.0000013193327666062895 -0.000001352058689936027 -0.000001319328027946372
          -0.0000013520558562294253 -0.0000013193101386070422 -0.0000013520469675994727 0 0 0
          -2.6693185405333097e-7 -2.669293166619635e-7 -2.6694116590334176e-7 -1.7093167344284472e-7 -1.709331824124681e-7 -1.709311915314964e-7
          0 0 0 0 0 0
          0 0 0 -3.9494042496998276e-7 0 -3.9493647968295594e-7
          0 -3.949246729932413e-7 0 -3.718603268652638e-7 0 -3.7185362173317413e-7
          0 -3.718336569841066e-7 0 -3.5241753431102793e-7 0 -3.5240884313924984e-7
          0 -3.5238298933220344e-7 0 -7.935222741468823e-7 -7.935128158157968e-7 -7.934844689299087e-7
          -7.466274145172201e-7 -7.466140654587371e-7 -7.465740160283831e-7 -7.062886574650744e-7 -7.062709246473402e-7 -7.06217512588004e-7
          -0.0000012001993241691142 -0.0000012001870163255695 -0.0000012001500196572658 -0.0000011277497013270146 -0.000001127729599808897 -0.0000011276692783704985
          -0.000001063635702748671 -0.0000010636079757958767 -0.000001063525968887047 -0.0000016194733634647483 -0.0000016194577184767896 -0.0000016194106439854731
          -0.0000015199085206407472 -0.000001519882189954167 -0.000001519803363390686 -0.0000014277150482110714 -0.0000014276751785965446 -0.0000014275530121144417
          -0.0000019295922819021426 -0.0000019295614576789155 -0.0000019294685550977166 -0.000001804028726779118 -0.0000018039807115952833 -0.0000018038429065881848
          -0.0000023656442735847516 -0.000002365611494489564 -0.0000023655147780068784 -0.000002202244553593393 -0.0000022021646278977914 -0.0000022019138908266646
          -0.0000028374333324823204 -0.0000028374115696886387 -0.0000028373414871636592 -0.0000026376042048964666 -0.000002637576229497158 -0.0000026375062083945596
          -0.0000033458587976961564 -0.000003345892341066202 -0.0000033460015757530806 -0.0000031262139195978384 -0.0000031260416480253984 -0.000003125542621312121
          -0.000003872964508256424 -0.00000387305809729783 -0.000003873346605799112 -0.0000036931030620503126 -0.0000036927063458199697 -0.000003691473787243913
          -3.422028700995013e-7 0 -3.4219278582666875e-7 0 -3.4216249693253223e-7 0
          -6.84237841278677e-7 -6.842168832411321e-7 -6.841540950777997e-7 -0.0000010264031377430483 -0.0000010263687999121535 -0.0000010262658219453212
          -0.0000013699107918018076 -0.0000013698619642689439 -0.0000013697149645984015 -0.0000017178124458232138 -0.0000017177353155200702 -0.000001717506799987832
          -0.0000019863985522226324 -0.0000021488945697972757 -0.0000019864036571905085 -0.000002148896362509695 -0.0000019864191384042006 -0.000002148900871599951
          -0.000002170829584525982 -0.00000214607216403469 -0.0000017343600205483773 -0.0000021708221551786295 -0.000002146069264652718 -0.0000017343531054511339
          -0.000002170799454867585 -0.000002146061826846571 -0.0000017343308663643866 -0.00000231993787924164 -0.0000023199414416134673 -0.0000023199508026023504
          -0.000002320669171532853 -0.000002320674359179341 -0.000002320689797006895 -0.0000017573757465720462 -0.0000017573753537222768 -0.000001757374617745219
          -0.0000020569682608094255 -0.000002056952462969532 -0.0000020569050181803743 -0.000002518230944739285 -0.00000251821853239352 -0.0000025181813329480322
          -0.0000030058098208742694 -0.0000030058063322163434 -0.000003005796109594796 -0.000003515784714755911 -0.0000035158012264721517 -0.0000035158484152397097
          -0.0000040373765659549594 -0.000004037404432357852 -0.000004037484924404609 -3.448736234168213e-7 0 -3.448630523514858e-7
          0 -3.448313454450871e-7 0 -6.88551202388124e-7 -6.885294115092527e-7 -6.88463967901704e-7
          -0.0000010300221008980017 -0.0000010299857667420747 -0.0000010298767768095716 -0.0000013689905732732312 -0.0000013689377622839944 -0.0000013687781986901388
          -0.0000017068108352518529 -0.0000017067262600997232 -0.0000017064763600332108 -0.0000020764853167374655 -0.0000020763846717394163 -0.000002076072502666369
          -0.0000020481944097373025 -0.0000020480755254052248 -0.000002047705843998766 -0.0000024617506516708244 -0.0000024616155615796622 -0.0000024612324886817577
          -0.000002920658308368267 -0.000002920055905045525 -0.0000029182332432100767 -0.0000035514081378721222 -0.000003550279332088339 -0.000003546863112498818
        </DataArray>
        <DataArray type="Float64" Name="disp_z" format="ascii" RangeMin="-1.6780901878748802e-7" RangeMax="0">
          0 0 0 0 -5.282199799052653e-8 -5.28126526341149e-8
          -5.281208805735207e-8 -5.282129194943712e-8 -1.0564552429495188e-7 -1.0562494651182238e-7 -1.0562467684590666e-7 -1.0564153694121786e-7
          0 0 0 0 -5.3047225793237574e-8 -5.301198327567876e-8
          -5.303026291356022e-8 -5.3066940830358245e-8 -1.0609462207944538e-7 -1.0602291923343636e-7 -1.0606192466083195e-7 -1.0613422091286302e-7
          0 0 0 0 -5.3632484736539923e-8 -5.376919656074211e-8
          -5.348561946254371e-8 -5.351279056727267e-8 -1.0726089781140265e-7 -1.0756466454895842e-7 -1.0695589628326144e-7 -1.0702111059254513e-7
          0 0 0 0 -5.277684865899556e-8 -5.2812253388127584e-8
          -5.281870940048051e-8 -5.2770604732118035e-8 -1.0555231048068491e-7 -1.056242057630917e-7 -1.0563807627718378e-7 -1.0554095150791756e-7
          0 0 0 0 -5.3235328462489524e-8 -5.3219165159068894e-8
          -5.3172168042803925e-8 -5.3189866147536356e-8 -1.064735034685176e-7 -1.0643571700774636e-7 -1.0634263180761673e-7 -1.063822976282378e-7
          0 0 0 0 -5.2878549671024284e-8 -5.2901035090786354e-8
          -5.287628427366172e-8 -5.286366370141377e-8 -1.0575754887643869e-7 -1.0580120018414011e-7 -1.057530227886059e-7 -1.0572763046373159e-7
          0 0 0 -5.308885465252404e-8 -5.306640989463903e-8 -5.3026599432340754e-8
          -1.0617769654039749e-7 -1.0613282204021734e-7 -1.060538594038404e-7 0 0 -5.294073998251305e-8
          -5.291606088684051e-8 -1.0588199109842403e-7 -1.0583200612327826e-7 0 0 0
          0 -5.337396346225044e-8 -5.3312655001553334e-8 -5.326810634895218e-8 -5.338083373168417e-8 -1.0674844560956088e-7
          -1.0662667276788204e-7 -1.0653335491807373e-7 -1.0676070261319546e-7 0 0 -5.28403209098824e-8
          -5.285232229865462e-8 -1.0568146299840892e-7 -1.0570447986072625e-7 0 0 -5.29686594053574e-8
          -5.294205155378714e-8 -1.0593771961464469e-7 -1.0588319968993808e-7 0 0 0
          -5.347825103368273e-8 -5.351844587881609e-8 -5.354338915814745e-8 -1.0694808819784884e-7 -1.0705720045352684e-7 -1.0707115600649076e-7
          0 0 -5.2849223521996733e-8 -5.286383682991352e-8 -1.0569791019069457e-7 -1.057274541042021e-7
          0 0 0 0 -5.31004273246975e-8 -5.303984321664226e-8
          -5.3089640889683616e-8 -5.312084435523569e-8 -1.0620152985719672e-7 -1.0607867703084898e-7 -1.0618002477090076e-7 -1.0624257398644936e-7
          0 0 0 -5.3126351640852884e-8 -5.310830996408043e-8 -5.314664552136759e-8
          -1.0625238591493088e-7 -1.0621770316192438e-7 -1.0629481984507939e-7 0 -5.281839193095573e-8 -1.0563691512386405e-7
          0 0 0 -5.3008134924219655e-8 -5.298549544494694e-8 -5.297544786984294e-8
          -1.0601617574886363e-7 -1.0597112366318549e-7 -1.0595184778563421e-7 0 0 0
          -5.3204534156751516e-8 -5.3181872878968007e-8 -5.311896395636693e-8 -1.0640817715638112e-7 -1.063648720061685e-7 -1.0623804380401136e-7
          0 0 0 -5.282607068208229e-8 -5.282352963099608e-8 -5.284243379085578e-8
          -1.0565197854093358e-7 -1.0564719283905796e-7 -1.0568538163156925e-7 0 0 -5.2830371361271344e-8
          -5.283914762338444e-8 -1.0566053036905906e-7 -1.056778511110298e-7 0 0 -5.318698520769473e-8
          -5.332789315036571e-8 -1.0637480343061347e-7 -1.0665397269502045e-7 0 -5.2809514924267216e-8 -1.0561937742022009e-7
          0 0 -5.330865296402126e-8 -5.342087030014401e-8 -1.0661652877505913e-7 -1.0684305039082878e-7
          0 0 -5.2971816512069686e-8 -5.299982279023477e-8 -1.0594357469185164e-7 -1.0599957168743054e-7
          0 -5.2983900831737386e-8 -1.0596699446315039e-7 0 0 0
          0 -5.291623077633668e-8 -5.294289026496307e-8 -5.2931959966295825e-8 -5.290841985983864e-8 -1.0583287638645067e-7
          -1.0588660478204423e-7 -1.0586382862862739e-7 -1.0581664521053329e-7 0 -5.39119880820245e-8 -1.0782355087562005e-7
          0 0 -5.3756325562822466e-8 -5.368462817766864e-8 -1.0751110682092963e-7 -1.0737143898911837e-7
          0 0 -5.282229386716228e-8 -5.283051770782329e-8 -1.0564465884606746e-7 -1.0566015073629298e-7
          0 -5.32108341175398e-8 -1.0642146609450378e-7 0 0 -5.3165605606906615e-8
          -5.317269569131106e-8 -1.0632917301580605e-7 -1.0634560201071194e-7 0 0 0
          0 -5.3066412685289577e-8 -5.310583121844249e-8 -5.307813996010838e-8 -5.3011377815475764e-8 -1.0613238195119982e-7
          -1.0621262914707e-7 -1.061549291210109e-7 -1.0602307441819045e-7 0 0 -5.327139044142415e-8
          -5.327065499864479e-8 -1.0654558091289422e-7 -1.0654231762987302e-7 0 0 0
          0 -5.3452342239233614e-8 -5.341137758497213e-8 -5.341385272254606e-8 -5.3457747086572534e-8 -1.0689971480326863e-7
          -1.0683050535633618e-7 -1.0681904441615585e-7 -1.0691750271529918e-7 0 -5.286610565860944e-8 -1.0573133169822464e-7
          0 0 -5.2874181916223246e-8 -5.289565112504366e-8 -1.057482643262234e-7 -1.0579207467160454e-7
          0 0 -5.294841492857586e-8 -5.289808361345607e-8 -1.0589675811144323e-7 -1.057957416322953e-7
          0 -5.288448476595994e-8 -1.0576983262605272e-7 0 0 -5.291040209627716e-8
          -5.288477304375272e-8 -1.0582097321661277e-7 -1.0577070241504113e-7 0 0 -5.283558894034693e-8
          -5.285747865082338e-8 -1.0567126822377924e-7 -1.0571270447376298e-7 0 0 -5.289899283454545e-8
          -5.286892549772267e-8 -1.057986435896184e-7 -1.0573843935924602e-7 0 -5.290153371993248e-8 -1.0580161613608644e-7
          0 0 -5.296170002785598e-8 -5.3004942145297966e-8 -1.0592307081011698e-7 -1.060136232970366e-7
          0 0 -5.286894423804626e-8 -5.2902282695691595e-8 -1.0573860331934853e-7 -1.0580424648828079e-7
          0 0 0 -5.280528181455124e-8 -5.283633744860573e-8 -5.281010778556417e-8
          -1.0561050358863114e-7 -1.0567254587066309e-7 -1.0561979024978318e-7 0 -5.2797492998379673e-8 -1.0559546406675644e-7
          0 0 -5.291643864467679e-8 -5.2969398645592495e-8 -1.0583300581412455e-7 -1.0593771148316713e-7
          0 0 -5.3005597473805977e-8 -5.30381142755016e-8 -1.060114575210172e-7 -1.0607606269629338e-7
          0 0 -5.3472288262335676e-8 -5.341475099649173e-8 -1.0694003213107757e-7 -1.0683119174632007e-7
          0 0 -5.285203704205581e-8 -5.286492151898801e-8 -1.057041915689391e-7 -1.0572939017989401e-7
          0 0 0 -5.278088723026358e-8 -5.280069840254341e-8 -5.277637612783664e-8
          -1.0556168869576607e-7 -1.0560087034380536e-7 -1.0555266988211173e-7 0 -5.280652943291145e-8 -1.0561449463263184e-7
          0 -5.3008665215071126e-8 -1.0601626233875484e-7 0 -5.275684918762929e-8 -1.0551389091625679e-7
          0 -5.281454036112747e-8 -1.056287483689108e-7 0 -5.293801991616197e-8 -1.0587652684750896e-7
          0 -5.285753886245405e-8 -1.0571543779782444e-7 0 -5.280531069681564e-8 -1.0561023705834342e-7
          0 -5.278117858491047e-8 -1.0556246322862877e-7 0 0 -5.282558027122785e-8
          -5.28330394870976e-8 -1.0565045301740085e-7 -1.0566661164757438e-7 0 0 -5.2843480564911e-8
          -5.2847985349427286e-8 -1.0568606517569692e-7 -1.0569701617239811e-7 0 -5.282307968052052e-8 -1.0564611453075756e-7
          0 0 -5.285656054792053e-8 -5.2858541561803304e-8 -1.0571279713675492e-7 -1.057165245064023e-7
          0 0 -5.357035649899599e-8 -5.363535398209742e-8 -1.0714371114311223e-7 -1.0727202653944863e-7
          0 -5.345588629217809e-8 -1.0691523041908288e-7 0 -5.280778181123471e-8 -1.0561472705302517e-7
          0 0 -5.338136959208881e-8 -5.3331544827412327e-8 -1.0675960626422098e-7 -1.0666486742414269e-7
          0 0 -5.291375724520038e-8 -5.293882550440822e-8 -1.0582734249953823e-7 -1.0587673010208915e-7
          0 -5.279244957576283e-8 -1.0558663971020576e-7 0 -5.2757828140711376e-8 -1.0551494590431388e-7
          0 -5.293051295778498e-8 -1.0586179430710096e-7 0 0 -5.289372102922992e-8
          -5.289121820483569e-8 -1.0578788591092257e-7 -1.0578155086758853e-7 0 -5.3081780004544174e-8 -1.0616307431767496e-7
          0 0 0 0 -5.3126160163084336e-8 -5.314842184762334e-8
          -5.3106687861274036e-8 -5.308873437861109e-8 -1.0624954720890323e-7 -1.0630031577817378e-7 -1.0621587408649659e-7 -1.0617394543972706e-7
          0 0 -5.297453974544264e-8 -5.30169552600324e-8 -1.0594914430796483e-7 -1.0603674243446852e-7
          0 -5.326120040733988e-8 -1.0652147905361681e-7 0 0 -5.308814221500458e-8
          -5.3126331301873084e-8 -1.061742322889221e-7 -1.0625020906021693e-7 0 0 -5.31243907447158e-8
          -5.316701943446726e-8 -1.0624725659198349e-7 -1.063345275041648e-7 0 -5.293524459391424e-8 -1.0586940881952963e-7
          0 -5.2971958978986154e-8 -1.0594365770593715e-7 0 -5.326808731209284e-8 -1.065342654442117e-7
          0 0 -5.287484215844048e-8 -5.287296410994843e-8 -1.0574984504365184e-7 -1.0574603919633523e-7
          0 -5.321180647665023e-8 -1.0642348607299166e-7 0 0 0
          -5.3365485433066275e-8 -5.351795635771061e-8 -5.3300621656210205e-8 -1.0672556725260462e-7 -1.0703912881648122e-7 -1.0660134032719208e-7
          0 -5.31907844245543e-8 -1.0638313486450229e-7 0 0 0
          -5.299815855854147e-8 -5.30157914436981e-8 -5.3039431005368605e-8 -1.059934169785018e-7 -1.0602306777328712e-7 -1.0608669022171367e-7
          0 -5.316495702835915e-8 -1.0632730677768568e-7 0 -5.3042542949628185e-8 -1.0608533918041622e-7
          0 -5.3513201053815416e-8 -1.070207130912634e-7 0 -5.2970824573643013e-8 -1.0594093901089888e-7
          0 0 -5.307219647376729e-8 -5.3053958993961585e-8 -1.0614974778302447e-7 -1.06103929329253e-7
          0 -5.329166600767188e-8 -1.0658230788556266e-7 0 0 -5.287238212523338e-8
          -5.288658423107052e-8 -1.0574506267249533e-7 -1.0577275603108384e-7 0 0 -5.3045946424917426e-8
          -5.302237318120816e-8 -1.0609009800282136e-7 -1.0603523101499798e-7 0 0 -5.32342756598815e-8
          -5.3260887505931644e-8 -1.0646942961004411e-7 -1.0652317173018997e-7 0 0 -5.3455866641556885e-8
          -5.336358154526017e-8 -1.0691167626884682e-7 -1.0672572314629707e-7 0 0 0
          -5.3279218990954876e-8 -5.3252175005039124e-8 -5.329750940961777e-8 -1.0656192265957393e-7 -1.0650103580079748e-7 -1.065928730184579e-7
          0 -5.330764006587674e-8 -1.0661826697479055e-7 0 -5.3335590287050066e-8 -1.0667229700995232e-7
          0 -5.320918136383196e-8 -1.0641625383195764e-7 0 -5.354145476401691e-8 -1.0708450241886024e-7
          0 0 0 -5.339883697082474e-8 -5.3442797994763086e-8 -5.3520917272564684e-8
          -1.068023034482878e-7 -1.0688042371216223e-7 -1.0704289363181625e-7 0 -5.3361612169100765e-8 -1.0672261140767544e-7
          0 -5.3424071430576336e-8 -1.0684898546471816e-7 0 0 -5.3475751250359565e-8
          -5.350218157712469e-8 -1.0695159664429025e-7 -1.070014557089516e-7 0 -5.34719840258066e-8 -1.0694348100994491e-7
          0 -5.3522755005144084e-8 -1.0705061813153903e-7 0 -5.390789610920061e-8 -1.0788489509668602e-7
          0 -5.353584653068684e-8 -1.0704437308817207e-7 0 -5.35422030481362e-8 -1.070493437077981e-7
          0 -5.337762439306149e-8 -1.0675014714818835e-7 0 0 -5.366339123783255e-8
          -5.3683758855876436e-8 -1.0732858824293004e-7 -1.0737086550523729e-7 0 0 -5.356491807490875e-8
          -5.348929566374426e-8 -1.0712868486733246e-7 -1.0697644178996211e-7 0 0 -5.332303833586927e-8
          -5.32428609238081e-8 -1.0664670505170035e-7 -1.0648687145421661e-7 0 -5.381296886518693e-8 -1.0762588891751225e-7
          0 -5.3753253347974e-8 -1.0750621786312401e-7 0 -5.357622915265945e-8 -1.0715250786801462e-7
          0 -5.401223907217533e-8 -1.0802498993400657e-7 0 -5.4078780948411125e-8 -1.0815705627512222e-7
          0 -5.401083227745645e-8 -1.0802270945885972e-7 0 -5.4289508705996244e-8 -1.0857982874220657e-7
          0 -5.452435408194082e-8 -1.090481556076766e-7 0 -5.46526751949971e-8 -1.0930353969369168e-7
          0 -5.508185292659707e-8 -1.1016314416831283e-7 0 -5.552923449641605e-8 -1.1106409800097517e-7
          0 -5.5694971345443155e-8 -1.1139071276164732e-7 0 -5.6618003113204414e-8 -1.1322464662651674e-7
          0 -5.6258071702391324e-8 -1.125129029034106e-7 0 -5.815282404015947e-8 -1.1632153944246343e-7
          0 -5.6283881703525933e-8 -1.1257956312981717e-7 0 -5.8714587460847125e-8 -1.174325080902808e-7
          0 -5.477832984565297e-8 -1.0957876898023075e-7 0 -6.512701635855287e-8 -1.3032684105058068e-7
          0 0 -5.28431350592315e-8 -5.275030100374588e-8 -1.0568592746157847e-7 -1.0550003506486375e-7
          0 -5.313837654830746e-8 -1.0627663803775715e-7 0 -5.366180456797462e-8 -1.07323228431578e-7
          0 -5.4468967745946754e-8 -1.0893772216230392e-7 0 -5.5631014977377866e-8 -1.1126379934545461e-7
          0 0 -5.329923472957288e-8 -5.322546267080089e-8 -1.0659725246393007e-7 -1.0645309596064609e-7
          0 0 0 -5.4063025315900875e-8 -5.388080669917966e-8 -5.3797515515454486e-8
          -1.0812530629950048e-7 -1.0776302846728218e-7 -1.0759544231381785e-7 0 -5.297482265556016e-8 -1.0595005731659105e-7
          0 -5.307231820701327e-8 -1.0614418066762198e-7 0 -5.354107619017883e-8 -1.0708172296185167e-7
          0 -5.459491972473182e-8 -1.0919040014882371e-7 0 -5.4875443739878434e-8 -1.0975166640343518e-7
          0 -5.50352053539685e-8 -1.1007102024854944e-7 0 -5.4912489089116326e-8 -1.0981889637418483e-7
          0 -5.446341444983152e-8 -1.089344477950839e-7 0 0 -5.2143670011683305e-8
          -5.205069041402132e-8 -1.0428748642943092e-7 -1.0410167728424866e-7 0 -5.244766172889699e-8 -1.048955033853547e-7
          0 -5.299818170125973e-8 -1.0599642556336865e-7 0 -5.386604584377792e-8 -1.0773168094599003e-7
          0 -5.514444889370305e-8 -1.1029222305826673e-7 0 -5.7425099088199815e-8 -1.1483951013585562e-7
          0 -5.717660041944836e-8 -1.1433920230922932e-7 0 -5.964041556547675e-8 -1.193130803895106e-7
          0 -6.520655703145547e-8 -1.303960471479966e-7 0 -8.390678235318475e-8 -1.6780901878748802e-7
        </DataArray>
      </PointData>
      <CellData>
        <DataArray type="Int32" Name="libmesh_elem_id" format="ascii" RangeMin="1386" RangeMax="3465">
          1386 1387 1390 1391 1394 1395
          1400 1401 1406 1407 1410 1411
          1420 1421 1424 1425 1426 1427
          1432 1433 1436 1437 1444 1445
          1446 1447 1450 1451 1462 1463
          1466 1467 1474 1475 1498 1499
          1504 1505 1508 1509 1514 1515
          1524 1525 1526 1527 1530 1531
          1540 1541 1550 1551 1552 1553
          1554 1555 1578 1579 1588 1589
          1592 1593 1594 1595 1596 1597
          1598 1599 1600 1601 1606 1607
          1662 1663 1698 1699 1702 1703
          1712 1713 1726 1727 1730 1731
          1734 1735 1748 1749 1752 1753
          1774 1775 1778 1779 1834 1835
          1854 1855 1872 1873 1892 1893
          1894 1895 1896 1897 1902 1903
          1914 1915 1920 1921 1922 1923
          1932 1933 1942 1943 1944 1945
          1988 1989 2000 2001 2010 2011
          2024 2025 2070 2071 2100 2101
          2112 2113 2132 2133 2140 2141
          2150 2151 2166 2167 2206 2207
          2218 2219 2238 2239 2242 2243
          2244 2245 2256 2257 2258 2259
          2268 2269 2278 2279 2284 2285
          2306 2307 2334 2335 2340 2341
          2360 2361 2372 2373 2392 2393
          2396 2397 2398 2399 2418 2419
          2422 2423 2426 2427 2432 2433
          2434 2435 2436 2437 2476 2477
          2480 2481 2482 2483 2518 2519
          2534 2535 2540 2541 2542 2543
          2546 2547 2556 2557 2562 2563
          2568 2569 2574 2575 2584 2585
          2588 2589 2598 2599 2612 2613
          2638 2639 2656 2657 2664 2665
          2678 2679 2682 2683 2702 2703
          2704 2705 2708 2709 2720 2721
          2724 2725 2734 2735 2738 2739
          2742 2743 2746 2747 2774 2775
          2788 2789 2790 2791 2804 2805
          2806 2807 2834 2835 2840 2841
          2844 2845 2850 2851 2854 2855
          2858 2859 2872 2873 2888 2889
          2892 2893 2896 2897 2908 2909
          2912 2913 2916 2917 2918 2919
          2924 2925 2932 2933 2944 2945
          2972 2973 2984 2985 2996 2997
          3000 3001 3002 3003 3022 3023
          3024 3025 3030 3031 3032 3033
          3044 3045 3048 3049 3080 3081
          3092 3093 3108 3109 3120 3121
          3130 3131 3136 3137 3140 3141
          3142 3143 3146 3147 3150 3151
          3160 3161 3162 3163 3164 3165
          3170 3171 3172 3173 3174 3175
          3178 3179 3186 3187 3188 3189
          3198 3199 3216 3217 3218 3219
          3228 3229 3232 3233 3238 3239
          3242 3243 3246 3247 3250 3251
          3256 3257 3260 3261 3262 3263
          3266 3267 3268 3269 3270 3271
          3272 3273 3274 3275 3276 3277
          3278 3279 3280 3281 3282 3283
          3284 3285 3286 3287 3288 3289
          3290 3291 3292 3293 3294 3295
          3298 3299 3300 3301 3304 3305
          3306 3307 3310 3311 3312 3313
          3316 3317 3318 3319 3320 3321
          3322 3323 3338 3339 3340 3341
          3356 3357 3358 3359 3374 3375
          3376 3377 3392 3393 3394 3395
          3410 3411 3412 3413 3428 3429
          3446 3447 3464 3465
        </DataArray>
        <DataArray type="Int32" Name="subdomain_id" format="ascii" RangeMin="107" RangeMax="109">
          107 107 107 107 107 107
          107 107 107 107 107 107
          107 107 107 107 107 107
          107 107 107 107 107 107
          107 107 107 107 107 107
          107 107 107 107 107 107
          107 107 107 107 107 107
          107 107 107 107 107 107
          107 107 107 107 107 107
          107 107 107 107 107 107
          107 107 107 107 107 107
          107 107 107 107 107 107
          107 107 107 107 107 107
          107 107 107 107 107 107
          107 107 107 107 107 107
          107 107 107 107 107 107
          107 107 107 107 107 107
          107 107 107 107 107 107
          107 107 107 107 107 107
          107 107 107 107 107 107
          107 107 107 107 107 107
          107 107 107 107 107 107
          107 107 107 107 107 107
          107 107 107 107 107 107
          107 107 107 107 107 107
          107 107 107 107 107 107
          107 107 107 107 107 107
          107 107 107 107 107 107
          107 107 107 107 107 107
          107 107 107 107 107 107
          107 107 107 107 107 107
          107 107 107 107 107 107
          107 107 107 107 107 107
          107 107 107 107 107 107
          107 107 107 107 107 107
          107 107 107 107 107 107
          107 107 107 107 107 107
          107 107 107 107 107 107
          107 107 107 107 107 107
          107 107 107 107 107 107
          107 107 107 107 107 107
          107 107 107 107 107 107
          107 107 107 107 107 107
          107 107 107 107 107 107
          107 107 107 107 107 107
          107 107 107 107 107 107
          107 107 107 107 107 107
          107 107 107 107 107 107
          107 107 107 107 107 107
          107 107 107 107 107 107
          107 107 107 107 107 107
          107 107 107 107 107 107
          107 107 107 107 107 107
          107 107 107 107 107 107
          107 107 107 107 107 107
          107 107 107 107 107 107
          107 107 107 107 107 107
          107 107 107 107 107 107
          107 107 107 107 107 107
          107 107 107 107 107 107
          107 107 107 107 107 107
          107 107 107 107 107 107
          107 107 107 107 107 107
          108 108 108 108 108 108
          108 108 108 108 108 108
          108 108 108 108 108 108
          108 108 108 108 108 108
          108 108 108 108 108 108
          108 108 108 108 108 108
          108 108 108 108 108 108
          108 108 108 108 109 109
          109 109 109 109 109 109
          109 109 109 109 109 109
          109 109 109 109 109 109
          109 109 109 109 109 109
          109 109 109 109
        </DataArray>
        <DataArray type="Int32" Name="processor_id" format="ascii" RangeMin="1" RangeMax="1">
          1 1 1 1 1 1
          1 1 1 1 1 1
          1 1 1 1 1 1
          1 1 1 1 1 1
          1 1 1 1 1 1
          1 1 1 1 1 1
          1 1 1 1 1 1
          1 1 1 1 1 1
          1 1 1 1 1 1
          1 1 1 1 1 1
          1 1 1 1 1 1
          1 1 1 1 1 1
          1 1 1 1 1 1
          1 1 1 1 1 1
          1 1 1 1 1 1
          1 1 1 1 1 1
          1 1 1 1 1 1
          1 1 1 1 1 1
          1 1 1 1 1 1
          1 1 1 1 1 1
          1 1 1 1 1 1
          1 1 1 1 1 1
          1 1 1 1 1 1
          1 1 1 1 1 1
          1 1 1 1 1 1
          1 1 1 1 1 1
          1 1 1 1 1 1
          1 1 1 1 1 1
          1 1 1 1 1 1
          1 1 1 1 1 1
          1 1 1 1 1 1
          1 1 1 1 1 1
          1 1 1 1 1 1
          1 1 1 1 1 1
          1 1 1 1 1 1
          1 1 1 1 1 1
          1 1 1 1 1 1
          1 1 1 1 1 1
          1 1 1 1 1 1
          1 1 1 1 1 1
          1 1 1 1 1 1
          1 1 1 1 1 1
          1 1 1 1 1 1
          1 1 1 1 1 1
          1 1 1 1 1 1
          1 1 1 1 1 1
          1 1 1 1 1 1
          1 1 1 1 1 1
          1 1 1 1 1 1
          1 1 1 1 1 1
          1 1 1 1 1 1
          1 1 1 1 1 1
          1 1 1 1 1 1
          1 1 1 1 1 1
          1 1 1 1 1 1
          1 1 1 1 1 1
          1 1 1 1 1 1
          1 1 1 1 1 1
          1 1 1 1 1 1
          1 1 1 1 1 1
          1 1 1 1 1 1
          1 1 1 1 1 1
          1 1 1 1 1 1
          1 1 1 1 1 1
          1 1 1 1 1 1
          1 1 1 1 1 1
          1 1 1 1 1 1
          1 1 1 1 1 1
          1 1 1 1 1 1
          1 1 1 1 1 1
          1 1 1 1 1 1
          1 1 1 1 1 1
          1 1 1 1 1 1
          1 1 1 1 1 1
          1 1 1 1 1 1
          1 1 1 1
        </DataArray>
      </CellData>
      <Points>
        <DataArray type="Float64" Name="Points" NumberOfComponents="3" format="ascii" RangeMin="0.011720201602553146" RangeMax="0.03445906060790294">
          0.012969222910182 0.0014853020742274 0 0.012627852011276 0.0016898182928561 0
          0.01236786906931 0.0013587217336166 0 0.012783325134333 0.0011067100297067 0
          0.012969222910182 0.0014853020742274 0.00015 0.012627852011276 0.0016898182928561 0.00015
          0.01236786906931 0.0013587217336166 0.00015 0.012783325134333 0.0011067100297067 0.00015
          0.012969222910182 0.0014853020742274 0.0003 0.012627852011276 0.0016898182928561 0.0003
          0.01236786906931 0.0013587217336166 0.0003 0.012783325134333 0.0011067100297067 0.0003
          0.017563073004652 0.0017425656775748 0 0.017044554764736 0.0015497457581888 0
          0.017260149731535 0.0011385367421141 0 0.017760141546291 0.0012815461285561 0
          0.017563073004652 0.0017425656775748 0.00015 0.017044554764736 0.0015497457581888 0.00015
          0.017260149731535 0.0011385367421141 0.00015 0.017760141546291 0.0012815461285561 0.00015
          0.017563073004652 0.0017425656775748 0.0003 0.017044554764736 0.0015497457581888 0.0003
          0.017260149731535 0.0011385367421141 0.0003 0.017760141546291 0.0012815461285561 0.0003
          0.023776898874178 0.0022456328082928 0 0.023504823460796 0.0016933718681226 0
          0.023764932341086 0.0012053538973125 0 0.025 0.0014444444444417 0
          0.023776898874178 0.0022456328082928 0.00015 0.023504823460796 0.0016933718681226 0.00015
          0.023764932341086 0.0012053538973125 0.00015 0.025 0.0014444444444417 0.00015
          0.023776898874178 0.0022456328082928 0.0003 0.023504823460796 0.0016933718681226 0.0003
          0.023764932341086 0.0012053538973125 0.0003 0.025 0.0014444444444417 0.0003
          0.014128459199836 0.0039835282877348 0 0.014611363502717 0.0036877867763913 0
          0.015005639561329 0.0040763460944633 0 0.014554004584986 0.0044253882271801 0
          0.014128459199836 0.0039835282877348 0.00015 0.014611363502717 0.0036877867763913 0.00015
          0.015005639561329 0.0040763460944633 0.00015 0.014554004584986 0.0044253882271801 0.00015
          0.014128459199836 0.0039835282877348 0.0003 0.014611363502717 0.0036877867763913 0.0003
          0.015005639561329 0.0040763460944633 0.0003 0.014554004584986 0.0044253882271801 0.0003
          0.019696280766899 0.00050763342021358 0 0.019550033943553 0.0010320458815065 0
          0.01900444612813 0.00098950685152215 0 0.019158982336274 0.00048623495360749 0
          0.019696280766899 0.00050763342021358 0.00015 0.019550033943553 0.0010320458815065 0.00015
          0.01900444612813 0.00098950685152215 0.00015 0.019158982336274 0.00048623495360749 0.00015
          0.019696280766899 0.00050763342021358 0.0003 0.019550033943553 0.0010320458815065 0.0003
          0.01900444612813 0.00098950685152215 0.0003 0.019158982336274 0.00048623495360749 0.0003
          0.014859009547347 0.0018414606933245 0 0.015407964407671 0.0020438178723745 0
          0.01515544156871 0.0026588338800995 0 0.014598102610542 0.0022982704245768 0
          0.014859009547347 0.0018414606933245 0.00015 0.015407964407671 0.0020438178723745 0.00015
          0.01515544156871 0.0026588338800995 0.00015 0.014598102610542 0.0022982704245768 0.00015
          0.014859009547347 0.0018414606933245 0.0003 0.015407964407671 0.0020438178723745 0.0003
          0.01515544156871 0.0026588338800995 0.0003 0.014598102610542 0.0022982704245768 0.0003
          0.018126604709057 0.0019215066283495 0 0.017910174904861 0.0024312076221655 0
          0.017342980714859 0.0022157520731189 0 0.018126604709057 0.0019215066283495 0.00015
          0.017910174904861 0.0024312076221655 0.00015 0.017342980714859 0.0022157520731189 0.00015
          0.018126604709057 0.0019215066283495 0.0003 0.017910174904861 0.0024312076221655 0.0003
          0.017342980714859 0.0022157520731189 0.0003 0.015995561521593 0.0022418351865966 0
          0.01581460170494 0.0027743126456578 0 0.015995561521593 0.0022418351865966 0.00015
          0.01581460170494 0.0027743126456578 0.00015 0.015995561521593 0.0022418351865966 0.0003
          0.01581460170494 0.0027743126456578 0.0003 0.021203243478062 0.0026574159093233 0
          0.020454986610371 0.0022211941162512 0 0.020632218270446 0.001642443645643 0
          0.021442904813338 0.0016925342242502 0 0.021203243478062 0.0026574159093233 0.00015
          0.020454986610371 0.0022211941162512 0.00015 0.020632218270446 0.001642443645643 0.00015
          0.021442904813338 0.0016925342242502 0.00015 0.021203243478062 0.0026574159093233 0.0003
          0.020454986610371 0.0022211941162512 0.0003 0.020632218270446 0.001642443645643 0.0003
          0.021442904813338 0.0016925342242502 0.0003 0.015000171033694 0.0033600360828681 0
          0.015396645228865 0.0036775895732469 0 0.015000171033694 0.0033600360828681 0.00015
          0.015396645228865 0.0036775895732469 0.00015 0.015000171033694 0.0033600360828681 0.0003
          0.015396645228865 0.0036775895732469 0.0003 0.016564676280502 0.0024636417082771 0
          0.016363912484153 0.0029730068966809 0 0.016564676280502 0.0024636417082771 0.00015
          0.016363912484153 0.0029730068966809 0.00015 0.016564676280502 0.0024636417082771 0.0003
          0.016363912484153 0.0029730068966809 0.0003 0.023072410624366 0.001035238244058 0
          0.023303887517976 0.00051385162283572 0 0.023907474886085 0.00057797945625648 0
          0.023072410624366 0.001035238244058 0.00015 0.023303887517976 0.00051385162283572 0.00015
          0.023907474886085 0.00057797945625648 0.00015 0.023072410624366 0.001035238244058 0.0003
          0.023303887517976 0.00051385162283572 0.0003 0.023907474886085 0.00057797945625648 0.0003
          0.014126846853415 0.0020250855845452 0 0.014376196219822 0.0016213258676016 0
          0.014126846853415 0.0020250855845452 0.00015 0.014376196219822 0.0016213258676016 0.00015
          0.014126846853415 0.0020250855845452 0.0003 0.014376196219822 0.0016213258676016 0.0003
          0.018981322625637 0.0048047339747308 0 0.018357141436072 0.0045551651420339 0
          0.018591751365599 0.0039752866369835 0 0.01916753543825 0.0042045163914746 0
          0.018981322625637 0.0048047339747308 0.00015 0.018357141436072 0.0045551651420339 0.00015
          0.018591751365599 0.0039752866369835 0.00015 0.01916753543825 0.0042045163914746 0.00015
          0.018981322625637 0.0048047339747308 0.0003 0.018357141436072 0.0045551651420339 0.0003
          0.018591751365599 0.0039752866369835 0.0003 0.01916753543825 0.0042045163914746 0.0003
          0.018733892370512 0.0020905204418308 0 0.018302277235643 0.001411928503633 0
          0.018878430913296 0.0015272195647153 0 0.018733892370512 0.0020905204418308 0.00015
          0.018302277235643 0.001411928503633 0.00015 0.018878430913296 0.0015272195647153 0.00015
          0.018733892370512 0.0020905204418308 0.0003 0.018302277235643 0.001411928503633 0.0003
          0.018878430913296 0.0015272195647153 0.0003 0.015535554193674 0.0045828394817383 0
          0.015535554193674 0.0045828394817383 0.00015 0.015535554193674 0.0045828394817383 0.0003
          0.017780760549951 0.0042442262797048 0 0.018018112537919 0.0052480329433742 0
          0.017497318700769 0.0047182001999379 0 0.017780760549951 0.0042442262797048 0.00015
          0.018018112537919 0.0052480329433742 0.00015 0.017497318700769 0.0047182001999379 0.00015
          0.017780760549951 0.0042442262797048 0.0003 0.018018112537919 0.0052480329433742 0.0003
          0.017497318700769 0.0047182001999379 0.0003 0.019494677591535 0.00226139088066 0
          0.019117853172676 0.0029004952170283 0 0.018505903140776 0.002650294613165 0
          0.019494677591535 0.00226139088066 0.00015 0.019117853172676 0.0029004952170283 0.00015
          0.018505903140776 0.002650294613165 0.00015 0.019494677591535 0.00226139088066 0.0003
          0.019117853172676 0.0029004952170283 0.0003 0.018505903140776 0.002650294613165 0.0003
          0.013829014690192 0.0024142080164891 0 0.013458574547778 0.0021218274131508 0
          0.013711742209243 0.0017918189860839 0 0.013829014690192 0.0024142080164891 0.00015
          0.013458574547778 0.0021218274131508 0.00015 0.013711742209243 0.0017918189860839 0.00015
          0.013829014690192 0.0024142080164891 0.0003 0.013458574547778 0.0021218274131508 0.0003
          0.013711742209243 0.0017918189860839 0.0003 0.0133672983588 0.0013583262253912 0
          0.013268156677071 0.00095273786274694 0 0.0133672983588 0.0013583262253912 0.00015
          0.013268156677071 0.00095273786274694 0.00015 0.0133672983588 0.0013583262253912 0.0003
          0.013268156677071 0.00095273786274694 0.0003 0.020151989638292 0.0057951577471947 0
          0.020929132214341 0.005368110675239 0 0.020151989638292 0.0057951577471947 0.00015
          0.020929132214341 0.005368110675239 0.00015 0.020151989638292 0.0057951577471947 0.0003
          0.020929132214341 0.005368110675239 0.0003 0.011634800364854 0.0014122839921498 0
          0.011634800364854 0.0014122839921498 0.00015 0.011634800364854 0.0014122839921498 0.0003
          0.020690070611507 0.0010537467946972 0 0.021241463234904 0.0010007048777636 0
          0.020690070611507 0.0010537467946972 0.00015 0.021241463234904 0.0010007048777636 0.00015
          0.020690070611507 0.0010537467946972 0.0003 0.021241463234904 0.0010007048777636 0.0003
          0.01690585017332 0.0031962434076044 0 0.017120511962154 0.0027019865785896 0
          0.01690585017332 0.0031962434076044 0.00015 0.017120511962154 0.0027019865785896 0.00015
          0.01690585017332 0.0031962434076044 0.0003 0.017120511962154 0.0027019865785896 0.0003
          0.016801656731456 0.0019822328720047 0 0.016801656731456 0.0019822328720047 0.00015
          0.016801656731456 0.0019822328720047 0.0003 0.015193226280812 0.00045041659473928 0
          0.015698309574236 0.00047366638839958 0 0.015648437383567 0.00097128418016613 0
          0.015127663000402 0.00090574444628299 0 0.015193226280812 0.00045041659473928 0.00015
          0.015698309574236 0.00047366638839958 0.00015 0.015648437383567 0.00097128418016613 0.00015
          0.015127663000402 0.00090574444628299 0.00015 0.015193226280812 0.00045041659473928 0.0003
          0.015698309574236 0.00047366638839958 0.0003 0.015648437383567 0.00097128418016613 0.0003
          0.015127663000402 0.00090574444628299 0.0003 0.025 0.0057777777777625 0
          0.025 0.0057777777777625 0.00015 0.025 0.0057777777777625 0.0003
          0.025 0.0043333333333224 0 0.023896353247243 0.0043894596145303 0
          0.025 0.0043333333333224 0.00015 0.023896353247243 0.0043894596145303 0.00015
          0.025 0.0043333333333224 0.0003 0.023896353247243 0.0043894596145303 0.0003
          0.013179014717582 0.001822526704721 0 0.013420070576712 0.0016525675047962 0
          0.013179014717582 0.001822526704721 0.00015 0.013420070576712 0.0016525675047962 0.00015
          0.013179014717582 0.001822526704721 0.0003 0.013420070576712 0.0016525675047962 0.0003
          0.01946472134525 0.0015844882179861 0 0.01946472134525 0.0015844882179861 0.00015
          0.01946472134525 0.0015844882179861 0.0003 0.019738918970445 0.0042679072806348 0
          0.019737200842686 0.0050366958134185 0 0.019738918970445 0.0042679072806348 0.00015
          0.019737200842686 0.0050366958134185 0.00015 0.019738918970445 0.0042679072806348 0.0003
          0.019737200842686 0.0050366958134185 0.0003 0.018801022408002 0.0054477015438504 0
          0.019301386887175 0.0055580415356932 0 0.019427042946373 0.0060730727381959 0
          0.018733542944404 0.0061279994653871 0 0.018801022408002 0.0054477015438504 0.00015
          0.019301386887175 0.0055580415356932 0.00015 0.019427042946373 0.0060730727381959 0.00015
          0.018733542944404 0.0061279994653871 0.00015 0.018801022408002 0.0054477015438504 0.0003
          0.019301386887175 0.0055580415356932 0.0003 0.019427042946373 0.0060730727381959 0.0003
          0.018733542944404 0.0061279994653871 0.0003 0.020038894590203 0.0015918984718873 0
          0.020014763899096 0.0020069766457038 0 0.020038894590203 0.0015918984718873 0.00015
          0.020014763899096 0.0020069766457038 0.00015 0.020038894590203 0.0015918984718873 0.0003
          0.020014763899096 0.0020069766457038 0.0003 0.02163606673442 0.0008902471917336 0
          0.021744201350165 0.00049421716196859 0 0.022190644598282 0.0005058615377216 0
          0.021944604947084 0.0011684672971015 0 0.02163606673442 0.0008902471917336 0.00015
          0.021744201350165 0.00049421716196859 0.00015 0.022190644598282 0.0005058615377216 0.00015
          0.021944604947084 0.0011684672971015 0.00015 0.02163606673442 0.0008902471917336 0.0003
          0.021744201350165 0.00049421716196859 0.0003 0.022190644598282 0.0005058615377216 0.0003
          0.021944604947084 0.0011684672971015 0.0003 0.015913060403389 0.0039637658470315 0
          0.015913060403389 0.0039637658470315 0.00015 0.015913060403389 0.0039637658470315 0.0003
          0.014558693053864 0.0012292895498017 0 0.015031644896308 0.0013689537442351 0
          0.014558693053864 0.0012292895498017 0.00015 0.015031644896308 0.0013689537442351 0.00015
          0.014558693053864 0.0012292895498017 0.0003 0.015031644896308 0.0013689537442351 0.0003
          0.018057579772584 0.0060827128421873 0 0.018070157245618 0.0068021820766994 0
          0.018057579772584 0.0060827128421873 0.00015 0.018070157245618 0.0068021820766994 0.00015
          0.018057579772584 0.0060827128421873 0.0003 0.018070157245618 0.0068021820766994 0.0003
          0.017413401850906 0.0060417176080878 0 0.017413401850906 0.0060417176080878 0.00015
          0.017413401850906 0.0060417176080878 0.0003 0.016169389215855 0.0034677229039223 0
          0.015655980876909 0.003250339095381 0 0.016169389215855 0.0034677229039223 0.00015
          0.015655980876909 0.003250339095381 0.00015 0.016169389215855 0.0034677229039223 0.0003
          0.015655980876909 0.003250339095381 0.0003 0.014652329158707 0.0030238496825634 0
          0.015285307382498 0.0031101507370722 0 0.014652329158707 0.0030238496825634 0.00015
          0.015285307382498 0.0031101507370722 0.00015 0.014652329158707 0.0030238496825634 0.0003
          0.015285307382498 0.0031101507370722 0.0003 0.016487808895433 0.0042010147125967 0
          0.016291762387835 0.0047307906783276 0 0.016487808895433 0.0042010147125967 0.00015
          0.016291762387835 0.0047307906783276 0.00015 0.016487808895433 0.0042010147125967 0.0003
          0.016291762387835 0.0047307906783276 0.0003 0.017341722495578 0.0054175123203669 0
          0.017341722495578 0.0054175123203669 0.00015 0.017341722495578 0.0054175123203669 0.0003
          0.016251164393845 0.0016133033435965 0 0.016687160352932 0.001374608348519 0
          0.016251164393845 0.0016133033435965 0.00015 0.016687160352932 0.001374608348519 0.00015
          0.016251164393845 0.0016133033435965 0.0003 0.016687160352932 0.001374608348519 0.0003
          0.01678493258985 0.0053840721103251 0 0.016848637368385 0.0048798435935376 0
          0.01678493258985 0.0053840721103251 0.00015 0.016848637368385 0.0048798435935376 0.00015
          0.01678493258985 0.0053840721103251 0.0003 0.016848637368385 0.0048798435935376 0.0003
          0.013915703094631 0.0030656560250288 0 0.01425441565673 0.0027053116394345 0
          0.014277331184122 0.0033493109511997 0 0.013915703094631 0.0030656560250288 0.00015
          0.01425441565673 0.0027053116394345 0.00015 0.014277331184122 0.0033493109511997 0.00015
          0.013915703094631 0.0030656560250288 0.0003 0.01425441565673 0.0027053116394345 0.0003
          0.014277331184122 0.0033493109511997 0.0003 0.013503308513005 0.0027817056572273 0
          0.013503308513005 0.0027817056572273 0.00015 0.013503308513005 0.0027817056572273 0.0003
          0.015571407447371 0.001500509245043 0 0.016188320748251 0.0009824473909215 0
          0.015571407447371 0.001500509245043 0.00015 0.016188320748251 0.0009824473909215 0.00015
          0.015571407447371 0.001500509245043 0.0003 0.016188320748251 0.0009824473909215 0.0003
          0.017456683820944 0.0034405145363726 0 0.017671289470578 0.0029336357035204 0
          0.017456683820944 0.0034405145363726 0.00015 0.017671289470578 0.0029336357035204 0.00015
          0.017456683820944 0.0034405145363726 0.0003 0.017671289470578 0.0029336357035204 0.0003
          0.022716879195272 0.001694170750475 0 0.022069698771397 0.0020298487038736 0
          0.022716879195272 0.001694170750475 0.00015 0.022069698771397 0.0020298487038736 0.00015
          0.022716879195272 0.001694170750475 0.0003 0.022069698771397 0.0020298487038736 0.0003
          0.013893710777701 0.0013389894450257 0 0.014229820502632 0.0011148528015907 0
          0.013893710777701 0.0013389894450257 0.00015 0.014229820502632 0.0011148528015907 0.00015
          0.013893710777701 0.0013389894450257 0.0003 0.014229820502632 0.0011148528015907 0.0003
          0.012674188674928 0.0028095410694266 0 0.013119330518162 0.0024349279719224 0
          0.013248150362312 0.0031919567697963 0 0.012674188674928 0.0028095410694266 0.00015
          0.013119330518162 0.0024349279719224 0.00015 0.013248150362312 0.0031919567697963 0.00015
          0.012674188674928 0.0028095410694266 0.0003 0.013119330518162 0.0024349279719224 0.0003
          0.013248150362312 0.0031919567697963 0.0003 0.012451479243686 0.0021914486022899 0
          0.012451479243686 0.0021914486022899 0.00015 0.012451479243686 0.0021914486022899 0.0003
          0.016782084774574 0.00093367828557597 0 0.016782084774574 0.00093367828557597 0.00015
          0.016782084774574 0.00093367828557597 0.0003 0.013121586466294 0.0036708577033715 0
          0.013121586466294 0.0036708577033715 0.00015 0.013121586466294 0.0036708577033715 0.0003
          0.012837862818801 0.0020433604618052 0 0.012837862818801 0.0020433604618052 0.00015
          0.012837862818801 0.0020433604618052 0.0003 0.016706746155521 0.0036970402910047 0
          0.016706746155521 0.0036970402910047 0.00015 0.016706746155521 0.0036970402910047 0.0003
          0.013749164985008 0.00086088989331873 0 0.013749164985008 0.00086088989331873 0.00015
          0.013749164985008 0.00086088989331873 0.0003 0.012096711335481 0.0017058387426491 0
          0.012096711335481 0.0017058387426491 0.00015 0.012096711335481 0.0017058387426491 0.0003
          0.013693266362936 0.0034326845509566 0 0.013693266362936 0.0034326845509566 0.00015
          0.013693266362936 0.0034326845509566 0.0003 0.012692307692288 0 0
          0.012542896420733 0.00061304595643839 0 0.012692307692288 0 0.00015
          0.012542896420733 0.00061304595643839 0.00015 0.012692307692288 0 0.0003
          0.012542896420733 0.00061304595643839 0.0003 0.013205128205107 0 0
          0.013181655749567 0.00048421972568225 0 0.013205128205107 0 0.00015
          0.013181655749567 0.00048421972568225 0.00015 0.013205128205107 0 0.0003
          0.013181655749567 0.00048421972568225 0.0003 0.012087580163866 0.0010424427844857 0
          0.012087580163866 0.0010424427844857 0.00015 0.012087580163866 0.0010424427844857 0.0003
          0.013717948717925 0 0 0.013709151553936 0.00043508888993868 0
          0.013717948717925 0 0.00015 0.013709151553936 0.00043508888993868 0.00015
          0.013717948717925 0 0.0003 0.013709151553936 0.00043508888993868 0.0003
          0.023934294716764 0.0032087575652495 0 0.025 0.0028888888888822 0
          0.023934294716764 0.0032087575652495 0.00015 0.025 0.0028888888888822 0.00015
          0.023934294716764 0.0032087575652495 0.0003 0.025 0.0028888888888822 0.0003
          0.022119784948444 0.002618759724243 0 0.022119784948444 0.002618759724243 0.00015
          0.022119784948444 0.002618759724243 0.0003 0.012384518900215 0.0018567382086698 0
          0.012384518900215 0.0018567382086698 0.00015 0.012384518900215 0.0018567382086698 0.0003
          0.021279978971931 0.00049482730399591 0 0.020757556768826 0.00050973095909409 0
          0.021279978971931 0.00049482730399591 0.00015 0.020757556768826 0.00050973095909409 0.00015
          0.021279978971931 0.00049482730399591 0.0003 0.020757556768826 0.00050973095909409 0.0003
          0.015256410256382 0 0 0.015769230769205 0 0
          0.015256410256382 0 0.00015 0.015769230769205 0 0.00015
          0.015256410256382 0 0.0003 0.015769230769205 0 0.0003
          0.014025581742285 0.0035717972510793 0 0.014025581742285 0.0035717972510793 0.00015
          0.014025581742285 0.0035717972510793 0.0003 0.013590285783394 0.0038446716816234 0
          0.013590285783394 0.0038446716816234 0.00015 0.013590285783394 0.0038446716816234 0.0003
          0.017243082343815 0.0050067004105205 0 0.017243082343815 0.0050067004105205 0.00015
          0.017243082343815 0.0050067004105205 0.0003 0.014691316585943 0.00042340821879555 0
          0.014743589743561 0 0 0.014691316585943 0.00042340821879555 0.00015
          0.014743589743561 0 0.00015 0.014691316585943 0.00042340821879555 0.0003
          0.014743589743561 0 0.0003 0.018245486290569 0.0031782516753476 0
          0.018245486290569 0.0031782516753476 0.00015 0.018245486290569 0.0031782516753476 0.0003
          0.018846153846135 0 0 0.018644197304734 0.00045373129675669 0
          0.01812656348281 0.00041497632726255 0 0.018333333333313 0 0
          0.018846153846135 0 0.00015 0.018644197304734 0.00045373129675669 0.00015
          0.01812656348281 0.00041497632726255 0.00015 0.018333333333313 0 0.00015
          0.018846153846135 0 0.0003 0.018644197304734 0.00045373129675669 0.0003
          0.01812656348281 0.00041497632726255 0.0003 0.018333333333313 0 0.0003
          0.016222123693441 0.00047331176344161 0 0.016700854199337 0.00043557402690065 0
          0.016222123693441 0.00047331176344161 0.00015 0.016700854199337 0.00043557402690065 0.00015
          0.016222123693441 0.00047331176344161 0.0003 0.016700854199337 0.00043557402690065 0.0003
          0.020119253581834 0.0010505613075795 0 0.020119253581834 0.0010505613075795 0.00015
          0.020119253581834 0.0010505613075795 0.0003 0.017948162073368 0.00084248305268282 0
          0.018468108748109 0.00092264731154686 0 0.017948162073368 0.00084248305268282 0.00015
          0.018468108748109 0.00092264731154686 0.00015 0.017948162073368 0.00084248305268282 0.0003
          0.018468108748109 0.00092264731154686 0.0003 0.018823294200687 0.0034327213803771 0
          0.019357958441624 0.0036753812238739 0 0.018823294200687 0.0034327213803771 0.00015
          0.019357958441624 0.0036753812238739 0.00015 0.018823294200687 0.0034327213803771 0.0003
          0.019357958441624 0.0036753812238739 0.0003 0.017020820655581 0.0044256808272369 0
          0.017020820655581 0.0044256808272369 0.00015 0.017020820655581 0.0044256808272369 0.0003
          0.017246333426457 0.0039469397271967 0 0.017246333426457 0.0039469397271967 0.00015
          0.017246333426457 0.0039469397271967 0.0003 0.020078691259254 0.0027314397537426 0
          0.020078691259254 0.0027314397537426 0.00015 0.020078691259254 0.0027314397537426 0.0003
          0.014206101807249 0.00041708713844452 0 0.014230769230743 0 0
          0.014206101807249 0.00041708713844452 0.00015 0.014230769230743 0 0.00015
          0.014206101807249 0.00041708713844452 0.0003 0.014230769230743 0 0.0003
          0.019663480844036 0.0032045589214632 0 0.019663480844036 0.0032045589214632 0.00015
          0.019663480844036 0.0032045589214632 0.0003 0.021168425648455 0.0043064684914555 0
          0.021635594211814 0.0048272474453844 0 0.020555573714582 0.0046911399787169 0
          0.021168425648455 0.0043064684914555 0.00015 0.021635594211814 0.0048272474453844 0.00015
          0.020555573714582 0.0046911399787169 0.00015 0.021168425648455 0.0043064684914555 0.0003
          0.021635594211814 0.0048272474453844 0.0003 0.020555573714582 0.0046911399787169 0.0003
          0.019723975353689 0.0038421555098755 0 0.019723975353689 0.0038421555098755 0.00015
          0.019723975353689 0.0038421555098755 0.0003 0.01679487179485 0 0
          0.017307692307672 0 0 0.017098243235352 0.00037703288126221 0
          0.01679487179485 0 0.00015 0.017307692307672 0 0.00015
          0.017098243235352 0.00037703288126221 0.00015 0.01679487179485 0 0.0003
          0.017307692307672 0 0.0003 0.017098243235352 0.00037703288126221 0.0003
          0.019358974358957 0 0 0.019358974358957 0 0.00015
          0.019358974358957 0 0.0003 0.018021318366412 0.0037089471112668 0
          0.018021318366412 0.0037089471112668 0.00015 0.018021318366412 0.0037089471112668 0.0003
          0.022914230268928 0.0025172233828488 0 0.022914230268928 0.0025172233828488 0.00015
          0.022914230268928 0.0025172233828488 0.0003 0.016282051282027 0 0
          0.016282051282027 0 0.00015 0.016282051282027 0 0.0003
          0.017636327566636 0.00038375181151782 0 0.017820512820494 0 0
          0.017636327566636 0.00038375181151782 0.00015 0.017820512820494 0 0.00015
          0.017636327566636 0.00038375181151782 0.0003 0.017820512820494 0 0.0003
          0.020545307319607 0.0031941956482125 0 0.020545307319607 0.0031941956482125 0.00015
          0.020545307319607 0.0031941956482125 0.0003 0.014207774647908 0.00082121811907846 0
          0.014649951203035 0.00083908958777153 0 0.014207774647908 0.00082121811907846 0.00015
          0.014649951203035 0.00083908958777153 0.00015 0.014207774647908 0.00082121811907846 0.0003
          0.014649951203035 0.00083908958777153 0.0003 0.017453973974276 0.00075538641526017 0
          0.017131504825278 0.00067680946789985 0 0.017453973974276 0.00075538641526017 0.00015
          0.017131504825278 0.00067680946789985 0.00015 0.017453973974276 0.00075538641526017 0.0003
          0.017131504825278 0.00067680946789985 0.0003 0.020049549059284 0.0035870308776452 0
          0.020306231316884 0.0040846257713005 0 0.020049549059284 0.0035870308776452 0.00015
          0.020306231316884 0.0040846257713005 0.00015 0.020049549059284 0.0035870308776452 0.0003
          0.020306231316884 0.0040846257713005 0.0003 0.022163023796879 0.0034061119862663 0
          0.021471654866651 0.0034951402573089 0 0.022163023796879 0.0034061119862663 0.00015
          0.021471654866651 0.0034951402573089 0.00015 0.022163023796879 0.0034061119862663 0.0003
          0.021471654866651 0.0034951402573089 0.0003 0.020216848120139 0.00051365536395203 0
          0.020384615384602 0 0 0.020897435897425 0 0
          0.020216848120139 0.00051365536395203 0.00015 0.020384615384602 0 0.00015
          0.020897435897425 0 0.00015 0.020216848120139 0.00051365536395203 0.0003
          0.020384615384602 0 0.0003 0.020897435897425 0 0.0003
          0.020867240059882 0.0037570922548429 0 0.020867240059882 0.0037570922548429 0.00015
          0.020867240059882 0.0037570922548429 0.0003 0.021410256410247 0 0
          0.021410256410247 0 0.00015 0.021410256410247 0 0.0003
          0.01987179487178 0 0 0.01987179487178 0 0.00015
          0.01987179487178 0 0.0003 0.022975084693504 0.003367305376383 0
          0.022975084693504 0.003367305376383 0.00015 0.022975084693504 0.003367305376383 0.0003
          0.022435897435893 0 0 0.022948717948713 0 0
          0.022737844672879 0.00047743690091317 0 0.022435897435893 0 0.00015
          0.022948717948713 0 0.00015 0.022737844672879 0.00047743690091317 0.00015
          0.022435897435893 0 0.0003 0.022948717948713 0 0.0003
          0.022737844672879 0.00047743690091317 0.0003 0.02192307692307 0 0
          0.02192307692307 0 0.00015 0.02192307692307 0 0.0003
          0.021567010772127 0.0039949981403974 0 0.021567010772127 0.0039949981403974 0.00015
          0.021567010772127 0.0039949981403974 0.0003 0.02205136800235 0.0041574599345453 0
          0.022874799944018 0.0043411431204517 0 0.02205136800235 0.0041574599345453 0.00015
          0.022874799944018 0.0043411431204517 0.00015 0.02205136800235 0.0041574599345453 0.0003
          0.022874799944018 0.0043411431204517 0.0003 0.023461538461532 0 0
          0.023461538461532 0 0.00015 0.023461538461532 0 0.0003
          0.022597273609822 0.0008601076908125 0 0.022597273609822 0.0008601076908125 0.00015
          0.022597273609822 0.0008601076908125 0.0003 0.024392416230449 0.00057909033861659 0
          0.024392416230449 0.00057909033861659 0.00015 0.024392416230449 0.00057909033861659 0.0003
          0.023974358974355 0 0 0.023974358974355 0 0.00015
          0.023974358974355 0 0.0003 0.024487179487177 0 0
          0.024487179487177 0 0.00015 0.024487179487177 0 0.0003
          0.025 0 0 0.025 0 0.00015
          0.025 0 0.0003 0.026666666666664 0.0014444444444417 0
          0.026666666666663 0 0 0.026666666666664 0.0014444444444417 0.00015
          0.026666666666663 0 0.00015 0.026666666666664 0.0014444444444417 0.0003
          0.026666666666663 0 0.0003 0.028333333333331 0.0014444444444417 0
          0.02833333333333 0 0 0.028333333333331 0.0014444444444417 0.00015
          0.02833333333333 0 0.00015 0.028333333333331 0.0014444444444417 0.0003
          0.02833333333333 0 0.0003 0.03 0.0014444444444417 0
          0.03 0 0 0.03 0.0014444444444417 0.00015
          0.03 0 0.00015 0.03 0.0014444444444417 0.0003
          0.03 0 0.0003 0.026666666666665 0.0028888888888822 0
          0.026666666666665 0.0028888888888822 0.00015 0.026666666666665 0.0028888888888822 0.0003
          0.028333333333331 0.0028888888888822 0 0.028333333333331 0.0028888888888822 0.00015
          0.028333333333331 0.0028888888888822 0.0003 0.03 0.0028888888888822 0
          0.03 0.0028888888888822 0.00015 0.03 0.0028888888888822 0.0003
          0.026666666666666 0.0043333333333224 0 0.026666666666666 0.0043333333333224 0.00015
          0.026666666666666 0.0043333333333224 0.0003 0.028333333333332 0.0043333333333224 0
          0.028333333333332 0.0043333333333224 0.00015 0.028333333333332 0.0043333333333224 0.0003
          0.03 0.0043333333333224 0 0.03 0.0043333333333224 0.00015
          0.03 0.0043333333333224 0.0003 0.026666666666666 0.0057777777777625 0
          0.026666666666666 0.0057777777777625 0.00015 0.026666666666666 0.0057777777777625 0.0003
          0.028333333333333 0.0057777777777625 0 0.028333333333333 0.0057777777777625 0.00015
          0.028333333333333 0.0057777777777625 0.0003 0.03 0.0057777777777625 0
          0.03 0.0057777777777625 0.00015 0.03 0.0057777777777625 0.0003
          0.028333333333334 0.0072222222222063 0 0.028333333333334 0.0072222222222063 0.00015
          0.028333333333334 0.0072222222222063 0.0003 0.03 0.0072222222222063 0
          0.03 0.0072222222222063 0.00015 0.03 0.0072222222222063 0.0003
          0.028333333333334 0.0086666666666559 0 0.028333333333334 0.0086666666666559 0.00015
          0.028333333333334 0.0086666666666559 0.0003 0.03 0.0086666666666559 0
          0.03 0.0086666666666559 0.00015 0.03 0.0086666666666559 0.0003
          0.028333333333335 0.010111111111103 0 0.028333333333335 0.010111111111103 0.00015
          0.028333333333335 0.010111111111103 0.0003 0.03 0.010111111111103 0
          0.03 0.010111111111103 0.00015 0.03 0.010111111111103 0.0003
          0.028333333333336 0.011555555555552 0 0.028333333333336 0.011555555555552 0.00015
          0.028333333333336 0.011555555555552 0.0003 0.03 0.011555555555552 0
          0.03 0.011555555555552 0.00015 0.03 0.011555555555552 0.0003
          0.028333333333337 0.013 0 0.028333333333337 0.013 0.00015
          0.028333333333337 0.013 0.0003 0.03 0.013 0
          0.03 0.013 0.00015 0.03 0.013 0.0003
          0.031601181467612 0.0014508094753802 0 0.03158989866902 0 0
          0.031601181467612 0.0014508094753802 0.00015 0.03158989866902 0 0.00015
          0.031601181467612 0.0014508094753802 0.0003 0.03158989866902 0 0.0003
          0.031612464266204 0.0029016189507591 0 0.031612464266204 0.0029016189507591 0.00015
          0.031612464266204 0.0029016189507591 0.0003 0.031623747064796 0.0043524284261377 0
          0.031623747064796 0.0043524284261377 0.00015 0.031623747064796 0.0043524284261377 0.0003
          0.031635029863388 0.0058032379015163 0 0.031635029863388 0.0058032379015163 0.00015
          0.031635029863388 0.0058032379015163 0.0003 0.031646312661979 0.0072540473768985 0
          0.031646312661979 0.0072540473768985 0.00015 0.031646312661979 0.0072540473768985 0.0003
          0.021356284292895 0.0061182113295331 0 0.020489019208248 0.0065103794253073 0
          0.021356284292895 0.0061182113295331 0.00015 0.020489019208248 0.0065103794253073 0.00015
          0.021356284292895 0.0061182113295331 0.0003 0.020489019208248 0.0065103794253073 0.0003
          0.025 0.0072222222222063 0 0.023816654948859 0.0069324696013164 0
          0.023829479378086 0.0056593315311521 0 0.025 0.0072222222222063 0.00015
          0.023816654948859 0.0069324696013164 0.00015 0.023829479378086 0.0056593315311521 0.00015
          0.025 0.0072222222222063 0.0003 0.023816654948859 0.0069324696013164 0.0003
          0.023829479378086 0.0056593315311521 0.0003 0.018734278863615 0.0068564365277259 0
          0.018734278863615 0.0068564365277259 0.00015 0.018734278863615 0.0068564365277259 0.0003
          0.019611341590458 0.0069319215290848 0 0.019611341590458 0.0069319215290848 0.00015
          0.019611341590458 0.0069319215290848 0.0003 0.022477642087048 0.0055533155338694 0
          0.022477642087048 0.0055533155338694 0.00015 0.022477642087048 0.0055533155338694 0.0003
          0.026666666666667 0.0072222222222063 0 0.026666666666667 0.0072222222222063 0.00015
          0.026666666666667 0.0072222222222063 0.0003 0.026666666666668 0.0086666666666559 0
          0.026666666666668 0.0086666666666559 0.00015 0.026666666666668 0.0086666666666559 0.0003
          0.026666666666669 0.010111111111103 0 0.026666666666669 0.010111111111103 0.00015
          0.026666666666669 0.010111111111103 0.0003 0.026666666666669 0.011555555555552 0
          0.026666666666669 0.011555555555552 0.00015 0.026666666666669 0.011555555555552 0.0003
          0.02666666666667 0.013 0 0.02666666666667 0.013 0.00015
          0.02666666666667 0.013 0.0003 0.033201501647561 0.0014698753983525 0
          0.033179797338052 0 0 0.033201501647561 0.0014698753983525 0.00015
          0.033179797338052 0 0.00015 0.033201501647561 0.0014698753983525 0.0003
          0.033179797338052 0 0.0003 0.033223205957069 0.0029397507967035 0
          0.033223205957069 0.0029397507967035 0.00015 0.033223205957069 0.0029397507967035 0.0003
          0.033244910266578 0.0044096261950543 0 0.033244910266578 0.0044096261950543 0.00015
          0.033244910266578 0.0044096261950543 0.0003 0.033266614576087 0.0058795015934051 0
          0.033266614576087 0.0058795015934051 0.00015 0.033266614576087 0.0058795015934051 0.0003
          0.033288318885596 0.0073493769917596 0 0.033288318885596 0.0073493769917596 0.00015
          0.033288318885596 0.0073493769917596 0.0003 0.031657595460571 0.0087048568522863 0
          0.031657595460571 0.0087048568522863 0.00015 0.031657595460571 0.0087048568522863 0.0003
          0.033310023195106 0.0088192523901195 0 0.033310023195106 0.0088192523901195 0.00015
          0.033310023195106 0.0088192523901195 0.0003 0.031668878259163 0.010155666327672 0
          0.031668878259163 0.010155666327672 0.00015 0.031668878259163 0.010155666327672 0.0003
          0.031680161057755 0.011606475803059 0 0.031680161057755 0.011606475803059 0.00015
          0.031680161057755 0.011606475803059 0.0003 0.031691443856347 0.013057285278446 0
          0.031691443856347 0.013057285278446 0.00015 0.031691443856347 0.013057285278446 0.0003
          <InformationKey name="L2_NORM_RANGE" location="vtkDataArray" length="2">
            <Value index="0">
              0.011720201603
            </Value>
            <Value index="1">
              0.034459060608
            </Value>
          </InformationKey>
        </DataArray>
      </Points>
      <Cells>
        <DataArray type="Int64" Name="connectivity" format="ascii" RangeMin="0" RangeMax="797">
          0 1 2 3 4 5
          6 7 4 5 6 7
          8 9 10 11 12 13
          14 15 16 17 18 19
          16 17 18 19 20 21
          22 23 24 25 26 27
          28 29 30 31 28 29
          30 31 32 33 34 35
          36 37 38 39 40 41
          42 43 40 41 42 43
          44 45 46 47 48 49
          50 51 52 53 54 55
          52 53 54 55 56 57
          58 59 60 61 62 63
          64 65 66 67 64 65
          66 67 68 69 70 71
          72 73 74 12 75 76
          77 16 75 76 77 16
          78 79 80 20 61 81
          82 62 65 83 84 66
          65 83 84 66 69 85
          86 70 87 88 89 90
          91 92 93 94 91 92
          93 94 95 96 97 98
          37 99 100 38 41 101
          102 42 41 101 102 42
          45 103 104 46 81 105
          106 82 83 107 108 84
          83 107 108 84 85 109
          110 86 26 111 112 113
          30 114 115 116 30 114
          115 116 34 117 118 119
          63 120 121 60 67 122
          123 64 67 122 123 64
          71 124 125 68 126 127
          128 129 130 131 132 133
          130 131 132 133 134 135
          136 137 138 72 139 140
          141 75 142 143 141 75
          142 143 144 78 145 146
          150 127 151 152 153 131
          154 155 153 131 154 155
          156 135 157 158 159 160
          161 138 162 163 164 141
          162 163 164 141 165 166
          167 144 120 168 169 170
          122 171 172 173 122 171
          172 173 124 174 175 176
          15 139 72 12 19 142
          75 16 19 142 75 16
          23 145 78 20 177 0
          3 178 179 4 7 180
          179 4 7 180 181 8
          11 182 183 184 726 727
          185 186 728 729 185 186
          728 729 187 188 730 731
          192 193 90 89 194 195
          94 93 194 195 94 93
          196 197 98 97 198 106
          105 199 200 108 107 201
          200 108 107 201 202 110
          109 203 204 13 12 74
          205 17 16 77 205 17
          16 77 206 21 20 80
          207 208 209 210 211 212
          213 214 211 212 213 214
          215 216 217 218 732 733
          734 219 735 736 737 220
          735 736 737 220 738 739
          740 221 222 219 734 223
          224 220 737 225 224 220
          737 225 226 221 740 227
          228 229 170 169 230 231
          173 172 230 231 173 172
          232 233 176 175 234 140
          50 49 235 143 54 53
          235 143 54 53 236 146
          58 57 129 237 238 126
          133 239 240 130 133 239
          240 130 137 241 242 134
          243 244 245 246 247 248
          249 250 247 248 249 250
          251 252 253 254 255 256
          159 234 257 258 162 235
          257 258 162 235 259 260
          165 236 261 262 263 264
          265 266 267 268 265 266
          267 268 269 270 271 272
          273 147 38 100 274 148
          42 102 274 148 42 102
          275 149 46 104 121 276
          277 60 123 278 279 64
          123 278 279 64 125 280
          281 68 282 246 741 283
          284 250 742 285 284 250
          742 285 286 254 743 287
          291 292 82 106 293 294
          84 108 293 294 84 108
          295 296 86 110 99 297
          62 298 101 299 66 300
          101 299 66 300 103 301
          70 302 303 304 147 273
          305 306 148 274 305 306
          148 274 307 308 149 275
          105 204 74 199 107 205
          77 201 107 205 77 201
          109 206 80 203 288 309
          151 282 289 310 154 284
          289 310 154 284 290 311
          157 286 312 313 13 204
          314 315 17 205 314 315
          17 205 316 317 21 206
          99 298 292 100 101 300
          294 102 101 300 294 102
          103 302 296 104 292 298
          62 82 294 300 66 84
          294 300 66 84 296 302
          70 86 151 127 126 243
          154 131 130 247 154 131
          130 247 157 135 134 251
          246 282 151 243 250 284
          154 247 250 284 154 247
          254 286 157 251 100 292
          291 273 102 294 293 274
          102 294 293 274 104 296
          295 275 324 325 297 326
          327 328 299 329 327 328
          299 329 330 331 301 332
          325 63 62 297 328 67
          66 299 328 67 66 299
          331 71 70 301 333 168
          325 324 334 171 328 327
          334 171 328 327 335 174
          331 330 168 120 63 325
          171 122 67 328 171 122
          67 328 174 124 71 331
          312 336 209 337 314 338
          213 339 314 338 213 339
          316 340 217 341 88 256
          255 89 92 258 257 93
          92 258 257 93 96 260
          259 97 342 198 199 343
          344 200 201 345 344 200
          201 345 346 202 203 347
          90 264 348 349 94 268
          350 351 94 268 350 351
          98 272 352 353 354 355
          276 121 356 357 278 123
          356 357 278 123 358 359
          280 125 360 361 333 362
          363 364 334 365 363 364
          334 365 366 367 335 368
          336 277 210 209 338 279
          214 213 338 279 214 213
          340 281 218 217 73 72
          138 161 76 75 141 164
          76 75 141 164 79 78
          144 167 372 14 13 313
          373 18 17 315 373 18
          17 315 374 22 21 317
          168 333 361 169 171 334
          364 172 171 334 364 172
          174 335 367 175 378 361
          360 369 379 364 363 370
          379 364 363 370 380 367
          366 371 381 291 106 198
          382 293 108 200 382 293
          108 200 383 295 110 202
          354 177 178 384 356 179
          180 385 356 179 180 385
          358 181 182 386 37 326
          297 99 41 329 299 101
          41 329 299 101 45 332
          301 103 324 390 362 333
          327 391 365 334 327 391
          365 334 330 392 368 335
          394 393 399 400 396 395
          401 402 396 395 401 402
          398 397 403 404 2 387
          189 405 6 388 190 406
          6 388 190 406 10 389
          191 407 400 399 408 409
          402 401 410 411 402 401
          410 411 404 403 412 413
          414 24 27 415 416 28
          31 417 416 28 31 417
          418 32 35 419 420 87
          90 349 421 91 94 351
          421 91 94 351 422 95
          98 353 199 74 73 343
          201 77 76 345 201 77
          76 345 203 80 79 347
          336 61 60 277 338 65
          64 279 338 65 64 279
          340 69 68 281 426 193
          192 427 428 195 194 429
          428 195 194 429 430 197
          196 431 207 432 433 208
          211 434 435 212 211 434
          435 212 215 436 437 216
          326 438 390 324 329 439
          391 327 329 439 391 327
          332 440 392 330 441 375
          362 390 442 376 365 391
          442 376 365 391 443 377
          368 392 381 303 273 291
          382 305 274 293 382 305
          274 293 383 307 275 295
          348 111 26 25 350 114
          30 29 350 114 30 29
          352 117 34 33 319 444
          309 318 321 445 310 320
          321 445 310 320 323 446
          311 322 432 207 447 448
          434 211 449 450 434 211
          449 450 436 215 451 452
          238 244 243 126 240 248
          247 130 240 248 247 130
          242 252 251 134 140 234
          159 138 143 235 162 141
          143 235 162 141 146 236
          165 144 161 453 343 73
          164 454 345 76 164 454
          345 76 167 455 347 79
          456 457 458 459 460 461
          462 463 460 461 462 463
          464 465 466 467 61 336
          312 81 65 338 314 83
          65 338 314 83 69 340
          316 85 81 312 204 105
          83 314 205 107 83 314
          205 107 85 316 206 109
          468 469 372 337 470 471
          373 339 470 471 373 339
          472 473 374 341 468 337
          209 208 470 339 213 212
          470 339 213 212 472 341
          217 216 474 255 234 49
          475 257 235 53 475 257
          235 53 476 259 236 57
          372 313 312 337 373 315
          314 339 373 315 314 339
          374 317 316 341 152 151
          309 444 155 154 310 445
          155 154 310 445 158 157
          311 446 477 478 139 15
          479 480 142 19 479 480
          142 19 481 482 145 23
          483 484 129 128 485 486
          133 132 485 486 133 132
          487 488 137 136 489 319
          304 303 490 321 306 305
          490 321 306 305 491 323
          308 307 744 741 246 245
          745 742 250 249 745 742
          250 249 746 743 254 253
          492 381 198 342 493 382
          200 344 493 382 200 344
          494 383 202 346 88 495
          159 256 92 496 162 258
          92 496 162 258 96 497
          165 260 498 499 448 447
          500 501 450 449 500 501
          450 449 502 503 452 451
          223 414 415 222 225 416
          417 224 225 416 417 224
          227 418 419 226 354 121
          120 170 356 123 122 173
          356 123 122 173 358 125
          124 176 394 3 2 405
          396 7 6 406 396 7
          6 406 398 11 10 407
          453 161 160 483 454 164
          163 485 454 164 163 485
          455 167 166 487 495 504
          160 159 496 505 163 162
          496 505 163 162 497 506
          166 165 492 489 303 381
          493 490 305 382 493 490
          305 382 494 491 307 383
          264 90 193 261 268 94
          195 265 268 94 195 265
          272 98 197 269 507 508
          184 509 510 511 186 512
          510 511 186 512 513 514
          188 515 237 129 484 516
          239 133 486 517 239 133
          486 517 241 137 488 518
          469 519 520 521 471 522
          523 524 471 522 523 524
          473 525 526 527 457 456
          528 51 461 460 529 55
          461 460 529 55 465 464
          530 59 531 342 343 453
          532 344 345 454 532 344
          345 454 533 346 347 455
          238 183 245 244 240 185
          249 248 240 185 249 248
          242 187 253 252 1 378
          369 423 5 379 370 424
          5 379 370 424 9 380
          371 425 504 484 483 160
          505 486 485 163 505 486
          485 163 506 488 487 166
          453 483 128 531 454 485
          132 532 454 485 132 532
          455 487 136 533 747 726
          184 508 748 728 186 511
          748 728 186 511 749 730
          188 514 478 457 51 50
          480 461 55 54 480 461
          55 54 482 465 59 58
          400 409 384 178 402 411
          385 180 402 411 385 180
          404 413 386 182 420 349
          348 534 421 351 350 535
          421 351 350 535 422 353
          352 536 468 537 519 469
          470 538 522 471 470 538
          522 471 472 539 525 473
          509 184 183 238 512 186
          185 240 512 186 185 240
          515 188 187 242 170 229
          177 354 173 231 179 356
          173 231 179 356 176 233
          181 358 499 498 409 408
          501 500 411 410 501 500
          411 410 503 502 413 412
          540 541 459 458 542 543
          463 462 542 543 463 462
          544 545 467 466 87 546
          495 88 91 547 496 92
          91 547 496 92 95 548
          497 96 228 169 361 378
          230 172 364 379 230 172
          364 379 232 175 367 380
          549 550 276 355 551 552
          278 357 551 552 278 357
          553 554 280 359 478 50
          140 139 480 54 143 142
          480 54 143 142 482 58
          146 145 540 555 556 521
          542 557 558 524 542 557
          558 524 544 559 560 527
          36 441 390 438 40 442
          391 439 40 442 391 439
          44 443 392 440 561 562
          237 516 563 564 239 517
          563 564 239 517 565 566
          241 518 152 444 319 489
          155 445 321 490 155 445
          321 490 158 446 323 491
          567 568 87 420 569 570
          91 421 569 570 91 421
          571 572 95 422 150 492
          342 531 153 493 344 532
          153 493 344 532 156 494
          346 533 477 15 14 555
          479 19 18 557 479 19
          18 557 481 23 22 559
          531 128 127 150 532 132
          131 153 532 132 131 153
          533 136 135 156 24 534
          348 25 28 535 350 29
          28 535 350 29 32 536
          352 33 504 495 546 561
          505 496 547 563 505 496
          547 563 506 497 548 565
          474 192 89 255 475 194
          93 257 475 194 93 257
          476 196 97 259 573 574
          575 427 576 577 578 429
          576 577 578 429 579 580
          581 431 546 582 562 561
          547 583 564 563 547 583
          564 563 548 584 566 565
          561 516 484 504 563 517
          486 505 563 517 486 505
          565 518 488 506 555 540
          458 477 557 542 462 479
          557 542 462 479 559 544
          466 481 550 210 277 276
          552 214 279 278 552 214
          279 278 554 218 281 280
          744 245 183 727 745 249
          185 729 745 249 185 729
          746 253 187 731 210 550
          447 207 214 552 449 211
          214 552 449 211 218 554
          451 215 427 575 585 426
          429 578 586 428 429 578
          586 428 431 581 587 430
          150 152 489 492 153 155
          490 493 153 155 490 493
          156 158 491 494 48 588
          574 573 52 589 577 576
          52 589 577 576 56 590
          580 579 573 474 49 48
          576 475 53 52 576 475
          53 52 579 476 57 56
          562 509 238 237 564 512
          240 239 564 512 240 239
          566 515 242 241 372 556
          555 14 373 558 557 18
          373 558 557 18 374 560
          559 22 534 591 567 420
          535 592 569 421 535 592
          569 421 536 593 571 422
          521 556 372 469 524 558
          373 471 524 558 373 471
          527 560 374 473 178 3
          394 400 180 7 396 402
          180 7 396 402 182 11
          398 404 263 594 595 596
          267 597 598 599 267 597
          598 599 271 600 601 602
          549 355 354 384 551 357
          356 385 551 357 356 385
          553 359 358 386 0 228
          378 1 4 230 379 5
          4 230 379 5 8 232
          380 9 426 585 603 262
          428 586 604 266 428 586
          604 266 430 587 605 270
          582 546 87 568 583 547
          91 570 583 547 91 570
          584 548 95 572 474 573
          427 192 475 576 429 194
          475 576 429 194 476 579
          431 196 262 603 594 263
          266 604 597 267 266 604
          597 267 270 605 600 271
          537 468 208 433 538 470
          212 435 538 470 212 435
          539 472 216 437 36 438
          326 37 40 439 329 41
          40 439 329 41 44 440
          332 45 541 540 521 520
          543 542 524 523 543 542
          524 523 545 544 527 526
          1 423 387 2 5 424
          388 6 5 424 388 6
          9 425 389 10 498 447
          550 549 500 449 552 551
          500 449 552 551 502 451
          554 553 228 0 177 229
          230 4 179 231 230 4
          179 231 232 8 181 233
          507 582 568 606 510 583
          570 607 510 583 570 607
          513 584 572 608 588 48
          51 528 589 52 55 529
          589 52 55 529 590 56
          59 530 609 567 591 610
          611 569 592 612 611 569
          592 612 613 571 593 614
          596 595 615 112 599 598
          616 115 599 598 616 115
          602 601 617 118 414 591
          534 24 416 592 535 28
          416 592 535 28 418 593
          536 32 262 261 193 426
          266 265 195 428 266 265
          195 428 270 269 197 430
          223 610 591 414 225 612
          592 416 225 612 592 416
          227 614 593 418 477 458
          457 478 479 462 461 480
          479 462 461 480 481 466
          465 482 610 747 508 609
          612 748 511 611 612 748
          511 611 614 749 514 613
          549 384 409 498 551 385
          411 500 551 385 411 500
          553 386 413 502 223 734
          747 610 225 737 748 612
          225 737 748 612 227 740
          749 614 596 618 264 263
          599 619 268 267 599 619
          268 267 602 620 272 271
          507 606 609 508 510 607
          611 511 510 607 611 511
          513 608 613 514 582 507
          509 562 583 510 512 564
          583 510 512 564 584 513
          515 566 113 621 27 26
          116 622 31 30 116 622
          31 30 119 623 35 34
          112 615 624 113 115 616
          625 116 115 616 625 116
          118 617 626 119 609 606
          568 567 611 607 570 569
          611 607 570 569 613 608
          572 571 112 111 618 596
          115 114 619 599 115 114
          619 599 118 117 620 602
          113 624 627 621 116 625
          628 622 116 625 628 622
          119 626 629 623 111 348
          264 618 114 350 268 619
          114 350 268 619 117 352
          272 620 27 621 627 630
          31 622 628 631 31 622
          628 631 35 623 629 632
          633 27 630 634 635 31
          631 636 635 31 631 636
          637 35 632 638 639 633
          634 640 641 635 636 642
          641 635 636 642 643 637
          638 644 645 639 640 646
          647 641 642 648 647 641
          642 648 649 643 644 650
          651 415 27 633 652 417
          31 635 652 417 31 635
          653 419 35 637 654 651
          633 639 655 652 635 641
          655 652 635 641 656 653
          637 643 657 654 639 645
          658 655 641 647 658 655
          641 647 659 656 643 649
          660 222 415 651 661 224
          417 652 661 224 417 652
          662 226 419 653 663 660
          651 654 664 661 652 655
          664 661 652 655 665 662
          653 656 666 663 654 657
          667 664 655 658 667 664
          655 658 668 665 656 659
          669 219 222 660 670 220
          224 661 670 220 224 661
          671 221 226 662 672 669
          660 663 673 670 661 664
          673 670 661 664 674 671
          662 665 675 672 663 666
          676 673 664 667 676 673
          664 667 677 674 665 668
          750 732 219 669 751 735
          220 670 751 735 220 670
          752 738 221 671 678 750
          669 672 679 751 670 673
          679 751 670 673 680 752
          671 674 681 678 672 675
          682 679 673 676 682 679
          673 676 683 680 674 677
          684 753 750 678 685 754
          751 679 685 754 751 679
          686 755 752 680 687 684
          678 681 688 685 679 682
          688 685 679 682 689 686
          680 683 690 756 753 684
          691 757 754 685 691 757
          754 685 692 758 755 686
          693 690 684 687 694 691
          685 688 694 691 685 688
          695 692 686 689 696 759
          756 690 697 760 757 691
          697 760 757 691 698 761
          758 692 699 696 690 693
          700 697 691 694 700 697
          691 694 701 698 692 695
          702 762 759 696 703 763
          760 697 703 763 760 697
          704 764 761 698 705 702
          696 699 706 703 697 700
          706 703 697 700 707 704
          698 701 708 645 646 709
          710 647 648 711 710 647
          648 711 712 649 650 713
          765 708 709 766 767 710
          711 768 767 710 711 768
          769 712 713 770 714 657
          645 708 715 658 647 710
          715 658 647 710 716 659
          649 712 771 714 708 765
          772 715 710 767 772 715
          710 767 773 716 712 769
          717 666 657 714 718 667
          658 715 718 667 658 715
          719 668 659 716 774 717
          714 771 775 718 715 772
          775 718 715 772 776 719
          716 773 720 675 666 717
          721 676 667 718 721 676
          667 718 722 677 668 719
          777 720 717 774 778 721
          718 775 778 721 718 775
          779 722 719 776 723 681
          675 720 724 682 676 721
          724 682 676 721 725 683
          677 722 780 723 720 777
          781 724 721 778 781 724
          721 778 782 725 722 779
          783 687 681 723 784 688
          682 724 784 688 682 724
          785 689 683 725 786 783
          723 780 787 784 724 781
          787 784 724 781 788 785
          725 782 789 693 687 783
          790 694 688 784 790 694
          688 784 791 695 689 785
          792 699 693 789 793 700
          694 790 793 700 694 790
          794 701 695 791 795 705
          699 792 796 706 700 793
          796 706 700 793 797 707
          701 794
        </DataArray>
        <DataArray type="Int64" Name="offsets" format="ascii" RangeMin="8" RangeMax="3632">
          8 16 24 32 40 48
          56 64 72 80 88 96
          104 112 120 128 136 144
          152 160 168 176 184 192
          200 208 216 224 232 240
          248 256 264 272 280 288
          296 304 312 320 328 336
          344 352 360 368 376 384
          392 400 408 416 424 432
          440 448 456 464 472 480
          488 496 504 512 520 528
          536 544 552 560 568 576
          584 592 600 608 616 624
          632 640 648 656 664 672
          680 688 696 704 712 720
          728 736 744 752 760 768
          776 784 792 800 808 816
          824 832 840 848 856 864
          872 880 888 896 904 912
          920 928 936 944 952 960
          968 976 984 992 1000 1008
          1016 1024 1032 1040 1048 1056
          1064 1072 1080 1088 1096 1104
          1112 1120 1128 1136 1144 1152
          1160 1168 1176 1184 1192 1200
          1208 1216 1224 1232 1240 1248
          1256 1264 1272 1280 1288 1296
          1304 1312 1320 1328 1336 1344
          1352 1360 1368 1376 1384 1392
          1400 1408 1416 1424 1432 1440
          1448 1456 1464 1472 1480 1488
          1496 1504 1512 1520 1528 1536
          1544 1552 1560 1568 1576 1584
          1592 1600 1608 1616 1624 1632
          1640 1648 1656 1664 1672 1680
          1688 1696 1704 1712 1720 1728
          1736 1744 1752 1760 1768 1776
          1784 1792 1800 1808 1816 1824
          1832 1840 1848 1856 1864 1872
          1880 1888 1896 1904 1912 1920
          1928 1936 1944 1952 1960 1968
          1976 1984 1992 2000 2008 2016
          2024 2032 2040 2048 2056 2064
          2072 2080 2088 2096 2104 2112
          2120 2128 2136 2144 2152 2160
          2168 2176 2184 2192 2200 2208
          2216 2224 2232 2240 2248 2256
          2264 2272 2280 2288 2296 2304
          2312 2320 2328 2336 2344 2352
          2360 2368 2376 2384 2392 2400
          2408 2416 2424 2432 2440 2448
          2456 2464 2472 2480 2488 2496
          2504 2512 2520 2528 2536 2544
          2552 2560 2568 2576 2584 2592
          2600 2608 2616 2624 2632 2640
          2648 2656 2664 2672 2680 2688
          2696 2704 2712 2720 2728 2736
          2744 2752 2760 2768 2776 2784
          2792 2800 2808 2816 2824 2832
          2840 2848 2856 2864 2872 2880
          2888 2896 2904 2912 2920 2928
          2936 2944 2952 2960 2968 2976
          2984 2992 3000 3008 3016 3024
          3032 3040 3048 3056 3064 3072
          3080 3088 3096 3104 3112 3120
          3128 3136 3144 3152 3160 3168
          3176 3184 3192 3200 3208 3216
          3224 3232 3240 3248 3256 3264
          3272 3280 3288 3296 3304 3312
          3320 3328 3336 3344 3352 3360
          3368 3376 3384 3392 3400 3408
          3416 3424 3432 3440 3448 3456
          3464 3472 3480 3488 3496 3504
          3512 3520 3528 3536 3544 3552
          3560 3568 3576 3584 3592 3600
          3608 3616 3624 3632
        </DataArray>
        <DataArray type="UInt8" Name="types" format="ascii" RangeMin="12" RangeMax="12">
          12 12 12 12 12 12
          12 12 12 12 12 12
          12 12 12 12 12 12
          12 12 12 12 12 12
          12 12 12 12 12 12
          12 12 12 12 12 12
          12 12 12 12 12 12
          12 12 12 12 12 12
          12 12 12 12 12 12
          12 12 12 12 12 12
          12 12 12 12 12 12
          12 12 12 12 12 12
          12 12 12 12 12 12
          12 12 12 12 12 12
          12 12 12 12 12 12
          12 12 12 12 12 12
          12 12 12 12 12 12
          12 12 12 12 12 12
          12 12 12 12 12 12
          12 12 12 12 12 12
          12 12 12 12 12 12
          12 12 12 12 12 12
          12 12 12 12 12 12
          12 12 12 12 12 12
          12 12 12 12 12 12
          12 12 12 12 12 12
          12 12 12 12 12 12
          12 12 12 12 12 12
          12 12 12 12 12 12
          12 12 12 12 12 12
          12 12 12 12 12 12
          12 12 12 12 12 12
          12 12 12 12 12 12
          12 12 12 12 12 12
          12 12 12 12 12 12
          12 12 12 12 12 12
          12 12 12 12 12 12
          12 12 12 12 12 12
          12 12 12 12 12 12
          12 12 12 12 12 12
          12 12 12 12 12 12
          12 12 12 12 12 12
          12 12 12 12 12 12
          12 12 12 12 12 12
          12 12 12 12 12 12
          12 12 12 12 12 12
          12 12 12 12 12 12
          12 12 12 12 12 12
          12 12 12 12 12 12
          12 12 12 12 12 12
          12 12 12 12 12 12
          12 12 12 12 12 12
          12 12 12 12 12 12
          12 12 12 12 12 12
          12 12 12 12 12 12
          12 12 12 12 12 12
          12 12 12 12 12 12
          12 12 12 12 12 12
          12 12 12 12 12 12
          12 12 12 12 12 12
          12 12 12 12 12 12
          12 12 12 12 12 12
          12 12 12 12 12 12
          12 12 12 12 12 12
          12 12 12 12 12 12
          12 12 12 12 12 12
          12 12 12 12 12 12
          12 12 12 12 12 12
          12 12 12 12 12 12
          12 12 12 12 12 12
          12 12 12 12 12 12
          12 12 12 12 12 12
          12 12 12 12 12 12
          12 12 12 12 12 12
          12 12 12 12 12 12
          12 12 12 12
        </DataArray>
      </Cells>
    </Piece>
  </UnstructuredGrid>
</VTKFile>
