<?xml version="1.0"?>
<VTKFile type="UnstructuredGrid" version="0.1" byte_order="LittleEndian" header_type="UInt32" compressor="vtkZLibDataCompressor">
  <UnstructuredGrid>
    <Piece NumberOfPoints="819" NumberOfCells="454">
      <PointData>
        <DataArray type="Int32" Name="libmesh_node_id" format="ascii" RangeMin="2316" RangeMax="5735">
          2316 2317 2318 2319 2320 2321
          2322 2323 2324 2325 2326 2327
          2433 2434 2435 2436 2437 2438
          2439 2440 2441 2442 2443 2444
          2598 2599 2600 2601 2602 2603
          2643 2644 2645 2646 2647 2648
          2649 2650 2651 2709 2710 2711
          2712 2713 2714 2715 2716 2717
          2718 2719 2720 2766 2767 2768
          2769 2770 2771 2772 2773 2774
          2775 2776 2777 2808 2809 2810
          2811 2812 2813 2814 2815 2816
          2817 2818 2819 2852 2853 2856
          2857 2860 2861 2970 2971 2973
          2974 2976 2977 2991 2994 2995
          2998 2999 3002 3081 3082 3083
          3084 3085 3086 3087 3088 3089
          3090 3091 3092 3187 3190 3193
          3241 3243 3245 3270 3271 3272
          3312 3313 3314 3315 3316 3317
          3495 3496 3497 3498 3499 3500
          3501 3502 3503 3504 3505 3506
          3765 3766 3767 3768 3769 3770
          3852 3853 3854 4470 4471 4472
          4584 4585 4586 4587 4588 4589
          4635 4636 4637 4638 4639 4640
          4641 4642 4643 4644 4645 4646
          4659 4660 4661 4662 4663 4664
          4722 4723 4724 4782 4783 4784
          4791 4792 4793 4794 4795 4796
          4797 4798 4799 4812 4813 4814
          4815 4816 4817 4818 4819 4820
          4833 4834 4835 4836 4837 4838
          4848 4849 4850 4851 4852 4853
          4896 4897 4898 4899 4900 4901
          4911 4912 4913 4935 4936 4937
          4938 4939 4940 4944 4945 4946
          4947 4948 4949 4950 4951 4952
          4953 4954 4955 4956 4957 4958
          4992 4993 4994 5007 5008 5009
          5010 5011 5012 5013 5014 5015
          5016 5017 5018 5019 5020 5021
          5025 5026 5027 5028 5029 5030
          5040 5041 5042 5043 5044 5045
          5055 5056 5057 5073 5074 5075
          5079 5080 5081 5088 5089 5090
          5094 5095 5096 5103 5104 5105
          5151 5152 5153 5160 5161 5162
          5169 5170 5171 5178 5179 5180
          5187 5188 5189 5202 5203 5204
          5205 5206 5207 5208 5209 5210
          5211 5212 5213 5214 5215 5216
          5217 5218 5219 5220 5221 5222
          5223 5224 5225 5226 5227 5228
          5229 5230 5231 5232 5233 5234
          5235 5236 5237 5238 5239 5240
          5241 5242 5243 5244 5245 5246
          5247 5248 5249 5253 5254 5255
          5256 5257 5258 5259 5260 5261
          5262 5263 5264 5265 5266 5267
          5268 5269 5270 5271 5272 5273
          5274 5275 5276 5280 5281 5282
          5283 5284 5285 5286 5287 5288
          5289 5290 5291 5292 5293 5294
          5295 5296 5297 5298 5299 5300
          5301 5302 5303 5307 5308 5309
          5310 5311 5312 5313 5314 5315
          5316 5317 5318 5319 5320 5321
          5322 5323 5324 5325 5326 5327
          5328 5329 5330 5334 5335 5336
          5337 5338 5339 5340 5341 5342
          5343 5344 5345 5346 5347 5348
          5349 5350 5351 5352 5353 5354
          5355 5356 5357 5358 5359 5360
          5361 5362 5363 5364 5365 5366
          5367 5368 5369 5370 5371 5372
          5373 5374 5375 5376 5377 5378
          5379 5380 5381 5382 5383 5384
          5385 5386 5387 5388 5389 5390
          5391 5392 5393 5394 5395 5396
          5397 5398 5399 5400 5401 5402
          5403 5404 5405 5406 5407 5408
          5409 5410 5411 5412 5413 5414
          5415 5416 5417 5418 5419 5420
          5421 5422 5423 5424 5425 5426
          5427 5428 5429 5430 5431 5432
          5433 5434 5435 5436 5437 5438
          5439 5440 5441 5442 5443 5444
          5445 5446 5447 5448 5449 5450
          5451 5452 5453 5454 5455 5456
          5457 5458 5459 5460 5461 5462
          5463 5464 5465 5466 5467 5468
          5469 5470 5471 5472 5473 5474
          5475 5476 5477 5478 5479 5480
          5481 5482 5483 5484 5485 5486
          5487 5488 5489 5490 5491 5492
          5493 5494 5495 5496 5497 5498
          5499 5500 5501 5502 5503 5504
          5505 5506 5507 5508 5509 5510
          5511 5512 5513 5514 5515 5516
          5517 5518 5519 5520 5521 5522
          5523 5524 5525 5526 5527 5528
          5529 5530 5531 5532 5533 5534
          5535 5536 5537 5538 5539 5540
          5541 5542 5543 5544 5545 5546
          5547 5548 5549 5550 5551 5552
          5553 5554 5555 5556 5557 5558
          5559 5560 5561 5562 5563 5564
          5565 5566 5567 5568 5569 5570
          5571 5572 5573 5574 5575 5576
          5577 5578 5579 5580 5581 5582
          5583 5584 5585 5586 5587 5588
          5589 5590 5591 5592 5593 5594
          5595 5596 5597 5598 5599 5600
          5601 5602 5603 5604 5605 5606
          5607 5608 5609 5610 5611 5612
          5613 5614 5615 5616 5617 5618
          5619 5620 5621 5622 5623 5624
          5625 5626 5627 5628 5629 5630
          5631 5632 5633 5634 5635 5636
          5637 5638 5639 5640 5641 5642
          5643 5644 5645 5646 5647 5648
          5649 5650 5651 5652 5653 5654
          5655 5656 5657 5658 5659 5660
          5661 5662 5663 5664 5665 5666
          5667 5668 5669 5670 5671 5672
          5673 5674 5675 5676 5677 5678
          5679 5680 5681 5682 5683 5684
          5685 5686 5687 5688 5689 5690
          5691 5692 5693 5694 5695 5696
          5697 5698 5699 5700 5701 5702
          5703 5704 5705 5706 5707 5708
          5709 5710 5711 5712 5713 5714
          5715 5716 5717 5718 5719 5720
          5721 5722 5723 5724 5725 5726
          5727 5728 5729 5730 5731 5732
          5733 5734 5735
        </DataArray>
        <DataArray type="Float64" Name="resid_x" format="ascii" RangeMin="-0.003470317968905068" RangeMax="10.13247115540499">
          -0.000005689536324293698 -0.000008375234485935579 -0.0000029543902480000384 -0.0000030700324231691667 -0.000012037376531104371 -0.00001527345259511037
          -0.000004636830870818898 6.447242395513086e-7 -0.000018409210178926827 -0.00001301933023079016 -0.0000030276683998797793 -1.7112388861484362e-7
          -4.1158307073629885e-7 2.9888205643757715e-7 -0.0000015307164795697048 -0.0000017189465302269724 -6.32185400473162e-7 2.55515719693733e-7
          -0.0000030021840879967954 -7.44845429556662e-7 0.00000175844879124476 0.000003215429782876811 -7.797734640213605e-7 -2.954694731105434e-7
          0.0000066197579746685165 0.000009441980981766962 -0.000001318754093482255 -9.379787490881863e-7 -0.000007805450658260327 -0.0000013319226448982313
          -0.000002175365973577925 -0.000007362178239489481 -0.0000037810006658922646 -4.676691225391494e-7 -0.000005240468678557875 -0.0000027571443510510107
          0.000005567356042401883 0.0000010106855885538835 -0.000005739046241792778 -7.118284869878089e-7 -4.889313470757273e-7 -0.0000014149388678497132
          -0.000002488044754667129 -4.765049340105243e-7 -0.0000015961901975725112 -9.68028146641764e-7 -0.0000012622702625364468 0.00000589538817880042
          0.0000039463139909212686 0.000013918233532139723 0.000013192508666159952 -5.829396783063601e-7 -7.48914620762875e-7 0.000005495784823672523
          0.000008448449540843228 -6.368612170959409e-7 -0.000001072788873957009 0.0000042480677764356045 9.62137577165123e-7 0.000002010827373277735
          0.000005110386100848352 0.000008294184416612893 0.000006678621736089241 0.000004879359186582555 0.000004343461339040289 0.000006917120942917521
          0.0000017466656004883063 0.000002553103595870354 7.255344454115686e-7 0.000009034056504986232 0.000012494912493110633 0.000010802129601916732
          -0.000007640434344757807 -0.0000066779617897694266 -0.000011633234769714562 0.00002010525728524115 0.000022647908517692272 0.000020110463858635796
          0.000021503724487281772 0.00001530027025165026 0.000014261750493016478 -0.0000091202560708048 -0.000005073080686202047 0.000005894243843229674
          0.000006487618325223821 -0.0000027414585548335424 -0.000005326015508622106 0.000007430869247704308 0.000006082187883116319 0.000006766233392241361
          0.000011692772592386547 0.000010661841479020495 0.000008857878303070166 0.000011631112485588346 5.936176940279925e-8 -0.0000014526424525485027
          0.000009771223472870849 0.000004851391561588869 4.212533968733778e-7 -0.0000028649803359703796 3.376867782345361e-7 0.000011918951897227359
          0.000008945769780013824 0.000009897551815019057 0.000013097106810133763 0.00002876542349672384 0.00003705963366318343 0.00002272944152204026
          0.000005895433566438513 0.000022133461115902975 0.000010711989724576654 0.000013106542665508591 0.000012218018254683827 0.000018786905150447453
          0.0000016693036559434216 -0.0000046388046566203656 -0.0000014454733920643559 -0.000003011671451225162 0.0000017307313487646692 0.000002608377267621087
          0.00001721499906670587 -9.82749150946205e-8 -9.690254929584086e-7 0.000013184765597973325 0.00003666404508795296 -9.71552089890082e-8
          -0.0000013624808490320106 0.00003039201945753689 0.000024425845997821938 0.000009332441697651461 0.000007394262038662447 0.000023486869908495578
          -0.0000031294478701759942 -0.0000034097336326643912 -0.0000014123242702002159 -6.225553400157624e-7 0.000006028455978857039 0.000007733094922704464
          0.000007662028132404686 0.00001261806588637171 0.000011436698170497195 0.000007487360598634751 0.0000013453381512151807 0.000009552802609169575
          0.000012613393649552052 0.000012001884944323749 0.000022453275014822083 0.00002113793055125157 0.000013275910596188822 0.000011546790646521643
          0.0000028606722177748622 0.000004489071662949762 -2.793917239646282e-7 0.0000014592921666611858 0.0000014466752304154173 -2.5536779468815496e-7
          0.000009911756420677431 0.000009862677419203436 0.000003546568656198623 0.000004906188026954084 0.000011981773094027481 0.000011287294123585312
          8.481670756843585e-7 -0.0000035549229182585407 0.000004337948378507761 0.000016609231875408526 0.000003514673222682063 0.00001250177598077773
          0.000009660850272430466 0.000001915246066241938 0.000009937258691514184 0.000012339659362703426 0.000001101660954794248 0.00001114134814189649
          0.00001466418289020055 0.000012556302362076721 0.00001253992146610372 0.00000466421048062049 3.9946058172368737e-7 0.000008107930566936261
          0.0000019590493001153675 0.0000049413944166465384 0.0000021223619595112098 -1.1200847271908287e-7 -9.039636561514186e-7 0.000008988319089908714
          0.0000028631396340461635 6.828645652823262e-7 -7.483213573244996e-7 -1.2961146339529606e-7 0.000007794012510276005 0.000006204682873156564
          0.000012104774617993641 0.000006599829061815221 0.0000025701663817212506 1.8034943916056534e-7 0.000010172613611469927 0.00000898859291298404
          -0.000004094798325748883 -0.00000381222069167908 -0.000003851897741879995 -0.000005122882961394737 0.000002543103410301839 -0.0000051569305999921156
          0.000011252168982345268 0.0000027075592756720113 0.000006902012469889307 0.000006384656004332356 0.000007755234959994084 0.000003563026180763984
          0.000021317439868440147 0.00002460542682314326 0.000019416935128635515 0.000007298443339687211 0.000003631748064170104 -0.0000017776207013042722
          -2.2746780869997707e-7 0.00000528778653774431 0.000002443199591195544 -2.3269477644749514e-7 0.000005121647371097993 -4.6554488719596776e-7
          0.000011459965926996496 0.000003288004122969923 0.000007660203019455025 0.000005125367696701133 0.000004796797676620557 -4.783093456861565e-7
          -0.0000012903102072359118 9.03996835721621e-7 -6.369607717937598e-7 0.00000480580031592126 0.000006351205696253359 0.000005663880739303906
          0.000008620008819737457 0.000013356362301597535 0.000009292833793361766 0.000009812900816363879 0.000008132046529829573 -0.0000012479749453842004
          6.952781580471523e-7 0.000006683365764814653 0.000007031591635175971 -0.000003728447371509347 0.000001058853837943019 -0.0000043346846232417136
          -1.7480953529158683e-7 1.1114337294948484e-7 -0.000002278685541590164 0.000009878089037296256 0.000011574342907771928 0.000008060310153990002
          0.00000664932916671912 0.000004322294489655931 0.000004093324398324327 0.0000051147130357698245 0.0000030940058377559865 0.0000040080486418681005
          0.000007758268229962617 0.000008115263177121967 0.00001568695317444302 0.000012997680756021701 0.000007656976489522904 0.000007500200321697292
          0.000009368269025089582 0.000010712166738757745 0.000007591542258822415 0.000006414234499207971 0.000015699820371972706 0.000005713777371130213
          0.000007437357464779026 2.3850045560713795e-7 0.000004105752630767512 0.0000056523546890785425 0.000017385137102143844 0.000007837634449114894
          0.00000991253735771469 0.00001564386165309184 0.000007943246271291393 0.000023816673666576804 0.0000343903839938875 0.00002436923925630552
          -0.000014417583670933709 0.0000138296784877312 5.955622013331663e-7 -0.0000056604943363680604 -0.000006280225163024511 -0.0000176485039435903
          -0.000005492843961896199 -0.000010429060187888695 -0.000019193452637011887 0.000004001837598188729 -0.000010261057957094977 -0.000012601085840557857
          0.0000528977423943644 0.00007330620954082434 0.0000348650635184633 -8.38303099826021e-7 -0.0000017272545549396057 -0.000005054214048172412
          -0.000005723102272980896 0.0000020362925141625965 -0.0000027556227513159115 0.000004633724577818299 0.000003018047964431503 0.000009264252872842604
          0.000005914879892543468 0.000012121482230842417 0.000012470235748462954 0.0000021119457263019115 0.000007700895697571042 0.000005823767321277984
          0.000006851397388096814 0.000011830852763683453 0.000012098155823814238 0.000003884553453570305 0.00001067636350127188 0.000007256712101444407
          0.000005769338699224136 0.000013663718553935666 0.00001883920559242469 0.000004389351552447351 0.000005506034967073248 0.000005573480296394706
          0.000006072132136214492 0.000013958584816453623 0.000006020232603987097 0.000004666885244475338 0.00001387069610814251 0.000005236636041239251
          8.842154164412364e-7 0.000016764196702379053 0.000018385596287195938 0.000006347843586773649 -0.000005031047289882906 0.0000052742079317269486
          0.0000053477531691825675 5.694330980077211e-7 -0.0000022316880996520183 2.3330337217686292e-8 0.000013863118267565255 0.000005947906772441058
          0.000003497414422515277 -1.6986965034604395e-7 0.0000017482563952064822 0.000007873959769533201 0.000016833512711755816 -0.000005482477280160936
          0.000002292169518192111 0.000010220122831583467 -0.000007621561072035377 -0.000015478595351225977 0.000007702487379024348 -0.000010962529796376685
          -0.000025578244068569234 0.000007186568245831637 -0.000014075215880371417 -0.00001466012625828128 0.000004998271295519885 0.000013975943789379386
          -0.000020592630536775403 0.000008483176113127655 -0.000006445353058825987 0.000010818624373687413 0.000003708228643706235 3.748617456444947e-7
          -0.000028031191654065424 0.00001055137259164951 -0.000011477254695080319 0.000007416076122090942 0.000016703202760481872 -0.000001556340793129607
          -7.406793465225547e-7 0.000012074968143593878 -0.0000022462292350589053 -0.000021723558752295702 0.000011927103853226484 -0.0000076029885747175285
          -0.000028735290400039304 0.000011233478403038788 0.0000024412506813842327 -0.000025692842506197522 0.000009895021335415422 0.0000066358619990047885
          -0.000013460356402372753 0.000010157313864667117 0.00001034451031900474 -0.000015699986787076625 0.000009357179671987126 -7.715711589639795e-7
          -0.000014696309434292232 0.000010448739689028486 -0.000010686443554952518 0.0000026519882361242253 -0.000004637384606098749 0.000007138149288543616
          0.0000028130315536945005 0.000014977896959367243 0.000019087747877399863 -4.690954389374724e-7 0.00001563262316106595 0.00002503176370383109
          -0.0000012908133759648166 0.000015328975671247136 0.000026060682956075 3.340859771050475e-7 0.000015057434174181594 0.000025736934193609784
          -8.516190730389894e-7 0.000014142730276445192 0.000024951808094586525 -0.0000022354475213148817 0.000013017863516040507 0.000011424796146242144
          -0.00000973585218888573 0.000013587759339905858 -0.000008224207852070009 8.510060718336376e-7 0.00000569799813021632 -0.0000011763029625910804
          0.000010787471796280812 0.00002162818103013109 0.0000309329019410054 0.000015546080653683347 0.000023562095406104433 0.00003447688613666955
          0.00002113004113302175 0.00002471417564753331 0.00003642520393865034 0.000015375982200582783 0.000023040492142412106 0.00003168050171398207
          0.000011063615800610549 0.000020647509316962243 0.00003170769110871774 0.000003593331374451836 0.00001642768225096347 0.000014146731651454303
          -0.0000017394718563323863 0.0000164864883349658 4.419810428757387e-8 -0.000004752607645652773 0.000015032334669484726 -0.000020515127050924065
          0.00000915122770317467 0.000019852409361753587 0.0000015859886883795582 0.00001430103958410811 0.0000310999687438418 0.00002460559080263991
          0.000012171160805207748 0.000037304947114735754 0.00002679217668877243 0.0000105556500480386 0.00003992539350750057 0.000027930626147476545
          0.000009440014353323534 0.00003761097117349621 0.00003157841834999786 6.521325099928532e-7 0.000030517240326988215 0.000024115782430333965
          -0.0000014044796250445302 0.000021389072285105115 0.000002697360492520673 -0.00001872179397688356 0.000016002500959011456 -0.000013580487050024459
          0.000007425095115642932 0.0000015910740156499514 -0.000015146938108223651 0.00001303588891188312 0.000027812769486157407 0.000009036849532684244
          0.000010648915226507683 0.00004709286004977997 0.000023433177882115075 0.0000032514675649686353 0.00006196581631146003 0.00003052452029805863
          0.0000011853281842721941 0.00006719208454741832 0.000037992346519688525 -0.000001987351936127979 0.00006049015523057477 0.00003837091668823511
          -0.0000062755279726101065 0.000043470252256927466 0.00003283157680145088 -0.000020677567933891083 0.000018687796028871162 0.0000012044518191700604
          -0.00002904253405988655 0.000007567261575136541 -0.000012275341135570272 0.000003737864287423065 -0.000013623852032296213 -0.000029243161083769564
          0.000017585107297435343 0.000033529674764665174 0.00001826752999400938 0.000026761614491555008 0.00007707684866531395 0.00004551442470868139
          0.00002197365266320972 0.00010560065405096353 0.00006107669963872908 0.000017072793496941685 0.00011397510488775353 0.00007211672988427509
          0.000010713902844461387 0.0001011989865271623 0.0000752221020490218 -0.0000013940646568233461 0.00006568111458760129 0.0000607821731439806
          -0.000018308582690584885 0.000011017021297243801 0.00002641553963877996 -0.00003036054058935811 -0.000019694807511516643 -0.0000057413195844180365
          -0.000015052297313911112 -0.00005702135093876848 -0.000048213923361295485 -0.00008358929012119987 -0.0001746318953648185 -0.00008720965299646721
          -0.0001496249062906685 -0.00028816635797479506 -0.00013395882347122523 -0.00020448016304586147 -0.00036820137386195384 -0.00017165840791655285
          -0.0002228458925030985 -0.00039883790602823765 -0.00017810864255807246 -0.0002142906563622482 -0.00037696771071038526 -0.00016277355859273257
          -0.00017076173862151656 -0.0003067051927776454 -0.0001223043633393761 -0.00010987766828329804 -0.00020878137076629777 -0.00008107504379295527
          -0.000056138163774921424 -0.00011116764000207446 -0.00004825293938681696 -0.000011296197999666191 -0.00002036539387351155 0.0000013202157220781885
          0.000004451568202501477 -0.000014033720789008441 -0.000020159328766311546 -0.000025199637710304756 0.000009459534867417574 -0.000022368158646646208
          -0.000025095722574697277 0.000008815215259083686 -0.000021830820585488908 -0.000018251716045192268 0.000012317527899874392 -0.00000776279110548117
          -0.000013370908149568095 0.000013020430096322144 -0.0000014504172258789083 -0.000031744493950380814 0.000009081710629743611 -0.00002179350355913101
          -0.000037278639462901 -8.129829915937137e-7 -0.000026176759182483522 -0.000017723234513766783 -0.00001951797260346666 -0.000014470138966826696
          -0.00002465236773718793 -0.000046713895986538745 -0.00003102281772959792 -3.566653665743047e-7 -0.000009850311605941187 0.000003310071111872759
          0.000006376741678248976 0.000001588121060436265 -0.000003216904307379309 -0.000020402107059780406 0.000010175184472771548 -0.000013899695920915889
          -0.000026709341846675727 0.000011080126967044635 -0.000012991181488786196 -0.000028326375950182836 0.00001577152253418035 -0.0000044808788532968435
          -0.000015022933714359255 0.000019071046921670387 0.0000017046679583465618 -0.00002722932304566328 0.000013380878280955244 -0.00001892483707033321
          -0.000034978642520222536 -0.0000020035670953433282 -0.0000266024382975516 -0.00003798461386117502 -0.000023503895975274247 -0.00005021672807403732
          -0.00002563091538831941 -0.00003333519634418636 -0.00003822539847231354 -0.000023105004243184624 -0.00003078575666348726 0.000003276784772410224
          0.000006987359483900946 -0.000009834581231604744 -0.000011963455454733207 -0.00002826873564210075 0.000010031781470853929 -0.000007802613229301869
          -0.000026118223048765543 0.000014454309631872775 -4.88294559009006e-7 -0.000009218931692256405 0.00002225203007544252 0.00001693169583072418
          -0.0000010182633674027386 0.0000300827925139302 0.000011514021049041645 -0.000020861435054975175 0.00002578198504998852 -0.0000015021743360321693
          -0.00004149275580078715 -0.000008079201131439007 -0.00003035365248438282 -0.00003922280123824784 -0.00003925399305337862 -0.00005309412315002149
          -0.000021160892712757118 -0.000027105117433423587 -0.00003557001233867041 -6.238100347388809e-8 -0.0000038037334855189897 0.0000031586286390883345
          0.0000069363621815199394 -0.00000837604586756413 -0.000011800249588134193 -0.000011971790828013695 0.000011528672071214885 -0.000012505167735543665
          -0.00001065647173659201 0.000020327227449268293 -7.009247187106382e-7 0.000003799494709078033 0.00003722649124515698 0.000023157169656062848
          0.0000198253224112932 0.00005861547965224645 0.000034393496621376585 0.0000038023519226548785 0.00005701685859049732 0.000005971854343034266
          -0.0000279537627481119 -0.000015057795465178714 -0.000039717091247171155 -0.00007224960979268502 -0.00009696063774522479 -0.00008549627468745769
          -0.00003173622594387915 -0.00004278908131238879 -0.00003307332022628451 -0.000007585586402569788 -0.0000047034854562255646 0.000004513841477482572
          0.000009715349266414819 0.000001566220159343601 0.0000027904760102615 0.0000021075332843345507 0.000015933312115468112 0.0000151841993853985
          8.493667968956231e-7 0.000029083880757951874 0.000016315206253558756 0.000026015252261757382 0.00006400155456010026 0.00003939214245951561
          0.00004334270437933441 0.00011914473566099204 0.000047384855119680935 0.00006398799478324335 0.00014654930203539251 0.00006119120904202191
          -0.000032645608197157117 -0.00001745795233709657 -0.000030759204429742226 -0.00017262887712354846 -0.00029742289443923653 -0.0002276330085271283
          -0.00010637024333370881 -0.00017529423734097271 -0.00014237200357425372 -0.000011789945664641976 -0.00001708486224893946 0.0000012198494934168025
          0.000004432475618099119 -0.000006905676371626868 -0.0000047121973727470845 -0.000015386763562830197 0.00001466767384217249 -0.0000011628596552348824
          0.000010913373449827901 0.00004693880960404684 0.00001341963597445428 0.00006807001082531627 0.00014364720872483971 0.0000675841173918279
          0.00013936468133879387 0.0002772664056469587 0.00013834180312333189 0.0000888930493476714 0.0002193917863686501 0.00009795914044818943
          -0.00005734289154957217 -0.00006809949403807636 -0.00007395883560312733 -0.0004964003698026964 -0.0009816853404871484 -0.0007150956625368021
          -0.0002451881811103007 -0.0004984517200945504 -0.0004416906863839998 0.00006543731070784986 0.0001304963981070273 0.00014705891945521188
          0.0003076792302429965 0.000005839310779354179 0.000023495605964818367 0.00016491991935563277 0.000353766239532316 0.00005969568823793736
          0.00010146681567402283 0.0002366018944783832 0.000011352396438013557 0.00001562640462182685 0.00005390043866126959 -0.0001034983974066428
          -0.00012415823132494452 -0.0001921696384536986 -0.0006141699487010044 0.000029151891153933462 -0.000029475431601699853 -0.00038467063220215536
          -0.00004062000883897632 -0.000053378696743600074 -0.0000718244073605323 -0.001736578858077431 -0.003470317968905068 -0.0023339211622170897
          -0.0013789338251022354 -0.0027397332258740636 -0.0023130776551056886 0.000406100609371407 0.0008007425371805432 0.0007492329511329388
          0.0014660901862977305 0.00015569336113996357 0.00030142076858163946 0.000703047331212403 0.0012640483943782144 0.0000990606216459966
          0.00011815486254862506 0.00017575668275693346 -0.00009286481905501631 0.0009199744561025902 0.0018400044226121182 0.00024526249479261963
          0.002252094042901387 0.004598312193191845 0.0006471365964819675 0.00030275759934328406 0.0005673036090305672 0.0017099183648370264
          0.001029163277103784 0.0019639424278488082 0.0030836832602922915 0.0035544755301186726 0.007227966633764904 0.0044858140501993216
          0.009818682074270946 0.019736229561442054 0.009260524287326266 2.545774486011417 5.066223090119717 5.0915640956810035
          10.13247115540499 2.5444869976537334 5.063599768523512 4.989046734114633 9.978118988042299 4.9864630744439875
          4.857097587984115 9.714250653973771 4.856806219948151 4.667622934471529 9.335267659328013 4.667322861629469
          4.423884033623737 8.84777042640419 4.423251559266237 4.142783460970763 8.285499618514454 4.1438568079578815
          3.8609641975921067 7.721723320349578 3.8611179299206935 3.641506532643235 7.282843111957378 3.639182978049977
          1.7771578989904981 3.55418845463336 1.7738929767229177
        </DataArray>
        <DataArray type="Float64" Name="resid_y" format="ascii" RangeMin="-0.6684158827863003" RangeMax="0.7667145462579457">
          -0.000005506447187761387 -0.0000046107074906237555 -0.0000035005417986398377 -0.000010110169914728795 -0.000009656035442964783 -0.0000065411571786855305
          -0.000003217503673809928 -0.00000467796958773109 0.000021663784119246854 0.000035888629830685415 0.000035122602233599205 0.00005368014975480617
          -7.28708483324278e-7 -0.000004226145175264574 -0.0000037323864753927016 -0.000004086340058856441 1.157839823445056e-7 -7.609602741031132e-8
          -0.0000030796265049343186 -0.0000033180800530843713 0.00001967623435746718 0.0000279455104119173 0.0000288314414489399 0.00003194232213083251
          0.000015082355446907614 0.000014617898958428285 -0.0000027987110386602787 -0.000005911575168455335 0.000028761295164506095 0.0000404868421217848
          0.000014725792620004508 0.000006372169415385515 0.000017409059943775118 -7.43957458193556e-7 1.7205637921346995e-7 -0.000003995105248219555
          0.000024373607766706162 0.0000183380123908658 0.000027221859541202986 -3.317891582865773e-7 -0.0000011615379217474672 -0.0000011968707632676635
          -0.000004144583937056023 0.0000014867909777054045 0.0000020683515205145546 -3.3226339359970596e-7 0.000005464481299738075 0.000026367843279311194
          0.000016882147854051233 0.00003171820341359957 0.00003954727860535842 -9.369685367475403e-8 -9.764114098013803e-7 0.000017996466963152765
          0.000011058151498320387 3.832697909599307e-7 -0.0000014586987559617008 0.00001872834964619088 0.000009824427506438527 0.00001549415241559513
          0.000013934018097662426 0.00003123398575359017 0.00003708495975838014 0.000002233863081679832 3.160013932780592e-7 0.000015342208420322453
          6.221688175908017e-7 4.260066888486791e-8 -1.0563870071235437e-7 0.00002095719456530077 0.000023107401816636897 0.000025361492036890185
          0.000017689571241000235 -0.000003425028353626347 0.00002079363170459647 0.00003081261758448861 0.000028919084839013065 0.00002258110369718347
          0.00002737870804195297 0.000018293797407031853 0.00002378814651136929 0.000029251344978567517 0.00002705766681349031 0.000004844108771107081
          0.0000066845476559725114 0.000009924707299616142 0.000006050075401662844 0.000004521177250923526 -0.000004133782185816032 0.000001794453739511516
          -0.000006426693231534157 0.00000961339573985441 7.62206445929e-7 0.00000966732759701168 -0.0000017461082611781864 -0.0000018195080515060478
          0.000013899047102126395 0.000003472920442604971 -7.837343102383432e-7 8.512087051214994e-8 0.0000034829317867831125 0.000023089515682862306
          0.000013254751448889095 0.000021452539583504326 0.000033606966439014146 0.000003852333174101091 0.000005788750047633004 0.000005340610440271194
          -0.0000067276477479336246 -0.0000051429107100113905 -0.0000014821498049320467 0.000021151530391880224 0.00002370060299952681 0.000009735694722276533
          0.00001916568098148108 0.000009963737034181935 0.0000021390512620570595 0.000002240828088553165 0.000027360836635835842 0.000021167050468708093
          0.0000012693726612056366 -3.436326342955154e-7 -7.803277203705106e-7 0.0000011471769593880687 0.000004937441980559787 1.8482687075271897e-7
          -3.4536223351630535e-9 -2.26668880033698e-7 0.000008142136269914668 0.000009978549899297001 0.000008574205571531927 0.000009053653356384805
          0.000020141805341690466 0.000010948977197951237 0.0000012579997956084499 -0.0000032636925563602273 0.000030459188889071093 0.000034517351476323274
          0.0000033661288256284227 0.000010460123042045633 0.000011724988103869842 0.00001909183749754977 0.000008090982400661348 0.000025752466662667256
          -0.000002916202581932509 -0.0000018542436746875508 -0.000006794557741392204 -0.000006091087765721509 1.2297757395578202e-7 -5.082425689282438e-7
          0.000014325965831605376 0.0000031008221731288615 0.00000843978035445581 -0.0000018047728350823865 0.00001830629478694675 0.000015847399801321212
          0.0000026535295811064286 0.0000034233986074098943 8.166809603595525e-7 0.0000037441430301606016 0.000012392678256248433 0.000010320124850832224
          0.0000014979518443329967 0.0000012384121147214489 0.00001055844801940535 0.00001553495227005902 0.000024027785735278306 0.000018010370314992807
          0.000013123482799915799 0.000006812740604612497 0.00001902426853102844 0.000006883908021235521 2.6220421288618984e-8 0.000013275281489173642
          0.000003845510808946941 0.000001814345478681409 0.000006706964010737976 -0.0000016298982391292432 0.0000012935982474969812 0.000008754287548982595
          0.0000016547973607956845 0.000011368761100777282 0.000004897071395326084 0.00003177485783739664 0.000005481695425007399 0.000025691356499255025
          0.000027126581203459205 0.000007501374084320901 0.0000012864869585009486 -0.000004428184950690294 0.000021075745036763793 0.000017159028796789703
          0.000023399479479283003 0.000012344103342513436 0.000004194964656610567 0.000001633537002565695 0.000017555168922055858 0.00001127675727490441
          0.000024577407630704817 0.000010979887978633703 0.000006178230773777604 0.0000021923609902574706 0.000027398161897861095 0.000021087572677554612
          0.000011119218811424247 0.0000014101130378189886 0.000008995465821618615 0.000013322126107678193 0.000006640656007935938 0.000006549313272038743
          0.0000035341825919636 0.0000015018793837369426 0.000005608026324875268 0.000012352309836903726 0.000005850518832506424 0.0000026910401474391707
          -7.9462471934931e-8 0.00001908375489638979 0.00000521775012702003 -2.7617085499552496e-8 -0.0000012863044906131441 -5.456410217641143e-8
          0.000005981417745369935 0.000008718421593517049 0.00001129730733149582 0.000020145888197970743 0.000013712197327748468 0.00000881790809358616
          0.000008862919635105912 -9.102442835779746e-7 -0.0000012911233126437858 0.000017277466116325337 0.000015323460703079014 0.000011145408770685651
          0.000012867355154635258 0.0000034311672608272874 0.000008435887615214615 0.000012845086659774019 0.000021703187496200212 0.0000010107663204403372
          0.0000016061801658222546 0.000010586968419108722 0.000012773903044530031 0.000021620294649845728 0.000013605360997771473 0.00000272996470892942
          0.000004659487947582253 0.00003036113405743661 0.000026408090803956702 0.000016079414322965483 0.0000043608972867552245 0.000007886236272348609
          0.000021466845191114295 0.000008462984620335556 0.000011200450534953909 0.00001621490483062933 0.0000030023622284887364 0.000011335542097430651
          0.00001706116000887146 0.000016985869489015795 0.000008429513085477002 0.000010905377316559471 0.000011834714629581486 0.00001235464543054962
          0.000018581428047245263 0.000009838258922796584 0.000012236424372236783 0.00001993089482784727 0.0000037357827175870783 0.000012380694394180164
          0.000025487297333450648 0.000006052098628219621 0.000014389490693322848 0.000022855889462850172 0.0000016510580371641333 0.000008062096318526592
          0.000020738749600022425 -3.1089193807971177e-7 0.000009592079075753431 0.000023682975976477283 8.108830272385292e-7 0.000012739263980860935
          0.000004688665467754774 -0.0000027317189117597243 -6.575342290024433e-7 0.00000526527691563361 -0.000012440009875991365 -0.000005003812010156983
          -0.0000032179907947516018 -0.000008051712414580692 -0.000005859064944491177 -0.00000156081068156122 -0.000018473304395777435 4.158314221430759e-7
          0.0000027447058781153444 -0.00001245779233270683 -0.000002675435894477357 -0.0000013763895491403222 -0.3341896988516689 -0.0000023789518244221597
          -0.6684158827863003 -0.000016263541955968686 -0.3349289108311157 9.456076988934026e-7 -0.2937499609722296 0.0000018888603701416873
          -0.5875360043685054 -0.000020425963768250233 -0.29455984337076335 -4.860102341963657e-7 -0.228168652154353 0.000002939681746999545
          -0.4563674869657748 -0.000011397189298212318 -0.229002668415799 0.000002453576572844507 -0.14134863912490245 0.0000020190121207408485
          -0.2827203337897834 4.572082470677419e-7 -0.142107209578812 0.000003166191322477585 -0.03988743754409962 9.349750020905268e-7
          -0.07978768724182202 0.000007060888018002587 -0.04043430120387807 0.00000406374008658783 0.06812684950450022 5.425639251419034e-7
          0.13625210468668056 2.3761929496268763e-7 0.0679323106497066 -4.8011942749282e-7 0.1745661236574974 -3.0039322347630293e-7
          0.34914342727602576 4.128775266676321e-7 0.17481211743890804 0.0000020206627368846153 0.22461456213940134 1.9782705526494304e-7
          0.4492404362882564 8.668302421688256e-7 0.225130845357105 -0.000011832497054692359 -0.0000074851097756900575 -0.000007204755618189784
          -0.000015085144784904303 0.0000018911213198191668 -0.000014851911757207681 -0.00000871768176441412 0.0000015596898827741068 -0.000009817428210240342
          0.0000037447628051939796 0.000004124777956235337 -0.0000026625102975963433 0.000004609441805913939 0.0000010388835255878415 0.000002329114567670154
          0.0000056721209177029025 0.000003942187314137993 -0.0000014179024875170948 0.0000011419918454907974 4.6708820210239477e-7 0.000002742567949645669
          -0.0000033424909304594075 4.592170095227277e-7 -0.0000034472969625623517 -0.000008916908945333368 0.00000865486882378752 -5.043013749650438e-7
          -0.000011756059813600173 0.000006136137257112262 -0.000001120895500139607 -0.000009341088513054041 0.000007834108215837299 -0.0000029014289960049844
          -3.326444648760196e-7 0.000006801539864723094 -0.0000031784769531223445 -0.0000010934800435263847 0.000006359771870523279 -0.0000056533581997697535
          0.0000036553095476427044 0.000004756821142599954 0.000001333784427631421 0.0000013129617962778783 0.000003851779087585272 0.0000011605143540038831
          -0.000002140099601539991 0.0000014032019114949834 6.090190685821562e-7 -0.000005683836622583094 0.000012594724059511453 -0.000006002038555386058
          -6.440228776938284e-7 0.000007843775008120613 -3.107802056812048e-7 -0.0000019001118037598186 0.00001096954050813781 0.000002252506203198612
          -0.000005055168345702299 0.000010380210045679572 6.558230506992224e-7 -0.0000015338904612027804 0.000009751996040432975 9.321497328046435e-7
          -0.0000021229591930863045 0.000008002479656071815 3.970630353539173e-7 0.000004012214929058344 0.0000065265959910939045 0.0000058436865204942665
          8.433615803979388e-7 0.000003494357398881043 0.000006073576354910515 -0.000011106892964407589 -4.553998959044847e-7 -0.000018820579426481743
          0.0000019489119381654874 0.000007580784100791327 -0.000011292108868521389 0.0000029216258444764165 0.000013119618799795063 0.0000014000982511142013
          0.0000023576673512104573 0.000014147656095503391 0.000009406197961525642 5.742939046815554e-7 0.00001479842399290665 0.000006738493685154445
          0.0000050448426039129135 0.000013589312286968469 0.000007174002844112515 0.000005738536398999794 0.000011768088324912163 0.000004559219968371109
          0.000003856654686579253 0.000006895628687123012 0.000006152539005405133 -0.000029177721804607426 -0.000022629359478054667 -0.000017495711501169797
          -0.000023581043286979853 -0.00000822183063520221 -0.000041647043792336635 -0.000007400467603502214 0.000005481650283856165 -0.0000228917370461712
          0.0000028637382761820263 0.000014661647119829091 -7.165399315556265e-7 0.00001016441364570797 0.000020570049845736182 0.000012450816888109895
          0.000012216174551715753 0.000024433884881880363 0.000015135747385819354 0.000008062782902301668 0.00002504455268709238 0.000012700782851593484
          0.000012652430306681062 0.00002193014244385172 0.000010357604971311662 0.000004729599801855944 0.00001398923229350979 0.000002930468288725452
          -0.000015963847462385772 -0.000021789861492260698 -0.000028102183961098426 -0.00003527440249695424 -0.000011860974916177991 -0.00004315887643768779
          -0.00002626523558452165 -0.0000020427361839270297 -0.000028039593571949073 -0.0000016512368389287602 0.000014453608660036643 -0.00000294141294870931
          0.000016884943210782044 0.00003064537399199985 0.000017170192918469773 0.000020042525274099887 0.000044051860098648365 0.000026765289444508067
          0.0000223279870372739 0.00004973009000741602 0.00003314547297939008 0.00001873805696858688 0.00004503031941166524 0.000023990335440760013
          0.000007336416166348059 0.00002740201506712392 0.000007600714140743037 -0.00003576559327922446 -0.000046847525487225816 -0.000040101776294543257
          -0.000051484034562176983 -0.000044343929586132536 -0.000055183451153850704 -0.00004161293758675466 -0.000023644755756002667 -0.00003581452527912088
          -0.0000069128167560217335 0.000007562905294467015 -0.000002052005628638831 0.000017169042915154975 0.000042984764971998324 0.000026775867964401456
          0.000035040438477573765 0.00007508370907116646 0.00005226173346839502 0.00004432445668361984 0.00009397489879192644 0.00006521929313990649
          0.00004532762996087292 0.00009409310292651796 0.00005466354100086557 0.000012210650993160765 0.000045755755498866346 0.000017253916465259644
          -0.000036405813076484383 -0.00004016395938261086 -0.00002367143086495771 -0.000059183325722911295 -0.00006554962099591943 -0.00004082575767649921
          -0.00006915693063402895 -0.00009497940482894318 -0.000051170884073359346 -0.00007165652121554622 -0.00012390305852050254 -0.00005918442534869062
          -0.00007720764445040551 -0.00014316453586649125 -0.0000634802841571469 -0.00007378936248059187 -0.00014105730117008886 -0.00005821028521446614
          -0.00005407367861198775 -0.00011198603347650771 -0.00004179288110417456 -0.00003058585329263064 -0.00005145347500390418 -0.000020150477516356347
          -0.000013070838687623265 -0.00001380863113192854 -0.000009521986459093412 0.2348166292800952 -0.0000020939532782426884 0.4696531157747318
          -2.646767571362618e-7 0.23541669457801173 -0.0000020873695693729433 -0.0000010759365950963051 2.7460476972884784e-7 -1.5158585574270855e-7
          -0.0000029023903445196675 8.13449086131679e-7 2.479838734012474e-7 -7.080652699529427e-7 0.0000020716589621064263 0.0000031431693934616534
          0.0000014163426439173232 0.00000397421257329611 0.0000019404308426868022 0.0000035935259594666036 0.000006844644037773406 -0.0000020756828344459244
          -0.000003103835099355079 0.000013113187320917818 0.000002175906112594772 -0.000004481901047931336 0.00002038863341752295 0.0000035585954878403214
          -0.000011005680591036349 -2.2020213588658244e-7 -0.000004447391593109806 0.27239450560541445 7.333926714675476e-7 0.5448108451771808
          -4.4337778559722096e-7 0.2730811246643269 -0.0000022180363521279167 -0.0000033745529469941804 0.000001542538158566531 -0.0000059508451083073455
          -0.0000010403487246749 0.0000011981605016544994 -0.0000034958933405812576 3.352226718073871e-7 0.0000021539182263738063 -0.000002176309035732335
          0.0000037902872491654693 0.0000029808886652313293 -0.000002705098751804025 0.000002188642965555987 0.0000016339112717533855 -0.00000833405049502356
          -0.0000034904743095309776 0.000008329075122243124 -0.000009046208722107707 0.000002873707755812749 0.000025097196096113272 -0.000004236122524425845
          -0.0000012978950950925938 0.000011575276810643631 0.0000017496244147097162 0.3042652915064229 -0.0000018106440727860829 0.6085565567042017
          -3.378198903947194e-7 0.3050093185735885 -0.0000016353618070841236 -6.685477028228748e-7 -2.9764153641753666e-10 -0.000005434790404143519
          -0.000003959712938816917 0.000003105430682673327 -0.000007829105480125498 -0.000005215749798778008 0.000005090989544861979 0.0000012593001303719265
          -0.000001925986148121339 0.0000056456676931562755 -0.000002847939402639277 -0.0000024597154408834143 -0.0000034187735258872642 -0.000010195580844321595
          -0.000012032095540653875 -0.000004003907574240406 -0.000022694533986872267 0.0000034783902904539366 0.00003410027681068073 0.000008556136885704002
          -4.976889646929328e-7 0.0000308110602563888 0.0000174631611159215 0.33038899798672433 6.56983450419979e-7 0.660804364817704
          0.0000010004847620925794 0.331167811992791 -0.0000036435114262323154 9.598705638658167e-7 0.0000035021183843048087 -0.000008297581318400526
          6.959663935157678e-7 0.000008073062359781336 -0.0000023850647112438894 -0.0000026492396431945786 0.000012901160589599836 -0.000005665696295273359
          0.000006821989634808734 0.00001709681480979719 -0.000006261194531329006 -0.000013105154907169791 -0.000009989139711397144 -0.00003129376868550582
          -0.00002629414650336115 -0.000046118755651206045 -0.00004471310427348052 0.000003782935258475617 0.000040719116902135366 0.000010556389114360631
          0.000034516073255927426 0.00008946359709284535 0.000050526950009385785 0.3509753287229602 -0.0000014876740046243508 0.7019783726211293
          0.0000020957868819004855 0.351773222464447 -0.000002765053008169094 -0.0000030590453248269256 0.00000823287401921502 -0.0000049753542038233345
          -0.000005834294539666662 0.000019365205713911537 -0.000005571678828322768 0.000002567119157886877 0.000031866186248674655 0.0000038816979891082015
          0.0000060966232691412985 0.00004229428060822981 0.000009024481704405802 -0.000013318072870929787 -0.000006374149116597505 -0.00001967131849632542
          -0.00010444715756131873 -0.0001688888844899178 -0.00011691894306621597 -0.000018384083815332908 0.0000022179448993797646 -0.000023402499644741004
          0.00014000581346292063 0.0002973925259991475 0.00015066315953978643 0.3663779500919143 2.8963486156663443e-7 0.7327853694739598
          0.000004994266831204186 0.36718733231298883 0.0000013039845457585297 0.0000018405138597632487 0.000012423574342529387 0.000010619605121692244
          0.000012554534922978866 0.000036008553011931954 0.00002730500882752729 0.000026582960552037904 0.00007929752596502748 0.00004003841309783984
          0.00002304700858204653 0.00006944691552281113 -0.000004691332425373063 -0.0000034838507422911558 0.000013749542313781088 -0.00003494967166708246
          -0.0002507240423989532 -0.00047307203662926706 -0.00030894116680724865 -0.00015408653469460576 -0.0003000844731174332 -0.0001994780208718419
          0.0004663813671752018 0.0009314240974871019 0.000684884411362642 0.3770240247875227 -3.892408359518207e-8 0.7540763093012653
          0.000005085620726125173 0.3778286396314553 -0.000004638978616244849 -0.000002579810015779227 0.000012832584666333524 -0.00004797283745983094
          0.000004533674559575873 0.00002307843307849944 -0.0000971388212071822 0.000059206347541959636 0.00013554714178561078 -0.00008750183037203874
          -0.00010577665771307337 -0.00021683110853308596 0.00002626469905763623 0.0000662588864736545 0.0001571553482420593 0.0005488487949310613
          -0.0005951009179018529 -0.0011256756433844148 -0.0005908951038681096 -0.0006567020825332913 -0.0012375013169429495 -0.0013975687170368727
          0.00196007916164935 0.004015111840235189 0.0003381379885710918 0.383363701450267 0.000014980042621015599 0.7667145462579457
          0.00003536914879354036 0.3841465521210155 -0.00003275557638873772 0.000036906562743965754 0.00008844054276452296 0.0000825338814939014
          0.00007350079630444317 0.0001838212594435784 0.00006984752255717597 0.0002928861323103493 0.0006285246696517144 -0.00042272898593373465
          -0.00010248398168939687 -0.00019815439230846943 -0.0003606337716789282 0.00037535038116107144 0.0008646667321980661 0.0007728258291042622
          -0.0009587407646065322 -0.0018408633415830516 -0.0009077032827077818 0.00011372488526333976 0.00020196668667382244 -0.002591129208462598
          -0.0005155356327523723 -0.0009284972828532672 -0.005126197505464296 0.19306117105745377 0.000048687363930072225 0.38608592298157235
          0.00009108261741258561 0.193476558538293 -0.00007247404960314396 -0.00024771045358645827 -0.0004451654301165786 0.00027373625495258347
          -0.0003955102381003328 -0.0007063522327278859 0.0005958803122235734 0.0003746102062687773 0.0008087903800522434 0.00010487531290664931
          -0.00011251300879719373 -0.00019834504438327738 -0.00009535094012397272 0.00041224554755257825 0.00085400819619523 0.0005623875006502271
          -0.0002797455534345808 -0.0005770103680926286 -0.0002631146787458877 0.0017263178685838175 0.0034036393085148074 0.00020986616322041067
          0.0005828606212907331 0.0011717121164749181 -0.0014270081562722272
        </DataArray>
        <DataArray type="Float64" Name="resid_z" format="ascii" RangeMin="0" RangeMax="0">
          0 0 0 0 0 0
          0 0 0 0 0 0
          0 0 0 0 0 0
          0 0 0 0 0 0
          0 0 0 0 0 0
          0 0 0 0 0 0
          0 0 0 0 0 0
          0 0 0 0 0 0
          0 0 0 0 0 0
          0 0 0 0 0 0
          0 0 0 0 0 0
          0 0 0 0 0 0
          0 0 0 0 0 0
          0 0 0 0 0 0
          0 0 0 0 0 0
          0 0 0 0 0 0
          0 0 0 0 0 0
          0 0 0 0 0 0
          0 0 0 0 0 0
          0 0 0 0 0 0
          0 0 0 0 0 0
          0 0 0 0 0 0
          0 0 0 0 0 0
          0 0 0 0 0 0
          0 0 0 0 0 0
          0 0 0 0 0 0
          0 0 0 0 0 0
          0 0 0 0 0 0
          0 0 0 0 0 0
          0 0 0 0 0 0
          0 0 0 0 0 0
          0 0 0 0 0 0
          0 0 0 0 0 0
          0 0 0 0 0 0
          0 0 0 0 0 0
          0 0 0 0 0 0
          0 0 0 0 0 0
          0 0 0 0 0 0
          0 0 0 0 0 0
          0 0 0 0 0 0
          0 0 0 0 0 0
          0 0 0 0 0 0
          0 0 0 0 0 0
          0 0 0 0 0 0
          0 0 0 0 0 0
          0 0 0 0 0 0
          0 0 0 0 0 0
          0 0 0 0 0 0
          0 0 0 0 0 0
          0 0 0 0 0 0
          0 0 0 0 0 0
          0 0 0 0 0 0
          0 0 0 0 0 0
          0 0 0 0 0 0
          0 0 0 0 0 0
          0 0 0 0 0 0
          0 0 0 0 0 0
          0 0 0 0 0 0
          0 0 0 0 0 0
          0 0 0 0 0 0
          0 0 0 0 0 0
          0 0 0 0 0 0
          0 0 0 0 0 0
          0 0 0 0 0 0
          0 0 0 0 0 0
          0 0 0 0 0 0
          0 0 0 0 0 0
          0 0 0 0 0 0
          0 0 0 0 0 0
          0 0 0 0 0 0
          0 0 0 0 0 0
          0 0 0 0 0 0
          0 0 0 0 0 0
          0 0 0 0 0 0
          0 0 0 0 0 0
          0 0 0 0 0 0
          0 0 0 0 0 0
          0 0 0 0 0 0
          0 0 0 0 0 0
          0 0 0 0 0 0
          0 0 0 0 0 0
          0 0 0 0 0 0
          0 0 0 0 0 0
          0 0 0 0 0 0
          0 0 0 0 0 0
          0 0 0 0 0 0
          0 0 0 0 0 0
          0 0 0 0 0 0
          0 0 0 0 0 0
          0 0 0 0 0 0
          0 0 0 0 0 0
          0 0 0 0 0 0
          0 0 0 0 0 0
          0 0 0 0 0 0
          0 0 0 0 0 0
          0 0 0 0 0 0
          0 0 0 0 0 0
          0 0 0 0 0 0
          0 0 0 0 0 0
          0 0 0 0 0 0
          0 0 0 0 0 0
          0 0 0 0 0 0
          0 0 0 0 0 0
          0 0 0 0 0 0
          0 0 0 0 0 0
          0 0 0 0 0 0
          0 0 0 0 0 0
          0 0 0 0 0 0
          0 0 0 0 0 0
          0 0 0 0 0 0
          0 0 0 0 0 0
          0 0 0 0 0 0
          0 0 0 0 0 0
          0 0 0 0 0 0
          0 0 0 0 0 0
          0 0 0 0 0 0
          0 0 0 0 0 0
          0 0 0 0 0 0
          0 0 0 0 0 0
          0 0 0 0 0 0
          0 0 0 0 0 0
          0 0 0 0 0 0
          0 0 0 0 0 0
          0 0 0 0 0 0
          0 0 0 0 0 0
          0 0 0 0 0 0
          0 0 0 0 0 0
          0 0 0 0 0 0
          0 0 0 0 0 0
          0 0 0 0 0 0
          0 0 0 0 0 0
          0 0 0 0 0 0
          0 0 0 0 0 0
          0 0 0 0 0 0
          0 0 0 0 0 0
          0 0 0 0 0 0
          0 0 0
        </DataArray>
        <DataArray type="Float64" Name="stress_zz" format="ascii" RangeMin="-248844.29749659062" RangeMax="244407.83385715456">
          -10240.783113421832 -35179.94941882498 -13232.939124489303 2757.792966753427 -10288.518023081033 -35052.570980130644
          -13423.365902964835 2932.7863355061004 -10336.252932740234 -34925.19254143629 -13613.792681440369 3107.7797042587745
          -10477.146884004342 -4656.722093881358 -14300.630532865442 -17975.803789628022 -10450.476410189925 -4638.355076898268
          -14281.937801442102 -17999.240105816647 -10423.805936375507 -4619.9880599151775 -14263.245070018758 -18022.676422005272
          -13007.08373005 6225.429018111147 -13107.19056329487 6314.362162493785 -13207.297396539734 6403.295306876423
          -4449.648538322948 -4270.528589380942 -16132.392853974932 -4434.772230442835 -4300.371481020653 -16210.150985228549
          -4419.895922562722 -4330.2143726603645 -16287.909116482164 6670.6592462840545 6314.997929882101 2554.6763760565177
          4211.461963253614 6719.13021269327 6543.495534286994 2563.680983791774 4223.555122564903 6767.601179102484
          6771.993138691887 2572.6855915270294 4235.648281876192 190.26563648702324 -2551.8264038436287 799.0898305576318
          2190.8061833722086 153.80851828193045 -2623.866599982906 835.3685473908974 2163.624763558023 117.35140007683763
          -2695.906796122183 871.6472642241632 2136.443343743836 654.8439552534232 5200.643757692234 5080.175874809481
          626.9750803129659 5161.0238615256185 5129.200837849283 599.1062053725085 5121.4039653590025 5178.225800889087
          876.8392189454289 922.2907764957522 967.7423340460755 6287.2806105175105 5159.709730711547 6361.916577788378
          5143.436229812241 6436.552545059245 5127.162728912934 12078.999791432096 7048.557707310358 12145.346763540776
          6998.754457620091 12211.693735649456 6948.951207929827 1199.254950738045 545.5048447519084 1233.4180150952602
          521.5674521631397 1267.5810794524753 497.6300595743712 3439.040183443902 623.6597457593516 -1104.8815845102783
          595.2615245722201 3451.1877254348747 652.7567209400901 -1084.0298149661692 594.9184293141764 3463.3352674258476
          681.8536961208285 -1063.17804542206 594.5753340561326 126.0653545684811 113.15880795410499 100.25226133972888
          -884.5935087246635 -905.0023045200332 -925.4111003154031 1008.4135678014133 1004.5298995411052 1000.6462312807984
          -7903.5631230520585 -10753.04150991981 -7938.259139117703 -10764.068968921776 -7972.955155183352 -10775.096427923741
          -1306.6909581801588 2079.250968767052 1787.173660889061 119.97771073436152 -1346.577324878967 2072.9943242532436
          1772.775900146827 131.3221733147031 -1386.4636915777749 2066.7376797394345 1758.3781394045934 142.66663589504466
          9796.22363623944 5095.318684355497 9770.830038334441 5138.047715616504 9745.436440429447 5180.776746877511
          -1331.5344877858554 -1312.1301938389101 -1292.7258998919647 -1956.846430227465 -2011.74968860704 -2066.6529469866155
          -4216.932732006331 -4734.7188972887525 -4238.633635961708 -4759.180939322882 -4260.334539917085 -4783.642981357011
          -769.7883661297678 -632.7470557129577 -549.5731829833036 -370.65370051658635 -329.35799983683984 -108.56034532021494
          4491.915912162751 6734.243299768313 4497.731001067074 6823.11371186636 4503.546089971398 6911.984123964406
          690.0662171626439 691.5940475797006 693.1218779967572 3141.5231062563084 3141.2437722333525 3140.9644382103966
          2452.4299314115415 2462.2119681685726 2471.994004925604 6786.6141830721535 6859.688063189481 6932.761943306809
          -3830.905421491187 -3875.7653916877207 -3920.6253618842534 824.6315688882257 -145.9325250423294 862.7319279653207
          -173.09509443991294 900.8322870424156 -200.25766383749644 2943.9342320637434 2945.7862220531815 2947.638212042621
          -5371.91677968127 -6679.448720719116 -5383.577161194558 -6733.850273814167 -5395.237542707848 -6788.25182690922
          1907.0693829174922 336.29532517312555 1926.2911342680507 330.39699434429986 1945.5128856186086 324.4986635154743
          -7057.538136741856 -6959.425685666097 -7302.122469836264 -7471.071729354348 -7546.706802930672 -7982.717773042598
          -3564.3168844328006 -3635.1962044046313 -3706.0755243764615 -199.29067072030892 -221.31392806796617 -243.33718541562342
          -1249.0448255638953 -1237.08609898372 -1225.1273724035445 875.9448616817684 1440.926618475444 889.7023171393703
          1495.8671899150158 903.4597725969722 1550.8077613545877 -664.347249611438 460.00200150987126 -704.8136984287476
          463.71423914569147 -745.2801472460574 467.4264767815117 -1686.8973142358936 -2159.1516166426923 -941.6430485202757
          -1702.2977131095458 -2184.97885934195 -956.3241580708223 -1717.698111983198 -2210.8061020412074 -971.0052676213686
          -180.67857173865954 -166.89044323736098 -153.1023147360624 4233.777076356857 -1654.006581581472 4288.094282347374
          -1638.6914671075633 4342.411488337892 -1623.3763526336552 -1716.5632206056111 -13944.179508595544 -1658.901048271455
          -12719.241822550233 -1601.2388759372993 -11494.304136504921 -588.0603059971809 -536.9922342277041 -485.9241624582273
          -55.119186809588825 -66.70841694816275 -78.29764708673662 -11227.926686182733 -11420.376502203944 -11612.82631822516
          -2526.872024864649 -979.1061328768232 -2354.1534422865466 -987.6954591266067 -2181.434859708444 -996.2847853763902
          -646.7159005106204 -617.4282423347573 -588.1405841588942 -1215.141119241289 -1697.237771364588 -2179.334423487887
          -7506.615264801799 -7611.741840475346 -7716.8684161488945 9697.050743515436 10083.115049193544 10469.179354871654
          -18652.153565546134 -17440.410309488703 -16228.667053431274 -57263.36792186648 -57268.92370533114 -57274.479488795805
          17605.579011847774 17600.460110367017 17595.34120888626 16095.1674160578 16136.114908165267 16177.062400272735
          -11.238972162038408 -8.78623403974143 -6.333495917444452 -39694.2388315402 -39726.05299695807 -39757.86716237593
          -65701.13333843646 -65675.15749347015 -65649.18164850383 -5352.305004568919 -5315.956334026494 -5346.905897976157
          -5314.359381482936 -5341.5067913833955 -5312.762428939379 -5991.321009421781 -5672.05386113909 -5996.174842728846
          -5679.645819758643 -6001.02867603591 -5687.237778378196 -4826.474526616737 -4224.224206894632 -4827.546544323541
          -4221.889909691529 -4828.618562030345 -4219.555612488428 -2362.1819034050295 -1624.6393227663877 -2365.1293748399203
          -1621.8609905597968 -2368.076846274812 -1619.082658353206 775.8240583701048 1426.1839652141357 772.399794099287
          1432.3346047672785 768.9755298284695 1438.4852443204218 3866.716969155814 4034.951444751404 3864.293727964062
          4041.3313373300425 3861.87048677231 4047.7112299086803 5585.598517030619 5544.534779891893 5585.587858503462
          5553.044288938726 5585.577199976302 5561.553797985558 2921.252494467256 3381.1020210973807 2919.131219206482
          3392.7049179673813 2917.009943945707 3404.3078148373816 -4864.746605200726 -4878.504305284179 -4892.262005367632
          -5667.006620697586 -5685.375091220312 -5703.743561743038 -4535.741043112972 -4549.490325485538 -4563.239607858103
          -1876.262274895299 -1883.5054143594045 -1890.74855382351 1646.4093070669933 1638.457508038961 1630.5057090109287
          5724.245605817105 5729.690431049579 5735.135256282051 6950.3979406273775 6971.102961210278 6991.807981793179
          1631.6081536086026 1640.2879150836734 1648.9676765587444 -3297.1531320327967 -3264.2887951926164 -3231.424458352436
          -3844.1872424958938 -3818.1543338512956 -3792.1214252066984 -2230.439725133274 -2210.1293482455803 -2189.8189713578863
          1038.9136265528605 1061.5150166472044 1084.1164067415484 5100.345503935645 5095.9650144787465 5091.584525021848
          10397.557855874016 10395.15933921406 10392.7608225541 9605.484015327322 9595.11467504747 9584.745334767618
          -1424.4906069915294 -1493.6403988819993 -1562.7901907724695 -33.557625432159966 -130.54830747599988 -227.53898951983967
          -41.88200185473886 -130.9149721387215 -219.94794242270422 2100.583020690307 2023.0484948556157 1945.5139690209248
          5702.435601146691 5670.083274080131 5637.73094701357 9773.13631646424 9735.261264448562 9697.386212432884
          16379.867352441914 16421.623279628664 16463.379206815418 11480.376295177504 11601.807643449158 11723.238991720815
          -8753.606718632707 -8702.456048679724 -8651.305378726738 8160.19134670944 8333.008567830448 8505.825788951453
          9489.260138089736 9644.631526670411 9800.002915251087 12001.340655822929 12107.510730709479 12213.68080559603
          14544.339250636387 14649.592795115206 14754.846339594023 16317.351705042436 16284.444950627621 16251.538196212809
          22869.579438726094 22828.71531216664 22787.851185607196 7229.878153708118 7125.03535163056 7020.192549553005
          -29043.890015910907 -29402.833474323717 -29761.77693273653 16397.590056967565 16182.093687432338 15966.59731789711
          17380.774059511976 17145.415117775177 16910.05617603838 22209.845748170566 22015.13505519179 21820.424362213016
          24936.891303873523 24754.68468650431 24572.478069135104 24885.93724141805 24855.71098218953 24825.484722961006
          21824.09946414485 21716.21420037393 21608.328936603015 29314.78634845108 29468.76583522246 29622.745321993843
          -3183.601881936761 -2789.1182104615664 -2394.634538986368 -60921.37896884818 -60846.01197447005 -60770.64498009193
          70481.51499155413 70253.4414214309 70025.36785130772 85721.3504762757 85462.67950469145 85204.00853310722
          89865.42385431104 89667.96884273268 89470.5138311543 80908.32343111184 80669.83878328404 80431.35413545623
          63495.587176385015 63479.81396445137 63464.04075251773 35375.334197160635 35066.21060478649 34757.08701241234
          14157.65044479565 14242.844445533305 14328.03844627096 -97076.06615302997 -96775.41134066509 -96474.75652830016
          -198091.28110900678 -198527.53897714865 -198963.79684529055 19077.852859121682 19271.018291943954 19464.183724766222
          23174.890403206704 23432.32142546484 23689.752447722993 19319.80572628596 19665.69260637438 20011.579486462826
          19180.60580832885 19286.74746762951 19392.889126930175 23528.530490837584 23892.62576623207 24256.72104162655
          25391.04810734458 24996.843984396335 24602.63986144809 71417.60844564483 71384.35400521252 71351.09956478022
          -68268.85858859446 -68293.973563699 -68319.08853880352 -246349.54907352471 -247596.92328505765 -248844.29749659062
          -84913.55752699125 -85061.4615505599 -85209.36557412856 -104465.40324262175 -104545.9782792295 -104626.55331583726
          -113068.8796382969 -112947.11300899023 -112825.34637968356 -92565.04569770471 -92671.25650553251 -92777.46731336034
          -50576.6735060908 -50203.61657702288 -49830.55964795495 3557.859426237823 3167.847791298572 2777.8361563593207
          147124.9575323581 147388.17278980036 147651.38804724262 48811.37324436706 49472.02886090365 50132.68447744024
          -174127.93271881272 -174607.73860598434 -175087.544493156 -387.7479981852555 -875.6156224478189 -387.85754027895223
          -880.2249224178969 -387.9670823726489 -884.8342223879752 -2539.9716226071405 -2521.1340222980007 -2502.2964219888613
          -6223.529007604859 -6231.056010890808 -6238.583014176757 -13315.931849601662 -13188.620453229316 -13061.309056856964
          -29020.635457740693 -29071.392798816658 -29122.150139892623 -44648.50953128588 -44232.49979280157 -43816.490054317255
          -125623.91104774026 -125023.0278295784 -124422.14461141654 -64520.883636485465 -63738.61205503092 -62956.34047357638
          73049.04099292171 74661.81293640897 76274.58487989621 -2090.3679452454962 -2386.190045784112 -2089.7265560243736
          -2386.2527777393348 -2089.0851668032506 -2386.3155096945584 -3376.0371868025486 -3366.402128433325 -3356.7670700641015
          -5516.366581917083 -5511.37171416778 -5506.376846418478 -9566.65264985142 -9511.406455068522 -9456.160260285624
          -16819.48777816651 -16812.77272172133 -16806.057665276152 -22942.746367888067 -22784.342600369124 -22625.93883285018
          -58318.41012933192 -58092.41086940243 -57866.41160947294 76094.08257054244 75994.65333250699 75895.22409447154
          244407.83385715456 244180.89390730942 243953.95395746428 -3449.241455217233 -3902.5912104140625 -3442.3568331598703
          -3897.5369262270033 -3435.4722111025085 -3892.4826420399436 -5352.684472255228 -5352.674871273485 -5352.665270291742
          -8141.202917407291 -8153.837916998813 -8166.472916590334 -12902.823382079812 -12928.113449841307 -12953.403517602801
          -20138.227038814417 -20213.23879815438 -20288.250557494343 -31624.799006657562 -31754.622180241833 -31884.445353826104
          -42951.06772212253 -43281.71819042008 -43612.368658717634 50434.87547313953 49773.40449967038 49111.93352620125
          147926.0735465932 147126.2948270682 146326.5161075432 -5152.13565196154 -5695.641538944736 -5158.766638766893
          -5701.6402411909585 -5165.397625572247 -5707.638943437181 -7375.579627886558 -7377.285870619106 -7378.992113351656
          -10388.271892309283 -10381.124683276226 -10373.977474243171 -14929.557169571777 -14912.224141563735 -14894.891113555692
          -21371.508052297126 -21334.215429256597 -21296.922806216073 -27682.007368495855 -27627.43761152117 -27572.867854546486
          -19571.71820950898 -19433.80064444144 -19295.883079373893 55285.91055710264 55676.93096093932 56067.951364775996
          119499.67651645561 120062.76203203417 120625.8475476127 -6873.03991733225 -7503.524293980228 -6855.365704019561
          -7485.921133296109 -6837.691490706871 -7468.317972611991 -9391.410969915238 -9378.932055803058 -9366.453141690876
          -12538.194480511318 -12536.283075600846 -12534.371670690374 -16802.301372636495 -16815.060303192586 -16827.819233748676
          -21369.31082814562 -21389.50045661406 -21409.690085082493 -21569.235674121646 -21634.65678321134 -21700.077892301022
          -3985.6876406233773 -4056.4778874550157 -4127.268134286655 52521.566006582616 52393.01225385498 52264.45850112732
          93437.63054900733 93209.72562520849 92981.82070140966 -8531.429582092602 -9234.786687750739 -8579.32342240519
          -9284.049747563018 -8627.217262717779 -9333.312807375296 -11247.458901635446 -11290.303248327138 -11333.14759501883
          -14330.615696704943 -14349.5749967349 -14368.534296764856 -17939.948072685547 -17946.255395353608 -17952.56271802167
          -19969.991265454686 -19958.993491735662 -19947.99571801664 -15348.822436537448 -15350.712457826226 -15352.602479115003
          6147.174358659197 6174.966501975279 6202.758645291361 50333.62706349776 50418.08796241721 50502.54886133665
          77839.80430568839 77917.61376753188 77995.42322937539 -9428.563331591613 -10159.124128245405 -9402.25821918507
          -10128.33751801068 -9375.953106778525 -10097.550907775954 -12460.710638094311 -12435.413994205224 -12410.117350316139
          -15890.903204542024 -15875.88575333765 -15860.868302133273 -19334.66234939951 -19344.923942111236 -19355.185534822962
          -19905.082502079786 -19862.822961833645 -19820.563421587503 -12471.540915998014 -12427.448860744176 -12383.356805490339
          12058.543985518794 12057.552369809422 12056.560754100052 51467.45037394419 51512.23470114258 51557.01902834098
          72765.64130800994 72825.62531572393 72885.60932343791 -19613.59638922572 -20805.1397689561 -18942.8605166104
          -20119.355700408225 -18272.124643995074 -19433.571631860355 -21640.657968868825 -21034.18634750034 -20427.71472613186
          -21027.768175724545 -20694.002124500614 -20360.236073276676 -24678.845304255443 -24685.77221611994 -24692.699127984444
          -25957.419357794854 -26033.64069887599 -26109.862039957123 -14408.191096581162 -14485.519694981385 -14562.848293381609
          13597.7580607526 13480.093268698927 13362.428476645255 37144.22299677571 37276.081605451596 37407.94021412748
          41604.59934836062 41932.15668726124 42259.71402616187 -29714.713966321724 -31368.9527863523 -28570.815573862346
          -30208.503878872463 -27426.917181402965 -29048.05497139262 -30485.98409375829 -29450.491610495705 -28414.999127233124
          -25381.766629916725 -24798.90343118233 -24216.040232447936 -28976.241415693046 -28979.383915627302 -28982.526415561562
          -31067.671836568246 -31276.603200357065 -31485.534564145877 -16240.749044880191 -16468.290573163893 -16695.832101447595
          13238.89649228711 13005.10023757154 12771.30398285597 21108.162733429628 21219.38736684726 21330.61200026489
          10254.65191297481 10629.447506938996 11004.24310090318
        </DataArray>
        <DataArray type="Float64" Name="peeq" format="ascii" RangeMin="0" RangeMax="0">
          0 0 0 0 0 0
          0 0 0 0 0 0
          0 0 0 0 0 0
          0 0 0 0 0 0
          0 0 0 0 0 0
          0 0 0 0 0 0
          0 0 0 0 0 0
          0 0 0 0 0 0
          0 0 0 0 0 0
          0 0 0 0 0 0
          0 0 0 0 0 0
          0 0 0 0 0 0
          0 0 0 0 0 0
          0 0 0 0 0 0
          0 0 0 0 0 0
          0 0 0 0 0 0
          0 0 0 0 0 0
          0 0 0 0 0 0
          0 0 0 0 0 0
          0 0 0 0 0 0
          0 0 0 0 0 0
          0 0 0 0 0 0
          0 0 0 0 0 0
          0 0 0 0 0 0
          0 0 0 0 0 0
          0 0 0 0 0 0
          0 0 0 0 0 0
          0 0 0 0 0 0
          0 0 0 0 0 0
          0 0 0 0 0 0
          0 0 0 0 0 0
          0 0 0 0 0 0
          0 0 0 0 0 0
          0 0 0 0 0 0
          0 0 0 0 0 0
          0 0 0 0 0 0
          0 0 0 0 0 0
          0 0 0 0 0 0
          0 0 0 0 0 0
          0 0 0 0 0 0
          0 0 0 0 0 0
          0 0 0 0 0 0
          0 0 0 0 0 0
          0 0 0 0 0 0
          0 0 0 0 0 0
          0 0 0 0 0 0
          0 0 0 0 0 0
          0 0 0 0 0 0
          0 0 0 0 0 0
          0 0 0 0 0 0
          0 0 0 0 0 0
          0 0 0 0 0 0
          0 0 0 0 0 0
          0 0 0 0 0 0
          0 0 0 0 0 0
          0 0 0 0 0 0
          0 0 0 0 0 0
          0 0 0 0 0 0
          0 0 0 0 0 0
          0 0 0 0 0 0
          0 0 0 0 0 0
          0 0 0 0 0 0
          0 0 0 0 0 0
          0 0 0 0 0 0
          0 0 0 0 0 0
          0 0 0 0 0 0
          0 0 0 0 0 0
          0 0 0 0 0 0
          0 0 0 0 0 0
          0 0 0 0 0 0
          0 0 0 0 0 0
          0 0 0 0 0 0
          0 0 0 0 0 0
          0 0 0 0 0 0
          0 0 0 0 0 0
          0 0 0 0 0 0
          0 0 0 0 0 0
          0 0 0 0 0 0
          0 0 0 0 0 0
          0 0 0 0 0 0
          0 0 0 0 0 0
          0 0 0 0 0 0
          0 0 0 0 0 0
          0 0 0 0 0 0
          0 0 0 0 0 0
          0 0 0 0 0 0
          0 0 0 0 0 0
          0 0 0 0 0 0
          0 0 0 0 0 0
          0 0 0 0 0 0
          0 0 0 0 0 0
          0 0 0 0 0 0
          0 0 0 0 0 0
          0 0 0 0 0 0
          0 0 0 0 0 0
          0 0 0 0 0 0
          0 0 0 0 0 0
          0 0 0 0 0 0
          0 0 0 0 0 0
          0 0 0 0 0 0
          0 0 0 0 0 0
          0 0 0 0 0 0
          0 0 0 0 0 0
          0 0 0 0 0 0
          0 0 0 0 0 0
          0 0 0 0 0 0
          0 0 0 0 0 0
          0 0 0 0 0 0
          0 0 0 0 0 0
          0 0 0 0 0 0
          0 0 0 0 0 0
          0 0 0 0 0 0
          0 0 0 0 0 0
          0 0 0 0 0 0
          0 0 0 0 0 0
          0 0 0 0 0 0
          0 0 0 0 0 0
          0 0 0 0 0 0
          0 0 0 0 0 0
          0 0 0 0 0 0
          0 0 0 0 0 0
          0 0 0 0 0 0
          0 0 0 0 0 0
          0 0 0 0 0 0
          0 0 0 0 0 0
          0 0 0 0 0 0
          0 0 0 0 0 0
          0 0 0 0 0 0
          0 0 0 0 0 0
          0 0 0 0 0 0
          0 0 0 0 0 0
          0 0 0 0 0 0
          0 0 0 0 0 0
          0 0 0 0 0 0
          0 0 0 0 0 0
          0 0 0 0 0 0
          0 0 0
        </DataArray>
        <DataArray type="Float64" Name="pe11" format="ascii" RangeMin="0" RangeMax="0">
          0 0 0 0 0 0
          0 0 0 0 0 0
          0 0 0 0 0 0
          0 0 0 0 0 0
          0 0 0 0 0 0
          0 0 0 0 0 0
          0 0 0 0 0 0
          0 0 0 0 0 0
          0 0 0 0 0 0
          0 0 0 0 0 0
          0 0 0 0 0 0
          0 0 0 0 0 0
          0 0 0 0 0 0
          0 0 0 0 0 0
          0 0 0 0 0 0
          0 0 0 0 0 0
          0 0 0 0 0 0
          0 0 0 0 0 0
          0 0 0 0 0 0
          0 0 0 0 0 0
          0 0 0 0 0 0
          0 0 0 0 0 0
          0 0 0 0 0 0
          0 0 0 0 0 0
          0 0 0 0 0 0
          0 0 0 0 0 0
          0 0 0 0 0 0
          0 0 0 0 0 0
          0 0 0 0 0 0
          0 0 0 0 0 0
          0 0 0 0 0 0
          0 0 0 0 0 0
          0 0 0 0 0 0
          0 0 0 0 0 0
          0 0 0 0 0 0
          0 0 0 0 0 0
          0 0 0 0 0 0
          0 0 0 0 0 0
          0 0 0 0 0 0
          0 0 0 0 0 0
          0 0 0 0 0 0
          0 0 0 0 0 0
          0 0 0 0 0 0
          0 0 0 0 0 0
          0 0 0 0 0 0
          0 0 0 0 0 0
          0 0 0 0 0 0
          0 0 0 0 0 0
          0 0 0 0 0 0
          0 0 0 0 0 0
          0 0 0 0 0 0
          0 0 0 0 0 0
          0 0 0 0 0 0
          0 0 0 0 0 0
          0 0 0 0 0 0
          0 0 0 0 0 0
          0 0 0 0 0 0
          0 0 0 0 0 0
          0 0 0 0 0 0
          0 0 0 0 0 0
          0 0 0 0 0 0
          0 0 0 0 0 0
          0 0 0 0 0 0
          0 0 0 0 0 0
          0 0 0 0 0 0
          0 0 0 0 0 0
          0 0 0 0 0 0
          0 0 0 0 0 0
          0 0 0 0 0 0
          0 0 0 0 0 0
          0 0 0 0 0 0
          0 0 0 0 0 0
          0 0 0 0 0 0
          0 0 0 0 0 0
          0 0 0 0 0 0
          0 0 0 0 0 0
          0 0 0 0 0 0
          0 0 0 0 0 0
          0 0 0 0 0 0
          0 0 0 0 0 0
          0 0 0 0 0 0
          0 0 0 0 0 0
          0 0 0 0 0 0
          0 0 0 0 0 0
          0 0 0 0 0 0
          0 0 0 0 0 0
          0 0 0 0 0 0
          0 0 0 0 0 0
          0 0 0 0 0 0
          0 0 0 0 0 0
          0 0 0 0 0 0
          0 0 0 0 0 0
          0 0 0 0 0 0
          0 0 0 0 0 0
          0 0 0 0 0 0
          0 0 0 0 0 0
          0 0 0 0 0 0
          0 0 0 0 0 0
          0 0 0 0 0 0
          0 0 0 0 0 0
          0 0 0 0 0 0
          0 0 0 0 0 0
          0 0 0 0 0 0
          0 0 0 0 0 0
          0 0 0 0 0 0
          0 0 0 0 0 0
          0 0 0 0 0 0
          0 0 0 0 0 0
          0 0 0 0 0 0
          0 0 0 0 0 0
          0 0 0 0 0 0
          0 0 0 0 0 0
          0 0 0 0 0 0
          0 0 0 0 0 0
          0 0 0 0 0 0
          0 0 0 0 0 0
          0 0 0 0 0 0
          0 0 0 0 0 0
          0 0 0 0 0 0
          0 0 0 0 0 0
          0 0 0 0 0 0
          0 0 0 0 0 0
          0 0 0 0 0 0
          0 0 0 0 0 0
          0 0 0 0 0 0
          0 0 0 0 0 0
          0 0 0 0 0 0
          0 0 0 0 0 0
          0 0 0 0 0 0
          0 0 0 0 0 0
          0 0 0 0 0 0
          0 0 0 0 0 0
          0 0 0 0 0 0
          0 0 0 0 0 0
          0 0 0 0 0 0
          0 0 0 0 0 0
          0 0 0
        </DataArray>
        <DataArray type="Float64" Name="pe22" format="ascii" RangeMin="0" RangeMax="0">
          0 0 0 0 0 0
          0 0 0 0 0 0
          0 0 0 0 0 0
          0 0 0 0 0 0
          0 0 0 0 0 0
          0 0 0 0 0 0
          0 0 0 0 0 0
          0 0 0 0 0 0
          0 0 0 0 0 0
          0 0 0 0 0 0
          0 0 0 0 0 0
          0 0 0 0 0 0
          0 0 0 0 0 0
          0 0 0 0 0 0
          0 0 0 0 0 0
          0 0 0 0 0 0
          0 0 0 0 0 0
          0 0 0 0 0 0
          0 0 0 0 0 0
          0 0 0 0 0 0
          0 0 0 0 0 0
          0 0 0 0 0 0
          0 0 0 0 0 0
          0 0 0 0 0 0
          0 0 0 0 0 0
          0 0 0 0 0 0
          0 0 0 0 0 0
          0 0 0 0 0 0
          0 0 0 0 0 0
          0 0 0 0 0 0
          0 0 0 0 0 0
          0 0 0 0 0 0
          0 0 0 0 0 0
          0 0 0 0 0 0
          0 0 0 0 0 0
          0 0 0 0 0 0
          0 0 0 0 0 0
          0 0 0 0 0 0
          0 0 0 0 0 0
          0 0 0 0 0 0
          0 0 0 0 0 0
          0 0 0 0 0 0
          0 0 0 0 0 0
          0 0 0 0 0 0
          0 0 0 0 0 0
          0 0 0 0 0 0
          0 0 0 0 0 0
          0 0 0 0 0 0
          0 0 0 0 0 0
          0 0 0 0 0 0
          0 0 0 0 0 0
          0 0 0 0 0 0
          0 0 0 0 0 0
          0 0 0 0 0 0
          0 0 0 0 0 0
          0 0 0 0 0 0
          0 0 0 0 0 0
          0 0 0 0 0 0
          0 0 0 0 0 0
          0 0 0 0 0 0
          0 0 0 0 0 0
          0 0 0 0 0 0
          0 0 0 0 0 0
          0 0 0 0 0 0
          0 0 0 0 0 0
          0 0 0 0 0 0
          0 0 0 0 0 0
          0 0 0 0 0 0
          0 0 0 0 0 0
          0 0 0 0 0 0
          0 0 0 0 0 0
          0 0 0 0 0 0
          0 0 0 0 0 0
          0 0 0 0 0 0
          0 0 0 0 0 0
          0 0 0 0 0 0
          0 0 0 0 0 0
          0 0 0 0 0 0
          0 0 0 0 0 0
          0 0 0 0 0 0
          0 0 0 0 0 0
          0 0 0 0 0 0
          0 0 0 0 0 0
          0 0 0 0 0 0
          0 0 0 0 0 0
          0 0 0 0 0 0
          0 0 0 0 0 0
          0 0 0 0 0 0
          0 0 0 0 0 0
          0 0 0 0 0 0
          0 0 0 0 0 0
          0 0 0 0 0 0
          0 0 0 0 0 0
          0 0 0 0 0 0
          0 0 0 0 0 0
          0 0 0 0 0 0
          0 0 0 0 0 0
          0 0 0 0 0 0
          0 0 0 0 0 0
          0 0 0 0 0 0
          0 0 0 0 0 0
          0 0 0 0 0 0
          0 0 0 0 0 0
          0 0 0 0 0 0
          0 0 0 0 0 0
          0 0 0 0 0 0
          0 0 0 0 0 0
          0 0 0 0 0 0
          0 0 0 0 0 0
          0 0 0 0 0 0
          0 0 0 0 0 0
          0 0 0 0 0 0
          0 0 0 0 0 0
          0 0 0 0 0 0
          0 0 0 0 0 0
          0 0 0 0 0 0
          0 0 0 0 0 0
          0 0 0 0 0 0
          0 0 0 0 0 0
          0 0 0 0 0 0
          0 0 0 0 0 0
          0 0 0 0 0 0
          0 0 0 0 0 0
          0 0 0 0 0 0
          0 0 0 0 0 0
          0 0 0 0 0 0
          0 0 0 0 0 0
          0 0 0 0 0 0
          0 0 0 0 0 0
          0 0 0 0 0 0
          0 0 0 0 0 0
          0 0 0 0 0 0
          0 0 0 0 0 0
          0 0 0 0 0 0
          0 0 0 0 0 0
          0 0 0 0 0 0
          0 0 0
        </DataArray>
        <DataArray type="Float64" Name="pe33" format="ascii" RangeMin="0" RangeMax="0">
          0 0 0 0 0 0
          0 0 0 0 0 0
          0 0 0 0 0 0
          0 0 0 0 0 0
          0 0 0 0 0 0
          0 0 0 0 0 0
          0 0 0 0 0 0
          0 0 0 0 0 0
          0 0 0 0 0 0
          0 0 0 0 0 0
          0 0 0 0 0 0
          0 0 0 0 0 0
          0 0 0 0 0 0
          0 0 0 0 0 0
          0 0 0 0 0 0
          0 0 0 0 0 0
          0 0 0 0 0 0
          0 0 0 0 0 0
          0 0 0 0 0 0
          0 0 0 0 0 0
          0 0 0 0 0 0
          0 0 0 0 0 0
          0 0 0 0 0 0
          0 0 0 0 0 0
          0 0 0 0 0 0
          0 0 0 0 0 0
          0 0 0 0 0 0
          0 0 0 0 0 0
          0 0 0 0 0 0
          0 0 0 0 0 0
          0 0 0 0 0 0
          0 0 0 0 0 0
          0 0 0 0 0 0
          0 0 0 0 0 0
          0 0 0 0 0 0
          0 0 0 0 0 0
          0 0 0 0 0 0
          0 0 0 0 0 0
          0 0 0 0 0 0
          0 0 0 0 0 0
          0 0 0 0 0 0
          0 0 0 0 0 0
          0 0 0 0 0 0
          0 0 0 0 0 0
          0 0 0 0 0 0
          0 0 0 0 0 0
          0 0 0 0 0 0
          0 0 0 0 0 0
          0 0 0 0 0 0
          0 0 0 0 0 0
          0 0 0 0 0 0
          0 0 0 0 0 0
          0 0 0 0 0 0
          0 0 0 0 0 0
          0 0 0 0 0 0
          0 0 0 0 0 0
          0 0 0 0 0 0
          0 0 0 0 0 0
          0 0 0 0 0 0
          0 0 0 0 0 0
          0 0 0 0 0 0
          0 0 0 0 0 0
          0 0 0 0 0 0
          0 0 0 0 0 0
          0 0 0 0 0 0
          0 0 0 0 0 0
          0 0 0 0 0 0
          0 0 0 0 0 0
          0 0 0 0 0 0
          0 0 0 0 0 0
          0 0 0 0 0 0
          0 0 0 0 0 0
          0 0 0 0 0 0
          0 0 0 0 0 0
          0 0 0 0 0 0
          0 0 0 0 0 0
          0 0 0 0 0 0
          0 0 0 0 0 0
          0 0 0 0 0 0
          0 0 0 0 0 0
          0 0 0 0 0 0
          0 0 0 0 0 0
          0 0 0 0 0 0
          0 0 0 0 0 0
          0 0 0 0 0 0
          0 0 0 0 0 0
          0 0 0 0 0 0
          0 0 0 0 0 0
          0 0 0 0 0 0
          0 0 0 0 0 0
          0 0 0 0 0 0
          0 0 0 0 0 0
          0 0 0 0 0 0
          0 0 0 0 0 0
          0 0 0 0 0 0
          0 0 0 0 0 0
          0 0 0 0 0 0
          0 0 0 0 0 0
          0 0 0 0 0 0
          0 0 0 0 0 0
          0 0 0 0 0 0
          0 0 0 0 0 0
          0 0 0 0 0 0
          0 0 0 0 0 0
          0 0 0 0 0 0
          0 0 0 0 0 0
          0 0 0 0 0 0
          0 0 0 0 0 0
          0 0 0 0 0 0
          0 0 0 0 0 0
          0 0 0 0 0 0
          0 0 0 0 0 0
          0 0 0 0 0 0
          0 0 0 0 0 0
          0 0 0 0 0 0
          0 0 0 0 0 0
          0 0 0 0 0 0
          0 0 0 0 0 0
          0 0 0 0 0 0
          0 0 0 0 0 0
          0 0 0 0 0 0
          0 0 0 0 0 0
          0 0 0 0 0 0
          0 0 0 0 0 0
          0 0 0 0 0 0
          0 0 0 0 0 0
          0 0 0 0 0 0
          0 0 0 0 0 0
          0 0 0 0 0 0
          0 0 0 0 0 0
          0 0 0 0 0 0
          0 0 0 0 0 0
          0 0 0 0 0 0
          0 0 0 0 0 0
          0 0 0 0 0 0
          0 0 0 0 0 0
          0 0 0
        </DataArray>
        <DataArray type="Float64" Name="disp_x" format="ascii" RangeMin="0.0000035952650540123715" RangeMax="0.00001">
          0.0000049027911617939345 0.000004899797339462243 0.000004692455484444435 0.000004644580540849753 0.000004902797042581286 0.0000048998053409230884
          0.000004692463283150796 0.000004644586467086638 0.000004902814630785656 0.000004899829437287979 0.000004692488744209322 0.000004644604836544002
          0.000004275745672994295 0.0000042733936124378175 0.000004452567965462776 0.000004433478362501171 0.000004275748149580223 0.000004273396271516771
          0.000004452571684633746 0.000004433482627420712 0.000004275754512089128 0.0000042734038526845394 0.000004452583312215034 0.000004433496206888874
          0.000004623155010288803 0.00000451916607297121 0.00000462315949531013 0.000004519169512389618 0.000004623173084513829 0.000004519179101390299
          0.0000044387785504858675 0.00000466031996031806 0.000004662563877198396 0.000004438782003050575 0.000004660321752693557 0.000004662566255965132
          0.000004438792855041548 0.0000046603268743240815 0.000004662572877706437 0.000004282256240543833 0.000004202044196469377 0.000004082466136470989
          0.000004183434924664178 0.00000428225929928549 0.000004202046835316669 0.000004082468496038126 0.000004183437487374297 0.0000042822691165806375
          0.000004202053862730862 0.000004082475434001627 0.000004183444720832319 0.000004363147133734055 0.000004250358600442647 0.000004225863240780185
          0.000004366245189881967 0.000004363150136797505 0.000004250361262945556 0.000004225866128316441 0.000004366248721867638 0.000004363158180297351
          0.0000042503692620259265 0.000004225874487387195 0.000004366260771034176 0.000004121592433350374 0.000004075449946809423 0.000004241748405274045
          0.000004121594919798914 0.000004075451864147728 0.000004241750784677558 0.000004121602670223822 0.000004075457519182713 0.000004241757829552971
          0.000004899292219775526 0.000004899295585444102 0.000004899305553858343 0.000004179859412036277 0.000004011569261039051 0.000004179860965904366
          0.000004011570575688235 0.000004179865512790794 0.00000401157433935523 0.000004891724397117189 0.000004657248453404874 0.000004891726982639485
          0.000004657249676828773 0.0000048917347897805315 0.00000465725311836339 0.0000037831919388359197 0.00000368339795045337 0.0000037831934834181817
          0.000003683399361374363 0.0000037831982139112264 0.0000036834036072086024 0.000003965798225450149 0.000003852781525022844 0.0000039353039233966784
          0.000004068985265186748 0.000003965800452541588 0.000003852783137460853 0.000003935306137530586 0.000004068987935051261 0.000003965807472920371
          0.000003852787646792941 0.000003935312556479347 0.000004068996423623626 0.0000036693764984476205 0.0000036693778516689606 0.000003669382056009194
          0.0000035952650540123715 0.000003595266499629374 0.0000035952705727356275 0.0000043960456752195235 0.000004396047585420235 0.000004396053432596204
          0.000004373925206633675 0.0000042451554099042136 0.000004373928255308394 0.000004245158313555011 0.000004373937904456137 0.0000042451666690662606
          0.0000036618706406626252 0.00000378135060587233 0.000003768691650298712 0.0000036509964180656503 0.0000036618721632458377 0.0000037813518181750227
          0.0000037686932905671754 0.0000036509979174640515 0.0000036618770456670805 0.0000037813548050039774 0.0000037686984637845567 0.0000036510022157621593
          0.000004398714046709341 0.000004492584341260375 0.000004398717437164202 0.000004492587334283115 0.000004398727805871615 0.00000449259387442588
          0.0000036809039705706376 0.0000036809055246463453 0.000003680910390829973 0.0000041088305672153115 0.000004108832749975852 0.000004108839551773463
          0.0000036639665485736024 0.0000036728920138994136 0.0000036639683135647873 0.0000036728936984600204 0.0000036639737902408818 0.0000036728992871467367
          0.000004466399491148404 0.000004468348077432333 0.000004466403810999136 0.000004468352760574677 0.000004466414460265494 0.000004468367082816879
          0.000003879123343196462 0.000003864599229215168 0.000003879125145176396 0.000003864600571061083 0.000003879130941160878 0.000003864603937739947
          0.0000037721559728767227 0.000003772157481914747 0.0000037721619445194244 0.000003840651151595482 0.000003840652726092805 0.000003840657642032925
          0.000003869942333233504 0.000003869944082196558 0.000003869949259691103 0.000003944115362338907 0.0000039441172082578544 0.0000039441233911764275
          0.0000037457744312690743 0.000003745775974933534 0.0000037457806570294317 0.000003876673239611231 0.000003840023379096578 0.0000038766747970843675
          0.000003840024956117518 0.00000387667937333283 0.00000384002964029538 0.000004286600180057236 0.000004286603144067634 0.000004286612070892532
          0.000004171263905430045 0.000004078420399794887 0.000004171266479444922 0.000004078423245072602 0.000004171273905956607 0.000004078432425904998
          0.0000039017048626619684 0.0000037756662904820524 0.000003901706788775396 0.0000037756678985743137 0.000003901712538813703 0.0000037756725256619087
          0.000004552220429873816 0.000004575219273857353 0.000004552226256403328 0.000004575222531994988 0.000004552246051343942 0.000004575237149265436
          0.0000037760812745224357 0.0000037760828761902 0.000003776087840829038 0.000003808092679183086 0.0000038080942803466385 0.0000038080989842773797
          0.000003652559011270829 0.000003652560543570778 0.000003652565423571529 0.00000395151744838921 0.0000038819085984524826 0.000003951519573616353
          0.0000038819104626409194 0.0000039515263916998465 0.0000038819160960164816 0.000003937411190982657 0.000003976744346954182 0.0000039374129889757005
          0.0000039767461917578115 0.0000039374186038675595 0.000003976751569993894 0.000004002684746119707 0.000004142778023671196 0.000004038275091585293
          0.000004002686845557972 0.000004142780479099997 0.000004038277169238167 0.000004002693184406456 0.000004142788308310409 0.000004038282945513638
          0.000004076956892003264 0.000004076958957247953 0.000004076965292004948 0.000003992422008876238 0.0000040266009025189345 0.000003992424170434202
          0.000004026603644142094 0.00000399243047863019 0.0000040266120167897075 0.000004686898676824385 0.000004756315863775849 0.00000468690179077922
          0.000004756324204307525 0.000004686896342888144 0.0000047563557511419805 0.0000041773298536670406 0.0000041773321901571685 0.0000041773391992266645
          0.000003905145431129032 0.000003905147286584835 0.000003905153086656284 0.0000041569867137960786 0.0000041569892771776695 0.000004156996494290409
          0.000004479616306376678 0.000004378626457916707 0.000004479620430722914 0.000004378629617980969 0.0000044796313695436715 0.000004378639776724406
          0.000004277879300539892 0.00000427788182286575 0.000004277889228734625 0.000004580900621230209 0.000004580904845595505 0.000004580918504864147
          0.0000041458715280497365 0.000004145874228410132 0.000004145883255636091 0.000004682530409680655 0.00000468253789567977 0.000004682560454377424
          0.000004784694680766484 0.000004784707886445952 0.000004784758326429363 0.000004887768792322341 0.0000048877759807627054 0.000004887794918853448
          0.000005214441259453105 0.0000052144446322126795 0.000005214454726699161 0.000005227639445330892 0.000005227644851959776 0.0000052276612523540305
          0.000005237061527888256 0.0000052370689983408585 0.000005237091383635486 0.000005238029036619599 0.000005238038774365029 0.000005238067789490578
          0.000005225443101488954 0.000005225453834025127 0.0000052254861532011215 0.000006346232863583208 0.000006338514763728775 0.00000634622629536763
          0.000006338508214663058 0.000006346206635433557 0.000006338488632164505 0.000006624557813690549 0.000006614931891827676 0.000006624549502661697
          0.00000661492366523912 0.00000662452455950863 0.000006614898948482042 0.000006900733852554288 0.000006889646581704304 0.000006900724094033423
          0.000006889636970278892 0.0000069006948297361754 0.0000068896081543666 0.000007175594432884225 0.000007163616445646318 0.000007175583611051979
          0.0000071636058518295515 0.000007175551149651495 0.000007163574116334068 0.000007449787524166702 0.000007437630566269272 0.0000074497761553427115
          0.000007437619504800868 0.000007449742059483885 0.000007437586288295779 0.000007723664938272426 0.000007712202619233463 0.000007723653574628017
          0.000007712191590735839 0.000007723619474958596 0.000007712158626413068 0.000007997246195203641 0.000007987530606820487 0.000007997235379976862
          0.00000798752013367912 0.000007997202942245821 0.000007987488611877217 0.000008270265305617436 0.000008263531267299334 0.000008270255445433834
          0.000008263521632409415 0.000008270225849945319 0.000008263492848378633 0.000006361893000089933 0.000006361886308622685 0.0000063618662521460065
          0.000006643056065418286 0.000006643047371433893 0.000006643021273245903 0.000006921624503973342 0.000006921614127250725 0.000006921582970880889
          0.000007198320180888422 0.000007198308558894235 0.000007198273609265849 0.000007473648485029919 0.000007473636230628947 0.000007473599489941883
          0.000007747771771316414 0.00000774775943351729 0.000007747722305160545 0.000008020459069510568 0.000008020447542803912 0.000008020413087462346
          0.00000829114525127833 0.000008291134770543023 0.000008291103235092193 0.000006385854539675596 0.0000063858476899187584 0.000006385827157674233
          0.0000066710380884952 0.000006671028769321158 0.000006671000813620872 0.0000069531875695572036 0.000006953176117181106 0.000006953141721942726
          0.00000723291471730347 0.000007232901640822259 0.000007232862341968673 0.0000075105676258969345 0.000007510553757739492 0.000007510512128929703
          0.000007786083839798491 0.000007786069651226392 0.000007786027005352088 0.000008058906659027691 0.00000805889389933229 0.000008058855567045277
          0.000008328075517517084 0.000008328063844789909 0.000008328028817330936 0.000006418719747603314 0.000006418712670028171 0.000006418691460593226
          0.000006709605440250244 0.00000670959512623282 0.00000670956411141267 0.00000699703915572399 0.000006997025940241535 0.000006996986272698826
          0.000007281485587385527 0.000007281470146911311 0.000007281423725566447 0.000007563082621436826 0.000007563066138346308 0.0000075630167891458464
          0.000007841478815359733 0.000007841461749666975 0.000007841410382195658 0.0000081157040108555 0.000008115689488318911 0.000008115646183550171
          0.00000838429179482805 0.000008384278656053992 0.00000838423939719485 0.000006461356741487827 0.0000064613495125554684 0.00000646132790550722
          0.000006760529240574954 0.00000676051756109421 0.0000067604825971060004 0.0000070558812474290645 0.000007055865521356992 0.000007055818484841754
          0.000007347585974198123 0.000007347567075091809 0.0000073475103843016334 0.000007635412397637836 0.000007635392053492568 0.000007635331225440566
          0.000007918585904723118 0.000007918564354455164 0.000007918499361170566 0.000008195589415972253 0.000008195572005835611 0.000008195519664779463
          0.000008464316522700244 0.000008464301025753245 0.000008464254307786966 0.000006199300330974562 0.000006199298749843085 0.000006199293799166428
          0.000006514932696331013 0.0000065149248847598285 0.000006514901333318629 0.000006826608223736189 0.000006826593901709502 0.000006826550741175638
          0.000007134164223615372 0.0000071341440765061736 0.000007134083544579796 0.000007437071340185004 0.0000074370467391028446 0.000007436972616152336
          0.00000773432274872231 0.000007734296492403836 0.00000773421818118388 0.000008024437566594642 0.00000802440948054299 0.000008024324656971865
          0.000008305111509984717 0.000008305093008678298 0.000008305038986493117 0.000008573419562697924 0.000008573403567351137 0.000008573356573447886
          0.000006246641560089829 0.0000062466434121810075 0.000006246649331429506 0.000006580974167897591 0.000006580966970011389 0.000006580945508806611
          0.000006912377247861174 0.000006912360899634442 0.000006912311886984651 0.0000072393229170645705 0.000007239298351971907 0.000007239224848446185
          0.000007559580652530654 0.000007559549247327942 0.000007559454503181613 0.000007870562977654359 0.000007870528656136878 0.000007870426152970343
          0.000008169418072988955 0.000008169378042091657 0.00000816925608433331 0.000008452622005584467 0.000008452594290380346 0.000008452510273929267
          0.000008716061486780529 0.000008716038401081459 0.000008715967813430209 0.000006297187049238854 0.000006297191666185278 0.000006297204824136919
          0.000006661726613765105 0.0000066617167489393175 0.000006661687325145387 0.000007025839312658327 0.000007025814879792353 0.000007025741960157533
          0.000007384068165021416 0.000007384031947612615 0.000007383924236343062 0.000007730921357128667 0.000007730876551543474 0.00000773074228641256
          0.000008060926122399717 0.000008060880250279045 0.00000806074559436998 0.000008368382374763361 0.000008368330266454462 0.000008368172342846927
          0.000008646425569980751 0.000008646411145352674 0.000008646374862449021 0.000008890153799527543 0.000008890141714920343 0.000008890107067024662
          0.0000063435421793600976 0.000006343560493264196 0.000006343617158054009 0.00000676237622344285 0.0000067623590264139 0.000006762306449971114
          0.000007181567408879588 0.000007181525834809316 0.0000071813993938315214 0.0000075896425890290595 0.000007589583492148798 0.000007589404936167353
          0.000007976554603588622 0.000007976480513569865 0.000007976253780829203 0.000008331884738220334 0.00000833180835276592 0.000008331579877302018
          0.000008644144339537495 0.000008644051378167051 0.00000864376368590976 0.000008898577176453899 0.000008898529817801419 0.000008898385184381844
          0.000009078123563643526 0.000009078118239285762 0.000009078101021371464 0.000008456770409394769 0.000008463100795906071 0.000008456761769655432
          0.000008463091895958052 0.000008456735776818184 0.000008463065174627495 0.000008482671217343531 0.000008482661616870047 0.000008482632728275782
          0.000008517153073437328 0.000008517142349317277 0.000008517109997832674 0.000008569260475831233 0.000008569248167015042 0.000008569210831949137
          0.000008642465154909016 0.000008642451142633289 0.000008642408709931002 0.00000874018168774026 0.000008740164954177324 0.000008740112780960182
          0.000008863153205944758 0.00000886313758148759 0.000008863090297549899 0.000009005243837681528 0.000009005220812976395 0.000009005142053416177
          0.000009122386597103341 0.00000912243401671083 0.000009122578891602297 0.000008650123286496582 0.000008655949546945744 0.000008650115383747943
          0.000008655941541883334 0.0000086500917073831 0.000008655917498626103 0.0000086739213051959 0.000008673912991739236 0.000008673888043524673
          0.000008705462954648852 0.000008705454210921523 0.000008705428057854259 0.000008752777608042558 0.000008752768535393804 0.000008752741523145567
          0.000008818414334187446 0.000008818405537369415 0.000008818379695340701 0.000008904142771295242 0.000008904135615751945 0.000008904115243786924
          0.000009008404642318087 0.00000900840536513354 0.000009008410197883946 0.000009119599598918102 0.00000911961307290694 0.000009119657913473423
          0.00000919316921629895 0.000009193252125708518 0.000009193514446929917 0.000008843462194248977 0.000008848686497126812 0.000008843455453494428
          0.000008848679632805255 0.000008843435067482188 0.000008848658975258029 0.000008864771357424144 0.00000886476426005116 0.000008864742876023885
          0.000008892893583228724 0.000008892886209962335 0.000008892863943701371 0.000008934782302168706 0.00000893477483755397 0.000008934752266023325
          0.00000899217852810719 0.000008992171550570519 0.000008992150254583413 0.00000906561472611904 0.000009065610140167702 0.00000906559567970099
          0.000009151655436397052 0.000009151655956772657 0.000009151655988439561 0.000009236378775172481 0.00000923639170903396 0.000009236427139260747
          0.000009283950143545734 0.000009283986012089653 0.00000928408589932211 0.000009036686832782608 0.000009041213580329999 0.00000903668109102419
          0.000009041207808629214 0.000009036663931504304 0.000009041190520560788 0.000009055128379839839 0.000009055122511480313 0.000009055104904672149
          0.000009079369941219038 0.000009079364022699597 0.000009079346272712578 0.00000911523784915998 0.000009115232167615114 0.000009115215148347626
          0.000009163813218903996 0.00000916380852643775 0.000009163794628506845 0.000009224709328091696 0.000009224707180673887 0.000009224700897237444
          0.000009293447540497468 0.000009293450709038066 0.000009293460998440619 0.000009356701261773043 0.000009356714124585812 0.000009356753644470542
          0.000009387888403808511 0.000009387917410179859 0.000009388009330249964 0.000009229726237888055 0.00000923346734668361 0.000009229721673254971
          0.00000923346274046887 0.000009229707846693988 0.000009233448834126517 0.000009244950905855367 0.000009244946263184671 0.000009244932269212925
          0.00000926489266060149 0.00000926488810317718 0.000009264874371268758 0.000009294221309291842 0.00000929421712295634 0.00000929420456218441
          0.000009333511992160796 0.000009333508913693839 0.000009333499561820554 0.000009381833492586077 0.000009381832699779432 0.000009381830300162524
          0.000009434611388808304 0.000009434614998281398 0.00000943462546836658 0.000009480640512062353 0.000009480651201638768 0.00000948068265502438
          0.000009501131960048246 0.000009501151507489239 0.000009501208322677506 0.00000942254938524231 0.000009425428152350064 0.000009422546007966806
          0.000009425424759057514 0.000009422535993776112 0.000009425414734533055 0.000009434253541363975 0.000009434250183054777 0.000009434240240121441
          0.0000094495390083601 0.00000944953568373535 0.00000944952572202051 0.000009471904720118798 0.000009471901782235168 0.000009471892959799734
          0.000009501585188509201 0.00000950158313053568 0.000009501577002290764 0.00000953749056053255 0.000009537490409650464 0.000009537489808994878
          0.00000957568441004186 0.00000957568759000245 0.000009575697265901068 0.000009607684259658386 0.000009607692048874224 0.000009607715535348625
          0.000009620876472055157 0.00000962088962302576 0.000009620930379210216 0.000009615168072028975 0.00000961712303233825 0.000009615165487299356
          0.000009617120485381652 0.0000096151574307385 0.000009617112486349575 0.000009623110619165679 0.00000962310802887438 0.000009623099903904984
          0.000009633457876425474 0.000009633455723994112 0.000009633449202623582 0.000009648544265404922 0.000009648542449278785 0.00000964853696613118
          0.00000966841338123953 0.000009668412454819503 0.000009668409603933971 0.000009692148487736063 0.000009692148683262487 0.000009692149382004504
          0.000009716933815129167 0.000009716936127930939 0.00000971694284581996 0.000009737109335434436 0.0000097371140164302 0.00000973712793408629
          0.000009745084182216259 0.000009745091363996637 0.000009745112004264584 0.000009807617109835363 0.000009808606202596418 0.000009807616983772376
          0.000009808606049963584 0.000009807616752638145 0.000009808605741035632 0.000009811627722134573 0.0000098116277673355 0.000009811628151680981
          0.00000981685839754068 0.000009816857457342262 0.000009816854551815173 0.000009824460107941394 0.000009824459392725532 0.000009824457353890097
          0.000009834435359420048 0.000009834434760377424 0.000009834432836554578 0.000009846215191174689 0.000009846215868025224 0.000009846218082950497
          0.000009858415403352402 0.000009858417110700159 0.000009858422687462049 0.000009868156836851368 0.000009868159843106693 0.000009868168683149542
          0.00000987219294979054 0.000009872199055853607 0.000009872217793630649 0.00001 0.00001 0.00001
          0.00001 0.00001 0.00001 0.00001 0.00001 0.00001
          0.00001 0.00001 0.00001 0.00001 0.00001 0.00001
          0.00001 0.00001 0.00001 0.00001 0.00001 0.00001
          0.00001 0.00001 0.00001 0.00001 0.00001 0.00001
          0.00001 0.00001 0.00001
        </DataArray>
        <DataArray type="Float64" Name="disp_y" format="ascii" RangeMin="-0.0000010004095514824956" RangeMax="0">
          -5.191702308636979e-7 -6.042600836138046e-7 -6.214872628566081e-7 -5.759983455677786e-7 -5.191695772876907e-7 -6.042615714344121e-7
          -6.214892885361405e-7 -5.759985667041788e-7 -5.191676579297352e-7 -6.042658710458138e-7 -6.214936768673075e-7 -5.759984593581516e-7
          -4.6680095366702335e-7 -4.220346834617225e-7 -4.1718484207913963e-7 -4.720952319944423e-7 -4.668014362512132e-7 -4.220345114484776e-7
          -4.1718473737223446e-7 -4.720950851351114e-7 -4.668032521643704e-7 -4.2203396693590546e-7 -4.171848436951465e-7 -4.7209412661652804e-7
          -4.871375855509751e-7 -5.412352811152921e-7 -4.871391186108206e-7 -5.412396207858163e-7 -4.871439297191277e-7 -5.41254845031112e-7
          -3.587337439504967e-7 -3.54258912006834e-7 -4.23278105905887e-7 -3.5873330123742206e-7 -3.542577533206458e-7 -4.2327670555207064e-7
          -3.5873187328479916e-7 -3.542545743409797e-7 -4.232718889509066e-7 -6.160285838695999e-7 -6.364336499662203e-7 -6.313430400107292e-7
          -5.934504086038985e-7 -6.160308463493926e-7 -6.364356961956061e-7 -6.313451237966889e-7 -5.934524467572958e-7 -6.160387416685819e-7
          -6.364411464257715e-7 -6.313518238144579e-7 -5.934585941789314e-7 -6.859582309718173e-7 -6.911238481680174e-7 -6.600966255449291e-7
          -6.475870868111201e-7 -6.859616876599862e-7 -6.911270333593757e-7 -6.600988565740283e-7 -6.475896386306738e-7 -6.859718086219657e-7
          -6.911375315789686e-7 -6.601039742551205e-7 -6.475978335296612e-7 -4.339081790138987e-7 -3.943820251180135e-7 -3.734771410299777e-7
          -4.339083439598596e-7 -3.94382555475534e-7 -3.734766129666824e-7 -4.339089988420468e-7 -3.9438450668214645e-7 -3.73474510315677e-7
          -4.370751200340339e-7 -4.3707341695298257e-7 -4.370682187197579e-7 -3.2797225934509497e-7 -3.550098427574909e-7 -3.2797287725833975e-7
          -3.550099620645959e-7 -3.279747516330732e-7 -3.5500985115266153e-7 -3.585092529394069e-7 -2.862961593663411e-7 -3.585074179528931e-7
          -2.86294540927776e-7 -3.5850186573961443e-7 -2.862893483699495e-7 -6.541726011328123e-7 -6.362728446543736e-7 -6.541746133799657e-7
          -6.36274844056698e-7 -6.54180724394772e-7 -6.36281167056788e-7 -6.034620384865768e-7 -5.844241389303977e-7 -5.428072820164942e-7
          -5.713574360359114e-7 -6.034639399490411e-7 -5.844259947918979e-7 -5.428086668778071e-7 -5.713593736730153e-7 -6.034692708800746e-7
          -5.84431853758345e-7 -5.428129628681912e-7 -5.713650510069549e-7 -3.836268231551988e-7 -3.8362719438576764e-7 -3.836279210704461e-7
          -6.193692608253296e-7 -6.193710078410027e-7 -6.19375984124436e-7 -2.900133962613382e-7 -2.9001300261593374e-7 -2.9001187022669243e-7
          -5.189958018827143e-7 -5.047257498255606e-7 -5.18996970017848e-7 -5.047267868208533e-7 -5.189993118384228e-7 -5.047304960491336e-7
          -4.253706668151827e-7 -4.287964851491833e-7 -4.6535501889668317e-7 -4.6657010127240185e-7 -4.253715029392747e-7 -4.287973827701145e-7
          -4.653559000155774e-7 -4.6657119245516423e-7 -4.253741346103988e-7 -4.2880030358410054e-7 -4.653587842616079e-7 -4.665745175596955e-7
          -5.832553057085175e-7 -6.122330926438886e-7 -5.832569087398149e-7 -6.122341587665466e-7 -5.83260367493639e-7 -6.122366635980342e-7
          -5.976558159079002e-7 -5.976575914082148e-7 -5.976629015934339e-7 -6.680953698880952e-7 -6.680978230421353e-7 -6.68105006449881e-7
          -5.432357044159793e-7 -5.661377432694432e-7 -5.432367803273092e-7 -5.66139213426504e-7 -5.432400266978824e-7 -5.661431472992272e-7
          -6.578761861288996e-7 -6.821798789883252e-7 -6.578792495245472e-7 -6.821835600233734e-7 -6.578877503008581e-7 -6.821948495438076e-7
          -4.603671578232669e-7 -4.3426151659694797e-7 -4.6036778373747383e-7 -4.342621941339222e-7 -4.6036986446443306e-7 -4.342633308474709e-7
          -6.132088707828292e-7 -6.132107726532707e-7 -6.132162443630203e-7 -3.8363574102376533e-7 -3.8363629767219706e-7 -3.8363809194041444e-7
          -6.306632107554087e-7 -6.306651794114028e-7 -6.306710047571249e-7 -4.164430688286115e-7 -4.16443811361612e-7 -4.164463950249151e-7
          -5.722829383268397e-7 -5.722847273303591e-7 -5.722905729316442e-7 -7.346095176954161e-7 -7.104291365048609e-7 -7.346125907436639e-7
          -7.104318872642815e-7 -7.346219951336816e-7 -7.104403867697926e-7 -5.587194265520302e-7 -5.587215343384077e-7 -5.587279092290567e-7
          -5.381392359310985e-7 -5.147763973047407e-7 -5.381411801497578e-7 -5.147774871571572e-7 -5.381469261343367e-7 -5.14780767257623e-7
          -4.970406754885555e-7 -5.037515096904835e-7 -4.970416339755714e-7 -5.037522820866614e-7 -4.970442279508259e-7 -5.037542150569749e-7
          -6.426575475223537e-7 -6.746969583488084e-7 -6.426605148270308e-7 -6.747007389020166e-7 -6.426695907998473e-7 -6.747100936639892e-7
          -5.413935214448705e-7 -5.413947290309931e-7 -5.413979660215625e-7 -6.858018895036093e-7 -6.858041699344795e-7 -6.858105825734145e-7
          -5.070642605613807e-7 -5.070652162368202e-7 -5.070680029753177e-7 -6.513670660615583e-7 -6.635702535567626e-7 -6.513691298428957e-7
          -6.635723295874205e-7 -6.513748471549761e-7 -6.635786175487847e-7 -7.070208327946619e-7 -7.315013442757439e-7 -7.070237019147561e-7
          -7.315046074625706e-7 -7.070324791897578e-7 -7.315153020114725e-7 -6.759083330604987e-7 -6.967825028226697e-7 -7.022994020240458e-7
          -6.759108272864175e-7 -6.967856971509454e-7 -7.023025080284175e-7 -6.759179983667172e-7 -6.96795183150428e-7 -7.023118410691597e-7
          -7.281547059148198e-7 -7.281583694869955e-7 -7.281689506483754e-7 -4.4837209956947785e-7 -4.831198812338763e-7 -4.483725766212175e-7
          -4.831204851411439e-7 -4.4837349597586153e-7 -4.83122237068987e-7 -6.65994296801042e-7 -6.691295552186754e-7 -6.660006495858208e-7
          -6.691332671610393e-7 -6.660259939270251e-7 -6.691511593203672e-7 -7.245641878681797e-7 -7.245679660692005e-7 -7.245788402331948e-7
          -6.821562439383282e-7 -6.821587313569704e-7 -6.821653097857924e-7 -4.965322615441274e-7 -4.965331924826157e-7 -4.965351475700995e-7
          -7.121250465395017e-7 -7.165613841483184e-7 -7.121295605992236e-7 -7.165655732437095e-7 -7.121426681595853e-7 -7.16577993740546e-7
          -7.207070869335358e-7 -7.207114369452954e-7 -7.20724213853723e-7 -7.073332717097835e-7 -7.073389694100204e-7 -7.073590838055694e-7
          -4.705482761973511e-7 -4.705485715705466e-7 -4.7054853179216317e-7 -7.02149045865248e-7 -7.021511243355788e-7 -7.021497392816364e-7
          -6.965804141112018e-7 -6.965758067164464e-7 -6.96542688658664e-7 -6.908427144744822e-7 -6.908453222908945e-7 -6.908545683102641e-7
          -3.4061917657748463e-7 -3.4061571634486297e-7 -3.4060529796728676e-7 -4.162855882321116e-7 -4.1628214262712605e-7 -4.162719202878754e-7
          -4.965309533916731e-7 -4.965275846539234e-7 -4.965172639521398e-7 -5.81568845976137e-7 -5.815697002835479e-7 -5.815724987310449e-7
          -6.6961277816188e-7 -6.696184905052727e-7 -6.69635500854641e-7 -5.8923127842231986e-8 0 -5.892156262244194e-8
          0 -5.891687876415432e-8 0 -6.179226740937512e-8 0 -6.179078434166262e-8
          0 -6.17863283273989e-8 0 -6.701085816249733e-8 0 -6.700960089752447e-8
          0 -6.700583015567612e-8 0 -7.452270435558416e-8 0 -7.452183349877355e-8
          0 -7.451920505881624e-8 0 -8.40864931187168e-8 0 -8.408613144860768e-8
          0 -8.408503052275389e-8 0 -9.530754121869315e-8 0 -9.530777164196413e-8
          0 -9.530843386316461e-8 0 -1.0769939060007075e-7 0 -1.0770023524426909e-7
          0 -1.0770276814641121e-7 0 -1.207734950554003e-7 0 -1.2077475721310797e-7
          0 -1.207784983251072e-7 0 -1.1772580821227279e-7 -1.1772256793609729e-7 -1.1771280183167127e-7
          -1.2340267713716325e-7 -1.2339967000329152e-7 -1.2339065847882632e-7 -1.338690362720642e-7 -1.3386662957793648e-7 -1.338594051665339e-7
          -1.4898264560621575e-7 -1.489811393856141e-7 -1.489766120104622e-7 -1.6820854768151505e-7 -1.6820814404202044e-7 -1.6820693403883253e-7
          -1.906933898827359e-7 -1.9069416726618688e-7 -1.9069651401047514e-7 -2.153980611349536e-7 -2.1540005420124878e-7 -2.1540608423567745e-7
          -2.412812769598666e-7 -2.4128403264206015e-7 -2.412923524294642e-7 -1.7632698991158184e-7 -1.7632175156437623e-7 -1.7630620535702375e-7
          -1.8461048891958998e-7 -1.8460559544144156e-7 -1.84591048858777e-7 -2.0028364188808876e-7 -2.0027968597268344e-7 -2.0026793341363578e-7
          -2.230864719768137e-7 -2.2308398657921253e-7 -2.2307657168592856e-7 -2.5211854225360523e-7 -2.521178864305802e-7 -2.5211594790869475e-7
          -2.8596206104691537e-7 -2.8596340272226283e-7 -2.8596737347103683e-7 -3.228903942391759e-7 -3.2289378040081377e-7 -3.229038734270042e-7
          -3.611670922373672e-7 -3.611716983206037e-7 -3.6118530603250874e-7 -2.34790574574042e-7 -2.3478273335336073e-7 -2.3475887948881316e-7
          -2.453138548166767e-7 -2.4530650537394127e-7 -2.452841525914134e-7 -2.660443189753913e-7 -2.660384018048958e-7 -2.6602042337523157e-7
          -2.965670498843893e-7 -2.965634011019819e-7 -2.9655233195554504e-7 -3.355294153845983e-7 -3.355286627792017e-7 -3.355263710461306e-7
          -3.8081195999896026e-7 -3.8081433979991663e-7 -3.8082154953869247e-7 -4.2979692079805977e-7 -4.2980262451063745e-7 -4.2982003346548683e-7
          -4.798067033278002e-7 -4.7981432089821e-7 -4.798375359199198e-7 -2.934710726093599e-7 -2.93460571858458e-7 -2.934298926390174e-7
          -3.056679836596447e-7 -3.0565804463092366e-7 -3.0562889669159884e-7 -3.311146023132244e-7 -3.3110670375714455e-7 -3.310835473852765e-7
          -3.691885736563659e-7 -3.691839283100551e-7 -3.6917032752601443e-7 -4.180076245884746e-7 -4.1800710110309004e-7 -4.180056521495684e-7
          -4.7462019326629653e-7 -4.7462418364165994e-7 -4.746359670140457e-7 -5.352657543526682e-7 -5.352742874572441e-7 -5.352993976318163e-7
          -5.959245738677158e-7 -5.959349284580667e-7 -5.959648456025491e-7 -3.557941812971037e-7 -3.5577782478936845e-7 -3.557273075900471e-7
          -3.533277275417702e-7 -3.5330978807963365e-7 -3.5325450816808555e-7 -3.663801597224931e-7 -3.6636340524924794e-7 -3.6631191510505444e-7
          -3.9579871726812467e-7 -3.957854327162877e-7 -3.957446281136034e-7 -4.4067546678065163e-7 -4.406677241413164e-7 -4.406438937131869e-7
          -4.986176323239463e-7 -4.986171033978405e-7 -4.986153998523833e-7 -5.658477820924016e-7 -5.658552556110001e-7 -5.658779408793773e-7
          -6.372142795463885e-7 -6.372313847725791e-7 -6.372840744818564e-7 -7.067841312792536e-7 -7.068057791418648e-7 -7.068723601377532e-7
          -4.219966517643301e-7 -4.2198344344526883e-7 -4.2194548017988233e-7 -4.1639937615724654e-7 -4.1638399245228616e-7 -4.1633961250318e-7
          -4.2914540442319694e-7 -4.291304536091401e-7 -4.290870073677109e-7 -4.6085933413119876e-7 -4.608480320159081e-7 -4.6081516878314857e-7
          -5.103495260556257e-7 -5.103441638824443e-7 -5.10328622924091e-7 -5.750217630085898e-7 -5.750238943321505e-7 -5.75030324351651e-7
          -6.507089755795116e-7 -6.507193243122389e-7 -6.507496734015171e-7 -7.309692496568794e-7 -7.309880999908716e-7 -7.310433052096601e-7
          -8.069871959827494e-7 -8.070042760006595e-7 -8.070523326867406e-7 -4.968247208697859e-7 -4.967853758692738e-7 -4.966676802706284e-7
          -4.876712962046453e-7 -4.876266594688714e-7 -4.874933753656614e-7 -4.980461016187646e-7 -4.980057714059977e-7 -4.978855718713477e-7
          -5.279964388499546e-7 -5.279658237225883e-7 -5.27874723570833e-7 -5.765888991093861e-7 -5.76572417817175e-7 -5.765237119323293e-7
          -6.418019903620235e-7 -6.41804045686784e-7 -6.4181108734951e-7 -7.200114051734398e-7 -7.200349928036272e-7 -7.201061566278925e-7
          -8.053605459531364e-7 -8.054139704925105e-7 -8.055765754948616e-7 -8.86180669058236e-7 -8.862537736776843e-7 -8.864717357011932e-7
          -5.885509504102287e-7 -5.884745390021391e-7 -5.882414240219648e-7 -5.756947417746965e-7 -5.756100868433085e-7 -5.753519884647284e-7
          -5.785766649537288e-7 -5.785022517990935e-7 -5.782753054233434e-7 -5.979448072166449e-7 -5.978875049027076e-7 -5.977124082277338e-7
          -6.34123816577191e-7 -6.340910397767808e-7 -6.339900630258149e-7 -6.8686710927406e-7 -6.868669787500306e-7 -6.868651708545862e-7
          -7.548826534713567e-7 -7.549210050463848e-7 -7.550350977792604e-7 -8.349595426242122e-7 -8.350601889638454e-7 -8.353618449236146e-7
          -9.280238214819444e-7 -9.281707694029932e-7 -9.286186483329602e-7 0 -1.2517449038448743e-7 0
          -1.2517607094694967e-7 0 -1.2518082120795914e-7 -2.4995448529106493e-7 -2.4995789250361956e-7 -2.4996816400745555e-7
          -3.738287434969725e-7 -3.7383432527701754e-7 -3.738510056546259e-7 -4.959959334905685e-7 -4.960048959105842e-7 -4.960321078434689e-7
          -6.150377330374494e-7 -6.150501013482969e-7 -6.15086730855969e-7 -7.282824147360599e-7 -7.283056927214799e-7 -7.283768199907796e-7
          -8.311999327997668e-7 -8.312247351427828e-7 -8.31298304230204e-7 -9.161384850885839e-7 -9.162057382733097e-7 -9.164093954758605e-7
          -9.694952308786453e-7 -9.69617395510104e-7 -9.699859368115614e-7 0 -1.289515616648822e-7 0
          -1.2895332687544796e-7 0 -1.2895860606280464e-7 -2.573108246006958e-7 -2.5731452114612044e-7 -2.5732562827834303e-7
          -3.8434728767886983e-7 -3.8435334097986965e-7 -3.843714823501981e-7 -5.090105396401886e-7 -5.090196018642574e-7 -5.090467805698263e-7
          -6.296310067633496e-7 -6.296441834450428e-7 -6.296836521573521e-7 -7.434513487195583e-7 -7.434709673244687e-7 -7.435297573279603e-7
          -8.461606487359572e-7 -8.461866275704137e-7 -8.462645995169135e-7 -9.297853398966482e-7 -9.298276204127571e-7 -9.299529314116169e-7
          -9.877394179688566e-7 -9.877940334603384e-7 -9.879577420864837e-7 0 -1.3207636460327232e-7 0
          -1.320782415367001e-7 0 -1.3208388382436606e-7 -2.6331530829818025e-7 -2.6331922846187924e-7 -2.6333098329706884e-7
          -3.927195745000207e-7 -3.9272582958373033e-7 -3.9274461507044293e-7 -5.189389760550813e-7 -5.189481040385987e-7 -5.189755162000716e-7
          -6.400016931392654e-7 -6.400144365136906e-7 -6.400526804257092e-7 -7.529610060361529e-7 -7.529784160269027e-7 -7.530306666813677e-7
          -8.533036376332605e-7 -8.533261266476683e-7 -8.533936316689391e-7 -9.347186099938674e-7 -9.347463558383376e-7 -9.348295146762447e-7
          -9.959848980380152e-7 -9.96014933158828e-7 -9.961054964692121e-7 0 -1.3456607372826311e-7 0
          -1.3456803059056116e-7 0 -1.3457389566129767e-7 -2.680270748150984e-7 -2.680310976072641e-7 -2.6804316713629073e-7
          -3.990978029437484e-7 -3.9910411219332405e-7 -3.991230248373042e-7 -5.261158781497379e-7 -5.261248007876459e-7 -5.261515934730468e-7
          -6.468132140873068e-7 -6.468251578183505e-7 -6.46860972420497e-7 -7.580446141374659e-7 -7.580598099290798e-7 -7.58105387348855e-7
          -8.556139991079689e-7 -8.556323528675765e-7 -8.556874595373381e-7 -9.354400028050982e-7 -9.354581912003905e-7 -9.355125731222135e-7
          -9.993945704554178e-7 -9.9941085301243e-7 -9.994595225823102e-7 0 -1.364686299551853e-7 0
          -1.364706174457458e-7 0 -1.3647658624640627e-7 -2.7156812049752026e-7 -2.715721697290424e-7 -2.715843304525109e-7
          -4.0373403981899564e-7 -4.037402677943244e-7 -4.0375900830623593e-7 -5.310144125037571e-7 -5.310230027109111e-7 -5.310487783412467e-7
          -6.508927522945134e-7 -6.509037381517421e-7 -6.509367592679457e-7 -7.601875958930361e-7 -7.602007949468046e-7 -7.602403328232791e-7
          -8.553643080508561e-7 -8.553789826252752e-7 -8.554231572511627e-7 -9.342547013085353e-7 -9.342668891449827e-7 -9.343033614450107e-7
          -0.000001000373446029154 -0.000001000382464374852 -0.0000010004095514824956 0 -1.3784855803638776e-7 0
          -1.3785055694359043e-7 0 -1.378565589144251e-7 -2.740932102312756e-7 -2.740972454464652e-7 -2.7410934912157764e-7
          -4.0692470778619197e-7 -4.0693083305133216e-7 -4.069492024358485e-7 -5.34151385319117e-7 -5.341595744295763e-7 -5.341841705503986e-7
          -6.530885377569154e-7 -6.530987423902398e-7 -6.531293853398109e-7 -7.606584606247602e-7 -7.606700756742358e-7 -7.607049303761192e-7
          -8.54043105301348e-7 -8.540550235531929e-7 -8.540908589426004e-7 -9.324552073698791e-7 -9.324637232518512e-7 -9.32489192160115e-7
          -0.000001000217795152193 -0.000001000222138227125 -0.000001000234910185796 0 -1.3877347524578834e-7 0
          -1.38775477261464e-7 0 -1.3878147605542815e-7 -2.7575886505702066e-7 -2.7576287144636647e-7 -2.7577493468443893e-7
          -4.089598270098283e-7 -4.0896582687360357e-7 -4.0898385159981494e-7 -5.360062904721266e-7 -5.360142080578967e-7 -5.360379497564816e-7
          -6.54125989716678e-7 -6.541354736041819e-7 -6.541639685830079e-7 -7.603838769218691e-7 -7.603939840473437e-7 -7.604241900224278e-7
          -8.525792031653164e-7 -8.525893381193456e-7 -8.526198856546125e-7 -9.308052615863287e-7 -9.30811249866148e-7 -9.308291728502164e-7
          -9.996917870194103e-7 -9.996946701094225e-7 -9.997033878996888e-7 0 -1.393013894019837e-7 0
          -1.3930336843019353e-7 0 -1.3930935110318616e-7 -2.766948646726779e-7 -2.7669888087994986e-7 -2.7671085102865905e-7
          -4.100735650248245e-7 -4.100796386201168e-7 -4.100978489618714e-7 -5.369657490601366e-7 -5.369735186742857e-7 -5.36996849598618e-7
          -6.545326953100632e-7 -6.545417996552113e-7 -6.545691151832476e-7 -7.599732720767274e-7 -7.599828467622577e-7 -7.600116542060782e-7
          -8.515123080714862e-7 -8.515215601349492e-7 -8.515495955325192e-7 -9.297290279877526e-7 -9.297340695490801e-7 -9.297489796501416e-7
          -9.994271301877343e-7 -9.994310306875483e-7 -9.994434583653761e-7 0 -1.3947358677013798e-7 0
          -1.394755434936779e-7 0 -1.3948133135882204e-7 -2.769946600390758e-7 -2.769987211923803e-7 -2.7701107847497315e-7
          -4.104296811955269e-7 -4.1043517482033784e-7 -4.10451750150488e-7 -5.372530303560549e-7 -5.372604025218677e-7 -5.372824989611699e-7
          -6.546259809101059e-7 -6.546350552103476e-7 -6.546623996251524e-7 -7.597841082224597e-7 -7.59793810286706e-7 -7.59822924502062e-7
          -8.511224857281691e-7 -8.511312119051494e-7 -8.511573129979611e-7 -9.293510796575367e-7 -9.293551198347957e-7 -9.293671357135082e-7
          -9.990952196790968e-7 -9.990946830428785e-7 -9.990923524148383e-7
        </DataArray>
        <DataArray type="Float64" Name="disp_z" format="ascii" RangeMin="-2.310098894880811e-8" RangeMax="0">
          0 0 0 0 -9.108133306753457e-9 -9.12940671584089e-9
          -9.033417981783086e-9 -8.96768944347616e-9 -1.8216039507719537e-8 -1.825999482035518e-8 -1.8068916196055498e-8 -1.7933492151512523e-8
          0 0 0 0 -8.948111466640854e-9 -8.948176037775605e-9
          -8.982568800743501e-9 -8.973249869925732e-9 -1.78969519867444e-8 -1.7896469982833115e-8 -1.7964917497343765e-8 -1.7945733629277742e-8
          0 0 -9.045625891213211e-9 -8.974232565335457e-9 -1.8091997636567034e-8 -1.7949248393793436e-8
          0 0 0 -8.975348470985146e-9 -9.023708684119638e-9 -9.041039227126667e-9
          -1.795039415307677e-8 -1.8047750898501995e-8 -1.808177657349418e-8 0 0 0
          0 -8.892309444807284e-9 -8.866710022625353e-9 -8.856989476526563e-9 -8.89187444134828e-9 -1.7784161994907123e-8
          -1.7732853563641922e-8 -1.7714061221316377e-8 -1.778429353476722e-8 0 0 0
          0 -8.870810958169733e-9 -8.852031520219297e-9 -8.865563913692425e-9 -8.897206449799497e-9 -1.7741659839186105e-8
          -1.7703823249922468e-8 -1.773195855137614e-8 -1.779379425284505e-8 0 0 0
          -8.919328605372527e-9 -8.91670210318808e-9 -8.93818495833144e-9 -1.7838686823142447e-8 -1.7833295839060203e-8 -1.7876857163503477e-8
          0 -9.08163966588974e-9 -1.816308846298565e-8 0 0 -8.924437371108836e-9
          -8.915758288271508e-9 -1.7848634319372286e-8 -1.7831893190339982e-8 0 0 -9.047256839543396e-9
          -9.00017418543101e-9 -1.8094421833113924e-8 -1.8000431280026853e-8 0 0 -8.808934447045883e-9
          -8.809123381021915e-9 -1.761796994639115e-8 -1.761823289953611e-8 0 0 0
          0 -8.850772678835603e-9 -8.845628824914228e-9 -8.872024640751646e-9 -8.880662918519343e-9 -1.7701554027670937e-8
          -1.7691214364088055e-8 -1.774417976602868e-8 -1.7761124517287126e-8 0 -8.875228946016787e-9 -1.775053344762039e-8
          0 -8.808987196864078e-9 -1.761794550716805e-8 0 -8.96074275975745e-9 -1.7921400711694136e-8
          0 0 -8.958586120797698e-9 -8.934907410369069e-9 -1.791671636954232e-8 -1.78697040915778e-8
          0 0 0 0 -8.86960091491567e-9 -8.880001270311655e-9
          -8.868845125962473e-9 -8.856956238407399e-9 -1.7738972218664512e-8 -1.776036368764261e-8 -1.7737600136280158e-8 -1.771390359913852e-8
          0 0 -8.933922495272991e-9 -8.948094357803046e-9 -1.7868292875633397e-8 -1.7897689423816114e-8
          0 -8.824629628788932e-9 -1.7649185327021316e-8 0 -8.842077984749229e-9 -1.7683853031147758e-8
          0 0 -8.841082196814752e-9 -8.836713439655635e-9 -1.768176462079241e-8 -1.767337379110593e-8
          0 0 -8.911671706533362e-9 -8.896379893982934e-9 -1.7823410315814913e-8 -1.7793576989416143e-8
          0 0 -8.88328976210764e-9 -8.881541334264417e-9 -1.7767016939377602e-8 -1.7762569210080774e-8
          0 -8.827106476992866e-9 -1.765431301479059e-8 0 -8.89144158091857e-9 -1.7782792273171396e-8
          0 -8.828126617686227e-9 -1.7656333056830954e-8 0 -8.893337334037831e-9 -1.7786502569059755e-8
          0 -8.842710272451653e-9 -1.768529775383644e-8 0 0 -8.772832594467e-9
          -8.786664511738317e-9 -1.7545681545267065e-8 -1.757314582232409e-8 0 -8.921262982190454e-9 -1.784238546190179e-8
          0 0 -8.9122529117846e-9 -8.90612160969878e-9 -1.7824269974385976e-8 -1.78122870931241e-8
          0 0 -8.876317069417366e-9 -8.863184746890204e-9 -1.7752239825854386e-8 -1.7726559803190276e-8
          0 0 -8.942800584888049e-9 -8.939357521544888e-9 -1.7884525613248997e-8 -1.7876641106088567e-8
          0 -8.856783559520203e-9 -1.7713697652349788e-8 0 -8.797733688791713e-9 -1.7595675008121977e-8
          0 -8.848557578395343e-9 -1.76971347589527e-8 0 0 -8.829402275976602e-9
          -8.814564966051573e-9 -1.7658875693251372e-8 -1.762892588723979e-8 0 0 -8.799166750352782e-9
          -8.783913422620316e-9 -1.7598490293066227e-8 -1.7567510566983812e-8 0 0 0
          -8.825223346379846e-9 -8.829206623065331e-9 -8.812787478016616e-9 -1.765052441583159e-8 -1.7658193743790547e-8 -1.7625569851258877e-8
          0 -8.79722049272521e-9 -1.7594461614721456e-8 0 0 -8.899333006542781e-9
          -8.89915170801971e-9 -1.779915952931112e-8 -1.7798262289961618e-8 0 0 -8.95637298633111e-9
          -8.924212899735722e-9 -1.7916510680028266e-8 -1.783629694544083e-8 0 -8.812414833913453e-9 -1.762469124876583e-8
          0 -8.808767170923533e-9 -1.7617235077453176e-8 0 -8.925379294334177e-9 -1.7851087596086797e-8
          0 0 -8.872440504381347e-9 -8.847226191656284e-9 -1.7745051984241076e-8 -1.7694154830717196e-8
          0 -8.828453708941191e-9 -1.7656943245751087e-8 0 -8.897282916706747e-9 -1.7792523888529554e-8
          0 -8.922921859308347e-9 -1.7845134974364937e-8 0 -8.938034900268235e-9 -1.788318352868541e-8
          0 -9.010784239675352e-9 -1.8031691860360636e-8 0 -9.083308922859992e-9 -1.8166993265557247e-8
          0 -9.127190759951891e-9 -1.82544543946353e-8 0 -9.194619162429058e-9 -1.8389564293635215e-8
          0 -9.258651834834134e-9 -1.85171519670751e-8 0 -9.292114928791925e-9 -1.8583791205264395e-8
          0 -9.211070240940523e-9 -1.842213227880461e-8 0 0 -8.659784776409787e-9
          -8.646127407561433e-9 -1.7319603277672248e-8 -1.7292297235316637e-8 0 0 -8.501171284941104e-9
          -8.488603848078603e-9 -1.7002349645897603e-8 -1.697717685183876e-8 0 0 -8.30911264127399e-9
          -8.298874640911976e-9 -1.6618254180784543e-8 -1.6597736290395938e-8 0 0 -8.090426743203745e-9
          -8.083907852677047e-9 -1.6180878990311504e-8 -1.6167793482735587e-8 0 0 -7.8549596248709e-9
          -7.853501189735748e-9 -1.5709942445848495e-8 -1.570698612114785e-8 0 0 -7.614085017132792e-9
          -7.618718216661427e-9 -1.522818666549295e-8 -1.5237419741767402e-8 0 0 -7.379235083758416e-9
          -7.390590354355427e-9 -1.4758468366524078e-8 -1.4781181428504849e-8 0 0 -7.161220118709e-9
          -7.176862162063574e-9 -1.4322419242176267e-8 -1.4353715943536295e-8 0 -8.704589015925843e-9 -1.740916649187008e-8
          0 -8.541833800840557e-9 -1.708362053922974e-8 0 -8.34064299481587e-9 -1.6681245697712915e-8
          0 -8.108409357373575e-9 -1.621678589054907e-8 0 -7.856051445981282e-9 -1.5712055974754282e-8
          0 -7.596564390569728e-9 -1.5193149260569957e-8 0 -7.3412466584020095e-9 -1.4682481864321235e-8
          0 -7.110075072310452e-9 -1.422021928537707e-8 0 -8.785091779732805e-9 -1.7570303512163288e-8
          0 -8.616782562521441e-9 -1.7233653079350817e-8 0 -8.40083509556832e-9 -1.6801746176622565e-8
          0 -8.145212393027277e-9 -1.6290508225861195e-8 0 -7.862260775360844e-9 -1.572449703719958e-8
          0 -7.567854393086421e-9 -1.5135791387217658e-8 0 -7.273361812378833e-9 -1.454655123252215e-8
          0 -7.0159341988133104e-9 -1.4031797429803026e-8 0 -8.909276966289777e-9 -1.781826128794021e-8
          0 -8.73355912185042e-9 -1.746685392291398e-8 0 -8.495037409479319e-9 -1.6989841667715454e-8
          0 -8.202440740965688e-9 -1.6404782814768467e-8 0 -7.870492359620949e-9 -1.574082530839605e-8
          0 -7.51953806802933e-9 -1.5039337221570026e-8 0 -7.161208889808402e-9 -1.4322504921565111e-8
          0 -6.863503351585024e-9 -1.3727596309069677e-8 0 -9.090052417249203e-9 -1.8180881214132653e-8
          0 -8.905052685129337e-9 -1.7810774413214496e-8 0 -8.633216551360496e-9 -1.726693132882579e-8
          0 -8.284723710370624e-9 -1.656989031181804e-8 0 -7.87759810974214e-9 -1.5755080535747883e-8
          0 -7.4392012674320225e-9 -1.4878609992542517e-8 0 -6.980145078954597e-9 -1.3959181559822806e-8
          0 -6.623805952129367e-9 -1.3246896439019591e-8 0 -9.419001902472677e-9 -1.883639994717498e-8
          0 -9.343592394299592e-9 -1.8685512635618605e-8 0 -9.146821752569193e-9 -1.829225258154591e-8
          0 -8.825872707159888e-9 -1.7650547963262773e-8 0 -8.394479864723271e-9 -1.6788435761277132e-8
          0 -7.875141551789776e-9 -1.574965274204608e-8 0 -7.30388446045222e-9 -1.4609108612949387e-8
          0 -6.688969191449798e-9 -1.3378792996461634e-8 0 -6.265114797547522e-9 -1.2533274702914272e-8
          0 -9.769942684845623e-9 -1.954203073578419e-8 0 -9.735813911936566e-9 -1.9473867859620906e-8
          0 -9.517818868088872e-9 -1.9037624012259297e-8 0 -9.120061882793073e-9 -1.8241473937922967e-8
          0 -8.558024174522571e-9 -1.711734600609373e-8 0 -7.858479096630824e-9 -1.571614313814606e-8
          0 -7.073800386872475e-9 -1.414830959351458e-8 0 -6.1720204664864314e-9 -1.2339824132503839e-8
          0 -5.628732892355535e-9 -1.1255506284936106e-8 0 -1.0098223460279691e-8 -2.0196182493402356e-8
          0 -1.0126639718788554e-8 -2.025284938689854e-8 0 -9.893229725038979e-9 -1.9786326791623586e-8
          0 -9.398175609046086e-9 -1.8796000118429647e-8 0 -8.677109194252576e-9 -1.7355177234846184e-8
          0 -7.764836420387467e-9 -1.5528176860706043e-8 0 -6.719831191700839e-9 -1.3444341259501268e-8
          0 -5.496194654342132e-9 -1.0989962358466642e-8 0 -4.921453663691772e-9 -9.847243839859085e-9
          0 -1.1366185399007241e-8 -2.2736113540992547e-8 0 -1.1548528074781147e-8 -2.310098894880811e-8
          0 -1.1166479971078472e-8 -2.2337346054235908e-8 0 -1.0393787448452328e-8 -2.0790617042651647e-8
          0 -9.248354801805403e-9 -1.8501000004029066e-8 0 -7.730550457533418e-9 -1.5459226756147456e-8
          0 -5.922813109643795e-9 -1.1851374620666391e-8 0 -3.4058533132915934e-9 -6.805910044888918e-9
          0 -1.695566403808683e-9 -3.3933276846495677e-9 0 0 -7.043533039615802e-9
          -7.023341860743503e-9 -1.4087102491386805e-8 -1.4046693117052277e-8 0 -6.959126424433524e-9 -1.3918250904300077e-8
          0 -6.8429580669323296e-9 -1.3685692618263733e-8 0 -6.658674129295292e-9 -1.331732411315961e-8
          0 -6.37465133347071e-9 -1.2748123554850089e-8 0 -5.95369556235265e-9 -1.1907405772368509e-8
          0 -5.2305619184580845e-9 -1.045753888618253e-8 0 -4.318017989221695e-9 -8.630488339833587e-9
          0 -1.5939074624379624e-9 -3.1779951837103335e-9 0 0 -6.9197495944068236e-9
          -6.897195952013136e-9 -1.3839466246026654e-8 -1.3794370744626601e-8 0 -6.826953719827192e-9 -1.365393462279326e-8
          0 -6.701829578808322e-9 -1.3403762699924077e-8 0 -6.507620038313841e-9 -1.3015529230075206e-8
          0 -6.222815492132003e-9 -1.2446024133412529e-8 0 -5.805122700396671e-9 -1.1611606720950131e-8
          0 -5.2071473659718325e-9 -1.041582517249959e-8 0 -4.376877468317869e-9 -8.759356884035057e-9
          0 -3.0785943367935325e-9 -6.163200327080085e-9 0 0 -6.811221727606633e-9
          -6.787010588160392e-9 -1.3622464375143534e-8 -1.3574036191329206e-8 0 -6.712347655307163e-9 -1.342468907173917e-8
          0 -6.581246300303331e-9 -1.3162434477868148e-8 0 -6.38322333229172e-9 -1.2766327108409232e-8
          0 -6.101074039309355e-9 -1.2201860504128137e-8 0 -5.7132396529650586e-9 -1.14260233998976e-8
          0 -5.194712206672189e-9 -1.0388131309127308e-8 0 -4.546947411824085e-9 -9.09157021093455e-9
          0 -3.786542163126884e-9 -7.563950094596135e-9 0 0 -6.718444425781039e-9
          -6.693240731025278e-9 -1.3436866235667841e-8 -1.3386461070536544e-8 0 -6.616146357525722e-9 -1.3232278949481035e-8
          0 -6.482884281672834e-9 -1.2965791538958526e-8 0 -6.28624047881139e-9 -1.2572526102329222e-8
          0 -6.016584855571535e-9 -1.203330535822702e-8 0 -5.665354371031536e-9 -1.1330853352178385e-8
          0 -5.2299625281867865e-9 -1.0460512814500672e-8 0 -4.7422125802750274e-9 -9.485038447289888e-9
          0 -4.305446293287276e-9 -8.612987813661283e-9 0 0 -6.642091637381909e-9
          -6.616384867583173e-9 -1.3284237347945148e-8 -1.3232819619871604e-8 0 -6.538326670375067e-9 -1.3076709770760895e-8
          0 -6.405219975525916e-9 -1.281043600878248e-8 0 -6.213344818704997e-9 -1.2426670780025233e-8
          0 -5.95924838442294e-9 -1.1918464109891858e-8 0 -5.644408621413929e-9 -1.1288656203294673e-8
          0 -5.280962809573742e-9 -1.0561874424776794e-8 0 -4.9164307241180985e-9 -9.832396441220811e-9
          0 -4.6579274494834616e-9 -9.314384055446214e-9 0 0 -6.582595820350148e-9
          -6.556716052345411e-9 -1.3165057723063558e-8 -1.3113309664149482e-8 0 -6.478532333649499e-9 -1.2956917788134983e-8
          0 -6.3468705176714405e-9 -1.2693742517286444e-8 0 -6.160936838932975e-9 -1.2321871268937914e-8
          0 -5.922205116555289e-9 -1.1844453420171007e-8 0 -5.638260616173148e-9 -1.127659458991772e-8
          0 -5.33177324515997e-9 -1.0663662588364891e-8 0 -5.052367644214215e-9 -1.0104600988867072e-8
          0 -4.898904483626647e-9 -9.797583044043024e-9 0 0 -6.540478670388421e-9
          -6.514580324365334e-9 -1.308130342657901e-8 -1.3029482402105436e-8 0 -6.4367634983532165e-9 -1.2873908672215588e-8
          0 -6.306364559670827e-9 -1.2612792692417664e-8 0 -6.125575794657424e-9 -1.2251128391020825e-8
          0 -5.898637725286002e-9 -1.1797337677334804e-8 0 -5.63757407053582e-9 -1.1274776406584492e-8
          0 -5.373106532944447e-9 -1.07463648965934e-8 0 -5.146727990126752e-9 -1.0293230972087626e-8
          0 -5.058863409048911e-9 -1.0117715105302895e-8 0 0 -6.5126699192704355e-9
          -6.486998108329308e-9 -1.3024882662613415e-8 -1.297359736638548e-8 0 -6.408999557421093e-9 -1.2817436814060279e-8
          0 -6.283529366769439e-9 -1.256700958123849e-8 0 -6.106859725427596e-9 -1.2213626674512939e-8
          0 -5.894597980376032e-9 -1.1789457308940316e-8 0 -5.648242838761548e-9 -1.1295843446439975e-8
          0 -5.399960437170005e-9 -1.0800939233787316e-8 0 -5.198059413040113e-9 -1.0395704928468112e-8
          0 -5.148050071120642e-9 -1.0295524776680345e-8 0 0 -6.530287436448829e-9
          -6.5030983244655e-9 -1.3058377787150657e-8 -1.3003922316738372e-8 0 -6.43224556712906e-9 -1.2862180355206751e-8
          0 -6.276830692716974e-9 -1.2552525360854317e-8 0 -6.1050519309579846e-9 -1.221014010596801e-8
          0 -5.899929562780986e-9 -1.1800734060921484e-8 0 -5.639002988000027e-9 -1.1277940023725177e-8
          0 -5.407530645681986e-9 -1.081566869346773e-8 0 -5.219053074977012e-9 -1.043762805663732e-8
          0 -5.235429044979952e-9 -1.0469357493316102e-8
        </DataArray>
      </PointData>
      <CellData>
        <DataArray type="Int32" Name="libmesh_elem_id" format="ascii" RangeMin="1398" RangeMax="3643">
          1398 1399 1422 1423 1460 1461
          1470 1471 1482 1483 1494 1495
          1502 1503 1506 1507 1520 1521
          1528 1529 1580 1581 1584 1585
          1612 1613 1636 1637 1652 1653
          1722 1723 1798 1799 1850 1851
          2298 2299 2406 2407 2442 2443
          2450 2451 2472 2473 2558 2559
          2610 2611 2646 2647 2648 2649
          2662 2663 2672 2673 2680 2681
          2748 2749 2756 2757 2776 2777
          2808 2809 2814 2815 2822 2823
          2828 2829 2836 2837 2852 2853
          2876 2877 2898 2899 2910 2911
          2926 2927 2936 2937 2950 2951
          2952 2953 2954 2955 2966 2967
          2980 2981 2982 2983 2990 2991
          3006 3007 3014 3015 3026 3027
          3068 3069 3074 3075 3104 3105
          3110 3111 3124 3125 3126 3127
          3168 3169 3194 3195 3204 3205
          3208 3209 3210 3211 3212 3213
          3220 3221 3222 3223 3224 3225
          3226 3227 3234 3235 3236 3237
          3240 3241 3252 3253 3254 3255
          3264 3265 3296 3297 3302 3303
          3308 3309 3314 3315 3324 3325
          3326 3327 3328 3329 3330 3331
          3332 3333 3334 3335 3336 3337
          3342 3343 3344 3345 3346 3347
          3348 3349 3350 3351 3352 3353
          3354 3355 3360 3361 3362 3363
          3364 3365 3366 3367 3368 3369
          3370 3371 3372 3373 3378 3379
          3380 3381 3382 3383 3384 3385
          3386 3387 3388 3389 3390 3391
          3396 3397 3398 3399 3400 3401
          3402 3403 3404 3405 3406 3407
          3408 3409 3414 3415 3416 3417
          3418 3419 3420 3421 3422 3423
          3424 3425 3426 3427 3430 3431
          3432 3433 3434 3435 3436 3437
          3438 3439 3440 3441 3442 3443
          3444 3445 3448 3449 3450 3451
          3452 3453 3454 3455 3456 3457
          3458 3459 3460 3461 3462 3463
          3466 3467 3468 3469 3470 3471
          3472 3473 3474 3475 3476 3477
          3478 3479 3480 3481 3482 3483
          3484 3485 3486 3487 3488 3489
          3490 3491 3492 3493 3494 3495
          3496 3497 3498 3499 3500 3501
          3502 3503 3504 3505 3506 3507
          3508 3509 3510 3511 3512 3513
          3514 3515 3516 3517 3518 3519
          3520 3521 3522 3523 3524 3525
          3526 3527 3528 3529 3530 3531
          3532 3533 3534 3535 3536 3537
          3538 3539 3540 3541 3542 3543
          3544 3545 3546 3547 3548 3549
          3550 3551 3552 3553 3554 3555
          3556 3557 3558 3559 3560 3561
          3562 3563 3564 3565 3566 3567
          3568 3569 3570 3571 3572 3573
          3574 3575 3576 3577 3578 3579
          3580 3581 3582 3583 3584 3585
          3586 3587 3588 3589 3590 3591
          3592 3593 3594 3595 3596 3597
          3598 3599 3600 3601 3602 3603
          3604 3605 3606 3607 3608 3609
          3610 3611 3612 3613 3614 3615
          3616 3617 3618 3619 3620 3621
          3622 3623 3624 3625 3626 3627
          3628 3629 3630 3631 3632 3633
          3634 3635 3636 3637 3638 3639
          3640 3641 3642 3643
        </DataArray>
        <DataArray type="Int32" Name="subdomain_id" format="ascii" RangeMin="107" RangeMax="110">
          107 107 107 107 107 107
          107 107 107 107 107 107
          107 107 107 107 107 107
          107 107 107 107 107 107
          107 107 107 107 107 107
          107 107 107 107 107 107
          107 107 107 107 107 107
          107 107 107 107 107 107
          107 107 107 107 107 107
          107 107 107 107 107 107
          107 107 107 107 107 107
          107 107 107 107 107 107
          107 107 107 107 107 107
          107 107 107 107 107 107
          107 107 107 107 107 107
          107 107 107 107 107 107
          107 107 107 107 107 107
          107 107 107 107 107 107
          107 107 107 107 107 107
          107 107 107 107 107 107
          107 107 107 107 107 107
          107 107 107 107 107 107
          107 107 107 107 107 107
          107 107 107 107 107 107
          107 107 107 107 107 107
          107 107 108 108 108 108
          108 108 108 108 109 109
          109 109 109 109 109 109
          109 109 109 109 109 109
          109 109 109 109 109 109
          109 109 109 109 109 109
          109 109 109 109 109 109
          109 109 109 109 109 109
          109 109 109 109 109 109
          109 109 109 109 109 109
          109 109 109 109 109 109
          109 109 109 109 109 109
          109 109 109 109 109 109
          109 109 109 109 109 109
          109 109 109 109 109 109
          109 109 109 109 109 109
          109 109 109 109 109 109
          109 109 109 109 109 109
          109 109 109 109 109 109
          109 109 109 109 109 109
          109 109 109 109 109 109
          109 109 109 109 109 109
          109 109 109 109 109 109
          109 109 109 109 110 110
          110 110 110 110 110 110
          110 110 110 110 110 110
          110 110 110 110 110 110
          110 110 110 110 110 110
          110 110 110 110 110 110
          110 110 110 110 110 110
          110 110 110 110 110 110
          110 110 110 110 110 110
          110 110 110 110 110 110
          110 110 110 110 110 110
          110 110 110 110 110 110
          110 110 110 110 110 110
          110 110 110 110 110 110
          110 110 110 110 110 110
          110 110 110 110 110 110
          110 110 110 110 110 110
          110 110 110 110 110 110
          110 110 110 110 110 110
          110 110 110 110 110 110
          110 110 110 110 110 110
          110 110 110 110 110 110
          110 110 110 110 110 110
          110 110 110 110 110 110
          110 110 110 110 110 110
          110 110 110 110 110 110
          110 110 110 110 110 110
          110 110 110 110
        </DataArray>
        <DataArray type="Int32" Name="processor_id" format="ascii" RangeMin="0" RangeMax="0">
          0 0 0 0 0 0
          0 0 0 0 0 0
          0 0 0 0 0 0
          0 0 0 0 0 0
          0 0 0 0 0 0
          0 0 0 0 0 0
          0 0 0 0 0 0
          0 0 0 0 0 0
          0 0 0 0 0 0
          0 0 0 0 0 0
          0 0 0 0 0 0
          0 0 0 0 0 0
          0 0 0 0 0 0
          0 0 0 0 0 0
          0 0 0 0 0 0
          0 0 0 0 0 0
          0 0 0 0 0 0
          0 0 0 0 0 0
          0 0 0 0 0 0
          0 0 0 0 0 0
          0 0 0 0 0 0
          0 0 0 0 0 0
          0 0 0 0 0 0
          0 0 0 0 0 0
          0 0 0 0 0 0
          0 0 0 0 0 0
          0 0 0 0 0 0
          0 0 0 0 0 0
          0 0 0 0 0 0
          0 0 0 0 0 0
          0 0 0 0 0 0
          0 0 0 0 0 0
          0 0 0 0 0 0
          0 0 0 0 0 0
          0 0 0 0 0 0
          0 0 0 0 0 0
          0 0 0 0 0 0
          0 0 0 0 0 0
          0 0 0 0 0 0
          0 0 0 0 0 0
          0 0 0 0 0 0
          0 0 0 0 0 0
          0 0 0 0 0 0
          0 0 0 0 0 0
          0 0 0 0 0 0
          0 0 0 0 0 0
          0 0 0 0 0 0
          0 0 0 0 0 0
          0 0 0 0 0 0
          0 0 0 0 0 0
          0 0 0 0 0 0
          0 0 0 0 0 0
          0 0 0 0 0 0
          0 0 0 0 0 0
          0 0 0 0 0 0
          0 0 0 0 0 0
          0 0 0 0 0 0
          0 0 0 0 0 0
          0 0 0 0 0 0
          0 0 0 0 0 0
          0 0 0 0 0 0
          0 0 0 0 0 0
          0 0 0 0 0 0
          0 0 0 0 0 0
          0 0 0 0 0 0
          0 0 0 0 0 0
          0 0 0 0 0 0
          0 0 0 0 0 0
          0 0 0 0 0 0
          0 0 0 0 0 0
          0 0 0 0 0 0
          0 0 0 0 0 0
          0 0 0 0 0 0
          0 0 0 0 0 0
          0 0 0 0 0 0
          0 0 0 0
        </DataArray>
      </CellData>
      <Points>
        <DataArray type="Float64" Name="Points" NumberOfComponents="3" format="ascii" RangeMin="0.019949534490770096" RangeMax="0.057059767276955435">
          0.025 0.010111111111103 0 0.025 0.011555555555552 0
          0.023969654121399 0.011643457228511 0 0.023712354871128 0.010827306146479 0
          0.025 0.010111111111103 0.00015 0.025 0.011555555555552 0.00015
          0.023969654121399 0.011643457228511 0.00015 0.023712354871128 0.010827306146479 0.00015
          0.025 0.010111111111103 0.0003 0.025 0.011555555555552 0.0003
          0.023969654121399 0.011643457228511 0.0003 0.023712354871128 0.010827306146479 0.0003
          0.021832836898909 0.0086447924127183 0 0.021823224979211 0.0078559681587773 0
          0.022737846371709 0.0079006862580081 0 0.022634898807434 0.0088549234284915 0
          0.021832836898909 0.0086447924127183 0.00015 0.021823224979211 0.0078559681587773 0.00015
          0.022737846371709 0.0079006862580081 0.00015 0.022634898807434 0.0088549234284915 0.00015
          0.021832836898909 0.0086447924127183 0.0003 0.021823224979211 0.0078559681587773 0.0003
          0.022737846371709 0.0079006862580081 0.0003 0.022634898807434 0.0088549234284915 0.0003
          0.023595500831214 0.0092794942281182 0 0.023071107871262 0.010124307969263 0
          0.023595500831214 0.0092794942281182 0.00015 0.023071107871262 0.010124307969263 0.00015
          0.023595500831214 0.0092794942281182 0.0003 0.023071107871262 0.010124307969263 0.0003
          0.022679909737796 0.0068405181074087 0 0.023816654948859 0.0069324696013164 0
          0.023805320189621 0.0081867285281858 0 0.022679909737796 0.0068405181074087 0.00015
          0.023816654948859 0.0069324696013164 0.00015 0.023805320189621 0.0081867285281858 0.00015
          0.022679909737796 0.0068405181074087 0.0003 0.023816654948859 0.0069324696013164 0.0003
          0.023805320189621 0.0081867285281858 0.0003 0.021890570917318 0.011219591567605 0
          0.021490495874743 0.011513015985888 0 0.020878683694742 0.011349585571751 0
          0.021380466308845 0.010767094219468 0 0.021890570917318 0.011219591567605 0.00015
          0.021490495874743 0.011513015985888 0.00015 0.020878683694742 0.011349585571751 0.00015
          0.021380466308845 0.010767094219468 0.00015 0.021890570917318 0.011219591567605 0.0003
          0.021490495874743 0.011513015985888 0.0003 0.020878683694742 0.011349585571751 0.0003
          0.021380466308845 0.010767094219468 0.0003 0.022336312736143 0.012467557709352 0
          0.021763745105177 0.012476629724541 0 0.021622459990569 0.011931223094182 0
          0.02233098651665 0.011816769005978 0 0.022336312736143 0.012467557709352 0.00015
          0.021763745105177 0.012476629724541 0.00015 0.021622459990569 0.011931223094182 0.00015
          0.02233098651665 0.011816769005978 0.00015 0.022336312736143 0.012467557709352 0.0003
          0.021763745105177 0.012476629724541 0.0003 0.021622459990569 0.011931223094182 0.0003
          0.02233098651665 0.011816769005978 0.0003 0.021047379294988 0.0079667793778881 0
          0.020813290684512 0.007243328880283 0 0.021666975794544 0.0069715825078724 0
          0.021047379294988 0.0079667793778881 0.00015 0.020813290684512 0.007243328880283 0.00015
          0.021666975794544 0.0069715825078724 0.00015 0.021047379294988 0.0079667793778881 0.0003
          0.020813290684512 0.007243328880283 0.0003 0.021666975794544 0.0069715825078724 0.0003
          0.025 0.0086666666666559 0 0.025 0.0086666666666559 0.00015
          0.025 0.0086666666666559 0.0003 0.021356284292895 0.0061182113295331 0
          0.020489019208248 0.0065103794253073 0 0.021356284292895 0.0061182113295331 0.00015
          0.020489019208248 0.0065103794253073 0.00015 0.021356284292895 0.0061182113295331 0.0003
          0.020489019208248 0.0065103794253073 0.0003 0.025 0.0072222222222063 0
          0.023829479378086 0.0056593315311521 0 0.025 0.0072222222222063 0.00015
          0.023829479378086 0.0056593315311521 0.00015 0.025 0.0072222222222063 0.0003
          0.023829479378086 0.0056593315311521 0.0003 0.019357361519954 0.01157618305141 0
          0.01884046117173 0.011223113854601 0 0.019357361519954 0.01157618305141 0.00015
          0.01884046117173 0.011223113854601 0.00015 0.019357361519954 0.01157618305141 0.0003
          0.01884046117173 0.011223113854601 0.0003 0.020274347850796 0.01080512315655 0
          0.019692191057164 0.010418143528135 0 0.020104676199583 0.0097475599042502 0
          0.020792052735599 0.010316149813733 0 0.020274347850796 0.01080512315655 0.00015
          0.019692191057164 0.010418143528135 0.00015 0.020104676199583 0.0097475599042502 0.00015
          0.020792052735599 0.010316149813733 0.00015 0.020274347850796 0.01080512315655 0.0003
          0.019692191057164 0.010418143528135 0.0003 0.020104676199583 0.0097475599042502 0.0003
          0.020792052735599 0.010316149813733 0.0003 0.018734278863615 0.0068564365277259 0
          0.018734278863615 0.0068564365277259 0.00015 0.018734278863615 0.0068564365277259 0.0003
          0.018384253973557 0.010894663204421 0 0.018384253973557 0.010894663204421 0.00015
          0.018384253973557 0.010894663204421 0.0003 0.022477642087048 0.0055533155338694 0
          0.022477642087048 0.0055533155338694 0.00015 0.022477642087048 0.0055533155338694 0.0003
          0.022333445868241 0.0096250088550796 0 0.021678233976573 0.0092839168226163 0
          0.022333445868241 0.0096250088550796 0.00015 0.021678233976573 0.0092839168226163 0.00015
          0.022333445868241 0.0096250088550796 0.0003 0.021678233976573 0.0092839168226163 0.0003
          0.018696511924608 0.0075816988835645 0 0.019307778433714 0.0076950261479263 0
          0.019244919669154 0.0083241905034728 0 0.018643245907353 0.0082916041839039 0
          0.018696511924608 0.0075816988835645 0.00015 0.019307778433714 0.0076950261479263 0.00015
          0.019244919669154 0.0083241905034728 0.00015 0.018643245907353 0.0082916041839039 0.00015
          0.018696511924608 0.0075816988835645 0.0003 0.019307778433714 0.0076950261479263 0.0003
          0.019244919669154 0.0083241905034728 0.0003 0.018643245907353 0.0082916041839039 0.0003
          0.02247089481133 0.010746063389313 0 0.022956441030322 0.011313723369763 0
          0.02247089481133 0.010746063389313 0.00015 0.022956441030322 0.011313723369763 0.00015
          0.02247089481133 0.010746063389313 0.0003 0.022956441030322 0.011313723369763 0.0003
          0.018817000838468 0.010560792840001 0 0.018817000838468 0.010560792840001 0.00015
          0.018817000838468 0.010560792840001 0.0003 0.021028725472558 0.011993213484042 0
          0.021028725472558 0.011993213484042 0.00015 0.021028725472558 0.011993213484042 0.0003
          0.018719100515555 0.0096191331103102 0 0.018769006148643 0.010016813571171 0
          0.018719100515555 0.0096191331103102 0.00015 0.018769006148643 0.010016813571171 0.00015
          0.018719100515555 0.0096191331103102 0.0003 0.018769006148643 0.010016813571171 0.0003
          0.022845614094026 0.012068678060928 0 0.022870050818517 0.012481997757377 0
          0.022845614094026 0.012068678060928 0.00015 0.022870050818517 0.012481997757377 0.00015
          0.022845614094026 0.012068678060928 0.0003 0.022870050818517 0.012481997757377 0.0003
          0.01980903614198 0.0082923028866096 0 0.019733887771193 0.007830319872041 0
          0.01980903614198 0.0082923028866096 0.00015 0.019733887771193 0.007830319872041 0.00015
          0.01980903614198 0.0082923028866096 0.0003 0.019733887771193 0.007830319872041 0.0003
          0.019287865107188 0.010870204720027 0 0.019287865107188 0.010870204720027 0.00015
          0.019287865107188 0.010870204720027 0.0003 0.019611341590458 0.0069319215290848 0
          0.019611341590458 0.0069319215290848 0.00015 0.019611341590458 0.0069319215290848 0.0003
          0.019793192887703 0.011218191570876 0 0.019793192887703 0.011218191570876 0.00015
          0.019793192887703 0.011218191570876 0.0003 0.02014052068744 0.0075597001530957 0
          0.02014052068744 0.0075597001530957 0.00015 0.02014052068744 0.0075597001530957 0.0003
          0.019142781766586 0.010156284019367 0 0.019142781766586 0.010156284019367 0.00015
          0.019142781766586 0.010156284019367 0.0003 0.019871794871807 0.013 0
          0.019671681078705 0.012567114388191 0 0.019871794871807 0.013 0.00015
          0.019671681078705 0.012567114388191 0.00015 0.019871794871807 0.013 0.0003
          0.019671681078705 0.012567114388191 0.0003 0.02189605775595 0.01024368797285 0
          0.02189605775595 0.01024368797285 0.00015 0.02189605775595 0.01024368797285 0.0003
          0.021306208963658 0.0098107932917518 0 0.020830530356293 0.0093484326970494 0
          0.021306208963658 0.0098107932917518 0.00015 0.020830530356293 0.0093484326970494 0.00015
          0.021306208963658 0.0098107932917518 0.0003 0.020830530356293 0.0093484326970494 0.0003
          0.019927087042343 0.0089401115508047 0 0.019284140679376 0.0089915496868705 0
          0.019927087042343 0.0089401115508047 0.00015 0.019284140679376 0.0089915496868705 0.00015
          0.019927087042343 0.0089401115508047 0.0003 0.019284140679376 0.0089915496868705 0.0003
          0.023272296973232 0.01187913061167 0 0.023408043049707 0.012441583397961 0
          0.023272296973232 0.01187913061167 0.00015 0.023408043049707 0.012441583397961 0.00015
          0.023272296973232 0.01187913061167 0.0003 0.023408043049707 0.012441583397961 0.0003
          0.019291729405334 0.009640079412969 0 0.019291729405334 0.009640079412969 0.00015
          0.019291729405334 0.009640079412969 0.0003 0.019497075330812 0.012129782091497 0
          0.019497075330812 0.012129782091497 0.00015 0.019497075330812 0.012129782091497 0.0003
          0.018655444813331 0.0089912542068827 0 0.018655444813331 0.0089912542068827 0.00015
          0.018655444813331 0.0089912542068827 0.0003 0.020217772280624 0.01161574996656 0
          0.019866459267603 0.011787315550137 0 0.020217772280624 0.01161574996656 0.00015
          0.019866459267603 0.011787315550137 0.00015 0.020217772280624 0.01161574996656 0.0003
          0.019866459267603 0.011787315550137 0.0003 0.020169909004412 0.012559422291794 0
          0.020384615384626 0.013 0 0.020169909004412 0.012559422291794 0.00015
          0.020384615384626 0.013 0.00015 0.020169909004412 0.012559422291794 0.0003
          0.020384615384626 0.013 0.0003 0.02048968364866 0.012063778985416 0
          0.021216890903006 0.012503701361908 0 0.020684692364028 0.012535095885709 0
          0.02048968364866 0.012063778985416 0.00015 0.021216890903006 0.012503701361908 0.00015
          0.020684692364028 0.012535095885709 0.00015 0.02048968364866 0.012063778985416 0.0003
          0.021216890903006 0.012503701361908 0.0003 0.020684692364028 0.012535095885709 0.0003
          0.020897435897446 0.013 0 0.020897435897446 0.013 0.00015
          0.020897435897446 0.013 0.0003 0.020387511226442 0.0081443073342907 0
          0.02056343795537 0.0087688297792787 0 0.020387511226442 0.0081443073342907 0.00015
          0.02056343795537 0.0087688297792787 0.00015 0.020387511226442 0.0081443073342907 0.0003
          0.02056343795537 0.0087688297792787 0.0003 0.023967653117571 0.012391671962311 0
          0.024322147732379 0.012509260561901 0 0.023967653117571 0.012391671962311 0.00015
          0.024322147732379 0.012509260561901 0.00015 0.023967653117571 0.012391671962311 0.0003
          0.024322147732379 0.012509260561901 0.0003 0.021410256410266 0.013 0
          0.021410256410266 0.013 0.00015 0.021410256410266 0.013 0.0003
          0.019993073529409 0.012116879865089 0 0.019993073529409 0.012116879865089 0.00015
          0.019993073529409 0.012116879865089 0.0003 0.02122910202584 0.0090825003429501 0
          0.02122910202584 0.0090825003429501 0.00015 0.02122910202584 0.0090825003429501 0.0003
          0.022948717948721 0.013 0 0.022435897435903 0.013 0
          0.022948717948721 0.013 0.00015 0.022435897435903 0.013 0.00015
          0.022948717948721 0.013 0.0003 0.022435897435903 0.013 0.0003
          0.021923076923085 0.013 0 0.021923076923085 0.013 0.00015
          0.021923076923085 0.013 0.0003 0.023461538461539 0.013 0
          0.023461538461539 0.013 0.00015 0.023461538461539 0.013 0.0003
          0.021171209164951 0.0086229949315581 0 0.021171209164951 0.0086229949315581 0.00015
          0.021171209164951 0.0086229949315581 0.0003 0.023974358974358 0.013 0
          0.023974358974358 0.013 0.00015 0.023974358974358 0.013 0.0003
          0.024487179487177 0.013 0 0.024487179487177 0.013 0.00015
          0.024487179487177 0.013 0.0003 0.025 0.013 0
          0.025 0.013 0.00015 0.025 0.013 0.0003
          0.026666666666667 0.0072222222222063 0 0.026666666666667 0.0072222222222063 0.00015
          0.026666666666667 0.0072222222222063 0.0003 0.026666666666668 0.0086666666666559 0
          0.026666666666668 0.0086666666666559 0.00015 0.026666666666668 0.0086666666666559 0.0003
          0.026666666666669 0.010111111111103 0 0.026666666666669 0.010111111111103 0.00015
          0.026666666666669 0.010111111111103 0.0003 0.026666666666669 0.011555555555552 0
          0.026666666666669 0.011555555555552 0.00015 0.026666666666669 0.011555555555552 0.0003
          0.02666666666667 0.013 0 0.02666666666667 0.013 0.00015
          0.02666666666667 0.013 0.0003 0.033201501647561 0.0014698753983525 0
          0.033179797338052 0 0 0.033201501647561 0.0014698753983525 0.00015
          0.033179797338052 0 0.00015 0.033201501647561 0.0014698753983525 0.0003
          0.033179797338052 0 0.0003 0.034800103200053 0.0015015548376625 0
          0.034769696007096 0 0 0.034800103200053 0.0015015548376625 0.00015
          0.034769696007096 0 0.00015 0.034800103200053 0.0015015548376625 0.0003
          0.034769696007096 0 0.0003 0.03639613666046 0.0015457026119765 0
          0.036359594676111 0 0 0.03639613666046 0.0015457026119765 0.00015
          0.036359594676111 0 0.00015 0.03639613666046 0.0015457026119765 0.0003
          0.036359594676111 0 0.0003 0.037988764334349 0.001602116400018 0
          0.037949493345121 0 0 0.037988764334349 0.001602116400018 0.00015
          0.037949493345121 0 0.00015 0.037988764334349 0.001602116400018 0.0003
          0.037949493345121 0 0.0003 0.039577164134098 0.001670537667151 0
          0.039539392014149 0 0 0.039577164134098 0.001670537667151 0.00015
          0.039539392014149 0 0.00015 0.039577164134098 0.001670537667151 0.0003
          0.039539392014149 0 0.0003 0.041160533348121 0.0017506528505884 0
          0.041129290683195 0 0 0.041160533348121 0.0017506528505884 0.00015
          0.041129290683195 0 0.00015 0.041160533348121 0.0017506528505884 0.0003
          0.041129290683195 0 0.0003 0.042738092320879 0.0018420947973532 0
          0.042719189352233 0 0 0.042738092320879 0.0018420947973532 0.00015
          0.042719189352233 0 0.00015 0.042738092320879 0.0018420947973532 0.0003
          0.042719189352233 0 0.0003 0.044309088021254 0.0019444444444413 0
          0.044309088021254 0 0 0.044309088021254 0.0019444444444413 0.00015
          0.044309088021254 0 0.00015 0.044309088021254 0.0019444444444413 0.0003
          0.044309088021254 0 0.0003 0.033223205957069 0.0029397507967035 0
          0.033223205957069 0.0029397507967035 0.00015 0.033223205957069 0.0029397507967035 0.0003
          0.03483051039301 0.0030031096753234 0 0.03483051039301 0.0030031096753234 0.00015
          0.03483051039301 0.0030031096753234 0.0003 0.036432678644808 0.0030914052239513 0
          0.036432678644808 0.0030914052239513 0.00015 0.036432678644808 0.0030914052239513 0.0003
          0.038028035323577 0.0032042328000343 0 0.038028035323577 0.0032042328000343 0.00015
          0.038028035323577 0.0032042328000343 0.0003 0.039614936254047 0.0033410753343001 0
          0.039614936254047 0.0033410753343001 0.00015 0.039614936254047 0.0033410753343001 0.0003
          0.041191776013048 0.0035013057011749 0 0.041191776013048 0.0035013057011749 0.00015
          0.041191776013048 0.0035013057011749 0.0003 0.042756995289524 0.0036841895947044 0
          0.042756995289524 0.0036841895947044 0.00015 0.042756995289524 0.0036841895947044 0.0003
          0.044309088021254 0.0038888888888803 0 0.044309088021254 0.0038888888888803 0.00015
          0.044309088021254 0.0038888888888803 0.0003 0.033244910266578 0.0044096261950543 0
          0.033244910266578 0.0044096261950543 0.00015 0.033244910266578 0.0044096261950543 0.0003
          0.034860917585967 0.004504664512984 0 0.034860917585967 0.004504664512984 0.00015
          0.034860917585967 0.004504664512984 0.0003 0.036469220629156 0.0046371078359259 0
          0.036469220629156 0.0046371078359259 0.00015 0.036469220629156 0.0046371078359259 0.0003
          0.038067306312805 0.0048063492000502 0 0.038067306312805 0.0048063492000502 0.00015
          0.038067306312805 0.0048063492000502 0.0003 0.039652708373995 0.0050116130014489 0
          0.039652708373995 0.0050116130014489 0.00015 0.039652708373995 0.0050116130014489 0.0003
          0.041223018677975 0.005251958551761 0 0.041223018677975 0.005251958551761 0.00015
          0.041223018677975 0.005251958551761 0.0003 0.04277589825817 0.0055262843920551 0
          0.04277589825817 0.0055262843920551 0.00015 0.04277589825817 0.0055262843920551 0.0003
          0.044309088021254 0.0058333333333189 0 0.044309088021254 0.0058333333333189 0.00015
          0.044309088021254 0.0058333333333189 0.0003 0.033266614576087 0.0058795015934051 0
          0.033266614576087 0.0058795015934051 0.00015 0.033266614576087 0.0058795015934051 0.0003
          0.034891324778924 0.0060062193506447 0 0.034891324778924 0.0060062193506447 0.00015
          0.034891324778924 0.0060062193506447 0.0003 0.036505762613504 0.0061828104479004 0
          0.036505762613504 0.0061828104479004 0.00015 0.036505762613504 0.0061828104479004 0.0003
          0.038106577302032 0.0064084656000662 0 0.038106577302032 0.0064084656000662 0.00015
          0.038106577302032 0.0064084656000662 0.0003 0.039690480493944 0.0066821506685977 0
          0.039690480493944 0.0066821506685977 0.00015 0.039690480493944 0.0066821506685977 0.0003
          0.041254261342902 0.0070026114023471 0 0.041254261342902 0.0070026114023471 0.00015
          0.041254261342902 0.0070026114023471 0.0003 0.042794801226816 0.0073683791894058 0
          0.042794801226816 0.0073683791894058 0.00015 0.042794801226816 0.0073683791894058 0.0003
          0.044309088021254 0.0077777777777574 0 0.044309088021254 0.0077777777777574 0.00015
          0.044309088021254 0.0077777777777574 0.0003 0.033288318885596 0.0073493769917596 0
          0.033288318885596 0.0073493769917596 0.00015 0.033288318885596 0.0073493769917596 0.0003
          0.034921731971881 0.0075077741883091 0 0.034921731971881 0.0075077741883091 0.00015
          0.034921731971881 0.0075077741883091 0.0003 0.036542304597852 0.0077285130598789 0
          0.036542304597852 0.0077285130598789 0.00015 0.036542304597852 0.0077285130598789 0.0003
          0.03814584829126 0.0080105820000862 0 0.03814584829126 0.0080105820000862 0.00015
          0.03814584829126 0.0080105820000862 0.0003 0.039728252613893 0.0083526883357508 0
          0.039728252613893 0.0083526883357508 0.00015 0.039728252613893 0.0083526883357508 0.0003
          0.041285504007829 0.0087532642529377 0 0.041285504007829 0.0087532642529377 0.00015
          0.041285504007829 0.0087532642529377 0.0003 0.042813704195461 0.0092104739867613 0
          0.042813704195461 0.0092104739867613 0.00015 0.042813704195461 0.0092104739867613 0.0003
          0.044309088021254 0.0097222222222011 0 0.044309088021254 0.0097222222222011 0.00015
          0.044309088021254 0.0097222222222011 0.0003 0.031657595460571 0.0087048568522863 0
          0.031657595460571 0.0087048568522863 0.00015 0.031657595460571 0.0087048568522863 0.0003
          0.033310023195106 0.0088192523901195 0 0.033310023195106 0.0088192523901195 0.00015
          0.033310023195106 0.0088192523901195 0.0003 0.034952139164838 0.009009329025979 0
          0.034952139164838 0.009009329025979 0.00015 0.034952139164838 0.009009329025979 0.0003
          0.0365788465822 0.0092742156718627 0 0.0365788465822 0.0092742156718627 0.00015
          0.0365788465822 0.0092742156718627 0.0003 0.038185119280488 0.0096126984001116 0
          0.038185119280488 0.0096126984001116 0.00015 0.038185119280488 0.0096126984001116 0.0003
          0.039766024733842 0.010023226002909 0 0.039766024733842 0.010023226002909 0.00015
          0.039766024733842 0.010023226002909 0.0003 0.041316746672756 0.010503917103534 0
          0.041316746672756 0.010503917103534 0.00015 0.041316746672756 0.010503917103534 0.0003
          0.042832607164107 0.011052568784123 0 0.042832607164107 0.011052568784123 0.00015
          0.042832607164107 0.011052568784123 0.0003 0.044309088021254 0.011666666666651 0
          0.044309088021254 0.011666666666651 0.00015 0.044309088021254 0.011666666666651 0.0003
          0.031668878259163 0.010155666327672 0 0.031668878259163 0.010155666327672 0.00015
          0.031668878259163 0.010155666327672 0.0003 0.033331727504615 0.010289127788478 0
          0.033331727504615 0.010289127788478 0.00015 0.033331727504615 0.010289127788478 0.0003
          0.034982546357795 0.010510883863647 0 0.034982546357795 0.010510883863647 0.00015
          0.034982546357795 0.010510883863647 0.0003 0.036615388566549 0.010819918283845 0
          0.036615388566549 0.010819918283845 0.00015 0.036615388566549 0.010819918283845 0.0003
          0.038224390269716 0.011214814800136 0 0.038224390269716 0.011214814800136 0.00015
          0.038224390269716 0.011214814800136 0.0003 0.039803796853791 0.011693763670067 0
          0.039803796853791 0.011693763670067 0.00015 0.039803796853791 0.011693763670067 0.0003
          0.041347989337683 0.012254569954129 0 0.041347989337683 0.012254569954129 0.00015
          0.041347989337683 0.012254569954129 0.0003 0.042851510132752 0.012894663581483 0
          0.042851510132752 0.012894663581483 0.00015 0.042851510132752 0.012894663581483 0.0003
          0.044309088021254 0.0136111111111 0 0.044309088021254 0.0136111111111 0.00015
          0.044309088021254 0.0136111111111 0.0003 0.031680161057755 0.011606475803059 0
          0.031680161057755 0.011606475803059 0.00015 0.031680161057755 0.011606475803059 0.0003
          0.033353431814124 0.011759003186837 0 0.033353431814124 0.011759003186837 0.00015
          0.033353431814124 0.011759003186837 0.0003 0.035012953550752 0.012012438701317 0
          0.035012953550752 0.012012438701317 0.00015 0.035012953550752 0.012012438701317 0.0003
          0.036651930550897 0.012365620895829 0 0.036651930550897 0.012365620895829 0.00015
          0.036651930550897 0.012365620895829 0.0003 0.038263661258944 0.012816931200161 0
          0.038263661258944 0.012816931200161 0.00015 0.038263661258944 0.012816931200161 0.0003
          0.03984156897374 0.013364301337225 0 0.03984156897374 0.013364301337225 0.00015
          0.03984156897374 0.013364301337225 0.0003 0.04137923200261 0.014005222804725 0
          0.04137923200261 0.014005222804725 0.00015 0.04137923200261 0.014005222804725 0.0003
          0.042870413101398 0.014736758378844 0 0.042870413101398 0.014736758378844 0.00015
          0.042870413101398 0.014736758378844 0.0003 0.044309088021254 0.015555555555549 0
          0.044309088021254 0.015555555555549 0.00015 0.044309088021254 0.015555555555549 0.0003
          0.031691443856347 0.013057285278446 0 0.031691443856347 0.013057285278446 0.00015
          0.031691443856347 0.013057285278446 0.0003 0.033375136123633 0.013228878585196 0
          0.033375136123633 0.013228878585196 0.00015 0.033375136123633 0.013228878585196 0.0003
          0.035043360743709 0.013513993538986 0 0.035043360743709 0.013513993538986 0.00015
          0.035043360743709 0.013513993538986 0.0003 0.036688472535245 0.013911323507812 0
          0.036688472535245 0.013911323507812 0.00015 0.036688472535245 0.013911323507812 0.0003
          0.038302932248172 0.014419047600187 0 0.038302932248172 0.014419047600187 0.00015
          0.038302932248172 0.014419047600187 0.0003 0.039879341093689 0.015034839004384 0
          0.039879341093689 0.015034839004384 0.00015 0.039879341093689 0.015034839004384 0.0003
          0.041410474667538 0.015755875655322 0 0.041410474667538 0.015755875655322 0.00015
          0.041410474667538 0.015755875655322 0.0003 0.042889316070044 0.016578853176207 0
          0.042889316070044 0.016578853176207 0.00015 0.042889316070044 0.016578853176207 0.0003
          0.044309088021254 0.0175 0 0.044309088021254 0.0175 0.00015
          0.044309088021254 0.0175 0.0003 0.045420199132363 0 0
          0.045420199132363 0.0019444444444413 0 0.045420199132363 0 0.00015
          0.045420199132363 0.0019444444444413 0.00015 0.045420199132363 0 0.0003
          0.045420199132363 0.0019444444444413 0.0003 0.045420199132363 0.0038888888888803 0
          0.045420199132363 0.0038888888888803 0.00015 0.045420199132363 0.0038888888888803 0.0003
          0.045420199132363 0.0058333333333189 0 0.045420199132363 0.0058333333333189 0.00015
          0.045420199132363 0.0058333333333189 0.0003 0.045420199132363 0.0077777777777574 0
          0.045420199132363 0.0077777777777574 0.00015 0.045420199132363 0.0077777777777574 0.0003
          0.045420199132363 0.0097222222222011 0 0.045420199132363 0.0097222222222011 0.00015
          0.045420199132363 0.0097222222222011 0.0003 0.045420199132363 0.011666666666651 0
          0.045420199132363 0.011666666666651 0.00015 0.045420199132363 0.011666666666651 0.0003
          0.045420199132363 0.0136111111111 0 0.045420199132363 0.0136111111111 0.00015
          0.045420199132363 0.0136111111111 0.0003 0.045420199132363 0.015555555555549 0
          0.045420199132363 0.015555555555549 0.00015 0.045420199132363 0.015555555555549 0.0003
          0.045420199132363 0.0175 0 0.045420199132363 0.0175 0.00015
          0.045420199132363 0.0175 0.0003 0.046531310243475 0 0
          0.046531310243475 0.0019444444444413 0 0.046531310243475 0 0.00015
          0.046531310243475 0.0019444444444413 0.00015 0.046531310243475 0 0.0003
          0.046531310243475 0.0019444444444413 0.0003 0.046531310243475 0.0038888888888803 0
          0.046531310243475 0.0038888888888803 0.00015 0.046531310243475 0.0038888888888803 0.0003
          0.046531310243475 0.0058333333333189 0 0.046531310243475 0.0058333333333189 0.00015
          0.046531310243475 0.0058333333333189 0.0003 0.046531310243475 0.0077777777777574 0
          0.046531310243475 0.0077777777777574 0.00015 0.046531310243475 0.0077777777777574 0.0003
          0.046531310243475 0.0097222222222011 0 0.046531310243475 0.0097222222222011 0.00015
          0.046531310243475 0.0097222222222011 0.0003 0.046531310243475 0.011666666666651 0
          0.046531310243475 0.011666666666651 0.00015 0.046531310243475 0.011666666666651 0.0003
          0.046531310243475 0.0136111111111 0 0.046531310243475 0.0136111111111 0.00015
          0.046531310243475 0.0136111111111 0.0003 0.046531310243475 0.015555555555549 0
          0.046531310243475 0.015555555555549 0.00015 0.046531310243475 0.015555555555549 0.0003
          0.046531310243475 0.0175 0 0.046531310243475 0.0175 0.00015
          0.046531310243475 0.0175 0.0003 0.04764242135458 0 0
          0.04764242135458 0.0019444444444413 0 0.04764242135458 0 0.00015
          0.04764242135458 0.0019444444444413 0.00015 0.04764242135458 0 0.0003
          0.04764242135458 0.0019444444444413 0.0003 0.04764242135458 0.0038888888888803 0
          0.04764242135458 0.0038888888888803 0.00015 0.04764242135458 0.0038888888888803 0.0003
          0.04764242135458 0.0058333333333189 0 0.04764242135458 0.0058333333333189 0.00015
          0.04764242135458 0.0058333333333189 0.0003 0.04764242135458 0.0077777777777574 0
          0.04764242135458 0.0077777777777574 0.00015 0.04764242135458 0.0077777777777574 0.0003
          0.04764242135458 0.0097222222222011 0 0.04764242135458 0.0097222222222011 0.00015
          0.04764242135458 0.0097222222222011 0.0003 0.04764242135458 0.011666666666651 0
          0.04764242135458 0.011666666666651 0.00015 0.04764242135458 0.011666666666651 0.0003
          0.04764242135458 0.0136111111111 0 0.04764242135458 0.0136111111111 0.00015
          0.04764242135458 0.0136111111111 0.0003 0.04764242135458 0.015555555555549 0
          0.04764242135458 0.015555555555549 0.00015 0.04764242135458 0.015555555555549 0.0003
          0.04764242135458 0.0175 0 0.04764242135458 0.0175 0.00015
          0.04764242135458 0.0175 0.0003 0.048753532465692 0 0
          0.048753532465692 0.0019444444444413 0 0.048753532465692 0 0.00015
          0.048753532465692 0.0019444444444413 0.00015 0.048753532465692 0 0.0003
          0.048753532465692 0.0019444444444413 0.0003 0.048753532465692 0.0038888888888803 0
          0.048753532465692 0.0038888888888803 0.00015 0.048753532465692 0.0038888888888803 0.0003
          0.048753532465692 0.0058333333333189 0 0.048753532465692 0.0058333333333189 0.00015
          0.048753532465692 0.0058333333333189 0.0003 0.048753532465692 0.0077777777777574 0
          0.048753532465692 0.0077777777777574 0.00015 0.048753532465692 0.0077777777777574 0.0003
          0.048753532465692 0.0097222222222011 0 0.048753532465692 0.0097222222222011 0.00015
          0.048753532465692 0.0097222222222011 0.0003 0.048753532465692 0.011666666666651 0
          0.048753532465692 0.011666666666651 0.00015 0.048753532465692 0.011666666666651 0.0003
          0.048753532465692 0.0136111111111 0 0.048753532465692 0.0136111111111 0.00015
          0.048753532465692 0.0136111111111 0.0003 0.048753532465692 0.015555555555549 0
          0.048753532465692 0.015555555555549 0.00015 0.048753532465692 0.015555555555549 0.0003
          0.048753532465692 0.0175 0 0.048753532465692 0.0175 0.00015
          0.048753532465692 0.0175 0.0003 0.0498646435768 0 0
          0.0498646435768 0.0019444444444413 0 0.0498646435768 0 0.00015
          0.0498646435768 0.0019444444444413 0.00015 0.0498646435768 0 0.0003
          0.0498646435768 0.0019444444444413 0.0003 0.0498646435768 0.0038888888888803 0
          0.0498646435768 0.0038888888888803 0.00015 0.0498646435768 0.0038888888888803 0.0003
          0.0498646435768 0.0058333333333189 0 0.0498646435768 0.0058333333333189 0.00015
          0.0498646435768 0.0058333333333189 0.0003 0.0498646435768 0.0077777777777574 0
          0.0498646435768 0.0077777777777574 0.00015 0.0498646435768 0.0077777777777574 0.0003
          0.0498646435768 0.0097222222222011 0 0.0498646435768 0.0097222222222011 0.00015
          0.0498646435768 0.0097222222222011 0.0003 0.0498646435768 0.011666666666651 0
          0.0498646435768 0.011666666666651 0.00015 0.0498646435768 0.011666666666651 0.0003
          0.0498646435768 0.0136111111111 0 0.0498646435768 0.0136111111111 0.00015
          0.0498646435768 0.0136111111111 0.0003 0.0498646435768 0.015555555555549 0
          0.0498646435768 0.015555555555549 0.00015 0.0498646435768 0.015555555555549 0.0003
          0.0498646435768 0.0175 0 0.0498646435768 0.0175 0.00015
          0.0498646435768 0.0175 0.0003 0.050975754687912 0 0
          0.050975754687912 0.0019444444444413 0 0.050975754687912 0 0.00015
          0.050975754687912 0.0019444444444413 0.00015 0.050975754687912 0 0.0003
          0.050975754687912 0.0019444444444413 0.0003 0.050975754687912 0.0038888888888803 0
          0.050975754687912 0.0038888888888803 0.00015 0.050975754687912 0.0038888888888803 0.0003
          0.050975754687912 0.0058333333333189 0 0.050975754687912 0.0058333333333189 0.00015
          0.050975754687912 0.0058333333333189 0.0003 0.050975754687912 0.0077777777777574 0
          0.050975754687912 0.0077777777777574 0.00015 0.050975754687912 0.0077777777777574 0.0003
          0.050975754687912 0.0097222222222011 0 0.050975754687912 0.0097222222222011 0.00015
          0.050975754687912 0.0097222222222011 0.0003 0.050975754687912 0.011666666666651 0
          0.050975754687912 0.011666666666651 0.00015 0.050975754687912 0.011666666666651 0.0003
          0.050975754687912 0.0136111111111 0 0.050975754687912 0.0136111111111 0.00015
          0.050975754687912 0.0136111111111 0.0003 0.050975754687912 0.015555555555549 0
          0.050975754687912 0.015555555555549 0.00015 0.050975754687912 0.015555555555549 0.0003
          0.050975754687912 0.0175 0 0.050975754687912 0.0175 0.00015
          0.050975754687912 0.0175 0.0003 0.052086865799025 0 0
          0.052086865799025 0.0019444444444413 0 0.052086865799025 0 0.00015
          0.052086865799025 0.0019444444444413 0.00015 0.052086865799025 0 0.0003
          0.052086865799025 0.0019444444444413 0.0003 0.052086865799025 0.0038888888888803 0
          0.052086865799025 0.0038888888888803 0.00015 0.052086865799025 0.0038888888888803 0.0003
          0.052086865799025 0.0058333333333189 0 0.052086865799025 0.0058333333333189 0.00015
          0.052086865799025 0.0058333333333189 0.0003 0.052086865799025 0.0077777777777574 0
          0.052086865799025 0.0077777777777574 0.00015 0.052086865799025 0.0077777777777574 0.0003
          0.052086865799025 0.0097222222222011 0 0.052086865799025 0.0097222222222011 0.00015
          0.052086865799025 0.0097222222222011 0.0003 0.052086865799025 0.011666666666651 0
          0.052086865799025 0.011666666666651 0.00015 0.052086865799025 0.011666666666651 0.0003
          0.052086865799025 0.0136111111111 0 0.052086865799025 0.0136111111111 0.00015
          0.052086865799025 0.0136111111111 0.0003 0.052086865799025 0.015555555555549 0
          0.052086865799025 0.015555555555549 0.00015 0.052086865799025 0.015555555555549 0.0003
          0.052086865799025 0.0175 0 0.052086865799025 0.0175 0.00015
          0.052086865799025 0.0175 0.0003 0.05319797691014 0 0
          0.05319797691014 0.0019444444444413 0 0.05319797691014 0 0.00015
          0.05319797691014 0.0019444444444413 0.00015 0.05319797691014 0 0.0003
          0.05319797691014 0.0019444444444413 0.0003 0.05319797691014 0.0038888888888803 0
          0.05319797691014 0.0038888888888803 0.00015 0.05319797691014 0.0038888888888803 0.0003
          0.05319797691014 0.0058333333333189 0 0.05319797691014 0.0058333333333189 0.00015
          0.05319797691014 0.0058333333333189 0.0003 0.05319797691014 0.0077777777777574 0
          0.05319797691014 0.0077777777777574 0.00015 0.05319797691014 0.0077777777777574 0.0003
          0.05319797691014 0.0097222222222011 0 0.05319797691014 0.0097222222222011 0.00015
          0.05319797691014 0.0097222222222011 0.0003 0.05319797691014 0.011666666666651 0
          0.05319797691014 0.011666666666651 0.00015 0.05319797691014 0.011666666666651 0.0003
          0.05319797691014 0.0136111111111 0 0.05319797691014 0.0136111111111 0.00015
          0.05319797691014 0.0136111111111 0.0003 0.05319797691014 0.015555555555549 0
          0.05319797691014 0.015555555555549 0.00015 0.05319797691014 0.015555555555549 0.0003
          0.05319797691014 0.0175 0 0.05319797691014 0.0175 0.00015
          0.05319797691014 0.0175 0.0003 0.054309088021254 0 0
          0.054309088021254 0.0019444444444413 0 0.054309088021254 0 0.00015
          0.054309088021254 0.0019444444444413 0.00015 0.054309088021254 0 0.0003
          0.054309088021254 0.0019444444444413 0.0003 0.054309088021254 0.0038888888888803 0
          0.054309088021254 0.0038888888888803 0.00015 0.054309088021254 0.0038888888888803 0.0003
          0.054309088021254 0.0058333333333189 0 0.054309088021254 0.0058333333333189 0.00015
          0.054309088021254 0.0058333333333189 0.0003 0.054309088021254 0.0077777777777574 0
          0.054309088021254 0.0077777777777574 0.00015 0.054309088021254 0.0077777777777574 0.0003
          0.054309088021254 0.0097222222222011 0 0.054309088021254 0.0097222222222011 0.00015
          0.054309088021254 0.0097222222222011 0.0003 0.054309088021254 0.011666666666651 0
          0.054309088021254 0.011666666666651 0.00015 0.054309088021254 0.011666666666651 0.0003
          0.054309088021254 0.0136111111111 0 0.054309088021254 0.0136111111111 0.00015
          0.054309088021254 0.0136111111111 0.0003 0.054309088021254 0.015555555555549 0
          0.054309088021254 0.015555555555549 0.00015 0.054309088021254 0.015555555555549 0.0003
          0.054309088021254 0.0175 0 0.054309088021254 0.0175 0.00015
          0.054309088021254 0.0175 0.0003
          <InformationKey name="L2_NORM_RANGE" location="vtkDataArray" length="2">
            <Value index="0">
              0.019949534491
            </Value>
            <Value index="1">
              0.057059767277
            </Value>
          </InformationKey>
        </DataArray>
      </Points>
      <Cells>
        <DataArray type="Int64" Name="connectivity" format="ascii" RangeMin="0" RangeMax="818">
          0 1 2 3 4 5
          6 7 4 5 6 7
          8 9 10 11 12 13
          14 15 16 17 18 19
          16 17 18 19 20 21
          22 23 24 0 3 25
          26 4 7 27 26 4
          7 27 28 8 11 29
          30 31 32 14 33 34
          35 18 33 34 35 18
          36 37 38 22 39 40
          41 42 43 44 45 46
          43 44 45 46 47 48
          49 50 51 52 53 54
          55 56 57 58 55 56
          57 58 59 60 61 62
          13 63 64 65 17 66
          67 68 17 66 67 68
          21 69 70 71 0 24
          32 72 4 26 35 73
          4 26 35 73 8 28
          38 74 24 15 14 32
          26 19 18 35 26 19
          18 35 28 23 22 38
          13 65 30 14 17 68
          33 18 17 68 33 18
          21 71 36 22 93 94
          95 96 97 98 99 100
          97 98 99 100 101 102
          103 104 72 32 31 81
          73 35 34 83 73 35
          34 83 74 38 37 85
          53 40 39 54 57 44
          43 58 57 44 43 58
          61 48 47 62 31 30
          111 82 34 33 112 84
          34 33 112 84 37 36
          113 86 12 15 114 115
          16 19 116 117 16 19
          116 117 20 23 118 119
          120 121 122 123 124 125
          126 127 124 125 126 127
          128 129 130 131 64 76
          75 65 67 78 77 68
          67 78 77 68 70 80
          79 71 132 133 54 39
          134 135 58 43 134 135
          58 43 136 137 62 47
          53 141 41 40 57 142
          45 44 57 142 45 44
          61 143 49 48 111 30
          65 75 112 33 68 77
          112 33 68 77 113 36
          71 79 54 150 151 51
          58 152 153 55 58 152
          153 55 62 154 155 59
          156 122 121 157 158 126
          125 159 158 126 125 159
          160 130 129 161 162 88
          108 138 163 90 109 139
          163 90 109 139 164 92
          110 140 168 87 88 162
          169 89 90 163 169 89
          90 163 170 91 92 164
          121 165 171 157 125 166
          172 159 125 166 172 159
          129 167 173 161 132 39
          42 183 134 43 46 184
          134 43 46 184 136 47
          50 185 186 96 95 187
          188 100 99 189 188 100
          99 189 190 104 103 191
          192 193 122 156 194 195
          126 158 194 195 126 158
          196 197 130 160 183 42
          96 186 184 46 100 188
          184 46 100 188 185 50
          104 190 151 150 198 199
          153 152 200 201 153 152
          200 201 155 154 202 203
          174 145 144 204 175 147
          146 205 175 147 146 205
          176 149 148 206 193 192
          95 204 195 194 99 205
          195 194 99 205 197 196
          103 206 123 122 193 210
          127 126 195 211 127 126
          195 211 131 130 197 212
          93 96 42 41 97 100
          46 45 97 100 46 45
          101 104 50 49 213 214
          87 168 215 216 89 169
          215 216 89 169 217 218
          91 170 178 219 220 177
          180 221 222 179 180 221
          222 179 182 223 224 181
          225 141 226 227 228 142
          229 230 228 142 229 230
          231 143 232 233 120 105
          165 121 124 106 166 125
          124 106 166 125 128 107
          167 129 210 193 204 144
          211 195 205 146 211 195
          205 146 212 197 206 148
          219 227 234 220 221 230
          235 222 221 230 235 222
          223 233 236 224 94 174
          204 95 98 175 205 99
          98 175 205 99 102 176
          206 103 192 156 237 238
          194 158 239 240 194 158
          239 240 196 160 241 242
          243 2 1 244 245 6
          5 246 245 6 5 246
          247 10 9 248 227 226
          249 234 230 229 250 235
          230 229 250 235 233 232
          251 236 238 187 95 192
          240 189 99 194 240 189
          99 194 242 191 103 196
          252 207 87 214 253 208
          89 216 253 208 89 216
          254 209 91 218 187 255
          115 186 189 256 117 188
          189 256 117 188 191 257
          119 190 94 162 138 174
          98 163 139 175 98 163
          139 175 102 164 140 176
          64 63 237 171 67 66
          239 172 67 66 239 172
          70 69 241 173 41 213
          168 93 45 215 169 97
          45 215 169 97 49 217
          170 101 2 198 133 3
          6 200 135 7 6 200
          135 7 10 202 137 11
          25 114 15 24 27 116
          19 26 27 116 19 26
          29 118 23 28 114 183
          186 115 116 184 188 117
          116 184 188 117 118 185
          190 119 51 151 258 259
          55 153 260 261 55 153
          260 261 59 155 262 263
          226 52 264 249 229 56
          265 250 229 56 265 250
          232 60 266 251 198 150
          54 133 200 152 58 135
          200 152 58 135 202 154
          62 137 64 171 165 76
          67 172 166 78 67 172
          166 78 70 173 167 80
          52 51 259 264 56 55
          261 265 56 55 261 265
          60 59 263 266 171 237
          156 157 172 239 158 159
          172 239 158 159 173 241
          160 161 252 214 213 225
          253 216 215 228 253 216
          215 228 254 218 217 231
          151 199 267 258 153 201
          268 260 153 201 268 260
          155 203 269 262 63 13
          12 270 66 17 16 271
          66 17 16 271 69 21
          20 272 270 255 187 238
          271 256 189 240 271 256
          189 240 272 257 191 242
          199 198 2 243 201 200
          6 245 201 200 6 245
          203 202 10 247 225 213
          41 141 228 215 45 142
          228 215 45 142 231 217
          49 143 52 226 141 53
          56 229 142 57 56 229
          142 57 60 232 143 61
          25 132 183 114 27 134
          184 116 27 134 184 116
          29 136 185 118 252 225
          227 219 253 228 230 221
          253 228 230 221 254 231
          233 223 219 178 207 252
          221 180 208 253 221 180
          208 253 223 182 209 254
          25 3 133 132 27 7
          135 134 27 7 135 134
          29 11 137 136 93 168
          162 94 97 169 163 98
          97 169 163 98 101 170
          164 102 270 12 115 255
          271 16 117 256 271 16
          117 256 272 20 119 257
          199 243 273 267 201 245
          274 268 201 245 274 268
          203 247 275 269 63 270
          238 237 66 271 240 239
          66 271 240 239 69 272
          242 241 243 244 276 273
          245 246 277 274 245 246
          277 274 247 248 278 275
          276 244 1 279 277 246
          5 280 277 246 5 280
          278 248 9 281 285 72
          81 282 286 73 83 283
          286 73 83 283 287 74
          85 284 288 0 72 285
          289 4 73 286 289 4
          73 286 290 8 74 287
          291 1 0 288 292 5
          4 289 292 5 4 289
          293 9 8 290 294 279
          1 291 295 280 5 292
          295 280 5 292 296 281
          9 293 303 297 298 304
          305 299 300 306 305 299
          300 306 307 301 302 308
          309 303 304 310 311 305
          306 312 311 305 306 312
          313 307 308 314 315 309
          310 316 317 311 312 318
          317 311 312 318 319 313
          314 320 321 315 316 322
          323 317 318 324 323 317
          318 324 325 319 320 326
          327 321 322 328 329 323
          324 330 329 323 324 330
          331 325 326 332 333 327
          328 334 335 329 330 336
          335 329 330 336 337 331
          332 338 339 333 334 340
          341 335 336 342 341 335
          336 342 343 337 338 344
          348 345 297 303 349 346
          299 305 349 346 299 305
          350 347 301 307 351 348
          303 309 352 349 305 311
          352 349 305 311 353 350
          307 313 354 351 309 315
          355 352 311 317 355 352
          311 317 356 353 313 319
          357 354 315 321 358 355
          317 323 358 355 317 323
          359 356 319 325 360 357
          321 327 361 358 323 329
          361 358 323 329 362 359
          325 331 363 360 327 333
          364 361 329 335 364 361
          329 335 365 362 331 337
          366 363 333 339 367 364
          335 341 367 364 335 341
          368 365 337 343 372 369
          345 348 373 370 346 349
          373 370 346 349 374 371
          347 350 375 372 348 351
          376 373 349 352 376 373
          349 352 377 374 350 353
          378 375 351 354 379 376
          352 355 379 376 352 355
          380 377 353 356 381 378
          354 357 382 379 355 358
          382 379 355 358 383 380
          356 359 384 381 357 360
          385 382 358 361 385 382
          358 361 386 383 359 362
          387 384 360 363 388 385
          361 364 388 385 361 364
          389 386 362 365 390 387
          363 366 391 388 364 367
          391 388 364 367 392 389
          365 368 396 393 369 372
          397 394 370 373 397 394
          370 373 398 395 371 374
          399 396 372 375 400 397
          373 376 400 397 373 376
          401 398 374 377 402 399
          375 378 403 400 376 379
          403 400 376 379 404 401
          377 380 405 402 378 381
          406 403 379 382 406 403
          379 382 407 404 380 383
          408 405 381 384 409 406
          382 385 409 406 382 385
          410 407 383 386 411 408
          384 387 412 409 385 388
          412 409 385 388 413 410
          386 389 414 411 387 390
          415 412 388 391 415 412
          388 391 416 413 389 392
          420 417 393 396 421 418
          394 397 421 418 394 397
          422 419 395 398 423 420
          396 399 424 421 397 400
          424 421 397 400 425 422
          398 401 426 423 399 402
          427 424 400 403 427 424
          400 403 428 425 401 404
          429 426 402 405 430 427
          403 406 430 427 403 406
          431 428 404 407 432 429
          405 408 433 430 406 409
          433 430 406 409 434 431
          407 410 435 432 408 411
          436 433 409 412 436 433
          409 412 437 434 410 413
          438 435 411 414 439 436
          412 415 439 436 412 415
          440 437 413 416 447 444
          417 420 448 445 418 421
          448 445 418 421 449 446
          419 422 450 447 420 423
          451 448 421 424 451 448
          421 424 452 449 422 425
          453 450 423 426 454 451
          424 427 454 451 424 427
          455 452 425 428 456 453
          426 429 457 454 427 430
          457 454 427 430 458 455
          428 431 459 456 429 432
          460 457 430 433 460 457
          430 433 461 458 431 434
          462 459 432 435 463 460
          433 436 463 460 433 436
          464 461 434 437 465 462
          435 438 466 463 436 439
          466 463 436 439 467 464
          437 440 471 468 441 444
          472 469 442 445 472 469
          442 445 473 470 443 446
          474 471 444 447 475 472
          445 448 475 472 445 448
          476 473 446 449 477 474
          447 450 478 475 448 451
          478 475 448 451 479 476
          449 452 480 477 450 453
          481 478 451 454 481 478
          451 454 482 479 452 455
          483 480 453 456 484 481
          454 457 484 481 454 457
          485 482 455 458 486 483
          456 459 487 484 457 460
          487 484 457 460 488 485
          458 461 489 486 459 462
          490 487 460 463 490 487
          460 463 491 488 461 464
          492 489 462 465 493 490
          463 466 493 490 463 466
          494 491 464 467 498 495
          468 471 499 496 469 472
          499 496 469 472 500 497
          470 473 501 498 471 474
          502 499 472 475 502 499
          472 475 503 500 473 476
          504 501 474 477 505 502
          475 478 505 502 475 478
          506 503 476 479 507 504
          477 480 508 505 478 481
          508 505 478 481 509 506
          479 482 510 507 480 483
          511 508 481 484 511 508
          481 484 512 509 482 485
          513 510 483 486 514 511
          484 487 514 511 484 487
          515 512 485 488 516 513
          486 489 517 514 487 490
          517 514 487 490 518 515
          488 491 519 516 489 492
          520 517 490 493 520 517
          490 493 521 518 491 494
          525 522 495 498 526 523
          496 499 526 523 496 499
          527 524 497 500 528 525
          498 501 529 526 499 502
          529 526 499 502 530 527
          500 503 531 528 501 504
          532 529 502 505 532 529
          502 505 533 530 503 506
          534 531 504 507 535 532
          505 508 535 532 505 508
          536 533 506 509 537 534
          507 510 538 535 508 511
          538 535 508 511 539 536
          509 512 540 537 510 513
          541 538 511 514 541 538
          511 514 542 539 512 515
          543 540 513 516 544 541
          514 517 544 541 514 517
          545 542 515 518 546 543
          516 519 547 544 517 520
          547 544 517 520 548 545
          518 521 340 549 550 339
          342 551 552 341 342 551
          552 341 344 553 554 343
          339 550 555 366 341 552
          556 367 341 552 556 367
          343 554 557 368 366 555
          558 390 367 556 559 391
          367 556 559 391 368 557
          560 392 390 558 561 414
          391 559 562 415 391 559
          562 415 392 560 563 416
          414 561 564 438 415 562
          565 439 415 562 565 439
          416 563 566 440 438 564
          567 465 439 565 568 466
          439 565 568 466 440 566
          569 467 465 567 570 492
          466 568 571 493 466 568
          571 493 467 569 572 494
          492 570 573 519 493 571
          574 520 493 571 574 520
          494 572 575 521 519 573
          576 546 520 574 577 547
          520 574 577 547 521 575
          578 548 549 579 580 550
          551 581 582 552 551 581
          582 552 553 583 584 554
          550 580 585 555 552 582
          586 556 552 582 586 556
          554 584 587 557 555 585
          588 558 556 586 589 559
          556 586 589 559 557 587
          590 560 558 588 591 561
          559 589 592 562 559 589
          592 562 560 590 593 563
          561 591 594 564 562 592
          595 565 562 592 595 565
          563 593 596 566 564 594
          597 567 565 595 598 568
          565 595 598 568 566 596
          599 569 567 597 600 570
          568 598 601 571 568 598
          601 571 569 599 602 572
          570 600 603 573 571 601
          604 574 571 601 604 574
          572 602 605 575 573 603
          606 576 574 604 607 577
          574 604 607 577 575 605
          608 578 579 609 610 580
          581 611 612 582 581 611
          612 582 583 613 614 584
          580 610 615 585 582 612
          616 586 582 612 616 586
          584 614 617 587 585 615
          618 588 586 616 619 589
          586 616 619 589 587 617
          620 590 588 618 621 591
          589 619 622 592 589 619
          622 592 590 620 623 593
          591 621 624 594 592 622
          625 595 592 622 625 595
          593 623 626 596 594 624
          627 597 595 625 628 598
          595 625 628 598 596 626
          629 599 597 627 630 600
          598 628 631 601 598 628
          631 601 599 629 632 602
          600 630 633 603 601 631
          634 604 601 631 634 604
          602 632 635 605 603 633
          636 606 604 634 637 607
          604 634 637 607 605 635
          638 608 609 639 640 610
          611 641 642 612 611 641
          642 612 613 643 644 614
          610 640 645 615 612 642
          646 616 612 642 646 616
          614 644 647 617 615 645
          648 618 616 646 649 619
          616 646 649 619 617 647
          650 620 618 648 651 621
          619 649 652 622 619 649
          652 622 620 650 653 623
          621 651 654 624 622 652
          655 625 622 652 655 625
          623 653 656 626 624 654
          657 627 625 655 658 628
          625 655 658 628 626 656
          659 629 627 657 660 630
          628 658 661 631 628 658
          661 631 629 659 662 632
          630 660 663 633 631 661
          664 634 631 661 664 634
          632 662 665 635 633 663
          666 636 634 664 667 637
          634 664 667 637 635 665
          668 638 639 669 670 640
          641 671 672 642 641 671
          672 642 643 673 674 644
          640 670 675 645 642 672
          676 646 642 672 676 646
          644 674 677 647 645 675
          678 648 646 676 679 649
          646 676 679 649 647 677
          680 650 648 678 681 651
          649 679 682 652 649 679
          682 652 650 680 683 653
          651 681 684 654 652 682
          685 655 652 682 685 655
          653 683 686 656 654 684
          687 657 655 685 688 658
          655 685 688 658 656 686
          689 659 657 687 690 660
          658 688 691 661 658 688
          691 661 659 689 692 662
          660 690 693 663 661 691
          694 664 661 691 694 664
          662 692 695 665 663 693
          696 666 664 694 697 667
          664 694 697 667 665 695
          698 668 669 699 700 670
          671 701 702 672 671 701
          702 672 673 703 704 674
          670 700 705 675 672 702
          706 676 672 702 706 676
          674 704 707 677 675 705
          708 678 676 706 709 679
          676 706 709 679 677 707
          710 680 678 708 711 681
          679 709 712 682 679 709
          712 682 680 710 713 683
          681 711 714 684 682 712
          715 685 682 712 715 685
          683 713 716 686 684 714
          717 687 685 715 718 688
          685 715 718 688 686 716
          719 689 687 717 720 690
          688 718 721 691 688 718
          721 691 689 719 722 692
          690 720 723 693 691 721
          724 694 691 721 724 694
          692 722 725 695 693 723
          726 696 694 724 727 697
          694 724 727 697 695 725
          728 698 699 729 730 700
          701 731 732 702 701 731
          732 702 703 733 734 704
          700 730 735 705 702 732
          736 706 702 732 736 706
          704 734 737 707 705 735
          738 708 706 736 739 709
          706 736 739 709 707 737
          740 710 708 738 741 711
          709 739 742 712 709 739
          742 712 710 740 743 713
          711 741 744 714 712 742
          745 715 712 742 745 715
          713 743 746 716 714 744
          747 717 715 745 748 718
          715 745 748 718 716 746
          749 719 717 747 750 720
          718 748 751 721 718 748
          751 721 719 749 752 722
          720 750 753 723 721 751
          754 724 721 751 754 724
          722 752 755 725 723 753
          756 726 724 754 757 727
          724 754 757 727 725 755
          758 728 729 759 760 730
          731 761 762 732 731 761
          762 732 733 763 764 734
          730 760 765 735 732 762
          766 736 732 762 766 736
          734 764 767 737 735 765
          768 738 736 766 769 739
          736 766 769 739 737 767
          770 740 738 768 771 741
          739 769 772 742 739 769
          772 742 740 770 773 743
          741 771 774 744 742 772
          775 745 742 772 775 745
          743 773 776 746 744 774
          777 747 745 775 778 748
          745 775 778 748 746 776
          779 749 747 777 780 750
          748 778 781 751 748 778
          781 751 749 779 782 752
          750 780 783 753 751 781
          784 754 751 781 784 754
          752 782 785 755 753 783
          786 756 754 784 787 757
          754 784 787 757 755 785
          788 758 759 789 790 760
          761 791 792 762 761 791
          792 762 763 793 794 764
          760 790 795 765 762 792
          796 766 762 792 796 766
          764 794 797 767 765 795
          798 768 766 796 799 769
          766 796 799 769 767 797
          800 770 768 798 801 771
          769 799 802 772 769 799
          802 772 770 800 803 773
          771 801 804 774 772 802
          805 775 772 802 805 775
          773 803 806 776 774 804
          807 777 775 805 808 778
          775 805 808 778 776 806
          809 779 777 807 810 780
          778 808 811 781 778 808
          811 781 779 809 812 782
          780 810 813 783 781 811
          814 784 781 811 814 784
          782 812 815 785 783 813
          816 786 784 814 817 787
          784 814 817 787 785 815
          818 788
        </DataArray>
        <DataArray type="Int64" Name="offsets" format="ascii" RangeMin="8" RangeMax="3632">
          8 16 24 32 40 48
          56 64 72 80 88 96
          104 112 120 128 136 144
          152 160 168 176 184 192
          200 208 216 224 232 240
          248 256 264 272 280 288
          296 304 312 320 328 336
          344 352 360 368 376 384
          392 400 408 416 424 432
          440 448 456 464 472 480
          488 496 504 512 520 528
          536 544 552 560 568 576
          584 592 600 608 616 624
          632 640 648 656 664 672
          680 688 696 704 712 720
          728 736 744 752 760 768
          776 784 792 800 808 816
          824 832 840 848 856 864
          872 880 888 896 904 912
          920 928 936 944 952 960
          968 976 984 992 1000 1008
          1016 1024 1032 1040 1048 1056
          1064 1072 1080 1088 1096 1104
          1112 1120 1128 1136 1144 1152
          1160 1168 1176 1184 1192 1200
          1208 1216 1224 1232 1240 1248
          1256 1264 1272 1280 1288 1296
          1304 1312 1320 1328 1336 1344
          1352 1360 1368 1376 1384 1392
          1400 1408 1416 1424 1432 1440
          1448 1456 1464 1472 1480 1488
          1496 1504 1512 1520 1528 1536
          1544 1552 1560 1568 1576 1584
          1592 1600 1608 1616 1624 1632
          1640 1648 1656 1664 1672 1680
          1688 1696 1704 1712 1720 1728
          1736 1744 1752 1760 1768 1776
          1784 1792 1800 1808 1816 1824
          1832 1840 1848 1856 1864 1872
          1880 1888 1896 1904 1912 1920
          1928 1936 1944 1952 1960 1968
          1976 1984 1992 2000 2008 2016
          2024 2032 2040 2048 2056 2064
          2072 2080 2088 2096 2104 2112
          2120 2128 2136 2144 2152 2160
          2168 2176 2184 2192 2200 2208
          2216 2224 2232 2240 2248 2256
          2264 2272 2280 2288 2296 2304
          2312 2320 2328 2336 2344 2352
          2360 2368 2376 2384 2392 2400
          2408 2416 2424 2432 2440 2448
          2456 2464 2472 2480 2488 2496
          2504 2512 2520 2528 2536 2544
          2552 2560 2568 2576 2584 2592
          2600 2608 2616 2624 2632 2640
          2648 2656 2664 2672 2680 2688
          2696 2704 2712 2720 2728 2736
          2744 2752 2760 2768 2776 2784
          2792 2800 2808 2816 2824 2832
          2840 2848 2856 2864 2872 2880
          2888 2896 2904 2912 2920 2928
          2936 2944 2952 2960 2968 2976
          2984 2992 3000 3008 3016 3024
          3032 3040 3048 3056 3064 3072
          3080 3088 3096 3104 3112 3120
          3128 3136 3144 3152 3160 3168
          3176 3184 3192 3200 3208 3216
          3224 3232 3240 3248 3256 3264
          3272 3280 3288 3296 3304 3312
          3320 3328 3336 3344 3352 3360
          3368 3376 3384 3392 3400 3408
          3416 3424 3432 3440 3448 3456
          3464 3472 3480 3488 3496 3504
          3512 3520 3528 3536 3544 3552
          3560 3568 3576 3584 3592 3600
          3608 3616 3624 3632
        </DataArray>
        <DataArray type="UInt8" Name="types" format="ascii" RangeMin="12" RangeMax="12">
          12 12 12 12 12 12
          12 12 12 12 12 12
          12 12 12 12 12 12
          12 12 12 12 12 12
          12 12 12 12 12 12
          12 12 12 12 12 12
          12 12 12 12 12 12
          12 12 12 12 12 12
          12 12 12 12 12 12
          12 12 12 12 12 12
          12 12 12 12 12 12
          12 12 12 12 12 12
          12 12 12 12 12 12
          12 12 12 12 12 12
          12 12 12 12 12 12
          12 12 12 12 12 12
          12 12 12 12 12 12
          12 12 12 12 12 12
          12 12 12 12 12 12
          12 12 12 12 12 12
          12 12 12 12 12 12
          12 12 12 12 12 12
          12 12 12 12 12 12
          12 12 12 12 12 12
          12 12 12 12 12 12
          12 12 12 12 12 12
          12 12 12 12 12 12
          12 12 12 12 12 12
          12 12 12 12 12 12
          12 12 12 12 12 12
          12 12 12 12 12 12
          12 12 12 12 12 12
          12 12 12 12 12 12
          12 12 12 12 12 12
          12 12 12 12 12 12
          12 12 12 12 12 12
          12 12 12 12 12 12
          12 12 12 12 12 12
          12 12 12 12 12 12
          12 12 12 12 12 12
          12 12 12 12 12 12
          12 12 12 12 12 12
          12 12 12 12 12 12
          12 12 12 12 12 12
          12 12 12 12 12 12
          12 12 12 12 12 12
          12 12 12 12 12 12
          12 12 12 12 12 12
          12 12 12 12 12 12
          12 12 12 12 12 12
          12 12 12 12 12 12
          12 12 12 12 12 12
          12 12 12 12 12 12
          12 12 12 12 12 12
          12 12 12 12 12 12
          12 12 12 12 12 12
          12 12 12 12 12 12
          12 12 12 12 12 12
          12 12 12 12 12 12
          12 12 12 12 12 12
          12 12 12 12 12 12
          12 12 12 12 12 12
          12 12 12 12 12 12
          12 12 12 12 12 12
          12 12 12 12 12 12
          12 12 12 12 12 12
          12 12 12 12 12 12
          12 12 12 12 12 12
          12 12 12 12 12 12
          12 12 12 12 12 12
          12 12 12 12 12 12
          12 12 12 12 12 12
          12 12 12 12 12 12
          12 12 12 12 12 12
          12 12 12 12 12 12
          12 12 12 12
        </DataArray>
      </Cells>
    </Piece>
  </UnstructuredGrid>
</VTKFile>
