<?xml version="1.0"?>
<VTKFile type="UnstructuredGrid" version="0.1" byte_order="LittleEndian" header_type="UInt32" compressor="vtkZLibDataCompressor">
  <UnstructuredGrid>
    <Piece NumberOfPoints="789" NumberOfCells="452">
      <PointData>
        <DataArray type="Int32" Name="libmesh_node_id" format="ascii" RangeMin="0" RangeMax="1901">
          0 1 2 3 4 5
          6 7 8 9 10 11
          12 13 14 15 16 17
          18 19 20 21 22 23
          24 25 26 27 28 29
          30 31 32 33 34 35
          36 37 38 39 40 41
          42 43 44 45 46 47
          48 49 50 51 52 53
          54 55 56 57 58 59
          60 61 62 63 64 65
          66 67 68 69 70 71
          72 73 74 75 76 77
          78 79 80 81 82 83
          84 85 86 87 88 89
          90 91 92 93 94 95
          96 97 98 99 100 101
          102 103 104 105 106 107
          108 109 110 111 112 113
          114 115 116 117 118 119
          180 181 182 183 184 185
          186 187 188 189 190 191
          192 193 194 195 196 197
          198 199 200 201 202 203
          204 205 206 207 208 209
          210 211 212 213 214 215
          216 217 218 219 220 221
          222 223 224 225 226 227
          228 229 230 231 232 233
          234 235 236 237 238 239
          270 271 272 273 274 275
          276 277 278 279 280 281
          282 283 284 285 286 287
          288 289 290 291 292 293
          294 295 296 297 298 299
          300 301 302 303 304 305
          306 307 308 309 310 311
          312 313 314 315 316 317
          318 319 320 321 322 323
          324 325 326 327 328 329
          360 361 362 363 364 365
          366 367 368 369 370 371
          372 373 374 375 376 377
          378 379 380 381 382 383
          384 385 386 387 388 389
          390 391 392 393 394 395
          396 397 398 399 400 401
          402 403 404 405 406 407
          408 409 410 411 412 413
          414 415 416 417 418 419
          450 451 452 453 454 455
          456 457 458 459 460 461
          462 463 464 465 466 467
          468 469 470 471 472 473
          474 475 476 477 478 479
          480 481 482 483 484 485
          486 487 488 489 490 491
          492 493 494 495 496 497
          498 499 500 501 502 503
          504 505 506 507 508 509
          540 541 542 543 544 545
          546 547 548 549 550 551
          552 553 554 555 556 557
          558 559 560 561 562 563
          564 565 566 567 568 569
          570 571 572 573 574 575
          576 577 578 579 580 581
          582 583 584 585 586 587
          588 589 590 591 592 593
          594 595 596 597 598 599
          630 631 632 633 634 635
          636 637 638 639 640 641
          642 643 644 645 646 647
          648 649 650 651 652 653
          654 655 656 657 658 659
          660 661 662 663 664 665
          666 667 668 669 670 671
          672 673 674 675 676 677
          678 679 680 681 682 683
          684 685 686 687 688 689
          720 721 722 723 724 725
          726 727 728 729 730 731
          732 733 734 735 736 737
          738 739 740 741 742 743
          744 745 746 747 748 749
          750 751 752 753 754 755
          756 757 758 759 760 761
          762 763 764 765 766 767
          768 769 770 771 772 773
          774 775 776 777 778 779
          810 811 812 813 814 815
          816 817 818 819 820 821
          822 823 824 825 826 827
          828 829 830 831 832 833
          834 835 836 837 838 839
          840 841 842 843 844 845
          846 847 848 849 850 851
          852 853 854 855 856 857
          858 859 860 861 862 863
          864 865 866 867 868 869
          870 871 872 873 874 875
          1272 1273 1274 1275 1276 1277
          1326 1327 1328 1353 1354 1355
          1380 1381 1382 1407 1408 1409
          1434 1435 1436 1677 1678 1679
          1704 1705 1706 1731 1732 1733
          1758 1759 1760 1785 1786 1787
          1788 1789 1790 1812 1813 1814
          1815 1816 1817 1839 1840 1841
          1842 1843 1844 1866 1867 1868
          1869 1870 1871 120 121 122
          123 124 125 240 241 242
          330 331 332 420 421 422
          510 511 512 600 601 602
          690 691 692 780 781 782
          783 784 785 876 786 877
          787 878 788 1278 1279 1280
          1281 1282 1283 1329 1330 1331
          1356 1357 1358 1383 1384 1385
          1410 1411 1412 1437 1438 1439
          1461 1462 1463 1464 1465 1466
          1488 1489 1490 1515 1516 1517
          1542 1543 1544 1569 1570 1571
          1596 1597 1598 1623 1624 1625
          1650 1651 1652 1680 1653 1681
          1654 1682 1655 1707 1708 1709
          1734 1735 1736 1761 1762 1763
          1791 1764 1792 1765 1793 1766
          1818 1819 1820 1845 1846 1847
          1872 1873 1874 1893 879 1894
          880 1895 881 1896 1897 1898
          1899 1900 1901
        </DataArray>
        <DataArray type="Float64" Name="resid_x" format="ascii" RangeMin="-10.20421277329691" RangeMax="0.000100358862373362">
          -2.5494397128722532 -4.937173692098895e-8 -5.6355457633827655e-8 -5.098860870484962 -5.098876575775238 -1.207318094387233e-7
          -6.80827847432397e-8 -10.197715592828501 -2.549436214866899 2.690743481359448e-7 3.4680364446870726e-7 -5.098853591905144
          5.09176793617172e-7 -5.098804511101422 2.022310932048299e-7 -10.197602150649413 2.9684942104424294e-7 -5.098796603423782
          0.0000011728762685514482 -5.098711010133285 9.783179844014e-7 -10.197414558764866 5.3489019435915e-7 -5.098702487988319
          0.0000017469025266336757 -5.098582435975289 0.0000016796353956571863 -10.19715663888844 7.401811354945664e-7 -5.098573030332498
          0.000002249348290739306 -5.098421389864337 0.0000022317082253309195 -10.196833409687795 8.401570736893405e-7 -5.098410499090097
          0.0000027469100962740356 -5.0982306184311925 0.0000027648643499134096 -10.196450360880512 9.37274239110053e-7 -5.098217690829875
          0.0000032340191880031455 -5.098013768594383 0.000003310882202622878 -10.196014889097853 0.0000011201870497856703 -5.097998469583742
          0.0000036709063104822803 -5.0977764112612345 0.00000386661377405062 -10.19553804756601 0.0000013512035743623585 -5.097758214239642
          0.000003989469947285329 -5.097525582962373 0.000004349924568103347 -10.195033718297648 0.0000014756687582995198 -5.09750354714806
          0.0000041550384897171 -5.097270489268065 0.000004610364091828245 -10.194520364346273 0.000001425503855401189 -5.097243717706666
          0.0000042386104852631945 -5.097024852732655 0.0000046464287919434355 -10.194025345837577 0.00000129178412899833 -5.096992380118236
          0.0000043014960593446006 -5.0968077109837875 0.000004620704824542798 -10.193586061546341 0.0000012220268477136642 -5.09676768954072
          0.00000424909019569597 -5.09664250728953 0.00000459563824373177 -10.193248889760795 0.0000013878922389132242 -5.0965926360509455
          0.000003917801784769637 -5.096559257604532 0.000004454362823036462 -10.193073700280596 0.0000017512608123659845 -5.096497155978614
          0.0000033164206163505128 -5.096601123432318 0.000004083260685128209 -10.193146062199762 0.0000019037004075350694 -5.096523078358967
          0.0000027166718732374306 -5.096831705542695 0.000003471608116978331 -10.193592136451409 0.0000016152082640275012 -5.096732423039148
          0.0000025754159551638622 -5.09734606672982 0.0000029126497751441605 -10.194600031629584 0.000001145445536643308 -5.097217256744156
          0.000003202081669595458 -5.098278908820578 0.0000031348492801619443 -10.19643491608742 6.321089327521179e-7 -5.098105193582486
          0.000004554868075601348 -5.099808482291848 0.00000508767908957708 -10.19945103771431 0.0000010372182068785207 -5.099574886530412
          -0.000002474757590409382 -0.000004187681656109277 -0.000003976177876285902 -0.000006729926931736685 -0.000001281825914301038 -0.0000024496190067502255
          -0.000003939908442163187 -0.000006188935549378272 -0.000002430966083988295 -0.000004407490555191629 -0.00000680947499454021 -0.000002782431931080964
          -0.0000050885104450060226 -0.000007818040054896613 -0.0000033014305973466662 -0.000005474809243288803 -0.000008448301791474933 -0.0000037989585695008543
          -0.0000053510818860402765 -0.000008317189161832772 -0.00000404187618707752 -0.000004804319752249597 -0.000007397915145812561 -0.000003835999601964346
          -0.000004041197109394545 -0.00000617517553358482 -0.0000035257661288312647 -0.000003710104090171029 -0.000005927784781700751 -0.000003790913293499898
          -0.000004638839639969916 -0.000007461194078128841 -0.000004435804841218527 -0.000006182817683164643 -0.000009114930858533654 -0.000004304220191375663
          -0.000005874848458820026 -0.000007545422770149912 -0.000002704936134634295 -0.0000028405228227335044 -0.000002323751176369626 -2.725829602034935e-7
          5.681505821364397e-7 0.0000025394475460238652 0.0000012565807070430424 0.000001399912024968586 0.0000022642913295456424 -5.146625481344813e-8
          -0.000002132575012137039 -0.000005012353568645267 -0.00000408258700579367 -0.000006140229165119138 -0.000011414603988679772 -0.000006481908791489133
          -0.0000037372505468091788 -0.000006221785419757708 -0.000004101618720664391 0.0000035667632261038307 0.000013965622148059964 0.0000037189940371717967
          -6.176652149747497e-7 -0.0000011053860977661145 -2.583453566629146e-7 -4.43427210061742e-7 -3.164503366015481e-7 -7.229651783902113e-7
          -9.65948714348741e-7 8.505253523694023e-8 -5.302382031224795e-7 -9.847729622869394e-7 2.7364020516174037e-7 -4.5021125583133426e-7
          -9.821412545463204e-7 4.1057601363192475e-7 -4.3099437530003115e-7 -9.271964649393283e-7 5.699897500655027e-7 -4.2014689549674245e-7
          -8.133672286803062e-7 7.54785725032292e-7 -3.837438913301128e-7 -7.015919738506682e-7 9.445760276172166e-7 -2.835134549350471e-7
          -6.004983856833235e-7 0.0000011140268099119055 -1.355256027402163e-7 -4.879499053700442e-7 0.0000011878491155137283 -2.5686086146947673e-8
          -4.438943879137014e-7 0.0000011588730974843031 1.810484029363124e-8 -4.932552379877109e-7 0.0000011458603363934117 8.625516390026178e-8
          -4.4664791909454493e-7 0.000001260425197102677 2.624333910183907e-7 -2.6936106101160817e-7 0.0000014154433274349287 5.098561861593964e-7
          -1.589798026557787e-7 0.0000014166566875140063 6.41333138151623e-7 -1.8687465264122238e-7 0.000001151590408809966 4.123970409608546e-7
          -5.430307408182955e-7 3.759383688795026e-7 -3.202550900027745e-7 -6.236127014780379e-7 4.1240313430890296e-7 -3.351636497228583e-7
          -5.076465026121468e-9 0.0000014517832380711582 6.899868489895766e-7 0.0000014144261983872752 5.954281330211586e-7 0.0000036541449759397437
          -9.618367813324369e-7 -0.000001723595655089838 -2.7375445954547217e-7 -4.19527643735762e-7 -7.518283280383287e-7 -0.0000014653787618890135
          -0.0000015638887567170912 1.3689476174860715e-7 -0.0000012385420524729795 -0.0000015853903465590236 2.3588249797867888e-7 -0.0000011763357496974436
          -0.0000015721479864616583 3.164333857164081e-7 -0.0000011565473649888247 -0.000001513199739289206 4.228633940783766e-7 -0.0000011205197414376755
          -0.0000013853429314814036 5.34494099202476e-7 -0.000001034334540239712 -0.0000012071655568490769 6.398039138488798e-7 -8.76768669222372e-7
          -0.000001027749593429661 7.092835776489892e-7 -6.817304378792244e-7 -8.91141901604442e-7 7.116902125403612e-7 -5.331644925554713e-7
          -8.441765997346806e-7 6.552727049857765e-7 -4.557803809923655e-7 -8.410372074330041e-7 6.225215352095859e-7 -3.6438447947872987e-7
          -7.460460644814759e-7 6.696143763917917e-7 -1.6010676917588285e-7 -5.362143871145975e-7 7.34835245985721e-7 1.1406771482924682e-7
          -3.947897000422529e-7 7.234687142698704e-7 2.4319426827901225e-7 -5.59236825292686e-7 5.187386653560111e-7 -4.458373581428532e-8
          -0.00000110640239947557 1.2644090663371799e-8 -7.324794908392107e-7 -0.0000013216522076753279 -1.9615003354900296e-7 -8.453913746819808e-7
          -4.6836189193655287e-7 6.688990086267665e-7 5.343027056348149e-7 0.0000014282979496904602 -4.99589493330177e-7 0.0000020752711571425664
          -0.0000013114782069223452 -0.000002362887628226673 -2.923477628868909e-7 -3.977712288438795e-7 -0.0000011509582886759517 -0.000002158481899439124
          -0.000002199464963936748 1.5363964367409721e-7 -0.0000019198744998227824 -0.000002207816843569077 2.2503270269425002e-7 -0.0000018522716063174016
          -0.0000021640539689116167 2.9951823998786153e-7 -0.0000018074098622200552 -0.000002072903955596672 3.8398199198041993e-7 -0.0000017297014456296722
          -0.000001891662777975256 4.622314904167979e-7 -0.0000015797317178822823 -0.0000016391834112283732 5.160417515526206e-7 -0.000001346297213267178
          -0.0000013818836177570404 5.385289232329171e-7 -0.0000010835279184995272 -0.000001202999080796019 5.10400524067478e-7 -8.855357442882905e-7
          -0.0000011253730036742127 4.413490644061824e-7 -7.809075945885979e-7 -0.0000010879730663049259 3.9206770585664685e-7 -6.714725695466939e-7
          -9.607013660151154e-7 3.778746089366791e-7 -4.573787761863457e-7 -7.164572539686276e-7 3.7695901600187653e-7 -1.644976905801343e-7
          -5.74139965792142e-7 3.4856254549353594e-7 -2.3145217742381874e-8 -8.246468392592021e-7 2.026317038605896e-7 -3.274948152665047e-7
          -0.0000015034404587943584 -1.9204280521378791e-7 -0.000001035546970395984 -0.0000017449082876375144 -4.843348051508656e-7 -0.0000011792271088495454
          -8.979510996987017e-7 5.2598696509420506e-8 2.5187199659271187e-7 0.0000012968970684035241 -8.661944850274494e-8 0.0000017909492227019541
          -0.0000016569580454373067 -0.000003002205014812631 -3.3649570463367695e-7 -4.1890959856516474e-7 -0.0000015253615424093425 -0.0000028153930862195864
          -0.000002841736593151012 1.1251873033302218e-7 -0.000002587980298507375 -0.0000028386242818534413 1.762602317434414e-7 -0.0000025070908420410376
          -0.0000027673482154710882 2.507300882470531e-7 -0.00000243481667761003 -0.000002631995871915649 3.247444380072295e-7 -0.0000023145673702096303
          -0.000002393200217554181 3.8073704677898945e-7 -0.0000020997335217209923 -0.0000020563159415232235 4.1228271241422476e-7 -0.0000017852366234194506
          -0.0000017216717607126952 4.142531002671035e-7 -0.000001449451360713283 -0.000001494601504337112 3.710832108261286e-7 -0.0000012017093555805047
          -0.0000013899885686896596 2.974860935367474e-7 -0.0000010696368639706577 -0.0000013226538140287403 2.3892904232880596e-7 -9.503375695274485e-7
          -0.0000011744614756281635 1.9166490394795233e-7 -7.329334672512289e-7 -9.078010161367445e-7 1.4766616773798091e-7 -4.236183830386153e-7
          -7.665695447300891e-7 1.1363062402125479e-7 -2.5985743068446254e-7 -0.0000010821547919981356 -8.60634319366227e-9 -5.812968320029199e-7
          -0.0000018335665048496708 -3.6964061367328327e-7 -0.0000013137518775074852 -0.000002081092145278518 -6.614695253759351e-7 -0.0000014694967322981256
          -0.0000013584682623246636 -4.2163436875242155e-7 -9.936853873071527e-8 9.238648552845063e-7 5.652547057088952e-7 0.000002024132062850015
          -0.0000019872256467046157 -0.0000036206482345590985 -3.9435167131784965e-7 -4.648075511148875e-7 -0.0000018772894141427798 -0.000003434649513245347
          -0.000003470080480738602 3.6507185274814447e-8 -0.0000032227532753559274 -0.000003458181658810844 1.023657127952049e-7 -0.0000031333117700427238
          -0.0000033578363800579325 1.7482225533882456e-7 -0.0000030344680093108423 -0.000003182116288691361 2.467414033091586e-7 -0.000002870436873969595
          -0.0000028807935934516138 2.920699078146072e-7 -0.000002592514653620981 -0.0000024688422892715778 3.063201998720899e-7 -0.0000022063851630171882
          -0.000002065261185624223 2.9804509038555693e-7 -0.000001802438783560234 -0.0000017921541597409885 2.4634823336810996e-7 -0.0000015091645129139408
          -0.0000016552041297579478 1.6551665726893816e-7 -0.0000013528212794433614 -0.000001571735305461175 1.0879832057497651e-7 -0.0000012238877813430804
          -0.0000014197955677808238 4.6153871391396706e-8 -0.0000010081106980308618 -0.0000011399429982184017 -1.9538890949633014e-8 -6.896294890701427e-7
          -9.900319661859669e-7 -5.791999235782441e-8 -5.101978017840736e-7 -0.0000013504861695601278 -1.800101872007076e-7 -8.440666747766556e-7
          -0.000002150477113271876 -5.416078070474839e-7 -0.0000015874423637818325 -0.000002437849997427577 -8.166250977659217e-7 -0.0000017919404067257005
          -0.000001926906318061583 -7.946241362688511e-7 -5.373482285797593e-7 0.000001520175232805343 0.0000027780666749244176 0.0000027922828600424054
          -0.000002298207943063346 -0.000004212233765787943 -4.6077995330406907e-7 -5.36278863094708e-7 -0.0000022110854414059133 -0.0000040329639521274885
          -0.000004067554856046485 -5.800752056472902e-8 -0.000003840757961004471 -0.000004050883824824325 5.255108348478643e-9 -0.0000037434367889943587
          -0.000003931648525856701 7.664970347320832e-8 -0.0000036228754640710292 -0.000003713510027480993 1.4432810635511828e-7 -0.000003419916914992882
          -0.000003352430118397365 1.8160694192914661e-7 -0.0000030858093054142444 -0.000002868448827797465 1.8303775739525463e-7 -0.0000026349028727779
          -0.0000024025821581119544 1.6435925864755063e-7 -0.000002178818578446595 -0.0000020863591490005717 1.1640642938459678e-7 -0.000001842579943289735
          -0.0000019244811859664424 1.0581299392242727e-8 -0.0000016784462659735766 -0.0000018255126925659226 -3.038450557824035e-8 -0.0000015431285680378437
          -0.0000016846235624257133 -1.0009707329672324e-7 -0.0000013532050853193311 -0.0000013931810571854442 -1.9485296176569022e-7 -0.000001046146111960411
          -0.0000012343065982634016 -2.3691176176399154e-7 -8.552423684804467e-7 -0.0000016357914405240592 -3.8865369145213435e-7 -0.0000012177446238048617
          -0.0000024630924322366354 -7.355165974054501e-7 -0.000001995302121748921 -0.0000028331354280375365 -0.0000010901713949351688 -0.0000022769656347065848
          -0.0000025917179691248293 -0.0000011653252496302002 -0.0000013017848861096581 0.0000064329515097050205 0.000009291472578887294 0.000007319517066228798
          -0.000002672306126161317 -0.000004934372189069336 -9.709391006751389e-7 -9.58894594838e-7 -0.00000989993737832151 -0.00001861736900066191
          -0.000008588111600094095 -0.000002509566400465957 -0.0000199781805716448 -0.000009377206779070946 -0.0000027311461248125113 -0.000019145566723999252
          -0.000009371858902706975 -0.00000295429146435211 -0.000018403660704269242 -0.000009196759205742921 -0.000003207148337569521 -0.00001724200584884983
          -0.000008972005558938179 -0.000004001163675049213 -0.000015245355047710518 -0.00001889181130376727 -0.000026206677330442574 -0.000020509551814207327
          -0.00002316408688107785 -0.00003851368203955374 -0.00002288599880273523 -0.000019626983882581328 -0.000032499121268347864 -0.000018864263311879625
          -0.00001722268536630267 -0.00002844034899762704 -0.000016492720597671706 -0.000016342831691940063 -0.000027075549681399025 -0.000015533697165004412
          -0.000015655479733478472 -0.000026061267380583786 -0.000014376948427319292 -0.000013236808364958108 -0.000022043114382253037 -0.000011431317908705552
          -0.00001759824878311278 -0.000031250656418180256 -0.000014876116172235498 -0.000014220328819813943 -0.000023881326500330147 -0.00001260480217135651
          -0.000006622055183314046 -0.000005316931181553741 -0.000007265027366809562 -0.000008179896101356832 -0.0000069990649818052475 -0.000009047855566546303
          -0.000009763392503359114 -0.000010067109706302091 -0.000009081195913029916 -0.00003427823638624261 -0.00006000767607838853 -0.00002819974683543336
          -0.00008976002250715709 -0.00016845962290412686 -0.00007059191401248555 -0.00007999487895160584 -0.00014224813021801452 -0.00005986686221426396
          -0.0000613929534236668 -0.000031345033092211594 -0.00008966934904508506 -0.00004458889974445768 -0.000054646753247400426 -0.000025996698266972373
          -0.00006416594206193338 -0.0000900157102510235 -0.00005770401763838251 -0.0000629032409906749 -0.00008911220566165667 -0.000055475624790357614
          -0.00006073241697679421 -0.00008598847410556942 -0.00005340836132416982 -0.000056693866487211864 -0.00008009939627262597 -0.000049641566836289286
          -0.000047290488097484484 -0.00006708757503837148 -0.00003972248442840609 -0.00002031565499116539 -0.0000327641990711669 -0.000016971700556478453
          -0.000029388755310666426 -0.00004316659363423625 -0.00002332652246916922 -0.00003625726952849462 -0.000053052627254412954 -0.000027547354338075536
          -0.00003921788731542364 -0.00005751612956395036 -0.00002982528000261553 -0.000026694509143609935 -0.00003748052074170616 -0.000021214001246772085
          -0.000029868885211392637 -0.00004486189452679312 -0.00002239305046147777 -0.00001631704935611822 -0.000014657769503489959 -0.000009937673663085178
          -0.00003516699226846498 -0.00005113339803353156 -0.000023768313710537115 -0.000024776532403958385 -0.00003569688888482858 -0.000012783543294148103
          -0.00002291802879605953 -0.00003268820278501394 -0.000010743397814483302 -0.000011216006575054394 -0.000006199135640816422 0.0000050644019311540944
          0.000020008154197004302 -0.000014045265949835795 -0.000009108420280679042 0.000004866367695477436 -5.102218422701538 0.000008669482014500574
          -10.20421277329691 0.000002759869468960119 -5.101898020598753 -0.00001451466714375016 -0.000006184561043287573 -0.0000012320604785287514
          -0.00000507931440729692 -0.000005077350378801526 -0.0000014017221254825074 -0.000004521839209292722 -0.000006440698607779183 -0.0000033594943174009018
          -0.000004980345551963694 -0.000006412342396178161 -0.0000040420299636245716 -0.00000681662745893874 -0.00000820295730896703 -0.000005186109372612435
          -0.000008274459518453625 -0.000009841969154766872 -0.000006715160579595647 -0.00007487318325072323 -0.00013639232696949222 -0.00006198127783063612
          -0.00009653158484113078 -0.00017944851945905782 -0.0000873207148393007 -0.000017438443177919538 -0.000034189474788615115 -0.00003317347195430642
          -0.00006587396317581096 6.082185182165745e-7 -0.00003068899597691299 -0.00003737905916700868 -0.000019185481953343242 -0.0001025938052894304
          -0.00005268269023783745 -0.0000761553780286306 -0.00003996897655289544 -0.00004810218026385371 -0.00010416833008264348 -0.00007495350492359165
          -0.000047812036857664 -0.00009853668783499359 -0.00006850960769888559 -0.000046517643149890375 -0.00009461462969362344 -0.00006513783897865721
          -0.00004381414702603337 -0.00008801133017932727 -0.00006001295657753758 -0.00002959108468303384 -0.000058573277277318425 -0.00004570693929295544
          -0.00003391199641722409 -0.00004293995544735196 -0.00002421167449773165 -0.00001171413996337023 -0.00002113856994068186 -0.000030291481610156268
          -0.0000209379305839974 -0.000039751648749586366 -0.000026466283038928395 -0.000018762283261253287 -0.00003465781682265856 -0.000024128606331608182
          -0.00001673624277742647 -0.000030437867925670048 -0.000019755281343236675 -0.00001599195109136531 -0.00002850772633777865 -0.000017668565955197835
          -0.000015530719501555268 -0.0000269974464277567 -0.000015559136413934027 -0.00001298142073480335 -0.000021234650686707823 -0.00001169691723035271
          -0.00001022158819230512 -0.000014356760921430123 -0.000006455840208641206 -0.00002428277675736723 -0.000018079013520022613 -0.00004548448458763232
          -0.000028235560047384922 -0.000025863321531538475 -0.00001805653243902583 -0.00002555354891509154 -0.00004498750116610495 -0.00002418377717283704
          -0.000031984776069471366 -0.00005692892093023261 -0.00002867767589442849 -0.000032420572920965895 -0.00005464974977797965 -0.000024785363004653505
          -0.00004241700426810269 -0.00002525656046881153 -0.00007865586550437342 -0.000038852731089278336 -0.00004085124976693777 -0.00002190634891663379
          -0.00005029068204720488 -0.00009305695545691606 -0.000043879978442795675 -0.00005108102878725873 -0.00009295609097570434 -0.00004036907543092383
          -0.000028372875542359566 -0.00004473205926558421 -3.1796396626759815e-8 -0.000026779673951704552 -0.00002761320845667825 -0.000057418280008825207
          -0.000055245324716679534 -0.0000080313319990033 -0.000002941645876664012 0.0000669694634614082 0.000100358862373362 0.00005389909942454807
          -0.000009555768499591721 -0.000014676431091764641 0.00003452578620954938
        </DataArray>
        <DataArray type="Float64" Name="resid_y" format="ascii" RangeMin="-0.07502263064816109" RangeMax="0.00023420599075132942">
          -0.005111353828739542 -0.010217998781256564 3.557373387443746e-8 0.000002259517916265545 -0.010223382398298087 -0.020438025186448175
          7.068466038439442e-8 0.000006716818381761157 -0.00511350642807843 -0.010222979693788076 5.53169511847626e-7 0.000004771635234611209
          5.978855740175135e-7 0.000004934069069597105 -8.888063024806159e-8 0.000013349168661616097 7.134443719206129e-7 0.000009211379319983698
          8.838036354291701e-7 0.000006997794739025363 -3.3746037631562226e-7 0.00001876945830394782 8.271781159812849e-7 0.000012911991881585545
          0.0000011197211498368415 0.000008869042135588312 -5.267479518383106e-7 0.00002382710373830324 9.697404076483562e-7 0.000016355838479370152
          0.0000013922525831837687 0.000010782680043113814 -6.725860715898688e-7 0.000029002807186816713 0.0000011357069627619676 0.000019864127756047574
          0.0000017169838448377606 0.00001271415776927555 -8.086080085538058e-7 0.000034189625387433253 0.0000012605911093675065 0.000023340008893075678
          0.0000020467789072272508 0.000014469640466245604 -9.413997136987345e-7 0.00003882189097606948 0.0000013101195807576488 0.00002636881948601781
          0.000002255190429838183 0.000015705219048809012 -0.0000010652366529200971 0.00004198126406855431 0.0000013171249338556068 0.000028365955353072507
          0.00000233575239959663 0.000016253739965773478 -0.0000011362080116440396 0.00004329589934684054 0.000001369610522280497 0.000029192088873455403
          0.0000024554785507122437 0.000016395215471709697 -0.0000010829352104727713 0.00004355090337576639 0.0000015048493743992017 0.000029400944879124334
          0.000002621694225864689 0.00001642016337852735 -9.043536315384709e-7 0.000043560379548458414 0.000001645948492094533 0.00002943819935139272
          0.0000026632674791048083 0.000016141907668838426 -6.578668965140366e-7 0.00004288597862492534 0.0000016408852066300203 0.000028914176375452114
          0.000002601826322742515 0.000015152165011252106 -3.4763124091147235e-7 0.00004030677037719643 0.0000014156895690939364 0.000027007403081813486
          0.0000024784687984533843 0.000013432161155291222 8.367338249007372e-8 0.00003564286406887787 0.0000011799168491057749 0.000023686397834560627
          0.000002291847907962344 0.000011776236122848505 6.60763951962004e-7 0.00003120395686803841 0.000001318670335863359 0.00002068470506233315
          0.0000024477908706650037 0.00001178284907821757 0.0000013685522549950618 0.0000314353835285594 0.00000198816885826035 0.00002110458236894222
          0.0000032459638326098883 0.000014507673730021833 0.0000021127517475447166 0.000038956493566713254 0.0000028709789774601646 0.00002627757083341689
          0.000004274169769840838 0.000017332067718592997 0.0000026846834096736633 0.000045226076447482666 0.0000032279204873596895 0.00002968148954280575
          0.000014188319022058818 0.000019539444442721182 0.000020130183468520038 0.00004685919256819035 0.000009614517967361513 0.000028659654109589733
          -0.010201700486758232 0.000005612908795788948 -0.02040568406914059 0.000009055222680431387 -0.010206697828256218 0.0000053527785274969444
          0.000010487935195227678 0.000016103245409584965 0.00000940734013766837 0.000014268942767192878 0.00002168743085779936 0.000012723816034277552
          0.000017906379450755364 0.000027137715393857863 0.000015973518664827956 0.000021557180041915577 0.000032602656733507485 0.000019248553323328484
          0.000024916323084019434 0.00003746401061193328 0.000022192663705410814 0.000027388500256358625 0.00004080295706900255 0.000024305787829088064
          0.00002860505509954571 0.000042349565938942096 0.000025416332371666107 0.000029328237867816062 0.000043484783293195814 0.000026118085093575737
          0.00003080290104044963 0.00004598635209410607 0.000027246743964338786 0.00003255525342229799 0.000048963178490316235 0.000028530951926818322
          0.000032270346735037425 0.00004861372471186981 0.000028236610857524345 0.000028278220266445345 0.00004205313131910339 0.00002481536273568532
          0.000021570863410404206 0.00003114085546559141 0.000019167540504749087 0.000016414430578183536 0.000023152935703044802 0.000015060224040715567
          0.000018022468629438557 0.0000260514336632503 0.00001660443719395284 0.000025519146525003825 0.00003798685347056359 0.000023067876689949682
          0.00003038701300474289 0.00004539488116963794 0.00002713450220833552 0.000035705503417700346 0.00005776975533034086 0.000030081165103829424
          -0.010176612950271422 0.0000012821436422075227 -0.02035555470941378 2.6951888267359725e-7 -0.010181583887924513 0.0000015669088572504639
          0.000002833318377862097 7.344882079381165e-7 0.000002973270751227726 0.000004004874872421196 0.0000010980268505371427 0.0000042316061145573555
          0.000005132233686538576 0.0000014439024540900333 0.000005424831803309792 0.000006226250815219957 0.0000017531081238468527 0.000006604046628170407
          0.000007278633965780365 0.0000020444968456840434 0.000007724102273522736 0.000008181752994111842 0.000002320066722412417 0.000008634111506421703
          0.000008775774318552781 0.0000025852512349593126 0.000009228120738962245 0.000009092762253842986 0.00000284705914769829 0.000009563398060177461
          0.000009347477977383195 0.0000031028084401946154 0.000009771000694712081 0.00000952993199990898 0.0000032883659573422833 0.00000989701341553087
          0.000009406061011138847 0.0000033660162715833455 0.000009830389756453409 0.000008889874180125629 0.0000034268073903949425 0.000009373791825173158
          0.00000806250326631109 0.000003509485923306431 0.000008574757666662824 0.000007416022386862002 0.0000036436781088305947 0.000008038761739886588
          0.000008137801209709764 0.0000045527756585310095 0.000008737200964706662 0.000009607891775386193 0.000004722239864496727 0.000009659426846506461
          0.000009939638924117214 0.000004926137015564408 0.000010073257543057393 0.00001620279471191942 0.000022937061780701 0.000015346463253958914
          -0.01014056051718721 0.0000013591124598194906 -0.020283617490589965 3.5224642602835893e-7 -0.010145785010795131 0.0000016162659753540115
          0.000002981975458679967 8.274772093294636e-7 0.0000030767365724430895 0.00000426215331117679 0.0000012170337942672693 0.000004421311461641313
          0.000005499330366867498 0.0000016015603728145034 0.000005707727781500624 0.000006684307947780847 0.0000019537730406348278 0.000006949705854727983
          0.000007778100892336104 0.0000022800697252788396 0.000008090144593580692 0.000008681241533544 0.000002576738655535836 0.00000899743123417441
          0.00000929532177499151 0.0000028451232929067177 0.000009598503651086533 0.000009660695984401065 0.0000030881491076238665 0.000009965960762863164
          0.000009935001097883915 0.000003319125193030313 0.000010223983147024038 0.000010121857437947121 0.000003505842730353384 0.000010393528225843308
          0.000010045090795871014 0.0000036178996894974114 0.000010358009270225454 0.00000959796441530724 0.0000037072780417436377 0.00000996679581139262
          0.000008890037397418608 0.000003806686587243084 0.00000929868526943281 0.00000846213083267617 0.000004035292882950854 0.000008921726305336462
          0.000009111431211400803 0.000004725087537619209 0.000009494572153042474 0.000010425756986771548 0.000005384398994616631 0.000010422004357409781
          0.000010233094789054327 0.00000487364436168973 0.000010314696997255901 0.00001733070398380037 0.000024526350329832393 0.000017014970217065634
          -0.010094649369149833 0.0000013119718398745678 -0.02019200835189147 3.4319639921533834e-7 -0.010100271096865237 0.000001571717578039214
          0.0000029002411764270444 7.601325528946989e-7 0.0000029839861682276134 0.000004198105054745681 0.0000011438159292715203 0.000004329636229222049
          0.00000544883289455185 0.000001517414493683658 0.0000056211012023632545 0.000006631426391508037 0.000001867592681621677 0.000006847199047419102
          0.000007697064805933275 0.000002192582836292069 0.000007947042463087202 0.000008562669422612981 0.0000024867878301755575 0.00000881857353345495
          0.000009169826903574103 0.0000027455784740604977 0.000009414870632084779 0.000009561870405256495 0.0000029724209992176495 0.000009807577266574517
          0.00000985262556909422 0.0000031944910340283086 0.000010098813255493382 0.000010049675300579167 0.000003398278648533877 0.0000102954586597764
          0.000010033086311107137 0.0000035558057012181205 0.000010309871208133425 0.000009716762871507176 0.000003687762734494969 0.000010035598789225053
          0.000009212084468888243 0.0000038197499213623795 0.000009563098206776671 0.000008969782154444675 0.000004051118645849797 0.000009347475814124907
          0.000009591668785810352 0.000004692319950311621 0.000009892416268524919 0.000010635626892865034 0.0000054904200220964525 0.000010752795174585189
          0.000010359402088425639 0.000004702364073629409 0.000010516267012973708 0.000018087538946146356 0.000025171420081814867 0.000017430821823263658
          -0.010038822751645818 0.0000012311843911984657 -0.02008059003292847 3.118722360232265e-7 -0.010044976469283613 0.0000015037425923330322
          0.000002751889446878618 6.62193454334381e-7 0.0000028333167304108245 0.000004031192248189416 0.0000010371509479058239 0.0000041454975839034375
          0.000005255853997667738 0.0000013891697888974291 0.000005403954728478745 0.000006405006637103319 0.0000017297692123680736 0.000006586888312125512
          0.000007423231679109382 0.0000020457816949370766 0.000007632590236545007 0.000008247197831184883 0.0000023331342022415297 0.000008463570918153251
          0.000008841276528553411 0.000002581306003059461 0.000009052611617509088 0.000009249610699561036 0.00000279916260300132 0.00000946461477613304
          0.000009556733792721872 0.000003021176457201468 0.000009780796242851199 0.00000977205370548571 0.0000032441543199356396 0.00001000299878841553
          0.000009821459513569258 0.000003433666046196663 0.00001007729933982359 0.000009646199184940116 0.000003594817569683821 0.000009934854512015905
          0.000009340064924693268 0.0000037481333309231576 0.000009655008860870711 0.000009262594171305372 0.000003983884339602353 0.000009599147419127579
          0.000009861067986741134 0.0000046205376451808645 0.00001014373644016818 0.00001076771045273794 0.000005477001034317856 0.000010961359221121035
          0.000010593886012841584 0.000004489444433466473 0.000010806047027311872 0.000019446708486623755 0.000026911699708206754 0.000018348024087476542
          -0.009973062395790423 0.0000011399286806304879 -0.019949031443435194 2.7228889768176473e-7 -0.009979563839917455 0.0000014300392144842716
          0.0000025835068274979514 5.623560961716054e-7 0.0000026666718708663606 0.000003825370205301146 9.28189068240097e-7 0.000003927674486082361
          0.0000050082349574527216 0.0000012625517716849041 0.000005137252893064673 0.000006108545440280944 0.0000015912462309796219 0.00000626616025840767
          0.000007075451936438843 0.0000018976733328506835 0.000007255050801062424 0.000007861608646357772 0.000002179026676235596 0.000008049651343590598
          0.000008444340304397321 0.0000024198417015626472 0.000008631237068837047 0.000008864805177750783 0.000002631381121741272 0.000009058680385419168
          0.000009191000323735803 0.000002858700611327314 0.000009400919248947915 0.00000943296721407378 0.000003098076651063958 0.00000965253741544176
          0.000009549259695340075 0.0000033062462000822516 0.000009794151122120495 0.000009505068210295415 0.0000034840432106492472 0.000009784822093433787
          0.000009376333145637121 0.000003649593088968228 0.000009676660112143895 0.00000944213895449496 0.0000039013085025626365 0.000009752906089373911
          0.000010029355722808572 0.000004508806867984392 0.000010302364450571295 0.000010923553216130272 0.000005459620819328647 0.000011156125666044966
          0.000010878642014274832 0.000004250419004095006 0.000011158770916000027 0.00002195260475766495 0.00003132068686882879 0.00002025047093181208
          -0.009897122269823842 0.000001044883446589713 -0.0197973120685705 2.2519986253924373e-7 -0.009902166558212983 0.000001355038721392171
          0.0000024111122577533464 4.6577770496276927e-7 0.000002497336372184189 0.000003604360234393464 8.235115482296135e-7 0.0000036993911760119583
          0.0000047358462556585 0.0000011414281274567395 0.000004851729684176957 0.000005781412730968168 0.0000014621946545314603 0.000005922225443883832
          0.000006694267817234766 0.000001755734205395685 0.00000685444090650026 0.000007447787207065428 0.0000020356600692840107 0.0000076171613601089955
          0.000008026386838554198 0.0000022718164618715057 0.000008191116386893453 0.000008462780381335386 0.000002475996765693468 0.00000863541826143753
          0.000008809588478275038 0.000002713753180676789 0.000009013923612312055 0.000009082322371861077 0.000002964571592431204 0.00000929994051773915
          0.000009262244776218724 0.000003182085711502143 0.00000951190864174889 0.000009325175363093102 0.0000033650201271121817 0.000009628510453984444
          0.00000935876379323233 0.0000035381542309801794 0.000009663618038091223 0.00000956024015758125 0.0000038051442473856917 0.000009834773222687065
          0.0000101422628990219 0.0000043939911452449214 0.000010405694425609144 0.000011024631982748572 0.000005243699714365269 0.00001127317935436297
          0.00001107590523187962 0.0000039939729973843645 0.000011423671087170198 0.00001404266070132755 0.000015175861524482914 0.000012304477218226181
          -0.02432640730269723 9.955989845461533e-7 -0.04865310406111402 2.6680407152687713e-7 -0.024331761139412416 0.000003403175801670877
          0.0000032437936230457487 0.0000025350082528338702 0.000006864716740745402 0.000005886750866278961 0.0000038540751236167126 0.000009777442609111564
          0.000008081715630142011 0.000004505425734133844 0.000012254096902197809 0.00001016838273451559 0.0000052621488742625455 0.00001456073261589877
          0.000013684454254165451 0.000009226677446787235 0.000017406990092994762 0.000011844681214161906 0.000003857844867484472 0.000014226830326716233
          0.000022399622913931577 0.000026015772140629972 0.000023829668455942893 0.000022912086753822808 0.00002450220566664954 0.000023303339383166227
          0.000023813566773788625 0.000025438380623247353 0.000023999186735179645 0.000024450955223014048 0.00002623163427278516 0.000024545486176082848
          0.00002558854681210254 0.00002814467467321738 0.000026095693465826714 0.000026885076599765523 0.00003116870505871436 0.000027339049698774098
          0.000018377747736126465 0.000013106420534141072 0.000020298546326937006 0.00002794780180278081 0.00002969591539829508 0.0000322473195767739
          0.000020017033784982402 0.000008005024150135182 0.00002468558278504243 0.000022976210804374897 0.000012796621065715164 0.000029175175606126202
          0.000025871762662228737 0.00001665396694953275 0.000034621149175802224 0.00004196544663751661 0.000047396130418576876 0.0000496594562861552
          0.00007102806476404905 0.00011329810258929596 0.00007348537733301713 0.00008181660337529956 0.0001388561130756666 0.00008019279746154795
          0.0000023808597795632602 -0.0375071017046346 0.000003820609739680486 -0.07502263064816109 0.000004905422986298258 -0.03752638321268649
          0.0000045629950288957055 0.000006002720797135264 0.000007767210909163935 0.000010164793074488032 0.000010450128375676798 0.000012465057697325782
          0.000014142799887897212 0.000013698860439507327 0.00001580166357699822 0.0000177297271196572 0.00001673855439706176 0.000018640503104263434
          0.00003758089535881373 0.00005440217733589103 0.000032583473034603766 0.00005542125137998968 0.0000890352148087345 0.00005896701754036504
          0.0000394210430317149 0.00003296000519934297 0.000036181424189547784 0.00004214533188297287 0.00003720962543570655 0.00004076064432444876
          0.00003714643135136614 0.000024100613324629788 0.00003782817323152998 0.00004855133820210952 0.00003849660387896317 0.000051607091029436114
          0.000052609572452870165 0.00008575245953863124 0.00006237213967868354 0.0000431420360065167 0.000008298702761472612 0.00004234306673693913
          0.000041363423520290876 0.000029233422871454903 0.000045797351356655774 0.0000550922193301856 0.00003297036153392368 0.000059510858414133644
          0.00004999957419663838 0.00004162395848008281 0.000058935996801965165 0.00009316114169258944 0.0001084342234059769 0.0000779966715597002
          0.00012814902806873238 0.00017194569794733855 0.00007927544255285218 0.00001704009598464673 0.000007766390260004197 0.00003909677673048784
          0.000023359100339848116 0.000022164568732017942 0.00001618112695277174 0.00002666295620588205 0.00004673478283936938 0.0000255728493059465
          0.00001895732635552594 0.000030274318931461375 0.000019904890481516058 0.000020163108240156546 0.00003152791938351718 0.00002118224310568989
          0.00002213801489830275 0.00003485971060519788 0.00002299654788123079 0.000024251907229384806 0.00003859124360970634 0.00002514164097530691
          0.000025619415327748918 0.00004093544508747271 0.00002649330313927306 0.00010020345993591584 0.00018875261272564836 0.00009776109283434614
          0.00008734010550325716 0.0001563368669765114 0.00008345641112473406 0.00003329800322511567 0.00003594007712517944 0.00006046100703030466
          0.00005400798557023134 0.00004962714929505896 0.000034713834675993704 0.0000010634975832896076 -0.035309968000303005 0.000004231306665655049
          -0.07062298378220015 0.0000062898044420230115 -0.03532373206191576 0.000018500303470121715 0.00001933485930712825 0.000011519638179757069
          0.000016072314002694293 0.000010445373903014005 0.00000796347705513123 0.00001821818366080398 0.000011779754029415251 0.000010518405857154467
          0.00001974388071906627 0.000012540207387393837 0.00001285805369724384 0.00001039006545124413 -0.000007962281467986318 0.000007193188143930079
          0.00003039485376424289 0.000055255548063688764 0.000038965707651671816 0.000017072852077824885 0.0000031642579533947 0.000017577477450889112
          0.00001718208873422236 0.000021745050817489203 0.00002045564728574492 0.00003040190952399366 0.00003014400646453655 0.00003020689840280491
          0.00002886200908103903 0.000024752610838868483 0.000028171946210690108 0.000030495657580311558 0.00002629540205424663 0.000030162021131627942
          0.00003116493573784504 0.00002584823633622335 0.00003107984089477725 0.00003102744531786189 0.000025019197571453378 0.00003192077008252331
          0.00006231078341384366 0.00008660633956839026 0.00005383004922821649 0.00003134183680790145 0.00003789398155935875 0.000014152732284736236
          0.000028910230138401438 0.000029377958327778814 0.00003767874301895818 0.00003962400753145662 0.00003373201590300967 0.00003763845768592344
          0.000039638015255749615 0.00003383001418005849 0.00003667735309540593 0.00007138194578856089 0.00009744379752471555 0.00005951780151901287
          0.00003342843093356168 0.00004144034148590575 0.000017847602349713165 0.00003193943301742219 0.00003089628256634086 0.00003940288059691571
          0.0000400507020179644 0.00003365010509416566 0.00004177732931635869 0.0000382594136555392 0.000024801755105913204 0.00003761868483186104
          0.00008905727208810554 0.00009844238186759724 0.00003711567468850374 0.00010210678950219043 0.00003744847901118731 0.00020039626351250894
          0.000057768411349412574 0.00011708672025519118 0.00004524955382873008 0.00010640684115929833 0.00023420599075132942 0.0001334058259669646
          0.00004152434608482511 0.00016537097139388696 0.00013232725335442577
        </DataArray>
        <DataArray type="Float64" Name="resid_z" format="ascii" RangeMin="0" RangeMax="0">
          0 0 0 0 0 0
          0 0 0 0 0 0
          0 0 0 0 0 0
          0 0 0 0 0 0
          0 0 0 0 0 0
          0 0 0 0 0 0
          0 0 0 0 0 0
          0 0 0 0 0 0
          0 0 0 0 0 0
          0 0 0 0 0 0
          0 0 0 0 0 0
          0 0 0 0 0 0
          0 0 0 0 0 0
          0 0 0 0 0 0
          0 0 0 0 0 0
          0 0 0 0 0 0
          0 0 0 0 0 0
          0 0 0 0 0 0
          0 0 0 0 0 0
          0 0 0 0 0 0
          0 0 0 0 0 0
          0 0 0 0 0 0
          0 0 0 0 0 0
          0 0 0 0 0 0
          0 0 0 0 0 0
          0 0 0 0 0 0
          0 0 0 0 0 0
          0 0 0 0 0 0
          0 0 0 0 0 0
          0 0 0 0 0 0
          0 0 0 0 0 0
          0 0 0 0 0 0
          0 0 0 0 0 0
          0 0 0 0 0 0
          0 0 0 0 0 0
          0 0 0 0 0 0
          0 0 0 0 0 0
          0 0 0 0 0 0
          0 0 0 0 0 0
          0 0 0 0 0 0
          0 0 0 0 0 0
          0 0 0 0 0 0
          0 0 0 0 0 0
          0 0 0 0 0 0
          0 0 0 0 0 0
          0 0 0 0 0 0
          0 0 0 0 0 0
          0 0 0 0 0 0
          0 0 0 0 0 0
          0 0 0 0 0 0
          0 0 0 0 0 0
          0 0 0 0 0 0
          0 0 0 0 0 0
          0 0 0 0 0 0
          0 0 0 0 0 0
          0 0 0 0 0 0
          0 0 0 0 0 0
          0 0 0 0 0 0
          0 0 0 0 0 0
          0 0 0 0 0 0
          0 0 0 0 0 0
          0 0 0 0 0 0
          0 0 0 0 0 0
          0 0 0 0 0 0
          0 0 0 0 0 0
          0 0 0 0 0 0
          0 0 0 0 0 0
          0 0 0 0 0 0
          0 0 0 0 0 0
          0 0 0 0 0 0
          0 0 0 0 0 0
          0 0 0 0 0 0
          0 0 0 0 0 0
          0 0 0 0 0 0
          0 0 0 0 0 0
          0 0 0 0 0 0
          0 0 0 0 0 0
          0 0 0 0 0 0
          0 0 0 0 0 0
          0 0 0 0 0 0
          0 0 0 0 0 0
          0 0 0 0 0 0
          0 0 0 0 0 0
          0 0 0 0 0 0
          0 0 0 0 0 0
          0 0 0 0 0 0
          0 0 0 0 0 0
          0 0 0 0 0 0
          0 0 0 0 0 0
          0 0 0 0 0 0
          0 0 0 0 0 0
          0 0 0 0 0 0
          0 0 0 0 0 0
          0 0 0 0 0 0
          0 0 0 0 0 0
          0 0 0 0 0 0
          0 0 0 0 0 0
          0 0 0 0 0 0
          0 0 0 0 0 0
          0 0 0 0 0 0
          0 0 0 0 0 0
          0 0 0 0 0 0
          0 0 0 0 0 0
          0 0 0 0 0 0
          0 0 0 0 0 0
          0 0 0 0 0 0
          0 0 0 0 0 0
          0 0 0 0 0 0
          0 0 0 0 0 0
          0 0 0 0 0 0
          0 0 0 0 0 0
          0 0 0 0 0 0
          0 0 0 0 0 0
          0 0 0 0 0 0
          0 0 0 0 0 0
          0 0 0 0 0 0
          0 0 0 0 0 0
          0 0 0 0 0 0
          0 0 0 0 0 0
          0 0 0 0 0 0
          0 0 0 0 0 0
          0 0 0 0 0 0
          0 0 0 0 0 0
          0 0 0 0 0 0
          0 0 0 0 0 0
          0 0 0 0 0 0
          0 0 0 0 0 0
          0 0 0 0 0 0
          0 0 0 0 0 0
          0 0 0 0 0 0
          0 0 0 0 0 0
          0 0 0
        </DataArray>
        <DataArray type="Float64" Name="stress_zz" format="ascii" RangeMin="-55398.70739235317" RangeMax="55069.87388153276">
          -412.49166868890535 -447.288066150663 -446.93820818287855 -411.18774700857375 -439.2962541472082 -465.6605628927281
          -466.29027726404223 -437.5264994510246 -466.10083960551094 -484.03305963479323 -485.64234634520585 -463.8652518934755
          -460.11802970048655 -422.89201617661547 -479.2407699211223 -447.21876304983016 -498.363510141758 -471.54550992304473
          -487.8670040919646 -447.5358059253401 -506.35721514922926 -471.0486916749005 -524.847426206494 -494.5615774244609
          -524.0843734981004 -479.1930233559524 -543.3641641232101 -503.8294615766388 -562.6439547483199 -528.4658997973252
          -576.4423026384062 -528.8301229004576 -595.9112313047783 -553.8244243535588 -615.3801599711505 -578.81872580666
          -641.5472821464464 -592.8901590193834 -661.137042444063 -617.8289619089934 -680.7268027416796 -642.7677647986035
          -716.0575454100175 -667.1134980109815 -736.1058928204503 -692.0323170887528 -756.1542402308831 -716.9511361665243
          -808.5019271217467 -760.699320794904 -828.9542878554322 -785.1448757958024 -849.4066485891178 -809.5904307967007
          -931.5607498880316 -886.8049098061249 -951.8399372205344 -909.9790734401219 -972.1191245530371 -933.1532370741188
          -1088.825062766877 -1047.7037004221643 -1108.4651876713174 -1069.6944524411026 -1128.1053125757578 -1091.6852044600407
          -1281.2348751188297 -1244.970501155536 -1300.2422773576213 -1266.3996041883388 -1319.2496795964134 -1287.8287072211415
          -1514.974329682183 -1487.990082951906 -1534.4454564059765 -1509.206580433578 -1553.91658312977 -1530.4230779152504
          -1798.3279360444826 -1783.270929029612 -1820.7977442474046 -1805.3657093343854 -1843.2675524503263 -1827.4604896391593
          -2155.4504150707257 -2148.938221921144 -2183.658128508486 -2174.269129235321 -2211.8658419462463 -2199.6000365494983
          -2633.863988571333 -2629.161475443912 -2670.492853967906 -2661.9123310012897 -2707.1217193644793 -2694.663186558667
          -3281.3636316266734 -3272.1545985964253 -3329.6327221161455 -3316.9844529638385 -3377.901812605617 -3361.814307331251
          -4193.106768239093 -4192.544743026201 -4243.161963127054 -4240.358972310271 -4293.217158015015 -4288.173201594342
          -5481.1038169807 -5525.724556054287 -5539.652524453816 -5569.743855447223 -5598.201231926932 -5613.763154840159
          -7255.797933312876 -7374.2502056632065 -7292.645342568852 -7371.764280940033 -7329.492751824827 -7369.27835621686
          -469.32456954890284 -472.97714545660426 -479.38955570309105 -484.454395173292 -489.4545418572793 -495.9316448899797
          -489.22180046138834 -501.3489011461995 -513.4760018310108 -516.8281989328232 -528.7358126850334 -540.6434264372436
          -553.7955487473878 -566.491912767625 -579.1882767878622 -605.0972721356485 -618.2425511913652 -631.3878302470822
          -668.7450829126508 -682.5416251302602 -696.3381673478694 -742.9316537169344 -757.8328098381628 -772.7339659593913
          -833.6189877175183 -849.9003191757763 -866.1816506340343 -949.2052784375103 -966.981177201864 -984.7570759662179
          -1093.1271533204576 -1112.6069419410462 -1132.086730561635 -1269.8816742196607 -1291.5516813595762 -1313.2216884994914
          -1489.578644429061 -1514.7226769761508 -1539.8667095232406 -1764.5380703566623 -1795.0909495721203 -1825.6438287875778
          -2116.8754207491975 -2154.4483356550527 -2192.0212505609084 -2582.892252179383 -2629.538599028688 -2676.1849458779934
          -3204.0871960591066 -3264.225409807529 -3324.3636235559516 -4061.289856206722 -4128.556876895436 -4195.82389758415
          -5260.254354598294 -5351.143065737963 -5442.031776877633 -6884.517709671717 -6990.559380747183 -7096.601051822649
          -457.0039319947167 -462.89122375596327 -467.08657909734393 -473.50538953327583 -477.16922619997115 -484.1195553105884
          -479.45151341613405 -490.0662136185263 -500.68091382091865 -503.148082196126 -513.9656288733066 -524.7831755504873
          -535.5010450140363 -547.6372575509075 -559.7734700877786 -581.0679717526472 -594.5334543195006 -607.9989368863542
          -638.9815840128213 -654.214387078493 -669.4471901441648 -708.4300762287685 -725.9170413402594 -743.4040064517504
          -793.6415383230487 -813.8048906435363 -833.9682429640242 -899.7103779034662 -923.0934839096551 -946.476589915844
          -1029.530760183862 -1057.1147670881696 -1084.6987739924773 -1190.690560990935 -1223.8356854469916 -1256.9808099030483
          -1396.8655980650078 -1437.0164552152364 -1477.1673123654646 -1660.9351906977518 -1709.2482756690924 -1757.5613606404331
          -1998.2534402786027 -2055.651271610678 -2113.0491029427526 -2432.282647984569 -2501.3866180576524 -2570.4905881307363
          -2997.163496766324 -3084.6361637696205 -3172.108830772916 -3768.616482037114 -3873.063456701155 -3977.510431365196
          -4845.034343717161 -4984.783230179713 -5124.5321166422655 -6256.344644137409 -6439.686504962737 -6623.028365788066
          -453.71373718368534 -458.81626202390555 -463.9344005334269 -469.60872298806083 -474.1550638831685 -480.4011839522161
          -473.8555645212905 -484.7744833547441 -495.6934021881977 -496.27539153303053 -507.5880208701832 -518.9006502073357
          -526.8536102742537 -539.7689974399268 -552.6843846056 -568.8801842925233 -583.7776669912322 -598.6751496899412
          -621.2267697264338 -639.0019517547697 -656.7771337831058 -683.5201135076636 -704.9473043167278 -726.3744951257921
          -760.6406110682103 -786.3920360199729 -812.1434609717357 -858.234567781213 -888.7675810426238 -919.3005943040346
          -979.5714781966135 -1015.3063588485757 -1051.041239500538 -1130.4996805526323 -1172.5356144322561 -1214.57154831188
          -1320.3503680113015 -1370.9857706292314 -1421.6211732471618 -1559.5183077148697 -1621.4386790843796 -1683.3590504538895
          -1863.683063832185 -1938.763243960219 -2013.8434240882525 -2256.8047999481896 -2347.373876347016 -2437.942952745843
          -2767.6011684563064 -2880.112763822067 -2992.6243591878274 -3456.7225719107505 -3590.367692961715 -3724.01281401268
          -4383.7867850324965 -4563.459399276409 -4743.132013520322 -5534.288202978865 -5776.5312076216915 -6018.774212264518
          -472.3698246607759 -478.01079339246644 -473.4160417528359 -479.3696486416021 -474.46225884489604 -480.7285038907379
          -493.5764251889409 -494.54956312576064 -495.5227010625803 -516.0248421394974 -516.9520651048693 -517.8792880702412
          -546.4173771112588 -548.4606846602647 -550.5039922092707 -587.9454727918404 -591.4309228191908 -594.916372846541
          -639.1139060056568 -644.9733002040032 -650.8326944023496 -699.3900790571822 -708.2214386019647 -717.052798146747
          -775.4965373108121 -787.5170842649736 -799.5376312191352 -873.5738349369085 -888.504153945272 -903.4344729536356
          -995.152475396243 -1012.6543907345902 -1030.1563060729372 -1145.2464785603079 -1165.652869853347 -1186.0592611463862
          -1333.1734518268088 -1357.9214571647983 -1382.669462502788 -1568.6156880819028 -1599.3785814617117 -1630.1414748415207
          -1866.0935226889424 -1902.9805960293102 -1939.8676693696775 -2247.750777937524 -2290.699185975303 -2333.6475940130813
          -2735.13256883301 -2788.348502814223 -2841.5644367954355 -3383.6369238908965 -3441.352717885612 -3499.0685118803267
          -4233.269024101354 -4315.590511130324 -4397.911998159293 -5216.057636077722 -5330.167711709481 -5444.2777873412415
          -605.1399874516487 -612.6955861936808 -558.9506229491684 -566.2056667183772 -512.7612584466881 -519.7157472430736
          -632.5153913880615 -584.037337852858 -535.5592843176544 -660.6954596872924 -609.8932161543843 -559.0909726214761
          -698.8376304864856 -645.9456338289825 -593.0536371714793 -751.0792429874614 -695.3513153767707 -639.6233877660802
          -815.7674171781882 -757.1471308296485 -698.5268444811088 -891.6926801023255 -829.3331849740289 -766.9736898457323
          -989.945496810663 -921.8004617739836 -853.6554267373039 -1118.328608271416 -1041.2476910027385 -964.1667737340612
          -1275.9383134535829 -1186.6099672061216 -1097.2816209586604 -1469.1853488574347 -1364.2901573830136 -1259.3949659085924
          -1711.1311906583294 -1587.2384966165516 -1463.3458025747739 -2014.2180148377415 -1866.8414376361798 -1719.464860434618
          -2396.2552729865956 -2216.5114623127133 -2036.767651638831 -2884.182893108057 -2660.3562991813865 -2436.5297052547157
          -3496.483961012139 -3219.544953062924 -2942.605945113709 -4298.908177152307 -3941.400223290121 -3583.8922694279354
          -5340.056618385813 -4894.545088383263 -4449.033558380714 -6507.737810196804 -5933.278839635866 -5358.819869074929
          -1056.7698170550802 -1069.3469322907233 -832.3362166603704 -842.8573670720815 -607.9026162656605 -616.3678018534396
          -1103.3145624602166 -869.5438055794284 -635.7730486986401 -1153.7556318597012 -908.9743746990569 -664.1931175384127
          -1222.5157633769472 -963.1071732234024 -703.6985830698577 -1316.7611757129043 -1037.5652853308766 -758.3693949488488
          -1436.7905485350884 -1133.2078694852053 -829.6251904353219 -1579.6684006094188 -1245.0498606550843 -910.4313207007502
          -1766.052415505779 -1390.2935014914594 -1014.5345874771401 -2007.1723599295578 -1577.4816120001854 -1147.7908640708135
          -2300.2157756836086 -1802.6508869138886 -1305.0859981441695 -2660.8486568378034 -2078.581843680932 -1496.3150305240604
          -3112.405237372799 -2423.958047290843 -1735.5108572088861 -3680.8418916758637 -2859.1823146322004 -2037.5227375885365
          -4399.45734707524 -3403.324465582774 -2407.1915840903075 -5320.244945091034 -4095.029001791132 -2869.813058491229
          -6477.689471460193 -4964.524877261711 -3451.360283063227 -7973.906551932326 -6068.282312985325 -4162.658074038325
          -9960.689249679428 -7556.606991906819 -5152.524734134211 -12309.249028731056 -9196.52755656089 -6083.806084390726
          -1850.6660894152037 -1872.6546118319047 -1724.0448923144595 -1743.3348287310123 -1597.4236952137155 -1614.0150456301194
          -1934.8545943441377 -1798.0444437882973 -1661.2342932324568 -2028.9486100910294 -1883.1163583005819 -1737.284106510134
          -2156.7173120098473 -1999.8075481753883 -1842.8977843409286 -2331.5708857329464 -2158.235950728358 -1984.9010157237697
          -2565.40502766181 -2369.6532730476038 -2173.9015184333975 -2847.2437089255545 -2619.1769676639333 -2391.1102264023116
          -3210.1588180732297 -2944.2748951659423 -2678.3909722586545 -3662.265253031428 -3359.071442664052 -3055.877632296675
          -4200.132119018391 -3854.245987830487 -3508.359856642584 -4872.202899883277 -4471.074322776128 -4069.9457456689793
          -5707.232931592198 -5237.005416267409 -4766.77790094262 -6771.041041225329 -6212.0904568082005 -5653.139872391071
          -8106.6279558075275 -7437.921283191187 -6769.214610574847 -9812.411476311254 -9007.864597260806 -8203.317718210359
          -11983.840621315398 -11001.283076229614 -10018.72553114383 -14766.817185719872 -13533.624117603538 -12300.431049487204
          -18525.172661394092 -16981.951711822963 -15438.73076225183 -23149.251627775906 -21155.878237400804 -19162.50484702571
          -2122.271395075366 -2144.344520221437 -2228.2156498091863 -2251.4698148172283 -2334.1599045430066 -2358.595109413019
          -2208.019104130878 -2317.3872389555977 -2426.7553737803173 -2311.3312755074085 -2425.5976334797465 -2539.8639914520845
          -2459.2563600192198 -2580.531064467744 -2701.805768916268 -2656.740719215484 -2786.7661033715062 -2916.791487527529
          -2930.8799638791797 -3071.355018119429 -3211.8300723596794 -3257.044357299508 -3409.5590194000833 -3562.0736815006585
          -3649.1411685641506 -3820.955485545883 -3992.7698025276163 -4144.871160289232 -4343.858717986236 -4542.84627568324
          -4742.036393544828 -4973.9743355086675 -5205.9122774725065 -5475.775114293061 -5748.802516786469 -6021.829919279875
          -6378.8245968243045 -6703.0852405569285 -7027.3458842895525 -7512.297920049696 -7905.033362919444 -8297.76880578919
          -8883.614228857485 -9366.998096678364 -9850.381964499245 -10624.813978908796 -11226.229456319043 -11827.644933729287
          -12842.836031155046 -13600.348688990844 -14357.861346826641 -15607.995960644044 -16561.136724542725 -17514.2774884414
          -19172.308787933638 -20397.190014570275 -21622.071241206908 -23425.637534688416 -25032.710899303675 -26639.784263918926
          -28555.566852108943 -30700.41551998158 -32845.26418785422 -34662.02990017808 -37517.92579490436 -40373.821689630626
          -1339.952304818059 -1329.0381470487946 -1371.090719726932 -1356.5547427560236 -1402.2291346358052 -1384.0713384632527
          -1382.7950017136209 -1415.0742856391403 -1447.3535695646597 -1449.858404962411 -1481.563773813958 -1513.2691426655051
          -1536.0403477610942 -1569.2833217704087 -1602.5262957797233 -1644.1539819160002 -1680.9802952511711 -1717.806608586342
          -1787.06547574582 -1831.5472136214066 -1876.0289514969934 -4811.84087960845 -4961.13150766006 -5110.422135711671
          -5355.524719476387 -5541.2980100849345 -5727.071300693483 -5868.382930137292 -6106.094294856386 -6343.80565957548
          -6137.682882716254 -6431.172073781275 -6724.661264846297 -5923.330780998933 -6296.06292870936 -6668.795076419787
          8020.21550480383 8408.169470215958 8796.123435628086 -4853.566035093856 -5335.547803637031 -5817.529572180209
          13273.023118001627 13818.89077641703 14364.758434832438 -1979.8591629296743 -2586.1331018714714 -3192.4070408132693
          21381.12587508987 22135.68071552528 22890.235555960695 4741.038114462271 4071.5240745198507 3402.0100345774326
          33862.52735890065 35062.28925347304 36262.05114804544 -9656.839008484538 -9816.758297295199 -9699.875226299027
          -9819.234604323252 -9742.911444113519 -9821.710911351305 -9096.35991536804 -9231.007329749762 -9365.654744131483
          -8170.254729340808 -8410.151420715394 -8650.04811208998 -7116.699234855064 -7422.773048973345 -7728.846863091625
          -6530.563248290782 -6662.806152868459 -6795.049057446138 -8025.944356845217 -7246.388574387038 -6466.832791928859
          -15438.642655537114 -11304.913971164053 -7171.18528679099 -29155.335020780567 -26521.55750397187 -23887.77998716318
          -36885.919893610255 -33526.48209861414 -30167.04430361804 -40743.231308334915 -45828.594529567636 -44591.913924477616
          -41581.152800930526 -48440.596540620325 -37333.711072293416 -618.0751737081313 -612.2597180520904 -640.4226182962564
          -630.7808489225265 -662.7700628843813 -649.3019797929626 -661.0657278855277 -681.3280098725024 -701.5902918594772
          -710.4974931343586 -723.8599235430079 -737.2223539516573 -736.8375670778053 -746.7224832155905 -756.6073993533756
          -772.4032639233167 -777.2715795662614 -782.1398952092062 -805.0774023754386 -802.5869775863323 -800.0965527972259
          -1966.9402378568984 -2023.7425469092198 -2080.5448559615415 -850.3456935167077 -836.6928377353639 -823.0399819540204
          -2151.608624517984 -2219.59423056412 -2287.5798366102567 -2381.4628879405254 -2454.124653702078 -2526.786419463631
          -2678.152616917703 -2753.8881102525893 -2829.6236035874754 -3010.6791341059024 -3094.577139501514 -3178.475144897126
          -3397.2897784739316 -3489.991125670705 -3582.6924728674776 -3840.198587978632 -3954.7984241466547 -4069.3982603146774
          -4310.917975033816 -4446.580055501595 -4582.242135969374 222.09675524848836 -308.6359291847997 350.5998371990464
          -202.02512327400814 479.10291914960453 -95.41431736321664 1079.3132176923446 1242.681154657825 1406.0490916233052
          2415.480141292841 2617.7150362872826 2819.9499312817243 4591.327993345928 4862.655344267092 5133.982695188258
          11319.177016778129 7611.9816845985415 11115.697821886828 7457.397105339514 10912.218626995527 7302.812526080487
          16435.875971367248 16183.60496605015 15931.333960733053 23215.73574893638 22920.947548467393 22626.159347998408
          31631.420289209116 31420.95784843889 31210.49540766867 18037.18243191634 -44762.32662184186 17288.285309427407
          -50080.51700709752 16539.38818693848 -55398.70739235317 51683.08081111878 53376.47734632577 55069.87388153276
          40131.584478781435 39849.8139001088 39568.043321436155
        </DataArray>
        <DataArray type="Float64" Name="peeq" format="ascii" RangeMin="0" RangeMax="0">
          0 0 0 0 0 0
          0 0 0 0 0 0
          0 0 0 0 0 0
          0 0 0 0 0 0
          0 0 0 0 0 0
          0 0 0 0 0 0
          0 0 0 0 0 0
          0 0 0 0 0 0
          0 0 0 0 0 0
          0 0 0 0 0 0
          0 0 0 0 0 0
          0 0 0 0 0 0
          0 0 0 0 0 0
          0 0 0 0 0 0
          0 0 0 0 0 0
          0 0 0 0 0 0
          0 0 0 0 0 0
          0 0 0 0 0 0
          0 0 0 0 0 0
          0 0 0 0 0 0
          0 0 0 0 0 0
          0 0 0 0 0 0
          0 0 0 0 0 0
          0 0 0 0 0 0
          0 0 0 0 0 0
          0 0 0 0 0 0
          0 0 0 0 0 0
          0 0 0 0 0 0
          0 0 0 0 0 0
          0 0 0 0 0 0
          0 0 0 0 0 0
          0 0 0 0 0 0
          0 0 0 0 0 0
          0 0 0 0 0 0
          0 0 0 0 0 0
          0 0 0 0 0 0
          0 0 0 0 0 0
          0 0 0 0 0 0
          0 0 0 0 0 0
          0 0 0 0 0 0
          0 0 0 0 0 0
          0 0 0 0 0 0
          0 0 0 0 0 0
          0 0 0 0 0 0
          0 0 0 0 0 0
          0 0 0 0 0 0
          0 0 0 0 0 0
          0 0 0 0 0 0
          0 0 0 0 0 0
          0 0 0 0 0 0
          0 0 0 0 0 0
          0 0 0 0 0 0
          0 0 0 0 0 0
          0 0 0 0 0 0
          0 0 0 0 0 0
          0 0 0 0 0 0
          0 0 0 0 0 0
          0 0 0 0 0 0
          0 0 0 0 0 0
          0 0 0 0 0 0
          0 0 0 0 0 0
          0 0 0 0 0 0
          0 0 0 0 0 0
          0 0 0 0 0 0
          0 0 0 0 0 0
          0 0 0 0 0 0
          0 0 0 0 0 0
          0 0 0 0 0 0
          0 0 0 0 0 0
          0 0 0 0 0 0
          0 0 0 0 0 0
          0 0 0 0 0 0
          0 0 0 0 0 0
          0 0 0 0 0 0
          0 0 0 0 0 0
          0 0 0 0 0 0
          0 0 0 0 0 0
          0 0 0 0 0 0
          0 0 0 0 0 0
          0 0 0 0 0 0
          0 0 0 0 0 0
          0 0 0 0 0 0
          0 0 0 0 0 0
          0 0 0 0 0 0
          0 0 0 0 0 0
          0 0 0 0 0 0
          0 0 0 0 0 0
          0 0 0 0 0 0
          0 0 0 0 0 0
          0 0 0 0 0 0
          0 0 0 0 0 0
          0 0 0 0 0 0
          0 0 0 0 0 0
          0 0 0 0 0 0
          0 0 0 0 0 0
          0 0 0 0 0 0
          0 0 0 0 0 0
          0 0 0 0 0 0
          0 0 0 0 0 0
          0 0 0 0 0 0
          0 0 0 0 0 0
          0 0 0 0 0 0
          0 0 0 0 0 0
          0 0 0 0 0 0
          0 0 0 0 0 0
          0 0 0 0 0 0
          0 0 0 0 0 0
          0 0 0 0 0 0
          0 0 0 0 0 0
          0 0 0 0 0 0
          0 0 0 0 0 0
          0 0 0 0 0 0
          0 0 0 0 0 0
          0 0 0 0 0 0
          0 0 0 0 0 0
          0 0 0 0 0 0
          0 0 0 0 0 0
          0 0 0 0 0 0
          0 0 0 0 0 0
          0 0 0 0 0 0
          0 0 0 0 0 0
          0 0 0 0 0 0
          0 0 0 0 0 0
          0 0 0 0 0 0
          0 0 0 0 0 0
          0 0 0 0 0 0
          0 0 0 0 0 0
          0 0 0 0 0 0
          0 0 0 0 0 0
          0 0 0 0 0 0
          0 0 0 0 0 0
          0 0 0
        </DataArray>
        <DataArray type="Float64" Name="pe11" format="ascii" RangeMin="0" RangeMax="0">
          0 0 0 0 0 0
          0 0 0 0 0 0
          0 0 0 0 0 0
          0 0 0 0 0 0
          0 0 0 0 0 0
          0 0 0 0 0 0
          0 0 0 0 0 0
          0 0 0 0 0 0
          0 0 0 0 0 0
          0 0 0 0 0 0
          0 0 0 0 0 0
          0 0 0 0 0 0
          0 0 0 0 0 0
          0 0 0 0 0 0
          0 0 0 0 0 0
          0 0 0 0 0 0
          0 0 0 0 0 0
          0 0 0 0 0 0
          0 0 0 0 0 0
          0 0 0 0 0 0
          0 0 0 0 0 0
          0 0 0 0 0 0
          0 0 0 0 0 0
          0 0 0 0 0 0
          0 0 0 0 0 0
          0 0 0 0 0 0
          0 0 0 0 0 0
          0 0 0 0 0 0
          0 0 0 0 0 0
          0 0 0 0 0 0
          0 0 0 0 0 0
          0 0 0 0 0 0
          0 0 0 0 0 0
          0 0 0 0 0 0
          0 0 0 0 0 0
          0 0 0 0 0 0
          0 0 0 0 0 0
          0 0 0 0 0 0
          0 0 0 0 0 0
          0 0 0 0 0 0
          0 0 0 0 0 0
          0 0 0 0 0 0
          0 0 0 0 0 0
          0 0 0 0 0 0
          0 0 0 0 0 0
          0 0 0 0 0 0
          0 0 0 0 0 0
          0 0 0 0 0 0
          0 0 0 0 0 0
          0 0 0 0 0 0
          0 0 0 0 0 0
          0 0 0 0 0 0
          0 0 0 0 0 0
          0 0 0 0 0 0
          0 0 0 0 0 0
          0 0 0 0 0 0
          0 0 0 0 0 0
          0 0 0 0 0 0
          0 0 0 0 0 0
          0 0 0 0 0 0
          0 0 0 0 0 0
          0 0 0 0 0 0
          0 0 0 0 0 0
          0 0 0 0 0 0
          0 0 0 0 0 0
          0 0 0 0 0 0
          0 0 0 0 0 0
          0 0 0 0 0 0
          0 0 0 0 0 0
          0 0 0 0 0 0
          0 0 0 0 0 0
          0 0 0 0 0 0
          0 0 0 0 0 0
          0 0 0 0 0 0
          0 0 0 0 0 0
          0 0 0 0 0 0
          0 0 0 0 0 0
          0 0 0 0 0 0
          0 0 0 0 0 0
          0 0 0 0 0 0
          0 0 0 0 0 0
          0 0 0 0 0 0
          0 0 0 0 0 0
          0 0 0 0 0 0
          0 0 0 0 0 0
          0 0 0 0 0 0
          0 0 0 0 0 0
          0 0 0 0 0 0
          0 0 0 0 0 0
          0 0 0 0 0 0
          0 0 0 0 0 0
          0 0 0 0 0 0
          0 0 0 0 0 0
          0 0 0 0 0 0
          0 0 0 0 0 0
          0 0 0 0 0 0
          0 0 0 0 0 0
          0 0 0 0 0 0
          0 0 0 0 0 0
          0 0 0 0 0 0
          0 0 0 0 0 0
          0 0 0 0 0 0
          0 0 0 0 0 0
          0 0 0 0 0 0
          0 0 0 0 0 0
          0 0 0 0 0 0
          0 0 0 0 0 0
          0 0 0 0 0 0
          0 0 0 0 0 0
          0 0 0 0 0 0
          0 0 0 0 0 0
          0 0 0 0 0 0
          0 0 0 0 0 0
          0 0 0 0 0 0
          0 0 0 0 0 0
          0 0 0 0 0 0
          0 0 0 0 0 0
          0 0 0 0 0 0
          0 0 0 0 0 0
          0 0 0 0 0 0
          0 0 0 0 0 0
          0 0 0 0 0 0
          0 0 0 0 0 0
          0 0 0 0 0 0
          0 0 0 0 0 0
          0 0 0 0 0 0
          0 0 0 0 0 0
          0 0 0 0 0 0
          0 0 0 0 0 0
          0 0 0 0 0 0
          0 0 0 0 0 0
          0 0 0
        </DataArray>
        <DataArray type="Float64" Name="pe22" format="ascii" RangeMin="0" RangeMax="0">
          0 0 0 0 0 0
          0 0 0 0 0 0
          0 0 0 0 0 0
          0 0 0 0 0 0
          0 0 0 0 0 0
          0 0 0 0 0 0
          0 0 0 0 0 0
          0 0 0 0 0 0
          0 0 0 0 0 0
          0 0 0 0 0 0
          0 0 0 0 0 0
          0 0 0 0 0 0
          0 0 0 0 0 0
          0 0 0 0 0 0
          0 0 0 0 0 0
          0 0 0 0 0 0
          0 0 0 0 0 0
          0 0 0 0 0 0
          0 0 0 0 0 0
          0 0 0 0 0 0
          0 0 0 0 0 0
          0 0 0 0 0 0
          0 0 0 0 0 0
          0 0 0 0 0 0
          0 0 0 0 0 0
          0 0 0 0 0 0
          0 0 0 0 0 0
          0 0 0 0 0 0
          0 0 0 0 0 0
          0 0 0 0 0 0
          0 0 0 0 0 0
          0 0 0 0 0 0
          0 0 0 0 0 0
          0 0 0 0 0 0
          0 0 0 0 0 0
          0 0 0 0 0 0
          0 0 0 0 0 0
          0 0 0 0 0 0
          0 0 0 0 0 0
          0 0 0 0 0 0
          0 0 0 0 0 0
          0 0 0 0 0 0
          0 0 0 0 0 0
          0 0 0 0 0 0
          0 0 0 0 0 0
          0 0 0 0 0 0
          0 0 0 0 0 0
          0 0 0 0 0 0
          0 0 0 0 0 0
          0 0 0 0 0 0
          0 0 0 0 0 0
          0 0 0 0 0 0
          0 0 0 0 0 0
          0 0 0 0 0 0
          0 0 0 0 0 0
          0 0 0 0 0 0
          0 0 0 0 0 0
          0 0 0 0 0 0
          0 0 0 0 0 0
          0 0 0 0 0 0
          0 0 0 0 0 0
          0 0 0 0 0 0
          0 0 0 0 0 0
          0 0 0 0 0 0
          0 0 0 0 0 0
          0 0 0 0 0 0
          0 0 0 0 0 0
          0 0 0 0 0 0
          0 0 0 0 0 0
          0 0 0 0 0 0
          0 0 0 0 0 0
          0 0 0 0 0 0
          0 0 0 0 0 0
          0 0 0 0 0 0
          0 0 0 0 0 0
          0 0 0 0 0 0
          0 0 0 0 0 0
          0 0 0 0 0 0
          0 0 0 0 0 0
          0 0 0 0 0 0
          0 0 0 0 0 0
          0 0 0 0 0 0
          0 0 0 0 0 0
          0 0 0 0 0 0
          0 0 0 0 0 0
          0 0 0 0 0 0
          0 0 0 0 0 0
          0 0 0 0 0 0
          0 0 0 0 0 0
          0 0 0 0 0 0
          0 0 0 0 0 0
          0 0 0 0 0 0
          0 0 0 0 0 0
          0 0 0 0 0 0
          0 0 0 0 0 0
          0 0 0 0 0 0
          0 0 0 0 0 0
          0 0 0 0 0 0
          0 0 0 0 0 0
          0 0 0 0 0 0
          0 0 0 0 0 0
          0 0 0 0 0 0
          0 0 0 0 0 0
          0 0 0 0 0 0
          0 0 0 0 0 0
          0 0 0 0 0 0
          0 0 0 0 0 0
          0 0 0 0 0 0
          0 0 0 0 0 0
          0 0 0 0 0 0
          0 0 0 0 0 0
          0 0 0 0 0 0
          0 0 0 0 0 0
          0 0 0 0 0 0
          0 0 0 0 0 0
          0 0 0 0 0 0
          0 0 0 0 0 0
          0 0 0 0 0 0
          0 0 0 0 0 0
          0 0 0 0 0 0
          0 0 0 0 0 0
          0 0 0 0 0 0
          0 0 0 0 0 0
          0 0 0 0 0 0
          0 0 0 0 0 0
          0 0 0 0 0 0
          0 0 0 0 0 0
          0 0 0 0 0 0
          0 0 0 0 0 0
          0 0 0 0 0 0
          0 0 0 0 0 0
          0 0 0
        </DataArray>
        <DataArray type="Float64" Name="pe33" format="ascii" RangeMin="0" RangeMax="0">
          0 0 0 0 0 0
          0 0 0 0 0 0
          0 0 0 0 0 0
          0 0 0 0 0 0
          0 0 0 0 0 0
          0 0 0 0 0 0
          0 0 0 0 0 0
          0 0 0 0 0 0
          0 0 0 0 0 0
          0 0 0 0 0 0
          0 0 0 0 0 0
          0 0 0 0 0 0
          0 0 0 0 0 0
          0 0 0 0 0 0
          0 0 0 0 0 0
          0 0 0 0 0 0
          0 0 0 0 0 0
          0 0 0 0 0 0
          0 0 0 0 0 0
          0 0 0 0 0 0
          0 0 0 0 0 0
          0 0 0 0 0 0
          0 0 0 0 0 0
          0 0 0 0 0 0
          0 0 0 0 0 0
          0 0 0 0 0 0
          0 0 0 0 0 0
          0 0 0 0 0 0
          0 0 0 0 0 0
          0 0 0 0 0 0
          0 0 0 0 0 0
          0 0 0 0 0 0
          0 0 0 0 0 0
          0 0 0 0 0 0
          0 0 0 0 0 0
          0 0 0 0 0 0
          0 0 0 0 0 0
          0 0 0 0 0 0
          0 0 0 0 0 0
          0 0 0 0 0 0
          0 0 0 0 0 0
          0 0 0 0 0 0
          0 0 0 0 0 0
          0 0 0 0 0 0
          0 0 0 0 0 0
          0 0 0 0 0 0
          0 0 0 0 0 0
          0 0 0 0 0 0
          0 0 0 0 0 0
          0 0 0 0 0 0
          0 0 0 0 0 0
          0 0 0 0 0 0
          0 0 0 0 0 0
          0 0 0 0 0 0
          0 0 0 0 0 0
          0 0 0 0 0 0
          0 0 0 0 0 0
          0 0 0 0 0 0
          0 0 0 0 0 0
          0 0 0 0 0 0
          0 0 0 0 0 0
          0 0 0 0 0 0
          0 0 0 0 0 0
          0 0 0 0 0 0
          0 0 0 0 0 0
          0 0 0 0 0 0
          0 0 0 0 0 0
          0 0 0 0 0 0
          0 0 0 0 0 0
          0 0 0 0 0 0
          0 0 0 0 0 0
          0 0 0 0 0 0
          0 0 0 0 0 0
          0 0 0 0 0 0
          0 0 0 0 0 0
          0 0 0 0 0 0
          0 0 0 0 0 0
          0 0 0 0 0 0
          0 0 0 0 0 0
          0 0 0 0 0 0
          0 0 0 0 0 0
          0 0 0 0 0 0
          0 0 0 0 0 0
          0 0 0 0 0 0
          0 0 0 0 0 0
          0 0 0 0 0 0
          0 0 0 0 0 0
          0 0 0 0 0 0
          0 0 0 0 0 0
          0 0 0 0 0 0
          0 0 0 0 0 0
          0 0 0 0 0 0
          0 0 0 0 0 0
          0 0 0 0 0 0
          0 0 0 0 0 0
          0 0 0 0 0 0
          0 0 0 0 0 0
          0 0 0 0 0 0
          0 0 0 0 0 0
          0 0 0 0 0 0
          0 0 0 0 0 0
          0 0 0 0 0 0
          0 0 0 0 0 0
          0 0 0 0 0 0
          0 0 0 0 0 0
          0 0 0 0 0 0
          0 0 0 0 0 0
          0 0 0 0 0 0
          0 0 0 0 0 0
          0 0 0 0 0 0
          0 0 0 0 0 0
          0 0 0 0 0 0
          0 0 0 0 0 0
          0 0 0 0 0 0
          0 0 0 0 0 0
          0 0 0 0 0 0
          0 0 0 0 0 0
          0 0 0 0 0 0
          0 0 0 0 0 0
          0 0 0 0 0 0
          0 0 0 0 0 0
          0 0 0 0 0 0
          0 0 0 0 0 0
          0 0 0 0 0 0
          0 0 0 0 0 0
          0 0 0 0 0 0
          0 0 0 0 0 0
          0 0 0 0 0 0
          0 0 0 0 0 0
          0 0 0 0 0 0
          0 0 0 0 0 0
          0 0 0
        </DataArray>
        <DataArray type="Float64" Name="disp_x" format="ascii" RangeMin="0" RangeMax="0.0000018351386994592">
          0 8.676905135648765e-8 8.676802596339984e-8 0 0 8.67689825387314e-8
          8.676795681214784e-8 0 0 8.676878463765451e-8 8.676775480928919e-8 0
          8.676494220153489e-8 0 8.676486215464476e-8 0 8.676464809227366e-8 0
          8.675975014865866e-8 0 8.675966398265773e-8 0 8.675943617080935e-8 0
          8.675242225826636e-8 0 8.675232731618687e-8 0 8.675207943211677e-8 0
          8.674290787141776e-8 0 8.674280050392612e-8 0 8.674252053852973e-8 0
          8.673111493742905e-8 0 8.673099088655682e-8 0 8.673066703417269e-8 0
          8.671691937689745e-8 0 8.671677580510992e-8 0 8.671639958749133e-8 0
          8.670018962875182e-8 0 8.670002269707376e-8 0 8.66995815404097e-8 0
          8.66807557371249e-8 0 8.668055928393818e-8 0 8.668003162297942e-8 0
          8.665840333929866e-8 0 8.665817303040556e-8 0 8.665753831219304e-8 0
          8.66329119340707e-8 0 8.663264386994403e-8 0 8.663188115710315e-8 0
          8.660404119468093e-8 0 8.660372195362047e-8 0 8.660278958190874e-8 0
          8.657144281746537e-8 0 8.657105099099218e-8 0 8.656989444402795e-8 0
          8.653464912572899e-8 0 8.653416209605488e-8 0 8.65327231992548e-8 0
          8.649316761650829e-8 0 8.649255468736327e-8 0 8.649074424801253e-8 0
          8.644648619870229e-8 0 8.644570785902242e-8 0 8.644340114700491e-8 0
          8.639413469430988e-8 0 8.639313507919603e-8 0 8.639016251481426e-8 0
          8.633557997522814e-8 0 8.63342642762551e-8 0 8.633029032792704e-8 0
          8.626988134289975e-8 0 8.626808089521713e-8 0 8.626271472005472e-8 0
          1.7353866885459276e-7 1.7353663201357523e-7 1.735385394159131e-7 1.7353649826943468e-7 1.7353809896291032e-7 1.7353604778918304e-7
          1.73530464666431e-7 1.7353032437967082e-7 1.7352985067098025e-7 1.735200944542786e-7 1.7351994690682632e-7 1.7351944466293582e-7
          1.735054693117771e-7 1.7350530983357103e-7 1.7350476550282998e-7 1.734864867187776e-7 1.734863077574047e-7 1.73485700330399e-7
          1.7346296213532e-7 1.7346275484595653e-7 1.7346206214767345e-7 1.7343464930934868e-7 1.7343440737438013e-7 1.7343361017299235e-7
          1.734012897503423e-7 1.734010043921336e-7 1.7340007666201294e-7 1.7336255112538094e-7 1.7336220832168408e-7 1.733611110011787e-7
          1.7331801448103783e-7 1.7331760565980954e-7 1.73316303032096e-7 1.732672481230778e-7 1.732667676910556e-7 1.732652231934155e-7
          1.732097832587745e-7 1.7320920395402832e-7 1.732073395484829e-7 1.7314494755377532e-7 1.7314422231028253e-7 1.731419213640403e-7
          1.7307184027613944e-7 1.730709197776207e-7 1.730680453219552e-7 1.7298951873644058e-7 1.729883407770074e-7 1.7298470575577745e-7
          1.7289701335258494e-7 1.7289550574373918e-7 1.7289086797628795e-7 1.7279345166477843e-7 1.7279151712393503e-7 1.7278553997003165e-7
          1.726778455807019e-7 1.726752908479683e-7 1.7266740087939277e-7 1.7254857984945996e-7 1.725451228239429e-7 1.7253443922041638e-7
          2.6030944784091095e-7 2.6030639677651585e-7 2.6030925838424383e-7 2.60306199048475e-7 2.6030855320425487e-7 2.603054825615005e-7
          2.6029717072244406e-7 2.602969675821943e-7 2.6029622226200124e-7 2.602816789017324e-7 2.602814642580397e-7 2.602806764385012e-7
          2.6025984350148897e-7 2.6025961019400246e-7 2.6025875809770337e-7 2.602315038268378e-7 2.602312426044538e-7 2.602303005044231e-7
          2.601963815028215e-7 2.601960811948715e-7 2.601950205232846e-7 2.601541135441841e-7 2.601537638760739e-7 2.601525539326535e-7
          2.6010432756690574e-7 2.601039161356556e-7 2.6010251971825057e-7 2.6004655090706417e-7 2.600460596112236e-7 2.600444242941455e-7
          2.5998019081564347e-7 2.599796028017296e-7 2.599776675454101e-7 2.599046178060658e-7 2.5990391552180713e-7 2.599016100525672e-7
          2.5981911666945464e-7 2.598182631654548e-7 2.5981548111415423e-7 2.597227143281878e-7 2.597216532083582e-7 2.5971824283198633e-7
          2.5961417753641855e-7 2.596128423726502e-7 2.5960860027675566e-7 2.594922400329689e-7 2.594905432926545e-7 2.5948518856033354e-7
          2.593556281334614e-7 2.5935345834839513e-7 2.5934661043313786e-7 2.592031622068187e-7 2.592003530214961e-7 2.591915045401622e-7
          2.590335169285221e-7 2.590298247987073e-7 2.590181789844116e-7 2.5884482594663194e-7 2.5883974679611625e-7 2.588241737856326e-7
          3.470818617649759e-7 3.470778079178891e-7 3.4708162594568653e-7 3.4707756128360924e-7 3.4708068906201215e-7 3.4707661396533794e-7
          3.4706555864494203e-7 3.4706530647323833e-7 3.4706432404708423e-7 3.47045018204669e-7 3.470447501891731e-7 3.4704371294562666e-7
          3.470160846340773e-7 3.470157918836613e-7 3.470146714056763e-7 3.4697854258579995e-7 3.4697821475352616e-7 3.4697698111440785e-7
          3.469320224020037e-7 3.4693164637523754e-7 3.4693026515988774e-7 3.468760491791426e-7 3.46875610556229e-7 3.468740399096463e-7
          3.4681015692532145e-7 3.46809639959631e-7 3.468078321626727e-7 3.467337533032964e-7 3.467331374874335e-7 3.467310276428266e-7
          3.4664608879194377e-7 3.466453508954831e-7 3.466428557601087e-7 3.465463605988204e-7 3.465454727232807e-7 3.465424927426558e-7
          3.46433647936182e-7 3.464325651616641e-7 3.4642896654481876e-7 3.463067423903589e-7 3.463053995912885e-7 3.463009961160122e-7
          3.461641672755979e-7 3.461624821456687e-7 3.4615701126338493e-7 3.460044603878256e-7 3.4600232524970443e-7 3.4599542483985214e-7
          3.458262055802114e-7 3.4582347662703993e-7 3.4581464888491355e-7 3.456281168430687e-7 3.456245704422131e-7 3.4561314908758784e-7
          3.454089150832168e-7 3.454042431996185e-7 3.4538924131295945e-7 3.451671053957537e-7 3.451606964290711e-7 3.451406638066434e-7
          4.3385642722873437e-7 4.3385138799082683e-7 4.3385616529801256e-7 4.3385111370123803e-7 4.338550602510848e-7 4.338499993770631e-7
          4.3383616608685205e-7 4.3383588594141754e-7 4.338347306666396e-7 4.3381067452918267e-7 4.3381037531638796e-7 4.338091555102437e-7
          4.33774790525068e-7 4.3377446214429364e-7 4.337731449163881e-7 4.3372825116979116e-7 4.3372788247973405e-7 4.3372643493258263e-7
          4.3367060010995303e-7 4.3367017657682737e-7 4.33668559746274e-7 4.336012539348494e-7 4.3360075818114e-7 4.335989205396785e-7
          4.3351968059288075e-7 4.335190945477924e-7 4.3351697985345037e-7 4.334251945275727e-7 4.334244954197714e-7 4.334220286958572e-7
          4.3331690913473084e-7 4.333160688770798e-7 4.3331314952903e-7 4.3319388378133456e-7 4.3319286736917804e-7 4.331893738094296e-7
          4.330550532956639e-7 4.3305380942175055e-7 4.33049584236173e-7 4.3289905566487224e-7 4.328975116762377e-7 4.3289233850679127e-7
          4.3272427272110383e-7 4.327223341069726e-7 4.327159019309245e-7 4.3252920987782584e-7 4.325267533663893e-7 4.325186396355059e-7
          4.3231251605053733e-7 4.3230937278775185e-7 4.3229898741955506e-7 4.320730886206388e-7 4.3206899120418155e-7 4.320555412295304e-7
          4.318101729904543e-7 4.3180476038765654e-7 4.3178708869326005e-7 4.3152353200655597e-7 4.3151612232773e-7 4.3149251417684954e-7
          5.206336776531472e-7 5.206276752862414e-7 5.206334000467906e-7 5.206273845551768e-7 5.20632217387513e-7 5.206261939434154e-7
          5.206095455096818e-7 5.206092490754554e-7 5.206080141659284e-7 5.205792254763396e-7 5.205789078157177e-7 5.205776031979977e-7
          5.205365745400552e-7 5.205362245764063e-7 5.205348153600658e-7 5.20481293147711e-7 5.204808991785148e-7 5.204793517690094e-7
          5.204128446000176e-7 5.204123915064632e-7 5.204106656410644e-7 5.203305383761986e-7 5.203300072185063e-7 5.203280452353246e-7
          5.202338128320136e-7 5.20233183758925e-7 5.202309247483503e-7 5.201219220376587e-7 5.201211683585982e-7 5.201185295930102e-7
          5.199938631905708e-7 5.199929532369877e-7 5.19989822318089e-7 5.198486056527013e-7 5.198474993647496e-7 5.198437416215154e-7
          5.196850163940472e-7 5.196836573217672e-7 5.196790997775678e-7 5.195016768377308e-7 5.194999857670096e-7 5.19494393212723e-7
          5.192969449043109e-7 5.192948171264654e-7 5.192878451716343e-7 5.190694920758889e-7 5.190667891709343e-7 5.190579793100972e-7
          5.188182859192875e-7 5.188148196461398e-7 5.188035211125548e-7 5.185427680155648e-7 5.185382380125976e-7 5.185235764209614e-7
          5.182432794246914e-7 5.182372809044273e-7 5.18217970773547e-7 5.179218824556197e-7 5.179136706427943e-7 5.178878375021677e-7
          6.074141992900722e-7 6.074072611047625e-7 6.074138646335516e-7 6.07406912747218e-7 6.074126812601766e-7 6.074057225758418e-7
          6.073863026847337e-7 6.073859491022038e-7 6.073847153530013e-7 6.073513047308181e-7 6.073509266507503e-7 6.073496224413173e-7
          6.073021089257735e-7 6.073016932020413e-7 6.073002841367132e-7 6.072383943708697e-7 6.072379283125466e-7 6.072363827203242e-7
          6.071595541964369e-7 6.071590218700961e-7 6.071573027922895e-7 6.070647850287028e-7 6.070641668269705e-7 6.070622165771006e-7
          6.069535467690551e-7 6.069528191053339e-7 6.069505750997641e-7 6.068250731002733e-7 6.068241994021553e-7 6.068215685463684e-7
          6.06678263290525e-7 6.066772070663038e-7 6.066740700340705e-7 6.065120581080426e-7 6.065107725128732e-7 6.065069893756882e-7
          6.063253482498097e-7 6.063237681273995e-7 6.063191583991929e-7 6.061167738491916e-7 6.061148089409135e-7 6.061091316192099e-7
          6.05884795049234e-7 6.058823252537004e-7 6.058752162998169e-7 6.056284980257875e-7 6.05625352548729e-7 6.056163298672867e-7
          6.053474476383897e-7 6.053434167454373e-7 6.053318009233637e-7 6.050420738581382e-7 6.050368104115022e-7 6.050216868556756e-7
          6.047144508558777e-7 6.047074942099116e-7 6.046874963672147e-7 6.043701032993449e-7 6.043605923685015e-7 6.043337451827927e-7
          6.941987556581128e-7 6.941909145629467e-7 6.94198117380036e-7 6.94190261451169e-7 6.94196827382112e-7 6.941889634870681e-7
          6.941672247344989e-7 6.941665647120663e-7 6.941652229046492e-7 6.941277364477362e-7 6.941270382861362e-7 6.941256215870783e-7
          6.940722672671975e-7 6.940715102627724e-7 6.940699831209762e-7 6.940004969775853e-7 6.93999661829151e-7 6.939979936812996e-7
          6.939117663432179e-7 6.939108322215396e-7 6.939089905547076e-7 6.93805137902039e-7 6.938040791458193e-7 6.93802013633898e-7
          6.936801694610322e-7 6.936789483060432e-7 6.936765863982009e-7 6.935361233049108e-7 6.935346735406233e-7 6.935318908148845e-7
          6.933718059741061e-7 6.933700766230177e-7 6.933667443424255e-7 6.931862178759459e-7 6.931841371185838e-7 6.931801033358287e-7
          6.92978374134125e-7 6.929758466129973e-7 6.929709134665921e-7 6.927471255646387e-7 6.927440177332114e-7 6.927379299487794e-7
          6.924911490713692e-7 6.92487295269331e-7 6.924796623058816e-7 6.922102849053205e-7 6.922053995382235e-7 6.921956484346976e-7
          6.919049780187288e-7 6.918987921213031e-7 6.918862235907167e-7 6.915771538913851e-7 6.91569176025196e-7 6.915527886976025e-7
          6.912314757499994e-7 6.912210423349773e-7 6.911993590359411e-7 6.908779017526195e-7 6.90863894217213e-7 6.908346549115771e-7
          7.809878753042453e-7 7.809791697993929e-7 7.809871984247161e-7 7.809784752708031e-7 7.809848628100807e-7 7.809761233086926e-7
          7.809528551445874e-7 7.809521743638561e-7 7.80949742991347e-7 7.809090932453081e-7 7.809083719175617e-7 7.809058178759866e-7
          7.808476570555317e-7 7.808468738642917e-7 7.808441398062894e-7 7.807682551940559e-7 7.807673843528505e-7 7.807644184137975e-7
          7.806702155202135e-7 7.806692454777557e-7 7.806659998675309e-7 7.805524174584857e-7 7.8055129678702e-7 7.805477294401445e-7
          7.804146214909546e-7 7.804133141481045e-7 7.804092809634104e-7 7.802561467281004e-7 7.802545978829282e-7 7.802498607417532e-7
          7.800756993968991e-7 7.800738619118295e-7 7.80068246999018e-7 7.798724922379513e-7 7.798702820738023e-7 7.798635469199138e-7
          7.796457183525627e-7 7.7964303609501e-7 7.796348820805723e-7 7.793946724030135e-7 7.79391381620426e-7 7.793814032480188e-7
          7.791183040614124e-7 7.791142133133907e-7 7.791018995230016e-7 7.788175645336967e-7 7.78812423487327e-7 7.787967227763648e-7
          7.784941941062535e-7 7.784876603242045e-7 7.784677406844312e-7 7.781519973693186e-7 7.781435953662717e-7 7.781179430531893e-7
          7.777993303502747e-7 7.777883260131252e-7 7.777547841434145e-7 7.774510358968245e-7 7.774363646174748e-7 7.773917457586718e-7
          7.771351571009498e-7 7.771153371988883e-7 7.770553928354603e-7 7.769178454381377e-7 7.768903269400191e-7 7.768064812852034e-7
          0.0000011281856361982106 0.0000011281973359907768 0.0000011281847215033252 0.000001128196472981446 0.0000011281814015549 0.0000011281932232617164
          0.0000011281504193270895 0.000001128149486055931 0.0000011281460138090477 0.0000011280920156922165 0.0000011280910109999468 0.0000011280873604742926
          0.0000011280103335553124 0.0000011280092300804601 0.0000011280052676870233 0.0000011279051563989183 0.000001127903919072701 0.0000011278995275715589
          0.0000011277763399460111 0.0000011277748975232505 0.0000011277699684573441 0.0000011255323178501817 0.0000011255249610854028 0.000001125501267135606
          0.0000011252018190278358 0.0000011251926037617816 0.000001125162849484572 0.000001124887875816952 0.000001124876148240788 0.0000011248383427859854
          0.000001124619522922344 0.0000011246043792213055 0.000001124555639770002 0.0000011244455218598592 0.00000112442560012613 0.0000011243615398854032
          0.0000014726032615912559 0.0000014725817328176374 0.0000014725198711776182 0.0000011244475862365962 0.0000011244211693914512 0.0000011243361218944276
          0.000001473207687479433 0.0000014731798007986254 0.0000014730997923548706 0.000001124767201502235 0.0000011247314349693175 0.0000011246168289887854
          0.0000014744247898842508 0.0000014743884087103723 0.0000014742840252414194 0.000001125647606044493 0.0000011255985100538907 0.0000011254414121738289
          0.0000014766362295877765 0.0000014765878760377756 0.0000014764504210346763 8.619559594475274e-8 0 8.619320008010734e-8
          0 8.618578326646412e-8 0 1.7240306142074818e-7 1.72398489056832e-7 1.7238383414924808e-7
          2.5863470320065564e-7 2.5862788952245066e-7 2.5860631816284287e-7 3.449016101955556e-7 3.448929225537968e-7 3.448651011362645e-7
          4.3121448043342015e-7 4.3120439769252944e-7 4.3117159740416467e-7 5.175834906181639e-7 5.175723306230174e-7 5.175364659336979e-7
          6.040189191957214e-7 6.040060781110695e-7 6.039689566716495e-7 6.905332672243867e-7 6.905144632391807e-7 6.904745955811692e-7
          6.902489245764275e-7 6.90222604555908e-7 6.901653329106363e-7 7.769069092672798e-7 6.901059839121981e-7 7.768672869948878e-7
          6.90068035269974e-7 7.767469666396935e-7 6.899828330796545e-7 0.0000014754986651776654 0.0000014755124374513904 0.000001475497180074375
          0.0000014755109807729533 0.0000014754933828652251 0.0000014755071875710438 0.00000147545712046492 0.0000014754557010000953 0.0000014754518127588774
          0.0000014753887136317325 0.000001475387234734308 0.0000014753831609209948 0.0000014752933553626915 0.000001475291770226406 0.0000014752873682886212
          0.0000014751711782136434 0.0000014751694468362602 0.0000014751646087961496 0.0000014750227778184085 0.000001475020850064751 0.0000014750153944778771
          0.0000011276230258870245 0.0000011276214018257091 0.0000011276158064727547 0.0000014748479875706367 0.0000014748457903576897 0.0000014748395183060339
          0.000001127444431230837 0.000001127442365014952 0.000001127435789954725 0.0000011272403829058106 0.0000011272380209514529 0.000001127230358191035
          0.0000011270111031885507 0.0000011270083186810455 0.0000011269993279914336 0.0000011267570167232953 0.000001126753706945418 0.0000011267430164616911
          0.0000011264792378156456 0.0000011264752608814428 0.0000011264624284278412 0.0000011261798317744292 0.0000011261750017952663 0.000001126159421437536
          0.0000011258620966667035 0.0000011258561769324113 0.0000011258370826802932 0.0000014727584259397009 0.0000014730305741100123 0.000001472749865524645
          0.0000014730236296521152 0.000001472725372547867 0.000001473003565441116 0.000001472530233704978 0.0000014725196432633032 0.0000014724892030135887
          0.000001472383394674992 0.0000014723701017934079 0.0000014723319382705435 0.000001472377027270321 0.0000014723602040177004 0.0000014723119041096413
          0.0000018218924281200361 0.000001821088493437104 0.0000018218715424475847 0.0000018210717661786016 0.0000018218079277920185 0.0000018210205814189849
          0.0000018232981197061223 0.0000018232719926135623 0.000001823192244409782 0.000001825616223319472 0.0000018255834029847072 0.0000018254831515719843
          0.000001829322053665791 0.0000018292809871719256 0.000001829155238741788 0.00000112752432022642 7.773082430711009e-7 0.0000011274553948587489
          7.772499523198829e-7 0.000001127235324179699 7.770720543235279e-7 0.000001480474206237747 0.0000014804105893306167 0.0000014802295651897377
          0.0000018351386994592 0.0000018350876986200816 0.0000018349316760082701
        </DataArray>
        <DataArray type="Float64" Name="disp_y" format="ascii" RangeMin="-0.0000021949609429515053" RangeMax="0">
          0 0 -9.469073571001754e-8 -9.468926445873867e-8 0 0
          -9.469042142835608e-8 -9.468890716871253e-8 0 0 -9.468950591627423e-8 -9.468794667404137e-8
          -1.8936322711467098e-7 -1.8936024297488733e-7 -1.8936261378403638e-7 -1.893595525140391e-7 -1.893607650785432e-7 -1.893576202954032e-7
          -2.8399889102200904e-7 -2.839943590448648e-7 -2.839979566881259e-7 -2.839933161539062e-7 -2.839951340103239e-7 -2.839903777086477e-7
          -3.785784284999904e-7 -3.785722664699637e-7 -3.7857714746055285e-7 -3.785708465996825e-7 -3.785732762217758e-7 -3.7856682929835075e-7
          -4.730815507502652e-7 -4.7307363195211906e-7 -4.730798921806298e-7 -4.730718028494171e-7 -4.730748788680541e-7 -4.7306661203450985e-7
          -5.674865822799427e-7 -5.674767380769526e-7 -5.674845068272002e-7 -5.674744593912256e-7 -5.674782305136805e-7 -5.674679746758636e-7
          -6.617699622795902e-7 -6.617579814233139e-7 -6.617674162925072e-7 -6.617552025844041e-7 -6.617597140063016e-7 -6.61747265937744e-7
          -7.559056835903985e-7 -7.558913081649073e-7 -7.559025936246821e-7 -7.558879669507947e-7 -7.558932484958195e-7 -7.558783717981773e-7
          -8.498646096395922e-7 -8.498475193277575e-7 -8.498608837741843e-7 -8.498435363549605e-7 -8.498496258100898e-7 -8.498320219432549e-7
          -9.436136967957161e-7 -9.435934750599291e-7 -9.436092249016372e-7 -9.43588743783983e-7 -9.435957221705442e-7 -9.435749801859985e-7
          -0.0000010371151315517544 -0.0000010370912297736577 -0.0000010371097723564864 -0.0000010370856074322174 -0.0000010370935989955922 -0.00000103706916672972
          -0.0000011303251281920172 -0.000001130296840673754 -0.0000011303186949420398 -0.0000011302901447507573 -0.0000011302993005720507 -0.0000011302704798871134
          -0.0000012231921626311655 -0.0000012231585951798957 -0.000001223184416349511 -0.000001223150599289786 -0.0000012231610935751235 -0.000001223127016048122
          -0.0000013156546835688593 -0.0000013156146829406738 -0.0000013156453124794522 -0.0000013156050912211735 -0.0000013156171297750723 -0.0000013155766716422707
          -0.0000014076383418555748 -0.0000014075903760222265 -0.0000014076269341197653 -0.0000014075787792312174 -0.0000014075926659666794 -0.0000014075442923636927
          -0.000001499052557564711 -0.0000014989945518671182 -0.000001499038578617074 -0.0000014989803792560865 -0.0000014989966147560035 -0.0000014989381746422212
          -0.000001589785950233588 -0.0000015897150725333307 -0.000001589768667552838 -0.0000015896975289853358 -0.0000015897168057963989 -0.0000015896453287845476
          -0.0000016796991512863784 -0.0000016796116189415218 -0.000001679677598904024 -0.0000016795897561376078 -0.0000016796127890239288 -0.000001679524565145496
          -0.000001768613641146589 -0.0000017685042904232048 -0.0000017685864582890666 -0.0000017684767808016217 -0.0000017685047454913687 -0.000001768394619995242
          0 -9.469495425433189e-8 0 -9.469467346498475e-8 0 -9.469376049136159e-8
          -1.893717583571155e-7 -1.893712009170362e-7 -1.8936936266156756e-7 -2.8401190256010353e-7 -2.8401104355572025e-7 -2.8400823298175217e-7
          -3.785961768295209e-7 -3.7859499052688763e-7 -3.785911354177268e-7 -4.731044121768056e-7 -4.7310286787423546e-7 -4.730978747015901e-7
          -5.675150610298104e-7 -5.67513118906661e-7 -5.675068668964279e-7 -6.618047056282434e-7 -6.618023088648026e-7 -6.617946343809583e-7
          -7.559475057682551e-7 -7.559445737761256e-7 -7.559352597356237e-7 -8.499145266811438e-7 -8.49910962817754e-7 -8.498997438088312e-7
          -9.436729896435412e-7 -9.436686863175119e-7 -9.436552386967284e-7 -0.0000010371854493010608 -0.0000010371802673322255 -0.00000103716416913153
          -0.000001130408602329501 -0.0000011304023501303733 -0.000001130383046927235 -0.0000012232915303739343 -0.0000012232839580635216 -0.0000012232607386235872
          -0.0000013157734652266687 -0.000001315764251274379 -0.0000013157361882136096 -0.0000014077811119320156 -0.0000014077698528846706 -0.000001407735738436364
          -0.0000014992253772011363 -0.0000014992115783439026 -0.0000014991698366541028 -0.0000015899970376055836 -0.0000015899800014014299 -0.0000015899284716965991
          -0.000001679959820201107 -0.000001679938579472015 -0.0000016798742199667875 -0.0000017689395625728529 -0.000001768912683287374 -0.0000017688316462720498
          0 -9.47021348153755e-8 0 -9.470185998366275e-8 0 -9.470094095342675e-8
          -1.8938621676209305e-7 -1.893856686147555e-7 -1.8938381883109054e-7 -2.840338918638661e-7 -2.840330451367427e-7 -2.840302174537136e-7
          -3.7862612962091584e-7 -3.786249600209129e-7 -3.7862108483204835e-7 -4.7314295287714754e-7 -4.731414292627869e-7 -4.731364138870232e-7
          -5.675630136456945e-7 -5.675610954899115e-7 -5.675548198681597e-7 -6.618631124335813e-7 -6.618607423311064e-7 -6.618530462129318e-7
          -7.560176817635698e-7 -7.560147802934823e-7 -7.560054530529146e-7 -8.499981653299889e-7 -8.499946374615606e-7 -8.499834180162949e-7
          -9.437722738550434e-7 -9.437680110349827e-7 -9.437545754399212e-7 -0.0000010373031364619999 -0.0000010372979986317902 -0.0000010372819280429063
          -0.0000011305481431100229 -0.0000011305419413231348 -0.0000011305226920374807 -0.0000012234573110749453 -0.0000012234498013201119 -0.0000012234266774599536
          -0.000001315971212022659 -0.0000013159620812217242 -0.000001315934176368838 -0.0000014080184655070694 -0.0000014080073214153408 -0.0000014079734467027698
          -0.000001499512616077957 -0.0000014994989703153155 -0.0000014994575672216475 -0.0000015903479344563236 -0.000001590331102937663 -0.0000015902800527948238
          -0.0000016803928831380157 -0.0000016803718982318646 -0.0000016803082312123818 -0.0000017694804949915113 -0.0000017694539307486017 -0.0000017693739524368067
          0 -9.471204466846919e-8 0 -9.471177125509718e-8 0 -9.47108564438895e-8
          -1.894062011873449e-7 -1.89405656884907e-7 -1.8940381555321962e-7 -2.8406431806577514e-7 -2.8406347801989964e-7 -2.8406066188179865e-7
          -3.786676036920383e-7 -3.7866644398977325e-7 -3.7866258489335594e-7 -4.731963400392515e-7 -4.731948296412189e-7 -4.731898366753551e-7
          -5.676294648316754e-7 -5.676275624996978e-7 -5.676213178834042e-7 -6.619440960456832e-7 -6.619417441461971e-7 -6.619340896758057e-7
          -7.561150572905943e-7 -7.561121785453981e-7 -7.561029063086782e-7 -8.501143091856679e-7 -8.501108109229686e-7 -8.500996633155177e-7
          -9.43910212251612e-7 -9.439059857488318e-7 -9.438926412568994e-7 -0.000001037466685407033 -0.0000010374615915742321 -0.0000010374456374982793
          -0.0000011307421205010587 -0.00000113073597531952 -0.0000011307168800265971 -0.0000012236878821290962 -0.0000012236804475136219 -0.0000012236575297945417
          -0.000001316246390563133 -0.000001316237361663653 -0.0000013162097341414674 -0.0000014083488265134252 -0.0000014083378214587437 -0.0000014083043222832884
          -0.0000014999122649008018 -0.0000014998988042755597 -0.0000014998579140208673 -0.0000015908357406546838 -0.0000015908191461000567 -0.0000015907688070022587
          -0.0000016809943924029493 -0.0000016809737311370819 -0.0000016809110702437663 -0.0000017702312198171774 -0.0000017702051299226053 -0.0000017701266150004524
          0 -9.472466764756756e-8 0 -9.472439486460675e-8 0 -9.472348676839765e-8
          -1.8943167237472044e-7 -1.8943113076563599e-7 -1.894293037573266e-7 -2.84103118881387e-7 -2.841022840871302e-7 -2.840994890534618e-7
          -3.7872051120858186e-7 -3.7871935950439324e-7 -3.7871552909804705e-7 -4.7326445710155106e-7 -4.7326295753374603e-7 -4.7325800265125737e-7
          -5.677142633963917e-7 -5.677123747334347e-7 -5.677061807740103e-7 -6.620474611233284e-7 -6.620451260707849e-7 -6.620375366962401e-7
          -7.562393786736837e-7 -7.562365219621206e-7 -7.562273309224662e-7 -8.502626303669657e-7 -8.502591617579018e-7 -8.502481160733954e-7
          -9.440863864285958e-7 -9.440821979457407e-7 -9.440689812901562e-7 -0.0000010376755667645083 -0.0000010376705210379652 -0.0000010376547283044848
          -0.0000011309898584226903 -0.000001130983776733074 -0.0000011309648884548723 -0.0000012239823590112381 -0.0000012239750106483167 -0.0000012239523627588056
          -0.0000013165978213094854 -0.0000013165889108580933 -0.00000131656163803053 -0.0000014087706129518288 -0.0000014087597692985016 -0.0000014087267432937424
          -0.0000015004221827129864 -0.0000015004089377130067 -0.0000015003686892868692 -0.0000015914575649960266 -0.0000015914412498720108 -0.0000015913917967124051
          -0.0000016817603263446198 -0.0000016817400618181047 -0.0000016816786289730343 -0.0000017711860323490024 -0.000001771160523702914 -0.0000017710838330569858
          0 -9.47399764087352e-8 0 -9.473970390790764e-8 0 -9.473880350049848e-8
          -1.894625715936219e-7 -1.8946203201203397e-7 -1.894602218842281e-7 -2.8415020286946424e-7 -2.84149372497871e-7 -2.841466028861026e-7
          -3.7878472518144583e-7 -3.7878358018657587e-7 -3.7877978433625034e-7 -4.7334713503571485e-7 -4.7334564466121056e-7 -4.7334073499782227e-7
          -5.678171920667789e-7 -5.678153156253673e-7 -5.678091816012744e-7 -6.621729318598157e-7 -6.621706129990082e-7 -6.621631004739259e-7
          -7.56390294707969e-7 -7.563874601481408e-7 -7.563783638945717e-7 -8.504426853641641e-7 -8.504392471743145e-7 -8.504283200361257e-7
          -9.443002386642343e-7 -9.442960902873978e-7 -9.442830227329427e-7 -0.0000010379290771180865 -0.000001037924083440258 -0.0000010379084786298813
          -0.0000011312904589360248 -0.0000011312844466603869 -0.000001131265797658259 -0.0000012243395795265794 -0.000001224332326090504 -0.0000012243099887151428
          -0.0000013170239806265598 -0.0000013170152008768673 -0.000001316988334673487 -0.0000014092817993424126 -0.0000014092711336474334 -0.0000014092386482946955
          -0.000001501039658714709 -0.0000015010266518773818 -0.0000015009871363887043 -0.0000015922097185729105 -0.000001592193719337998 -0.000001592145277894241
          -0.0000016826856077235175 -0.0000016826657972793018 -0.000001682605758556747 -0.000001772337638262188 -0.0000017723127890332345 -0.0000017722381697208638
          0 -9.47579357823658e-8 0 -9.475766305912543e-8 0 -9.475677026145196e-8
          -1.894988251211749e-7 -1.894982866557174e-7 -1.8949649344121709e-7 -2.8420545657792567e-7 -2.842046296109538e-7 -2.84201886056239e-7
          -3.78860088924023e-7 -3.7885894933051527e-7 -3.788551890311481e-7 -4.734441642980336e-7 -4.734426813052119e-7 -4.7343781758274147e-7
          -5.67937980872283e-7 -5.679361150405969e-7 -5.679300424276444e-7 -6.623201673019493e-7 -6.623178644363692e-7 -6.623104319731479e-7
          -7.565673710773292e-7 -7.565645597992842e-7 -7.56555562746634e-7 -8.506539312448427e-7 -8.506505253609718e-7 -8.5063972300992e-7
          -9.445510875389211e-7 -9.445469823474896e-7 -9.445340723312092e-7 -0.0000010382263571372296 -0.0000010382214201713953 -0.0000010382060140936878
          -0.0000011316428243157531 -0.0000011316368880393384 -0.000001131618491362168 -0.0000012247581257924662 -0.0000012247509754937 -0.0000012247289662147503
          -0.0000013175230220201697 -0.000001317514384364773 -0.0000013174879477369865 -0.00000140987993909982 -0.000001409869466117091 -0.0000014098375531823812
          -0.0000015017614351140199 -0.0000015017486869477508 -0.0000015017099469439215 -0.0000015930877642605155 -0.0000015930721136223011 -0.0000015930247466316175
          -0.0000016837641303699789 -0.0000016837448235903067 -0.0000016836862657490718 -0.0000017736774154239861 -0.0000017736532798705598 -0.0000017735808470783604
          0 -9.47785047420622e-8 0 -9.477822997031506e-8 0 -9.477734338574699e-8
          -1.8954034643513464e-7 -1.8953980565026404e-7 -1.895380262483749e-7 -2.84268747839695e-7 -2.84267920463843e-7 -2.8426519896747996e-7
          -3.7894642149974703e-7 -3.789452830914328e-7 -3.7894155412190694e-7 -4.7355530086747223e-7 -4.735538198542596e-7 -4.7354899601685163e-7
          -5.680763111883406e-7 -5.680744502008302e-7 -5.680684317946756e-7 -6.624887690630077e-7 -6.624864823586234e-7 -6.624791275127087e-7
          -7.567700909989743e-7 -7.567673041826208e-7 -7.567584055397537e-7 -8.508957348094141e-7 -8.50892362133572e-7 -8.508816843063643e-7
          -9.448381329779059e-7 -9.448340728556429e-7 -9.448213217050227e-7 -0.0000010385663991380108 -0.000001038561522141002 -0.0000010385463160859823
          -0.000001132045670600005 -0.0000011320398135297624 -0.0000011320216717879027 -0.0000012252363293296984 -0.0000012252292876177085 -0.0000012252076093977187
          -0.0000013180928010611204 -0.0000013180843071725991 -0.0000013180583056788393 -0.0000014105621835938023 -0.0000014105519052784335 -0.0000014105205764889345
          -0.0000015025837305973273 -0.0000015025712448358747 -0.0000015025332921250387 -0.0000015940866097347659 -0.000001594071319233092 -0.0000015940250451220952
          -0.0000016849887060608388 -0.0000016849699135270603 -0.000001684912890566004 -0.0000017751957937638698 -0.0000017751723866041058 -0.0000017751021349864337
          0 -9.480163833814316e-8 0 -9.480135784859208e-8 0 -9.48004711704569e-8
          -1.8958703696464616e-7 -1.89586483924146e-7 -1.8958470610490872e-7 -2.843399326885309e-7 -2.843390900763993e-7 -2.843363784318709e-7
          -3.790435205824712e-7 -3.790423694442624e-7 -3.7903865549144664e-7 -4.736802749538568e-7 -4.7367878575105086e-7 -4.7367398613172933e-7
          -5.682318040420458e-7 -5.682299369285387e-7 -5.682239332372293e-7 -6.626782849427265e-7 -6.626760386084424e-7 -6.626687623506369e-7
          -7.569978342902355e-7 -7.569950669421503e-7 -7.569862819313245e-7 -8.511673957072642e-7 -8.511640378458279e-7 -8.511535149071659e-7
          -9.451604495082007e-7 -9.451564283448364e-7 -9.451438641254801e-7 -0.0000010389480392754746 -0.0000010389432212280453 -0.000001038928246359811
          -0.0000011324975356756678 -0.0000011324917734420335 -0.0000011324738998607558 -0.0000012257722229814152 -0.000001225765311019052 -0.000001225744001314553
          -0.0000013187308754746377 -0.0000013187225857660041 -0.0000013186969799382564 -0.0000014113251725376721 -0.0000014113152336262024 -0.0000014112843958987657
          -0.0000015035021792955108 -0.0000015034901121872078 -0.000001503452839639835 -0.0000015952003308168785 -0.0000015951856462197839 -0.0000015951402889458247
          -0.0000016863512864241775 -0.0000016863332849080018 -0.0000016862776700259905 -0.0000017768801887350467 -0.000001776858036376077 -0.0000017767895845933362
          -0.0000018667125625509294 -0.0000018666850247319836 -0.000001866600142820688 -0.0000019557838283604216 -0.0000019557492586030798 -0.00000195564315148238
          -9.491868873161503e-8 0 -9.491843598962722e-8 0 -9.491765557195436e-8 0
          -1.8982357868375453e-7 -1.898230270719147e-7 -1.8982143281920442e-7 -2.8470047562745255e-7 -2.8469968307620244e-7 -2.846972513895279e-7
          -3.795353261857474e-7 -3.7953424507390347e-7 -3.795309226290301e-7 -4.7431326633564285e-7 -4.7431188279258007e-7 -4.743075728999904e-7
          -5.690187086836771e-7 -5.690170036427432e-7 -5.690117376969562e-7 -0.0000014151263799512706 -0.0000014151178280404686 -0.0000014150924455061486
          -0.0000015080585792476851 -0.0000015080486000991271 -0.000001508018287692314 -0.0000016006976857088073 -0.0000016006857789496782 -0.0000016006499644162444
          -0.0000016930365299676508 -0.000001693022387052379 -0.0000016929798411308447 -0.000001785084849205852 -0.0000017850681237636908 -0.0000017850177067078524
          -0.0000017948743793606974 -0.00000179486340461367 -0.000001794830640567894 -0.0000018768864594691708 -0.0000018768667430288708 -0.0000018768074279583902
          -0.0000018887812947687927 -0.0000018887696866513819 -0.0000018887342036513104 -0.0000019685399353989055 -0.000001968516985778676 -0.0000019684480572916235
          -0.0000019830812309622316 -0.000001983069531751661 -0.000001983033652678329 -0.0000020602454841443776 -0.000002060219463759357 -0.000002060142072248862
          -0.0000020781164948559534 -0.000002078106481491291 -0.0000020780757973076015 -0.0000018562974393342028 -0.0000018561591483441075 -0.0000018562622247125073
          -0.0000018561237847501775 -0.0000018561569007797775 -0.0000018560180534158551 -0.0000018567114414131194 -0.0000018566767113656131 -0.0000018565724293334324
          -0.0000018573973662399862 -0.0000018573632094888609 -0.0000018572605333874922 -0.0000018583486922815168 -0.000001858315261437136 -0.0000018582147964396916
          -0.0000018595566769880814 -0.0000018595241182217183 -0.000001859426401241211 -0.0000018610105043815844 -0.0000018609789346801216 -0.0000018608843477868954
          -0.0000018626973037039357 -0.0000018626668251886753 -0.0000018625755647604893 -0.0000018646021057452808 -0.0000018645727660190932 -0.0000018644849482693935
          -0.000001953104533695488 -0.0000019530675013048914 -0.000001952956089710302 -0.000002044054583342636 -0.0000020405958949979904 -0.0000020440108929086342
          -0.000002040548379277543 -0.0000020438765544302884 -0.0000020404057800005863 -9.507150995666332e-8 0 -9.507124076232817e-8
          0 -9.50705055844354e-8 0 -1.9013177147070064e-7 -1.9013141401290022e-7 -1.9013006091402688e-7
          -2.851705235607763e-7 -2.851699225973954e-7 -2.851678426557099e-7 -3.801762262932018e-7 -3.801753768534283e-7 -3.801725231340122e-7
          -4.7513772668337947e-7 -4.7513660269366383e-7 -4.7513292656516317e-7 -5.700438319313241e-7 -5.700424009886807e-7 -5.700377823765329e-7
          -6.636368263403829e-7 -6.636346048508177e-7 -6.636280646563338e-7 -6.648823202005429e-7 -6.648805731844428e-7 -6.648749172289133e-7
          -7.581501364152302e-7 -7.581475236122993e-7 -7.581397321127431e-7 -8.525394912456337e-7 -8.525364819040994e-7 -8.525271631421129e-7
          -9.46786371006685e-7 -9.467827648349117e-7 -9.467716958071141e-7 -0.0000010408700166564024 -0.0000010408657439121621 -0.0000010408526450365274
          -0.000001134768845093294 -0.0000011347637632833572 -0.0000011347482810944254 -0.000001228459984305978 -0.0000012284539837997658 -0.0000012284356162608376
          -0.0000013219194839972147 -0.0000013219124131804314 -0.0000013218910507329263 -0.0000014198934409369075 -0.000001325949066411196 -0.0000014198869651583295
          -0.0000013259434118294046 -0.0000014198668202958604 -0.0000013259259439834663 -0.000001513719685093144 -0.0000015137121142136462 -0.0000015136890077960107
          -0.0000016074539144759476 -0.000001607445304787519 -0.0000016074188513313228 -0.0000017011436731185512 -0.0000017011339907581112 -0.000001701104556710007
          -0.0000018053573099016108 -0.000001709999095981062 -0.0000018053519640741227 -0.0000017099934720303504 -0.0000018053352485723966 -0.0000017099761026199848
          -0.0000019012130788491627 -0.0000019012085150398133 -0.0000019011945055110452 -0.000001997830455602558 -0.0000019978280059277586 -0.0000019978202384476697
          -0.0000020955729392871523 -0.000002095574857690593 -0.000002095580037866689 -0.0000021523866769695972 -0.0000021315583916882354 -0.0000021523581870759403
          -0.0000021315036552364536 -0.000002152275474502744 -0.0000021313340976272585 -0.0000021744180880703256 -0.0000021744121655251188 -0.0000021743941131797302
          -0.0000021949260597959676 -0.000002194934398461185 -0.0000021949609429515053
        </DataArray>
        <DataArray type="Float64" Name="disp_z" format="ascii" RangeMin="-7.384812596146308e-8" RangeMax="0">
          0 0 0 0 -3.546537894618811e-8 -3.546538712684225e-8
          -3.546618427756673e-8 -3.546618510974773e-8 -7.093084069507194e-8 -7.093078903073475e-8 -7.093240295681541e-8 -7.093243689390584e-8
          0 0 -3.5468670451671424e-8 -3.546867782196175e-8 -7.093737003899102e-8 -7.093740268077836e-8
          0 0 -3.547287091789743e-8 -3.547288002062176e-8 -7.094577554326798e-8 -7.094580763306008e-8
          0 0 -3.547890855632193e-8 -3.5478919499338595e-8 -7.095785326901888e-8 -7.095788775105749e-8
          0 0 -3.54869358232453e-8 -3.5486954117793845e-8 -7.097390667396284e-8 -7.097395446304975e-8
          0 0 -3.549714848192373e-8 -3.5497178533856505e-8 -7.099432942634213e-8 -7.09943983700073e-8
          0 0 -3.550980459354083e-8 -3.55098476813547e-8 -7.101964210690545e-8 -7.101973301339189e-8
          0 0 -3.552526138178124e-8 -3.552532075250372e-8 -7.105055712240722e-8 -7.105067520584536e-8
          0 0 -3.5543976818583496e-8 -3.554405999699111e-8 -7.108798429391564e-8 -7.108814684404376e-8
          0 0 -3.5566497685838625e-8 -3.5566612728063106e-8 -7.113302315980823e-8 -7.113324695017468e-8
          0 0 -3.559351015074417e-8 -3.559366663141663e-8 -7.118705470503092e-8 -7.118735259785945e-8
          0 0 -3.562592373270339e-8 -3.562613810218123e-8 -7.125188916017469e-8 -7.125228673392141e-8
          0 0 -3.5664905768458884e-8 -3.566518733635602e-8 -7.132985594616661e-8 -7.133037455887861e-8
          0 0 -3.571195643187431e-8 -3.571230193682452e-8 -7.142395983235514e-8 -7.142460889494073e-8
          0 0 -3.576905440033548e-8 -3.576947423034562e-8 -7.153815280486794e-8 -7.15389718914785e-8
          0 0 -3.5838752891723214e-8 -3.583927103753144e-8 -7.167754716623014e-8 -7.16786043042618e-8
          0 0 -3.5924455484944376e-8 -3.5925122731950106e-8 -7.184898495388108e-8 -7.185033628065064e-8
          0 0 -3.6031018215766734e-8 -3.6031989926642663e-8 -7.206204046540699e-8 -7.206400789143512e-8
          0 0 -3.616503761846782e-8 -3.6166391200150216e-8 -7.233021534252976e-8 -7.233261265353254e-8
          0 0 -3.5465223351588204e-8 -3.5466040978306975e-8 -7.093045350364397e-8 -7.09320884993909e-8
          0 -3.5468514272163864e-8 -7.093703355847218e-8 0 -3.5472706215366897e-8 -7.094542004816104e-8
          0 -3.5478730425173644e-8 -7.095746945700203e-8 0 -3.5486735704293685e-8 -7.097348006815986e-8
          0 -3.549691686985287e-8 -7.099384310970917e-8 0 -3.55095328390029e-8 -7.101907746910508e-8
          0 -3.552493917467287e-8 -7.104989409413837e-8 0 -3.5543590699314536e-8 -7.108719982594422e-8
          0 -3.556603318164006e-8 -7.113208709561662e-8 0 -3.5592947185027266e-8 -7.118592048695003e-8
          0 -3.5625225992754476e-8 -7.125048654443713e-8 0 -3.566402980743024e-8 -7.132810507846622e-8
          0 -3.571086166629541e-8 -7.14217794286693e-8 0 -3.576768549256504e-8 -7.153543358499077e-8
          0 -3.583702924655404e-8 -7.167412743289347e-8 0 -3.5922235854933086e-8 -7.184456263674687e-8
          0 -3.602802999657443e-8 -7.205615314896586e-8 0 -3.616101509544498e-8 -7.232217300674548e-8
          0 0 -3.546491867641769e-8 -3.546573338429395e-8 -7.09298472545144e-8 -7.093147927282052e-8
          0 -3.5468194215665315e-8 -7.093640074738573e-8 0 -3.547236792659599e-8 -7.094475105654453e-8
          0 -3.547836488534393e-8 -7.095674670682294e-8 0 -3.548633094146868e-8 -7.097268131285234e-8
          0 -3.549646036412416e-8 -7.099294448111125e-8 0 -3.5509011959620286e-8 -7.101805339602771e-8
          0 -3.552433753803839e-8 -7.104871228033674e-8 0 -3.554288400402994e-8 -7.108581318461124e-8
          0 -3.556519554719073e-8 -7.113044284145423e-8 0 -3.5591950961510975e-8 -7.118396106572121e-8
          0 -3.562402548243575e-8 -7.124812318362315e-8 0 -3.566255824758398e-8 -7.132520938464269e-8
          0 -3.57090316745011e-8 -7.141817953421505e-8 0 -3.5765375499431345e-8 -7.15308901828053e-8
          0 -3.583408049306494e-8 -7.166832210382878e-8 0 -3.591842564290084e-8 -7.18370561569033e-8
          0 -3.602302792451573e-8 -7.204628939597648e-8 0 -3.615426517839192e-8 -7.230889531694041e-8
          0 0 -3.546447649626037e-8 -3.546528805460026e-8 -7.092898569560721e-8 -7.093061100627123e-8
          0 -3.546773369848163e-8 -7.093550166485578e-8 0 -3.547188127015245e-8 -7.094380055352366e-8
          0 -3.547783939057977e-8 -7.09557200345618e-8 0 -3.548575237102785e-8 -7.097155077128047e-8
          0 -3.549581248873163e-8 -7.099167857510215e-8 0 -3.550827531118224e-8 -7.101661346336164e-8
          0 -3.552348960746168e-8 -7.104705405821407e-8 0 -3.554189411206662e-8 -7.108387657649894e-8
          0 -3.556402442229034e-8 -7.112815103632958e-8 0 -3.559055209401945e-8 -7.118122250208298e-8
          0 -3.562233791877601e-8 -7.124481730223234e-8 0 -3.566049759928339e-8 -7.132116956535048e-8
          0 -3.5706478181964914e-8 -7.141317006827896e-8 0 -3.576216121918794e-8 -7.152458144521371e-8
          0 -3.5829976875207476e-8 -7.166026527433453e-8 0 -3.591311880658728e-8 -7.182663364382645e-8
          0 -3.601607450541595e-8 -7.203261599758096e-8 0 -3.614497696206254e-8 -7.229062383053115e-8
          0 0 -3.54639229093418e-8 -3.5464730092156695e-8 -7.092790483991114e-8 -7.092952123358434e-8
          0 -3.5467156201275264e-8 -7.093437264239139e-8 0 -3.547127019220843e-8 -7.094260596581152e-8
          0 -3.5477179224414274e-8 -7.095442934849018e-8 0 -3.548502620785221e-8 -7.097013078867174e-8
          0 -3.549499999956642e-8 -7.099008975952417e-8 0 -3.550734978853369e-8 -7.101480353420097e-8
          0 -3.5522422689270726e-8 -7.104496702841761e-8 0 -3.554064997270048e-8 -7.108144082229398e-8
          0 -3.556255384722139e-8 -7.112526997814569e-8 0 -3.558879425871534e-8 -7.11777771652815e-8
          0 -3.562021595032245e-8 -7.124065491281892e-8 0 -3.565790623123524e-8 -7.131608195058444e-8
          0 -3.570326772501025e-8 -7.14068611956734e-8 0 -3.575812672329616e-8 -7.151664729848436e-8
          0 -3.582483413470277e-8 -7.165014623088939e-8 0 -3.5906472682552624e-8 -7.181355364143616e-8
          0 -3.600737263377593e-8 -7.201546337816887e-8 0 -3.613337753554634e-8 -7.226774472223792e-8
          0 0 -3.546331224114895e-8 -3.546411413864206e-8 -7.09266750406376e-8 -7.092828027379e-8
          0 -3.546651712525314e-8 -7.093308496944791e-8 0 -3.54705926911482e-8 -7.094124182449015e-8
          0 -3.547644614400489e-8 -7.095295401040755e-8 0 -3.5484218882040374e-8 -7.096850676194978e-8
          0 -3.549409511073522e-8 -7.098827131662979e-8 0 -3.5506314287381624e-8 -7.101272580235603e-8
          0 -3.552122488309994e-8 -7.104256579955066e-8 0 -3.5539252169802093e-8 -7.107863698904234e-8
          0 -3.5560900107876936e-8 -7.112195164060763e-8 0 -3.558681491262803e-8 -7.117380514300324e-8
          0 -3.561782259644262e-8 -7.123585032946779e-8 0 -3.565497799203538e-8 -7.131020229738292e-8
          0 -3.569963352084753e-8 -7.139956179078354e-8 0 -3.575356209284443e-8 -7.150747273801824e-8
          0 -3.581901548379857e-8 -7.163845009386704e-8 0 -3.589894959699212e-8 -7.179843613375489e-8
          0 -3.599750625652741e-8 -7.199561919488975e-8 0 -3.6120233424380474e-8 -7.224130977669638e-8
          0 0 -3.5462767342946647e-8 -3.546356397738688e-8 -7.092545367662784e-8 -7.092704674795154e-8
          0 -3.546594399805295e-8 -7.093180222270364e-8 0 -3.546998258211492e-8 -7.093987970197904e-8
          0 -3.5475782938872246e-8 -7.09514772292592e-8 0 -3.5483485271251746e-8 -7.096687759688943e-8
          0 -3.5493268849742055e-8 -7.098644326878144e-8 0 -3.550535926639112e-8 -7.101062546816626e-8
          0 -3.552011218421665e-8 -7.104012887528849e-8 0 -3.553794915301923e-8 -7.10757854200791e-8
          0 -3.555934982656041e-8 -7.111856580668984e-8 0 -3.558494934742133e-8 -7.116973942392235e-8
          0 -3.561555458059017e-8 -7.12309162037437e-8 0 -3.565218784014489e-8 -7.13041453434754e-8
          0 -3.5696147029086133e-8 -7.139201283657803e-8 0 -3.574917335813494e-8 -7.149797349769961e-8
          0 -3.581339042778189e-8 -7.162630892048423e-8 0 -3.589164398009088e-8 -7.178270730349648e-8
          0 -3.5987855870250346e-8 -7.197489056692542e-8 0 -3.610734581344275e-8 -7.22136850962749e-8
          0 0 -3.546259594072776e-8 -3.5463388503116636e-8 -7.09244435048049e-8 -7.09260250986286e-8
          0 -3.5465756725720945e-8 -7.093073852089952e-8 0 -3.5469775008901374e-8 -7.09387451179459e-8
          0 -3.547554739858138e-8 -7.095024107247243e-8 0 -3.548321373472015e-8 -7.096550816637453e-8
          0 -3.5492951058619444e-8 -7.098490306106525e-8 0 -3.550496565139876e-8 -7.100884142049254e-8
          0 -3.551963091064137e-8 -7.103804738199148e-8 0 -3.553736841899041e-8 -7.107333423810009e-8
          0 -3.555862554095259e-8 -7.111562644761273e-8 0 -3.558404072092e-8 -7.116617918519906e-8
          0 -3.561440599938382e-8 -7.122655938287687e-8 0 -3.565072614685309e-8 -7.129875760060723e-8
          0 -3.569423369678944e-8 -7.138523084905591e-8 0 -3.5746719288827246e-8 -7.1489392535172e-8
          0 -3.5810110391084485e-8 -7.161524107204109e-8 0 -3.5887245281784096e-8 -7.176829187605384e-8
          0 -3.598183747071075e-8 -7.19556740709295e-8 0 -3.6099036811906236e-8 -7.218800295071927e-8
          0 0 -3.5462392508224906e-8 -3.5463181991007134e-8 -7.09253279516197e-8 -7.092689699044704e-8
          0 -3.5465547191520534e-8 -7.093163060826952e-8 0 -3.5469547446871995e-8 -7.093964987408947e-8
          0 -3.547529564352493e-8 -7.095117482794082e-8 0 -3.548293380827979e-8 -7.096648128080667e-8
          0 -3.5492643581268427e-8 -7.09859371549301e-8 0 -3.550461695698574e-8 -7.100990174014444e-8
          0 -3.5519229329184564e-8 -7.103916516438299e-8 0 -3.5536867011244154e-8 -7.107455017552245e-8
          0 -3.555796809904216e-8 -7.111690950468114e-8 0 -3.5583195343613005e-8 -7.116753467078655e-8
          0 -3.561331285337498e-8 -7.122797886759149e-8 0 -3.5649312777575634e-8 -7.130027151441304e-8
          0 -3.569236012315679e-8 -7.138666736814316e-8 0 -3.574421673443918e-8 -7.149098885948471e-8
          0 -3.580674452375651e-8 -7.161657512456846e-8 0 -3.588268073676236e-8 -7.176925487963524e-8
          0 -3.5975596482392544e-8 -7.195613767192534e-8 0 -3.6090096943068377e-8 -7.218642884140666e-8
          0 -3.623174883260016e-8 -7.24719028127246e-8 0 -3.640883530642987e-8 -7.28289934801725e-8
          0 0 -3.545653222648265e-8 -3.5455867806787345e-8 -7.091276970814272e-8 -7.091139111879656e-8
          0 -3.5458674234997144e-8 -7.091703188848342e-8 0 -3.5462276574840265e-8 -7.09242442250661e-8
          0 -3.5467461601224695e-8 -7.093460486627304e-8 0 -3.5474364473505335e-8 -7.09483821017387e-8
          0 -3.5483163021560406e-8 -7.096597614366638e-8 0 -3.5698796256170995e-8 -7.139624196893604e-8
          0 -3.5749863117969784e-8 -7.149819991082447e-8 0 -3.581011318658134e-8 -7.161826398370656e-8
          0 -3.588146690107863e-8 -7.176043054770307e-8 0 -3.5966173275724436e-8 -7.192920949818298e-8
          0 -3.58463975918784e-8 -7.16943460804838e-8 0 -3.6066111753284114e-8 -7.212798487910137e-8
          0 -3.590916643914448e-8 -7.182055313348708e-8 0 -3.6182731608594335e-8 -7.235969190946285e-8
          0 -3.597448762298545e-8 -7.195176948829389e-8 0 -3.6316212853362573e-8 -7.262512225356536e-8
          0 -3.603673999744747e-8 -7.207713390212381e-8 0 0 -3.6335403901713874e-8
          -3.633739096879473e-8 -7.267088020450984e-8 -7.267451449768665e-8 0 -3.632985435672608e-8 -7.265985150639869e-8
          0 -3.6320582706781944e-8 -7.264158987373e-8 0 -3.630772939179133e-8 -7.261629233591954e-8
          0 -3.629166131317556e-8 -7.258459674452035e-8 0 -3.627343737852886e-8 -7.25479566439548e-8
          0 -3.625550712918395e-8 -7.250962557699386e-8 0 -3.624382941592426e-8 -7.247397759057257e-8
          0 -3.642722062822984e-8 -7.283677303507535e-8 0 0 -3.663110869986646e-8
          -3.666082279330054e-8 -7.327664043712671e-8 -7.329869050784915e-8 0 0 -3.5450515568625286e-8
          -3.5449822200965084e-8 -7.090125326574045e-8 -7.089987038179021e-8 0 -3.545238839949916e-8 -7.090499903958227e-8
          0 -3.545560019530052e-8 -7.091142043966334e-8 0 -3.546016538811731e-8 -7.09205549649351e-8
          0 -3.546617008945524e-8 -7.093256882302216e-8 0 -3.547372231199762e-8 -7.094767619331256e-8
          0 -3.5493941480960625e-8 -7.098757169234111e-8 0 -3.5482983078862995e-8 -7.096616726303261e-8
          0 -3.550705772632027e-8 -7.101377880796658e-8 0 -3.5522573210303034e-8 -7.104478599994209e-8
          0 -3.5541164367859646e-8 -7.108185442740508e-8 0 -3.556316370759755e-8 -7.112576547667737e-8
          0 -3.55891882245805e-8 -7.11777307573057e-8 0 -3.5619996509788476e-8 -7.123912700038585e-8
          0 -3.565646851159813e-8 -7.131204367997985e-8 0 0 -3.565363791472317e-8
          -3.561927414665015e-8 -7.130798682671027e-8 -7.123900551371385e-8 0 -3.569307737427495e-8 -7.138699719017668e-8
          0 -3.5738415173427715e-8 -7.147779475572485e-8 0 -3.578989041272749e-8 -7.158120460762828e-8
          0 0 -3.572209787399054e-8 -3.5690598154568236e-8 -7.144381528318564e-8 -7.138075414721953e-8
          0 -3.575054713665135e-8 -7.150057356826168e-8 0 -3.577108260572141e-8 -7.154137050689378e-8
          0 -3.577492629142539e-8 -7.154862271582924e-8 0 0 -3.6461738256316274e-8
          -3.691380660387554e-8 -7.29127980273966e-8 -7.384812596146308e-8 0 -3.608173563886073e-8 -7.216854845891831e-8
          0 -3.574708255836783e-8 -7.149213654308614e-8
        </DataArray>
      </PointData>
      <CellData>
        <DataArray type="Int32" Name="libmesh_elem_id" format="ascii" RangeMin="0" RangeMax="1173">
          0 1 2 3 4 5
          6 7 8 9 10 11
          12 13 14 15 16 17
          18 19 20 21 22 23
          24 25 26 27 28 29
          30 31 32 33 34 35
          36 37 38 39 58 59
          60 61 62 63 64 65
          66 67 68 69 70 71
          72 73 74 75 76 77
          78 79 80 81 82 83
          84 85 86 87 88 89
          90 91 92 93 94 95
          96 97 116 117 118 119
          120 121 122 123 124 125
          126 127 128 129 130 131
          132 133 134 135 136 137
          138 139 140 141 142 143
          144 145 146 147 148 149
          150 151 152 153 154 155
          174 175 176 177 178 179
          180 181 182 183 184 185
          186 187 188 189 190 191
          192 193 194 195 196 197
          198 199 200 201 202 203
          204 205 206 207 208 209
          210 211 212 213 232 233
          234 235 236 237 238 239
          240 241 242 243 244 245
          246 247 248 249 250 251
          252 253 254 255 256 257
          258 259 260 261 262 263
          264 265 266 267 268 269
          270 271 290 291 292 293
          294 295 296 297 298 299
          300 301 302 303 304 305
          306 307 308 309 310 311
          312 313 314 315 316 317
          318 319 320 321 322 323
          324 325 326 327 328 329
          348 349 350 351 352 353
          354 355 356 357 358 359
          360 361 362 363 364 365
          366 367 368 369 370 371
          372 373 374 375 376 377
          378 379 380 381 382 383
          384 385 386 387 406 407
          408 409 410 411 412 413
          414 415 416 417 418 419
          420 421 422 423 424 425
          426 427 428 429 430 431
          432 433 434 435 436 437
          438 439 440 441 442 443
          444 445 464 465 466 467
          468 469 470 471 472 473
          474 475 476 477 478 479
          480 481 482 483 484 485
          486 487 488 489 490 491
          492 493 494 495 496 497
          498 499 500 501 502 503
          504 505 506 507 772 773
          774 775 790 791 792 793
          808 809 810 811 826 827
          828 829 844 845 846 847
          862 863 864 865 880 881
          882 883 898 899 916 917
          934 935 952 953 970 971
          988 989 1006 1007 1024 1025
          1026 1027 1042 1043 1044 1045
          1060 1061 1062 1063 1078 1079
          1080 1081 1096 1097 1098 1099
          1100 1101 1114 1115 1116 1117
          1118 1119 1132 1133 1134 1135
          1136 1137 1150 1151 1152 1153
          1154 1155 1168 1169 1170 1171
          1172 1173
        </DataArray>
        <DataArray type="Int32" Name="subdomain_id" format="ascii" RangeMin="103" RangeMax="105">
          103 103 103 103 103 103
          103 103 103 103 103 103
          103 103 103 103 103 103
          103 103 103 103 103 103
          103 103 103 103 103 103
          103 103 103 103 103 103
          103 103 103 103 103 103
          103 103 103 103 103 103
          103 103 103 103 103 103
          103 103 103 103 103 103
          103 103 103 103 103 103
          103 103 103 103 103 103
          103 103 103 103 103 103
          103 103 103 103 103 103
          103 103 103 103 103 103
          103 103 103 103 103 103
          103 103 103 103 103 103
          103 103 103 103 103 103
          103 103 103 103 103 103
          103 103 103 103 103 103
          103 103 103 103 103 103
          103 103 103 103 103 103
          103 103 103 103 103 103
          103 103 103 103 103 103
          103 103 103 103 103 103
          103 103 103 103 103 103
          103 103 103 103 103 103
          103 103 103 103 103 103
          103 103 103 103 103 103
          103 103 103 103 103 103
          103 103 103 103 103 103
          103 103 103 103 103 103
          103 103 103 103 103 103
          103 103 103 103 103 103
          103 103 103 103 103 103
          103 103 103 103 103 103
          103 103 103 103 103 103
          103 103 103 103 103 103
          103 103 103 103 103 103
          103 103 103 103 103 103
          103 103 103 103 103 103
          103 103 103 103 103 103
          103 103 103 103 103 103
          103 103 103 103 103 103
          103 103 103 103 103 103
          103 103 103 103 103 103
          103 103 103 103 103 103
          103 103 103 103 103 103
          103 103 103 103 103 103
          103 103 103 103 103 103
          103 103 103 103 103 103
          103 103 103 103 103 103
          103 103 103 103 103 103
          103 103 103 103 103 103
          103 103 103 103 103 103
          103 103 103 103 103 103
          103 103 103 103 103 103
          103 103 103 103 103 103
          103 103 103 103 103 103
          103 103 103 103 103 103
          103 103 103 103 105 105
          105 105 105 105 105 105
          105 105 105 105 105 105
          105 105 105 105 105 105
          105 105 105 105 105 105
          105 105 105 105 105 105
          105 105 105 105 105 105
          105 105 105 105 105 105
          105 105 105 105 105 105
          105 105 105 105 105 105
          105 105 105 105 105 105
          105 105 105 105 105 105
          105 105 105 105 105 105
          105 105 105 105 105 105
          105 105 105 105 105 105
          105 105
        </DataArray>
        <DataArray type="Int32" Name="processor_id" format="ascii" RangeMin="7" RangeMax="7">
          7 7 7 7 7 7
          7 7 7 7 7 7
          7 7 7 7 7 7
          7 7 7 7 7 7
          7 7 7 7 7 7
          7 7 7 7 7 7
          7 7 7 7 7 7
          7 7 7 7 7 7
          7 7 7 7 7 7
          7 7 7 7 7 7
          7 7 7 7 7 7
          7 7 7 7 7 7
          7 7 7 7 7 7
          7 7 7 7 7 7
          7 7 7 7 7 7
          7 7 7 7 7 7
          7 7 7 7 7 7
          7 7 7 7 7 7
          7 7 7 7 7 7
          7 7 7 7 7 7
          7 7 7 7 7 7
          7 7 7 7 7 7
          7 7 7 7 7 7
          7 7 7 7 7 7
          7 7 7 7 7 7
          7 7 7 7 7 7
          7 7 7 7 7 7
          7 7 7 7 7 7
          7 7 7 7 7 7
          7 7 7 7 7 7
          7 7 7 7 7 7
          7 7 7 7 7 7
          7 7 7 7 7 7
          7 7 7 7 7 7
          7 7 7 7 7 7
          7 7 7 7 7 7
          7 7 7 7 7 7
          7 7 7 7 7 7
          7 7 7 7 7 7
          7 7 7 7 7 7
          7 7 7 7 7 7
          7 7 7 7 7 7
          7 7 7 7 7 7
          7 7 7 7 7 7
          7 7 7 7 7 7
          7 7 7 7 7 7
          7 7 7 7 7 7
          7 7 7 7 7 7
          7 7 7 7 7 7
          7 7 7 7 7 7
          7 7 7 7 7 7
          7 7 7 7 7 7
          7 7 7 7 7 7
          7 7 7 7 7 7
          7 7 7 7 7 7
          7 7 7 7 7 7
          7 7 7 7 7 7
          7 7 7 7 7 7
          7 7 7 7 7 7
          7 7 7 7 7 7
          7 7 7 7 7 7
          7 7 7 7 7 7
          7 7 7 7 7 7
          7 7 7 7 7 7
          7 7 7 7 7 7
          7 7 7 7 7 7
          7 7 7 7 7 7
          7 7 7 7 7 7
          7 7 7 7 7 7
          7 7 7 7 7 7
          7 7 7 7 7 7
          7 7 7 7 7 7
          7 7 7 7 7 7
          7 7 7 7 7 7
          7 7 7 7 7 7
          7 7
        </DataArray>
      </CellData>
      <Points>
        <DataArray type="Float64" Name="Points" NumberOfComponents="3" format="ascii" RangeMin="0" RangeMax="0.009803689505302022">
          0 0 0 0.00011111111111093 0 0
          0.00011111111111095 0.00041379310344969 0 0 0.00041379310344996 0
          0 0 0.00015 0.00011111111111093 0 0.00015
          0.00011111111111095 0.00041379310344969 0.00015 0 0.00041379310344996 0.00015
          0 0 0.0003 0.00011111111111093 0 0.0003
          0.00011111111111095 0.00041379310344969 0.0003 0 0.00041379310344996 0.0003
          0.00011111111111096 0.00082758620689912 0 0 0.00082758620689964 0
          0.00011111111111096 0.00082758620689912 0.00015 0 0.00082758620689964 0.00015
          0.00011111111111096 0.00082758620689912 0.0003 0 0.00082758620689964 0.0003
          0.00011111111111098 0.0012413793103467 0 0 0.0012413793103472 0
          0.00011111111111098 0.0012413793103467 0.00015 0 0.0012413793103472 0.00015
          0.00011111111111098 0.0012413793103467 0.0003 0 0.0012413793103472 0.0003
          0.00011111111111099 0.0016551724137963 0 0 0.0016551724137971 0
          0.00011111111111099 0.0016551724137963 0.00015 0 0.0016551724137971 0.00015
          0.00011111111111099 0.0016551724137963 0.0003 0 0.0016551724137971 0.0003
          0.00011111111111101 0.002068965517246 0 0 0.0020689655172471 0
          0.00011111111111101 0.002068965517246 0.00015 0 0.0020689655172471 0.00015
          0.00011111111111101 0.002068965517246 0.0003 0 0.0020689655172471 0.0003
          0.00011111111111102 0.0024827586206956 0 0 0.002482758620697 0
          0.00011111111111102 0.0024827586206956 0.00015 0 0.002482758620697 0.00015
          0.00011111111111102 0.0024827586206956 0.0003 0 0.002482758620697 0.0003
          0.00011111111111104 0.0028965517241444 0 0 0.002896551724146 0
          0.00011111111111104 0.0028965517241444 0.00015 0 0.002896551724146 0.00015
          0.00011111111111104 0.0028965517241444 0.0003 0 0.002896551724146 0.0003
          0.00011111111111105 0.0033103448275919 0 0 0.0033103448275936 0
          0.00011111111111105 0.0033103448275919 0.00015 0 0.0033103448275936 0.00015
          0.00011111111111105 0.0033103448275919 0.0003 0 0.0033103448275936 0.0003
          0.00011111111111107 0.0037241379310415 0 0 0.0037241379310435 0
          0.00011111111111107 0.0037241379310415 0.00015 0 0.0037241379310435 0.00015
          0.00011111111111107 0.0037241379310415 0.0003 0 0.0037241379310435 0.0003
          0.00011111111111108 0.0041379310344912 0 0 0.0041379310344935 0
          0.00011111111111108 0.0041379310344912 0.00015 0 0.0041379310344935 0.00015
          0.00011111111111108 0.0041379310344912 0.0003 0 0.0041379310344935 0.0003
          0.0001111111111111 0.0045517241379399 0 0 0.0045517241379424 0
          0.0001111111111111 0.0045517241379399 0.00015 0 0.0045517241379424 0.00015
          0.0001111111111111 0.0045517241379399 0.0003 0 0.0045517241379424 0.0003
          0.00011111111111111 0.004965517241389 0 0 0.0049655172413917 0
          0.00011111111111111 0.004965517241389 0.00015 0 0.0049655172413917 0.00015
          0.00011111111111111 0.004965517241389 0.0003 0 0.0049655172413917 0.0003
          0.00011111111111113 0.0053793103448383 0 0 0.0053793103448414 0
          0.00011111111111113 0.0053793103448383 0.00015 0 0.0053793103448414 0.00015
          0.00011111111111113 0.0053793103448383 0.0003 0 0.0053793103448414 0.0003
          0.00011111111111114 0.005793103448287 0 0 0.0057931034482903 0
          0.00011111111111114 0.005793103448287 0.00015 0 0.0057931034482903 0.00015
          0.00011111111111114 0.005793103448287 0.0003 0 0.0057931034482903 0.0003
          0.00011111111111116 0.0062068965517355 0 0 0.0062068965517387 0
          0.00011111111111116 0.0062068965517355 0.00015 0 0.0062068965517387 0.00015
          0.00011111111111116 0.0062068965517355 0.0003 0 0.0062068965517387 0.0003
          0.00011111111111117 0.006620689655183 0 0 0.006620689655186 0
          0.00011111111111117 0.006620689655183 0.00015 0 0.006620689655186 0.00015
          0.00011111111111117 0.006620689655183 0.0003 0 0.006620689655186 0.0003
          0.00011111111111119 0.0070344827586302 0 0 0.007034482758633 0
          0.00011111111111119 0.0070344827586302 0.00015 0 0.007034482758633 0.00015
          0.00011111111111119 0.0070344827586302 0.0003 0 0.007034482758633 0.0003
          0.0001111111111112 0.0074482758620775 0 0 0.00744827586208 0
          0.0001111111111112 0.0074482758620775 0.00015 0 0.00744827586208 0.00015
          0.0001111111111112 0.0074482758620775 0.0003 0 0.00744827586208 0.0003
          0.00011111111111122 0.0078620689655252 0 0 0.0078620689655276 0
          0.00011111111111122 0.0078620689655252 0.00015 0 0.0078620689655276 0.00015
          0.00011111111111122 0.0078620689655252 0.0003 0 0.0078620689655276 0.0003
          0.00022222222222175 0 0 0.00022222222222178 0.00041379310344941 0
          0.00022222222222175 0 0.00015 0.00022222222222178 0.00041379310344941 0.00015
          0.00022222222222175 0 0.0003 0.00022222222222178 0.00041379310344941 0.0003
          0.00022222222222182 0.0008275862068986 0 0.00022222222222182 0.0008275862068986 0.00015
          0.00022222222222182 0.0008275862068986 0.0003 0.00022222222222185 0.0012413793103461 0
          0.00022222222222185 0.0012413793103461 0.00015 0.00022222222222185 0.0012413793103461 0.0003
          0.00022222222222188 0.0016551724137956 0 0.00022222222222188 0.0016551724137956 0.00015
          0.00022222222222188 0.0016551724137956 0.0003 0.00022222222222192 0.0020689655172449 0
          0.00022222222222192 0.0020689655172449 0.00015 0.00022222222222192 0.0020689655172449 0.0003
          0.00022222222222195 0.0024827586206942 0 0.00022222222222195 0.0024827586206942 0.00015
          0.00022222222222195 0.0024827586206942 0.0003 0.00022222222222199 0.0028965517241428 0
          0.00022222222222199 0.0028965517241428 0.00015 0.00022222222222199 0.0028965517241428 0.0003
          0.00022222222222202 0.0033103448275902 0 0.00022222222222202 0.0033103448275902 0.00015
          0.00022222222222202 0.0033103448275902 0.0003 0.00022222222222205 0.0037241379310395 0
          0.00022222222222205 0.0037241379310395 0.00015 0.00022222222222205 0.0037241379310395 0.0003
          0.00022222222222209 0.0041379310344889 0 0.00022222222222209 0.0041379310344889 0.00015
          0.00022222222222209 0.0041379310344889 0.0003 0.00022222222222212 0.0045517241379374 0
          0.00022222222222212 0.0045517241379374 0.00015 0.00022222222222212 0.0045517241379374 0.0003
          0.00022222222222216 0.0049655172413862 0 0.00022222222222216 0.0049655172413862 0.00015
          0.00022222222222216 0.0049655172413862 0.0003 0.00022222222222219 0.0053793103448353 0
          0.00022222222222219 0.0053793103448353 0.00015 0.00022222222222219 0.0053793103448353 0.0003
          0.00022222222222222 0.0057931034482838 0 0.00022222222222222 0.0057931034482838 0.00015
          0.00022222222222222 0.0057931034482838 0.0003 0.00022222222222226 0.0062068965517323 0
          0.00022222222222226 0.0062068965517323 0.00015 0.00022222222222226 0.0062068965517323 0.0003
          0.00022222222222229 0.0066206896551799 0 0.00022222222222229 0.0066206896551799 0.00015
          0.00022222222222229 0.0066206896551799 0.0003 0.00022222222222232 0.0070344827586275 0
          0.00022222222222232 0.0070344827586275 0.00015 0.00022222222222232 0.0070344827586275 0.0003
          0.00022222222222236 0.007448275862075 0 0.00022222222222236 0.007448275862075 0.00015
          0.00022222222222236 0.007448275862075 0.0003 0.00022222222222239 0.0078620689655229 0
          0.00022222222222239 0.0078620689655229 0.00015 0.00022222222222239 0.0078620689655229 0.0003
          0.00033333333333257 0 0 0.00033333333333262 0.00041379310344914 0
          0.00033333333333257 0 0.00015 0.00033333333333262 0.00041379310344914 0.00015
          0.00033333333333257 0 0.0003 0.00033333333333262 0.00041379310344914 0.0003
          0.00033333333333268 0.00082758620689808 0 0.00033333333333268 0.00082758620689808 0.00015
          0.00033333333333268 0.00082758620689808 0.0003 0.00033333333333273 0.0012413793103456 0
          0.00033333333333273 0.0012413793103456 0.00015 0.00033333333333273 0.0012413793103456 0.0003
          0.00033333333333278 0.0016551724137948 0 0.00033333333333278 0.0016551724137948 0.00015
          0.00033333333333278 0.0016551724137948 0.0003 0.00033333333333283 0.0020689655172438 0
          0.00033333333333283 0.0020689655172438 0.00015 0.00033333333333283 0.0020689655172438 0.0003
          0.00033333333333289 0.0024827586206928 0 0.00033333333333289 0.0024827586206928 0.00015
          0.00033333333333289 0.0024827586206928 0.0003 0.00033333333333294 0.0028965517241412 0
          0.00033333333333294 0.0028965517241412 0.00015 0.00033333333333294 0.0028965517241412 0.0003
          0.00033333333333299 0.0033103448275885 0 0.00033333333333299 0.0033103448275885 0.00015
          0.00033333333333299 0.0033103448275885 0.0003 0.00033333333333305 0.0037241379310375 0
          0.00033333333333305 0.0037241379310375 0.00015 0.00033333333333305 0.0037241379310375 0.0003
          0.0003333333333331 0.0041379310344865 0 0.0003333333333331 0.0041379310344865 0.00015
          0.0003333333333331 0.0041379310344865 0.0003 0.00033333333333315 0.0045517241379349 0
          0.00033333333333315 0.0045517241379349 0.00015 0.00033333333333315 0.0045517241379349 0.0003
          0.0003333333333332 0.0049655172413834 0 0.0003333333333332 0.0049655172413834 0.00015
          0.0003333333333332 0.0049655172413834 0.0003 0.00033333333333326 0.0053793103448322 0
          0.00033333333333326 0.0053793103448322 0.00015 0.00033333333333326 0.0053793103448322 0.0003
          0.00033333333333331 0.0057931034482806 0 0.00033333333333331 0.0057931034482806 0.00015
          0.00033333333333331 0.0057931034482806 0.0003 0.00033333333333336 0.006206896551729 0
          0.00033333333333336 0.006206896551729 0.00015 0.00033333333333336 0.006206896551729 0.0003
          0.00033333333333342 0.0066206896551769 0 0.00033333333333342 0.0066206896551769 0.00015
          0.00033333333333342 0.0066206896551769 0.0003 0.00033333333333347 0.0070344827586248 0
          0.00033333333333347 0.0070344827586248 0.00015 0.00033333333333347 0.0070344827586248 0.0003
          0.00033333333333352 0.0074482758620725 0 0.00033333333333352 0.0074482758620725 0.00015
          0.00033333333333352 0.0074482758620725 0.0003 0.00033333333333357 0.0078620689655205 0
          0.00033333333333357 0.0078620689655205 0.00015 0.00033333333333357 0.0078620689655205 0.0003
          0.00044444444444337 0 0 0.00044444444444345 0.00041379310344886 0
          0.00044444444444337 0 0.00015 0.00044444444444345 0.00041379310344886 0.00015
          0.00044444444444337 0 0.0003 0.00044444444444345 0.00041379310344886 0.0003
          0.00044444444444352 0.00082758620689756 0 0.00044444444444352 0.00082758620689756 0.00015
          0.00044444444444352 0.00082758620689756 0.0003 0.00044444444444359 0.0012413793103451 0
          0.00044444444444359 0.0012413793103451 0.00015 0.00044444444444359 0.0012413793103451 0.0003
          0.00044444444444367 0.001655172413794 0 0.00044444444444367 0.001655172413794 0.00015
          0.00044444444444367 0.001655172413794 0.0003 0.00044444444444374 0.0020689655172427 0
          0.00044444444444374 0.0020689655172427 0.00015 0.00044444444444374 0.0020689655172427 0.0003
          0.00044444444444382 0.0024827586206914 0 0.00044444444444382 0.0024827586206914 0.00015
          0.00044444444444382 0.0024827586206914 0.0003 0.00044444444444389 0.0028965517241395 0
          0.00044444444444389 0.0028965517241395 0.00015 0.00044444444444389 0.0028965517241395 0.0003
          0.00044444444444397 0.0033103448275869 0 0.00044444444444397 0.0033103448275869 0.00015
          0.00044444444444397 0.0033103448275869 0.0003 0.00044444444444404 0.0037241379310355 0
          0.00044444444444404 0.0037241379310355 0.00015 0.00044444444444404 0.0037241379310355 0.0003
          0.00044444444444412 0.0041379310344842 0 0.00044444444444412 0.0041379310344842 0.00015
          0.00044444444444412 0.0041379310344842 0.0003 0.00044444444444419 0.0045517241379324 0
          0.00044444444444419 0.0045517241379324 0.00015 0.00044444444444419 0.0045517241379324 0.0003
          0.00044444444444426 0.0049655172413807 0 0.00044444444444426 0.0049655172413807 0.00015
          0.00044444444444426 0.0049655172413807 0.0003 0.00044444444444434 0.0053793103448292 0
          0.00044444444444434 0.0053793103448292 0.00015 0.00044444444444434 0.0053793103448292 0.0003
          0.00044444444444441 0.0057931034482774 0 0.00044444444444441 0.0057931034482774 0.00015
          0.00044444444444441 0.0057931034482774 0.0003 0.00044444444444449 0.0062068965517258 0
          0.00044444444444449 0.0062068965517258 0.00015 0.00044444444444449 0.0062068965517258 0.0003
          0.00044444444444456 0.0066206896551738 0 0.00044444444444456 0.0066206896551738 0.00015
          0.00044444444444456 0.0066206896551738 0.0003 0.00044444444444464 0.007034482758622 0
          0.00044444444444464 0.007034482758622 0.00015 0.00044444444444464 0.007034482758622 0.0003
          0.00044444444444471 0.00744827586207 0 0.00044444444444471 0.00744827586207 0.00015
          0.00044444444444471 0.00744827586207 0.0003 0.00044444444444479 0.0078620689655182 0
          0.00044444444444479 0.0078620689655182 0.00015 0.00044444444444479 0.0078620689655182 0.0003
          0.00055555555555442 0 0 0.0005555555555545 0.00041379310344859 0
          0.00055555555555442 0 0.00015 0.0005555555555545 0.00041379310344859 0.00015
          0.00055555555555442 0 0.0003 0.0005555555555545 0.00041379310344859 0.0003
          0.00055555555555458 0.00082758620689704 0 0.00055555555555458 0.00082758620689704 0.00015
          0.00055555555555458 0.00082758620689704 0.0003 0.00055555555555465 0.0012413793103446 0
          0.00055555555555465 0.0012413793103446 0.00015 0.00055555555555465 0.0012413793103446 0.0003
          0.00055555555555473 0.0016551724137932 0 0.00055555555555473 0.0016551724137932 0.00015
          0.00055555555555473 0.0016551724137932 0.0003 0.00055555555555481 0.0020689655172416 0
          0.00055555555555481 0.0020689655172416 0.00015 0.00055555555555481 0.0020689655172416 0.0003
          0.00055555555555489 0.0024827586206899 0 0.00055555555555489 0.0024827586206899 0.00015
          0.00055555555555489 0.0024827586206899 0.0003 0.00055555555555497 0.0028965517241379 0
          0.00055555555555497 0.0028965517241379 0.00015 0.00055555555555497 0.0028965517241379 0.0003
          0.00055555555555504 0.0033103448275852 0 0.00055555555555504 0.0033103448275852 0.00015
          0.00055555555555504 0.0033103448275852 0.0003 0.00055555555555512 0.0037241379310336 0
          0.00055555555555512 0.0037241379310336 0.00015 0.00055555555555512 0.0037241379310336 0.0003
          0.0005555555555552 0.0041379310344819 0 0.0005555555555552 0.0041379310344819 0.00015
          0.0005555555555552 0.0041379310344819 0.0003 0.00055555555555528 0.0045517241379299 0
          0.00055555555555528 0.0045517241379299 0.00015 0.00055555555555528 0.0045517241379299 0.0003
          0.00055555555555535 0.0049655172413779 0 0.00055555555555535 0.0049655172413779 0.00015
          0.00055555555555535 0.0049655172413779 0.0003 0.00055555555555543 0.0053793103448261 0
          0.00055555555555543 0.0053793103448261 0.00015 0.00055555555555543 0.0053793103448261 0.0003
          0.00055555555555551 0.0057931034482741 0 0.00055555555555551 0.0057931034482741 0.00015
          0.00055555555555551 0.0057931034482741 0.0003 0.00055555555555559 0.0062068965517226 0
          0.00055555555555559 0.0062068965517226 0.00015 0.00055555555555559 0.0062068965517226 0.0003
          0.00055555555555566 0.0066206896551708 0 0.00055555555555566 0.0066206896551708 0.00015
          0.00055555555555566 0.0066206896551708 0.0003 0.00055555555555574 0.0070344827586193 0
          0.00055555555555574 0.0070344827586193 0.00015 0.00055555555555574 0.0070344827586193 0.0003
          0.00055555555555582 0.0074482758620675 0 0.00055555555555582 0.0074482758620675 0.00015
          0.00055555555555582 0.0074482758620675 0.0003 0.0005555555555559 0.0078620689655158 0
          0.0005555555555559 0.0078620689655158 0.00015 0.0005555555555559 0.0078620689655158 0.0003
          0.00066666666666586 0 0 0.0006666666666659 0.00041379310344831 0
          0.00066666666666586 0 0.00015 0.0006666666666659 0.00041379310344831 0.00015
          0.00066666666666586 0 0.0003 0.0006666666666659 0.00041379310344831 0.0003
          0.00066666666666595 0.00082758620689653 0 0.00066666666666595 0.00082758620689653 0.00015
          0.00066666666666595 0.00082758620689653 0.0003 0.00066666666666599 0.0012413793103441 0
          0.00066666666666599 0.0012413793103441 0.00015 0.00066666666666599 0.0012413793103441 0.0003
          0.00066666666666604 0.0016551724137924 0 0.00066666666666604 0.0016551724137924 0.00015
          0.00066666666666604 0.0016551724137924 0.0003 0.00066666666666608 0.0020689655172404 0
          0.00066666666666608 0.0020689655172404 0.00015 0.00066666666666608 0.0020689655172404 0.0003
          0.00066666666666613 0.0024827586206885 0 0.00066666666666613 0.0024827586206885 0.00015
          0.00066666666666613 0.0024827586206885 0.0003 0.00066666666666617 0.0028965517241363 0
          0.00066666666666617 0.0028965517241363 0.00015 0.00066666666666617 0.0028965517241363 0.0003
          0.00066666666666622 0.0033103448275835 0 0.00066666666666622 0.0033103448275835 0.00015
          0.00066666666666622 0.0033103448275835 0.0003 0.00066666666666626 0.0037241379310316 0
          0.00066666666666626 0.0037241379310316 0.00015 0.00066666666666626 0.0037241379310316 0.0003
          0.0006666666666663 0.0041379310344796 0 0.0006666666666663 0.0041379310344796 0.00015
          0.0006666666666663 0.0041379310344796 0.0003 0.00066666666666635 0.0045517241379274 0
          0.00066666666666635 0.0045517241379274 0.00015 0.00066666666666635 0.0045517241379274 0.0003
          0.00066666666666639 0.0049655172413752 0 0.00066666666666639 0.0049655172413752 0.00015
          0.00066666666666639 0.0049655172413752 0.0003 0.00066666666666644 0.0053793103448231 0
          0.00066666666666644 0.0053793103448231 0.00015 0.00066666666666644 0.0053793103448231 0.0003
          0.00066666666666648 0.0057931034482709 0 0.00066666666666648 0.0057931034482709 0.00015
          0.00066666666666648 0.0057931034482709 0.0003 0.00066666666666653 0.0062068965517194 0
          0.00066666666666653 0.0062068965517194 0.00015 0.00066666666666653 0.0062068965517194 0.0003
          0.00066666666666657 0.0066206896551677 0 0.00066666666666657 0.0066206896551677 0.00015
          0.00066666666666657 0.0066206896551677 0.0003 0.00066666666666661 0.0070344827586165 0
          0.00066666666666661 0.0070344827586165 0.00015 0.00066666666666661 0.0070344827586165 0.0003
          0.00066666666666666 0.0074482758620651 0 0.00066666666666666 0.0074482758620651 0.00015
          0.00066666666666666 0.0074482758620651 0.0003 0.0006666666666667 0.0078620689655135 0
          0.0006666666666667 0.0078620689655135 0.00015 0.0006666666666667 0.0078620689655135 0.0003
          0.00077777777777724 0 0 0.00077777777777728 0.00041379310344804 0
          0.00077777777777724 0 0.00015 0.00077777777777728 0.00041379310344804 0.00015
          0.00077777777777724 0 0.0003 0.00077777777777728 0.00041379310344804 0.0003
          0.00077777777777731 0.00082758620689601 0 0.00077777777777731 0.00082758620689601 0.00015
          0.00077777777777731 0.00082758620689601 0.0003 0.00077777777777734 0.0012413793103436 0
          0.00077777777777734 0.0012413793103436 0.00015 0.00077777777777734 0.0012413793103436 0.0003
          0.00077777777777737 0.0016551724137916 0 0.00077777777777737 0.0016551724137916 0.00015
          0.00077777777777737 0.0016551724137916 0.0003 0.0007777777777774 0.0020689655172393 0
          0.0007777777777774 0.0020689655172393 0.00015 0.0007777777777774 0.0020689655172393 0.0003
          0.00077777777777743 0.0024827586206871 0 0.00077777777777743 0.0024827586206871 0.00015
          0.00077777777777743 0.0024827586206871 0.0003 0.00077777777777747 0.0028965517241347 0
          0.00077777777777747 0.0028965517241347 0.00015 0.00077777777777747 0.0028965517241347 0.0003
          0.0007777777777775 0.0033103448275818 0 0.0007777777777775 0.0033103448275818 0.00015
          0.0007777777777775 0.0033103448275818 0.0003 0.00077777777777753 0.0037241379310296 0
          0.00077777777777753 0.0037241379310296 0.00015 0.00077777777777753 0.0037241379310296 0.0003
          0.00077777777777756 0.0041379310344773 0 0.00077777777777756 0.0041379310344773 0.00015
          0.00077777777777756 0.0041379310344773 0.0003 0.00077777777777759 0.0045517241379249 0
          0.00077777777777759 0.0045517241379249 0.00015 0.00077777777777759 0.0045517241379249 0.0003
          0.00077777777777762 0.0049655172413724 0 0.00077777777777762 0.0049655172413724 0.00015
          0.00077777777777762 0.0049655172413724 0.0003 0.00077777777777765 0.00537931034482 0
          0.00077777777777765 0.00537931034482 0.00015 0.00077777777777765 0.00537931034482 0.0003
          0.00077777777777769 0.0057931034482677 0 0.00077777777777769 0.0057931034482677 0.00015
          0.00077777777777769 0.0057931034482677 0.0003 0.00077777777777772 0.0062068965517161 0
          0.00077777777777772 0.0062068965517161 0.00015 0.00077777777777772 0.0062068965517161 0.0003
          0.00077777777777775 0.0066206896551647 0 0.00077777777777775 0.0066206896551647 0.00015
          0.00077777777777775 0.0066206896551647 0.0003 0.00077777777777778 0.0070344827586137 0
          0.00077777777777778 0.0070344827586137 0.00015 0.00077777777777778 0.0070344827586137 0.0003
          0.00077777777777781 0.0074482758620625 0 0.00077777777777781 0.0074482758620625 0.00015
          0.00077777777777781 0.0074482758620625 0.0003 0.00077777777777784 0.0078620689655112 0
          0.00077777777777784 0.0078620689655112 0.00015 0.00077777777777784 0.0078620689655112 0.0003
          0.00088888888888862 0 0 0.00088888888888863 0.00041379310344776 0
          0.00088888888888862 0 0.00015 0.00088888888888863 0.00041379310344776 0.00015
          0.00088888888888862 0 0.0003 0.00088888888888863 0.00041379310344776 0.0003
          0.00088888888888864 0.00082758620689549 0 0.00088888888888864 0.00082758620689549 0.00015
          0.00088888888888864 0.00082758620689549 0.0003 0.00088888888888865 0.0012413793103431 0
          0.00088888888888865 0.0012413793103431 0.00015 0.00088888888888865 0.0012413793103431 0.0003
          0.00088888888888866 0.0016551724137908 0 0.00088888888888866 0.0016551724137908 0.00015
          0.00088888888888866 0.0016551724137908 0.0003 0.00088888888888867 0.0020689655172382 0
          0.00088888888888867 0.0020689655172382 0.00015 0.00088888888888867 0.0020689655172382 0.0003
          0.00088888888888868 0.0024827586206857 0 0.00088888888888868 0.0024827586206857 0.00015
          0.00088888888888868 0.0024827586206857 0.0003 0.00088888888888868 0.002896551724133 0
          0.00088888888888868 0.002896551724133 0.00015 0.00088888888888868 0.002896551724133 0.0003
          0.00088888888888869 0.0033103448275802 0 0.00088888888888869 0.0033103448275802 0.00015
          0.00088888888888869 0.0033103448275802 0.0003 0.0008888888888887 0.0037241379310276 0
          0.0008888888888887 0.0037241379310276 0.00015 0.0008888888888887 0.0037241379310276 0.0003
          0.00088888888888871 0.004137931034475 0 0.00088888888888871 0.004137931034475 0.00015
          0.00088888888888871 0.004137931034475 0.0003 0.00088888888888872 0.0045517241379224 0
          0.00088888888888872 0.0045517241379224 0.00015 0.00088888888888872 0.0045517241379224 0.0003
          0.00088888888888873 0.0049655172413697 0 0.00088888888888873 0.0049655172413697 0.00015
          0.00088888888888873 0.0049655172413697 0.0003 0.00088888888888874 0.005379310344817 0
          0.00088888888888874 0.005379310344817 0.00015 0.00088888888888874 0.005379310344817 0.0003
          0.00088888888888875 0.0057931034482644 0 0.00088888888888875 0.0057931034482644 0.00015
          0.00088888888888875 0.0057931034482644 0.0003 0.00088888888888876 0.0062068965517129 0
          0.00088888888888876 0.0062068965517129 0.00015 0.00088888888888876 0.0062068965517129 0.0003
          0.00088888888888877 0.0066206896551616 0 0.00088888888888877 0.0066206896551616 0.00015
          0.00088888888888877 0.0066206896551616 0.0003 0.00088888888888877 0.007034482758611 0
          0.00088888888888877 0.007034482758611 0.00015 0.00088888888888877 0.007034482758611 0.0003
          0.00088888888888878 0.00744827586206 0 0.00088888888888878 0.00744827586206 0.00015
          0.00088888888888878 0.00744827586206 0.0003 0.00088888888888879 0.0078620689655088 0
          0.00088888888888879 0.0078620689655088 0.00015 0.00088888888888879 0.0078620689655088 0.0003
          0.001 0 0 0.001 0.00041379310344749 0
          0.001 0 0.00015 0.001 0.00041379310344749 0.00015
          0.001 0 0.0003 0.001 0.00041379310344749 0.0003
          0.001 0.00082758620689497 0 0.001 0.00082758620689497 0.00015
          0.001 0.00082758620689497 0.0003 0.001 0.0012413793103426 0
          0.001 0.0012413793103426 0.00015 0.001 0.0012413793103426 0.0003
          0.001 0.0016551724137901 0 0.001 0.0016551724137901 0.00015
          0.001 0.0016551724137901 0.0003 0.001 0.0020689655172371 0
          0.001 0.0020689655172371 0.00015 0.001 0.0020689655172371 0.0003
          0.001 0.0024827586206843 0 0.001 0.0024827586206843 0.00015
          0.001 0.0024827586206843 0.0003 0.001 0.0028965517241314 0
          0.001 0.0028965517241314 0.00015 0.001 0.0028965517241314 0.0003
          0.001 0.0033103448275785 0 0.001 0.0033103448275785 0.00015
          0.001 0.0033103448275785 0.0003 0.001 0.0037241379310256 0
          0.001 0.0037241379310256 0.00015 0.001 0.0037241379310256 0.0003
          0.001 0.0041379310344727 0 0.001 0.0041379310344727 0.00015
          0.001 0.0041379310344727 0.0003 0.001 0.0045517241379199 0
          0.001 0.0045517241379199 0.00015 0.001 0.0045517241379199 0.0003
          0.001 0.0049655172413669 0 0.001 0.0049655172413669 0.00015
          0.001 0.0049655172413669 0.0003 0.001 0.0053793103448139 0
          0.001 0.0053793103448139 0.00015 0.001 0.0053793103448139 0.0003
          0.001 0.0057931034482612 0 0.001 0.0057931034482612 0.00015
          0.001 0.0057931034482612 0.0003 0.001 0.0062068965517097 0
          0.001 0.0062068965517097 0.00015 0.001 0.0062068965517097 0.0003
          0.001 0.0066206896551586 0 0.001 0.0066206896551586 0.00015
          0.001 0.0066206896551586 0.0003 0.001 0.0070344827586082 0
          0.001 0.0070344827586082 0.00015 0.001 0.0070344827586082 0.0003
          0.001 0.0074482758620575 0 0.001 0.0074482758620575 0.00015
          0.001 0.0074482758620575 0.0003 0.001 0.0078620689655065 0
          0.001 0.0078620689655065 0.00015 0.001 0.0078620689655065 0.0003
          0.001 0.0082758620689564 0 0.001 0.0082758620689564 0.00015
          0.001 0.0082758620689564 0.0003 0.001 0.0086896551724064 0
          0.001 0.0086896551724064 0.00015 0.001 0.0086896551724064 0.0003
          0.0014444444444438 0.00041379310344749 0 0.0014444444444438 0 0
          0.0014444444444438 0.00041379310344749 0.00015 0.0014444444444438 0 0.00015
          0.0014444444444438 0.00041379310344749 0.0003 0.0014444444444438 0 0.0003
          0.0014444444444439 0.00082758620689497 0 0.0014444444444439 0.00082758620689497 0.00015
          0.0014444444444439 0.00082758620689497 0.0003 0.001444444444444 0.0012413793103426 0
          0.001444444444444 0.0012413793103426 0.00015 0.001444444444444 0.0012413793103426 0.0003
          0.001444444444444 0.0016551724137901 0 0.001444444444444 0.0016551724137901 0.00015
          0.001444444444444 0.0016551724137901 0.0003 0.0014444444444441 0.0020689655172371 0
          0.0014444444444441 0.0020689655172371 0.00015 0.0014444444444441 0.0020689655172371 0.0003
          0.0014444444444441 0.0024827586206843 0 0.0014444444444441 0.0024827586206843 0.00015
          0.0014444444444441 0.0024827586206843 0.0003 0.0014444444444446 0.0062068965517097 0
          0.0014444444444446 0.0062068965517097 0.00015 0.0014444444444446 0.0062068965517097 0.0003
          0.0014444444444447 0.0066206896551586 0 0.0014444444444447 0.0066206896551586 0.00015
          0.0014444444444447 0.0066206896551586 0.0003 0.0014444444444448 0.0070344827586082 0
          0.0014444444444448 0.0070344827586082 0.00015 0.0014444444444448 0.0070344827586082 0.0003
          0.0014444444444448 0.0074482758620576 0 0.0014444444444448 0.0074482758620576 0.00015
          0.0014444444444448 0.0074482758620576 0.0003 0.0014444444444449 0.0078620689655065 0
          0.0014444444444449 0.0078620689655065 0.00015 0.0014444444444449 0.0078620689655065 0.0003
          0.0018888888888896 0.0078620689655065 0 0.0018888888888896 0.0078620689655065 0.00015
          0.0018888888888896 0.0078620689655065 0.0003 0.0014444444444449 0.0082758620689564 0
          0.0014444444444449 0.0082758620689564 0.00015 0.0014444444444449 0.0082758620689564 0.0003
          0.0018888888888898 0.0082758620689564 0 0.0018888888888898 0.0082758620689564 0.00015
          0.0018888888888898 0.0082758620689564 0.0003 0.001444444444445 0.0086896551724064 0
          0.001444444444445 0.0086896551724064 0.00015 0.001444444444445 0.0086896551724064 0.0003
          0.0018888888888899 0.0086896551724064 0 0.0018888888888899 0.0086896551724064 0.00015
          0.0018888888888899 0.0086896551724064 0.0003 0.0014444444444451 0.0091034482758539 0
          0.0014444444444451 0.0091034482758539 0.00015 0.0014444444444451 0.0091034482758539 0.0003
          0.00188888888889 0.0091034482758539 0 0.00188888888889 0.0091034482758539 0.00015
          0.00188888888889 0.0091034482758539 0.0003 0.00011111111111123 0.0082758620689751 0
          0 0.0082758620689774 0 0.00011111111111123 0.0082758620689751 0.00015
          0 0.0082758620689774 0.00015 0.00011111111111123 0.0082758620689751 0.0003
          0 0.0082758620689774 0.0003 0.00022222222222243 0.0082758620689727 0
          0.00022222222222243 0.0082758620689727 0.00015 0.00022222222222243 0.0082758620689727 0.0003
          0.00033333333333363 0.0082758620689704 0 0.00033333333333363 0.0082758620689704 0.00015
          0.00033333333333363 0.0082758620689704 0.0003 0.00044444444444486 0.0082758620689681 0
          0.00044444444444486 0.0082758620689681 0.00015 0.00044444444444486 0.0082758620689681 0.0003
          0.00055555555555597 0.0082758620689657 0 0.00055555555555597 0.0082758620689657 0.00015
          0.00055555555555597 0.0082758620689657 0.0003 0.00066666666666675 0.0082758620689634 0
          0.00066666666666675 0.0082758620689634 0.00015 0.00066666666666675 0.0082758620689634 0.0003
          0.00077777777777787 0.0082758620689611 0 0.00077777777777787 0.0082758620689611 0.00015
          0.00077777777777787 0.0082758620689611 0.0003 0.0008888888888888 0.0082758620689588 0
          0.0008888888888888 0.0082758620689588 0.00015 0.0008888888888888 0.0082758620689588 0.0003
          0.00088888888888881 0.0086896551724084 0 0.00088888888888881 0.0086896551724084 0.00015
          0.00088888888888881 0.0086896551724084 0.0003 0.001 0.0091034482758539 0
          0.00088888888888882 0.0091034482758559 0 0.001 0.0091034482758539 0.00015
          0.00088888888888882 0.0091034482758559 0.00015 0.001 0.0091034482758539 0.0003
          0.00088888888888882 0.0091034482758559 0.0003 0.0018888888888873 0.00041379310344749 0
          0.0018888888888872 0 0 0.0018888888888873 0.00041379310344749 0.00015
          0.0018888888888872 0 0.00015 0.0018888888888873 0.00041379310344749 0.0003
          0.0018888888888872 0 0.0003 0.0018888888888875 0.00082758620689497 0
          0.0018888888888875 0.00082758620689497 0.00015 0.0018888888888875 0.00082758620689497 0.0003
          0.0018888888888876 0.0012413793103426 0 0.0018888888888876 0.0012413793103426 0.00015
          0.0018888888888876 0.0012413793103426 0.0003 0.0018888888888877 0.0016551724137901 0
          0.0018888888888877 0.0016551724137901 0.00015 0.0018888888888877 0.0016551724137901 0.0003
          0.0018888888888879 0.0020689655172371 0 0.0018888888888879 0.0020689655172371 0.00015
          0.0018888888888879 0.0020689655172371 0.0003 0.001888888888888 0.0024827586206843 0
          0.001888888888888 0.0024827586206843 0.00015 0.001888888888888 0.0024827586206843 0.0003
          0.0014444444444442 0.0028965517241314 0 0.0014444444444442 0.0028965517241314 0.00015
          0.0014444444444442 0.0028965517241314 0.0003 0.0018888888888881 0.0028965517241314 0
          0.0018888888888881 0.0028965517241314 0.00015 0.0018888888888881 0.0028965517241314 0.0003
          0.0014444444444442 0.0033103448275785 0 0.0014444444444442 0.0033103448275785 0.00015
          0.0014444444444442 0.0033103448275785 0.0003 0.0014444444444443 0.0037241379310256 0
          0.0014444444444443 0.0037241379310256 0.00015 0.0014444444444443 0.0037241379310256 0.0003
          0.0014444444444444 0.0041379310344727 0 0.0014444444444444 0.0041379310344727 0.00015
          0.0014444444444444 0.0041379310344727 0.0003 0.0014444444444444 0.0045517241379199 0
          0.0014444444444444 0.0045517241379199 0.00015 0.0014444444444444 0.0045517241379199 0.0003
          0.0014444444444445 0.0049655172413669 0 0.0014444444444445 0.0049655172413669 0.00015
          0.0014444444444445 0.0049655172413669 0.0003 0.0014444444444445 0.0053793103448139 0
          0.0014444444444445 0.0053793103448139 0.00015 0.0014444444444445 0.0053793103448139 0.0003
          0.0014444444444446 0.0057931034482612 0 0.0014444444444446 0.0057931034482612 0.00015
          0.0014444444444446 0.0057931034482612 0.0003 0.0018888888888891 0.0062068965517097 0
          0.001888888888889 0.0057931034482612 0 0.0018888888888891 0.0062068965517097 0.00015
          0.001888888888889 0.0057931034482612 0.00015 0.0018888888888891 0.0062068965517097 0.0003
          0.001888888888889 0.0057931034482612 0.0003 0.0018888888888893 0.0066206896551586 0
          0.0018888888888893 0.0066206896551586 0.00015 0.0018888888888893 0.0066206896551586 0.0003
          0.0018888888888894 0.0070344827586082 0 0.0018888888888894 0.0070344827586082 0.00015
          0.0018888888888894 0.0070344827586082 0.0003 0.0018888888888895 0.0074482758620575 0
          0.0018888888888895 0.0074482758620575 0.00015 0.0018888888888895 0.0074482758620575 0.0003
          0.0023333333333346 0.0078620689655065 0 0.0023333333333344 0.0074482758620575 0
          0.0023333333333346 0.0078620689655065 0.00015 0.0023333333333344 0.0074482758620575 0.00015
          0.0023333333333346 0.0078620689655065 0.0003 0.0023333333333344 0.0074482758620575 0.0003
          0.0023333333333348 0.0082758620689564 0 0.0023333333333348 0.0082758620689564 0.00015
          0.0023333333333348 0.0082758620689564 0.0003 0.002333333333335 0.0086896551724064 0
          0.002333333333335 0.0086896551724064 0.00015 0.002333333333335 0.0086896551724064 0.0003
          0.0023333333333351 0.0091034482758539 0 0.0023333333333351 0.0091034482758539 0.00015
          0.0023333333333351 0.0091034482758539 0.0003 0.0014444444444451 0.0095172413793029 0
          0.001 0.0095172413793029 0 0.0014444444444451 0.0095172413793029 0.00015
          0.001 0.0095172413793029 0.00015 0.0014444444444451 0.0095172413793029 0.0003
          0.001 0.0095172413793029 0.0003 0.0018888888888902 0.0095172413793029 0
          0.0018888888888902 0.0095172413793029 0.00015 0.0018888888888902 0.0095172413793029 0.0003
          0.0023333333333353 0.0095172413793029 0 0.0023333333333353 0.0095172413793029 0.00015
          0.0023333333333353 0.0095172413793029 0.0003
          <InformationKey name="L2_NORM_RANGE" location="vtkDataArray" length="2">
            <Value index="0">
              0
            </Value>
            <Value index="1">
              0.0098036895053
            </Value>
          </InformationKey>
        </DataArray>
      </Points>
      <Cells>
        <DataArray type="Int64" Name="connectivity" format="ascii" RangeMin="0" RangeMax="788">
          0 1 2 3 4 5
          6 7 4 5 6 7
          8 9 10 11 3 2
          12 13 7 6 14 15
          7 6 14 15 11 10
          16 17 13 12 18 19
          15 14 20 21 15 14
          20 21 17 16 22 23
          19 18 24 25 21 20
          26 27 21 20 26 27
          23 22 28 29 25 24
          30 31 27 26 32 33
          27 26 32 33 29 28
          34 35 31 30 36 37
          33 32 38 39 33 32
          38 39 35 34 40 41
          37 36 42 43 39 38
          44 45 39 38 44 45
          41 40 46 47 43 42
          48 49 45 44 50 51
          45 44 50 51 47 46
          52 53 49 48 54 55
          51 50 56 57 51 50
          56 57 53 52 58 59
          55 54 60 61 57 56
          62 63 57 56 62 63
          59 58 64 65 61 60
          66 67 63 62 68 69
          63 62 68 69 65 64
          70 71 67 66 72 73
          69 68 74 75 69 68
          74 75 71 70 76 77
          73 72 78 79 75 74
          80 81 75 74 80 81
          77 76 82 83 79 78
          84 85 81 80 86 87
          81 80 86 87 83 82
          88 89 85 84 90 91
          87 86 92 93 87 86
          92 93 89 88 94 95
          91 90 96 97 93 92
          98 99 93 92 98 99
          95 94 100 101 97 96
          102 103 99 98 104 105
          99 98 104 105 101 100
          106 107 103 102 108 109
          105 104 110 111 105 104
          110 111 107 106 112 113
          109 108 114 115 111 110
          116 117 111 110 116 117
          113 112 118 119 115 114
          663 664 117 116 665 666
          117 116 665 666 119 118
          667 668 1 120 121 2
          5 122 123 6 5 122
          123 6 9 124 125 10
          2 121 126 12 6 123
          127 14 6 123 127 14
          10 125 128 16 12 126
          129 18 14 127 130 20
          14 127 130 20 16 128
          131 22 18 129 132 24
          20 130 133 26 20 130
          133 26 22 131 134 28
          24 132 135 30 26 133
          136 32 26 133 136 32
          28 134 137 34 30 135
          138 36 32 136 139 38
          32 136 139 38 34 137
          140 40 36 138 141 42
          38 139 142 44 38 139
          142 44 40 140 143 46
          42 141 144 48 44 142
          145 50 44 142 145 50
          46 143 146 52 48 144
          147 54 50 145 148 56
          50 145 148 56 52 146
          149 58 54 147 150 60
          56 148 151 62 56 148
          151 62 58 149 152 64
          60 150 153 66 62 151
          154 68 62 151 154 68
          64 152 155 70 66 153
          156 72 68 154 157 74
          68 154 157 74 70 155
          158 76 72 156 159 78
          74 157 160 80 74 157
          160 80 76 158 161 82
          78 159 162 84 80 160
          163 86 80 160 163 86
          82 161 164 88 84 162
          165 90 86 163 166 92
          86 163 166 92 88 164
          167 94 90 165 168 96
          92 166 169 98 92 166
          169 98 94 167 170 100
          96 168 171 102 98 169
          172 104 98 169 172 104
          100 170 173 106 102 171
          174 108 104 172 175 110
          104 172 175 110 106 173
          176 112 108 174 177 114
          110 175 178 116 110 175
          178 116 112 176 179 118
          114 177 669 663 116 178
          670 665 116 178 670 665
          118 179 671 667 120 180
          181 121 122 182 183 123
          122 182 183 123 124 184
          185 125 121 181 186 126
          123 183 187 127 123 183
          187 127 125 185 188 128
          126 186 189 129 127 187
          190 130 127 187 190 130
          128 188 191 131 129 189
          192 132 130 190 193 133
          130 190 193 133 131 191
          194 134 132 192 195 135
          133 193 196 136 133 193
          196 136 134 194 197 137
          135 195 198 138 136 196
          199 139 136 196 199 139
          137 197 200 140 138 198
          201 141 139 199 202 142
          139 199 202 142 140 200
          203 143 141 201 204 144
          142 202 205 145 142 202
          205 145 143 203 206 146
          144 204 207 147 145 205
          208 148 145 205 208 148
          146 206 209 149 147 207
          210 150 148 208 211 151
          148 208 211 151 149 209
          212 152 150 210 213 153
          151 211 214 154 151 211
          214 154 152 212 215 155
          153 213 216 156 154 214
          217 157 154 214 217 157
          155 215 218 158 156 216
          219 159 157 217 220 160
          157 217 220 160 158 218
          221 161 159 219 222 162
          160 220 223 163 160 220
          223 163 161 221 224 164
          162 222 225 165 163 223
          226 166 163 223 226 166
          164 224 227 167 165 225
          228 168 166 226 229 169
          166 226 229 169 167 227
          230 170 168 228 231 171
          169 229 232 172 169 229
          232 172 170 230 233 173
          171 231 234 174 172 232
          235 175 172 232 235 175
          173 233 236 176 174 234
          237 177 175 235 238 178
          175 235 238 178 176 236
          239 179 177 237 672 669
          178 238 673 670 178 238
          673 670 179 239 674 671
          180 240 241 181 182 242
          243 183 182 242 243 183
          184 244 245 185 181 241
          246 186 183 243 247 187
          183 243 247 187 185 245
          248 188 186 246 249 189
          187 247 250 190 187 247
          250 190 188 248 251 191
          189 249 252 192 190 250
          253 193 190 250 253 193
          191 251 254 194 192 252
          255 195 193 253 256 196
          193 253 256 196 194 254
          257 197 195 255 258 198
          196 256 259 199 196 256
          259 199 197 257 260 200
          198 258 261 201 199 259
          262 202 199 259 262 202
          200 260 263 203 201 261
          264 204 202 262 265 205
          202 262 265 205 203 263
          266 206 204 264 267 207
          205 265 268 208 205 265
          268 208 206 266 269 209
          207 267 270 210 208 268
          271 211 208 268 271 211
          209 269 272 212 210 270
          273 213 211 271 274 214
          211 271 274 214 212 272
          275 215 213 273 276 216
          214 274 277 217 214 274
          277 217 215 275 278 218
          216 276 279 219 217 277
          280 220 217 277 280 220
          218 278 281 221 219 279
          282 222 220 280 283 223
          220 280 283 223 221 281
          284 224 222 282 285 225
          223 283 286 226 223 283
          286 226 224 284 287 227
          225 285 288 228 226 286
          289 229 226 286 289 229
          227 287 290 230 228 288
          291 231 229 289 292 232
          229 289 292 232 230 290
          293 233 231 291 294 234
          232 292 295 235 232 292
          295 235 233 293 296 236
          234 294 297 237 235 295
          298 238 235 295 298 238
          236 296 299 239 237 297
          675 672 238 298 676 673
          238 298 676 673 239 299
          677 674 240 300 301 241
          242 302 303 243 242 302
          303 243 244 304 305 245
          241 301 306 246 243 303
          307 247 243 303 307 247
          245 305 308 248 246 306
          309 249 247 307 310 250
          247 307 310 250 248 308
          311 251 249 309 312 252
          250 310 313 253 250 310
          313 253 251 311 314 254
          252 312 315 255 253 313
          316 256 253 313 316 256
          254 314 317 257 255 315
          318 258 256 316 319 259
          256 316 319 259 257 317
          320 260 258 318 321 261
          259 319 322 262 259 319
          322 262 260 320 323 263
          261 321 324 264 262 322
          325 265 262 322 325 265
          263 323 326 266 264 324
          327 267 265 325 328 268
          265 325 328 268 266 326
          329 269 267 327 330 270
          268 328 331 271 268 328
          331 271 269 329 332 272
          270 330 333 273 271 331
          334 274 271 331 334 274
          272 332 335 275 273 333
          336 276 274 334 337 277
          274 334 337 277 275 335
          338 278 276 336 339 279
          277 337 340 280 277 337
          340 280 278 338 341 281
          279 339 342 282 280 340
          343 283 280 340 343 283
          281 341 344 284 282 342
          345 285 283 343 346 286
          283 343 346 286 284 344
          347 287 285 345 348 288
          286 346 349 289 286 346
          349 289 287 347 350 290
          288 348 351 291 289 349
          352 292 289 349 352 292
          290 350 353 293 291 351
          354 294 292 352 355 295
          292 352 355 295 293 353
          356 296 294 354 357 297
          295 355 358 298 295 355
          358 298 296 356 359 299
          297 357 678 675 298 358
          679 676 298 358 679 676
          299 359 680 677 300 360
          361 301 302 362 363 303
          302 362 363 303 304 364
          365 305 301 361 366 306
          303 363 367 307 303 363
          367 307 305 365 368 308
          306 366 369 309 307 367
          370 310 307 367 370 310
          308 368 371 311 309 369
          372 312 310 370 373 313
          310 370 373 313 311 371
          374 314 312 372 375 315
          313 373 376 316 313 373
          376 316 314 374 377 317
          315 375 378 318 316 376
          379 319 316 376 379 319
          317 377 380 320 318 378
          381 321 319 379 382 322
          319 379 382 322 320 380
          383 323 321 381 384 324
          322 382 385 325 322 382
          385 325 323 383 386 326
          324 384 387 327 325 385
          388 328 325 385 388 328
          326 386 389 329 327 387
          390 330 328 388 391 331
          328 388 391 331 329 389
          392 332 330 390 393 333
          331 391 394 334 331 391
          394 334 332 392 395 335
          333 393 396 336 334 394
          397 337 334 394 397 337
          335 395 398 338 336 396
          399 339 337 397 400 340
          337 397 400 340 338 398
          401 341 339 399 402 342
          340 400 403 343 340 400
          403 343 341 401 404 344
          342 402 405 345 343 403
          406 346 343 403 406 346
          344 404 407 347 345 405
          408 348 346 406 409 349
          346 406 409 349 347 407
          410 350 348 408 411 351
          349 409 412 352 349 409
          412 352 350 410 413 353
          351 411 414 354 352 412
          415 355 352 412 415 355
          353 413 416 356 354 414
          417 357 355 415 418 358
          355 415 418 358 356 416
          419 359 357 417 681 678
          358 418 682 679 358 418
          682 679 359 419 683 680
          360 420 421 361 362 422
          423 363 362 422 423 363
          364 424 425 365 361 421
          426 366 363 423 427 367
          363 423 427 367 365 425
          428 368 366 426 429 369
          367 427 430 370 367 427
          430 370 368 428 431 371
          369 429 432 372 370 430
          433 373 370 430 433 373
          371 431 434 374 372 432
          435 375 373 433 436 376
          373 433 436 376 374 434
          437 377 375 435 438 378
          376 436 439 379 376 436
          439 379 377 437 440 380
          378 438 441 381 379 439
          442 382 379 439 442 382
          380 440 443 383 381 441
          444 384 382 442 445 385
          382 442 445 385 383 443
          446 386 384 444 447 387
          385 445 448 388 385 445
          448 388 386 446 449 389
          387 447 450 390 388 448
          451 391 388 448 451 391
          389 449 452 392 390 450
          453 393 391 451 454 394
          391 451 454 394 392 452
          455 395 393 453 456 396
          394 454 457 397 394 454
          457 397 395 455 458 398
          396 456 459 399 397 457
          460 400 397 457 460 400
          398 458 461 401 399 459
          462 402 400 460 463 403
          400 460 463 403 401 461
          464 404 402 462 465 405
          403 463 466 406 403 463
          466 406 404 464 467 407
          405 465 468 408 406 466
          469 409 406 466 469 409
          407 467 470 410 408 468
          471 411 409 469 472 412
          409 469 472 412 410 470
          473 413 411 471 474 414
          412 472 475 415 412 472
          475 415 413 473 476 416
          414 474 477 417 415 475
          478 418 415 475 478 418
          416 476 479 419 417 477
          684 681 418 478 685 682
          418 478 685 682 419 479
          686 683 420 480 481 421
          422 482 483 423 422 482
          483 423 424 484 485 425
          421 481 486 426 423 483
          487 427 423 483 487 427
          425 485 488 428 426 486
          489 429 427 487 490 430
          427 487 490 430 428 488
          491 431 429 489 492 432
          430 490 493 433 430 490
          493 433 431 491 494 434
          432 492 495 435 433 493
          496 436 433 493 496 436
          434 494 497 437 435 495
          498 438 436 496 499 439
          436 496 499 439 437 497
          500 440 438 498 501 441
          439 499 502 442 439 499
          502 442 440 500 503 443
          441 501 504 444 442 502
          505 445 442 502 505 445
          443 503 506 446 444 504
          507 447 445 505 508 448
          445 505 508 448 446 506
          509 449 447 507 510 450
          448 508 511 451 448 508
          511 451 449 509 512 452
          450 510 513 453 451 511
          514 454 451 511 514 454
          452 512 515 455 453 513
          516 456 454 514 517 457
          454 514 517 457 455 515
          518 458 456 516 519 459
          457 517 520 460 457 517
          520 460 458 518 521 461
          459 519 522 462 460 520
          523 463 460 520 523 463
          461 521 524 464 462 522
          525 465 463 523 526 466
          463 523 526 466 464 524
          527 467 465 525 528 468
          466 526 529 469 466 526
          529 469 467 527 530 470
          468 528 531 471 469 529
          532 472 469 529 532 472
          470 530 533 473 471 531
          534 474 472 532 535 475
          472 532 535 475 473 533
          536 476 474 534 537 477
          475 535 538 478 475 535
          538 478 476 536 539 479
          477 537 687 684 478 538
          688 685 478 538 688 685
          479 539 689 686 480 540
          541 481 482 542 543 483
          482 542 543 483 484 544
          545 485 481 541 546 486
          483 543 547 487 483 543
          547 487 485 545 548 488
          486 546 549 489 487 547
          550 490 487 547 550 490
          488 548 551 491 489 549
          552 492 490 550 553 493
          490 550 553 493 491 551
          554 494 492 552 555 495
          493 553 556 496 493 553
          556 496 494 554 557 497
          495 555 558 498 496 556
          559 499 496 556 559 499
          497 557 560 500 498 558
          561 501 499 559 562 502
          499 559 562 502 500 560
          563 503 501 561 564 504
          502 562 565 505 502 562
          565 505 503 563 566 506
          504 564 567 507 505 565
          568 508 505 565 568 508
          506 566 569 509 507 567
          570 510 508 568 571 511
          508 568 571 511 509 569
          572 512 510 570 573 513
          511 571 574 514 511 571
          574 514 512 572 575 515
          513 573 576 516 514 574
          577 517 514 574 577 517
          515 575 578 518 516 576
          579 519 517 577 580 520
          517 577 580 520 518 578
          581 521 519 579 582 522
          520 580 583 523 520 580
          583 523 521 581 584 524
          522 582 585 525 523 583
          586 526 523 583 586 526
          524 584 587 527 525 585
          588 528 526 586 589 529
          526 586 589 529 527 587
          590 530 528 588 591 531
          529 589 592 532 529 589
          592 532 530 590 593 533
          531 591 594 534 532 592
          595 535 532 592 595 535
          533 593 596 536 534 594
          597 537 535 595 598 538
          535 595 598 538 536 596
          599 539 537 597 600 687
          538 598 601 688 538 598
          601 688 539 599 602 689
          687 600 603 690 688 601
          604 691 688 601 604 691
          689 602 605 692 690 603
          693 694 691 604 695 696
          691 604 695 696 692 605
          697 698 606 541 540 607
          608 543 542 609 608 543
          542 609 610 545 544 611
          699 606 607 700 701 608
          609 702 701 608 609 702
          703 610 611 704 612 546
          541 606 613 547 543 608
          613 547 543 608 614 548
          545 610 705 612 606 699
          706 613 608 701 706 613
          608 701 707 614 610 703
          615 549 546 612 616 550
          547 613 616 550 547 613
          617 551 548 614 708 615
          612 705 709 616 613 706
          709 616 613 706 710 617
          614 707 618 552 549 615
          619 553 550 616 619 553
          550 616 620 554 551 617
          711 618 615 708 712 619
          616 709 712 619 616 709
          713 620 617 710 621 555
          552 618 622 556 553 619
          622 556 553 619 623 557
          554 620 714 621 618 711
          715 622 619 712 715 622
          619 712 716 623 620 713
          624 558 555 621 625 559
          556 622 625 559 556 622
          626 560 557 623 717 624
          621 714 718 625 622 715
          718 625 622 715 719 626
          623 716 720 561 558 624
          721 562 559 625 721 562
          559 625 722 563 560 626
          723 720 624 717 724 721
          625 718 724 721 625 718
          725 722 626 719 726 564
          561 720 727 565 562 721
          727 565 562 721 728 566
          563 722 729 567 564 726
          730 568 565 727 730 568
          565 727 731 569 566 728
          732 570 567 729 733 571
          568 730 733 571 568 730
          734 572 569 731 735 573
          570 732 736 574 571 733
          736 574 571 733 737 575
          572 734 738 576 573 735
          739 577 574 736 739 577
          574 736 740 578 575 737
          741 579 576 738 742 580
          577 739 742 580 577 739
          743 581 578 740 744 582
          579 741 745 583 580 742
          745 583 580 742 746 584
          581 743 627 585 582 744
          628 586 583 745 628 586
          583 745 629 587 584 746
          747 627 744 748 749 628
          745 750 749 628 745 750
          751 629 746 752 630 588
          585 627 631 589 586 628
          631 589 586 628 632 590
          587 629 753 630 627 747
          754 631 628 749 754 631
          628 749 755 632 629 751
          633 591 588 630 634 592
          589 631 634 592 589 631
          635 593 590 632 756 633
          630 753 757 634 631 754
          757 634 631 754 758 635
          632 755 636 594 591 633
          637 595 592 634 637 595
          592 634 638 596 593 635
          759 636 633 756 760 637
          634 757 760 637 634 757
          761 638 635 758 639 597
          594 636 640 598 595 637
          640 598 595 637 641 599
          596 638 642 639 636 759
          643 640 637 760 643 640
          637 760 644 641 638 761
          762 642 759 763 764 643
          760 765 764 643 760 765
          766 644 761 767 645 600
          597 639 646 601 598 640
          646 601 598 640 647 602
          599 641 648 645 639 642
          649 646 640 643 649 646
          640 643 650 647 641 644
          768 648 642 762 769 649
          643 764 769 649 643 764
          770 650 644 766 651 603
          600 645 652 604 601 646
          652 604 601 646 653 605
          602 647 654 651 645 648
          655 652 646 649 655 652
          646 649 656 653 647 650
          771 654 648 768 772 655
          649 769 772 655 649 769
          773 656 650 770 657 693
          603 651 658 695 604 652
          658 695 604 652 659 697
          605 653 660 657 651 654
          661 658 652 655 661 658
          652 655 662 659 653 656
          774 660 654 771 775 661
          655 772 775 661 655 772
          776 662 656 773 777 778
          693 657 779 780 695 658
          779 780 695 658 781 782
          697 659 783 777 657 660
          784 779 658 661 784 779
          658 661 785 781 659 662
          786 783 660 774 787 784
          661 775 787 784 661 775
          788 785 662 776
        </DataArray>
        <DataArray type="Int64" Name="offsets" format="ascii" RangeMin="8" RangeMax="3616">
          8 16 24 32 40 48
          56 64 72 80 88 96
          104 112 120 128 136 144
          152 160 168 176 184 192
          200 208 216 224 232 240
          248 256 264 272 280 288
          296 304 312 320 328 336
          344 352 360 368 376 384
          392 400 408 416 424 432
          440 448 456 464 472 480
          488 496 504 512 520 528
          536 544 552 560 568 576
          584 592 600 608 616 624
          632 640 648 656 664 672
          680 688 696 704 712 720
          728 736 744 752 760 768
          776 784 792 800 808 816
          824 832 840 848 856 864
          872 880 888 896 904 912
          920 928 936 944 952 960
          968 976 984 992 1000 1008
          1016 1024 1032 1040 1048 1056
          1064 1072 1080 1088 1096 1104
          1112 1120 1128 1136 1144 1152
          1160 1168 1176 1184 1192 1200
          1208 1216 1224 1232 1240 1248
          1256 1264 1272 1280 1288 1296
          1304 1312 1320 1328 1336 1344
          1352 1360 1368 1376 1384 1392
          1400 1408 1416 1424 1432 1440
          1448 1456 1464 1472 1480 1488
          1496 1504 1512 1520 1528 1536
          1544 1552 1560 1568 1576 1584
          1592 1600 1608 1616 1624 1632
          1640 1648 1656 1664 1672 1680
          1688 1696 1704 1712 1720 1728
          1736 1744 1752 1760 1768 1776
          1784 1792 1800 1808 1816 1824
          1832 1840 1848 1856 1864 1872
          1880 1888 1896 1904 1912 1920
          1928 1936 1944 1952 1960 1968
          1976 1984 1992 2000 2008 2016
          2024 2032 2040 2048 2056 2064
          2072 2080 2088 2096 2104 2112
          2120 2128 2136 2144 2152 2160
          2168 2176 2184 2192 2200 2208
          2216 2224 2232 2240 2248 2256
          2264 2272 2280 2288 2296 2304
          2312 2320 2328 2336 2344 2352
          2360 2368 2376 2384 2392 2400
          2408 2416 2424 2432 2440 2448
          2456 2464 2472 2480 2488 2496
          2504 2512 2520 2528 2536 2544
          2552 2560 2568 2576 2584 2592
          2600 2608 2616 2624 2632 2640
          2648 2656 2664 2672 2680 2688
          2696 2704 2712 2720 2728 2736
          2744 2752 2760 2768 2776 2784
          2792 2800 2808 2816 2824 2832
          2840 2848 2856 2864 2872 2880
          2888 2896 2904 2912 2920 2928
          2936 2944 2952 2960 2968 2976
          2984 2992 3000 3008 3016 3024
          3032 3040 3048 3056 3064 3072
          3080 3088 3096 3104 3112 3120
          3128 3136 3144 3152 3160 3168
          3176 3184 3192 3200 3208 3216
          3224 3232 3240 3248 3256 3264
          3272 3280 3288 3296 3304 3312
          3320 3328 3336 3344 3352 3360
          3368 3376 3384 3392 3400 3408
          3416 3424 3432 3440 3448 3456
          3464 3472 3480 3488 3496 3504
          3512 3520 3528 3536 3544 3552
          3560 3568 3576 3584 3592 3600
          3608 3616
        </DataArray>
        <DataArray type="UInt8" Name="types" format="ascii" RangeMin="12" RangeMax="12">
          12 12 12 12 12 12
          12 12 12 12 12 12
          12 12 12 12 12 12
          12 12 12 12 12 12
          12 12 12 12 12 12
          12 12 12 12 12 12
          12 12 12 12 12 12
          12 12 12 12 12 12
          12 12 12 12 12 12
          12 12 12 12 12 12
          12 12 12 12 12 12
          12 12 12 12 12 12
          12 12 12 12 12 12
          12 12 12 12 12 12
          12 12 12 12 12 12
          12 12 12 12 12 12
          12 12 12 12 12 12
          12 12 12 12 12 12
          12 12 12 12 12 12
          12 12 12 12 12 12
          12 12 12 12 12 12
          12 12 12 12 12 12
          12 12 12 12 12 12
          12 12 12 12 12 12
          12 12 12 12 12 12
          12 12 12 12 12 12
          12 12 12 12 12 12
          12 12 12 12 12 12
          12 12 12 12 12 12
          12 12 12 12 12 12
          12 12 12 12 12 12
          12 12 12 12 12 12
          12 12 12 12 12 12
          12 12 12 12 12 12
          12 12 12 12 12 12
          12 12 12 12 12 12
          12 12 12 12 12 12
          12 12 12 12 12 12
          12 12 12 12 12 12
          12 12 12 12 12 12
          12 12 12 12 12 12
          12 12 12 12 12 12
          12 12 12 12 12 12
          12 12 12 12 12 12
          12 12 12 12 12 12
          12 12 12 12 12 12
          12 12 12 12 12 12
          12 12 12 12 12 12
          12 12 12 12 12 12
          12 12 12 12 12 12
          12 12 12 12 12 12
          12 12 12 12 12 12
          12 12 12 12 12 12
          12 12 12 12 12 12
          12 12 12 12 12 12
          12 12 12 12 12 12
          12 12 12 12 12 12
          12 12 12 12 12 12
          12 12 12 12 12 12
          12 12 12 12 12 12
          12 12 12 12 12 12
          12 12 12 12 12 12
          12 12 12 12 12 12
          12 12 12 12 12 12
          12 12 12 12 12 12
          12 12 12 12 12 12
          12 12 12 12 12 12
          12 12 12 12 12 12
          12 12 12 12 12 12
          12 12 12 12 12 12
          12 12 12 12 12 12
          12 12 12 12 12 12
          12 12 12 12 12 12
          12 12 12 12 12 12
          12 12 12 12 12 12
          12 12
        </DataArray>
      </Cells>
    </Piece>
  </UnstructuredGrid>
</VTKFile>
