<?xml version="1.0"?>
<VTKFile type="UnstructuredGrid" version="0.1" byte_order="LittleEndian" header_type="UInt32" compressor="vtkZLibDataCompressor">
  <UnstructuredGrid>
    <Piece NumberOfPoints="795" NumberOfCells="454">
      <PointData>
        <DataArray type="Int32" Name="libmesh_node_id" format="ascii" RangeMin="2220" RangeMax="4979">
          2220 2221 2222 2223 2224 2225
          2226 2227 2228 2229 2230 2231
          2388 2389 2390 2391 2392 2393
          2394 2395 2396 2397 2398 2399
          2402 2405 2408 2409 2410 2411
          2463 2464 2465 2466 2467 2468
          2469 2470 2471 2472 2473 2474
          2475 2476 2477 2478 2479 2480
          2499 2500 2501 2502 2503 2504
          2505 2506 2507 2508 2509 2510
          2511 2512 2513 2514 2515 2516
          2517 2518 2519 2520 2521 2522
          2613 2614 2616 2617 2618 2620
          2621 2622 2624 2652 2653 2654
          2655 2656 2657 2658 2659 2660
          2661 2662 2663 2697 2701 2705
          2721 2722 2723 2724 2725 2726
          2736 2737 2738 2739 2740 2741
          2742 2743 2744 2745 2746 2747
          2748 2749 2750 2751 2752 2753
          2754 2755 2756 2757 2758 2759
          2760 2761 2762 2763 2764 2765
          2778 2779 2780 2781 2782 2783
          2784 2785 2786 2862 2863 2864
          2865 2866 2867 2868 2869 2870
          2871 2872 2873 2922 2923 2924
          2925 2926 2927 2940 2941 2942
          2943 2944 2945 2946 2947 2948
          2958 2959 2960 2961 2962 2963
          2964 2965 2966 2967 2968 2969
          2992 2993 2996 2997 3000 3001
          3018 3019 3020 3021 3022 3023
          3036 3039 3040 3043 3044 3047
          3060 3061 3062 3063 3064 3065
          3066 3067 3068 3069 3070 3071
          3072 3073 3074 3075 3076 3077
          3180 3181 3182 3183 3184 3185
          3204 3205 3206 3207 3208 3209
          3240 3242 3244 3258 3260 3262
          3273 3274 3275 3276 3277 3278
          3279 3280 3281 3282 3283 3284
          3285 3286 3287 3288 3289 3290
          3291 3292 3293 3294 3295 3296
          3297 3298 3299 3348 3349 3350
          3351 3352 3353 3354 3355 3356
          3357 3358 3359 3360 3361 3362
          3363 3364 3365 3369 3370 3371
          3372 3373 3374 3399 3400 3401
          3402 3403 3404 3405 3406 3407
          3408 3409 3410 3411 3412 3413
          3414 3415 3416 3417 3418 3419
          3420 3421 3422 3462 3463 3464
          3486 3487 3488 3489 3490 3491
          3507 3508 3509 3510 3511 3512
          3527 3530 3533 3534 3535 3536
          3555 3556 3557 3558 3559 3560
          3561 3562 3563 3579 3580 3581
          3594 3595 3596 3597 3598 3599
          3603 3604 3605 3606 3607 3608
          3621 3622 3623 3624 3625 3626
          3627 3628 3629 3642 3643 3644
          3645 3646 3647 3648 3649 3650
          3651 3652 3653 3669 3670 3671
          3672 3673 3674 3675 3676 3677
          3678 3679 3680 3681 3682 3683
          3750 3751 3752 3753 3754 3755
          3756 3757 3758 3759 3760 3761
          3780 3781 3782 3783 3784 3785
          3909 3910 3911 3912 3913 3914
          3915 3916 3917 3918 3919 3920
          3951 3952 3953 3966 3967 3968
          3975 3976 3977 3978 3979 3980
          3981 3982 3983 3984 3985 3986
          3987 3988 3989 3990 3991 3992
          4008 4009 4010 4011 4012 4013
          4014 4015 4016 4017 4018 4019
          4020 4021 4022 4023 4024 4025
          4026 4027 4028 4029 4030 4031
          4041 4042 4043 4044 4045 4046
          4047 4048 4049 4050 4051 4052
          4068 4069 4070 4080 4081 4082
          4092 4093 4094 4095 4096 4097
          4098 4099 4100 4101 4102 4103
          4122 4123 4124 4125 4126 4127
          4146 4147 4148 4149 4150 4151
          4152 4153 4154 4155 4156 4157
          4158 4159 4160 4173 4174 4175
          4176 4177 4178 4179 4180 4181
          4182 4183 4184 4188 4189 4190
          4194 4195 4196 4197 4198 4199
          4200 4201 4202 4203 4204 4205
          4218 4219 4220 4221 4222 4223
          4230 4231 4232 4266 4267 4268
          4281 4282 4283 4299 4300 4301
          4305 4306 4307 4308 4309 4310
          4311 4312 4313 4335 4336 4337
          4341 4342 4343 4395 4396 4397
          4455 4456 4457 4473 4474 4475
          4476 4477 4478 4515 4516 4517
          4578 4579 4580 4581 4582 4583
          4614 4615 4616 4704 4705 4706
          4707 4708 4709 4710 4711 4712
          4713 4714 4715 4737 4738 4739
          4740 4741 4742 4821 4822 4823
          4842 4843 4844 4845 4846 4847
          4854 4855 4856 4857 4858 4859
          4860 4861 4862 4863 4864 4865
          4866 4867 4868 4875 4876 4877
          4878 4879 4880 4908 4909 4910
          4914 4915 4916 4932 4933 4934
          4941 4942 4943 4977 4978 4979
          2400 2401 2403 2404 2406 2407
          2615 2619 2623 2698 2699 2700
          2702 2703 2704 2706 2707 2708
          2991 2994 2995 2998 2999 3002
          2331 2330 2335 2334 2339 2338
          3241 3243 3245 3259 3186 3188
          3261 3189 3191 3263 3192 3194
          3448 3450 3452 3525 3526 3528
          3529 3531 3532 3537 3538 3539
          3540 3541 3542 3654 3657 3660
          2328 2332 2336 3852 3853 3854
          3993 3994 3995 4338 4339 4340
          3513 3514 3515 4458 4321 4459
          4324 4460 4327 4584 4585 4586
          4587 4588 4589 4791 4792 4793
          4794 4795 4796 4797 4798 4799
          4431 4432 4433 3495 3187 3499
          3190 3503 3193 3954 3957 3958
          3961 3962 3965 4899 4900 4901
          4968 4969 4970 4911 4912 4913
          3498 3502 3506 4902 4903 4904
          4434 4436 4438
        </DataArray>
        <DataArray type="Float64" Name="resid_x" format="ascii" RangeMin="-1.8480878376436678" RangeMax="2.115359928542782">
          0.013414638069037643 0.015693206418054828 -0.014082340406186944 -0.03091922275920389 0.027113976024407904 -0.0010818155002105811
          -0.05710978619861784 -0.0334570810435082 -0.02311204093016528 -0.028642748833740406 -0.024241769050268758 -0.0023534540427494477
          0.0059807273618179835 -0.0002881703282398007 -0.0001829925045822023 0.00007083876584967896 0.007617934703561424 -0.005712097831343854
          -0.00321306034733837 -0.005248889710405713 -0.015180974688529858 -0.01769089798428869 -0.016667475669244425 -0.018502919031833542
          -0.013166988536735147 -0.01875914051814931 -0.013798197094624598 -0.014406844918852357 -0.01881883950219887 -0.013002978924953723
          -0.008107990268936605 0.024142763930540073 0.004466351287907178 0.0766937886150879 -0.029659322213578698 0.03666023818742814
          0.004383971784441387 0.004940552685709587 0.019695482020567923 0.011411917801082527 0.011984824784677217 0.004867572161219247
          0.011559374789790411 -0.0005556672513029604 -0.019158294572023227 -0.02899124917325313 -0.028008469176365125 -0.02260271598512653
          0.0026644696639710475 0.0038110354854206108 -0.0031144439871111373 0.0012666611586751308 -0.0031117169999692607 -0.0013216683798811246
          -0.004452259800340919 0.004550203330168756 -0.029556336511666892 -0.023988062317410908 -0.017425310421655738 -0.014505174460710979
          -0.00025107416471037425 0.0013892800260926208 0.006327520778772744 0.0037709134395420563 -0.004601352447146212 -0.006377266563012185
          -0.0010298523624507894 -0.005715778910156288 -0.02289550233551685 -0.029296357299216425 -0.02814934028200433 -0.028298054316742594
          -0.0018228652007765689 -0.04272024907266081 0.004259984837295505 -0.008241834332774367 -0.07665763369535172 0.00909580537877197
          -0.023930606876633398 -0.043509280656873095 -0.015846935944518137 0.0022815318853899313 -0.0007938704838039712 0.0017988011155268824
          0.0007249752377447294 0.0012070482027297658 -0.0015741292789677175 0.0026259297226620126 -0.0006687148264834519 -0.018619205573438435
          -0.008751494739213328 -0.021097366317513244 -0.0204952053641847 -0.012930332920463083 -0.020465378608256923 -0.021119588656295374
          -0.03826858380836606 -0.005051714350067016 -0.05453366969317641 0.009702864053538818 -0.02720098541842564 -0.03381615764709167
          -0.001113118698033766 0.0047383967303709085 0.0028710724479115157 0.006219564796958288 0.003580813784934911 -0.0009137176771014666
          -0.01238901034235429 -0.021226636860108172 -0.015258433587187703 -0.012462134813522208 0.0013609826119331814 -0.012214580864767122
          -0.018228364853383194 -0.01927191731879907 -0.00023530016057637937 -0.034503810487212405 -0.025978855694893 -0.031130056798231664
          -0.027928237501140707 -0.04514391456666367 -0.03499549288408421 -0.009005516679752468 -0.01718677627552534 -0.0033661763391839017
          -0.006220457710890415 0.005479720214553563 -0.0053004245726038235 -0.02447714265259382 -0.008200673302091843 -0.020120653785705045
          -0.018224405253064013 -0.009940375241895172 -0.007585263709506407 -0.0006529377581241391 0.009508977709203226 0.0009549444825829312
          -0.006357708415744234 -0.007932303253673556 -0.030548038713485326 -0.019505084328056643 -0.007984982954448494 0.0008645085093552385
          -0.022142720861724863 -0.009597978478212976 -0.0022685164647611167 -0.002110360747296036 -0.02480972279529503 -0.03892127007898161
          -0.01710817653338914 -0.018544750039910823 -0.04908493629925559 0.0005302743007478128 -0.003945187110534931 0.0025915173013055792
          -0.005533071183723592 -0.018053436716247262 -0.019627635338852478 -0.006115473784004344 0.006491789187366592 0.011773786917927076
          -0.00783898773463676 -0.021585012645717327 0.031920166598514044 -0.03612374865852974 -0.07508323349934543 -0.016436541797474113
          -0.011181453844252953 0.00813904144872346 -0.0066248357865328344 -0.009689506786862978 0.00018878655573661973 -0.0014078994253168275
          -0.023260621121631964 -0.02030453804470156 -0.020877454936889084 -0.030541512007024707 -0.04051911005783637 -0.04574099792485242
          0.003314804145616357 -0.11720285074136116 -0.07250135056745677 -0.30311061709556464 -0.06735615110393223 -0.22507649364300875
          -0.01890077942584778 0.03932847373530901 -0.010646962772996815 0.0919547906621263 -0.0457026859703582 0.05696616388914766
          -0.01789585764041668 -0.01384800618671811 -0.023055951472773728 -0.017524315937476942 -0.01467750636122922 -0.01179910629864267
          -0.011463975915691371 -0.022904962130883 0.05509182889158115 -0.0017924128065858191 -0.03154112435841938 -0.042917348709712755
          0.13358020754902 0.000868818436917218 -0.01413517539635123 0.00027426327911328485 0.06424840011452115 -0.03210899156234537
          -0.010576638091797541 -0.00812530526587274 0.0008115936846442295 -0.005445752292628114 -0.023080019725382428 -0.029941120011990563
          -0.008578481906190205 -0.005637907807400033 0.010320135215239445 -0.005570089685194901 -0.001242231618987344 -0.011612827036419304
          -0.021245960735093217 -0.017866429500037917 -0.017747747149163384 -0.032921130767203266 -0.016451665504437774 -0.02840626309034633
          0.229848828816559 0.5237361246068382 0.31291845702169496 0.17983422461646192 0.07390374259550114 -0.0860977574571109
          -0.029570990925044782 0.00843590817903106 -0.07850018357060762 -0.04808127079589575 -0.005641613902137799 0.022422693003813166
          -0.08999686578681576 -0.017163273221266984 -0.012552795282442908 -0.0043633326523533356 -0.018306175890806742 -0.020864305591149268
          -0.016992670756923678 -0.01031720666052749 -0.009866418039094604 -0.01878631469465525 -0.0067540191342576605 -0.005173069473106029
          -0.0238292149556647 -0.01803939907529717 -0.022815710944154688 -0.006930376979485509 -0.008496248515480254 -0.0024822623629096874
          -0.0013384123831050587 -0.011421469436544651 -0.019470462147485712 -0.05056633938958921 0.027390479620160946 0.01452608673623601
          0.0003576977382975244 0.0009160444542599677 -0.009815510065178223 -0.01351075567795501 -0.0017773664462206185 0.0018884314966065574
          -0.01712459905777486 -0.013611988168084288 -0.014514044946788651 -0.015905832934107522 -0.02891645628003925 -0.026464769340826422
          -0.017599998063656308 -0.01671545385270168 -0.03308185987297296 -0.0781893282860997 -0.025693608965638326 -0.009747822801795536
          -0.004100850357061425 0.03152458029494731 -0.007195134050581586 0.33551096501781963 -0.09000016130640098 0.6458060180989982
          -0.19064378507011437 0.28112504150592876 -0.11787136086278682 -0.03051753478553465 -0.024926405416161757 0.0006819243015865339
          -0.000574398524517683 -0.02385844902857137 -0.020005302273622405 -0.01219849839218412 -0.017991947315007195 0.005811814606800247
          -0.00876866660777642 -0.010776983837427423 -0.019136889922659606 -0.03488568198016484 -0.009949754426009427 0.0013673800352798082
          0.008787321629918132 -0.00445521973686791 -0.022230428788084566 -0.026598783251449376 -0.012522204182681351 -0.022444154764455382
          -0.0317491627195432 -0.007116353281240162 0.004091782716812098 0.032377888301408086 -0.008227356985186063 -0.015697450333667984
          -0.026608712368683007 -0.04255196070583844 -0.01887396511814976 -0.04234943419267978 -0.03570659692089617 -0.03151488280615511
          -0.013914710703010869 -0.022348925036970613 -0.020680092411857753 -0.023267097899037914 0.003534807981974808 -0.021652917909688263
          -0.02224732013454256 -0.010619021054903754 -0.004625236515478415 0.00035160044055349005 -0.014954673570758859 -0.009836199607938134
          -0.015571869201353117 -0.002436349530984927 -0.014977159665059858 -0.06329793336601419 -0.07969835148272608 -0.0484626544162996
          -0.030190570918948723 -0.02366524370234835 0.0026533910097086277 0.0020514048629429738 -0.02001131176532489 -0.019855335798385276
          -0.026705605015446388 -0.009526600024343246 -0.006313595591250554 -0.0005148440150763989 -0.015593018968419248 -0.018188823899706996
          -0.01658043895936423 -0.016069315342324586 -0.0072095304452197695 0.0026317031835878524 -0.0067568505169983695 0.02318504198883886
          -0.013855183670973936 -0.017338388014419337 -0.005754512073766982 -0.004989165757791625 -0.0012924078551903584 -0.0030703314436060225
          -0.008968018099500874 -0.00458520139382923 -0.0016798586349602296 0.00006233731493132666 -0.010092576590454705 -0.02216715752463916
          -0.011994502423405606 -0.012153167131831566 -0.026199993121979404 0.003086139841203206 0.00290810506389505 0.0025295231921287353
          0.0051031228762647984 0.0015674269093084447 0.002551221317141028 -0.006986595853103239 -0.004550451945678269 -0.023904727919966895
          -0.032013431618868715 -0.026578582928519445 -0.02862429884575768 -0.020301841132641663 -0.0014000325916665446 -0.021876714927930863
          -0.004912795575255702 -0.009349864343423775 -0.0023859228958098555 -0.00563598893977435 -0.02456933277486062 -0.02092592494694223
          0.00524283550106297 -0.024461825993659758 0.0067067269155858256 -0.052523990048106484 -0.047830744864008956 -0.054757309413949073
          -0.0058017760541897445 -0.00895832742608793 0.0015864311776603301 -0.0018341388624568689 -0.020934359317855034 -0.023284440934475792
          -0.010321379961538923 -0.019061620615739905 -0.004072134463761756 -0.008364382151756722 -0.02326656556136797 -0.025339897271167366
          -0.008912653067752352 -0.009410030960260052 -0.0037415048594340305 -0.00710973087114164 -0.01936488909697065 -0.01750261295205746
          -0.04123548987194248 -0.01978684696311994 -0.0303725324875872 -0.026739216544789723 0.0035447702558677463 -0.018025636572062353
          -0.0016625665906406795 -0.011674277125288235 -0.01653403635612838 -0.011240905286600267 0.002667016889645879 -0.01245164084431405
          -0.014774292274695178 -0.003231449856093249 -0.02436984567283762 -0.01582911153639266 -0.025984312850669156 -0.023062455527655956
          -0.025605776352413123 -0.01630737618781186 -0.0281827475802503 0.00011147953543311218 -0.021574378706675557 -0.007615343986707046
          -0.021391902646008987 -0.01121756375937899 -0.0006930027958489404 -0.012728352282622701 -0.04578182123164076 -0.027410392356493674
          0.00005165241296634093 -0.02741147529431931 -0.027324650521007854 -0.022656433768343476 -0.00731470348647445 -0.018581196300850422
          -0.01651165148948408 -0.011401010065465123 -0.016442657056169097 -0.012938210510412773 -0.017596183791866338 -0.021495545466120092
          -0.011189235212359705 -0.010956720112803353 -0.014554436542640659 -0.018073722209249077 -0.0034344775669588046 -0.026594088076235423
          -0.04624269302048312 -0.018479300395320974 -0.030488288179778777 -0.010289508845795603 -0.02989347072918669 -0.02758806235378297
          -0.0319234915302582 -0.02282833906136794 -0.013167804791447857 -0.009329362161164312 -0.03655183289121666 -0.026445431120807328
          -0.022393324241011037 0.0003943412839717553 -0.02253479718124396 -0.029645174732062074 0.006175362742848023 -0.008895212953282439
          -0.011206498842221801 -0.006966500329452785 -0.002266993436563336 -0.006327349876246835 -0.013242443252624359 -0.009028577914417468
          -0.023689235904297945 -0.027052982510234358 -0.010654580847922368 -0.03362391076482396 -0.016747214198283622 -0.021825205471497355
          -0.021480565434365495 -0.01816002550781448 -0.028820828835492307 -0.028108960959723817 -0.023169979584739764 -0.024596129918194265
          -0.01572489171630309 -0.020267295827681053 -0.010947583374989911 -0.02160964296207002 -0.006712699272780398 -0.013874301703618919
          -0.024010766728247646 -0.024658758434058292 -0.01613969165194451 -0.04185313588216921 -0.029565461730460818 -0.02558416527043228
          -0.011275165936743825 -0.034062309385186396 -0.027413662948553963 -0.014527325240814903 -0.012324953843086295 -0.008622741916350485
          -0.011216203677207215 -0.019734794156192947 -0.01916437977983465 -0.03482590169629418 -0.015173756244302616 0.000015005109022858676
          -0.006401308780581871 -0.020329593366058774 -0.010999726431577095 -0.02279668197296303 -0.02449082978408157 -0.020271707496335445
          0.0226913974015166 -0.020374954097750475 0.007684037341462613 0.012146858555955653 0.04129085222635975 -0.051895891923158466
          -0.001010378314716398 0.01951553136433759 0.0066482640551477346 0.033819382567644496 0.01602710240577654 0.0020284649356794304
          0.08544216436359697 0.16217793027959537 -0.047903676528407324 0.036695983923809905 -0.13558641276378314 -0.1550565676407949
          -0.006524277271338086 0.001053972012170945 -0.0015970116756385266 -0.005853975429696234 0.0033560437952635525 -0.011348606598587274
          -0.01214198951456158 0.004520255818277086 -0.02190413707119898 -0.011364107520859257 -0.008022426909467306 -0.018197200957325244
          -0.02544678380087939 -0.005713623505542387 -0.021901053946374205 -0.015421236715344122 -0.01428705817354503 0.0031653523121049076
          -0.003011784912704929 -0.01488911509667723 -0.014844202435446263 -0.019738482459440654 -0.0016863496187662363 -0.01554831825847458
          -0.05719909084782948 -0.05915501782876298 -0.05064946997740005 -0.01758869350821257 -0.020098427635034 -0.0184299887141659
          -0.028469274421626167 -0.031051507521038246 -0.023040566470111656 -0.01541954788776323 -0.015134795615361796 -0.015082398011300846
          -0.018502725728548164 -0.017316301953012037 -0.02031246258302488 -0.02245685361006844 0.0021633395963749358 -0.014341290723348887
          -0.00918774260379962 -0.0018479483403952557 -0.012138159063578513 -0.021668169885055377 -0.006667471837471517 -0.009506828585229776
          -0.010199565500554009 0.004804980730468422 -0.005328062807332223 -0.21979534418382762 -0.2456821881778275 -0.09521262674688291
          -0.018000044122532977 0.0719531303659231 0.07942741631181782 0.27096147999662445 0.07075460573343229 0.3290573285944136
          0.040417278933716716 0.011053628715646191 -0.05891547033251765 -0.016293570432772686 -0.005329647377453561 0.0008083367738844771
          0.0004100132182029981 -0.012518822281194275 -0.005569417790769471 -0.06903846998056995 -0.11713154771982914 -0.09686580558507352
          -0.024476178778852997 -0.030733258984847467 -0.021950751167338467 -0.0222660536087691 -0.026826698407642624 -0.041584715185421395
          0.07311069130559122 -0.010767282424224867 0.10222991261761649 0.006181229284128342 0.015050427684827561 -0.0056438835144039246
          0.0049534717234989145 0.005082310567856574 0.008159728159498059 0.010113171487354577 0.002101200104289269 0.036747995614879514
          0.009853603368283448 0.001319845122291774 0.0033009245143311716 0.01578934597069237 0.029129920031380152 0.03517233781372209
          0.04599852510375868 0.004111546986839354 -0.00931099545266445 -0.006197770322596607 0.0017788889176904021 -0.014649613247429194
          -0.03160758855807577 0.000028562194815950903 0.002897023846069935 -0.010277371134171709 0.008884277586784783 0.0014587906028258324
          0.02146199113698133 0.05985244217140684 -0.01392851484557367 -0.013891405096661202 -0.00016383798100205738 -0.0029303284066055646
          -0.011171037240300663 -0.001380695707463353 -0.015526637894840434 -0.0020158447012921243 -0.014862074162307337 -0.011459328159031834
          -0.003055128464986012 -0.017122316278420868 -0.0522360215185369 -0.006746849859450066 -0.014447120804476299 -0.005066915737181432
          -0.009955316180409568 -0.012521080833177933 -0.012706688320104575 -0.01347433026957745 -0.01650823636272669 -0.021209285084500706
          0.001189688003785605 -0.11070982454228595 0.07914073963093315 -0.20189584412069728 0.041468914832424986 -0.17624836565051805
          0.006490225985456899 0.022111465876488046 0.02035782356578153 0.021443299837975438 -0.006593346159334157 -0.019886424493545718
          -0.17571432348704263 -0.34955247017442304 -0.18653428028802654 0.3905660482198794 0.4954266541967378 1.0638254906923255
          0.14415618914738637 1.333188536484256 2.115359928542782 -0.0025794843264366207 0.5768098095510208 0.8195329496291031
          -0.044170957863799654 -0.07618360766039345 -0.0708035319767868 -0.011598443921487345 -0.007455429114584078 -0.02981287278241851
          -0.01530173234225174 -0.028145674761827166 -0.022247353542390158 0.03651043827735023 -0.07536237944592639 0.017393320939682155
          -0.09990287241661377 -0.03344844577509054 -0.04962980727036914 0.004409085086336084 -0.002412028341000294 -0.013672879205749666
          -0.008386071748271995 -0.01591832468193033 0.001985847079470915 -0.07693336267696527 -0.13334268414626393 -0.06147045743000046
          -0.006993256420738447 -0.005009836992153183 -0.01116151664489351 -0.0008736687355712647 -0.00008748410927417183 -0.011790078681034544
          -0.07150527765852033 -0.01835267612602287 0.03318054636815937 -0.009503827471948334 -0.006102298924417937 -0.02137063729418287
          -0.01564800580173653 -0.02145283145865573 -0.018794957127198586 -0.00942081511978543 0.0014088571277577344 -0.03023100403806467
          -0.08993612464398026 -0.011179424337241173 -0.0709761066845882 -0.03310255258219463 -0.016091202999353627 -0.023146358862288885
          -0.021524324531116967 -0.14141342373567767 -0.042264791596156925 -0.3369823024465717 0.04659938812031239 -0.14116011716886945
          -0.01790544569427066 -0.022065603199656003 -0.02218803216423426 -0.10615027966514035 -0.9685519012905637 -0.2936629359661467
          -1.8480878376436678 -0.2256942248615772 -0.69972664510966 -0.020224452099524726 -0.038271874365474634 -0.027048755389945
          -0.043294214221909044 0.0016995299756956683 -0.01354488382321506 -0.012985832899218508 -0.06137871704095588 -0.06808295350077387
          -0.013943423929382526 -0.023608654241820126 -0.015254851752989573 -0.07572983578075743 -0.05640892372707995 -0.019428484294101267
          0.08589453505869038 0.1588815506364618 0.036229824645499065 -0.012594998376352251 -0.019446134106786417 -0.017646493782455863
          -0.008688468727479304 -0.01514984358378868 -0.0017247365370796075
        </DataArray>
        <DataArray type="Float64" Name="resid_y" format="ascii" RangeMin="-1.0365459452688544" RangeMax="1.0594446619213642">
          0.00879213548896559 -0.002593140460083701 -0.0056542439211049456 0.0003243345188078395 0.014551999526128293 0.0006905932748195315
          0.0072831440099582895 -0.01190975801256787 0.0241224270600217 0.011654435732870559 0.017116616049702618 0.016635531035937512
          -0.000301733470578297 0.0027184862656188247 0.0010060767972591145 0.0013779827758134133 -0.0008428427085378498 0.0059044176262678105
          0.0029702753824790706 0.009219080886038233 0.0038150145243269207 0.00501056790354551 0.004998532481770845 0.010010377911698565
          0.003939673171220737 0.006847396155431534 0.004141047572937401 0.004237299017046725 0.004735568869331908 0.0016820639032189555
          0.009618728698453878 -0.001818343195639921 0.005222753838482849 -0.014254286811913958 0.025071114948455406 0.035594183780583474
          -0.0021299498777447544 -0.0010997967136390507 -0.0034967188004772637 -0.0026911753507307505 0.00373032939074764 0.0004644961916187018
          -0.00037031037106576015 0.003039025523595964 0.014212764676866696 0.011691826902008928 0.006385912489559095 0.010533480616434325
          -0.0013927036323810177 -0.001940552472156687 -0.003477699560359787 -0.007026742175707208 0.0037491163309424647 0.0030823168823328195
          0.00030565532896116576 -0.0053890895396971825 0.01754246042248958 0.014362346348833016 0.011591723034811638 0.010950607963498407
          -0.00001557014133865553 -0.0006306510934592502 -0.0012250680160026395 -0.0012334849808853798 0.002509578888753611 0.003790840945545465
          0.0018246772651483167 0.0055781997380270065 0.009620153338858989 0.01345168603720015 0.01394405309139174 0.014039698469955952
          0.003817678288190046 0.013694186750204423 0.00518028084330039 0.006116292809638435 0.030005897153348143 0.009412083731006077
          0.004805613780784618 0.01882988911043293 0.008001280868965899 -0.00583113785211211 0.0020065030715587934 -0.0017687155835348356
          -0.0021244302615436583 -0.010688937463016442 0.0021915105046237254 -0.001063646662837897 0.0034180400695903446 0.0039020326866459204
          0.004345907925619286 0.008964542783679252 0.011222277123751373 0.008369456906762524 0.01750884971039207 0.012041720621816271
          0.009996387451278108 -0.012149654280273377 0.021104500417097674 -0.020748025209617656 0.017795480352872997 0.010365421496790983
          0.001840770038177536 0.0027168641600756535 -0.00405472517992668 0.0005367358197428951 0.003868672574282736 -0.025197806420264174
          0.011745181967090165 0.012329660034901407 0.003083579117119692 -0.004260176028221457 0.002095555906346462 0.002124620755409111
          0.0010212621397373278 0.008406496242893427 0.009861423670859772 0.008439564004547054 0.006965147505976044 0.019951274734263988
          0.02126800876815818 0.02282885000441264 0.016490666719002803 0.004038463674500725 0.004992567909823747 0.00711523639454472
          -0.0023435805235611524 0.002208226378470332 0.0034995165439982573 0.011365831879031209 0.010204788825059763 0.01120095445578223
          0.013627598693276954 0.007849499808302362 0.007009619158411667 0.009790454462244108 0.016374974793136685 0.01266992435283068
          0.008468069563537517 0.016962948835276485 0.02370583895270674 0.028405078749203616 0.002942010180626828 0.0018969874546306206
          0.0127532478465356 0.00813561134334701 -0.0025692882732120947 0.006806083044180525 0.013351095472650704 0.01636874223281773
          0.0065696242893246645 0.013063171614585513 0.024018364098145603 0.001437653051205079 0.00676978454277008 -0.0003979273507091763
          0.002414648094300309 0.007587111600603998 0.005529088189590026 0.014143636843753082 -0.0002988521416294465 -0.009160278449364845
          0.007678337443451699 0.00331806629617154 -0.009275173687740168 0.007831427467331953 0.008166740972621822 0.009842811017784586
          0.010371426361385883 -0.0017122080272619356 -0.011866157787411555 0.007322856759893526 0.015324649755584674 0.010067193470557609
          -0.020989693201973372 0.011082054238362976 0.001911894593164487 0.017589691522141765 -0.0006906340466944494 0.01274319575953864
          0.08359216423404377 0.12545981616430785 0.13365289492025667 0.2645541360532926 0.07292738987830141 0.11639430078985624
          0.02673100103298488 0.01648106128342075 0.018142918560576954 0.053780169299644805 0.0231104248989081 0.02655931907749337
          0.0014360855115156113 -0.0001772331744840927 -0.009261678876436058 -0.006289774779382449 -0.0011624655748807833 0.00034189903083896083
          -0.01628144744286153 -0.020343918294755084 -0.09399167327513097 0.005520859607274192 -0.0277106891761833 -0.040047539441974506
          -0.21025472036619547 -0.006349914739429141 -0.006046743533289101 -0.01751094661073786 -0.1038810950597297 0.018296038319630004
          0.00601486709457822 0.0009751731728440127 0.0033822076269426973 0.0075510799731479394 0.005014050734384219 0.012844639602020036
          0.013279561857443029 -0.002313439676609972 0.00993202589024414 -0.011965906194393265 0.00627321250331872 0.000029731470464004414
          0.006151097692480248 -0.004511160965249568 -0.00011152039712482298 -0.012058496354831388 0.006277955715304609 0.0016372861400395372
          -0.13632017290258447 -0.25472617139492204 -0.05355312151351216 0.04892522663663518 0.039931797538235225 0.008115489693905409
          -0.012273956573439982 0.012056757100663645 0.027808096848942032 0.014813953683555203 -0.006391235764155505 0.027135619985595633
          0.030894845303667928 0.005775038822279033 0.01353155557248635 -0.0006158667676076923 0.018091078115409498 0.003915252771042432
          0.008788126952792116 0.008970793888953457 0.009774557783658155 0.0033237574484373256 0.0036040228233400057 0.006235527814928532
          0.008246200065748374 0.009887473575109797 0.010971548139126056 0.004858803221402794 0.000049711710615740756 0.007654505866299385
          0.0014800900504264372 0.007742408204685813 0.009099895023175888 0.0009249160178431692 -0.009054827203147875 0.01590943223313565
          -0.0007980243721485702 -0.0006090316962021058 -0.0022672569839070345 0.002382042871436868 -0.0009020145472038721 0.004536616613886074
          0.0014933800100761715 0.004841617326326611 0.006735066470760137 0.011756510543866339 0.010910687216762867 0.013162115073379804
          0.008721730398391858 0.008250274171357791 0.009449998041329843 -0.00468955262452575 -0.02353749281616141 0.0017764215939955474
          0.021378406802130046 0.020710615632082013 0.001031749928163378 -0.04011229656926674 0.22063576850660568 -0.10193581828356077
          0.4266175501398139 -0.022578061447714737 0.21748137289794447 -0.017033640711474396 0.00881430256970489 -0.029456856433580425
          0.016843442897399752 -0.008432499751595476 0.01474446716358857 0.005314848466625638 0.004817021185632708 0.003938986195631641
          0.007687553377831766 0.009177897456530235 0.014140408524929884 -0.007665014113935904 0.0022321732060677285 -0.008805728792256025
          -0.0005363663235911139 0.010626873227650014 0.011712982521524888 0.016601274396653362 0.011450822962150178 0.017117598026250846
          0.006609978206877795 0.026006326799183896 -0.01844607433067623 0.021179571699278338 -0.014156146685171359 0.016164874238750432
          0.008932809660440869 0.024861113397128664 0.006004957826995699 0.02967081969472709 0.019518771715870457 0.026295261000725767
          0.003080851602952017 -0.0017535803589634053 0.001638253265528855 0.0034464708253427734 -0.0006159258679932778 0.003735946148704039
          0.006918689697550891 0.009390877156525278 -0.016362181197459247 0.003646785511952841 0.0032298875830606873 0.005930836413158892
          0.005007444988000931 -0.0025689568011551672 0.0017197218307439394 0.045493869080332316 0.047983701012790314 0.022570390620550995
          0.01084088287148885 0.0008682585235483334 0.003970479097819515 -0.0045129595385223 0.008712756526865706 0.0002831605614040597
          0.013211180851246548 0.006618517031474168 0.008440633456600795 0.005662080986035795 0.014579551289691059 0.01303919739957457
          0.013800368537403008 0.01629325899666274 0.008841822606533108 0.015521398388198509 0.00285627776753199 -0.0031048526644243193
          0.0139993648165838 0.007369464787475978 0.003078693491391185 0.0036004424247615407 0.0004781578087703353 0.006439696090773717
          0.004718746821058495 -0.0007638582998813204 -0.0017047262827483423 0.007766034805593652 0.008622808399354726 0.0035814801935839524
          0.0016960807727212368 0.008862162106541893 0.015437595036125351 0.00125509683908398 0.00404455788531485 -0.000404975137088634
          -0.0023886292470841966 0.0035658103878172254 0.009625246677005914 0.0007376705739687434 -0.0013132225426155386 0.009261504028751033
          0.017544329810033468 0.006850823771587262 0.006441963945449269 0.00883311733951811 -0.000643300883060291 0.007455805816063477
          0.00798629397787809 0.007256851766923041 0.002693440121391305 -0.00015422045962593112 0.009827081657809683 0.005252635953424546
          -0.00040774656554636024 0.0035840916166007923 -0.0029674926559282097 0.009106563092577956 -0.004628515175206321 0.003789433606831526
          0.008116291188254021 0.006948194819149711 0.0027760544327224135 -0.0022735208790611444 0.009890153525559636 0.0058403039558169445
          0.007984488440698656 0.019155838981566087 0.000848226126271806 0.00680059681840281 0.005654603777503153 0.007352214961100945
          0.0037808116989111046 0.001107589747396845 0.001957187186209061 0.0034796765003746732 0.008151821221216188 0.005147492666456532
          0.011995998372126145 0.007874671323655297 0.0141467229109433 0.007269406447164811 -0.004446314302008092 0.004726196854695219
          0.008358239537081674 0.007182274862488236 0.005403903096493627 -0.002284896014898924 0.005759355421915496 0.011278242453496068
          0.005885002384440091 -0.006815912234557853 0.013825237344381541 0.012372212592633977 0.012011095974995702 0.0018098744007683798
          0.008527781485681202 0.005342559881114262 0.0074353224586292815 -0.0012825370668408803 0.005134328995541906 0.00023919749679178481
          -0.004005635511820392 -0.004051727864343359 0.0008426326931733757 0.0013555783539315122 -0.0049301143522913204 -0.0072089492229187035
          0.002219769536132274 0.0074650735806216575 0.0020450325580500736 0.0009772059523174975 0.004859755672813701 0.009153249675901816
          0.011951463784276695 0.0057028000018674585 -0.002807620143602113 0.01999214233293134 0.011017925304613624 -0.0061100461363889635
          0.011753393549676569 0.006147076469564333 -0.0013632863794688366 0.0061737782243369566 0.0013630817166982445 0.009864997473334802
          0.029040577327012485 0.033001654158425583 0.006185814715445926 0.03531266109679997 0.007183019608702289 0.025232544263190465
          0.012702724096108703 -0.0012645910692305334 0.0039657306272125855 -0.004080280400932293 0.016762498251834162 0.008073345338697052
          0.0180671973922385 0.0026856112428459145 0.006417115916474536 0.013921546711480014 0.0009474882037644322 0.004864502453664453
          0.003961410644337637 0.0025269099571960107 0.003032224022271518 0.002236650466141271 0.006878076139618966 0.0032498886452453357
          0.005380707414032321 0.004011740779658476 0.0034275978469518187 0.0070038679751354554 0.005237989228886505 0.00615830987436633
          0.009290377947932915 0.011596675374720533 0.005276707337142236 0.008354226420315178 0.004183820416178277 0.0072097853965480685
          0.008383288450256127 0.0054058761434937486 -0.0011933831537056239 0.005204845529728136 0.0007476342271254821 0.0003240184973480331
          0.008576781472156708 0.009311485146839465 0.00620791889621275 0.01952444181210558 0.007568050242051705 0.016660020992908336
          0.0016484147950945327 0.020108617544042834 0.010491856514383502 0.010236989151391554 0.007027188596163456 0.006825236629066825
          0.006219566102152886 0.0055962150312209025 0.008268669981349452 0.020781360845463392 0.00450349308044401 0.013287993609879256
          0.0024089197033427545 0.015192144025998167 0.002964349388525106 0.0016849987647356984 -0.004958343686917638 0.002891915810327928
          0.02132711426488204 0.01993437991446534 0.005410878148605303 0.006389792743300517 0.04082174001395106 0.041368696838040786
          0.04053917334300286 0.018061519627482252 0.01854871297779548 0.002177026459291964 0.019210199720335108 0.012887718412556266
          0.051700751824177105 0.028676373859431753 0.08683015683900039 0.004393611763970157 0.014811589932370209 0.001780668570854002
          0.004214684448044653 0.002592588453059673 0.002979720671648846 0.010653939020747877 0.002931433435390346 0.006042586273329986
          0.011970442506116369 0.0026951113249611552 0.009655613640222577 0.0100673557322484 0.012778027414032167 0.010017405784559397
          0.01316032332439207 -0.0023700244327990866 0.005227443535197898 0.01095712495138243 0.01585102464294874 0.004015048672666041
          0.007787767542489568 0.011007464699741128 0.01112875295435252 0.020963589080685373 0.011831905034620512 0.012037894423398244
          0.0007438916830057041 0.0018540969399852836 0.005380937176454936 0.009131312538262465 0.010179971184536618 0.006769875467774994
          0.007927088954285039 0.0008612681169850589 -0.005291008569202504 0.007097445910549394 0.00409659621272257 0.011225872460575659
          0.0008991496538024446 0.009896439808750435 0.0028037925047209034 -0.003725576040145541 -0.012565176452038859 -0.0010310210853371818
          0.007232779821274127 0.0002900301527674065 0.0032801690300361397 0.016079386932358955 0.004841548569233772 0.004951318294894078
          0.008244188836400601 0.0017514929718183692 0.002226105114628729 -0.056095543376270374 -0.07601064578155353 -0.019636085143445725
          0.010588983011086517 -0.014766503572480716 -0.022478738449603797 0.0300775718824583 0.01590573540830198 -0.02085071526947227
          0.004151072810762491 -0.03605556390362477 -0.0033413398565648456 0.011041447885128106 0.001913742288782716 0.0015320574954914151
          -0.00010976419884450861 0.00798745927858921 0.0019104629272092832 0.014647770884029465 0.018121313878084563 0.02699992189412402
          0.008854893460725613 0.006069879583290111 0.0054291419291461335 -0.009264883327779652 0.000051022968806171964 -0.0024287338620472415
          -0.06966249473157868 -0.006214875115511831 -0.1552511312080536 0.022194346784757568 -0.08974727798876853 0.024930121816030132
          -0.0009897607226321131 0.0030980769614012 0.003936595838876098 0.004033932121843442 -0.000789704976344785 0.004242251781726582
          0.0015725088503029533 0.006174192384834992 0.005500868414328883 0.0027898961425058127 0.013718051289397898 0.0023900731174106224
          0.0047734295402115596 0.0010932393693771567 0.0014547501853212907 0.054366146302859686 0.10365314882667641 0.048365324179816774
          0.012605497358987111 -0.008753712969725186 0.005384534649211584 0.0057119290190296435 0.002139932361274244 0.0006209573171982452
          0.012289456232073254 0.01847260893554281 0.006456921110787911 0.01186686537406538 0.007024817441494316 0.004720055488741617
          0.0034403478029159107 0.0010017303241716125 0.0035428317960117806 0.0035326139893293584 0.001736600890519635 0.0028819361087868978
          -0.01086561444124548 -0.007444774420882816 -0.0017402111209546822 -0.0017602503607230813 0.006388337316293791 0.0060143136647465845
          -0.0023483964734744567 0.0022634467376977385 0.004604220065425296 0.0032119362623602155 0.003984717283744332 0.000029393641707620155
          0.011328741863662471 -0.05540696871384315 0.04096458743412515 -0.08119340797039026 0.002971937464988944 -0.03668893084223368
          0.006590843596051961 -0.007839857967701064 0.019102143934291632 -0.02674819902231132 0.009866717821924512 -0.016880824217619203
          -0.13702296043202716 -0.2778535471503709 -0.11447978459047775 0.01515869377968529 -0.6797816348369172 0.7271874637908551
          0.07717228222877959 -1.0365459452688544 1.0594446619213642 0.021532447606478836 -0.38882898505489494 0.42614577552271216
          0.0059175786369776995 0.0225722848787005 0.013876070698283116 0.004817089457364407 0.0062468171163750225 0.009352480904768645
          0.005388520443256939 0.004628338608019408 0.004661752308364409 0.0196400374406573 -0.002849528869421969 0.02066508932220753
          0.018007203488141776 0.007190578346993201 0.030175136245858714 0.005765940499681099 0.01219305698449269 0.00691661354361639
          0.008674730524727219 0.013396737459989599 -0.0068618650808898425 -0.037263550012533744 -0.07116781682404369 -0.04391414944376695
          0.006977110561556921 0.008771199124713608 0.004955363555695813 0.008823516047625657 0.011057741851375952 0.0066404087102886755
          -0.010800067976848404 -0.026352954741010737 0.01324323742069633 0.008669106576856545 0.0008917745644309027 0.0162436158559216
          0.005033275258470193 0.00971234275265409 0.008080051844578662 0.00957678445877716 -0.005108436934307264 0.03522710513646654
          -0.018721654873658122 0.04182475213144177 -0.010373569836452629 0.002569309637480678 -0.014641887481580768 -0.015372907607295636
          0.02633965278793507 -0.010102073618437898 0.07289615061823185 -0.03467113640364101 0.03498012516373471 -0.025908429799115104
          0.008920385444720402 0.02042763000337844 0.01766253647925023 -0.021050439210383076 0.5237786514807095 -0.022918584018544075
          0.7870223596285467 0.043393592728682984 0.16455686414754972 -0.0005400292597497053 0.0018240142080434944 0.0018990609360135247
          -0.004357422322924777 0.0032431389656643883 -0.0011968798368267586 -0.06331462737809843 -0.15172212320582168 -0.100467805986308
          0.009672971638211597 0.011351378391818656 0.0032210843991427804 -0.034597181789705334 -0.06517196826355282 -0.0614672823459492
          0.0723457497266104 0.0997464184797503 0.053828318678968756 0.005509253129922731 0.0027898398126383894 0.003213780498587504
          -0.004345840267924644 -0.008616280848244395 -0.005072016417323952
        </DataArray>
        <DataArray type="Float64" Name="resid_z" format="ascii" RangeMin="0" RangeMax="0">
          0 0 0 0 0 0
          0 0 0 0 0 0
          0 0 0 0 0 0
          0 0 0 0 0 0
          0 0 0 0 0 0
          0 0 0 0 0 0
          0 0 0 0 0 0
          0 0 0 0 0 0
          0 0 0 0 0 0
          0 0 0 0 0 0
          0 0 0 0 0 0
          0 0 0 0 0 0
          0 0 0 0 0 0
          0 0 0 0 0 0
          0 0 0 0 0 0
          0 0 0 0 0 0
          0 0 0 0 0 0
          0 0 0 0 0 0
          0 0 0 0 0 0
          0 0 0 0 0 0
          0 0 0 0 0 0
          0 0 0 0 0 0
          0 0 0 0 0 0
          0 0 0 0 0 0
          0 0 0 0 0 0
          0 0 0 0 0 0
          0 0 0 0 0 0
          0 0 0 0 0 0
          0 0 0 0 0 0
          0 0 0 0 0 0
          0 0 0 0 0 0
          0 0 0 0 0 0
          0 0 0 0 0 0
          0 0 0 0 0 0
          0 0 0 0 0 0
          0 0 0 0 0 0
          0 0 0 0 0 0
          0 0 0 0 0 0
          0 0 0 0 0 0
          0 0 0 0 0 0
          0 0 0 0 0 0
          0 0 0 0 0 0
          0 0 0 0 0 0
          0 0 0 0 0 0
          0 0 0 0 0 0
          0 0 0 0 0 0
          0 0 0 0 0 0
          0 0 0 0 0 0
          0 0 0 0 0 0
          0 0 0 0 0 0
          0 0 0 0 0 0
          0 0 0 0 0 0
          0 0 0 0 0 0
          0 0 0 0 0 0
          0 0 0 0 0 0
          0 0 0 0 0 0
          0 0 0 0 0 0
          0 0 0 0 0 0
          0 0 0 0 0 0
          0 0 0 0 0 0
          0 0 0 0 0 0
          0 0 0 0 0 0
          0 0 0 0 0 0
          0 0 0 0 0 0
          0 0 0 0 0 0
          0 0 0 0 0 0
          0 0 0 0 0 0
          0 0 0 0 0 0
          0 0 0 0 0 0
          0 0 0 0 0 0
          0 0 0 0 0 0
          0 0 0 0 0 0
          0 0 0 0 0 0
          0 0 0 0 0 0
          0 0 0 0 0 0
          0 0 0 0 0 0
          0 0 0 0 0 0
          0 0 0 0 0 0
          0 0 0 0 0 0
          0 0 0 0 0 0
          0 0 0 0 0 0
          0 0 0 0 0 0
          0 0 0 0 0 0
          0 0 0 0 0 0
          0 0 0 0 0 0
          0 0 0 0 0 0
          0 0 0 0 0 0
          0 0 0 0 0 0
          0 0 0 0 0 0
          0 0 0 0 0 0
          0 0 0 0 0 0
          0 0 0 0 0 0
          0 0 0 0 0 0
          0 0 0 0 0 0
          0 0 0 0 0 0
          0 0 0 0 0 0
          0 0 0 0 0 0
          0 0 0 0 0 0
          0 0 0 0 0 0
          0 0 0 0 0 0
          0 0 0 0 0 0
          0 0 0 0 0 0
          0 0 0 0 0 0
          0 0 0 0 0 0
          0 0 0 0 0 0
          0 0 0 0 0 0
          0 0 0 0 0 0
          0 0 0 0 0 0
          0 0 0 0 0 0
          0 0 0 0 0 0
          0 0 0 0 0 0
          0 0 0 0 0 0
          0 0 0 0 0 0
          0 0 0 0 0 0
          0 0 0 0 0 0
          0 0 0 0 0 0
          0 0 0 0 0 0
          0 0 0 0 0 0
          0 0 0 0 0 0
          0 0 0 0 0 0
          0 0 0 0 0 0
          0 0 0 0 0 0
          0 0 0 0 0 0
          0 0 0 0 0 0
          0 0 0 0 0 0
          0 0 0 0 0 0
          0 0 0 0 0 0
          0 0 0 0 0 0
          0 0 0 0 0 0
          0 0 0 0 0 0
          0 0 0 0 0 0
          0 0 0 0 0 0
          0 0 0
        </DataArray>
        <DataArray type="Float64" Name="stress_zz" format="ascii" RangeMin="-2975995.47798314" RangeMax="5247622.254099913">
          981387.8581519385 -114148.149107253 1270385.0754945409 2776104.454507375 974406.7907831572 -188658.93581681506
          1241453.0546667904 2623556.2900595306 967425.723414376 -263169.7225263772 1212521.0338390397 2471008.125611686
          -1268590.6981838224 -990345.9911176212 -1160833.0820169728 -559749.0147183686 -1342440.9691310017 -1058525.7948646168
          -1196159.4422721518 -647774.1772234682 -1416291.240078181 -1126705.5986116123 -1231485.8025273306 -735799.3397285675
          -799406.8843688983 -802380.0989383443 -805353.3135077901 -1138918.5427350053 -1078109.7885887483 -1017301.0344424914
          -158022.4836111731 1112055.6366390625 -204151.4016531131 1115445.9335458376 -250280.319695053 1118836.2304526125
          2187930.9069465846 1780284.350528817 2382550.9136071946 2901575.608488968 2163982.471318597 1756967.4045374726
          2399690.1785539235 2979355.6235839115 2140034.035690609 1733650.4585461286 2416829.4435006524 3057135.638678855
          122981.30647649395 186985.7393743402 1269119.192686541 1862292.2756654841 59910.05634767702 219749.9464760585
          1423195.63799067 2026668.5896707082 -3161.193781139933 252514.15357777677 1577272.083294799 2191044.903675932
          -2330036.6914402833 -1166507.13081998 297691.9853936797 298300.15855226154 -2371502.745588856 -1210234.2691944267
          276016.57489027636 258536.85645762898 -2412968.799737428 -1253961.4075688734 254341.16438687313 218773.55436299642
          1029537.3903796296 1055074.0418296803 502849.0976362377 1048665.4715052212 1050953.571683985 541430.4662633509
          1067793.5526308126 1046833.1015382889 580011.8348904641 1471732.2949004662 2052066.6670834757 1201934.9310983147
          585344.7552580645 1529451.9395221402 2123454.7705487288 1256830.3416862923 585900.3514541753 1587171.5841438142
          2194842.874013982 1311725.75227427 586455.9476502861 1096004.2102286578 1110926.3027963354 1125848.3953640133
          678503.4877374799 -647569.6692522899 621182.7340165733 -613767.7363576586 563861.9802956667 -579965.8034630273
          275422.21763947635 325341.75834621914 822190.6738424601 278157.1747026009 372148.67349001206 846431.5804782803
          280892.13176572527 418955.58863380505 870672.4871141005 253237.12795115402 -14001.368137133075 1155443.7208921327
          1072093.373907939 246499.7615795612 14458.431937829446 1148752.6766501537 1057770.1666134102 239762.3952079684
          42918.23201279197 1142061.6324081747 1043446.9593188815 709940.3382898743 2077212.3724317516 7766.212150349398
          795484.9819126918 2258367.585914073 -104123.36894747138 881029.6255355095 2439522.799396394 -216012.95004529203
          3747732.225418898 1691058.511660118 2148589.926781056 4030515.150926473 1699942.2361862378 2101531.2696192577
          4313298.076434047 1708825.9607123574 2054472.6124574586 -432754.11728539347 -1433872.5960369678 -1164641.1607678526
          -114147.47938459873 -367244.0896458286 -1604018.3113943217 -1235922.6028480218 -121150.932958446 -301734.06200626364
          -1774164.026751676 -1307204.0449281912 -128154.38653229315 253150.96646450908 1038111.9984213461 353205.73869068443
          971315.404361054 453260.51091685984 904518.810300762 1400257.560451546 1623208.0318543343 2990750.552341655
          1365188.2958179738 1701598.0919529626 3013834.590273695 1330119.0311844018 1779988.1520515913 3036918.628205736
          1925087.7791347806 221763.74733371334 1354759.6776125086 2754044.3663550015 1900026.5610751766 264914.91667812085
          1337497.476981024 2789036.748094124 1874965.343015572 308066.0860225284 1320235.2763495399 2824029.129833245
          -778873.6333015509 -1176156.9830766197 -1068474.7165903582 -1046132.8162090586 -1358075.7998791656 -916108.6493414972
          399989.9238163906 971537.2282067899 430185.8643325069 791242.4790852192 460381.804848623 610947.7299636487
          -136957.68304698583 -194050.37318486796 -63162.0660836359 -127411.05141517683 10633.550879714036 -60771.729645485815
          2733602.1021050997 2052989.8275275861 -47714.183213006705 -575886.4171742862 2703016.6805137536 2114106.194982004
          43903.5937480647 -599907.8007372511 2672431.258922407 2175222.5624364214 135521.37070913613 -623929.1843002159
          372338.1475761749 216747.6240925198 362216.2525090376 217224.98222360355 352094.35744190036 217702.3403546873
          1292812.3051299737 1545912.8064638409 1275814.5942224863 1487866.0672226024 1258816.8833149981 1429819.3279813637
          1149871.8330485332 1028043.1265575655 1124597.480577256 984748.1790723591 1099323.128105979 941453.2315871527
          -864681.2700823708 -477814.38904375973 -90947.50800514851 4423495.471639501 4095212.05416321 3766928.636686918
          151065.31212958362 1316591.1407210785 1523809.5872478548 473371.1870310043 236769.27074584228 1185220.0311878873
          1436468.6127347588 615095.6804399696 322473.22936210094 1053848.921654696 1349127.6382216627 756820.1738489349
          1915127.9493723316 2277206.61956179 2310735.9478060445 1890226.2018843314 2301932.4387921384 2336222.1935053207
          1865324.4543963317 2326658.2580224867 2361708.4392045974 347730.8246071549 378311.3169151576 92814.63881231697
          277549.1564593351 -162101.5469825208 176786.9960035126 2625470.1648753025 2555188.908216021 2484907.6515567396
          204628.1589466149 -172274.1099041992 -944182.3843182704 99847.06272101821 217502.68797916855 -162373.12778627273
          -820806.4205965033 129570.32510449515 230377.21701172215 -152472.14566834632 -697430.4568747364 159293.58748797205
          465423.22708797443 426599.24392600765 387775.26076404087 2016888.2051165164 1963035.175380788 1909182.1456450599
          2344.96793656656 -29084.390055936732 -60513.748048440015 -46543.19640397029 -2432629.110046416 -16075.167803495744
          -2106048.205411404 14392.860796978803 -1779467.3007763913 1710714.9108838546 1571839.8032708813 1751206.5625560454
          1637347.4231231005 1791698.2142282361 1702855.0429753195 542763.6745363167 843146.9860196731 375695.10153739655
          766248.6035784236 208626.5285384764 689350.221137174 335334.7259144664 -906369.2068639403 294058.2533324302
          -887224.949588587 252781.7807503941 -868080.6923132335 1426248.9349946738 1434207.9502580967 1442166.96552152
          -623093.5062038603 -1220961.3981396079 -594187.1628685388 -1206488.9010448786 -565280.8195332173 -1192016.4039501492
          -628464.8369398826 -149620.72270602305 -679661.5696900501 -326651.1733118306 -730858.3024402175 -503681.6239176383
          621939.0993126037 623131.2043066815 624323.3093007591 426560.8260680644 421372.9846321601 416185.1431962559
          -1490994.4790776626 -1798137.2294070926 -1482284.2486643111 -1986996.8722904606 -1473574.01825096 -2175856.515173828
          1174536.5098767309 1195308.1790559413 1216079.8482351515 1839845.8909487422 1783116.4837620002 1726387.0765752585
          1077018.9428472065 851209.8986875976 1085041.7254867884 875968.8673127443 1093064.5081263704 900727.8359378909
          1324812.8388216582 -665255.7239595586 1350724.7678490132 -647946.7763555262 1376636.6968763687 -630637.8287514935
          1244894.5115885139 -118742.37472520399 -1347759.3280312945 1245004.2632705693 -95316.01710846424 -1465237.4094614051
          1245114.0149526247 -71889.65949172457 -1582715.4908915153 -716987.9673140489 319301.04783145245 1275027.0058734678
          -733683.4234333527 -708563.7222554777 137278.77954057514 1094030.3105907214 -722993.7838209422 -700139.4771969067
          -44743.488750302175 913033.615307975 -712304.1442085316 360922.58349178045 406554.96367267135 813470.1115567747
          695845.493488712 413259.70806452597 372961.20513979916 792431.1233590186 699177.8022133922 465596.83263727155
          339367.44660692697 771392.1351612622 702510.1109380722 1248531.418774691 1188508.2269652253 1128485.0351557594
          799843.0726816049 -63917.11070816254 791120.9878401363 -211462.66996284496 782398.9029986676 -359008.22921752755
          673132.7365627146 608760.7634882556 687911.2989987985 601835.6964941606 702689.8614348823 594910.6295000656
          1542756.1583803028 574172.6643882903 1434590.061036069 496030.377186276 1326423.9636918348 417888.0899842617
          170466.58753284387 700702.7710784432 241094.65709990234 765819.3082660601 311722.72666696087 830935.8454536769
          -550582.6924068606 -150068.35428434674 -595865.6375733954 -184039.36436493666 -641148.58273993 -218010.3744455266
          1384725.043893056 1450183.5988513 1515642.1538095444 1183979.6465695442 1198046.6420077414 1212113.6374459383
          -319356.5118402591 -1856768.858523783 -135844.2527072793 404267.046111383 -312396.5299862682 -1874672.701603652
          -53202.99599853816 445494.04091837077 -305436.5481322772 -1892576.544683521 29438.260710202972 486721.0357253585
          534018.881526018 806829.0084576552 558293.7658009945 848078.1937101728 582568.6500759706 889327.3789626906
          284530.7752608722 112695.12174315489 30240.76526034525 512901.69681261794 250774.30125364318 117869.5627761635
          32345.539941669853 487311.0940186763 217017.8272464141 123044.0038091721 34450.314622994425 461720.49122473464
          -192713.4036458284 -531214.3157594892 -897188.8390618163 -187840.72142910497 -553028.1864017134 -971672.3846086665
          -182968.03921238155 -574842.0570439376 -1046155.9301555171 -319991.7233205959 -237349.26767200688 -154706.81202341773
          855069.9210551084 -335696.8475776974 806193.0736769369 -319903.08538237156 757316.2262987654 -304109.3231870456
          120162.07805858509 546576.0252088422 144538.08308001008 597110.9334995255 168914.088101435 647645.841790209
          949195.2142734344 909782.6342895451 870370.0543056558 1300998.6192798642 1376055.4285558003 1451112.2378317364
          1663526.8452941196 2714772.590491693 1715791.2970608748 2550778.81688761 1768055.7488276297 2386785.0432835263
          126698.33227316632 373813.06221870973 97862.96392359727 368720.2120579387 69027.59557402821 363627.3618971675
          1498113.4380943964 1574207.9422080005 1457262.3919116189 1542454.5169331187 1416411.3457288416 1510701.091658237
          1560463.1808594656 673514.4691143173 1714324.3565709642 1588119.6527346359 647774.3517384746 1758140.922275979
          1615776.124609806 622034.2343626318 1801957.487980994 248801.9464811667 89929.61113553506 258797.5290894792
          183351.8366461797 268793.1116977917 276774.06215682434 -1036308.694581319 -968313.9076444436 -1171809.3825537304
          -1100852.3167028332 -1307310.070526142 -1233390.7257612224 1110669.202292479 2315497.282614653 985473.9323389404
          2279544.5613080207 860278.6623854017 2243591.8400013885 254476.6044801733 271101.71035894554 287726.81623771787
          1976653.0169447602 1873303.9795457844 3107758.7955173375 2615680.057491163 1961456.5307605357 1715612.6064757996
          2994469.1064893566 2587378.995646685 1946260.044576311 1557921.2334058143 2881179.4174613752 2559077.933802207
          1913142.5604618248 1378195.2411994338 1905621.3007533962 1334440.6945488565 1898100.0410449677 1290686.1478982791
          -1272841.0859091945 -1293776.8863329191 -1314712.6867566437 3954617.9341269527 3939831.2983935433 3925044.662660134
          -105123.99477769254 -84925.46785455101 -64726.94093140948 493361.6234847675 595971.4733606814 698581.3232365955
          238839.60914248385 261590.48663336155 284341.3641242393 -1447063.3289767732 -1336359.741830982 -1389822.354507513
          -1471815.9678568025 -1332581.3800382528 -1607272.1938826228 -1641013.7187353026 -1684388.0899971034 -1727762.461258904
          1406864.5011361283 1400531.0999449287 1394197.6987537285 -1187807.7081959348 -1277781.9182690755 -1367756.1283422164
          883762.7825344208 894614.1994219323 905465.6163094438 236176.1500595066 1562434.13221675 128558.3322916314
          1475390.2937936485 20940.514523756166 1388346.455370547 1009244.5298409965 1043676.8502681013 1078109.170695206
          2631465.2846432477 2545091.160401553 2458717.036159859 -2471835.364021569 -2723915.421002355 -2975995.47798314
          2094052.7048497626 2333900.5445731776 2573748.384296593 17286.429334536428 80164.33363677945 143042.2379390223
          848558.5116719832 885598.7346459005 922638.9576198177 -399316.5911373425 -557704.54865268 -124964.72849390475
          -276469.94366126915 149387.13414953323 4764.661330141826 2291433.302680655 5099236.939959269 2271893.6482456382
          5173429.597029591 2252353.993810621 5247622.254099913 -141613.88466648565 -129314.1528495925 -117014.42103269935
          819792.015639012 801715.946280786 783639.8769225599 690720.2161291797 739851.4603840796 788982.7046389797
          -940527.9177172484 511517.0908564955 -922761.513514648 452129.0341279986 -904995.1093120475 392740.9773995017
          2763443.2449538554 2075571.1869942627 451615.8638397712 2722233.1328933374 1957310.878864289 619097.9509824483
          2681023.0208328194 1839050.5707343153 786580.0381251253 585407.8029285164 655497.0939135271 545318.9618452027
          668366.4099136927 505230.12076188903 681235.7259138584 -287750.9649574355 -298505.4448246244 -309259.9246918131
          2556655.5474605784 2413061.2951461053 2269467.0428316323 4536458.781508226 4390940.543560351 4245422.3056124775
          310473.78252224927 384386.2960444071 458298.809566565 -928583.723608499 -919717.8968110959 -910852.0700136926
          -1337106.7143593573 -581620.2535137364 -1413510.0056467678 -534087.9112049566 -1489913.2969341786 -486555.56889617676
          675239.6664672634 687284.2638033808 699328.861139498 1402504.7168275774 1486916.1606137808 3041398.813614805
          1371104.8566886233 1423830.3760264 3162584.3662796724 1339704.9965496687 1360744.591439019 3283769.918944539
          -400570.691019578 222348.54120579624 -534149.1027770322 230337.22788909264 -667727.5145344863 238325.9145723888
          684384.5558212054 239003.8611476241 642414.8899026307 232796.58085554434 600445.2239840564 226589.30056346458
          -650537.3790792177 -352172.22072773834 -53807.062376259244 3939142.9468365535 1705814.1501039416 1665648.623661902
          3552302.152490902 1074236.4496598854 1340785.8342881734 3165461.358145252 442658.74921582965 1015923.044914445
          124843.37174898977 106991.3540980365 89139.33644708322 56267.227181000926 344597.9682609957 -52043.62674903215
          333929.02216529904 -160354.4806790651 323260.0760696024 24897.984052494518 -862843.6008286319 -75390.08833956649
          -867329.342707872 -175678.16073162731 -871815.0845871125 1565022.2606247347 1589321.5035384973 1613620.7464522598
          847821.3595888879 822936.8304304742 798052.3012720605 554025.2270058938 575785.0962487857 597544.9654916776
          421464.98398122424 410375.3891632277 399285.794345231 564548.880843666 553317.1472002184 542085.4135567708
          -445163.33728352503 -591308.3292025371 -737453.3211215497 655928.5461402462 694468.7981907937 739411.7558002205
          698904.8773435267 822894.9654601945 703340.9564962597 4345026.866753887 3665189.430302646 4406911.184225574
          3789367.838318056 4468795.50169726 3913546.2463334664 1769976.3371952614 1771363.3660512655 1772750.3949072696
          -692053.3416696514 -678977.4120023053 -471220.7424808146 -418274.72439737874 -250388.14329197776 -157572.03679245233
          982431.6254978867 989334.2580076129 996236.8905173389 -148198.05443624547 2194877.8464588793 -215827.88115908147
          1555743.3925072784 -283457.707881917 916608.9385556774 801588.1459987931 717927.8241184923 910432.6414640155
          742761.2044502286 1019277.136929238 767594.5847819648 -1185895.6850950837 -1048346.6225397036 -910797.5599843235
          3384372.4657738693 3650357.6529874927 3916342.8402011152 1733771.5734735848 1707958.2914720436 1682145.0094705024
          -359485.88866458426 -417559.8116403526 -475633.73461612104 -124469.21844029502 -112453.0268240324 -100436.8352077697
          9012.556370416773 74822.01415048106 140631.47193054538
        </DataArray>
        <DataArray type="Float64" Name="peeq" format="ascii" RangeMin="0.0035564732888498317" RangeMax="0.008161518827328667">
          0.0058227683387711265 0.006332154189775329 0.006250654249325138 0.00579006625108658 0.0058200609702305 0.006328359736623044
          0.006247543417589801 0.00578740005787708 0.005817353601689874 0.00632456528347076 0.006244432585854462 0.00578473386466758
          0.004567754487886258 0.004125448868565126 0.004206344241343568 0.004723081276357208 0.004567732206434399 0.004124524614961325
          0.004206000536317761 0.004722926821185004 0.00456770992498254 0.004123600361357524 0.004205656831291954 0.004722772366012801
          0.0037035929670518534 0.0037039838785265953 0.0037043747900013368 0.0036868501504416047 0.003687553031500903 0.0036882559125602015
          0.005988924477738798 0.005488810935352894 0.005987105628689442 0.005488720420120247 0.005985286779640087 0.005488629904887599
          0.007672562796815706 0.007848201385679971 0.007665791970312069 0.007589045706049321 0.007670017066556893 0.00784607886751459
          0.007663878757723517 0.007586912255199235 0.00766747133629808 0.00784395634934921 0.007661965545134963 0.007584778804349151
          0.005113772171639459 0.005508307948919626 0.005744968358904765 0.005399675552240903 0.005112656294926146 0.005506232394419828
          0.005744222753034659 0.00539949798821419 0.005111540418212835 0.005504156839920032 0.0057434771471645526 0.005399320424187478
          0.004281048599059514 0.004569607986816518 0.004188302604181599 0.00398523846257835 0.004282127571190392 0.00456944337379084
          0.004189140352708719 0.003986394257904287 0.004283206543321269 0.004569278760765162 0.004189978101235838 0.003987550053230225
          0.007948116641374823 0.007895238677132942 0.007818132709834526 0.007947784731461797 0.00789498458668928 0.00781778344095788
          0.00794745282154877 0.007894730496245618 0.007817434172081231 0.007357184088251647 0.0076959657427620965 0.0076734227913115875
          0.0072044094853770165 0.007355575364594642 0.007693516528820762 0.007670200088324165 0.007202614442839929 0.007353966640937637
          0.007691067314879428 0.0076669773853367445 0.007200819400302841 0.006839752320124804 0.006838491978039508 0.006837231635954214
          0.006649489997476681 0.0064569660981599625 0.006645892979639346 0.0064544767724052125 0.006642295961802011 0.006451987446650464
          0.005524839336840709 0.0059658707095459704 0.005370671144515187 0.005522478050870527 0.005962807004645725 0.005369059634878694
          0.0055201167649003464 0.005959743299745481 0.005367448125242201 0.007194521200826265 0.007024316700095633 0.007218661887841621
          0.007406404569435301 0.0071915311189560465 0.0070227502120375675 0.007217348881792975 0.007404173149448223 0.007188541037085829
          0.007021183723979503 0.007216035875744329 0.007401941729461146 0.006255926122884529 0.005919238582903985 0.006101002475155725
          0.006255836941250226 0.0059189398114784485 0.006099103005234852 0.006255747759615923 0.005918641040052912 0.00609720353531398
          0.005654121358022761 0.005605323892680077 0.00503271329582142 0.005653731841374549 0.005603494983213849 0.005032124791181208
          0.005653342324726338 0.0056016660737476225 0.0050315362865409954 0.006653043130533479 0.0063759998089465714 0.006505104260895845
          0.006896316000621312 0.0066522451700621755 0.00637316652329433 0.006502540170283888 0.0068944656908500315 0.006651447209590873
          0.006370333237642087 0.006499976079671932 0.0068926153810787505 0.007408289358406707 0.0070678724276892506 0.007405425496007199
          0.00706459652708636 0.007402561633607691 0.007061320626483471 0.007760185032733123 0.007486210175700709 0.007389682235322813
          0.007758836325769266 0.0074860089678327555 0.0073891114370804 0.007757487618805407 0.0074858077599648 0.0073885406388379885
          0.0070136101746514565 0.00707760570880742 0.007408452320270138 0.007365764004099112 0.007013087959918677 0.0070759846381235605
          0.007405983275587709 0.007364523114463609 0.0070125657451858975 0.007074363567439701 0.007403514230905279 0.0073632822248281046
          0.004314513723966813 0.004514471899932838 0.004316304002221331 0.004516866767262516 0.004318094280475849 0.004519261634592195
          0.004958183570939414 0.005423506142621636 0.004957777519395845 0.005421059914542891 0.004957371467852277 0.005418613686464145
          0.0035709099199534296 0.0036427540069493623 0.0035719792278092535 0.0036438389598856683 0.003573048535665078 0.003644923912821975
          0.005415467445984412 0.004974582212250778 0.0051808230389849734 0.005685080092685957 0.0054176429642513995 0.004978203922714768
          0.0051838704854343855 0.0056858534684192785 0.00541981848251839 0.004981825633178759 0.0051869179318837985 0.0056866268441526
          0.0080162203293818 0.007870826999617823 0.008015539276710826 0.00787050386537801 0.008014858224039854 0.007870180731138198
          0.007980596551359203 0.007791136823246473 0.007976847217033387 0.007787793648694769 0.007973097882707572 0.007784450474143065
          0.0081470033862494 0.00800985322265725 0.008143414618259778 0.008005649542719265 0.00813982585027016 0.008001445862781282
          0.004927589732105004 0.004929778720949381 0.004931967709793758 0.006938450579495318 0.006938078705351168 0.006937706831207018
          0.0076760802651710345 0.0074138345238890435 0.0073233452603445525 0.007603011627802496 0.007675075062595928 0.007411443853318982
          0.007321150534302773 0.007602732822471788 0.007674069860020821 0.007409053182748918 0.007318955808260995 0.007602454017141078
          0.007610833819042643 0.007577475769553903 0.007744916864687916 0.007608121186534834 0.007575714807668412 0.0077433325090535896
          0.007605408554027027 0.007573953845782921 0.0077417481534192605 0.007872740343305127 0.007677036759507549 0.007867329408531765
          0.0076731266990596025 0.007861918473758405 0.007669216638611659 0.007031572106403424 0.007031561882441103 0.007031551658478784
          0.003735075523411714 0.003942660159985262 0.004081358289008191 0.003834014477172903 0.0037357639098375226 0.003943270588488607
          0.004083563211049511 0.0038355409583928587 0.003736452296263331 0.003943881016991953 0.004085768133090832 0.003837067439612813
          0.007841460036651392 0.007840879216697114 0.007840298396742834 0.007161099335812376 0.007160411138271464 0.007159722940730551
          0.007650663824233924 0.00764957964634665 0.007648495468459375 0.005170124798982604 0.004723625844097299 0.005169429747244362
          0.004725549328393923 0.005168734695506121 0.004727472812690547 0.006588034432897617 0.006618689648695013 0.006588236858533857
          0.006619715984318702 0.006588439284170099 0.006620742319942393 0.008057630510904584 0.007870688979209865 0.008053042795198261
          0.007867723688623202 0.008048455079491937 0.007864758398036539 0.0069585127068774325 0.006853446843948554 0.006954938076504428
          0.006850913794904906 0.006951363446131423 0.006848380745861258 0.00740314158259571 0.007401679806584321 0.007400218030572931
          0.006691310885224711 0.006206182779147657 0.006690173464988199 0.006205554641624358 0.006689036044751687 0.006204926504101059
          0.006861393166534653 0.006661887830120555 0.0068583186610576335 0.006657555355579925 0.006855244155580616 0.006653222881039294
          0.008044855274161496 0.008041365518386502 0.008037875762611505 0.008032123114312676 0.008031094056895643 0.00803006499947861
          0.006608465268432931 0.006564864637131845 0.00660675736714359 0.006560857407395676 0.00660504946585425 0.006556850177659507
          0.008119217096533439 0.008117184787442382 0.008115152478351323 0.006780208169671965 0.006780449060769765 0.006780689951867567
          0.008161518827328667 0.008102912712340687 0.008159054050327118 0.008101780683411382 0.008156589273325568 0.008100648654482078
          0.007622857797802781 0.007410714761783597 0.007621024320266766 0.007408124202638339 0.007619190842730751 0.0074055336434930815
          0.005990908823553796 0.006312799924449969 0.006319654666322973 0.005988626204657605 0.006311414771893615 0.006316018007060577
          0.005986343585761415 0.00631002961933726 0.006312381347798178 0.006841293388183007 0.006595422097626936 0.006884021588584818
          0.007181732852239762 0.0068376110960765134 0.006590106462859252 0.006879039706965022 0.007178137790628109 0.00683392880397002
          0.006584790828091568 0.006874057825345226 0.007174542729016457 0.004590321515690695 0.004179631175567109 0.004063729251405998
          0.004368467578966908 0.004592207548426264 0.004180138508149789 0.004063152469984733 0.00436896815472156 0.004594093581161832
          0.00418064584073247 0.004062575688563467 0.004369468730476212 0.00808570125186781 0.008080945522581873 0.008076189793295933
          0.006361732691356021 0.00611146815264791 0.006358361537478405 0.00610827303268757 0.00635499038360079 0.006105077912727228
          0.007960979029850759 0.007866964069394746 0.007959943213661395 0.007865827849321542 0.00795890739747203 0.00786469162924834
          0.005805641412382181 0.0055189087481824104 0.0058032114308798856 0.005518791860701417 0.00580078144937759 0.005518674973220425
          0.004690460079501791 0.005007739942169179 0.004692355323523063 0.005009445237640524 0.004694250567544335 0.0050111505331118696
          0.004359854659201717 0.004114742801247714 0.004359582167712945 0.004114083930413834 0.004359309676224173 0.004113425059579954
          0.00792732923021598 0.007925940741085137 0.007924552251954292 0.007965780666499979 0.007964266795791179 0.007962752925082379
          0.0049175246703776505 0.004488319614363406 0.004376511395004902 0.0047837859973098315 0.004917029173589212 0.004489425590736164
          0.004378688382771878 0.004784971379630429 0.004916533676800772 0.004490531567108921 0.0043808653705388525 0.004786156761951029
          0.007998371137461177 0.008053234213942032 0.00799623500101417 0.008052003525394615 0.007994098864567166 0.008050772836847197
          0.003559541810330661 0.0035564732888498317 0.0036184228705404267 0.0035888821090008134 0.0035593059127473014 0.0035566994116733213
          0.003618485756690209 0.003589050036828843 0.0035590700151639423 0.0035569255344968117 0.0036185486428399914 0.003589217964656872
          0.0038548335847803264 0.0036503352266030534 0.0038649873762554854 0.0038546466271678396 0.003651081268955389 0.0038646585933505206
          0.0038544596695553528 0.003651827311307724 0.0038643298104455563 0.005137371810495228 0.005139849865162439 0.00514232791982965
          0.007450997693946351 0.007172123354327002 0.0074478860306861966 0.007169301503684518 0.007444774367426043 0.007166479653042036
          0.007044601421322067 0.006497558189727894 0.007042471373217113 0.006495491737340199 0.00704034132511216 0.006493425284952505
          0.005277838144579652 0.005277163985660117 0.005276489826740582 0.00809078949931192 0.008088940512686885 0.008087091526061851
          0.005870945885159899 0.006345231677734756 0.005871354500419922 0.006341652917007956 0.005871763115679946 0.00633807415628116
          0.00367189826868044 0.0036014338556777537 0.0036716935086763343 0.003601789590993144 0.003671488748672229 0.003602145326308535
          0.0037173008031875883 0.0038282548373075763 0.0037183905758923067 0.003829440170971949 0.003719480348597026 0.0038306255046363213
          0.0039888284239527625 0.004440044931081165 0.004220782445236262 0.0039900689229100846 0.004440249323923133 0.004221270915006042
          0.003991309421867405 0.004440453716765101 0.004221759384775823 0.004866070107749842 0.005259371791054772 0.004865255246645391
          0.0052578391502452115 0.004864440385540941 0.005256306509435654 0.003808698216121731 0.003878250071229981 0.003807548988766366
          0.0038771397777880743 0.0038063997614110013 0.003876029484346168 0.004700046688716027 0.004489195709476852 0.004699395586910291
          0.004488377805822737 0.004698744485104554 0.004487559902168621 0.0038049021812763583 0.0038048361435305254 0.0038047701057846925
          0.004719803621945864 0.004601909361900903 0.004563220375760152 0.004638526383827486 0.004719057851328729 0.0045993869076194184
          0.004559290472048675 0.00463724779422999 0.004718312080711596 0.004596864453337935 0.004555360568337198 0.0046359692046324934
          0.00434119605628807 0.0043760609172937975 0.004340092222629604 0.004375171198986931 0.004338988388971139 0.004374281480680064
          0.003730682341437947 0.0037305160578585497 0.003730349774279152 0.004684523259794043 0.0046839672590369905 0.004683411258279937
          0.005472854468221626 0.005471601567836464 0.005470348667451303 0.005255373530141378 0.005257453648325342 0.005259533766509306
          0.0059767870703659794 0.005975232169329617 0.005973677268293254 0.005650325869484628 0.005868784941452134 0.005649049737885076
          0.005866121806430176 0.0056477736062855236 0.005863458671408218 0.0060794055202962795 0.006077592082621649 0.006075778644947018
          0.005976980692038395 0.005977931624732303 0.005978882557426212 0.00401770039176343 0.0040167986716454504 0.004015896951527471
          0.007995249704793851 0.007994521894615672 0.007993794084437492 0.0067670677249586164 0.006611427877134802 0.006765152943956214
          0.0066093326679443395 0.006763238162953813 0.006607237458753878 0.008037929283511793 0.008037135336961465 0.008036341390411136
          0.006444313755118216 0.006441855096834248 0.006439396438550279 0.006129615814345964 0.00612639149378684 0.006123167173227716
          0.005854703892039975 0.00585682631823675 0.0058589487444335245 0.006374151649095723 0.006376230269960018 0.006378308890824314
          0.006208623367291027 0.006209842018672672 0.0062110606700543185 0.004134347443444423 0.004091442322284515 0.004136845530971729
          0.004094669348545989 0.004139343618499037 0.004097896374807465 0.005011102996162829 0.004753713370107543 0.005009794828128622
          0.004752920975792593 0.005008486660094414 0.004752128581477643 0.004903632320775922 0.004903187043392174 0.004902741766008427
          0.003639601600100255 0.0036402917994289505 0.0036409819987576458 0.007806868115640986 0.0078058589280189435 0.007804849740396901
          0.004233165356757903 0.004440508085942593 0.0042348492004520896 0.004440985251438608 0.004236533044146275 0.004441462416934623
          0.004655099317051299 0.0047970312314029396 0.0046010043076133295 0.004654918631331461 0.004796721051290518 0.004601794459812868
          0.004654737945611624 0.004796410871178096 0.004602584612012406 0.0046026914385891545 0.004687251935403033 0.004603422668225727
          0.004687798565093909 0.0046041538978623 0.004688345194784785 0.004674515044157003 0.0046746550196146396 0.004674794995072275
          0.004936629154915991 0.004935214368195384 0.004933799581474779 0.004721933879360133 0.004720418205381861 0.004718902531403592
          0.007907479928252035 0.007906221883685732 0.00790496383911943 0.0036811989810846962 0.003681045483578875 0.0036808919860730534
          0.0037136023741589285 0.004256662115375855 0.0037132871424200593 0.0042569606779819 0.003712971910681191 0.0042572592405879465
          0.007684707790786308 0.007684618634516344 0.0076845294782463824 0.00636089763147992 0.006447756397509115 0.006889355369625424
          0.006359146471946093 0.0064460891978804944 0.006888398906514137 0.006357395312412265 0.006444421998251873 0.00688744244340285
          0.00424950706414787 0.004427798791147254 0.004250538589101849 0.004429691038305459 0.004251570114055828 0.0044315832854636625
          0.007846233124179793 0.0076445764957964405 0.007845713772607435 0.007644470346419378 0.007845194421035078 0.007644364197042315
          0.004704150792042207 0.00470769043393294 0.004711230075823674 0.007041401069083352 0.006653556860510066 0.006482188366741568
          0.007042029293131275 0.006659074254504965 0.006487015629227636 0.0070426575171791995 0.006664591648499863 0.006491842891713701
          0.0075455140522950066 0.007545387693766821 0.007545261335238635 0.007764299562693462 0.007871365301863054 0.007760409961984703
          0.007866584623859203 0.007756520361275943 0.00786180394585535 0.00741797405721505 0.0073865382999170085 0.007417443993979686
          0.007386867201051404 0.007416913930744319 0.007387196102185798 0.00749449982353843 0.00749234467655768 0.0074901895295769304
          0.007734582370601727 0.007733947143355409 0.007733311916109089 0.004615255437889165 0.004618011259241459 0.004620767080593753
          0.004836068586929934 0.0048362520910727735 0.004836435595215613 0.005434802436947459 0.005435404155572714 0.005436005874197969
          0.007147263405124033 0.007148583980687934 0.007149904556251835 0.006041956262360417 0.006228313272909267 0.006042509508624016
          0.006227228062354989 0.006043062754887615 0.006226142851800711 0.005115660973550811 0.004865247304710407 0.005117790578225406
          0.004868213656197064 0.005119920182899999 0.004871180007683722 0.0046355322301810525 0.0046371882860157315 0.00463884434185041
          0.003972848743218781 0.0040159771675473506 0.003975616817126127 0.004018383078622985 0.0039783848910334724 0.004020788989698621
          0.007687877572676075 0.007687211132033886 0.007686544691391696 0.0060287049354063125 0.0061963562911296465 0.006029481309620445
          0.006198798070575471 0.0060302576838345764 0.006201239850021295 0.007697872220041271 0.007596179666160495 0.007696308354760126
          0.007595175004646239 0.007694744489478978 0.007594170343131984 0.004118559082241794 0.004120305888678021 0.0041220526951142485
          0.00721036466410777 0.0072095148361988595 0.007208665008289947 0.005470999727340493 0.005472023338894306 0.00547304695044812
          0.0058002794968154605 0.005800678122879327 0.005801076748943192 0.00788083370033521 0.007876754718604839 0.007872675736874467
          0.007803562897988627 0.007800959774387132 0.007798356650785637
        </DataArray>
        <DataArray type="Float64" Name="pe11" format="ascii" RangeMin="0.0035563654606821362" RangeMax="0.008160514354204623">
          0.005822087504671557 0.006331601012887171 0.006250158824695965 0.005789507026330738 0.0058193737242671845 0.006327816447040611
          0.006247042244270778 0.005786826167919033 0.005816659943862811 0.006324031881194051 0.0062439256638455905 0.005784145309507328
          0.004567195544268996 0.004125063258910339 0.004205889667058878 0.004722474130342734 0.00456716000635448 0.004124129837788982
          0.004205537939168108 0.004722302961031041 0.004567124468439964 0.004123196416667625 0.004205186211277339 0.004722131791719348
          0.003703193479457172 0.003703572072199766 0.003703950664942361 0.003686542937627792 0.0036872320221858546 0.003687921106743917
          0.005988454051305263 0.005488268049216775 0.005986631446852312 0.005488171261559132 0.005984808842399362 0.005488074473901491
          0.00767196329809897 0.007847516873668591 0.007664605841596897 0.0075880399069732105 0.007669421889248067 0.007845394269689505
          0.007662689271146654 0.007585908723174766 0.007666880480397163 0.007843271665710418 0.007660772700696412 0.007583777539376324
          0.005113191447458455 0.00550780184372289 0.005744438675357871 0.005398988956721025 0.0051120785398067765 0.005505728003840653
          0.0057436924212530905 0.005398806094000379 0.0051109656321551 0.005503654163958417 0.0057429461671483105 0.005398623231279733
          0.004280524233669945 0.004568966153409225 0.004187536598915739 0.003984713502531052 0.004281582720007962 0.004568793876339778
          0.004188357073969192 0.003985847845103882 0.0042826412063459805 0.004568621599270331 0.004189177549022645 0.003986982187676711
          0.007945038834688898 0.007891363208776016 0.007813944547049497 0.007944693683628665 0.007891096765068039 0.007813570635836587
          0.007944348532568434 0.007890830321360065 0.007813196724623678 0.007356412260756751 0.0076950424587329215 0.00767242455580545
          0.007203648808974419 0.007354795690895831 0.007692607653478294 0.0076692128282526365 0.007201867399703589 0.007353179121034908
          0.007690172848223668 0.007666001100699818 0.007200085990432758 0.006839134453830163 0.006837877587356456 0.006836620720882749
          0.006649173700857384 0.006456578350109439 0.0066455724046299135 0.006454079292716551 0.006641971108402442 0.006451580235323665
          0.005523949113932502 0.00596521507574704 0.005369778305518212 0.005521588767126033 0.005962157057451453 0.00536815428138502
          0.005519228420319563 0.005959099039155866 0.00536653025725183 0.007194306430614405 0.00702402657682763 0.007218378351978833
          0.007406197980885508 0.007191312414284285 0.007022462317454845 0.0072170642806569235 0.007403960763305164 0.007188318397954168
          0.007020898058082062 0.007215750209335013 0.00740172354572482 0.006255481332248625 0.005918798361978516 0.006100494969629129
          0.006255394186677983 0.005918490580941316 0.006098609130877026 0.006255307041107341 0.005918182799904116 0.006096723292124923
          0.005653478486406629 0.005604595144142171 0.005031356829033696 0.0056530730436289275 0.005602757944668621 0.005030754650394353
          0.0056526676008512265 0.005600920745195072 0.005030152471755011 0.006652596436847858 0.0063754632212167685 0.006504451542020767
          0.006895827854770023 0.006651806716454307 0.006372652419220203 0.006501906620811347 0.006893984866495797 0.006651016996060759
          0.006369841617223638 0.006499361699601924 0.00689214187822157 0.00740736079660431 0.007067146178301569 0.007404507483910983
          0.0070638951102902844 0.007401654171217655 0.007060644042279 0.0077585647864006 0.007484107402336309 0.007388230548549813
          0.007757202518570464 0.007483882088388784 0.0073876469118081935 0.007755840250740329 0.007483656774441259 0.007387063275066573
          0.007012716412411317 0.007077055168662263 0.007407830594681795 0.007364777164729616 0.007012185066995597 0.0070754303373325314
          0.007405362944287224 0.007363531095249766 0.007011653721579877 0.007073805506002802 0.007402895293892653 0.007362285025769915
          0.004314162240335578 0.004514094370468439 0.004315943281618074 0.004516475660251389 0.00431772432290057 0.00451885695003434
          0.004957530472026452 0.005422903809547572 0.004957101931441113 0.005420437412885298 0.004956673390855776 0.005417971016223024
          0.0035707496566098618 0.003642484528902308 0.003571803787982011 0.0036435537359286924 0.00357285791935416 0.003644622942955077
          0.005414398131163957 0.004973778983342797 0.0051801960979221545 0.005684473946814317 0.0054165722986746195 0.004977415565251326
          0.005183247195268073 0.005685243158748022 0.005418746466185281 0.0049810521471598534 0.005186298292613991 0.005686012370681725
          0.008014014703493449 0.007867923949424371 0.008013312980327732 0.007867566172246486 0.008012611257162015 0.007867208395068596
          0.007979612404161266 0.007790194257585677 0.007975885131320394 0.007786860021025291 0.007972157858479524 0.007783525784464905
          0.008145794108463543 0.00800874349083041 0.008142228803246512 0.008004573603809441 0.008138663498029481 0.008000403716788472
          0.004927057733395231 0.004929233788175724 0.004931409842956218 0.006935763171430702 0.006935402111681056 0.006935041051931409
          0.007672955896890012 0.007411006761069121 0.0073204627519179504 0.007600239580488812 0.0076719225345049345 0.007408604618227982
          0.007318262397450967 0.007599935212447196 0.007670889172119855 0.0074062024753868425 0.007316062042983984 0.007599630844405577
          0.007610472051431828 0.007577216044397336 0.007744584078427083 0.007607759242075847 0.0075754525786879846 0.007743001750991817
          0.007605046432719867 0.007573689112978632 0.007741419423556548 0.007871639760638236 0.007676051474718572 0.007866247637402958
          0.00767215944647389 0.00786085551416768 0.0076682674182292085 0.007030096809081049 0.007030075220693146 0.0070300536323052425
          0.003734862288700444 0.0039423967398452345 0.004081036503617557 0.003833718667367638 0.0037355439027914124 0.003942998248519811
          0.004083225539146413 0.00383522952571457 0.003736225516882381 0.003943599757194387 0.004085414574675267 0.003836740384061502
          0.007839206946930138 0.007838600331954817 0.007837993716979498 0.007158746940032875 0.007158048321978272 0.00715734970392367
          0.007646807842156664 0.007645688877905626 0.007644569913654591 0.005169629165018833 0.004723276019378682 0.005168910704585197
          0.0047251734172572635 0.00516819224415156 0.004727070815135845 0.006587151352513858 0.006617306496800214 0.006587344459146513
          0.006618327515571035 0.006587537565779169 0.006619348534341854 0.008056912818158077 0.007870065065002211 0.008052338763910118
          0.00786711804739951 0.008047764709662161 0.00786417102979681 0.006958296824064899 0.006853155665681406 0.0069547161424743575
          0.006850613052273864 0.006951135460883819 0.006848070438866322 0.007402787968041398 0.00740132767077918 0.0073998673735169605
          0.0066907450690822864 0.006205596642650092 0.006689599550566513 0.006204956106388791 0.00668845403205074 0.00620431557012749
          0.0068611142603409465 0.006661555574358264 0.006858046570911497 0.0066572356281532005 0.006854978881482048 0.0066529156819481365
          0.008043684159828758 0.008040217018741093 0.008036749877653428 0.00803063217540181 0.00802958809281804 0.008028544010234269
          0.006608041233953753 0.006564493309649482 0.006606346253364351 0.006560508046385291 0.00660465127277495 0.0065565227831211005
          0.008117691669213903 0.00811566794392101 0.008113644218628117 0.006777829598852838 0.006778088111516685 0.00677834662418053
          0.008160514354204623 0.008101187858346043 0.008158049310947295 0.008100049035143865 0.008155584267689964 0.008098910211941686
          0.007622394242885152 0.007409810138870449 0.007620568708038452 0.00740723488141049 0.007618743173191751 0.007404659623950529
          0.005990488595126565 0.006312365260682923 0.006319153360001859 0.005988199400871091 0.006310984765894619 0.0063155361988226615
          0.005985910206615616 0.006309604271106316 0.006311919037643466 0.0068403427714845075 0.006594861353178447 0.006883356710042964
          0.007180772918383876 0.006836681557062781 0.006589562796476396 0.006878405499739364 0.007177200977682325 0.006833020342641052
          0.0065842642397743465 0.006873454289435766 0.007173629036980774 0.004589767459633737 0.004179272711980193 0.004063377715876174
          0.004368038363613289 0.004591628142660321 0.004179763967856446 0.0040627877910360466 0.0043685219632193335 0.004593488825686907
          0.004180255223732698 0.004062197866195918 0.004369005562825377 0.008084859131035117 0.008080116329289136 0.008075373527543154
          0.006360882987883612 0.006110790898629034 0.0063575236806078204 0.006107602070619041 0.006354164373332029 0.00610441324260905
          0.007958345554977056 0.007863792148672567 0.007957283952795716 0.00786262907665948 0.007956222350614375 0.007861466004646392
          0.005804815698450079 0.005518126208251471 0.005802392951039179 0.0055180061775966524 0.005799970203628279 0.005517886146941834
          0.00468995982299704 0.005007045954159168 0.004691835815033903 0.005008730320348924 0.004693711807070768 0.00501041468653868
          0.004359466716046083 0.004114364362071235 0.004359182940358218 0.0041136941824843655 0.004358899164670353 0.004113024002897496
          0.007926942848899467 0.007925555506326664 0.00792416816375386 0.007964817327507936 0.007963298508055426 0.007961779688602916
          0.004916903986215471 0.004487788181778985 0.004376054676677492 0.004783138821215489 0.004916401441867111 0.004488875912984651
          0.004378214496765458 0.0047843053055502405 0.004915898897518753 0.004489963644190318 0.004380374316853425 0.004785471789884993
          0.007997070019153844 0.008051316888821193 0.007994935524154687 0.008050073006548232 0.007992801029155533 0.008048829124275271
          0.0035594534308767485 0.0035563654606821362 0.0036182884890571844 0.0035887786329986847 0.0035592076682024994 0.0035565793654098784
          0.0036183340049219994 0.003588931652357946 0.00355896190552825 0.003556793270137621 0.0036183795207868153 0.0035890846717172072
          0.0038544878236682545 0.003650085776835345 0.003864708995041795 0.0038542879486070684 0.0036508163281368244 0.003864367432380478
          0.0038540880735458815 0.0036515468794383033 0.00386402586971916 0.005136767587520319 0.00513923157124332 0.00514169555496632
          0.007450664439966719 0.007171825465097387 0.0074475510523724165 0.007169000354484834 0.007444437664778113 0.0071661752438722795
          0.007043767534099137 0.006496726685033021 0.007041650084830453 0.006494674243058815 0.007039532635561771 0.006492621801084608
          0.005277075480069856 0.005276393816512449 0.005275712152955043 0.008090255115260701 0.00808840329428531 0.00808655147330992
          0.005870519468595103 0.006344850526579513 0.005870918590499751 0.006341271752551985 0.0058713177124044 0.006337692978524458
          0.003671715413889719 0.0036012905588343256 0.0036714992632426897 0.003601635499601453 0.0036712831125956607 0.0036019804403685796
          0.003716992023001936 0.0038277329853746056 0.0037180676184446716 0.0038288952447499917 0.003719143213887408 0.003830057504125378
          0.0039879949887422165 0.004439122032232177 0.004219607841444617 0.003989208807482241 0.00443931059594323 0.004220060793460168
          0.0039904226262222646 0.004439499159654282 0.004220513745475719 0.004865478927476246 0.005258827787501093 0.004864666815893959
          0.005257296178072016 0.004863854704311675 0.0052557645686429405 0.003808451044631192 0.003877951271281693 0.0038072872746405173
          0.0038768257847791357 0.0038061235046498434 0.003875700298276579 0.004699025243544333 0.004487825323115966 0.004698356248717957
          0.004486963545342858 0.004697687253891581 0.00448610176756975 0.003804574384276214 0.003804494555506272 0.00380441472673633
          0.004719532671854997 0.00460167764033338 0.00456302731203493 0.0046382680192541045 0.004718759183233622 0.004599134390780335
          0.004559078714711123 0.004636957004740822 0.004717985694612246 0.00459659114122729 0.004555130117387316 0.00463564599022754
          0.00434094923433517 0.0043757861770556475 0.004339830257028751 0.004374882453761149 0.004338711279722332 0.004373978730466651
          0.003730391896525682 0.0037302092124171667 0.0037300265283086516 0.0046824781811022325 0.004681886635795821 0.004681295090489409
          0.00547216004164751 0.005470909425259839 0.005469658808872166 0.0052548373424168284 0.005256900344647786 0.005258963346878744
          0.005976048155674987 0.005974504468750326 0.005972960781825664 0.005649723655611781 0.005868218131841388 0.0056484521774963345
          0.005865569154123516 0.005647180699380885 0.005862920176405645 0.0060787549830859785 0.0060769583833226 0.00607516178355922
          0.00597598797520864 0.005976926404711449 0.005977864834214257 0.0040173889182912315 0.004016476765549221 0.0040155646128072105
          0.007992454793785407 0.007991707932485454 0.007990961071185501 0.0067665345532086935 0.00661091255987491 0.006764637451045452
          0.006608836024554178 0.00676274034888221 0.0066067594892334465 0.008035584978329022 0.008034776558966105 0.008033968139603186
          0.006443866908754953 0.0064414168859496315 0.00643896686314431 0.006129004324208695 0.006125805645141786 0.006122606966074878
          0.005854354855315869 0.005856464073073627 0.005858573290831384 0.0063721621329771334 0.006374258016718452 0.0063763539004597705
          0.0062074636626053056 0.006208673772736467 0.006209883882867628 0.00413409488544433 0.004091232451949227 0.0041365832700205
          0.004094451677626026 0.00413907165459667 0.004097670903302826 0.005009401770031606 0.004751385024058986 0.005008078103833569
          0.00475055429538314 0.0050067544376355315 0.004749723566707295 0.004903242846749435 0.00490277181643871 0.004902300786127984
          0.0036394063614913173 0.0036400897663270418 0.0036407731711627657 0.007804399249086857 0.0078033695229750046 0.007802339796863153
          0.004232879558715218 0.004440235505296037 0.004234554477149219 0.004440700715070878 0.004236229395583219 0.00444116592484572
          0.004654155747911548 0.004796078599873999 0.004600329267947399 0.004653935927426144 0.004795730075701787 0.004601101280125246
          0.00465371610694074 0.004795381551529574 0.004601873292303093 0.004602231846901456 0.004686864170283884 0.00460292697828196
          0.0046873787172256555 0.004603622109662464 0.004687893264167425 0.004674220857968048 0.0046743359573686895 0.004674451056769332
          0.004935347173332204 0.004933894860937825 0.0049324425485434455 0.0047203787814601725 0.004718805321826589 0.004717231862193007
          0.007905921493430824 0.007904645415619091 0.007903369337807359 0.0036809965242302414 0.003680824199419363 0.003680651874608485
          0.0037131560780508965 0.004256218866640974 0.0037128309119042724 0.004256507471991362 0.0037125057457576484 0.004256796077341751
          0.007679689661246431 0.007679578829036563 0.0076794679968266956 0.0063603134022025345 0.006447163101555613 0.006888588656827529
          0.006358575890421026 0.006445503821997246 0.006887627286457694 0.0063568383786395165 0.006443844542438878 0.006886665916087857
          0.004249069377799243 0.004427230969595128 0.004250094956162835 0.004429116989801855 0.004251120534526428 0.004431003010008583
          0.00784205575112473 0.007639626400644322 0.007841509661583467 0.007639484306305004 0.007840963572042205 0.0076393422119656875
          0.004703549670389463 0.004707089546855574 0.004710629423321686 0.007038988461754396 0.00665170337226865 0.0064800397023403854
          0.007039599865438936 0.006657206978663576 0.006484874603514761 0.007040211269123478 0.006662710585058504 0.006489709504689135
          0.007541394041426764 0.007541229854893281 0.007541065668359798 0.0077634663192077 0.007870572266722192 0.007759598045949603
          0.00786581060149696 0.007755729772691505 0.00786104893627173 0.007415378055146906 0.0073839747667014104 0.007414812499973844
          0.007384257694080017 0.007414246944800781 0.007384540621458622 0.007493582032738947 0.007491423554949373 0.007489265077159798
          0.007730359277108476 0.007729692298149196 0.007729025319189916 0.004614634339619803 0.004617400370251872 0.004620166400883942
          0.004835562341140088 0.004835727716633131 0.004835893092126175 0.005434299685751223 0.005434888599792092 0.0054354775138329625
          0.007145188379402914 0.007146478795946306 0.007147769212489698 0.0060415227153805704 0.006227808519452742 0.006042076159392053
          0.006226734915146083 0.006042629603403535 0.006225661310839426 0.005114460048902449 0.004864398788256222 0.005116600956799252
          0.004867386265072912 0.005118741864696054 0.0048703737418896035 0.00463491207438804 0.004636582572259505 0.004638253070130971
          0.0039726879781640904 0.004015774101892789 0.003975443034836671 0.004018166568333009 0.003978198091509252 0.004020559034773231
          0.007684417948853003 0.007683744347175141 0.00768307074549728 0.006027301738717229 0.006194843894126935 0.006028076900458368
          0.006197282091385543 0.0060288520621995054 0.006199720288644151 0.007696341570364168 0.007593810705280347 0.007694765985514196
          0.007592810074873756 0.007693190400664226 0.007591809444467164 0.004118276847888996 0.004120013370703695 0.004121749893518395
          0.007209527411359864 0.007208649905469149 0.007207772399578433 0.005469747680519356 0.005470768277294702 0.005471788874070048
          0.005799194081472309 0.0057995834264327585 0.0057999727713932085 0.007879958797135201 0.00787589236369839 0.007871825930261577
          0.007802536574748883 0.0077999309818059465 0.00779732538886301
        </DataArray>
        <DataArray type="Float64" Name="pe22" format="ascii" RangeMin="-0.004070172808884642" RangeMax="-0.0017812572258718111">
          -0.0029018660182326705 -0.0031456883350231106 -0.0031237153939845516 -0.002900536210627454 -0.0029022615013156684 -0.003146583269554254
          -0.0031242517156074364 -0.0029005934410938636 -0.0029026569843986654 -0.003147478204085398 -0.003124788037230321 -0.0029006506715602742
          -0.0022586351153012726 -0.0020384171341845106 -0.002076931795593856 -0.0023332891155253476 -0.0022583752090326215 -0.002037984080642599
          -0.0020766401313551236 -0.002332799527743219 -0.002258115302763971 -0.0020375510271006874 -0.002076348467116391 -0.0023323099399610893
          -0.0018321655789133515 -0.0018318077043370151 -0.0018314498297606788 -0.0018289175039828114 -0.0018285680942391376 -0.0018282186844954637
          -0.0029990020886015083 -0.0027615891511802338 -0.0029991412703562976 -0.002761946917588473 -0.002999280452111087 -0.002762304683996711
          -0.0038295769687945293 -0.0039146999349097145 -0.0038241194567111845 -0.0037859456941342624 -0.0038305328755032612 -0.003915454406142591
          -0.003824669492517877 -0.00378673223941475 -0.003831488782211994 -0.003916208877375468 -0.0038252195283245685 -0.003787518784695238
          -0.002538463419906229 -0.002734959018488337 -0.002868219928852453 -0.002699655393503503 -0.002539172741032553 -0.002734286299103667
          -0.0028681693352901674 -0.002700518573150802 -0.0025398820621588773 -0.0027336135797189974 -0.002868118741727882 -0.0027013817527981013
          -0.002129353261070628 -0.0022695477738826544 -0.002096109870584005 -0.001996201881490407 -0.0021296594176328514 -0.00227020433910171
          -0.0020977160562069197 -0.0019971432396156193 -0.002129965574195075 -0.0022708609043207663 -0.0020993222418298346 -0.0019980845977408315
          -0.004004899426550952 -0.003991381973711967 -0.003926585381703852 -0.00400496806906793 -0.003991442370499473 -0.003926882865026858
          -0.004005036711584909 -0.003991502767286979 -0.0039271803483498634 -0.0036213643388246716 -0.0037833027498144207 -0.0037672811701219997
          -0.0035403414182225246 -0.003621371936007033 -0.003783900611004793 -0.003767905167956071 -0.0035407563452377272 -0.003621379533189394
          -0.003784498472195164 -0.0037685291657901417 -0.003541171272252929 -0.003373956242132393 -0.0033743287025746493 -0.003374701163016906
          -0.003321715802251237 -0.0032318134752100753 -0.0033225982504965714 -0.0032324087766082707 -0.0033234806987419057 -0.003233004078006467
          -0.002752434015684695 -0.0029700133496467383 -0.002673806715045637 -0.002753558259009286 -0.0029702299555906036 -0.0026749687458428413
          -0.002754682502333877 -0.0029704465615344694 -0.002676130776640045 -0.0035952026706447112 -0.003501481372675498 -0.0036082461290602545
          -0.0037096912778993288 -0.003595888894702266 -0.003502418514234464 -0.00360881923672227 -0.0037103998176487222 -0.0035965751187598213
          -0.0035033556557934296 -0.003609392344384286 -0.0037111083573981153 -0.0031120338173964393 -0.0029635656473715774 -0.00302394477783903
          -0.003113467081904773 -0.0029641703439770403 -0.003024945862164818 -0.003114900346413106 -0.0029647750405825033 -0.003025946946490606
          -0.002842145295213067 -0.002804795996900721 -0.0025185563562905217 -0.0028429027922443756 -0.002805866361985493 -0.002521203371969308
          -0.002843660289275684 -0.0028069367270702654 -0.0025238503876480944 -0.003299642039147924 -0.003145875471305554 -0.003211770466399211
          -0.003424600308923545 -0.003301087469841499 -0.0031472279051434357 -0.0032124699170272106 -0.0034250993470711206 -0.003302532900535074
          -0.003148580338981317 -0.003213169367655209 -0.0034255983852186957 -0.003637745148970883 -0.003475846161437889 -0.003638782976409094
          -0.003476543253390939 -0.003639820803847305 -0.0034772403453439886 -0.003874212485177265 -0.0037494593948801456 -0.0036989820358467877
          -0.003874742240878348 -0.0037497915930046867 -0.003699452806651375 -0.0038752719965794314 -0.0037501237911292283 -0.0036999235774559623
          -0.003515347225821 -0.0035363711783903684 -0.0037006945977714296 -0.0036824451057896985 -0.0035159569201507457 -0.003537593750706314
          -0.0037017498411799506 -0.003683281310237577 -0.0035165666144804904 -0.003538816323022259 -0.0037028050845884725 -0.003684117514685456
          -0.0021571785925468523 -0.0022598947703542185 -0.002157747664325875 -0.002261200984978364 -0.0021583167361048975 -0.00226250719960251
          -0.002471788504162331 -0.0027037593376192416 -0.0024735375708428505 -0.002704171841149513 -0.0024752866375233698 -0.0027045843446797837
          -0.0017873353877670194 -0.0018171263873850048 -0.001787534997179385 -0.0018173247341736446 -0.0017877346065917506 -0.0018175230809622841
          -0.0027251822535616253 -0.0025081532821129245 -0.0026137507541613768 -0.002856285260272358 -0.0027252097242262746 -0.0025085353694077454
          -0.002614666236413577 -0.0028565712227245923 -0.002725237194890923 -0.0025089174567025662 -0.0026155817186657776 -0.002856857185176826
          -0.00402082534972062 -0.003944724056619287 -0.004021710077618718 -0.0039456152843159184 -0.004022594805516817 -0.003946506512012551
          -0.003946583495444145 -0.003857569011426547 -0.003947570414623142 -0.0038580041984676403 -0.003948557333802139 -0.0038584393855087334
          -0.004045936456636204 -0.003974103197077122 -0.004047202253238151 -0.003975387685164143 -0.004048468049840099 -0.003976672173251164
          -0.002478708696480876 -0.0024798823750072484 -0.002481056053533621 -0.003493382122704908 -0.003492973591672081 -0.0034925650606392536
          -0.0038400136937955724 -0.0037100005150286076 -0.003676375193804423 -0.003807156300931993 -0.003840523039035858 -0.003709420432051293
          -0.003675676471994295 -0.0038075796009478025 -0.0038410323842761438 -0.0037088403490739778 -0.003674977750184166 -0.0038080029009636114
          -0.003809124903228237 -0.0037933912401696746 -0.0038663934959943394 -0.003810061956615575 -0.003794087079984477 -0.003867404251572925
          -0.0038109990100029124 -0.0037947829197992806 -0.0038684150071515108 -0.0038631354413982463 -0.0037696474576801916 -0.003864206730476901
          -0.0037707868438633285 -0.0038652780195555566 -0.0037719262300464655 -0.0035360075031138057 -0.003535813932555502 -0.0035356203619971993
          -0.0018686329998848852 -0.001966649677857884 -0.0020397419464027304 -0.0019222288040417197 -0.001869121675445814 -0.0019668554693818723
          -0.002040120773251937 -0.0019230011883801293 -0.0018696103510067428 -0.0019670612609058616 -0.0020404996001011444 -0.001923773572718539
          -0.003921651372815309 -0.003922515217735314 -0.003923379062655318 -0.003603442782463552 -0.003602884433578403 -0.0036023260846932545
          -0.0038265149144806176 -0.0038268305944247913 -0.0038271462743689655 -0.002585678796377192 -0.0023584978549391986 -0.0025865079565599467
          -0.002360404023055591 -0.0025873371167427005 -0.0023623101911719826 -0.0033146132622717886 -0.0033424407498042477 -0.0033150731130971193
          -0.003342059862652858 -0.003315532963922451 -0.0033416789755014694 -0.003988919183381528 -0.0038950755051261826 -0.003990290191605488
          -0.003896583420278892 -0.003991661199829447 -0.0038980913354316007 -0.0034777386778551854 -0.0034278603133124897 -0.0034785261652876586
          -0.00342896224870203 -0.003479313652720131 -0.0034300641840915714 -0.003691761570219497 -0.0036919720814715495 -0.0036921825927236024
          -0.0033539381315473202 -0.003114119015540079 -0.0033550986719603115 -0.0031147171160897345 -0.0033562592123733024 -0.0031153152166393896
          -0.003410459839506718 -0.0033063925475528134 -0.003411518377787375 -0.003307559641899709 -0.0034125769160680323 -0.003308726736246606
          -0.003995612375775422 -0.003997074347127683 -0.003998536318479944 -0.004014679531761335 -0.004015991428581282 -0.004017303325401228
          -0.003271549492437219 -0.0032439230473868285 -0.003272991969096799 -0.0032452289860472106 -0.00327443444575638 -0.0032465349247075928
          -0.004042289717703584 -0.004043497859425272 -0.004044706001146961 -0.003427225549493344 -0.0034265286908377263 -0.0034258318321821082
          -0.004067403282797715 -0.004051527961744041 -0.004068788045841179 -0.004052514280582633 -0.004070172808884642 -0.004053500599421224
          -0.0037852044126633058 -0.0036574822432149266 -0.0037857271638501253 -0.003658007489508705 -0.0037862499150369453 -0.003658532735802484
          -0.002990104101836766 -0.0031344722170759385 -0.0031266935336917243 -0.002990380149576628 -0.0031355595983632465 -0.003127584825227095
          -0.0029906561973164895 -0.003136646979650554 -0.003128476116762466 -0.003385074139685814 -0.0032652761816502887 -0.0033892134226164187
          -0.003538328976624365 -0.003385832583548452 -0.003265676603688461 -0.003390142933629648 -0.003539544558627282 -0.0033865910274110903
          -0.0032660770257266335 -0.0033910724446428774 -0.003540760140630199 -0.00229621547315102 -0.0020855940163479357 -0.002025042368630367
          -0.0021811750731895348 -0.002296091260634194 -0.0020854644939466726 -0.0020244342839079296 -0.002180772600312173 -0.002295967048117368
          -0.0020853349715454095 -0.002023826199185493 -0.00218037012743481 -0.004001924528500806 -0.004002800339701749 -0.004003676150902691
          -0.003150634951476892 -0.0030351057524526425 -0.003150712592521591 -0.0030352293467549914 -0.00315079023356629 -0.0030353529410573404
          -0.004016065821275021 -0.003975280724304006 -0.004016871238039105 -0.003976450650561038 -0.00401767665480319 -0.003977620576818071
          -0.0028671431299555246 -0.002735216677003522 -0.0028669392223830414 -0.002735491793389991 -0.002866735314810559 -0.0027357669097764596
          -0.002333386680101251 -0.0024924700788599846 -0.002333365164154367 -0.002492414473040164 -0.0023333436482074832 -0.0024923588672203434
          -0.0021612323883742988 -0.0020444454425085357 -0.0021608977988665013 -0.0020439312020361566 -0.0021605632093587043 -0.0020434169615637775
          -0.003954298408709295 -0.003955763534733888 -0.003957228660758483 -0.003976371772573815 -0.003977302657129645 -0.0039782335416854745
          -0.002437954919563592 -0.0022248273748660106 -0.0021800549674442986 -0.0023803788258944846 -0.0024375306905924923 -0.002224526991111864
          -0.0021800163252332014 -0.002379984786153205 -0.0024371064616213927 -0.0022242266073577172 -0.002179977683022104 -0.0023795907464119253
          -0.003994271001140633 -0.004033605616813287 -0.0039953466803130085 -0.004034474666969771 -0.0039964223594853845 -0.0040353437171262545
          -0.0017820437737418023 -0.001781410925205232 -0.001811013208485301 -0.0017985011321587268 -0.0017818441155146548 -0.0017813340755385215
          -0.001811143466975676 -0.0017986772188478548 -0.001781644457287507 -0.0017812572258718111 -0.0018112737254660513 -0.0017988533055369829
          -0.0019168938619213386 -0.0018169890651601912 -0.001919491197492922 -0.0019163623352675956 -0.0018168840539299139 -0.0019192151203105642
          -0.0019158308086138524 -0.0018167790426996363 -0.0019189390431282062 -0.0025497340081162877 -0.002550108574200189 -0.0025504831402840913
          -0.0037269485528405163 -0.0035808264604874325 -0.0037278737555550548 -0.0035819371357971494 -0.0037287989582695928 -0.0035830478111068672
          -0.0034921904621264023 -0.003215756440331225 -0.003492358127855038 -0.003216063251587218 -0.003492525793583673 -0.0032163700628432107
          -0.0026174170522065715 -0.0026169466333319786 -0.0026164762144573854 -0.004037729939786063 -0.0040392578152906745 -0.004040785690795285
          -0.0029261221721502773 -0.0031541138260112057 -0.002926224098680682 -0.0031538043074805667 -0.0029263260252110858 -0.003153494788949928
          -0.0018347895782988976 -0.001804307207902491 -0.0018349939605730586 -0.001804688610594062 -0.00183519834284722 -0.0018050700132856323
          -0.0018691527942985885 -0.0019277787636846197 -0.0018701104008185675 -0.0019289228561221701 -0.0018710680073385467 -0.0019300669485597206
          -0.0020107202063791513 -0.002224211486177033 -0.0021334520068122145 -0.0020125245906891373 -0.0022264328051178448 -0.0021358773637199114
          -0.0020143289749991232 -0.002228654124058657 -0.0021383027206276087 -0.002420152490157491 -0.0026101698642858264 -0.002421071055758624
          -0.0026098273751010803 -0.0024219896213597573 -0.0026094848859163347 -0.0018949234745146855 -0.0019268058981424432 -0.0018949092030182259
          -0.0019266475161257477 -0.0018948949315217658 -0.0019264891341090524 -0.0023510737962874452 -0.002271171782066808 -0.002353407518624974
          -0.002273675953489147 -0.0023557412409625023 -0.002276180124911487 -0.001892666247858283 -0.0018923291456037286 -0.0018919920433491744
          -0.0023643792790174895 -0.002302766306980812 -0.002285650179491024 -0.0023247365321635524 -0.002366088119685149 -0.0023029715086150884
          -0.0022851578004869037 -0.002326573009888058 -0.002367796960352809 -0.002303176710249364 -0.002284665421482783 -0.002328409487612563
          -0.002174522557719886 -0.002189661242073411 -0.0021746645830522863 -0.002189928233448744 -0.0021748066083846873 -0.002190195224824077
          -0.0018566807699359259 -0.0018568974349156095 -0.0018571140998952936 -0.002363042524816619 -0.002366285476834335 -0.002369528428852051
          -0.0027054007321688956 -0.002705142132464566 -0.002704883532760237 -0.0026096662243633444 -0.0026093693844909966 -0.0026090725446186484
          -0.002950089354812745 -0.0029504438702322748 -0.002950798385651805 -0.0027898200469098295 -0.0028974017763950255 -0.0027900014052128596
          -0.0028977371449532196 -0.00279018276351589 -0.002898072513511413 -0.002996902755648144 -0.0029978031278592283 -0.002998703500070312
          -0.0030085841146794312 -0.0030088397774708825 -0.0030090954402623334 -0.0019886723702684426 -0.001988281509653665 -0.0019878906490388873
          -0.004040983283284678 -0.0040412596647723354 -0.0040415360462599925 -0.0033408965218887543 -0.003269587052502669 -0.0033419329798805787
          -0.0032703999285971235 -0.003342969437872403 -0.003271212804691578 -0.004043315949218645 -0.004043691290983584 -0.0040440666327485235
          -0.0031939348038741823 -0.003194117350365815 -0.003194299896857448 -0.0030156154512824356 -0.003016788746508719 -0.003017962041735002
          -0.002920182003224172 -0.0029202063130205646 -0.002920230622816957 -0.003219673098723873 -0.003220030927780041 -0.0032203887568362085
          -0.003135293994107748 -0.0031354091953851573 -0.0031355243966625667 -0.0020683407963965413 -0.002048710668738161 -0.00206952951167204
          -0.00205037079041014 -0.002070718226947538 -0.0020520309120821184 -0.0025020866266666345 -0.0023920998077144014 -0.0025048306037316597
          -0.002395339729448755 -0.002507574580796685 -0.002398579651183109 -0.0024504578520949897 -0.002451883635975695 -0.0024533094198564004
          -0.0018254736242931209 -0.0018261501650275718 -0.0018268267057620228 -0.003940214765114518 -0.003941278585033862 -0.003942342404953205
          -0.002115638554578828 -0.0022194179935752477 -0.0021162623734679274 -0.0022202606887953918 -0.0021168861923570267 -0.002221103384015536
          -0.002324145857470586 -0.002392416505868708 -0.00228701836468381 -0.002327257321574106 -0.002395052167910579 -0.0022896932884654032
          -0.002330368785677626 -0.002397687829952449 -0.0022923682122469964 -0.002295549933165297 -0.0023420839211354756 -0.002298706263863191
          -0.00234484174015206 -0.002301862594561086 -0.0023475995591686442 -0.0023338447067573105 -0.0023352405605594957 -0.0023366364143616813
          -0.002463392661203498 -0.0024658048494279575 -0.0024682170376524168 -0.002369525737578787 -0.002372517245249193 -0.0023755087529195983
          -0.0039716009234291565 -0.003972519299534718 -0.003973437675640279 -0.0018366725916170625 -0.001836832432221293 -0.0018369922728255234
          -0.001836243029597069 -0.0021022755428110663 -0.0018357266315953715 -0.0021018231316246886 -0.001835210233593674 -0.002101370720438311
          -0.003860360078386145 -0.0038602032523411016 -0.0038600464262960586 -0.003151322080420597 -0.0031944214934606385 -0.003397221905996277
          -0.0031522156151898495 -0.003194789676095269 -0.0033970811482345073 -0.003153109149959102 -0.0031951578587299 -0.0033969403904727377
          -0.0021255564100524853 -0.0022201536696200676 -0.0021255026198351437 -0.0022203534919380758 -0.0021254488296178022 -0.002220553314256084
          -0.003969167967701685 -0.0038452506618557635 -0.003969828102230811 -0.0038453911215778945 -0.003970488236759938 -0.0038455315813000247
          -0.0023676690145959635 -0.002368648024208748 -0.0023696270338215324 -0.0035265633725639197 -0.0033211822737401076 -0.0032571577899974677
          -0.0035264591249279434 -0.0033229629924075984 -0.0032587492491332063 -0.003526354877291967 -0.0033247437110750892 -0.003260340708268945
          -0.003775508397169657 -0.00377537039333633 -0.0037752323895030035 -0.0038522918202462397 -0.003908218301272223 -0.0038537243817857703
          -0.003909551721181573 -0.0038551569433253013 -0.003910885141090921 -0.003703167206223194 -0.0036852708425298593 -0.0037033479719864315
          -0.0036854508902475656 -0.0037035287377496684 -0.003685630937965272 -0.0037109973719902526 -0.003711463293114001 -0.003711929214237749
          -0.003917260665680461 -0.003918053099122932 -0.003918845532565404 -0.0023166238721739904 -0.002316758877584927 -0.0023168938829958644
          -0.0023901960713945346 -0.0023894904171126727 -0.002388784762830811 -0.0026990353466177074 -0.0026987942140084178 -0.002698553081399128
          -0.0035660128054505486 -0.003566324342916446 -0.003566635880382345 -0.0030074096843704223 -0.0030896057173246923 -0.0030081514624920157
          -0.0030908883092978226 -0.0030088932406136097 -0.0030921709012709524 -0.0025771286752308336 -0.0024512023966641013 -0.0025765236204942188
          -0.0024508133862274576 -0.002575918565757604 -0.0024504243757908144 -0.0023283918588730417 -0.002327836991137399 -0.0023272821234017567
          -0.0019885779150693858 -0.002010444426752166 -0.001989399398868736 -0.0020112069288737017 -0.001990220882668087 -0.0020119694309952366
          -0.003901794969944996 -0.003902683334104717 -0.0039035716982644382 -0.0030186548460469386 -0.0030829515262234815 -0.003019347647078489
          -0.003083660101786823 -0.0030200404481100394 -0.0030843686773501643 -0.0038787568068081846 -0.0038593763417940855 -0.003879421743158025
          -0.0038598699555620654 -0.003880086679507866 -0.0038603635693300452 -0.0020615716655309735 -0.0020620106824640544 -0.0020624496993971357
          -0.0035522574805018415 -0.00355197521453209 -0.003551692948562339 -0.0027488754149393806 -0.00274865770739916 -0.0027484399998589392
          -0.0029077629467284165 -0.002908403562922347 -0.0029090441791162778 -0.003929414721550601 -0.003930569419515144 -0.003931724117479687
          -0.003907121159574254 -0.003908140770818576 -0.003909160382062897
        </DataArray>
        <DataArray type="Float64" Name="pe33" format="ascii" RangeMin="-0.0040998576518273405" RangeMax="-0.0017749545354769037">
          -0.0029202214864388863 -0.003185912677864059 -0.0031264434307114123 -0.002888970815703284 -0.002917112222951516 -0.0031812331774863562
          -0.0031227905286633404 -0.0028862327268251685 -0.002914002959464146 -0.0031765536771086534 -0.0031191376266152685 -0.0028834946379470527
          -0.0023085604289677223 -0.002086646124725828 -0.0021289578714650216 -0.0023891850148173854 -0.0023087847973218573 -0.002086145757146383
          -0.0021288978078129843 -0.0023895034332878217 -0.0023090091656759928 -0.0020856453895669374 -0.0021288377441609475 -0.002389821851758258
          -0.00187102790054382 -0.0018717643678627508 -0.0018725008351816817 -0.0018576254336449803 -0.0018586639279467166 -0.0018597024222484532
          -0.0029894519627037533 -0.002726678898036539 -0.0029874901764960146 -0.002726224343970659 -0.0029855283902882755 -0.0027257697899047795
          -0.003842386329304441 -0.003932816938758876 -0.0038404863848857107 -0.0038020942128389485 -0.0038388890137448046 -0.003929939863546913
          -0.0038380197786287767 -0.003799176483760016 -0.003835391698185169 -0.003927062788334948 -0.0038355531723718427 -0.0037962587546810835
          -0.0025747280275522258 -0.002772842825234551 -0.0028762187465054176 -0.0026993335632175216 -0.0025729057987742237 -0.0027714417047369857
          -0.002875523085962923 -0.0026982875208495763 -0.002571083569996222 -0.0027700405842394195 -0.002874827425420428 -0.0026972414784816314
          -0.002151170972599316 -0.002299418379526571 -0.002091426728331734 -0.001988511621040645 -0.0021519233023751107 -0.0022985895372380676
          -0.0020906410177622715 -0.001988704605488262 -0.002152675632150905 -0.0022977606949495647 -0.0020898553071928097 -0.001988897589935879
          -0.003940139408137946 -0.003899981235064046 -0.003887359165345644 -0.0039397256145607355 -0.003899654394568566 -0.0038866877708097305
          -0.003939311820983525 -0.0038993275540730853 -0.0038860163762738167 -0.00373504792193208 -0.003911739708918499 -0.003905143385683449
          -0.003663307390751893 -0.003733423754888797 -0.003908707042473501 -0.0039013076602965623 -0.0036611110544658597 -0.0037317995878455136
          -0.0039056743760285035 -0.003897471934909676 -0.003658914718179827 -0.00346517821169777 -0.0034635488847818063 -0.003461919557865842
          -0.0033274578986061468 -0.0032247648748993636 -0.0033229741541333417 -0.003221670516108282 -0.003318490409660536 -0.0032185761573171987
          -0.002771515098247806 -0.002995201726100301 -0.0026959715904725737 -0.002768030508116746 -0.002991927101860849 -0.002693185535542179
          -0.0027645459179856864 -0.002988652477621397 -0.0026903994806117843 -0.0035991037599696933 -0.0035225452041521316 -0.003610132222918578
          -0.0036965067029861797 -0.0035954235195820193 -0.003520043803220381 -0.0036082450439346514 -0.0036935609456564423 -0.0035917432791943457
          -0.003517542402288631 -0.0036063578649507253 -0.0036906151883267044 -0.0031434475148521845 -0.0029552327146069373 -0.003076550191790098
          -0.00314192710477321 -0.002954320236964275 -0.0030736632687122078 -0.003140406694694236 -0.0029534077593216116 -0.003070776345634318
          -0.0028113331911935606 -0.0027997991472414486 -0.0025128004727431727 -0.002810170251384551 -0.0027968915826831276 -0.002509551278425045
          -0.002809007311575542 -0.0027939840181248057 -0.002506302084106917 -0.0033529543976999338 -0.003229587749911214 -0.0032926810756215563
          -0.0034712275458464773 -0.0033507192466128086 -0.0032254245140767683 -0.0032894367037841353 -0.0034688855194246753 -0.0033484840955256825
          -0.0032212612782423215 -0.003286192331946715 -0.0034665434930028736 -0.0037696156476334274 -0.0035913000168636793 -0.003765724507501888
          -0.003587351856899345 -0.0037618333673703494 -0.0035834036969350108 -0.003884352301223332 -0.0037346480074561617 -0.003689248512703025
          -0.003882460277692114 -0.0037340904953840964 -0.003688194105156818 -0.003880568254160897 -0.003733532983312031 -0.003687139697610611
          -0.0034973691865903154 -0.0035406839902718925 -0.0037071359969103653 -0.003682332058939917 -0.003496228146844851 -0.0035378365866262176
          -0.003703613103107272 -0.003680249785012187 -0.0034950871070993875 -0.0035349891829805427 -0.003700090209304179 -0.003678167511084458
          -0.0021569836477887245 -0.0022541996001142197 -0.0021581956172921986 -0.002255274675273025 -0.0021594075867956727 -0.00225634975043183
          -0.0024857419678641197 -0.0027191444719283295 -0.0024835643605982624 -0.0027162655717357844 -0.0024813867533324046 -0.0027133866715432393
          -0.0017834142688428422 -0.0018253581415173033 -0.0017842687908026255 -0.0018262290017550479 -0.0017851233127624093 -0.0018270998619927927
          -0.0026892158776023315 -0.0024656257012298714 -0.0025664453437607773 -0.0028281886865419584 -0.002691362574448344 -0.002468880195843579
          -0.002568580958854495 -0.0028286719360234285 -0.0026935092712943557 -0.0024721346904572855 -0.0025707165739482134 -0.002829155185504898
          -0.003993189353772829 -0.003923199892805084 -0.003991602902709014 -0.0039219508879305654 -0.003990016451645198 -0.003920701883056048
          -0.00403302890871712 -0.00393262524615913 -0.004028314716697253 -0.00392885582255765 -0.004023600524677385 -0.0039250863989561706
          -0.0040998576518273405 -0.004034640293753286 -0.004095026550008361 -0.004029185918645296 -0.004090195448189381 -0.004023731543537306
          -0.002448349036914355 -0.0024493514131684758 -0.0024503537894225965 -0.003442381048725794 -0.0034424285200089747 -0.0034424759912921555
          -0.003832942203094439 -0.0037010062460405124 -0.0036440875581135266 -0.003793083279556818 -0.0038313994954690747 -0.0036991841861766885
          -0.0036425859254566725 -0.0037923556114993913 -0.003829856787843711 -0.0036973621263128643 -0.003641084292799818 -0.0037916279434419644
          -0.0038013471482035914 -0.0037838248042276613 -0.0038781905824327423 -0.0037976972854602722 -0.003781365498703506 -0.003875597499418889
          -0.0037940474227169535 -0.0037789061931793513 -0.0038730044164050365 -0.004008504319239989 -0.003906404017038381 -0.004002040906926056
          -0.003901372602610561 -0.003995577494612123 -0.003896341188182742 -0.0034940893059672434 -0.0034942612881376438 -0.0034944332703080437
          -0.0018662292888155577 -0.0019757470619873505 -0.002041294557214827 -0.0019114898633259176 -0.0018664222273455978 -0.001976142779137938
          -0.0020431047658944746 -0.00191222833733444 -0.0018666151658756377 -0.0019765384962885254 -0.002044914974574122 -0.0019129668113429623
          -0.003917555574114827 -0.003916085114219504 -0.003914614654324179 -0.0035553041575693235 -0.003555163888399869 -0.0035550236192304152
          -0.0038202929276760465 -0.0038188582834808357 -0.0038174236392856243 -0.002583950368641641 -0.002364778164439484 -0.0025824027480252495
          -0.0023647693942016727 -0.0025808551274088586 -0.0023647606239638615 -0.0032725380902420666 -0.0032748657469959656 -0.0032722713460493925
          -0.003276267652918175 -0.0032720046018567175 -0.003277669558840385 -0.004067993634776548 -0.0039749895598760274 -0.004062048572304631
          -0.003970534627120618 -0.004056103509832714 -0.0039660796943652085 -0.003480558146209713 -0.003425295352368917 -0.0034761899771867
          -0.0034216508035718332 -0.003471821808163686 -0.0034180062547747494 -0.0037110263978219 -0.003709355589307628 -0.003707684780793357
          -0.003336806937534965 -0.003091477627110013 -0.0033345008786062015 -0.003090238990299057 -0.0033321948196774367 -0.0030890003534881
          -0.00345065442083423 -0.0033551630268054498 -0.003446528193124122 -0.0033496759862534898 -0.003442401965414015 -0.0033441889457015298
          -0.004048071784053336 -0.004043142671613407 -0.004038213559173479 -0.004015952643640474 -0.004013596664236757 -0.004011240684833039
          -0.003336491741516535 -0.003320570262262653 -0.0033333542842675515 -0.0033152790603380796 -0.003330216827018568 -0.003309987858413507
          -0.004075401951510319 -0.004072170084495737 -0.004068938217481154 -0.003350604049359494 -0.0033515594206789583 -0.0033525147919984226
          -0.004093111071406908 -0.004049659896602003 -0.004089261265106115 -0.0040475347545612305 -0.0040854114588053225 -0.0040454096125204595
          -0.0038371898302218452 -0.003752327895655523 -0.003834841544188325 -0.0037492273919017835 -0.003832493258154804 -0.0037461268881480445
          -0.003000384493289799 -0.0031778930436069846 -0.003192459826310135 -0.002997819251294462 -0.0031754251675313724 -0.003187951373595567
          -0.002995254009299126 -0.0031729572914557603 -0.003183442920880999 -0.0034552686317986924 -0.0033295851715281584 -0.0034941432874265443
          -0.0036424439417595106 -0.0034508489735143276 -0.003323886192787935 -0.0034882625661097157 -0.003637656419055043 -0.0034464293152299623
          -0.003318187214047712 -0.003482381844792888 -0.003632868896350575 -0.0022935519864827167 -0.0020936786956322574 -0.0020383353472458064
          -0.0021868632904237535 -0.002295536882026128 -0.0020942994739097725 -0.0020383535071281152 -0.0021877493629071597 -0.0022975217775695386
          -0.0020949202521872877 -0.002038371667010424 -0.0021886354353905656 -0.0040829346025343105 -0.004077315989587386 -0.004071697376640461
          -0.0032102480364067194 -0.003075685146176391 -0.0032068110880862284 -0.0030723727238640497 -0.003203374139765738 -0.0030690603015517083
          -0.003942279733702035 -0.0038885114243685597 -0.00394041271475661 -0.0038861784260984396 -0.003938545695811186 -0.0038838454278283204
          -0.0029376725684945536 -0.002782909531247948 -0.0029354537286561374 -0.002782514384206662 -0.0029332348888177207 -0.0027821192371653746
          -0.0023565731428957888 -0.0025145758752991828 -0.0023584706508795366 -0.0025163158473087595 -0.0023603681588632835 -0.0025180558193183366
          -0.0021982343276717837 -0.0020699189195626986 -0.002198285141491716 -0.002069762980448208 -0.0021983359553116484 -0.0020696070413337175
          -0.003972644440190171 -0.003969791971592772 -0.003966939502995375 -0.00398844555493412 -0.00398599585092578 -0.00398354614691744
          -0.002478949066651878 -0.0022629608069129744 -0.0021959997092331936 -0.0024027599953210035 -0.0024788707512746187 -0.002264348921872787
          -0.0021981981715322564 -0.002404320519397035 -0.0024787924358973595 -0.0022657370368325993 -0.0022003966338313198 -0.0024058810434730675
          -0.004002799018013209 -0.004017711272007905 -0.003999588843841677 -0.0040155983395784595 -0.003996378669670147 -0.004013485407149015
          -0.001777409657134946 -0.0017749545354769037 -0.0018072752805718822 -0.0017902775008399572 -0.001777363552687844 -0.0017752452898713565
          -0.0018071905379463233 -0.0017902544335100907 -0.001777317448240742 -0.0017755360442658094 -0.0018071057953207637 -0.0017902313661802244
          -0.001937593961746915 -0.0018330967116751535 -0.0019452177975488728 -0.0019379256133394717 -0.0018339322742069097 -0.0019451523120699124
          -0.0019382572649320282 -0.0018347678367386662 -0.0019450868265909525 -0.0025870335794040324 -0.0025891229970431305 -0.0025912124146822276
          -0.003723715887126204 -0.003590999004609956 -0.0037196772968173617 -0.0035870632186876836 -0.0037156387065085195 -0.0035831274327654105
          -0.0035515770719727327 -0.0032809702447017955 -0.003549291956975415 -0.003278610991471596 -0.0035470068419780967 -0.003276251738241397
          -0.002659658427863284 -0.002659447183180471 -0.0026592359384976574 -0.004052525175474638 -0.004049145478994636 -0.004045765782514635
          -0.0029443972964448262 -0.003190736700568308 -0.0029446944918190706 -0.003187467445071418 -0.0029449916871933136 -0.0031841981895745284
          -0.0018369258355908204 -0.0017969833509318342 -0.0018365053026696305 -0.0017969468890073907 -0.0018360847697484407 -0.001796910427082947
          -0.0018478392287033473 -0.001899954221689985 -0.0018479572176261039 -0.001899972388627821 -0.0018480752065488607 -0.0018999905555656576
          -0.001977274782363066 -0.0022149105460551447 -0.0020861558346324032 -0.0019766842167931033 -0.0022128777908253846 -0.0020841834297402563
          -0.0019760936512231405 -0.0022108450355956244 -0.0020822110248481093 -0.002445326437318755 -0.002648657923215266 -0.002443595760135336
          -0.002647468802970935 -0.002441865082951917 -0.0026462796827266054 -0.0019135275701165058 -0.0019511453731392505 -0.0019123780716222916
          -0.0019501782686533885 -0.0019112285731280778 -0.0019492111641675259 -0.002347951447256888 -0.0022166535410491576 -0.002344948730092983
          -0.0022132875918537097 -0.002341946012929077 -0.002209921642658262 -0.001911908136417931 -0.0019121654099025426 -0.0019124226833871546
          -0.0023551533928375073 -0.0022989113333525676 -0.0022773771325439052 -0.0023135314870905517 -0.002352671063548472 -0.0022961628821652463
          -0.0022739209142242185 -0.0023103839948527627 -0.0023501887342594367 -0.0022934144309779254 -0.0022704646959045317 -0.0023072365026149746
          -0.0021664266766152846 -0.002186124934982236 -0.002165165673976464 -0.002184954220312405 -0.002163904671337644 -0.0021837835056425737
          -0.001873711126589757 -0.0018733117775015576 -0.0018729124284133575 -0.0023194356562856126 -0.0023156011589614846 -0.0023117666616373567
          -0.002766759309478614 -0.0027657672927952712 -0.0027647752761119286 -0.002645171118053484 -0.0026475309601567904 -0.002649890802260096
          -0.0030259588008622407 -0.0030240605985180505 -0.0030221623961738595 -0.0028599036087019513 -0.002970816355446361 -0.002858450772283473
          -0.002967832009170296 -0.002856997935864995 -0.0029648476628942313 -0.0030818522274378337 -0.003079155255463371 -0.003076458283488908
          -0.002967403860529208 -0.0029680866272405655 -0.0029687693939519227 -0.002028716548022789 -0.0020281952558955556 -0.0020276739637683228
          -0.003951471510500725 -0.003950448267713116 -0.003949425024925508 -0.0034256380313199388 -0.00334132550737224 -0.0034227044711648714
          -0.003338436095957054 -0.0034197709110098044 -0.0033355466845418676 -0.003992269029110377 -0.003991085267982519 -0.00398990150685466
          -0.003249932104880769 -0.0032472995355838146 -0.003244666966286861 -0.0031133888729262594 -0.003109016898633067 -0.0031046449243398743
          -0.0029341728520916968 -0.0029362577600530624 -0.0029383426680144277 -0.00315248903425326 -0.0031542270889384112 -0.0031559651436235624
          -0.0030721696684975573 -0.003073264577351309 -0.0030743594862050615 -0.002065754089047789 -0.0020425217832110666 -0.00206705375834846
          -0.002044080887215886 -0.0020683534276491307 -0.0020456399912207063 -0.0025073151433649705 -0.0023592852163445846 -0.0025032475001019088
          -0.0023552145659343853 -0.0024991798568388466 -0.002351143915524186 -0.002452784994654445 -0.0024508881804630143 -0.002448991366271583
          -0.001813932737198196 -0.001813939601299469 -0.0018139464654007426 -0.0038641844839723384 -0.003862090937941142 -0.0038599973919099468
          -0.0021172410041363898 -0.002220817511720788 -0.0021182921036812913 -0.002220440026275486 -0.0021193432032261925 -0.002220062540830184
          -0.0023300098904409624 -0.0024036620940052905 -0.0023133109032635888 -0.002326678605852038 -0.0024006779077912076 -0.002311407991659842
          -0.0023233473212631137 -0.0023976937215771242 -0.0023095050800560953 -0.0023066819137361584 -0.002344780249148407 -0.0023042207144187677
          -0.002342536977073594 -0.002301759515101377 -0.0023402937049987805 -0.002340376151210737 -0.002339095396809193 -0.0023378146424076498
          -0.0024719545121287055 -0.0024680900115098673 -0.0024642255108910287 -0.0023508530438813846 -0.002346288076577396 -0.0023417231092734076
          -0.003934320570001666 -0.003932126116084373 -0.00392993166216708 -0.0018443239326131787 -0.00184399176719807 -0.0018436596017829612
          -0.0018769130484538276 -0.0021539433238299075 -0.0018771042803089005 -0.0021546843403666732 -0.0018772955121639735 -0.0021554253569034394
          -0.0038193295828602833 -0.00381937557669546 -0.0038194215705306366 -0.003208991321781938 -0.0032527416080949762 -0.003491366750831253
          -0.0032063602752311765 -0.003250714145901978 -0.003490546138223187 -0.0032037292286804147 -0.003248686683708979 -0.00348972552561512
          -0.002123512967746756 -0.00220707729997506 -0.0021245923363276908 -0.0022087634978637787 -0.002125671704908626 -0.002210449695752498
          -0.0038728877834230437 -0.0037943757387885564 -0.0038716815593526537 -0.0037940931847271087 -0.003870475335282264 -0.003793810630665661
          -0.0023358806557934996 -0.002338441522646826 -0.0023410023895001526 -0.003512425089190475 -0.00333052109852854 -0.003222881912342917
          -0.0035131407405109925 -0.0033342439862559764 -0.0032261253543815543 -0.00351385639183151 -0.003337966873983413 -0.0032293687964201913
          -0.0037658856442571065 -0.0037658594615569505 -0.003765833278856794 -0.003911174498961458 -0.003962353965449968 -0.0039058736641638296
          -0.003956258880315386 -0.0039005728293662013 -0.0039501637951808045 -0.0037122108489237105 -0.0036987039241715503 -0.003711464527987412
          -0.00369880680383245 -0.003710718207051113 -0.0036989096834933502 -0.003782584660748694 -0.003779960261835371 -0.003777335862922047
          -0.003813098611428014 -0.003811639199026263 -0.0038101797866245115 -0.0022980104674458126 -0.0023006414926669445 -0.0023032725178880765
          -0.0024453662697455528 -0.002446237299520458 -0.002447108329295363 -0.002735264339133515 -0.002736094385783674 -0.002736924432433834
          -0.0035791755739523643 -0.0035801544530298574 -0.003581133332107351 -0.003034113031010147 -0.0031382028021280485 -0.003033924696900036
          -0.00313584660584826 -0.0030337363627899244 -0.003133490409568471 -0.002537331373671615 -0.00241319639159212 -0.002540077336305032
          -0.002416572878845454 -0.002542823298938449 -0.002419949366098788 -0.0023065202155149976 -0.0023087455811221054 -0.002310970946729213
          -0.0019841100630947055 -0.0020053296751406224 -0.0019860436359679353 -0.0020069596394593084 -0.001987977208841165 -0.0020085896037779945
          -0.003782622978908006 -0.0037810610130704233 -0.0037794990472328404 -0.00300864689267029 -0.003111892367903453 -0.0030087292533798778
          -0.00311362198959872 -0.003008811614089466 -0.003115351611293986 -0.0038175847635559834 -0.0037344343634862615 -0.0038153442423561716
          -0.00373294011931169 -0.0038131037211563594 -0.003731445875137118 -0.0020567051823580217 -0.002058002688239641 -0.002059300194121259
          -0.0036572699308580225 -0.0036566746909370584 -0.0036560794510160934 -0.0027208722655799747 -0.002722110569895541 -0.002723348874211108
          -0.002891431134743892 -0.0028911798635104114 -0.0028909285922769303 -0.003950544075584598 -0.003945322944183243 -0.00394010181278189
          -0.003895415415174627 -0.00389179021098737 -0.003888165006800112
        </DataArray>
        <DataArray type="Float64" Name="disp_x" format="ascii" RangeMin="0.00005256027139156968" RangeMax="0.00012285882835438484">
          0.00009963086572431243 0.00009892589490231758 0.00010291697074502544 0.00010452357590320379 0.00009962894635665771 0.00009892318495733146
          0.00010291240416565966 0.00010451909297167092 0.00009962467341776085 0.00009891480769709513 0.00010289933024905909 0.00010450550108397237
          0.00006059132255786168 0.000057680285606296734 0.00005641039029973414 0.00005929285003560506 0.00006059579762185292 0.000057685501629232965
          0.00005641654927833613 0.000059297894852610846 0.000060609384532962454 0.0000577018530367928 0.00005643533084738696 0.00005931399917797331
          0.00005396241414315568 0.00005396841620783426 0.00005398664985100247 0.00005533984971577123 0.00005534562833055738 0.00005536260953443384
          0.00010705618802535413 0.00010862684693138077 0.00010705044621794129 0.00010861979057727869 0.00010703283084177163 0.00010859800506109598
          0.0000950449874780706 0.00009371877158450767 0.0000982903151768683 0.00009837380849143697 0.00009504289148128176 0.00009371620214066474
          0.0000982868259727896 0.00009837019435884194 0.00009503637506790191 0.00009371012153732687 0.00009827632990005656 0.00009835943287175695
          0.00008364367230888097 0.00008285524175235565 0.00008578350563499124 0.00008665553477606348 0.00008364525449396368 0.00008285725717645884
          0.00008578522695948452 0.00008665756441136245 0.00008365126267933272 0.00008286414521929942 0.00008578975798201323 0.00008666182306837659
          0.00007489452427303534 0.00007755778172116245 0.00007854110720989915 0.00007584795685964198 0.00007489765781874479 0.00007756090256981982
          0.00007854324248312933 0.00007584960902026393 0.00007490839168141214 0.00007756938761460333 0.00007855058470852425 0.00007585540383153777
          0.00009208252627995355 0.00009084381559656088 0.00009740025352726127 0.00009208127464799003 0.00009084300782933936 0.00009739913833443579
          0.00009207789129635434 0.00009083994172718884 0.00009739726438398998 0.00007082298138843016 0.00007480733432155703 0.00007624785345538208
          0.00007113611986510351 0.00007082787546854761 0.0000748116386326141 0.0000762516918901737 0.00007114108374567954 0.00007084386132462764
          0.00007482273775801255 0.00007626663831295857 0.00007115341863493412 0.00006627300364175611 0.00006627869438093112 0.00006629599632306951
          0.0001012054798193752 0.00010523214441586132 0.00010120203876427979 0.00010522719653874745 0.00010119135658956217 0.00010521228413910918
          0.00009362605102993143 0.00009490304160989647 0.00009710863019681176 0.00009362646062943215 0.0000949027610539189 0.00009710723671931446
          0.0000936254768631458 0.00009490130721248782 0.00009710378054200875 0.00009584408710391741 0.00009216510647350549 0.00008894679123360363
          0.00009291513414665892 0.00009584275563993004 0.00009216554433374935 0.00008894683197168826 0.00009291456388603765 0.00009583931350797833
          0.00009216731109363619 0.00008894740264561002 0.00009291361204700648 0.00008853471540173287 0.00008857925954122404 0.00008521017320702021
          0.00008853584608466863 0.00008858141075174456 0.00008521155422911843 0.00008853856235941545 0.00008858731620786149 0.00008521491294919855
          0.00008854058677194767 0.00009049701852850701 0.00008816815332365801 0.00008854288272104777 0.00009049858865320437 0.00008816951354737921
          0.00008855012178849831 0.00009050421833598636 0.00008817461778942395 0.00008845871190579019 0.00008410593872337411 0.0000816181962118491
          0.00008493113204313642 0.00008845954168377218 0.00008410779586511516 0.00008162058657323769 0.00008493217643739938 0.00008846102312943247
          0.00008411163558810088 0.00008162902440161 0.00008493489655069887 0.0000756585364789149 0.00007143169200853958 0.00007566238978005674
          0.00007143687575651643 0.00007567303851377667 0.0000714509724536309 0.00009817806905437911 0.00010304144677724783 0.00010266369098747613
          0.00009817518155737126 0.00010303753379231011 0.00010265990483592946 0.00009816614500601518 0.00010302694585381793 0.00010264790788175931
          0.00010550413269572444 0.00010273400045266613 0.00009912486631369033 0.00010136056805759308 0.00010549975258348142 0.00010272977663857624
          0.0000991213844665079 0.00010135680506948114 0.00010548701047645575 0.00010271811245630108 0.00009911036958732734 0.00010134568912838176
          0.00011473077506847866 0.00011200428167806749 0.00011472889443975915 0.0001120013118037413 0.00011472565914759029 0.00011199457995354103
          0.00010074522956390898 0.00010225575464032754 0.000100743977743911 0.00010225302196462638 0.0001007391031307891 0.00010224462015962536
          0.00006326877693409833 0.00006320162205161183 0.00006327073476357362 0.00006320424446578491 0.00006327530971060693 0.00006321162016001479
          0.00011497666988146297 0.00011578253224197209 0.00011244868165108813 0.00011106001369189989 0.0001149714823842811 0.00011577898828918573
          0.00011244305025556622 0.00011105376308729543 0.00011495687792651571 0.00011576769509390267 0.0001124251101994259 0.00011103497163838606
          0.00009234797979652656 0.00009767640549065438 0.00009234678060647235 0.0000976746762047523 0.00009234316956491279 0.00009766964438678643
          0.00007714609352370105 0.00007341156719750769 0.00007714939396321627 0.00007341623505965242 0.00007715920570023648 0.0000734293790825074
          0.0000801026815983971 0.0000755589457335515 0.00008010362981883972 0.00007556107254448378 0.00008010524703892203 0.00007556854505984
          0.00011030701248250815 0.000110302062640162 0.0001102849678770798 0.00011309046588898084 0.00011308450917312699 0.000113067243780221
          0.00010285670638627236 0.00010798591008425616 0.0001080903881457765 0.00010304684586867304 0.0001028552418050865 0.00010798326894272081
          0.00010808818842861048 0.00010304536207451389 0.00010284972221335886 0.00010797437856925309 0.00010808161278378102 0.00010303841600960674
          0.00009393871139725767 0.0000907745333178389 0.00008963634112638233 0.0000939375408289878 0.00009077445277540262 0.00008963571386414098
          0.00009393420665121876 0.00009077363822867406 0.00008963410355233835 0.00007976892017695065 0.00007987975612765482 0.00007977108424541031
          0.00007988181070826425 0.00007977965776059172 0.00007988908021001684 0.0001071937212230187 0.00010719043073933735 0.00010717793014300466
          0.00007082297937703564 0.00006982078429193742 0.0000724009583192918 0.00007333490384588303 0.00007082325078561337 0.00006982187752887908
          0.00007240310443843361 0.0000733362404452013 0.00007082505414292177 0.00006982380165497816 0.00007241014954965209 0.00007333978847531429
          0.00009795314307208446 0.00009795126352024585 0.00009794389476729743 0.00010794619082334661 0.00010794360437287921 0.00010793324343898881
          0.00010288819456451633 0.0001028871518613521 0.00010288252262110428 0.00010624132943049677 0.00010891401336970459 0.00010623534302666877
          0.00010890965188706989 0.00010621601182271043 0.00010889561958768006 0.00010959490533103325 0.00011157135460412224 0.00010959072612414336
          0.00011156774887770088 0.00010957616873958017 0.00011155688089333984 0.00008291479142023112 0.00008412192903448262 0.00008291502590066349
          0.00008412226378653978 0.00008291156143815323 0.00008412099046915098 0.00009877433418451958 0.00010263091035269764 0.00009877258340752784
          0.00010262697077554997 0.00009876536292262326 0.00010261525534665668 0.00008644627383052976 0.00008644702172503599 0.00008644866419634493
          0.00010643859597215227 0.00010933019542067897 0.00010643453169483302 0.00010932513837636417 0.00010642180953730047 0.00010930793307532648
          0.00009524772760205683 0.00009758671956689798 0.0000952476672453388 0.00009758579662748397 0.00009524709171971957 0.00009758105170507743
          0.00007705758403477595 0.00007705831372782094 0.00007706000263556855 0.00009257006890871173 0.00009256821139301434 0.00009256230014871857
          0.00009288069959751885 0.00009524895871838495 0.00009288188512804541 0.00009524932572482291 0.00009288549050393249 0.00009524967750502204
          0.00008179861067586906 0.00008179848716313005 0.00008179646730617126 0.00011258906431571561 0.00011258444086708575 0.0001125720884046851
          0.00008575516281903516 0.00008699467772047805 0.00008575431346395463 0.00008699440438301157 0.00008575024784362558 0.0000869918322080821
          0.00008496749859601371 0.00008026211456268429 0.00008496832235384951 0.00008026344605916153 0.00008496845358982015 0.00008026695921969424
          0.00009151984326085569 0.00009195482996509218 0.00009530432021148512 0.00009152150384115392 0.00009195621171600119 0.00009530480720804657
          0.00009152525635007137 0.0000919607958334354 0.00009530501542783483 0.00007502429082731392 0.00007109543248813249 0.00007150574007565054
          0.00007560906574670683 0.00007502764089127038 0.00007110122805007666 0.00007151198038669687 0.00007561202038185905 0.00007503716879782902
          0.0000711178881847253 0.00007152892948035921 0.00007562091637475098 0.0000682777982068318 0.00006803403222530148 0.0000643127118087117
          0.00006476381157892481 0.00006828141815375002 0.00006803599201553514 0.00006431552799500298 0.00006476686732519731 0.00006829159687508915
          0.00006804187677761542 0.00006432492308283784 0.00006477689581090453 0.00008056180307864548 0.00008056407919586557 0.0000805693364958575
          0.00007375151711928952 0.00007000148903877674 0.00007375586425836621 0.00007000843717014503 0.00007376789511379964 0.00007002877345620971
          0.00008372998985356298 0.00008223323591995017 0.00008372950370911328 0.00008223315318448057 0.00008372820518980283 0.0000822331680895119
          0.00007265937971603087 0.00006893142557684538 0.00007266460691493005 0.00006893829096190235 0.00007267932011710608 0.00006895971439506013
          0.00006484737751917697 0.0000684702033399282 0.00006485177892552359 0.00006847604192540393 0.0000648640153553846 0.00006849328975132207
          0.00006148358671624836 0.00006168772270283149 0.00006148784223168835 0.0000616916599766184 0.00006149954587447087 0.00006170311169896651
          0.00008880453168556835 0.00008880391131529277 0.00008879991404588706 0.00009299710734008242 0.00009299584000456855 0.00009299073951226325
          0.00007570664262914198 0.00007406204259114811 0.00007179563622998536 0.00007179620253502178 0.00007571068170945678 0.00007406586477548244
          0.00007179887902776536 0.00007180082165252634 0.0000757230670373284 0.00007407794292995784 0.00007180768191082526 0.00007181459113435695
          0.00007803711324982766 0.00008263252503333894 0.00007803730430397804 0.00008263237604928384 0.00007803837948159903 0.00008263100351279783
          0.00006419723910632967 0.00006373314858964813 0.00006613819736738368 0.00006669772968243613 0.00006419721117812231 0.00006373362439373342
          0.00006613866946378649 0.00006669761436740766 0.0000641969498476946 0.00006373538868665706 0.0000661407637874658 0.00006669631035220867
          0.00006135155814137138 0.00005876799142239769 0.000059070098332277856 0.00006135567439824184 0.00005877193316689909 0.00005907486391708614
          0.00006136667393837193 0.00005878414949222383 0.00005908812959244727 0.00006458814582759207 0.00006459429544999406 0.00006461168256652612
          0.00009630578248188255 0.00009948640282181437 0.0000963046977386599 0.00009948369908967278 0.00009629893037502505 0.00009947367039730432
          0.00008076496959623792 0.00007787788407689717 0.00008076722836250774 0.00007788152694398299 0.00008077305956220328 0.0000778915256353318
          0.00007212111319836584 0.00007212694716952739 0.00007214400171657403 0.00008773637624379757 0.0000877354639377127 0.00008773061195133757
          0.00006710549781776837 0.00006869643688797241 0.00006711365609853526 0.00006870407548879353 0.00006713956937872874 0.00006872865885426247
          0.00006850901307763878 0.00006918177502091012 0.0000685100396595822 0.00006918206468606372 0.00006851191155368576 0.00006918145345583431
          0.00007415414779219673 0.00007668506506476644 0.00007415496735699912 0.00007668631067744725 0.0000741565732837623 0.00007668855858549449
          0.00007925818491299264 0.00008131942101106707 0.0000819043774806002 0.00007926021236898834 0.00008132209583847766 0.00008190679362693972
          0.00007926408227659151 0.00008133036684273885 0.00008191342000286956 0.00008049992323418771 0.00007965432956809957 0.00008050318458811828
          0.00007965794626020452 0.0000805116518997347 0.00007966736884583157 0.00006749119439127485 0.00006593608066004004 0.00006749270769169843
          0.00006593860726353738 0.00006749630756944807 0.00006594590422569441 0.0000843979778322055 0.00008467669393218549 0.00008440099465020801
          0.00008467870668988716 0.00008440766799855126 0.00008468506942625543 0.00006362641136125203 0.00006362979470760128 0.00006363943241395961
          0.00010509482224653289 0.00010835303032066077 0.00010839987824655375 0.0001053667876300029 0.00010509482164000898 0.00010835154380078479
          0.00010839798479109809 0.00010536680346621167 0.00010509321416796363 0.0001083472358800312 0.00010839244897558225 0.00010536922102829064
          0.00011134685430630952 0.00011134149799566686 0.00011134079961894685 0.00011133664819832908 0.00011132846684640595 0.00011132485750765593
          0.0000649263095058383 0.00006492894912427865 0.00006493751163122899 0.00008757183046108023 0.00008757329833033652 0.00008757552029750225
          0.00007575865682569513 0.0000757630940419936 0.0000757748634832423 0.00006234278049926745 0.00006234860641596091 0.00006236306874715447
          0.00007639342233099957 0.00007639779635943221 0.00007640899786108886 0.00007919697281462962 0.00008223277121841481 0.00007920098985631006
          0.00008223573328709733 0.00007921220679103541 0.0000822447947185994 0.00007972991728490385 0.00007973390620765581 0.00007974584794580515
          0.00011409131468400699 0.00011408705079469945 0.00011407412264733232 0.00005866665876866856 0.00005867179969771924 0.000058686748816253545
          0.00008736698907138502 0.00008736710589322059 0.00008736450698634916 0.00006690848020923895 0.00006749564961679667 0.00006691449066072648
          0.0000675022943070351 0.00006693197517632348 0.00006752320777551151 0.0000872603694019853 0.00008726037413061223 0.00008725672495474468
          0.00006816344389094596 0.0000681717438495409 0.00006819775792047247 0.00008191577586263121 0.0000819192949060166 0.00008192867233486979
          0.00006524635057192286 0.00006525448814526101 0.00006527735212312647 0.00011708935909193964 0.0001170893799171313 0.00011708202844120465
          0.00011591117745150395 0.00011590848605618898 0.0001159004530137113 0.0001142088844334267 0.00011414796985037619 0.00011420519065638689
          0.00011414551306275734 0.00011419641690201041 0.00011413842172278599 0.00009197103301567288 0.00009051027758768961 0.00009197247131821566
          0.00009051167181140959 0.00009197538264778737 0.00009051613862252427 0.00010530881747525135 0.00010530626455810429 0.00010529907067533492
          0.00007165685424007304 0.0000716577180858228 0.00007165832391003486 0.00007905102135106711 0.0000790514296115655 0.00007905320631507894
          0.00011445892602939328 0.00011154811494192712 0.00011445606678258215 0.00011154634983788191 0.00011444903303938648 0.00011153957152081367
          0.00009649260851279743 0.00009726601494450267 0.00009942496679864227 0.00009649202318792251 0.00009726522530233268 0.00009942480244956158
          0.0000964906711659421 0.00009726065758491294 0.00009942503933598838 0.00010236278124617228 0.0001029390809205705 0.00010236315598201845
          0.00010293829512004496 0.00010236578063531495 0.00010293695528945501 0.00010859988824680556 0.00010859747836278644 0.00010858956862143584
          0.00009541774334876118 0.00009541734008037749 0.00009541645413328248 0.00009349903105312113 0.00009349994744580112 0.00009350140203557787
          0.00007862577246182312 0.00007862623856231829 0.00007862627568590239 0.00006543300732669495 0.00006543543854223829 0.00006544199540307646
          0.00005256027139156968 0.000055063014175955505 0.000052566659430043425 0.00005506916965630744 0.00005258420434821634 0.00005508737030212332
          0.00009702993897318867 0.00009702893393149126 0.00009702594471144935 0.00006247834724450697 0.00006198622845676346 0.00006571469740510554
          0.00006248468679544692 0.00006199234368920123 0.00006572090579059165 0.00006250379676179776 0.00006201025504961635 0.00006573381630604606
          0.00011779780397641955 0.00011573483525093904 0.00011779748552093652 0.00011573411062386437 0.00011779471159545196 0.00011573224563160063
          0.000088163473607109 0.00009246251523609127 0.000088162617438361 0.00009246162795742446 0.00008816017774506568 0.00009245915270934345
          0.00011388280491673502 0.00011387969178572044 0.00011387118437822103 0.00011314220383273747 0.00011833595131146654 0.00011793844316690471
          0.00011313328318361511 0.00011833523537473161 0.00011793281781449956 0.00011311574828121572 0.00011832775525702343 0.00011791764122965584
          0.00010374589334145302 0.00010374444599741137 0.00010373934716981066 0.00007143463401439495 0.00007265713570502574 0.00007143905942195205
          0.00007266003878720965 0.00007145072563511757 0.00007266889197612522 0.00010796137634787752 0.00010860017543389423 0.00010795781529618104
          0.00010859956695516452 0.00010794774849571353 0.00010859587760980335 0.0000697827419900837 0.00006978761659629967 0.00006980478352489549
          0.00008458292848957934 0.00008458256779963077 0.00008458211708240971 0.00011720006450495085 0.0001171989614033906 0.00011719574771470049
          0.000057914118715462883 0.00005792085982843818 0.0000579413963842454 0.00006088893678949832 0.000060895698187399055 0.000060915730311492496
          0.00011274631845792792 0.00011274572855031642 0.000112738394694909 0.00006402650918822671 0.00006315481517070385 0.00006403348443607973
          0.00006316173819967347 0.00006405457939667255 0.00006318309205944584 0.00011864773825043724 0.00011812174930490204 0.00011864427233931847
          0.00011811819772063393 0.00011863347374104856 0.00011810959982830705 0.0001200510463824214 0.00012005005891950452 0.00012004654109675454
          0.0001168364378005069 0.00011691613615204377 0.00011683424794359672 0.00011691588042529712 0.00011683569781521836 0.00011691511422752962
          0.0000798354667048197 0.00007983602825079511 0.0000798363698209369 0.00012175345291804373 0.0001228542961558221 0.00012175096490452071
          0.00012285522747943736 0.00012174514979386631 0.00012285882835438484 0.00007497959994476295 0.00007581254358572575 0.00007498036363681074
          0.00007581337604158599 0.00007498274126041322 0.00007581546221348712 0.00011712793826783371 0.00011712756579588586 0.00011712465875464366
          0.00006861665426712787 0.00006862207052359638 0.00006863944942000057 0.00011942944463578602 0.00011942631738106 0.00011941460248967736
          0.00012043249271791398 0.00012042933258270969 0.00012041987883703163 0.00007367394229936274 0.00007367559329452306 0.00007367873241889685
          0.00007442907237434751 0.00007442958902394183 0.00007443103847200109
        </DataArray>
        <DataArray type="Float64" Name="disp_y" format="ascii" RangeMin="-0.0000512325708133905" RangeMax="-0.00001479818908441497">
          -0.000045893464382522686 -0.00004415892356187943 -0.00004258473731590031 -0.00004355668208224663 -0.000045898217839718344 -0.00004416256583922895
          -0.00004258702149707702 -0.000043559991545256736 -0.00004591169879931851 -0.00004417454020692345 -0.00004259506592805596 -0.00004356910065234283
          -0.00003620323758318062 -0.00003505497711083329 -0.00003372898941516902 -0.00003463274793417895 -0.000036205474347853914 -0.000035056480460070476
          -0.000033730523743639276 -0.00003463458935061258 -0.00003621255432413294 -0.00003506115100262367 -0.000033734922086725936 -0.00003464057757544775
          -0.00003288551624363535 -0.00003288688678962143 -0.000032891629492709316 -0.00003410638989626189 -0.00003410759346473589 -0.0000341110252527844
          -0.00004067969916104186 -0.000041536647093368564 -0.00004068226401903754 -0.00004153941040061892 -0.000040688289602628764 -0.00004154820190881956
          -0.00003447200505364898 -0.00003215530135998675 -0.00003143217548977051 -0.000033042748370032095 -0.000034473306014439185 -0.00003215603854180851
          -0.00003143283370926859 -0.00003304354575481845 -0.00003447718177776557 -0.000032158377721363017 -0.00003143552735821658 -0.00003304631878967512
          -0.00004820962597146272 -0.00004681913638733755 -0.000046872535589815656 -0.000048215708771690534 -0.000048214872222698773 -0.00004682422819574961
          -0.00004687766862391935 -0.000048221257511874154 -0.00004822961887451078 -0.000046840185505664885 -0.00004689515879467732 -0.00004823538450975532
          -0.000046316905783433543 -0.00004716570550312028 -0.000048419299913071915 -0.00004741925700601015 -0.0000463209806544083 -0.000047170505140393684
          -0.00004842514553345001 -0.00004742370445972325 -0.000046333354899719955 -0.00004718484634249729 -0.000048443291459631715 -0.0000474375527773957
          -0.000021519815324470307 -0.00001924476247424478 -0.000021116978884542806 -0.00002151868420745379 -0.000019243730478565405 -0.000021115885057953833
          -0.0000215152088707832 -0.000019240685759849197 -0.000021112535528125284 -0.000029882271204354035 -0.000030337574190310927 -0.00003220692932631201
          -0.0000322244348240865 -0.000029884020173842666 -0.000030338709316564404 -0.00003220867468390829 -0.000032225740530822925 -0.000029887911883933
          -0.00003034468067333847 -0.000032213761543420364 -0.00003223039359073209 -0.000030262139047979337 -0.000030263644193712908 -0.000030266541198366335
          -0.00004146742100506195 -0.00003965404145874351 -0.00004146974251767428 -0.00003965569040615612 -0.000041476656098534586 -0.00003966148995238442
          -0.00004824117876197667 -0.000046600112065482275 -0.00004805705867927848 -0.00004824688323274027 -0.00004660484536684403 -0.000048062925056535646
          -0.00004826250354583007 -0.0000466212266930024 -0.000048079572804482874 -0.0000396100541533734 -0.000041324850246106214 -0.0000400973173893522
          -0.00003859602999651079 -0.00003961214134023928 -0.000041327590924914266 -0.00004010006165794459 -0.00003859830462179051 -0.000039619338078188235
          -0.000041336507510919085 -0.000040108852048637974 -0.000038605387889863025 -0.00004529888633627761 -0.000046765919776184636 -0.00004546342251369616
          -0.00004530362023350562 -0.00004677085520839033 -0.00004546887042371792 -0.00004531751747204132 -0.00004678700845037218 -0.00004548569557633775
          -0.00004775901081361986 -0.00004813176385215925 -0.00004958215580895995 -0.000047764541151449876 -0.00004813712067501718 -0.00004958851283164171
          -0.00004777991077963381 -0.000048152240213971106 -0.000049607265051819415 -0.00004330253254896476 -0.00004404928862872391 -0.00004268592120710989
          -0.00004149670269038615 -0.000043306568321994766 -0.00004405399083545826 -0.000042689792776098604 -0.00004150019260567071 -0.000043318079557956544
          -0.000044066725757359586 -0.0000427013183898566 -0.00004151002014479091 -0.00003461422921367557 -0.00003425386346591419 -0.000034616583954909996
          -0.00003425606316446978 -0.000034622031422190054 -0.00003426112185173539 -0.000029040322942493612 -0.00002903001155934978 -0.0000313665294211839
          -0.000029041074736109556 -0.000029030977128053615 -0.00003136742818088283 -0.00002904240236010205 -0.000029034136479563467 -0.00003137014744581647
          -0.00003395878813116055 -0.0000359908043396022 -0.00003530174476054823 -0.000033440062805811684 -0.000033959709467304646 -0.00003599157645131535
          -0.00003530287329386554 -0.000033440982258015266 -0.00003396287163130869 -0.000035994617128358054 -0.00003530606493955852 -0.000033442835124609036
          -0.000041078315457369735 -0.000041857803936870406 -0.000041079430733547446 -0.00004185827153529508 -0.00004108204259508633 -0.000041858849096414515
          -0.00004779977481530832 -0.00004602006808524083 -0.0000478057814329055 -0.000046023856910972427 -0.000047823213970389556 -0.00004603878842707694
          -0.00004045124829834015 -0.00004022611288276637 -0.00004045155326521643 -0.000040226804869909115 -0.00004045173261728907 -0.000040228504636858825
          -0.000036980908281839234 -0.000037914008233520565 -0.00003960510670623635 -0.00003875191218820265 -0.00003698384143681854 -0.00003791653017118858
          -0.00003960797574889585 -0.000038754845296848904 -0.00003699304597568494 -0.00003792403658487286 -0.00003961665976758841 -0.0000387634113623906
          -0.000024103786428699627 -0.00002382504789567542 -0.00002410297677919407 -0.000023824588937183395 -0.000024099356485196608 -0.00002382332005308192
          -0.00002896688677387827 -0.000027942377043375055 -0.000028967588569419035 -0.000027943723084117274 -0.000028970122281918043 -0.00002794781838854073
          -0.000026724182708953124 -0.000025927747192320458 -0.00002672427401362534 -0.00002592838811057091 -0.000026723509361084478 -0.000025929041202860726
          -0.000041941673082305675 -0.00004194298612552532 -0.000041947649713285515 -0.000026888910896801232 -0.00002689001686463546 -0.000026893584310018073
          -0.000023758628518713585 -0.000024023288169583038 -0.000026654441540486366 -0.000026371849710592766 -0.00002375867125025793 -0.000024023464159418468
          -0.000026655906770768977 -0.00002637299383109857 -0.00002375974939149077 -0.000024024491890419715 -0.000026660166129910842 -0.00002637596814877601
          -0.00003635272888731165 -0.000037256739873678014 -0.000035460142973557414 -0.00003635471612202285 -0.00003725919832373646 -0.00003546219270088884
          -0.00003636024558840809 -0.000037266111740389414 -0.000035468732677445664 -0.000033206630672771426 -0.000034853177134679286 -0.000033208226877866325
          -0.000034855675877036634 -0.00003321330485299726 -0.000034865840191331445 -0.00003173760228356698 -0.00003173887302706959 -0.00003174213963595943
          -0.000045041168963718686 -0.000044068902184788186 -0.00004528031141093664 -0.000046294809036569544 -0.000045043771512148156 -0.00004407127200831661
          -0.00004528341920058205 -0.00004629816162142784 -0.00004505152498248746 -0.00004407878146784116 -0.000045292535279570254 -0.00004630725845140347
          -0.000026407459120919813 -0.000026407755095555462 -0.000026408371462665832 -0.00002929809044801742 -0.000029300047523275988 -0.000029305595709419156
          -0.000021219014839426954 -0.00002121838117402562 -0.000021215797862378138 -0.00004434856262853735 -0.00004354879676446283 -0.000044351200661571095
          -0.00004354988140500517 -0.00004435818032209588 -0.00004355218316275887 -0.00003450204889452744 -0.000032075860223812186 -0.000034503072614269955
          -0.00003207730524287921 -0.000034505796794675835 -0.00003208081691607235 -0.000032288392520934186 -0.00003437257328854801 -0.00003228997767714989
          -0.00003437538934789026 -0.00003229373816870483 -0.00003438422984636657 -0.000040506123033070156 -0.00003869003400630507 -0.00004050826339805336
          -0.00003869179072045476 -0.000040513994509833924 -0.00003869692749343881 -0.000038401690207979326 -0.000038405060285790366 -0.00003841401929227201
          -0.0000367134209640479 -0.0000376727879475866 -0.000036714962461917884 -0.00003767497652431968 -0.000036718402959461944 -0.00003768169903878139
          -0.0000421709603784373 -0.00004300568174384424 -0.000042173878605793654 -0.000043009199866773015 -0.000042181679756938544 -0.000043018496477056414
          -0.00002372962680212149 -0.000023728969664260796 -0.000023726720058087855 -0.000026911357974563888 -0.000026911104996132835 -0.000026910667468090833
          -0.000043699498603064926 -0.000043934334604296476 -0.0000437034976056446 -0.000043938381979142224 -0.00004371501012631038 -0.0000439491869469581
          -0.00002420501710932311 -0.00002420425335824123 -0.000024200968898572358 -0.000029522744416844776 -0.000029524405694883033 -0.00002953147356402646
          -0.000027832324900750594 -0.00002441598525507186 -0.000027832239861383286 -0.00002441491924953723 -0.000027831475362759228 -0.000024411473365573258
          -0.000036490575929785014 -0.000036952930135327464 -0.00003649392693281582 -0.000036956596793745685 -0.000036503570990904047 -0.00003696729710405248
          -0.000046757445015780167 -0.000045248473307151025 -0.00004504457307859087 -0.00004676274498380773 -0.00004525340296462946 -0.000045049253350386983
          -0.000046777202337838754 -0.000045266777219139115 -0.00004506362811103935 -0.00003853447135505324 -0.00003759328782029082 -0.000036084272749205974
          -0.00003668806672771453 -0.00003853842662724616 -0.00003759698833531042 -0.00003608707672208797 -0.000036691145299264575 -0.00003855161279942302
          -0.0000376083411134269 -0.00003609514781255833 -0.00003669966773858701 -0.00004170907242688961 -0.00004252250661856043 -0.000040259635483022624
          -0.00003987870889673606 -0.00004171193353402504 -0.00004252469504438798 -0.00004026118444538515 -0.000039880837926534776 -0.00004172014570266785
          -0.00004253134937978885 -0.00004026608226996488 -0.000039887062014411496 -0.00003039694183945459 -0.000030398503657368957 -0.000030401123725744144
          -0.00004006333672363147 -0.000038739638726699315 -0.00004006785732830633 -0.00003874380246110032 -0.000040081152810625486 -0.00003875577754348763
          -0.000019112069218530934 -0.000017290398879634125 -0.000019110401322493407 -0.000017288504390953644 -0.000019106182789192466 -0.000017283382672668242
          -0.00004130489778789508 -0.000039753131210329084 -0.00004130952886104193 -0.00003975744490274143 -0.000041323088095029715 -0.00003977048765928531
          -0.000039052450331193964 -0.00004078807816978062 -0.00003905508533932079 -0.00004079213580386984 -0.000039062692450347915 -0.00004080338156844688
          -0.00003746874349621788 -0.000038223967317203486 -0.0000374710044200694 -0.000038225841481069626 -0.000037477485159432635 -0.00003823162257122735
          -0.00003326381254972299 -0.00003326551850647538 -0.00003326933383838778 -0.000029685664079168735 -0.000029686428088520436 -0.000029688256093150668
          -0.000045398878084972946 -0.000045375498883023974 -0.000044309594807785666 -0.00004345777633912871 -0.000045403333846999205 -0.000045379566756963416
          -0.00004431314161687365 -0.000043461988561570185 -0.00004541644771183661 -0.00004539103088352611 -0.000044323854188976444 -0.00004347457286779419
          -0.000021454228540856817 -0.00002174749443393872 -0.00002145289332777992 -0.000021746343090176503 -0.000021448064839856783 -0.000021742183275066543
          -0.00004137792963939851 -0.000040915911850724136 -0.00004238379871689021 -0.00004290218544977799 -0.00004137698721462351 -0.00004091554875108657
          -0.000042384580532695456 -0.000042902410240731424 -0.000041374180716215735 -0.00004091416990299584 -0.00004238680109644878 -0.0000429039043522276
          -0.00003850920553589715 -0.00003696196623764277 -0.00003679111070359174 -0.00003851070794742975 -0.00003696280825388299 -0.00003679250338365227
          -0.000038515073391916344 -0.00003696568771094724 -0.00003679710954117858 -0.000037629494080881583 -0.000037632409286904615 -0.000037640608757034337
          -0.00003700540636945099 -0.000037867896048348525 -0.00003700761260735826 -0.00003786962121698655 -0.0000370126140894217 -0.00003787402330618126
          -0.000039516063145829724 -0.000041351586201109136 -0.00003951994327182661 -0.00004135577264335602 -0.000039530950520545454 -0.00004136796606720785
          -0.00004245446492332126 -0.000042459319079631716 -0.00004247359035097386 -0.00003082261720442053 -0.00003082352133662087 -0.00003082589779667173
          -0.00003725968471716144 -0.0000368718721034799 -0.000037262968202643476 -0.00003687558175215926 -0.0000372708856047645 -0.000036886674231950624
          -0.00004377798870260827 -0.00004440433263702145 -0.000043780255017059916 -0.00004440640563608043 -0.0000437869423495861 -0.0000444128412574293
          -0.000047172600392730935 -0.00004839914420269305 -0.00004717626543522045 -0.000048404325088606296 -0.000047187390327641215 -0.000048419234622722426
          -0.00004946467244445833 -0.000049157004732806 -0.00005031210512535658 -0.000049471770819443784 -0.000049163550183089744 -0.00005031980079172626
          -0.00004949291731165226 -0.00004918315736919068 -0.000050344746590339306 -0.00004781682555653813 -0.00004636408285392124 -0.00004782238089127955
          -0.000046369227986513 -0.00004783731209916192 -0.000046384697382980596 -0.00004291123607323013 -0.000041752876240298794 -0.0000429131244043472
          -0.00004175441332376212 -0.000042919099534621675 -0.000041757841128782 -0.000049613625846261385 -0.000050902105539498176 -0.000049620526930759005
          -0.000050910143351851527 -0.000049640942594700114 -0.0000509360066775944 -0.0000402440272711001 -0.000040245205330234 -0.000040247740430270904
          -0.00004649702651911502 -0.00004506606447274091 -0.00004566359632588977 -0.00004702852684502403 -0.00004649978726834126 -0.00004506626142669053
          -0.000045662892401697526 -0.0000470300156357437 -0.000046506107203902966 -0.00004506783679815434 -0.0000456635979374844 -0.00004703555878085702
          -0.00004428311083070778 -0.000043723195680182176 -0.00004428381083212333 -0.00004372349332586606 -0.000044284364702698534 -0.000043723034250649396
          -0.00004129441003475491 -0.00004129563931853192 -0.000041298873033761335 -0.00005118783162768282 -0.00005119629402787167 -0.00005122202138358147
          -0.000043894810493287654 -0.000043899605955127744 -0.00004391384743522885 -0.00003536490075241606 -0.00003536804459252989 -0.00003537683124812869
          -0.00004263562447499039 -0.00004264053459482983 -0.00004265452681782688 -0.00004493077818886309 -0.00004543205736530125 -0.00004493626800794005
          -0.00004543749880822635 -0.00004495205136913635 -0.00004545450059917965 -0.000043728178833014226 -0.00004373327949130826 -0.000043747342951004034
          -0.0000351306243266227 -0.00003513287281267217 -0.00003513968639104061 -0.000036132398432845635 -0.00003613424251408944 -0.000036138514318874394
          -0.000020109763488454936 -0.000020108976609330882 -0.00002010544899351804 -0.000032140349638533655 -0.000034019873247292274 -0.000032142426564089855
          -0.00003402284360830315 -0.00003214853719602446 -0.000034031729213147893 -0.00002183897786402207 -0.00002183798073909458 -0.00002183438909667329
          -0.00003571154719719221 -0.000035715527534531425 -0.000035725329692611896 -0.00004440059381385543 -0.000044405926843136276 -0.00004442023173579403
          -0.00003562637628375173 -0.0000356296662601133 -0.00003564007238700044 -0.000029437459214644774 -0.00002943768294006331 -0.00002943921558926184
          -0.00003204851754905893 -0.00003205064182311562 -0.00003205634230391626 -0.00004238813085425232 -0.0000429195911106921 -0.000042389378287388864
          -0.00004292033637070328 -0.00004239128070081587 -0.00004292219822328516 -0.00004977176823016455 -0.000051191459124365064 -0.000049779172520874816
          -0.00005120090711890423 -0.00004980229121685547 -0.0000512325708133905 -0.00004573427989783525 -0.000045736824569889226 -0.0000457451183121489
          -0.000045836088312065126 -0.00004583925063663309 -0.00004584830870476434 -0.00001715239781888736 -0.000017150247944467285 -0.00001714476289358311
          -0.00004170171691287697 -0.00004297487631580896 -0.000041702736992257595 -0.00004297424575843105 -0.000041706624349743296 -0.00004297278142814527
          -0.00005032326944646052 -0.00004936409694474614 -0.00004941016426041112 -0.00005033136513652218 -0.000049371276882287936 -0.00004941723786566444
          -0.0000503642169887183 -0.00004939385935898207 -0.00004943581255070989 -0.00004832133657799234 -0.00004753145426875427 -0.00004832619174073468
          -0.000047535994264654716 -0.00004834569803229219 -0.00004754930955174066 -0.000044277060885768686 -0.000044277526098361066 -0.000044277139593329256
          -0.000049532972814402174 -0.00004954085393844994 -0.000049561175180865984 -0.000050867363114321176 -0.0000508759815598427 -0.000050902600198847594
          -0.000019217727616901144 -0.000019216401823578714 -0.000019211293958725952 -0.00004176315623017862 -0.00004176451851879065 -0.00004176732818498187
          -0.000031605833861596 -0.00003229564503430625 -0.00003160741337808177 -0.00003229716702464057 -0.00003161162525260264 -0.000032301284177339126
          -0.00001804780732973805 -0.00001804643791956979 -0.000018042854366210812 -0.00003030876525595412 -0.000028575848104302244 -0.000028488861267454408
          -0.00003031057542851626 -0.000028577604158257562 -0.000028490655507260617 -0.00003031745417653872 -0.000028581271582548652 -0.000028495295146816124
          -0.00003946222353086929 -0.00003978975508281582 -0.00003946313711650074 -0.00003979064439323459 -0.00003946639262176296 -0.000039792430504623
          -0.000017359145867385114 -0.00001584154394452581 -0.000017357511988417614 -0.000015840080715696975 -0.000017353179948428484 -0.00001583512752676304
          -0.00003997121444888775 -0.000039973132771160086 -0.00003997956803115964 -0.000024236248115785312 -0.00002426280958324029 -0.000026857532621539603
          -0.000024237239460628367 -0.00002426361639369171 -0.00002686029523662056 -0.000024238450749808498 -0.00002427068363918489 -0.000026862856563763665
          -0.00001886261292633835 -0.000018861505485471586 -0.000018857780072874195 -0.000025341140369414792 -0.00002334785128290107 -0.00002534236884684794
          -0.000023347867056390158 -0.00002534622918850048 -0.00002334724856149283 -0.000021632770817733537 -0.000019594582181001808 -0.00002163267312232695
          -0.000019594147961551085 -0.000021631351613794728 -0.000019593330399358884 -0.000027168470388469036 -0.000027169907544605012 -0.0000271770123034229
          -0.000015542214069466707 -0.000015539892976541434 -0.000015532346355873784 -0.000038101544760118715 -0.000038103357017762167 -0.00003810925615451368
          -0.000033012288115065824 -0.00003301450087487002 -0.00003302056653556112 -0.00003355321625804705 -0.0000335565010731401 -0.00003356625543746315
          -0.000021793852483163047 -0.00002179472396427809 -0.000021798203308368032 -0.00003384457307491189 -0.00003204954434319969 -0.00003384800255223379
          -0.00003205252037010084 -0.0000338604049749505 -0.00003206095616165076 -0.000035649011216318615 -0.000036698544345311515 -0.00003565208363945209
          -0.00003670085823436114 -0.00003566236953971965 -0.00003670803494149218 -0.00003629444907054587 -0.00003629619290071581 -0.00003629981106142116
          -0.00004157872861004167 -0.00004108157169406701 -0.0000415802406534673 -0.00004108222360268548 -0.000041581583159230006 -0.00004108416242581314
          -0.000015209096703870717 -0.0000152067415193555 -0.000015199010678917607 -0.000029111761455265082 -0.000026583570509234763 -0.00002911270174811841
          -0.00002658606988914584 -0.000029114998806575048 -0.000026593436009762194 -0.000016977699540641597 -0.00001480661418735569 -0.00001697568552789491
          -0.000014804492806572687 -0.000016969760100884435 -0.00001479818908441497 -0.000040473974655762175 -0.000040474906261082196 -0.00004047980583670746
          -0.00002844017770894671 -0.000028442057182181522 -0.000028446909871239294 -0.00003382478225430789 -0.00003382802555375052 -0.00003383832982307439
          -0.000031576078402974174 -0.00003157844828789431 -0.00003158525788360762 -0.000021229549782119105 -0.00002122883121681808 -0.000021225440309683375
          -0.00001910468844835022 -0.00001910296667447319 -0.000019097720603614858
        </DataArray>
        <DataArray type="Float64" Name="disp_z" format="ascii" RangeMin="-0.0000013653358921869533" RangeMax="0">
          0 0 0 0 -5.007345800893005e-7 -5.409696453737027e-7
          -5.310320306914804e-7 -4.962334061698871e-7 -0.000001000298943428015 -0.0000010804903274758752 -0.0000010610578764132136 -9.908992619601742e-7
          0 0 0 0 -4.046846857441358e-7 -3.7196131152695957e-7
          -3.789364663581224e-7 -4.210022195260438e-7 -8.093453593844727e-7 -7.432531755601225e-7 -7.576993749713238e-7 -8.415741867135122e-7
          0 -3.382993284353065e-7 -6.770513990352868e-7 0 -3.354428599609958e-7 -6.716050359997637e-7
          0 0 -5.079656744815369e-7 -4.7008371376560847e-7 -0.0000010144542793131816 -9.407326060821984e-7
          0 0 0 0 -6.378912679507496e-7 -6.505813444210588e-7
          -6.352707966556776e-7 -6.256962499327257e-7 -0.0000012746088059113997 -0.0000013003596406279377 -0.0000012697881569241093 -0.0000012499529370104047
          0 0 0 0 -4.471740815232246e-7 -4.7453194487438794e-7
          -4.872373015075497e-7 -4.5730184952908005e-7 -8.9339482467357e-7 -9.489643598508554e-7 -9.747480827746926e-7 -9.147353097741848e-7
          0 0 0 0 -3.822971340316481e-7 -4.058748484911855e-7
          -3.726142590623215e-7 -3.5561426117139504e-7 -7.645703369755124e-7 -8.11290697104238e-7 -7.449917842681709e-7 -7.113101306697647e-7
          0 0 0 -6.432907787298973e-7 -6.398791889149001e-7 -6.409694534084243e-7
          -0.0000012868904533004186 -0.0000012797824548146942 -0.0000012818187448749581 0 0 0
          0 -6.223022598811747e-7 -6.425132536101778e-7 -6.396599323060555e-7 -6.068254180728637e-7 -0.0000012445262155378935
          -0.0000012838137574210695 -0.0000012786918438649804 -0.0000012134247076261448 0 -5.785499516862154e-7 -0.0000011567792980085048
          0 0 -5.624769862235976e-7 -5.448090647149596e-7 -0.0000011235548674582732 -0.0000010887357831362257
          0 0 0 -4.758518985468977e-7 -5.075931282135774e-7 -4.589761997943577e-7
          -9.499480503356044e-7 -0.0000010147084727082481 -9.170019109529301e-7 0 0 0
          0 -6.028872531046484e-7 -5.86354107613287e-7 -5.999134370661451e-7 -6.151849262548418e-7 -0.0000012044393782195196
          -0.0000011721227722304412 -0.0000011995384605405085 -0.0000012296214990368586 0 0 0
          -5.276276897013782e-7 -4.995116137936489e-7 -5.236310380377329e-7 -0.000001055035805354984 -9.991737135704828e-7 -0.000001045932127469537
          0 0 0 -4.712737756064969e-7 -4.814818821532382e-7 -4.402458484893411e-7
          -9.415766259541252e-7 -9.620100846578966e-7 -8.792751047529957e-7 0 0 0
          0 -5.612286832745436e-7 -5.483933219446334e-7 -5.55451046521316e-7 -5.831791821137813e-7 -0.000001122134742825729
          -0.0000010948585564599104 -0.0000011095262130346157 -0.0000011655257948945785 0 0 -6.203507380182965e-7
          -6.018014134580233e-7 -0.0000012398473114237712 -0.0000012024237690448303 0 0 0
          -6.412455721614846e-7 -6.162326576786974e-7 -6.083660545959353e-7 -0.0000012814096890310436 -0.0000012328274415037322 -0.0000012166162908984003
          0 0 0 0 -5.831343857663482e-7 -5.872556995813633e-7
          -6.158217795904181e-7 -6.083473592326071e-7 -0.0000011658963120589297 -0.0000011739536813385204 -0.0000012304707898550174 -0.0000012165436232282865
          0 0 -3.84965246866479e-7 -3.9024304376371916e-7 -7.715113662681364e-7 -7.813952233672745e-7
          0 0 -4.3061927202173426e-7 -4.825620405146642e-7 -8.596382515282735e-7 -9.650136684958775e-7
          0 0 -3.2332603707497136e-7 -3.2977809948077126e-7 -6.472248228001252e-7 -6.600275387879854e-7
          0 0 0 0 -4.532004628654524e-7 -4.204555754260227e-7
          -4.3597643464588337e-7 -4.767004017104249e-7 -9.070509996112209e-7 -8.424056804814197e-7 -8.73462565378565e-7 -9.536585749070362e-7
          0 0 -6.572507367658698e-7 -6.476509198609674e-7 -0.0000013137881851427037 -0.0000012948418421976831
          0 0 -6.653220134114678e-7 -6.540843323879799e-7 -0.0000013290607894973166 -0.0000013071980076631519
          0 0 -6.786055082396443e-7 -6.680087500505083e-7 -0.0000013553610820718636 -0.0000013342200384759075
          0 -4.1473059598734067e-7 -8.299707189656933e-7 0 -5.821211300323543e-7 -0.0000011633379128682037
          0 0 0 0 -6.345708901188582e-7 -6.181532434114531e-7
          -6.080915695820796e-7 -6.256595261101787e-7 -0.0000012687480362508573 -0.0000012342115498959968 -0.0000012146130719436164 -0.0000012516924554431501
          0 0 0 -6.286901813785356e-7 -6.242918861289876e-7 -6.40775709968696e-7
          -0.000001256251741126727 -0.0000012479396005836256 -0.0000012807138176730853 0 0 -6.760123790390457e-7
          -6.47100622312141e-7 -0.0000013494899243978588 -0.0000012919867122722416 0 -5.780244350549128e-7 -0.0000011565095623578206
          0 0 0 0 -3.37520153587267e-7 -3.5233796140445416e-7
          -3.590675214179109e-7 -3.4402013037392177e-7 -6.751407460292964e-7 -7.047880037363958e-7 -7.189087745070833e-7 -6.884909179091364e-7
          0 -6.456672992571891e-7 -0.0000012910193449542545 0 -5.897506824661826e-7 -0.0000011792551422139792
          0 -6.374790542684295e-7 -0.0000012735690034257699 0 0 -4.4962757912418624e-7
          -4.1108635472149437e-7 -8.986644564774517e-7 -8.222915659513276e-7 0 0 -5.452107088489333e-7
          -5.41116423760855e-7 -0.0000010902640971203594 -0.0000010830996743085169 0 0 -6.755264608629109e-7
          -6.598357400953155e-7 -0.000001348599442280475 -0.0000013182555730555533 0 0 -5.84308395649536e-7
          -5.729963638987693e-7 -0.0000011672855538612682 -0.000001144913415621324 0 -6.156507251292495e-7 -0.0000012309442719150848
          0 0 -5.613703263255985e-7 -5.243993247740509e-7 -0.000001121730746467257 -0.000001048325983732711
          0 0 -5.80471432515074e-7 -5.665497180968025e-7 -0.000001159523695249148 -0.0000011308228850963766
          0 -6.691524634347404e-7 -0.0000013366748857648416 0 -6.632050067857041e-7 -0.0000013257010785577114
          0 0 -5.603145005089786e-7 -5.614048210369687e-7 -0.000001119847374420314 -0.000001120989839455856
          0 -6.690247520819289e-7 -0.0000013374103215276392 0 -5.563440191644962e-7 -0.0000011133643967611531
          0 0 -6.760533755521218e-7 -6.637102888903938e-7 -0.0000013509037858479352 -0.0000013271851135886962
          0 0 -6.321190696355774e-7 -6.250024296009234e-7 -0.0000012637710476143316 -0.0000012495371728880294
          0 0 0 -5.109062232068402e-7 -5.33606344971247e-7 -5.442172617606845e-7
          -0.0000010207211311363252 -0.0000010666445824251964 -0.0000010862470025559648 0 0 0
          0 -5.784633082338313e-7 -5.620640569388434e-7 -5.877596773299755e-7 -6.108533780756751e-7 -0.0000011556961540053075
          -0.0000011215609158669697 -0.0000011727908660673342 -0.0000012198376113556345 0 0 0
          0 -4.002076137006033e-7 -3.729536695810472e-7 -3.628524666851373e-7 -3.862925327319166e-7 -8.014837321361098e-7
          -7.45943844145182e-7 -7.252672436553214e-7 -7.729229510894149e-7 0 -6.838333872013934e-7 -0.0000013653358921869533
          0 0 -5.402808697615997e-7 -5.252499074724672e-7 -0.0000010794838501774895 -0.0000010486576265357247
          0 0 -6.484158960544402e-7 -6.423933142053166e-7 -0.000001296268186120731 -0.0000012837507559447254
          0 0 -5.018345665577964e-7 -4.775126348643565e-7 -0.0000010022974073362671 -9.549913074116594e-7
          0 0 -4.071471646140353e-7 -4.3029934711927563e-7 -8.149790726616356e-7 -8.617020004137267e-7
          0 0 -3.894504129074457e-7 -3.681317761843981e-7 -7.788917682405424e-7 -7.358836872796542e-7
          0 -6.538308445423769e-7 -0.0000013069485660936066 0 -6.570886479158189e-7 -0.0000013135533686954672
          0 0 0 0 -4.3197019590355454e-7 -3.9804980085629876e-7
          -3.848139185610582e-7 -4.137586670068706e-7 -8.637152361628813e-7 -7.969049026025854e-7 -7.708629909812412e-7 -8.281688087877314e-7
          0 0 -6.582095121804923e-7 -6.608915192053046e-7 -0.000001315832659685331 -0.0000013211620536961768
          0 0 0 0 -3.2676505949457944e-7 -3.2266925803328286e-7
          -3.279118547948606e-7 -3.2369209291275744e-7 -6.535240993812854e-7 -6.453697911333438e-7 -6.560143919948638e-7 -6.472707488159033e-7
          0 0 0 -3.482777850932218e-7 -3.318910437062293e-7 -3.509283827584023e-7
          -6.967776874539113e-7 -6.641487143960019e-7 -7.017657603304437e-7 0 -4.407391107404152e-7 -8.827415254882629e-7
          0 0 -6.210428337992565e-7 -6.003796399703337e-7 -0.0000012405235837365916 -0.0000011994892993909978
          0 0 -5.918722364400146e-7 -5.506728644305413e-7 -0.0000011830894552647212 -0.0000011009734569629337
          0 -4.60053291405931e-7 -9.197247134740737e-7 0 -6.624728504390324e-7 -0.0000013244774049615158
          0 0 -4.942949126484689e-7 -5.399027389716247e-7 -9.890742477232321e-7 -0.0000010789598837789887
          0 0 -3.331464081438764e-7 -3.197622938072384e-7 -6.660480836971684e-7 -6.396239053619069e-7
          0 0 -3.2208043687393543e-7 -3.256884237642582e-7 -6.437516667654986e-7 -6.513504412700777e-7
          0 0 0 -3.305808330130533e-7 -3.932505890145946e-7 -3.426699709995503e-7
          -6.6090295548028e-7 -7.858848031324114e-7 -6.845163006945975e-7 0 0 -4.237766383589598e-7
          -4.5464042072485775e-7 -8.466315207316612e-7 -9.08964190763179e-7 0 0 -3.483895867651037e-7
          -3.5485936167476376e-7 -6.958468045201644e-7 -7.092571728265736e-7 0 0 -4.1603850036068343e-7
          -3.6001162819970346e-7 -8.311806291273064e-7 -7.182723812750676e-7 0 -3.4359688199126127e-7 -6.873020292047884e-7
          0 0 0 0 -4.1107199369110066e-7 -4.0625133490222736e-7
          -3.972260412681926e-7 -3.998553182214959e-7 -8.219744892341263e-7 -8.110519171906552e-7 -7.927478934110873e-7 -7.984831210843639e-7
          0 0 -3.7772971153147203e-7 -3.867394784933712e-7 -7.559548196530949e-7 -7.722284764036942e-7
          0 -3.3970134388890947e-7 -6.790440951204841e-7 0 -3.723145060948786e-7 -7.434560689032159e-7
          0 -4.757626502846369e-7 -9.51165777631744e-7 0 -4.5159152012576564e-7 -9.04274951282162e-7
          0 -5.117046765849188e-7 -0.000001023037270695416 0 0 -4.865129096038846e-7
          -5.070999421049738e-7 -9.728403087821732e-7 -0.000001012912737954804 0 -5.206374228991486e-7 -0.000001040411254328152
          0 -4.979216162562523e-7 -9.961175105420664e-7 0 -3.6452340070069126e-7 -7.285890265345076e-7
          0 -6.504830571766172e-7 -0.0000013006703102223351 0 0 -5.773066010790834e-7
          -5.607375338323209e-7 -0.0000011530223973912422 -0.0000011203536426466502 0 -6.567846547114651e-7 -0.0000013131166786275465
          0 -5.475202105700671e-7 -0.000001094149676392031 0 -5.317433999310936e-7 -0.0000010621123057399758
          0 -4.848902489261656e-7 -9.715392436660829e-7 0 -5.261673638761865e-7 -0.0000010528252571394122
          0 -5.179164061340008e-7 -0.0000010357721968680993 0 0 -3.639465352640682e-7
          -3.57206574090535e-7 -7.290215238306212e-7 -7.153279238891538e-7 0 0 -4.426042173588062e-7
          -3.7300169449843825e-7 -8.839664332833184e-7 -7.440120777599134e-7 0 -4.228387898501381e-7 -8.447067132161131e-7
          0 -3.19466134436776e-7 -6.387476781182157e-7 0 -6.347046068207299e-7 -0.0000012687296186219959
          0 0 -3.743508876811028e-7 -3.897384106358381e-7 -7.493704424969647e-7 -7.792411696435875e-7
          0 0 0 -3.807204822147291e-7 -4.3116733280056093e-7 -3.827653297061641e-7
          -7.564971803370121e-7 -8.641149306440499e-7 -7.664795746235725e-7 0 0 -3.8576044534752455e-7
          -4.156824867260768e-7 -7.689841697139263e-7 -8.321159053433685e-7 0 -4.084378781327619e-7 -8.176105660615916e-7
          0 -4.335219283000437e-7 -8.650805853729797e-7 0 -3.8627045061498745e-7 -7.713584069010552e-7
          0 -6.471270893898602e-7 -0.0000012938689147215966 0 -3.338744685452441e-7 -6.675742245610544e-7
          0 0 -3.4274126540441693e-7 -3.787450876821437e-7 -6.852782852312948e-7 -7.578228631225483e-7
          0 -6.299536632104311e-7 -0.000001259842433301287 0 0 0
          -5.397188425614499e-7 -5.526718493041196e-7 -5.776437612562332e-7 -0.000001078283174102984 -0.0000011043770394411623 -0.000001156022425415479
          0 0 -3.790989016844434e-7 -3.8468985675265124e-7 -7.579016922584365e-7 -7.705682351608066e-7
          0 0 -6.397327047917425e-7 -6.271184044878467e-7 -0.0000012790134843237264 -0.0000012541079328577824
          0 -3.953889157329642e-7 -7.91605417683576e-7 0 0 0
          -5.832663402002581e-7 -5.38416404100148e-7 -5.262518147254863e-7 -0.0000011676030030742446 -0.000001080932554876889 -0.0000010541099749539166
          0 -6.209395820693924e-7 -0.0000012421263269827286 0 0 -6.445736880894583e-7
          -6.586136153256371e-7 -0.0000012864813385373155 -0.0000013150288288811248 0 0 -6.173533817230174e-7
          -6.089400493216962e-7 -0.0000012348238306386714 -0.0000012183392633172232 0 -6.269741995477044e-7 -0.0000012538794359542125
          0 -6.307557479367689e-7 -0.0000012608461907070238 0 -3.971093824601752e-7 -7.954425432607784e-7
          0 -4.2344107704449213e-7 -8.472970257680303e-7 0 -4.6863425532960033e-7 -9.374105574216745e-7
          0 -5.926720504832848e-7 -0.000001186182755289195 0 0 -5.11874063583258e-7
          -5.29463894533681e-7 -0.0000010238126973204203 -0.000001057958627529872 0 0 -4.314112379518346e-7
          -4.09810995454055e-7 -8.640994173263693e-7 -8.208052050696281e-7 0 -4.000431254238262e-7 -8.00641530277428e-7
          0 0 -3.502164611993067e-7 -3.5377062253002203e-7 -7.008905438770946e-7 -7.078054974594045e-7
          0 -6.254113877238975e-7 -0.000001250174183226702 0 0 -5.054598437223113e-7
          -5.145580742916017e-7 -0.0000010103481113100749 -0.000001032006657604556 0 0 -6.27060480063842e-7
          -6.179620100005925e-7 -0.000001253701540347507 -0.0000012353676828752016 0 -3.6127307928339213e-7 -7.231349322087739e-7
          0 -5.896165159432069e-7 -0.0000011783381583053125 0 -4.6443305994695474e-7 -9.290016229582486e-7
          0 -4.929907763682624e-7 -9.857391925255397e-7 0 -6.499093054724776e-7 -0.000001298147987649524
          0 -6.421966475328883e-7 -0.0000012835525907108172
        </DataArray>
      </PointData>
      <CellData>
        <DataArray type="Int32" Name="libmesh_elem_id" format="ascii" RangeMin="1380" RangeMax="3259">
          1380 1381 1412 1413 1414 1415
          1416 1417 1428 1429 1430 1431
          1438 1439 1440 1441 1464 1465
          1472 1473 1480 1481 1484 1485
          1488 1489 1490 1491 1492 1493
          1496 1497 1516 1517 1534 1535
          1538 1539 1544 1545 1548 1549
          1556 1557 1562 1563 1568 1569
          1574 1575 1576 1577 1604 1605
          1610 1611 1620 1621 1626 1627
          1632 1633 1640 1641 1642 1643
          1644 1645 1646 1647 1660 1661
          1664 1665 1666 1667 1668 1669
          1670 1671 1674 1675 1676 1677
          1688 1689 1690 1691 1692 1693
          1694 1695 1706 1707 1716 1717
          1720 1721 1724 1725 1732 1733
          1736 1737 1738 1739 1742 1743
          1744 1745 1756 1757 1758 1759
          1768 1769 1776 1777 1780 1781
          1784 1785 1786 1787 1788 1789
          1792 1793 1796 1797 1800 1801
          1806 1807 1808 1809 1812 1813
          1820 1821 1822 1823 1826 1827
          1842 1843 1844 1845 1860 1861
          1870 1871 1886 1887 1898 1899
          1912 1913 1934 1935 1938 1939
          1940 1941 1954 1955 1958 1959
          1962 1963 1964 1965 1966 1967
          1974 1975 1976 1977 1978 1979
          1980 1981 1984 1985 1990 1991
          1992 1993 1994 1995 2002 2003
          2012 2013 2016 2017 2022 2023
          2032 2033 2034 2035 2036 2037
          2042 2043 2056 2057 2066 2067
          2072 2073 2076 2077 2080 2081
          2086 2087 2090 2091 2094 2095
          2098 2099 2104 2105 2108 2109
          2114 2115 2118 2119 2122 2123
          2142 2143 2152 2153 2156 2157
          2168 2169 2172 2173 2174 2175
          2182 2183 2188 2189 2190 2191
          2192 2193 2194 2195 2198 2199
          2210 2211 2240 2241 2272 2273
          2280 2281 2300 2301 2322 2323
          2326 2327 2338 2339 2376 2377
          2378 2379 2380 2381 2384 2385
          2386 2387 2388 2389 2394 2395
          2428 2429 2438 2439 2446 2447
          2454 2455 2492 2493 2508 2509
          2514 2515 2516 2517 2528 2529
          2536 2537 2538 2539 2544 2545
          2548 2549 2552 2553 2576 2577
          2604 2605 2606 2607 2614 2615
          2618 2619 2626 2627 2630 2631
          2632 2633 2652 2653 2654 2655
          2674 2675 2676 2677 2686 2687
          2692 2693 2698 2699 2706 2707
          2712 2713 2718 2719 2728 2729
          2730 2731 2732 2733 2744 2745
          2752 2753 2758 2759 2770 2771
          2784 2785 2786 2787 2792 2793
          2812 2813 2816 2817 2818 2819
          2820 2821 2842 2843 2856 2857
          2866 2867 2882 2883 2894 2895
          2900 2901 2906 2907 2914 2915
          2942 2943 2970 2971 2976 2977
          2992 2993 3010 3011 3012 3013
          3016 3017 3046 3047 3056 3057
          3058 3059 3070 3071 3078 3079
          3084 3085 3094 3095 3098 3099
          3118 3119 3122 3123 3128 3129
          3134 3135 3152 3153 3180 3181
          3192 3193 3196 3197 3200 3201
          3202 3203 3214 3215 3244 3245
          3248 3249 3258 3259
        </DataArray>
        <DataArray type="Int32" Name="subdomain_id" format="ascii" RangeMin="107" RangeMax="107">
          107 107 107 107 107 107
          107 107 107 107 107 107
          107 107 107 107 107 107
          107 107 107 107 107 107
          107 107 107 107 107 107
          107 107 107 107 107 107
          107 107 107 107 107 107
          107 107 107 107 107 107
          107 107 107 107 107 107
          107 107 107 107 107 107
          107 107 107 107 107 107
          107 107 107 107 107 107
          107 107 107 107 107 107
          107 107 107 107 107 107
          107 107 107 107 107 107
          107 107 107 107 107 107
          107 107 107 107 107 107
          107 107 107 107 107 107
          107 107 107 107 107 107
          107 107 107 107 107 107
          107 107 107 107 107 107
          107 107 107 107 107 107
          107 107 107 107 107 107
          107 107 107 107 107 107
          107 107 107 107 107 107
          107 107 107 107 107 107
          107 107 107 107 107 107
          107 107 107 107 107 107
          107 107 107 107 107 107
          107 107 107 107 107 107
          107 107 107 107 107 107
          107 107 107 107 107 107
          107 107 107 107 107 107
          107 107 107 107 107 107
          107 107 107 107 107 107
          107 107 107 107 107 107
          107 107 107 107 107 107
          107 107 107 107 107 107
          107 107 107 107 107 107
          107 107 107 107 107 107
          107 107 107 107 107 107
          107 107 107 107 107 107
          107 107 107 107 107 107
          107 107 107 107 107 107
          107 107 107 107 107 107
          107 107 107 107 107 107
          107 107 107 107 107 107
          107 107 107 107 107 107
          107 107 107 107 107 107
          107 107 107 107 107 107
          107 107 107 107 107 107
          107 107 107 107 107 107
          107 107 107 107 107 107
          107 107 107 107 107 107
          107 107 107 107 107 107
          107 107 107 107 107 107
          107 107 107 107 107 107
          107 107 107 107 107 107
          107 107 107 107 107 107
          107 107 107 107 107 107
          107 107 107 107 107 107
          107 107 107 107 107 107
          107 107 107 107 107 107
          107 107 107 107 107 107
          107 107 107 107 107 107
          107 107 107 107 107 107
          107 107 107 107 107 107
          107 107 107 107 107 107
          107 107 107 107 107 107
          107 107 107 107 107 107
          107 107 107 107 107 107
          107 107 107 107 107 107
          107 107 107 107 107 107
          107 107 107 107 107 107
          107 107 107 107 107 107
          107 107 107 107
        </DataArray>
        <DataArray type="Int32" Name="processor_id" format="ascii" RangeMin="3" RangeMax="3">
          3 3 3 3 3 3
          3 3 3 3 3 3
          3 3 3 3 3 3
          3 3 3 3 3 3
          3 3 3 3 3 3
          3 3 3 3 3 3
          3 3 3 3 3 3
          3 3 3 3 3 3
          3 3 3 3 3 3
          3 3 3 3 3 3
          3 3 3 3 3 3
          3 3 3 3 3 3
          3 3 3 3 3 3
          3 3 3 3 3 3
          3 3 3 3 3 3
          3 3 3 3 3 3
          3 3 3 3 3 3
          3 3 3 3 3 3
          3 3 3 3 3 3
          3 3 3 3 3 3
          3 3 3 3 3 3
          3 3 3 3 3 3
          3 3 3 3 3 3
          3 3 3 3 3 3
          3 3 3 3 3 3
          3 3 3 3 3 3
          3 3 3 3 3 3
          3 3 3 3 3 3
          3 3 3 3 3 3
          3 3 3 3 3 3
          3 3 3 3 3 3
          3 3 3 3 3 3
          3 3 3 3 3 3
          3 3 3 3 3 3
          3 3 3 3 3 3
          3 3 3 3 3 3
          3 3 3 3 3 3
          3 3 3 3 3 3
          3 3 3 3 3 3
          3 3 3 3 3 3
          3 3 3 3 3 3
          3 3 3 3 3 3
          3 3 3 3 3 3
          3 3 3 3 3 3
          3 3 3 3 3 3
          3 3 3 3 3 3
          3 3 3 3 3 3
          3 3 3 3 3 3
          3 3 3 3 3 3
          3 3 3 3 3 3
          3 3 3 3 3 3
          3 3 3 3 3 3
          3 3 3 3 3 3
          3 3 3 3 3 3
          3 3 3 3 3 3
          3 3 3 3 3 3
          3 3 3 3 3 3
          3 3 3 3 3 3
          3 3 3 3 3 3
          3 3 3 3 3 3
          3 3 3 3 3 3
          3 3 3 3 3 3
          3 3 3 3 3 3
          3 3 3 3 3 3
          3 3 3 3 3 3
          3 3 3 3 3 3
          3 3 3 3 3 3
          3 3 3 3 3 3
          3 3 3 3 3 3
          3 3 3 3 3 3
          3 3 3 3 3 3
          3 3 3 3 3 3
          3 3 3 3 3 3
          3 3 3 3 3 3
          3 3 3 3 3 3
          3 3 3 3
        </DataArray>
      </CellData>
      <Points>
        <DataArray type="Float64" Name="Points" NumberOfComponents="3" format="ascii" RangeMin="0.013166738443807365" RangeMax="0.02374822585851783">
          0.016451229180203 0.011589607556601 0 0.016255198485848 0.011015934042219 0
          0.016728572005863 0.010757201031786 0 0.017039955631379 0.011194422572054 0
          0.016451229180203 0.011589607556601 0.00015 0.016255198485848 0.011015934042219 0.00015
          0.016728572005863 0.010757201031786 0.00015 0.017039955631379 0.011194422572054 0.00015
          0.016451229180203 0.011589607556601 0.0003 0.016255198485848 0.011015934042219 0.0003
          0.016728572005863 0.010757201031786 0.0003 0.017039955631379 0.011194422572054 0.0003
          0.011186406523754 0.0095188731742926 0 0.010689703280164 0.0094649590365737 0
          0.010634679710187 0.008964429555675 0 0.011131650337527 0.0089687060727404 0
          0.011186406523754 0.0095188731742926 0.00015 0.010689703280164 0.0094649590365737 0.00015
          0.010634679710187 0.008964429555675 0.00015 0.011131650337527 0.0089687060727404 0.00015
          0.011186406523754 0.0095188731742926 0.0003 0.010689703280164 0.0094649590365737 0.0003
          0.010634679710187 0.008964429555675 0.0003 0.011131650337527 0.0089687060727404 0.0003
          0.010158980545183 0.0089928081418126 0 0.010158980545183 0.0089928081418126 0.00015
          0.010158980545183 0.0089928081418126 0.0003 0.010234809282542 0.0094751596931164 0
          0.010234809282542 0.0094751596931164 0.00015 0.010234809282542 0.0094751596931164 0.0003
          0.017215305681839 0.010421173498473 0 0.017538322616078 0.010852535251392 0
          0.017215305681839 0.010421173498473 0.00015 0.017538322616078 0.010852535251392 0.00015
          0.017215305681839 0.010421173498473 0.0003 0.017538322616078 0.010852535251392 0.0003
          0.015522227276376 0.0083950727535023 0 0.015339273065407 0.0078314073000753 0
          0.015832583415208 0.0077039482324782 0 0.015871156677641 0.0080932538621961 0
          0.015522227276376 0.0083950727535023 0.00015 0.015339273065407 0.0078314073000753 0.00015
          0.015832583415208 0.0077039482324782 0.00015 0.015871156677641 0.0080932538621961 0.00015
          0.015522227276376 0.0083950727535023 0.0003 0.015339273065407 0.0078314073000753 0.0003
          0.015832583415208 0.0077039482324782 0.0003 0.015871156677641 0.0080932538621961 0.0003
          0.014182404182597 0.012030933394166 0 0.014112697634716 0.011586899500601 0
          0.01453762000082 0.011541498939039 0 0.014647727851392 0.011956202120878 0
          0.014182404182597 0.012030933394166 0.00015 0.014112697634716 0.011586899500601 0.00015
          0.01453762000082 0.011541498939039 0.00015 0.014647727851392 0.011956202120878 0.00015
          0.014182404182597 0.012030933394166 0.0003 0.014112697634716 0.011586899500601 0.0003
          0.01453762000082 0.011541498939039 0.0003 0.014647727851392 0.011956202120878 0.0003
          0.012718807262617 0.012100913225318 0 0.01318790653826 0.012081424726463 0
          0.013223560157694 0.012548837560718 0 0.012721969255655 0.012547975923311 0
          0.012718807262617 0.012100913225318 0.00015 0.01318790653826 0.012081424726463 0.00015
          0.013223560157694 0.012548837560718 0.00015 0.012721969255655 0.012547975923311 0.00015
          0.012718807262617 0.012100913225318 0.0003 0.01318790653826 0.012081424726463 0.0003
          0.013223560157694 0.012548837560718 0.0003 0.012721969255655 0.012547975923311 0.0003
          0.015037276113604 0.0053883886132418 0 0.014872829902632 0.0048660088618751 0
          0.015610482342583 0.0052949834846695 0 0.015037276113604 0.0053883886132418 0.00015
          0.014872829902632 0.0048660088618751 0.00015 0.015610482342583 0.0052949834846695 0.00015
          0.015037276113604 0.0053883886132418 0.0003 0.014872829902632 0.0048660088618751 0.0003
          0.015610482342583 0.0052949834846695 0.0003 0.012853333735139 0.0071862564407273 0
          0.013298874998351 0.0073010052974168 0 0.013468505581478 0.0077481198485017 0
          0.012879769579272 0.0077824950988095 0 0.012853333735139 0.0071862564407273 0.00015
          0.013298874998351 0.0073010052974168 0.00015 0.013468505581478 0.0077481198485017 0.00015
          0.012879769579272 0.0077824950988095 0.00015 0.012853333735139 0.0071862564407273 0.0003
          0.013298874998351 0.0073010052974168 0.0003 0.013468505581478 0.0077481198485017 0.0003
          0.012879769579272 0.0077824950988095 0.0003 0.012310751390795 0.0073009210446318 0
          0.012310751390795 0.0073009210446318 0.00015 0.012310751390795 0.0073009210446318 0.0003
          0.016440539131042 0.010340248821358 0 0.016895401758078 0.0099970418145034 0
          0.016440539131042 0.010340248821358 0.00015 0.016895401758078 0.0099970418145034 0.00015
          0.016440539131042 0.010340248821358 0.0003 0.016895401758078 0.0099970418145034 0.0003
          0.015674284513358 0.012057735082989 0 0.015799992883172 0.011590312491375 0
          0.01620648935985 0.012173309797103 0 0.015674284513358 0.012057735082989 0.00015
          0.015799992883172 0.011590312491375 0.00015 0.01620648935985 0.012173309797103 0.00015
          0.015674284513358 0.012057735082989 0.0003 0.015799992883172 0.011590312491375 0.0003
          0.01620648935985 0.012173309797103 0.0003 0.015719396244314 0.0096761034796614 0
          0.015317179218416 0.010039615829248 0 0.014916285335657 0.0096823062625427 0
          0.015356151892906 0.0093633130446295 0 0.015719396244314 0.0096761034796614 0.00015
          0.015317179218416 0.010039615829248 0.00015 0.014916285335657 0.0096823062625427 0.00015
          0.015356151892906 0.0093633130446295 0.00015 0.015719396244314 0.0096761034796614 0.0003
          0.015317179218416 0.010039615829248 0.0003 0.014916285335657 0.0096823062625427 0.0003
          0.015356151892906 0.0093633130446295 0.0003 0.014911939516014 0.011080222539295 0
          0.01492908374418 0.011511002202991 0 0.014470673144967 0.011122308960465 0
          0.014911939516014 0.011080222539295 0.00015 0.01492908374418 0.011511002202991 0.00015
          0.014470673144967 0.011122308960465 0.00015 0.014911939516014 0.011080222539295 0.0003
          0.01492908374418 0.011511002202991 0.0003 0.014470673144967 0.011122308960465 0.0003
          0.014927498433442 0.011816834084778 0 0.015214955739546 0.01195124117686 0
          0.014868481741766 0.012398226678167 0 0.014927498433442 0.011816834084778 0.00015
          0.015214955739546 0.01195124117686 0.00015 0.014868481741766 0.012398226678167 0.00015
          0.014927498433442 0.011816834084778 0.0003 0.015214955739546 0.01195124117686 0.0003
          0.014868481741766 0.012398226678167 0.0003 0.014887382940214 0.010512753679506 0
          0.01433465747601 0.010724165901292 0 0.014030150330029 0.010370439204794 0
          0.01444626395613 0.010022024912649 0 0.014887382940214 0.010512753679506 0.00015
          0.01433465747601 0.010724165901292 0.00015 0.014030150330029 0.010370439204794 0.00015
          0.01444626395613 0.010022024912649 0.00015 0.014887382940214 0.010512753679506 0.0003
          0.01433465747601 0.010724165901292 0.0003 0.014030150330029 0.010370439204794 0.0003
          0.01444626395613 0.010022024912649 0.0003 0.013388886812482 0.0083497293814167 0
          0.012899574253998 0.0083038014764745 0 0.013388886812482 0.0083497293814167 0.00015
          0.012899574253998 0.0083038014764745 0.00015 0.013388886812482 0.0083497293814167 0.0003
          0.012899574253998 0.0083038014764745 0.0003 0.015784016264429 0.0071345425111119 0
          0.016328429431772 0.0071626451349231 0 0.016328043288569 0.0077322573762078 0
          0.015784016264429 0.0071345425111119 0.00015 0.016328429431772 0.0071626451349231 0.00015
          0.016328043288569 0.0077322573762078 0.00015 0.015784016264429 0.0071345425111119 0.0003
          0.016328429431772 0.0071626451349231 0.0003 0.016328043288569 0.0077322573762078 0.0003
          0.016727166785252 0.0084386331054829 0 0.01644772366367 0.0089064975551763 0
          0.016002189190704 0.0086574712541786 0 0.016221340977963 0.0082297464535469 0
          0.016727166785252 0.0084386331054829 0.00015 0.01644772366367 0.0089064975551763 0.00015
          0.016002189190704 0.0086574712541786 0.00015 0.016221340977963 0.0082297464535469 0.00015
          0.016727166785252 0.0084386331054829 0.0003 0.01644772366367 0.0089064975551763 0.0003
          0.016002189190704 0.0086574712541786 0.0003 0.016221340977963 0.0082297464535469 0.0003
          0.018901908985383 0.011783468628847 0 0.018328257152057 0.011560564570719 0
          0.018901908985383 0.011783468628847 0.00015 0.018328257152057 0.011560564570719 0.00015
          0.018901908985383 0.011783468628847 0.0003 0.018328257152057 0.011560564570719 0.0003
          0.016817438697449 0.012401495631919 0 0.016895899239308 0.011880939878953 0
          0.016817438697449 0.012401495631919 0.00015 0.016895899239308 0.011880939878953 0.00015
          0.016817438697449 0.012401495631919 0.0003 0.016895899239308 0.011880939878953 0.0003
          0.010475172867508 0.012102844227475 0 0.010669582432454 0.011743114144408 0
          0.010475172867508 0.012102844227475 0.00015 0.010669582432454 0.011743114144408 0.00015
          0.010475172867508 0.012102844227475 0.0003 0.010669582432454 0.011743114144408 0.0003
          0.018198082784875 0.0097658337520035 0 0.018455934862008 0.010221918525687 0
          0.018019877493881 0.01050989807829 0 0.017698489924893 0.010066971919266 0
          0.018198082784875 0.0097658337520035 0.00015 0.018455934862008 0.010221918525687 0.00015
          0.018019877493881 0.01050989807829 0.00015 0.017698489924893 0.010066971919266 0.00015
          0.018198082784875 0.0097658337520035 0.0003 0.018455934862008 0.010221918525687 0.0003
          0.018019877493881 0.01050989807829 0.0003 0.017698489924893 0.010066971919266 0.0003
          0.015096658749896 0.0059763609132825 0 0.015666288430535 0.0059190759170471 0
          0.015096658749896 0.0059763609132825 0.00015 0.015666288430535 0.0059190759170471 0.00015
          0.015096658749896 0.0059763609132825 0.0003 0.015666288430535 0.0059190759170471 0.0003
          0.013546901289865 0.0069836782833127 0 0.013134929749538 0.0067248500217048 0
          0.013546901289865 0.0069836782833127 0.00015 0.013134929749538 0.0067248500217048 0.00015
          0.013546901289865 0.0069836782833127 0.0003 0.013134929749538 0.0067248500217048 0.0003
          0.013831418153218 0.0064982603089606 0 0.013338214474932 0.0062766362868091 0
          0.013831418153218 0.0064982603089606 0.00015 0.013338214474932 0.0062766362868091 0.00015
          0.013831418153218 0.0064982603089606 0.0003 0.013338214474932 0.0062766362868091 0.0003
          0.017908784385217 0.011229685010797 0 0.017908784385217 0.011229685010797 0.00015
          0.017908784385217 0.011229685010797 0.0003 0.017460830811305 0.0067242961174433 0
          0.017460830811305 0.0067242961174433 0.00015 0.017460830811305 0.0067242961174433 0.0003
          0.016232724398465 0.0059010997942707 0 0.016810957053741 0.0059693958220605 0
          0.016865945400018 0.0066157033945985 0 0.016287343165999 0.0065221003589061 0
          0.016232724398465 0.0059010997942707 0.00015 0.016810957053741 0.0059693958220605 0.00015
          0.016865945400018 0.0066157033945985 0.00015 0.016287343165999 0.0065221003589061 0.00015
          0.016232724398465 0.0059010997942707 0.0003 0.016810957053741 0.0059693958220605 0.0003
          0.016865945400018 0.0066157033945985 0.0003 0.016287343165999 0.0065221003589061 0.0003
          0.015434451036398 0.0088351663483508 0 0.015091649000167 0.0090065479673052 0
          0.0149386527618 0.008562942865766 0 0.015434451036398 0.0088351663483508 0.00015
          0.015091649000167 0.0090065479673052 0.00015 0.0149386527618 0.008562942865766 0.00015
          0.015434451036398 0.0088351663483508 0.0003 0.015091649000167 0.0090065479673052 0.0003
          0.0149386527618 0.008562942865766 0.0003 0.013851103268646 0.0079817773379183 0
          0.013864053371773 0.0083733293390323 0 0.013851103268646 0.0079817773379183 0.00015
          0.013864053371773 0.0083733293390323 0.00015 0.013851103268646 0.0079817773379183 0.0003
          0.013864053371773 0.0083733293390323 0.0003 0.016873832756735 0.0078915607150548 0
          0.016873832756735 0.0078915607150548 0.00015 0.016873832756735 0.0078915607150548 0.0003
          0.011740832768399 0.012550565772382 0 0.011781425344485 0.012080160842703 0
          0.012267797740114 0.012087686226532 0 0.012238354096222 0.012547223275944 0
          0.011740832768399 0.012550565772382 0.00015 0.011781425344485 0.012080160842703 0.00015
          0.012267797740114 0.012087686226532 0.00015 0.012238354096222 0.012547223275944 0.00015
          0.011740832768399 0.012550565772382 0.0003 0.011781425344485 0.012080160842703 0.0003
          0.012267797740114 0.012087686226532 0.0003 0.012238354096222 0.012547223275944 0.0003
          0.015724816214821 0.0065169349202822 0 0.015724816214821 0.0065169349202822 0.00015
          0.015724816214821 0.0065169349202822 0.0003 0.016904663245172 0.0072759580116152 0
          0.016904663245172 0.0072759580116152 0.00015 0.016904663245172 0.0072759580116152 0.0003
          0.016212759806586 0.0053000490100875 0 0.016212759806586 0.0053000490100875 0.00015
          0.016212759806586 0.0053000490100875 0.0003 0.017422284858474 0.011679101640391 0
          0.017908527792884 0.011814582379248 0 0.017422284858474 0.011679101640391 0.00015
          0.017908527792884 0.011814582379248 0.00015 0.017422284858474 0.011679101640391 0.0003
          0.017908527792884 0.011814582379248 0.0003 0.017261702763099 0.0086939606584207 0
          0.017434489396122 0.0080779876667089 0 0.017261702763099 0.0086939606584207 0.00015
          0.017434489396122 0.0080779876667089 0.00015 0.017261702763099 0.0086939606584207 0.0003
          0.017434489396122 0.0080779876667089 0.0003 0.014181033506022 0.0077713348891544 0
          0.014325604474543 0.0082610969383043 0 0.014181033506022 0.0077713348891544 0.00015
          0.014325604474543 0.0082610969383043 0.00015 0.014181033506022 0.0077713348891544 0.0003
          0.014325604474543 0.0082610969383043 0.0003 0.016099115219063 0.0099899847281115 0
          0.016520689982407 0.0096278486407962 0 0.016099115219063 0.0099899847281115 0.00015
          0.016520689982407 0.0096278486407962 0.00015 0.016099115219063 0.0099899847281115 0.0003
          0.016520689982407 0.0096278486407962 0.0003 0.014613026918956 0.0092413149543641 0
          0.014613026918956 0.0092413149543641 0.00015 0.014613026918956 0.0092413149543641 0.0003
          0.016937453954769 0.0092095292918499 0 0.017364558514239 0.0096012653805297 0
          0.016937453954769 0.0092095292918499 0.00015 0.017364558514239 0.0096012653805297 0.00015
          0.016937453954769 0.0092095292918499 0.0003 0.017364558514239 0.0096012653805297 0.0003
          0.015712843676617 0.010331364913168 0 0.016032046384524 0.010629553115583 0
          0.015712843676617 0.010331364913168 0.00015 0.016032046384524 0.010629553115583 0.00015
          0.015712843676617 0.010331364913168 0.0003 0.016032046384524 0.010629553115583 0.0003
          0.01346343572409 0.0057857389411653 0 0.01346343572409 0.0057857389411653 0.00015
          0.01346343572409 0.0057857389411653 0.0003 0.015150761096164 0.0066142159223768 0
          0.015150761096164 0.0066142159223768 0.00015 0.015150761096164 0.0066142159223768 0.0003
          0.015453261139866 0.010697023165802 0 0.015761290368715 0.010819971207646 0
          0.015453261139866 0.010697023165802 0.00015 0.015761290368715 0.010819971207646 0.00015
          0.015453261139866 0.010697023165802 0.0003 0.015761290368715 0.010819971207646 0.0003
          0.013975551316416 0.0059398855735222 0 0.013975551316416 0.0059398855735222 0.00015
          0.013975551316416 0.0059398855735222 0.0003 0.017479032913359 0.0074088673936633 0
          0.017479032913359 0.0074088673936633 0.00015 0.017479032913359 0.0074088673936633 0.0003
          0.014439802315681 0.0067889662935499 0 0.014530319307898 0.006021518089632 0
          0.014439802315681 0.0067889662935499 0.00015 0.014530319307898 0.006021518089632 0.00015
          0.014439802315681 0.0067889662935499 0.0003 0.014530319307898 0.006021518089632 0.0003
          0.014431521900925 0.0087663339265048 0 0.013899975831329 0.0088854517032459 0
          0.014431521900925 0.0087663339265048 0.00015 0.013899975831329 0.0088854517032459 0.00015
          0.014431521900925 0.0087663339265048 0.0003 0.013899975831329 0.0088854517032459 0.0003
          0.015334349753872 0.011547922560075 0 0.015363465895193 0.011114260619116 0
          0.015801980011793 0.011137474992711 0 0.015334349753872 0.011547922560075 0.00015
          0.015363465895193 0.011114260619116 0.00015 0.015801980011793 0.011137474992711 0.00015
          0.015334349753872 0.011547922560075 0.0003 0.015363465895193 0.011114260619116 0.0003
          0.015801980011793 0.011137474992711 0.0003 0.01326617738197 0.0093680808515997 0
          0.012793423392144 0.00921210926252 0 0.012882512800283 0.0087881474090036 0
          0.013365259810227 0.0088714473068585 0 0.01326617738197 0.0093680808515997 0.00015
          0.012793423392144 0.00921210926252 0.00015 0.012882512800283 0.0087881474090036 0.00015
          0.013365259810227 0.0088714473068585 0.00015 0.01326617738197 0.0093680808515997 0.0003
          0.012793423392144 0.00921210926252 0.0003 0.012882512800283 0.0087881474090036 0.0003
          0.013365259810227 0.0088714473068585 0.0003 0.011993243876189 0.010936510200926 0
          0.011726815341297 0.011491075647124 0 0.011222013645511 0.011097826594996 0
          0.011481744371717 0.010688234667639 0 0.011993243876189 0.010936510200926 0.00015
          0.011726815341297 0.011491075647124 0.00015 0.011222013645511 0.011097826594996 0.00015
          0.011481744371717 0.010688234667639 0.00015 0.011993243876189 0.010936510200926 0.0003
          0.011726815341297 0.011491075647124 0.0003 0.011222013645511 0.011097826594996 0.0003
          0.011481744371717 0.010688234667639 0.0003 0.013923252507151 0.0073329122207352 0
          0.013923252507151 0.0073329122207352 0.00015 0.013923252507151 0.0073329122207352 0.0003
          0.013063793506476 0.0098271989985527 0 0.012601634550352 0.009590277262082 0
          0.013063793506476 0.0098271989985527 0.00015 0.012601634550352 0.009590277262082 0.00015
          0.013063793506476 0.0098271989985527 0.0003 0.012601634550352 0.009590277262082 0.0003
          0.014102855237989 0.0047969187863067 0 0.013905759673286 0.0043612537888552 0
          0.014102855237989 0.0047969187863067 0.00015 0.013905759673286 0.0043612537888552 0.00015
          0.014102855237989 0.0047969187863067 0.0003 0.013905759673286 0.0043612537888552 0.0003
          0.012852488428802 0.010265076045094 0 0.012374691983482 0.010000797580735 0
          0.012852488428802 0.010265076045094 0.00015 0.012374691983482 0.010000797580735 0.00015
          0.012852488428802 0.010265076045094 0.0003 0.012374691983482 0.010000797580735 0.0003
          0.011668611956603 0.010219239111219 0 0.012182731119778 0.010462377133106 0
          0.011668611956603 0.010219239111219 0.00015 0.012182731119778 0.010462377133106 0.00015
          0.011668611956603 0.010219239111219 0.0003 0.012182731119778 0.010462377133106 0.0003
          0.011158560753842 0.010029990414111 0 0.011017968815575 0.010465683342369 0
          0.011158560753842 0.010029990414111 0.00015 0.011017968815575 0.010465683342369 0.00015
          0.011158560753842 0.010029990414111 0.0003 0.011017968815575 0.010465683342369 0.0003
          0.014820390261339 0.0080402105998384 0 0.014820390261339 0.0080402105998384 0.00015
          0.014820390261339 0.0080402105998384 0.0003 0.015228397699353 0.0072512250897894 0
          0.015228397699353 0.0072512250897894 0.00015 0.015228397699353 0.0072512250897894 0.0003
          0.0130361735465 0.011522072885309 0 0.012689359184487 0.011761634268536 0
          0.012340499111532 0.011632501505239 0 0.012497431968462 0.011183651982421 0
          0.0130361735465 0.011522072885309 0.00015 0.012689359184487 0.011761634268536 0.00015
          0.012340499111532 0.011632501505239 0.00015 0.012497431968462 0.011183651982421 0.00015
          0.0130361735465 0.011522072885309 0.0003 0.012689359184487 0.011761634268536 0.0003
          0.012340499111532 0.011632501505239 0.0003 0.012497431968462 0.011183651982421 0.0003
          0.013528941600065 0.0052742966774397 0 0.014027103455945 0.0053875982273864 0
          0.013528941600065 0.0052742966774397 0.00015 0.014027103455945 0.0053875982273864 0.00015
          0.013528941600065 0.0052742966774397 0.0003 0.014027103455945 0.0053875982273864 0.0003
          0.010128205128219 0.013 0 0.010310686327751 0.012539165738252 0
          0.010788384596096 0.012564579045747 0 0.01064102564104 0.013 0
          0.010128205128219 0.013 0.00015 0.010310686327751 0.012539165738252 0.00015
          0.010788384596096 0.012564579045747 0.00015 0.01064102564104 0.013 0.00015
          0.010128205128219 0.013 0.0003 0.010310686327751 0.012539165738252 0.0003
          0.010788384596096 0.012564579045747 0.0003 0.01064102564104 0.013 0.0003
          0.010783127360108 0.010836567412064 0 0.010385522435479 0.010608007769118 0
          0.010601303654319 0.010290632654442 0 0.010783127360108 0.010836567412064 0.00015
          0.010385522435479 0.010608007769118 0.00015 0.010601303654319 0.010290632654442 0.00015
          0.010783127360108 0.010836567412064 0.0003 0.010385522435479 0.010608007769118 0.0003
          0.010601303654319 0.010290632654442 0.0003 0.011818930007254 0.009602160287834 0
          0.011818930007254 0.009602160287834 0.00015 0.011818930007254 0.009602160287834 0.0003
          0.015715008716269 0.0090308288850156 0 0.01610853428864 0.0093166480881369 0
          0.015715008716269 0.0090308288850156 0.00015 0.01610853428864 0.0093166480881369 0.00015
          0.015715008716269 0.0090308288850156 0.0003 0.01610853428864 0.0093166480881369 0.0003
          0.013952831965685 0.0095243725467762 0 0.013572358856734 0.010071658883703 0
          0.013952831965685 0.0095243725467762 0.00015 0.013572358856734 0.010071658883703 0.00015
          0.013952831965685 0.0095243725467762 0.0003 0.013572358856734 0.010071658883703 0.0003
          0.012677817340078 0.010719835797972 0 0.012677817340078 0.010719835797972 0.00015
          0.012677817340078 0.010719835797972 0.0003 0.014678664229456 0.0074733115324236 0
          0.014678664229456 0.0074733115324236 0.00015 0.014678664229456 0.0074733115324236 0.0003
          0.012261506677236 0.0092701804285872 0 0.012499922412859 0.0090879994978671 0
          0.012261506677236 0.0092701804285872 0.00015 0.012499922412859 0.0090879994978671 0.00015
          0.012261506677236 0.0092701804285872 0.0003 0.012499922412859 0.0090879994978671 0.0003
          0.011270478587413 0.012561768236337 0 0.011153846153863 0.013 0
          0.011270478587413 0.012561768236337 0.00015 0.011153846153863 0.013 0.00015
          0.011270478587413 0.012561768236337 0.0003 0.011153846153863 0.013 0.0003
          0.012179487179506 0.013 0 0.012692307692328 0.013 0
          0.012179487179506 0.013 0.00015 0.012692307692328 0.013 0.00015
          0.012179487179506 0.013 0.0003 0.012692307692328 0.013 0.0003
          0.013205128205151 0.013 0 0.013721380024409 0.012538570920528 0
          0.013717948717973 0.013 0 0.013205128205151 0.013 0.00015
          0.013721380024409 0.012538570920528 0.00015 0.013717948717973 0.013 0.00015
          0.013205128205151 0.013 0.0003 0.013721380024409 0.012538570920528 0.0003
          0.013717948717973 0.013 0.0003 0.013680323008888 0.01206206640945 0
          0.0136362676363 0.011582155921186 0 0.013680323008888 0.01206206640945 0.00015
          0.0136362676363 0.011582155921186 0.00015 0.013680323008888 0.01206206640945 0.0003
          0.0136362676363 0.011582155921186 0.0003 0.011306940297591 0.012129646322267 0
          0.011212076662234 0.01173976422044 0 0.011306940297591 0.012129646322267 0.00015
          0.011212076662234 0.01173976422044 0.00015 0.011306940297591 0.012129646322267 0.0003
          0.011212076662234 0.01173976422044 0.0003 0.014247558447628 0.012512499343239 0
          0.014230769230793 0.013 0 0.014247558447628 0.012512499343239 0.00015
          0.014230769230793 0.013 0.00015 0.014247558447628 0.012512499343239 0.0003
          0.014230769230793 0.013 0.0003 0.010925822172272 0.011428925131881 0
          0.010925822172272 0.011428925131881 0.00015 0.010925822172272 0.011428925131881 0.0003
          0.017598702187272 0.012594388856786 0 0.018138509806267 0.012585421267124 0
          0.018333333333352 0.013 0 0.017820512820533 0.013 0
          0.017598702187272 0.012594388856786 0.00015 0.018138509806267 0.012585421267124 0.00015
          0.018333333333352 0.013 0.00015 0.017820512820533 0.013 0.00015
          0.017598702187272 0.012594388856786 0.0003 0.018138509806267 0.012585421267124 0.0003
          0.018333333333352 0.013 0.0003 0.017820512820533 0.013 0.0003
          0.01884615384617 0.013 0 0.018647619061649 0.012577247456601 0
          0.01884615384617 0.013 0.00015 0.018647619061649 0.012577247456601 0.00015
          0.01884615384617 0.013 0.0003 0.018647619061649 0.012577247456601 0.0003
          0.010939820280367 0.01187760398484 0 0.010939820280367 0.01187760398484 0.00015
          0.010939820280367 0.01187760398484 0.0003 0.014743589743616 0.013 0
          0.014743589743616 0.013 0.00015 0.014743589743616 0.013 0.0003
          0.013168261777023 0.010955167755454 0 0.013168261777023 0.010955167755454 0.00015
          0.013168261777023 0.010955167755454 0.0003 0.011620435633551 0.0089440866322713 0
          0.011620435633551 0.0089440866322713 0.00015 0.011620435633551 0.0089440866322713 0.0003
          0.01333281098878 0.010501143990949 0 0.01333281098878 0.010501143990949 0.00015
          0.01333281098878 0.010501143990949 0.0003 0.013640766026071 0.011115210745046 0
          0.014063261910082 0.011165191959691 0 0.013640766026071 0.011115210745046 0.00015
          0.014063261910082 0.011165191959691 0.00015 0.013640766026071 0.011115210745046 0.0003
          0.014063261910082 0.011165191959691 0.0003 0.013761635093034 0.010714997264381 0
          0.013761635093034 0.010714997264381 0.00015 0.013761635093034 0.010714997264381 0.0003
          0.01790845301636 0.0090613468730877 0 0.01790845301636 0.0090613468730877 0.00015
          0.01790845301636 0.0090613468730877 0.0003 0.010691300612525 0.0099168298135774 0
          0.010691300612525 0.0099168298135774 0.00015 0.010691300612525 0.0099168298135774 0.0003
          0.014509683505008 0.0050450954358061 0 0.014509683505008 0.0050450954358061 0.00015
          0.014509683505008 0.0050450954358061 0.0003 0.012373637985884 0.0077974643404521 0
          0.012419274731686 0.0083019280664676 0 0.012373637985884 0.0077974643404521 0.00015
          0.012419274731686 0.0083019280664676 0.00015 0.012373637985884 0.0077974643404521 0.0003
          0.012419274731686 0.0083019280664676 0.0003 0.014523119140279 0.0054383897453177 0
          0.014523119140279 0.0054383897453177 0.00015 0.014523119140279 0.0054383897453177 0.0003
          0.012468015808598 0.0087643938641043 0 0.012468015808598 0.0087643938641043 0.00015
          0.012468015808598 0.0087643938641043 0.0003 0.014041697947841 0.010862771985015 0
          0.014041697947841 0.010862771985015 0.00015 0.014041697947841 0.010862771985015 0.0003
          0.012067821946234 0.0088387705315247 0 0.012067821946234 0.0088387705315247 0.00015
          0.012067821946234 0.0088387705315247 0.0003 0.018063704813091 0.0075049932447581 0
          0.018063704813091 0.0075049932447581 0.00015 0.018063704813091 0.0075049932447581 0.0003
          0.01801805728244 0.008218173104411 0 0.01801805728244 0.008218173104411 0.00015
          0.01801805728244 0.008218173104411 0.0003 0.019162849649621 0.012571706415164 0
          0.019358974358988 0.013 0 0.019162849649621 0.012571706415164 0.00015
          0.019358974358988 0.013 0.00015 0.019162849649621 0.012571706415164 0.0003
          0.019358974358988 0.013 0.0003 0.015469042768348 0.012527612124711 0
          0.015256410256436 0.013 0 0.015469042768348 0.012527612124711 0.00015
          0.015256410256436 0.013 0.00015 0.015469042768348 0.012527612124711 0.0003
          0.015256410256436 0.013 0.0003 0.017482035345823 0.012218317378284 0
          0.017482035345823 0.012218317378284 0.00015 0.017482035345823 0.012218317378284 0.0003
          0.011666666666685 0.013 0 0.011666666666685 0.013 0.00015
          0.011666666666685 0.013 0.0003 0.013552812333296 0.0042895499786344 0
          0.013552812333296 0.0042895499786344 0.00015 0.013552812333296 0.0042895499786344 0.0003
          0.019003973493589 0.012129001566083 0 0.018491681451249 0.012137078785851 0
          0.019003973493589 0.012129001566083 0.00015 0.018491681451249 0.012137078785851 0.00015
          0.019003973493589 0.012129001566083 0.0003 0.018491681451249 0.012137078785851 0.0003
          0.016282051282076 0.013 0 0.016335894010033 0.012686725241599 0
          0.016794871794894 0.013 0 0.016282051282076 0.013 0.00015
          0.016335894010033 0.012686725241599 0.00015 0.016794871794894 0.013 0.00015
          0.016282051282076 0.013 0.0003 0.016335894010033 0.012686725241599 0.0003
          0.016794871794894 0.013 0.0003 0.017307692307713 0.013 0
          0.017281329535555 0.012689387511733 0 0.017307692307713 0.013 0.00015
          0.017281329535555 0.012689387511733 0.00015 0.017307692307713 0.013 0.0003
          0.017281329535555 0.012689387511733 0.0003 0.017996855365792 0.012159940978259 0
          0.017996855365792 0.012159940978259 0.00015 0.017996855365792 0.012159940978259 0.0003
          0.016023960213719 0.012601258532672 0 0.016023960213719 0.012601258532672 0.00015
          0.016023960213719 0.012601258532672 0.0003 0.015769230769256 0.013 0
          0.015769230769256 0.013 0.00015 0.015769230769256 0.013 0.0003
          0.013549428097692 0.0047645614477775 0 0.013549428097692 0.0047645614477775 0.00015
          0.013549428097692 0.0047645614477775 0.0003 0.010881954871342 0.01216105032025 0
          0.010881954871342 0.01216105032025 0.00015 0.010881954871342 0.01216105032025 0.0003
          0.010057653370411 0.0084974472595183 0 0.01054988842507 0.0084422245958245 0
          0.010057653370411 0.0084974472595183 0.00015 0.01054988842507 0.0084422245958245 0.00015
          0.010057653370411 0.0084974472595183 0.0003 0.01054988842507 0.0084422245958245 0.0003
          0.015535554193674 0.0045828394817383 0 0.015535554193674 0.0045828394817383 0.00015
          0.015535554193674 0.0045828394817383 0.0003 0.011832021157187 0.0073476785459853 0
          0.011779780861271 0.0068646395959748 0 0.012243708910156 0.0068324173193727 0
          0.011832021157187 0.0073476785459853 0.00015 0.011779780861271 0.0068646395959748 0.00015
          0.012243708910156 0.0068324173193727 0.00015 0.011832021157187 0.0073476785459853 0.0003
          0.011779780861271 0.0068646395959748 0.0003 0.012243708910156 0.0068324173193727 0.0003
          0.019357361519954 0.01157618305141 0 0.01884046117173 0.011223113854601 0
          0.019357361519954 0.01157618305141 0.00015 0.01884046117173 0.011223113854601 0.00015
          0.019357361519954 0.01157618305141 0.0003 0.01884046117173 0.011223113854601 0.0003
          0.014554004584986 0.0044253882271801 0 0.015005639561329 0.0040763460944633 0
          0.014554004584986 0.0044253882271801 0.00015 0.015005639561329 0.0040763460944633 0.00015
          0.014554004584986 0.0044253882271801 0.0003 0.015005639561329 0.0040763460944633 0.0003
          0.018384253973557 0.010894663204421 0 0.018384253973557 0.010894663204421 0.00015
          0.018384253973557 0.010894663204421 0.0003 0.017413401850906 0.0060417176080878 0
          0.018057579772584 0.0060827128421873 0 0.018070157245618 0.0068021820766994 0
          0.017413401850906 0.0060417176080878 0.00015 0.018057579772584 0.0060827128421873 0.00015
          0.018070157245618 0.0068021820766994 0.00015 0.017413401850906 0.0060417176080878 0.0003
          0.018057579772584 0.0060827128421873 0.0003 0.018070157245618 0.0068021820766994 0.0003
          0.016291762387835 0.0047307906783276 0 0.016291762387835 0.0047307906783276 0.00015
          0.016291762387835 0.0047307906783276 0.0003 0.012879713087233 0.0060908484912964 0
          0.012982043505355 0.0056371881930815 0 0.012879713087233 0.0060908484912964 0.00015
          0.012982043505355 0.0056371881930815 0.00015 0.012879713087233 0.0060908484912964 0.0003
          0.012982043505355 0.0056371881930815 0.0003 0.01678493258985 0.0053840721103251 0
          0.016848637368385 0.0048798435935376 0 0.01678493258985 0.0053840721103251 0.00015
          0.016848637368385 0.0048798435935376 0.00015 0.01678493258985 0.0053840721103251 0.0003
          0.016848637368385 0.0048798435935376 0.0003 0.012723582323863 0.006509831652106 0
          0.012723582323863 0.006509831652106 0.00015 0.012723582323863 0.006509831652106 0.0003
          0.014128459199836 0.0039835282877348 0 0.014128459199836 0.0039835282877348 0.00015
          0.014128459199836 0.0039835282877348 0.0003 0.018817000838468 0.010560792840001 0
          0.018817000838468 0.010560792840001 0.00015 0.018817000838468 0.010560792840001 0.0003
          0.011043213382792 0.0084269911709333 0 0.011043213382792 0.0084269911709333 0.00015
          0.011043213382792 0.0084269911709333 0.0003 0.011511795106494 0.0083968566041475 0
          0.011511795106494 0.0083968566041475 0.00015 0.011511795106494 0.0083968566041475 0.0003
          0.017341722495578 0.0054175123203669 0 0.017341722495578 0.0054175123203669 0.00015
          0.017341722495578 0.0054175123203669 0.0003 0.01196380743939 0.0083394019710021 0
          0.011894488312007 0.0078344841271679 0 0.01196380743939 0.0083394019710021 0.00015
          0.011894488312007 0.0078344841271679 0.00015 0.01196380743939 0.0083394019710021 0.0003
          0.011894488312007 0.0078344841271679 0.0003 0.018719100515555 0.0096191331103102 0
          0.018769006148643 0.010016813571171 0 0.018719100515555 0.0096191331103102 0.00015
          0.018769006148643 0.010016813571171 0.00015 0.018719100515555 0.0096191331103102 0.0003
          0.018769006148643 0.010016813571171 0.0003 0.019142781766586 0.010156284019367 0
          0.019142781766586 0.010156284019367 0.00015 0.019142781766586 0.010156284019367 0.0003
          0.019871794871807 0.013 0 0.019671681078705 0.012567114388191 0
          0.019871794871807 0.013 0.00015 0.019671681078705 0.012567114388191 0.00015
          0.019871794871807 0.013 0.0003 0.019671681078705 0.012567114388191 0.0003
          0.013590285783394 0.0038446716816234 0 0.013590285783394 0.0038446716816234 0.00015
          0.013590285783394 0.0038446716816234 0.0003 0.018696511924608 0.0075816988835645 0
          0.018734278863615 0.0068564365277259 0 0.018696511924608 0.0075816988835645 0.00015
          0.018734278863615 0.0068564365277259 0.00015 0.018696511924608 0.0075816988835645 0.0003
          0.018734278863615 0.0068564365277259 0.0003 0.013091675611077 0.0041736873632184 0
          0.013121586466294 0.0036708577033715 0 0.013091675611077 0.0041736873632184 0.00015
          0.013121586466294 0.0036708577033715 0.00015 0.013091675611077 0.0041736873632184 0.0003
          0.013121586466294 0.0036708577033715 0.0003 0.019497075330812 0.012129782091497 0
          0.019497075330812 0.012129782091497 0.00015 0.019497075330812 0.012129782091497 0.0003
          0.012592651705639 0.0068198098450163 0 0.012592651705639 0.0068198098450163 0.00015
          0.012592651705639 0.0068198098450163 0.0003 0.018655444813331 0.0089912542068827 0
          0.018655444813331 0.0089912542068827 0.00015 0.018655444813331 0.0089912542068827 0.0003
          0.018643245907353 0.0082916041839039 0 0.018643245907353 0.0082916041839039 0.00015
          0.018643245907353 0.0082916041839039 0.0003 0.013048655853798 0.0051555709380823 0
          0.013048655853798 0.0051555709380823 0.00015 0.013048655853798 0.0051555709380823 0.0003
          0.013084530633285 0.0046685927017207 0 0.013084530633285 0.0046685927017207 0.00015
          0.013084530633285 0.0046685927017207 0.0003
          <InformationKey name="L2_NORM_RANGE" location="vtkDataArray" length="2">
            <Value index="0">
              0.013166738444
            </Value>
            <Value index="1">
              0.023748225859
            </Value>
          </InformationKey>
        </DataArray>
      </Points>
      <Cells>
        <DataArray type="Int64" Name="connectivity" format="ascii" RangeMin="0" RangeMax="794">
          0 1 2 3 4 5
          6 7 4 5 6 7
          8 9 10 11 12 13
          14 15 16 17 18 19
          16 17 18 19 20 21
          22 23 666 667 14 24
          668 669 18 25 668 669
          18 25 670 671 22 26
          24 14 13 27 25 18
          17 28 25 18 17 28
          26 22 21 29 30 31
          3 2 32 33 7 6
          32 33 7 6 34 35
          11 10 36 37 38 39
          40 41 42 43 40 41
          42 43 44 45 46 47
          48 49 50 51 52 53
          54 55 52 53 54 55
          56 57 58 59 60 61
          62 63 64 65 66 67
          64 65 66 67 68 69
          70 71 72 73 672 74
          75 76 673 77 75 76
          673 77 78 79 674 80
          81 82 83 84 85 86
          87 88 85 86 87 88
          89 90 91 92 93 675
          676 677 94 678 679 680
          94 678 679 680 95 681
          682 683 2 96 97 30
          6 98 99 32 6 98
          99 32 10 100 101 34
          102 103 0 104 105 106
          4 107 105 106 4 107
          108 109 8 110 111 112
          113 114 115 116 117 118
          115 116 117 118 119 120
          121 122 123 124 50 125
          126 127 54 128 126 127
          54 128 129 130 58 131
          132 133 134 51 135 136
          137 55 135 136 137 55
          138 139 140 59 141 142
          143 144 145 146 147 148
          145 146 147 148 149 150
          151 152 112 141 144 113
          116 145 148 117 116 145
          148 117 120 149 152 121
          84 83 153 154 88 87
          155 156 88 87 155 156
          92 91 157 158 159 160
          161 38 162 163 164 42
          162 163 164 42 165 166
          167 46 168 169 170 171
          172 173 174 175 172 173
          174 175 176 177 178 179
          684 180 181 685 686 182
          183 687 686 182 183 687
          688 184 185 689 186 104
          0 187 188 107 4 189
          188 107 4 189 190 110
          8 191 690 691 672 73
          692 693 673 76 692 693
          673 76 694 695 674 79
          198 199 200 201 202 203
          204 205 202 203 204 205
          206 207 208 209 210 72
          74 211 212 75 77 213
          212 75 77 213 214 78
          80 215 216 82 81 217
          218 86 85 219 218 86
          85 219 220 90 89 221
          222 216 217 223 224 218
          219 225 224 218 219 225
          226 220 221 227 171 39
          38 161 175 43 42 164
          175 43 42 164 179 47
          46 167 228 696 685 181
          229 697 687 183 229 697
          687 183 230 698 689 185
          231 699 700 701 232 702
          703 704 232 702 703 704
          233 705 706 707 31 30
          201 200 33 32 205 204
          33 32 205 204 35 34
          209 208 234 235 236 237
          238 239 240 241 238 239
          240 241 242 243 244 245
          36 246 247 248 40 249
          250 251 40 249 250 251
          44 252 253 254 83 255
          256 153 87 257 258 155
          87 257 258 155 91 259
          260 157 235 699 231 236
          239 702 232 240 239 702
          232 240 243 705 233 244
          168 171 161 261 172 175
          164 262 172 175 164 262
          176 179 167 263 171 170
          36 39 175 174 40 43
          175 174 40 43 179 178
          44 47 264 265 266 267
          268 269 270 271 268 269
          270 271 272 273 274 275
          237 276 211 234 241 277
          213 238 241 277 213 238
          245 278 215 242 279 160
          237 236 280 163 241 240
          280 163 241 240 281 166
          245 244 234 211 74 282
          238 213 77 283 238 213
          77 283 242 215 80 284
          285 228 181 286 287 229
          183 288 287 229 183 288
          289 230 185 290 291 168
          261 292 293 172 262 294
          293 172 262 294 295 176
          263 296 297 298 256 255
          299 300 258 257 299 300
          258 257 301 302 260 259
          303 304 97 96 305 306
          99 98 305 306 99 98
          307 308 101 100 309 247
          114 113 310 250 118 117
          310 250 118 117 311 253
          122 121 304 312 313 97
          306 314 315 99 306 314
          315 99 308 316 317 101
          282 74 672 708 283 77
          673 709 283 77 673 709
          284 80 674 710 318 303
          96 319 320 305 98 321
          320 305 98 321 322 307
          100 323 285 187 0 3
          287 189 4 7 287 189
          4 7 289 191 8 11
          223 711 712 324 225 713
          714 325 225 713 714 325
          227 715 716 326 327 210
          211 276 328 212 213 277
          328 212 213 277 329 214
          215 278 717 282 708 718
          719 283 709 720 719 283
          709 720 721 284 710 722
          276 237 160 159 277 241
          163 162 277 241 163 162
          278 245 166 165 330 318
          319 331 332 320 321 333
          332 320 321 333 334 322
          323 335 324 336 222 223
          325 337 224 225 325 337
          224 225 326 338 226 227
          292 261 279 339 294 262
          280 340 294 262 280 340
          296 263 281 341 342 343
          210 327 344 345 212 328
          344 345 212 328 346 347
          214 329 696 228 31 200
          697 229 33 204 697 229
          33 204 698 230 35 208
          298 348 349 256 300 350
          351 258 300 350 351 258
          302 352 353 260 336 343
          342 222 337 345 344 224
          337 345 344 224 338 347
          346 226 96 2 1 319
          98 6 5 321 98 6
          5 321 100 10 9 323
          103 354 355 356 106 357
          358 359 106 357 358 359
          109 360 361 362 339 279
          236 231 340 280 240 232
          340 280 240 232 341 281
          244 233 363 364 365 366
          367 368 369 370 367 368
          369 370 371 372 373 374
          375 376 377 378 379 380
          381 382 379 380 381 382
          383 384 385 386 169 168
          291 312 173 172 293 314
          173 172 293 314 177 176
          295 316 216 222 342 387
          218 224 344 388 218 224
          344 388 220 226 346 389
          223 217 723 711 225 219
          724 713 225 219 724 713
          227 221 725 715 160 279
          261 161 163 280 262 164
          163 280 262 164 166 281
          263 167 356 355 330 331
          359 358 332 333 359 358
          332 333 362 361 334 335
          363 390 391 364 367 392
          393 368 367 392 393 368
          371 394 395 372 396 397
          726 690 398 399 727 692
          398 399 727 692 400 401
          728 694 390 402 403 391
          392 404 405 393 392 404
          405 393 394 406 407 395
          235 234 282 717 239 238
          283 719 239 238 283 719
          243 242 284 721 313 201
          30 97 315 205 32 99
          315 205 32 99 317 209
          34 101 248 247 309 348
          251 250 310 350 251 250
          310 350 254 253 311 352
          200 199 729 696 204 203
          730 697 204 203 730 697
          208 207 731 698 408 409
          375 378 410 411 379 382
          410 411 379 382 412 413
          383 386 153 256 349 366
          155 258 351 370 155 258
          351 370 157 260 353 374
          414 408 378 415 416 410
          382 417 416 410 382 417
          418 412 386 419 420 248
          348 298 421 251 350 300
          421 251 350 300 422 254
          352 302 423 327 276 159
          424 328 277 162 424 328
          277 162 425 329 278 165
          426 427 428 429 430 431
          432 433 430 431 432 433
          434 435 436 437 336 324
          438 439 337 325 440 441
          337 325 440 441 338 326
          442 443 667 732 15 14
          669 733 19 18 669 733
          19 18 671 734 23 22
          444 445 446 447 448 449
          450 451 448 449 450 451
          452 453 454 455 415 456
          457 458 417 459 460 461
          417 459 460 461 419 462
          463 464 12 465 408 414
          16 466 410 416 16 466
          410 416 20 467 412 418
          465 403 409 408 466 405
          411 410 466 405 411 410
          467 407 413 412 376 375
          429 428 380 379 433 432
          380 379 433 432 384 383
          437 436 114 468 469 111
          118 470 471 115 118 470
          471 115 122 472 473 119
          37 423 159 38 41 424
          162 42 41 424 162 42
          45 425 165 46 474 475
          390 363 476 477 392 367
          476 477 392 367 478 479
          394 371 429 375 409 480
          433 379 411 481 433 379
          411 481 437 383 413 482
          342 483 297 387 344 484
          299 388 344 484 299 388
          346 485 301 389 348 309
          474 349 350 310 476 351
          350 310 476 351 352 311
          478 353 480 409 403 402
          481 411 405 404 481 411
          405 404 482 413 407 406
          266 265 376 428 270 269
          380 432 270 269 380 432
          274 273 384 436 486 487
          364 391 488 489 368 393
          488 489 368 393 490 491
          372 395 447 446 492 493
          451 450 494 495 451 450
          494 495 455 454 496 497
          483 420 298 297 484 421
          300 299 484 421 300 299
          485 422 302 301 498 267
          63 499 500 271 67 501
          500 271 67 501 502 275
          71 503 378 377 456 415
          382 381 459 417 382 381
          459 417 386 385 462 419
          504 62 505 506 507 66
          508 509 507 66 508 509
          510 70 511 512 513 61
          426 514 515 65 430 516
          515 65 430 516 517 69
          434 518 499 63 62 504
          501 67 66 507 501 67
          66 507 503 71 70 510
          474 363 366 349 476 367
          370 351 476 367 370 351
          478 371 374 353 519 520
          376 265 521 522 380 269
          521 522 380 269 523 524
          384 273 506 505 525 526
          509 508 527 528 509 508
          527 528 512 511 529 530
          531 377 376 520 532 381
          380 522 532 381 380 522
          533 385 384 524 534 535
          536 537 538 539 540 541
          538 539 540 541 542 543
          544 545 546 536 535 547
          548 540 539 549 548 540
          539 549 550 544 543 551
          141 330 355 123 145 332
          358 126 145 332 358 126
          149 334 361 129 327 423
          483 342 328 424 484 344
          328 424 484 344 329 425
          485 346 193 531 520 552
          195 532 522 553 195 532
          522 553 197 533 524 554
          134 555 526 525 137 556
          528 527 137 556 528 527
          140 557 530 529 480 558
          426 429 481 559 430 433
          481 559 430 433 482 560
          434 437 391 403 465 486
          393 405 466 488 393 405
          466 488 395 407 467 490
          465 12 15 561 466 16
          19 562 466 16 19 562
          467 20 23 563 402 390
          475 564 404 392 477 565
          404 392 477 565 406 394
          479 566 567 568 49 514
          569 570 53 516 569 570
          53 516 571 572 57 518
          558 567 514 426 559 569
          516 430 559 569 516 430
          560 571 518 434 564 475
          143 573 565 477 147 574
          565 477 147 574 566 479
          151 575 561 15 732 735
          562 19 733 736 562 19
          733 736 563 23 734 737
          228 285 3 31 229 287
          7 33 229 287 7 33
          230 289 11 35 576 198
          201 313 577 202 205 315
          577 202 205 315 578 206
          209 317 356 331 319 1
          359 333 321 5 359 333
          321 5 362 335 323 9
          1 0 103 356 5 4
          106 359 5 4 106 359
          9 8 109 362 558 480
          402 564 559 481 404 565
          559 481 404 565 560 482
          406 566 699 235 717 738
          702 239 719 739 702 239
          719 739 705 243 721 740
          73 582 396 690 76 583
          398 692 76 583 398 692
          79 584 400 694 741 742
          585 586 743 744 587 588
          743 744 587 588 745 746
          589 590 72 210 343 591
          75 212 345 592 75 212
          345 592 78 214 347 593
          439 591 343 336 441 592
          345 337 441 592 345 337
          443 593 347 338 576 313
          312 291 577 315 314 293
          577 315 314 293 578 317
          316 295 469 169 312 304
          471 173 314 306 471 173
          314 306 473 177 316 308
          594 365 364 487 595 369
          368 489 595 369 368 489
          596 373 372 491 591 439
          396 582 592 441 398 583
          592 441 398 583 593 443
          400 584 564 573 567 558
          565 574 569 559 565 574
          569 559 566 575 571 560
          573 597 568 567 574 598
          570 569 574 598 570 569
          575 599 572 571 747 748
          199 198 749 750 203 202
          749 750 203 202 751 752
          207 206 420 483 423 37
          421 484 424 41 421 484
          424 41 422 485 425 45
          600 486 465 561 601 488
          466 562 601 488 466 562
          602 490 467 563 561 735
          741 600 562 736 743 601
          562 736 743 601 563 737
          745 602 37 36 248 420
          41 40 251 421 41 40
          251 421 45 44 254 422
          594 487 486 600 595 489
          488 601 595 489 488 601
          596 491 490 602 468 170
          169 469 470 174 173 471
          470 174 173 471 472 178
          177 473 264 492 519 265
          268 494 521 269 268 494
          521 269 272 496 523 273
          414 579 13 12 416 580
          17 16 416 580 17 16
          418 581 21 20 154 153
          366 365 156 155 370 369
          156 155 370 369 158 157
          374 373 339 231 701 603
          340 232 704 604 340 232
          704 604 341 233 707 605
          591 582 73 72 592 583
          76 75 592 583 76 75
          593 584 79 78 606 292
          339 603 607 294 340 604
          607 294 340 604 608 296
          341 605 547 609 610 546
          549 611 612 548 549 611
          612 548 551 613 614 550
          60 427 426 61 64 431
          430 65 64 431 430 65
          68 435 434 69 576 291
          292 606 577 293 294 607
          577 293 294 607 578 295
          296 608 615 616 555 134
          617 618 556 137 617 618
          556 137 619 620 557 140
          586 594 600 741 588 595
          601 743 588 595 601 743
          590 596 602 745 83 387
          297 255 87 388 299 257
          87 388 299 257 91 389
          301 259 144 143 475 474
          148 147 477 476 148 147
          477 476 152 151 479 478
          111 469 304 303 115 471
          306 305 115 471 306 305
          119 473 308 307 753 729
          199 748 754 730 203 750
          754 730 203 750 755 731
          207 752 505 62 61 513
          508 66 65 515 508 66
          65 515 511 70 69 517
          756 610 609 757 758 612
          611 759 758 612 611 759
          760 614 613 761 216 387
          83 82 218 388 87 86
          218 388 87 86 220 389
          91 90 285 621 186 187
          287 622 188 189 287 622
          188 189 289 623 190 191
          264 624 493 492 268 625
          495 494 268 625 495 494
          272 626 497 496 726 397
          627 762 727 399 628 763
          727 399 628 763 728 401
          629 764 630 631 181 180
          632 633 183 182 632 633
          183 182 634 635 185 184
          586 154 365 594 588 156
          369 595 588 156 369 595
          590 158 373 596 765 603
          701 766 767 604 704 768
          767 604 704 768 769 605
          707 770 636 637 186 638
          639 640 188 641 639 640
          188 641 642 643 190 644
          125 50 49 568 128 54
          53 570 128 54 53 570
          131 58 57 572 645 638
          186 646 647 641 188 648
          647 641 188 648 649 644
          190 650 534 646 186 621
          538 648 188 622 538 648
          188 622 542 650 190 623
          93 585 742 675 94 587
          744 678 94 587 744 678
          95 589 746 681 48 51
          134 525 52 55 137 527
          52 55 137 527 56 59
          140 529 627 771 772 762
          628 773 774 763 628 773
          774 763 629 775 776 764
          630 180 684 777 632 182
          686 778 632 182 686 778
          634 184 688 779 154 586
          585 84 156 588 587 88
          156 588 587 88 158 590
          589 92 651 286 181 631
          652 288 183 633 652 288
          183 633 653 290 185 635
          186 637 654 104 188 640
          655 107 188 640 655 107
          190 643 656 110 474 309
          113 144 476 310 117 148
          476 310 117 148 478 311
          121 152 63 267 266 60
          67 271 270 64 67 271
          270 64 71 275 274 68
          616 615 654 657 618 617
          655 658 618 617 655 658
          620 619 656 659 627 397
          396 660 628 399 398 661
          628 399 398 661 629 401
          400 662 579 414 415 458
          580 416 417 461 580 416
          417 461 581 418 419 464
          651 631 547 535 652 633
          549 539 652 633 549 539
          653 635 551 543 723 217
          81 780 724 219 85 781
          724 219 85 781 725 221
          89 782 663 446 445 192
          664 450 449 194 664 450
          449 194 665 454 453 196
          142 597 573 143 146 598
          574 147 146 598 574 147
          150 599 575 151 783 747
          198 576 784 749 202 577
          784 749 202 577 785 751
          206 578 48 513 514 49
          52 515 516 53 52 515
          516 53 56 517 518 57
          318 330 141 112 320 332
          145 116 320 332 145 116
          322 334 149 120 651 621
          285 286 652 622 287 288
          652 622 287 288 653 623
          289 290 60 266 428 427
          64 270 432 431 64 270
          432 431 68 274 436 435
          354 124 123 355 357 127
          126 358 357 127 126 358
          360 130 129 361 303 318
          112 111 305 320 116 115
          305 320 116 115 307 322
          120 119 630 777 757 609
          632 778 759 611 632 778
          759 611 634 779 761 613
          468 246 36 170 470 249
          40 174 470 249 40 174
          472 252 44 178 615 102
          104 654 617 105 107 655
          617 105 107 655 619 108
          110 656 786 783 576 606
          787 784 577 607 787 784
          577 607 788 785 578 608
          519 492 446 663 521 494
          450 664 521 494 450 664
          523 496 454 665 637 636
          657 654 640 639 658 655
          640 639 658 655 643 642
          659 656 663 192 193 552
          664 194 195 553 664 194
          195 553 665 196 197 554
          789 438 324 712 790 440
          325 714 790 440 325 714
          791 442 326 716 102 133
          354 103 105 136 357 106
          105 136 357 106 108 139
          360 109 646 534 537 645
          648 538 541 647 648 538
          541 647 650 542 545 649
          525 505 513 48 527 508
          515 52 527 508 515 52
          529 511 517 56 660 396
          439 438 661 398 441 440
          661 398 441 440 662 400
          443 442 765 786 606 603
          767 787 607 604 767 787
          607 604 769 788 608 605
          624 264 267 498 625 268
          271 500 625 268 271 500
          626 272 275 502 468 114
          247 246 470 118 250 249
          470 118 250 249 472 122
          253 252 535 534 621 651
          539 538 622 652 539 538
          622 652 543 542 623 653
          93 81 84 585 94 85
          88 587 94 85 88 587
          95 89 92 589 438 789
          792 660 440 790 793 661
          440 790 793 661 442 791
          794 662 124 132 51 50
          127 135 55 54 127 135
          55 54 130 138 59 58
          663 552 520 519 664 553
          522 521 664 553 522 521
          665 554 524 523 609 547
          631 630 611 549 633 632
          611 549 633 632 613 551
          635 634 125 142 141 123
          128 146 145 126 128 146
          145 126 131 150 149 129
          102 615 134 133 105 617
          137 136 105 617 137 136
          108 619 140 139 142 125
          568 597 146 128 570 598
          146 128 570 598 150 131
          572 599 124 354 133 132
          127 357 136 135 127 357
          136 135 130 360 139 138
          660 792 771 627 661 793
          773 628 661 793 773 628
          662 794 775 629 81 93
          677 780 85 94 680 781
          85 94 680 781 89 95
          683 782
        </DataArray>
        <DataArray type="Int64" Name="offsets" format="ascii" RangeMin="8" RangeMax="3632">
          8 16 24 32 40 48
          56 64 72 80 88 96
          104 112 120 128 136 144
          152 160 168 176 184 192
          200 208 216 224 232 240
          248 256 264 272 280 288
          296 304 312 320 328 336
          344 352 360 368 376 384
          392 400 408 416 424 432
          440 448 456 464 472 480
          488 496 504 512 520 528
          536 544 552 560 568 576
          584 592 600 608 616 624
          632 640 648 656 664 672
          680 688 696 704 712 720
          728 736 744 752 760 768
          776 784 792 800 808 816
          824 832 840 848 856 864
          872 880 888 896 904 912
          920 928 936 944 952 960
          968 976 984 992 1000 1008
          1016 1024 1032 1040 1048 1056
          1064 1072 1080 1088 1096 1104
          1112 1120 1128 1136 1144 1152
          1160 1168 1176 1184 1192 1200
          1208 1216 1224 1232 1240 1248
          1256 1264 1272 1280 1288 1296
          1304 1312 1320 1328 1336 1344
          1352 1360 1368 1376 1384 1392
          1400 1408 1416 1424 1432 1440
          1448 1456 1464 1472 1480 1488
          1496 1504 1512 1520 1528 1536
          1544 1552 1560 1568 1576 1584
          1592 1600 1608 1616 1624 1632
          1640 1648 1656 1664 1672 1680
          1688 1696 1704 1712 1720 1728
          1736 1744 1752 1760 1768 1776
          1784 1792 1800 1808 1816 1824
          1832 1840 1848 1856 1864 1872
          1880 1888 1896 1904 1912 1920
          1928 1936 1944 1952 1960 1968
          1976 1984 1992 2000 2008 2016
          2024 2032 2040 2048 2056 2064
          2072 2080 2088 2096 2104 2112
          2120 2128 2136 2144 2152 2160
          2168 2176 2184 2192 2200 2208
          2216 2224 2232 2240 2248 2256
          2264 2272 2280 2288 2296 2304
          2312 2320 2328 2336 2344 2352
          2360 2368 2376 2384 2392 2400
          2408 2416 2424 2432 2440 2448
          2456 2464 2472 2480 2488 2496
          2504 2512 2520 2528 2536 2544
          2552 2560 2568 2576 2584 2592
          2600 2608 2616 2624 2632 2640
          2648 2656 2664 2672 2680 2688
          2696 2704 2712 2720 2728 2736
          2744 2752 2760 2768 2776 2784
          2792 2800 2808 2816 2824 2832
          2840 2848 2856 2864 2872 2880
          2888 2896 2904 2912 2920 2928
          2936 2944 2952 2960 2968 2976
          2984 2992 3000 3008 3016 3024
          3032 3040 3048 3056 3064 3072
          3080 3088 3096 3104 3112 3120
          3128 3136 3144 3152 3160 3168
          3176 3184 3192 3200 3208 3216
          3224 3232 3240 3248 3256 3264
          3272 3280 3288 3296 3304 3312
          3320 3328 3336 3344 3352 3360
          3368 3376 3384 3392 3400 3408
          3416 3424 3432 3440 3448 3456
          3464 3472 3480 3488 3496 3504
          3512 3520 3528 3536 3544 3552
          3560 3568 3576 3584 3592 3600
          3608 3616 3624 3632
        </DataArray>
        <DataArray type="UInt8" Name="types" format="ascii" RangeMin="12" RangeMax="12">
          12 12 12 12 12 12
          12 12 12 12 12 12
          12 12 12 12 12 12
          12 12 12 12 12 12
          12 12 12 12 12 12
          12 12 12 12 12 12
          12 12 12 12 12 12
          12 12 12 12 12 12
          12 12 12 12 12 12
          12 12 12 12 12 12
          12 12 12 12 12 12
          12 12 12 12 12 12
          12 12 12 12 12 12
          12 12 12 12 12 12
          12 12 12 12 12 12
          12 12 12 12 12 12
          12 12 12 12 12 12
          12 12 12 12 12 12
          12 12 12 12 12 12
          12 12 12 12 12 12
          12 12 12 12 12 12
          12 12 12 12 12 12
          12 12 12 12 12 12
          12 12 12 12 12 12
          12 12 12 12 12 12
          12 12 12 12 12 12
          12 12 12 12 12 12
          12 12 12 12 12 12
          12 12 12 12 12 12
          12 12 12 12 12 12
          12 12 12 12 12 12
          12 12 12 12 12 12
          12 12 12 12 12 12
          12 12 12 12 12 12
          12 12 12 12 12 12
          12 12 12 12 12 12
          12 12 12 12 12 12
          12 12 12 12 12 12
          12 12 12 12 12 12
          12 12 12 12 12 12
          12 12 12 12 12 12
          12 12 12 12 12 12
          12 12 12 12 12 12
          12 12 12 12 12 12
          12 12 12 12 12 12
          12 12 12 12 12 12
          12 12 12 12 12 12
          12 12 12 12 12 12
          12 12 12 12 12 12
          12 12 12 12 12 12
          12 12 12 12 12 12
          12 12 12 12 12 12
          12 12 12 12 12 12
          12 12 12 12 12 12
          12 12 12 12 12 12
          12 12 12 12 12 12
          12 12 12 12 12 12
          12 12 12 12 12 12
          12 12 12 12 12 12
          12 12 12 12 12 12
          12 12 12 12 12 12
          12 12 12 12 12 12
          12 12 12 12 12 12
          12 12 12 12 12 12
          12 12 12 12 12 12
          12 12 12 12 12 12
          12 12 12 12 12 12
          12 12 12 12 12 12
          12 12 12 12 12 12
          12 12 12 12 12 12
          12 12 12 12 12 12
          12 12 12 12 12 12
          12 12 12 12 12 12
          12 12 12 12 12 12
          12 12 12 12 12 12
          12 12 12 12
        </DataArray>
      </Cells>
    </Piece>
  </UnstructuredGrid>
</VTKFile>
