<?xml version="1.0"?>
<VTKFile type="UnstructuredGrid" version="0.1" byte_order="LittleEndian" header_type="UInt32" compressor="vtkZLibDataCompressor">
  <UnstructuredGrid>
    <Piece NumberOfPoints="798" NumberOfCells="454">
      <PointData>
        <DataArray type="Int32" Name="libmesh_node_id" format="ascii" RangeMin="2250" RangeMax="5441">
          2250 2251 2252 2253 2254 2255
          2256 2257 2258 2259 2260 2261
          2274 2275 2276 2277 2278 2279
          2280 2281 2282 2283 2284 2285
          2298 2299 2300 2301 2302 2303
          2304 2305 2306 2307 2308 2309
          2328 2329 2330 2331 2332 2333
          2334 2335 2336 2337 2338 2339
          2352 2353 2354 2355 2356 2357
          2358 2359 2360 2361 2362 2363
          2376 2377 2378 2379 2380 2381
          2382 2383 2384 2385 2386 2387
          2424 2425 2426 2427 2428 2429
          2430 2431 2432 2445 2446 2447
          2448 2449 2450 2451 2452 2453
          2454 2455 2456 2457 2458 2459
          2460 2461 2462 2481 2482 2483
          2484 2485 2486 2493 2494 2495
          2496 2497 2498 2535 2536 2537
          2538 2539 2540 2541 2542 2543
          2544 2545 2546 2547 2548 2549
          2562 2563 2564 2565 2566 2567
          2568 2569 2570 2571 2572 2573
          2604 2605 2606 2607 2608 2609
          2610 2611 2612 2615 2619 2623
          2625 2626 2627 2628 2629 2630
          2631 2632 2633 2664 2665 2666
          2667 2668 2669 2670 2671 2672
          2787 2788 2789 2790 2791 2792
          2793 2794 2795 2820 2821 2822
          2823 2824 2825 2850 2851 2854
          2855 2858 2859 2880 2882 2884
          2886 2887 2888 2889 2890 2891
          2892 2893 2894 2895 2896 2897
          2898 2899 2900 2928 2929 2930
          2931 2932 2933 2934 2935 2936
          2937 2938 2939 2972 2975 2978
          2979 2980 2981 2982 2983 2984
          2985 2986 2987 2988 2989 2990
          3078 3079 3080 3111 3112 3113
          3114 3115 3116 3129 3130 3131
          3132 3133 3134 3135 3136 3137
          3138 3139 3140 3141 3142 3143
          3144 3145 3146 3147 3148 3149
          3150 3151 3152 3153 3154 3155
          3156 3157 3158 3159 3160 3161
          3162 3163 3164 3165 3166 3167
          3186 3188 3189 3191 3192 3194
          3259 3261 3263 3342 3343 3344
          3345 3346 3347 3435 3436 3437
          3438 3439 3440 3447 3448 3449
          3450 3451 3452 3513 3514 3515
          3519 3520 3521 3522 3523 3524
          3537 3538 3539 3540 3541 3542
          3714 3715 3716 3717 3718 3719
          3720 3721 3722 3792 3793 3794
          3822 3823 3824 3825 3826 3827
          3828 3829 3830 3831 3832 3833
          3855 3856 3857 3858 3859 3860
          3867 3868 3869 3870 3871 3872
          3873 3874 3875 3876 3877 3878
          3879 3880 3881 3883 3886 3889
          3921 3922 3923 3957 3961 3965
          4065 4066 4067 4077 4078 4079
          4086 4087 4088 4119 4120 4121
          4191 4192 4193 4206 4207 4210
          4211 4214 4215 4224 4225 4226
          4227 4228 4229 4251 4252 4253
          4260 4261 4262 4263 4264 4265
          4275 4276 4277 4278 4279 4280
          4296 4297 4298 4347 4348 4349
          4401 4402 4403 4404 4405 4406
          4407 4408 4409 4410 4411 4412
          4413 4414 4415 4431 4432 4433
          4452 4453 4454 4461 4462 4463
          4464 4465 4466 4533 4534 4535
          4551 4552 4553 4554 4555 4556
          4557 4558 4559 4560 4561 4562
          4590 4591 4592 4593 4594 4595
          4608 4609 4610 4617 4618 4619
          4620 4621 4622 4623 4624 4625
          4626 4627 4628 4629 4630 4631
          4665 4666 4667 4668 4669 4670
          4680 4681 4682 4683 4684 4685
          4719 4720 4721 4728 4729 4730
          4731 4732 4733 4734 4735 4736
          4752 4753 4754 4761 4762 4763
          4764 4765 4766 4767 4768 4769
          4773 4774 4775 4785 4786 4787
          4869 4870 4871 4881 4882 4883
          4887 4888 4889 4890 4891 4892
          4893 4894 4895 4917 4918 4919
          4920 4921 4922 4926 4927 4928
          4929 4930 4931 4962 4963 4964
          4965 4966 4967 4971 4972 4973
          4974 4975 4976 4995 4996 4997
          4998 4999 5000 5001 5002 5003
          5004 5005 5006 5022 5023 5024
          5031 5032 5033 5037 5038 5039
          5046 5047 5048 5049 5050 5051
          5052 5053 5054 5058 5059 5060
          5064 5065 5066 5067 5068 5069
          5070 5071 5072 5076 5077 5078
          5082 5083 5084 5085 5086 5087
          5091 5092 5093 5097 5098 5099
          5100 5101 5102 5106 5107 5108
          5109 5110 5111 5112 5113 5114
          5115 5116 5117 5118 5119 5120
          5121 5122 5123 5124 5125 5126
          5127 5128 5129 5130 5131 5132
          5133 5134 5135 5136 5137 5138
          5139 5140 5141 5142 5143 5144
          5145 5146 5147 5148 5149 5150
          5154 5155 5156 5157 5158 5159
          5163 5164 5165 5166 5167 5168
          5172 5173 5174 5175 5176 5177
          5181 5182 5183 5184 5185 5186
          5190 5191 5192 5193 5194 5195
          5196 5197 5198 5199 5200 5201
          5250 5251 5252 5277 5278 5279
          5304 5305 5306 5331 5332 5333
          2852 2853 2856 2857 2860 2861
          2970 2644 2971 2973 2647 2974
          2976 2650 2977 3187 3190 3193
          4662 4663 4664 3270 3271 3272
          5151 5152 5153 5160 5161 5162
          5169 5170 5171 5178 5179 5180
          5187 5188 5189 5202 5203 5204
          5205 5206 5207 5253 5254 5255
          5280 5281 5282 5307 5308 5309
          5334 5335 5336 5358 5359 5360
          5361 5362 5363 5385 5386 5387
          5412 5413 5414 5439 5440 5441
        </DataArray>
        <DataArray type="Float64" Name="resid_x" format="ascii" RangeMin="-4.890644661949943" RangeMax="5.121384437408473">
          0.00014183473548801118 0.004004871625433282 0.0019068561449291088 -0.0018425622712952006 0.001602350385430995 -0.0006834671659099456
          -0.003972366185790971 -0.003911945653401361 -0.006439168372112114 -0.0097269524978838 -0.01157135692953154 -0.010987971609792258
          0.0004125159038528281 0.0019476361419639154 0.001469960358292166 0.002916200006473524 -0.0035127180679124237 -0.005586615180477761
          -0.004965474012355031 -0.008089276483898455 -0.0293222544792906 -0.027066331306860647 -0.0262604086622924 -0.032509404837873124
          -0.0005030998597073122 0.007766527971351245 0.003949999017562433 0.03142952872341098 -0.004759097894183384 0.001518052983872309
          -0.0017028767294728908 -0.00034557879413199544 -0.021188357228071553 -0.017747752949979656 -0.0326232204160295 -0.07905681497222794
          -0.005449556309192971 0.00044201091008311266 0.0011810349809435738 -0.009365785054387343 -0.012942069072451545 -0.00031019155758382766
          -0.0009120921881242694 -0.02572315218522636 -0.016973029931726558 -0.015299165338269916 -0.017071512125726995 -0.02257233884195098
          -0.002142436329595654 0.0004573713485376274 0.0018877345695571535 0.002682488669616845 -0.007541563749073887 -0.0048530408314224616
          -0.012881551948839665 -0.011826744667327915 -0.03202328466971949 -0.03463716898988345 -0.03907636772488221 -0.037244566523634504
          0.0009545116511313623 0.002521951743718276 0.00319971392281726 0.006497510565703912 -0.00015587558598983975 -0.0035638837060529838
          0.0027529044630068 0.0009389254232239352 -0.019807847138983092 -0.028692060228308947 -0.02656084096699729 -0.025410824226949735
          -0.015214695292607772 -0.001764443812113381 -0.004616096979666473 -0.0074626057818538705 -0.0025680525954583366 -0.008623880063779232
          -0.03495068685656344 -0.03430476110660052 -0.03683236568088777 -0.017316749855195823 -0.008834453694400501 -0.008593285769302739
          0.0006121026045988742 -0.032396756544224914 -0.025633924974879818 0.008018897310322792 0.001380515567621532 0.003179719839309314
          0.012437936012777318 0.006110173454495715 0.0010537730206752194 -0.0006248508560044996 0.0032476519360458145 -0.0544302770578704
          -0.035071970860240054 -0.039568464944155224 -0.06532744891333264 -0.008645624897914317 -0.011289981714043051 -0.0038458465554320753
          -0.006080972315130495 -0.017580114000068647 -0.02356099374594489 -0.024031665587625373 -0.010304211376769068 -0.0073386608673824405
          0.0015250874268426529 -0.025006842462168777 -0.023082228982292285 -0.02386669334177327 0.008254853168219611 0.003569547860481137
          -0.019399620773642212 -0.0007495291056436315 0.018004293151816952 -0.02805160559508657 -0.022860312285422957 -0.029515771814400793
          -0.010692616622210993 -0.007456652988848234 -0.007939035862783772 -0.003988649922247234 -0.02125331871217595 -0.01875972860939079
          0.007620176655130706 0.006549095443443953 0.005262542197492337 0.00813346603235754 0.00012740106573527754 0.002826796455153602
          -0.004220683121785029 -0.0037550684527589695 -0.04324297987007597 -0.040258069664282914 -0.04423941536114562 -0.042493136829974354
          -0.021961001990716156 -0.0312991813538277 -0.016257788724952427 -0.004635470715804502 -0.015947002556955248 -0.00867390507908894
          -0.03219844470607214 -0.03369192036835944 -0.03206331182818367 -0.02032561930569443 -0.022930300923659885 -0.03569899045744673
          -0.020650317925446693 -0.037199702412617164 -0.005789833109699272 -0.01156355302561174 -0.023099014009702046 0.0065884828784845695
          -0.045037597332487245 -0.051030316089765826 -0.025562593993198046 -0.02931566537249175 -0.0006675831088442941 -0.022555007904293767
          -0.00416254454819609 0.007760019986501554 -0.006752384571177661 -0.037281731051457934 -0.029393236469970496 -0.041486586524971614
          -0.0073308284404189905 -0.005432022906386003 -0.007917181697619569 -0.0017084590798086552 -0.002983376959981854 -0.002473707926121449
          -0.01477275422467983 -0.007660410515511806 -0.011754917892797145 -0.008894342373843012 -0.007304824995863157 -0.004221273769308809
          -0.0022869040860493683 -0.009902234713028868 -0.015104959432209242 -0.010545280325708895 -0.009530426170904605 -0.03293502474943999
          -0.0183639692492914 -0.0324597511453133 -0.03951801244264708 -0.012171331727527601 -0.026204387167444665 -0.010256163153663955
          -0.010830208174759548 -0.017592669404316474 -0.00937131034381622 -0.013708028497372737 -0.03818079172551947 -0.030624716197777957
          -0.010969531770522511 -0.027601038972941083 0.0028677114461554964 -0.009196054433023626 -0.022095741904011312 -0.02851313334751815
          -0.03216368348790155 -0.011569350072166529 -0.030045094326601074 0.00014344939294552717 0.001589031470722091 0.0009310765171095525
          0.0012967219310304756 -0.0030760898474166964 -0.005513098046867171 -0.005402542009640854 -0.007655509703006658 -0.02114890177380957
          -0.025720704546515982 -0.028612874444427838 -0.027103970327588378 -0.018734827980376068 -0.034415765282135524 -0.027730970808390154
          -0.013999948720995192 -0.009962320608924102 -0.016465299508123366 -0.0027013800398005827 -0.027037725774375687 -0.01631048802865287
          -0.011061465384661906 -0.0072838252722977614 -0.00788741270723503 -0.004322756991686383 -0.008761710346112839 -0.008012598191135645
          -0.030183038219557368 -0.003859192993674654 -0.032462907594228874 -0.026904328285821677 -0.02661267563924863 -0.0055587537661221376
          0.005638205876200786 -0.029135230786250688 -0.04310930191636242 -0.03647971467799582 -0.013372385546629673 -0.04441783782986164
          0.026710198908086014 -0.036038895773018886 -0.004783447538736496 -0.04085647773431056 0.04256568432188246 -0.04312168098729341
          -0.026330933597666473 -0.0329551392392986 -0.005560030757889578 -0.04272613484613075 -0.03850249201880879 -0.01268544404874472
          -0.008490338052966284 -0.023961197470304008 -0.01370011483834599 -0.02142171668246373 -0.0005460691391583339 0.010594612808174197
          -0.019517198437835503 -0.012416530697955785 0.01149787104574962 -0.0023495555845913785 -0.013232288420631733 -0.022196585915982503
          -0.017324463264434264 -0.0412506153805543 -0.05561193346368576 -0.010871030429632889 0.006014554015552065 -0.020359092220982866
          -0.0113503876453116 -0.013598479728249124 -0.006738290053486473 -0.013743772569997592 -0.015100611132126573 -0.027463074148659672
          -0.0067087071768572315 -0.049556243920878984 0.04919586967496059 -0.07702375976456288 0.00803727076251004 -0.022799463401541153
          -0.05220170067625407 0.0023941049435549644 0.039128611595047325 -0.01906876900827381 -0.01613202627301691 -0.002638226123068854
          -0.008515922289710653 -0.023051092302126985 -0.020762207698066693 -0.012301271916465462 -0.02232319407505834 -0.007144271334198926
          -0.01472631934964408 -0.0216253739600758 -0.01602885445706992 -0.011613410285475467 -0.010821011772673472 0.009205359465666696
          -0.014278107421201724 -0.017027668114221406 -0.02924883562505709 -0.04496696855501714 -0.013197362336848428 -0.007966153038830193
          -0.026728877969793174 -0.01577689775507629 -0.008202083728768628 -0.011474006502915302 -0.029010565410707123 -0.0180140524077963
          -0.02744034329835987 -0.031813036329997324 -0.0329768004893225 -0.003956084454776132 -0.03296152691535603 -0.005371112007706458
          -0.005797906018979226 -0.020375480951709157 -0.010430570456601451 -0.003212289052877959 -0.011882126449108243 -0.00819467498214932
          -0.009740079272725355 -0.023380328976511988 -0.016912088360224287 -0.013100073681142854 -0.005521835173969869 -0.011131192761696385
          -0.03038796407130917 -0.02269659473940777 -0.0117180712660927 -0.007031258519283767 -0.029157483663087014 -0.025653427702327924
          -0.016690812048601344 -0.02798351136983479 -0.0003624886390900528 -0.008470426793498298 -0.027562993579796746 -0.03074439226666481
          -0.05210362548771563 -0.022819041701733767 0.0013902246697599097 -0.00952020001207643 -0.023908198236091582 -0.029377828483116986
          -0.01501730257035927 -0.006956269610526533 -0.00026683361353452284 -0.0025597899630875887 -0.013213026476261103 -0.006144883033281978
          -0.011980216845209668 -0.016396348778711434 -0.01777644814533552 -0.023353198990371027 -0.0028999837156583608 -0.017901691531484687
          -0.018782762994252522 -0.005259542842639964 -0.014050245704547493 -0.010164397492193444 -0.02393177314070627 -0.019993023382861352
          -0.02346221997967568 -0.003590191793919839 -0.023953268667166405 -0.006905248522870444 -0.005188804127678637 -0.006620341888700754
          -0.014363587755065632 -0.0067316027884467555 -0.007415965375278777 -0.03055171234839582 -0.001294790636784171 -0.024456634979390657
          -0.010847561165518993 0.0013830242494976552 -0.009758110799090058 -0.016575243911985282 -0.013446086800426471 -0.007547512897366104
          -0.011321050350083794 -0.0010325568092603987 -0.007343036212090759 -0.0073262990024316466 -0.021655170948516655 -0.016404041933189006
          -0.03117810038187585 -0.010305651340475563 -0.01874474335913945 -0.0015962090544432428 -0.006237479571395532 0.00015255378082290605
          -0.004339149099255035 -0.0019795637397956867 -0.012129891488948275 -0.01901003920173494 -0.022654079095122626 -0.013805835897274576
          -0.004616001731091224 -0.013324088648603905 -0.00016052940806332572 -0.00007352938302140899 -0.006417186196429725 -0.011419117911716015
          -0.02535996793922024 0.002432846011712897 -0.007235901138665568 0.02128681169725155 -0.015026860479805393 -0.04001378650921161
          -0.03252361015146832 0.004201796431061666 -0.03399558216015919 -0.013061532713897428 -0.015532159417878333 -0.009030321981944311
          -0.029588180480779158 -0.0013328547690640846 -0.020495092399201553 -0.00711052523100264 -0.024615229936635785 -0.03295749129783232
          -0.00452335688306249 -0.0033691685319903186 -0.0018171822541503957 -0.002212544847417064 -0.01148106100829871 -0.013066325932681089
          -0.014254068498618544 -0.006012071022763799 -0.00833503268618685 -0.01039978246295048 -0.004862959182121429 -0.0045239539238672855
          -0.02262301782966425 -0.0014086196967628695 -0.007055496320459431 -0.009821386694861545 -0.004773214007093074 -0.005803716365959666
          -0.0009885444760193707 -0.017410751605355657 -0.008046091818385115 -0.039788585672114074 -0.01135264255813917 -0.03254021362779369
          -0.0063155755174255646 -0.018296222295285602 0.00020599574400126386 0.0021184322430247704 -0.006492699202412133 -0.013254197646270782
          -0.0017736312049816405 -0.0007745671825780676 -0.012377244126800413 -0.027954434722762933 -0.01705178000275165 -0.010469929779951315
          -0.020990597552448698 -0.0051445737544719705 -0.012100934332708313 0.0007602328173907935 -0.028353095433764963 -0.014320835270915211
          -0.05553152807882533 -0.02622369509682887 -0.03958864912342008 -0.015228197274819166 -0.034958832903730475 -0.007249674041941212
          -0.021923984928558404 -0.02110138116731264 -0.031921271864953304 -0.024722077055855607 -0.006975530130601371 -0.0011619391732082818
          -0.0010495403772932121 -0.03433633175146511 -0.027785586425458142 -0.039247484126085475 0.003549689270860412 -0.013331252013902173
          -0.04149126540903003 0.0029466265385680313 -0.01998138174326769 -0.032979704182521996 -0.006117100168208656 -0.029954751931058565
          -0.016142420743992858 -0.00801853780776618 0.003645452154296347 0.0013275290965202302 -0.00551888599244732 -0.0034170210720079197
          -0.025071699511350576 0.004242522062953724 -0.02404843377388377 -0.004630630140775693 -0.02360662695520155 -0.018981066688197323
          -0.005812584005129295 -0.027980737984924176 -0.0030831279920850996 -0.025057507574928195 -0.04044154710832526 -0.04086684770541815
          -0.02349915115269674 -0.003596862177544624 -0.012470130156458259 -0.004246163905113676 -0.002055357674600966 -0.010712313273127272
          -0.0015074227049591826 -0.003559343476998489 -0.007253526347778649 -0.011063044929104926 -0.010800855032333967 -0.018178040433185494
          -0.015204175525501462 -0.012066406859426948 -0.01794296550320862 -0.051547960411504334 -0.012929765638407975 -0.03764862859663243
          -0.05075387957972133 0.0005774984614603795 -0.014891939180976976 -0.01743711709771567 -0.01066304491985548 -0.013434592927016986
          -0.026890845945747532 -0.014592002869440623 -0.010476727727803503 -0.006956767282714438 -0.017968329864667787 -0.010822742323991275
          -0.024076872153592888 0.009895031045152436 -0.024995248038475637 -0.01549945964473931 -0.01930183278970654 0.0014536288162858568
          -0.010302447025707817 -0.005555615553920923 -0.01586450409981044 -0.024169888061372546 -0.019932178355152708 -0.009562888272387937
          -0.00982361548136712 -0.017804936525154247 -0.011605790117150683 -0.03161094994195057 -0.04037534158346112 0.009200647353487135
          -0.0023793630340893657 -0.006056756643523009 -0.01927125848162703 -0.00866667304242874 -0.013046339996662049 0.010696355682044079
          -0.004488825413409003 -0.026595406358622675 -0.04186962159712149 -0.05196912650598762 -0.010214861922650975 -0.0027183012054461386
          -0.022717683703592506 -0.003883300322551797 0.004659109788687665 -0.030753815732965428 -0.011951273650152139 -0.010199064968682947
          -0.0478126314462366 -0.00689889175619296 -0.03252107840155727 -0.014760811026060416 -0.004473551670031384 -0.013253233814785048
          -0.020791729940951242 -0.005005711836881588 -0.011256947192707756 -0.0668975014452986 -0.00855454086063645 -0.019188939029911367
          0.0001818074330701691 -0.009189666259501017 -0.034275119651946184 0.008269898413494126 -0.004474207889865411 -0.012061197268361301
          -0.007435125248959729 -0.006983764487767274 -0.013525147771318746 -0.01911252007016806 -0.011106464683228623 -0.01933108634951175
          -0.02755310276834777 -0.006776005685792619 -0.01811583799722527 -0.027463354156052944 -0.057594909253205984 -0.011492520853047417
          -0.014616723001092069 -0.020258989663109794 -0.012235145385439239 -0.01666489687195849 -0.014730103804901695 -0.016267112329852118
          -0.04398808647778418 -0.01148512305580307 -0.01820614221654715 -0.03557329007286114 -0.019049354345087366 -0.013292577531155203
          -0.01892852239166931 -0.017456617998747426 -0.015512774565380028 -0.0098727557055307 0.007694041419766151 -0.0017788457160428095
          0.019967906554995807 0.025316828882397502 -0.018342247697859193 -0.04706840507824417 -0.026531291489764186 -0.01507231124277375
          -0.037507278486502926 0.06826515981333081 0.021084965200675043 2.5672754332509413 1.6576863284302856 5.121384437408473
          3.328567884092555 2.6567033518168177 1.801077114078801 -2.4585312136271043 -1.7567196071802869 -4.890644661949943
          -3.490397782943086 -2.3013887565231705 -1.6646857684144294 -0.010875087100739478 0.06952215528166406 0.060280564451121066
          0.5401359177928402 1.1167873825763461 0.5719152878962905 1.3086315733962675 2.629335436636044 1.4843046013305052
          -0.03850327806033427 -0.0325438645280407 -0.015595420795223802 0.01665966862161561 0.0485497005066744 0.03126235036616798
          1.4600281704483304 2.9490663439116425 1.5554857196914753 -0.010967425462885316 0.005603614078781405 -0.004275550514043047
          -0.026768344797259758 -0.02580614747688159 -0.001705412490098368 0.033153909561164596 0.0870417967924837 0.08687288243527114
          -0.007766887968982061 -0.006161900907615703 -0.0029501492856969236 -0.0171878445822653 -0.015122552528650246 0.0072825320701888074
          -0.016526577703650958 -0.03689862691910584 -0.03545826204371494 0.00723793986026422 0.04186646228250268 -0.016377198403141335
          0.005324858004563282 0.009181716655389138 -0.0061616596035936055 0.011551056818166927 0.05961525391956002 0.04467127943456184
          -0.03396093518614407 -0.0670215949689883 0.05294847020115867 -0.07783177825816168 -0.05439960774708297 -0.021516516347629633
          0.018565025270351754 0.04311825490275467 0.027494755832535134 0.026977575936273368 0.07980821055725507 0.02896121521058248
          -0.14919839883665276 -0.00012821870527623958 -0.29696327172552195 0.0006811511916531288 -0.14902848322481077 -0.00012378599662277168
          -1.8426769716341518 -3.6790839990918798 -1.8231657097892064 -1.3634666369288375 -2.704567464876856 -1.2759184599431919
          1.280568504918275 2.5650015171642497 1.3180944030891197 0.1000814687127285 0.2423881772527796 0.2016847750191868
          -0.03821143690497841 -0.03791941005859023 -0.022913777482557407 -0.05099580231579637 -0.042290086939734906 -0.026797761327834735
          -0.00958029137613714 0.007667557716324325 -0.024771525953473983 0.035570744932392984 0.014619161038393003 -0.0356928768196596
          -0.01374781910135603 -0.04194257236590104 -0.008729452371252222 -0.04928551633305922 -0.071164946652722 -0.05074962525864635
          -0.01530449211852769 0.010005426680852025 -0.042631263613406745 -0.027198153514407686 -0.028575286446017145 -0.01147550955724519
          -0.022723245026295302 -0.013820380235312513 -0.003936218356150434 -0.007149197443531818 0.028897934958138194 0.05024006485317045
          -0.7529187109496291 -1.4725791345970265 -0.7140296799029464 -0.8062421623182559 -1.5930037939444475 -0.8282882423255806
          -0.06431971186927399 -0.10435185535039793 -0.06192627292483088 0.0018719602249319678 0.0013085255253049155 0.0034251419590916043
          0.0013905023832236907 0.006210008700243463 0.0031461151683664923 0.001965330896556594 0.003699428401723992 0.005144787452667998
          -0.19389431051270378 -0.38524642548279786 -0.18336423205535368 -0.8763905972294666 -1.8324087612615045 -0.865103199612193
          2.5907076861491163 4.812462976070563 2.3441132307220442 -0.028278856754493376 0.06308730597354284 0.2694168030212687
          0.47211800091159617 1.0214561682082604 0.5898586668541874 -0.1174996605819203 -0.15547065668638993 0.032717600125103274
          0.053753952383818415 0.13166215613464516 -0.21046036762945874 0.030816919499699225 0.06833145586097089 0.0021394255461988365
        </DataArray>
        <DataArray type="Float64" Name="resid_y" format="ascii" RangeMin="-7.077796159453128" RangeMax="1.2277329380842374">
          0.00003678344302185388 -0.0015204552396882436 0.0014325483134400852 -0.00048195585690430365 0.0006017576309627071 -0.0018540457180622697
          -0.001994775289190509 -0.0011242068994217203 0.0009193270885810845 -0.0006223888590607806 -0.002152110744451069 -0.0009733979002611859
          0.0004861650711136256 0.0003877235038432236 -0.00012457553479867933 0.0005008948821351167 0.00023311863881568529 -0.0006819455089085158
          0.0010152886938348954 0.0032936354249138156 0.0004167033506297241 -0.00012324115120442014 0.001304007413942293 0.0017048244550708913
          -0.0032300959897502146 0.001742587448838706 -0.0018646975567954693 -0.0014068640421640577 -0.006471771358051326 0.0017987996285262486
          -0.0011415145324441545 0.006656226960227496 -0.01889848362093427 -0.0027822142391628057 0.0038993164332423724 -0.019425188582719466
          0.007281094942541706 0.002449918217459976 0.0021518573956819595 0.00258356110527605 0.013111153957298421 0.0029987795795403255
          0.0007178232205720461 0.005862751887542178 0.005744926280106567 -0.00048202501269282994 -0.0014162849619697403 0.0027012019385970476
          0.0002105407995989239 0.0007941940350722765 0.00023315539262622198 -0.0009928835182220763 0.0012483455020831369 0.0005974560852080729
          0.00018506855662975275 -0.004841023689773613 0.0009329206943181068 0.002100848321655885 0.0005709730832138826 -0.001214480519052652
          -0.00012676831675668965 0.001162261982242313 -0.002031891539049091 0.000009546150719560997 -0.00028343307336087253 0.0001602181182182305
          -0.002593733272094445 0.0013970695880514278 0.0010403147210469588 -0.00008132237409907983 0.0004012417561216064 0.0008796236993615092
          -0.007049709553726385 -0.0028913257206325538 0.004882396406628103 -0.0024899193667282105 0.0023126258763325747 0.003045936553008499
          0.002786277937188192 0.006834417590196096 0.0035865579837698336 0.00024540307607656686 -0.00573483210366095 0.004792418582073632
          -0.0013315115966283098 0.0030414796716940196 0.0021464879214202898 -0.0057041786617257895 -0.004020823798307704 -0.001894266841317216
          0.003210078664940774 -0.010825223697192077 -0.007410505707083959 -0.0017110214564349246 0.01306109478339107 -0.0024109412994148816
          -0.0022832712510297837 0.0035538599991342124 0.007427072307066851 0.005617670193001564 0.00838772733803557 0.0017697981828687093
          0.0017750905218556767 0.0009218925735774847 0.000612788716186502 0.0023239343839181574 -0.00411185029090581 0.007278262390161371
          0.0024315524612886948 0.0045527369534680145 0.003620205121240415 -0.013655779749509878 -0.009127915917108986 0.003054109916750092
          -0.011825879215535684 -0.0077781358031785985 0.005994891249011314 -0.007198586479465585 -0.0021686254057652343 0.002591611301160701
          -0.006113067002585515 -0.005743269135226138 -0.00427333152470355 -0.0016010843064888508 -0.000978894055565921 0.0008232319594638007
          0.007661495564689827 0.007048311317404382 0.0028726508494281433 0.0008624075277668258 0.009952646593962194 0.0057992832621071855
          0.009917327843120938 0.004103580618286848 0.005146694224870588 0.0032622336732099355 0.010690378532636019 0.0051673180627609255
          -0.0016792772146692891 0.007075000472633236 0.011596812990644856 -0.0005335511740760523 0.004853929765438636 0.008399019166858979
          0.003093420571480987 0.0013794611845616978 0.002922481210358263 0.0017214227977573326 0.018657639555306887 0.01105227707424486
          -0.006787213594895064 0.0103427411415902 0.00015990461800666211 -0.003462911359006393 -0.003642548067330262 -0.0014686281377415539
          0.0052959456952206 0.003633976825343166 0.0045316189141254015 -0.004865425315531191 -0.0012901154125331549 0.002165592029954033
          -0.001079462657164243 0.00554488203825898 0.002320226718002999 0.004100741300643529 0.0115663043059136 0.00632168685847434
          0.0008374333417998925 0.004472534390220453 -0.0008139570539864444 -0.0019887773612168175 0.003407395352209075 0.0017132860909795933
          -0.002510252381349512 -0.002370228184475187 0.00005848947503965529 -0.00014832907034716125 0.003650576642662426 -0.0018014252134131575
          0.0027059351934422757 -0.001754615092262428 0.0005039913634714566 -0.011568937914935518 -0.01744480132235038 -0.03102046388076829
          -0.03393495894600934 -0.011876554366848813 -0.010756118211166898 0.0027336575788259668 0.0027541151917517097 -0.00048118129046561403
          -0.0056279218024051225 0.0033972869465120625 -0.004727727803259529 0.001849956466986498 0.001244647086012074 -0.001456018036942861
          -0.004046661157222867 0.007868422068557729 0.0011003233591984907 0.01252513343117756 0.0014807542427145437 0.0065522335007689725
          0.008746452520111025 0.004656560092859766 0.0009133814717351002 0.0001388049858997431 -0.000015694339808747237 0.00018633698219203132
          0.0010136467440577945 0.00042784549497187213 0.0000819245637585786 -0.0013299276367350066 0.00261056922668966 0.001084186158899731
          0.00046003626530657926 0.0006671994855028118 0.0014332132784030949 -0.015130941969458633 -0.029221261487702266 -0.02830458992252438
          -0.005779483884284731 -0.012713829139514465 0.007225635086994309 -0.0120961050498678 -0.012463682817843602 -0.016701568962097346
          -0.0050189962903856855 -0.004395605186518145 -0.0018833692210398767 0.0003411252313571811 -0.00038956349778010435 0.000986447455906897
          0.0062423761365461294 0.0009918106696817641 0.0023662477348872224 0.000856070570096977 -0.017616085580810292 0.000634758857847327
          -0.005142551433597264 0.004290712077603877 0.011487530069022034 0.009525768110052818 0.0014694804863720073 0.008134071536216925
          -0.003720395887660405 0.015975884461047973 0.011179170250862763 0.001058427583748578 -0.00397913548886164 0.02172304763604722
          0.013869516657788628 0.007568332000246869 0.005073824828864315 -0.002019768576360187 0.0000620894100462066 -0.0022462730609330572
          0.003098616644742591 -0.0007853244687423822 0.0020762860296055785 0.003339493061334353 0.002522849138702321 0.006683315530424241
          0.0036525937147072057 -0.00963857218553027 -0.00577543080659787 0.008111122891806807 -0.011436262839460897 -0.011042920490641372
          -0.007407376703271129 -0.00025193148127419795 -0.009465260780619978 -0.000026570883399468226 0.001847422182405828 0.0005440573169623597
          0.004613335750857803 0.00956510809293927 0.002497179416928265 0.00505910655881027 0.0003659186347692925 0.0010831665078157443
          0.004929150859523557 -0.009912073858742342 -0.00978823020268571 -0.02115925063273043 -0.008804048310758539 -0.010133604013110545
          0.015739364352536048 0.02221004409124521 0.01029107744280127 0.01330336370314538 0.008319465380716567 0.009722054777084488
          0.0014565625034639734 0.004151791296341276 -0.0007115183923578766 0.0013198816426101857 0.002918769800378418 -0.003132518770766212
          -0.0012087777370368424 -0.0016103352206265492 -0.00028593285360137277 -0.004853672791489808 0.01091864249023932 -0.0013193743588763573
          0.03752106024171807 -0.00012175084516616308 0.021369798028509898 0.0042883737534174515 -0.0009069131319791035 0.004905319374677586
          0.0025737864307088243 -0.0016387673559727506 0.0033134021083517096 0.0011385846664395544 0.0006063193472672368 0.00015220490058471398
          -0.002807505542686821 0.004672871812810592 0.0015842601540131812 0.016825793807203393 0.007730002609542104 0.012161172623464112
          -0.00011301822141676632 -0.0010044173941002321 -0.0011359213186842507 -0.0005094389424779716 0.0005649204662338536 -0.004691828535067764
          0.0003492321818358568 0.0022937265586248923 -0.003809399342558014 -0.0010647183244514302 -0.003489121153799374 -0.00035516138283187004
          0.0032823242244564045 -0.004271283741614174 0.0035281478676878544 -0.001882795178797081 0.0035092520867675003 0.00042979999023234905
          -0.004051515694242322 0.007231079940189733 0.0021308432438980063 0.013374649830140334 0.003634711538173921 0.010822191251880192
          -0.007887817542454711 -0.004897221401178237 -0.007571351976626395 -0.003078153340601686 -0.007137439377879806 -0.0027846054297589184
          -0.0038760350094509954 -0.0012513676942989896 -0.0012420008210818345 -0.000705757728273318 -0.0005624189507239807 -0.0006573003678218489
          0.004177776166613301 0.000676698467817427 0.003030137925990495 0.004794583338674108 0.0011700505290789531 0.0016480476568681846
          -0.00031596156283361654 -0.00007765922824795601 -0.00011665276337365083 0.004127221724322554 0.01073375141953424 0.003335401044143746
          -0.003365842288121562 -0.002036402241211932 0.0002061623290247061 0.002595131212235584 0.0024369427314796105 0.0006970581058784175
          -0.008014380055883147 -0.006997955812758111 -0.0027143200169889026 0.013361988116136442 0.008342257937345653 0.005454741461429949
          0.00028280188416365815 0.0015953980151853508 0.0008312410609593313 0.011755137963877116 0.015656979173357788 0.005840757690876164
          -0.0013664205605259105 -0.00232773875636115 -0.0006425044829385523 0.4870347293669248 -0.012085828111760444 0.9590568199309928
          -0.014150274326402645 0.4004725446401524 -0.0022458192728663784 0.3455198357637447 -0.002131144882688646 0.6877884098440817
          -0.0022675846668297195 0.3609021694063126 -0.0011121031267220527 -0.009430669860437224 -0.017155687468713432 -0.007846807981714832
          0.2565451271980414 -0.002013087315578782 0.5020497753342121 -0.0011827451814048762 0.22080599272774445 -0.0003611849366125519
          -0.02477751366627834 -0.015453437364186584 -0.01789568425224397 -0.0009280998363002668 -0.013969005666152001 -0.006898491732004075
          -0.007173340023296199 -0.016833429850687753 -0.009358414609801358 0.004738198768022818 0.008980103302955539 0.0045899388087665485
          0.00031024387925682184 -0.004869521639953356 -0.0014733988231372952 -0.0011308257970322755 -0.005098974626172426 0.002390787424949359
          -0.02607684004036559 -0.09097681535375785 -0.053132531934336924 -0.18610500760979629 -0.03431372199745644 -0.09523932284608302
          -0.003991798442106481 -0.005134069142234271 -0.0027388855926094857 0.0020226770712180736 0.00541200074033879 0.0037607021524379974
          0.004368001264080056 -0.0017071429192913844 0.003308817411079565 -0.0015042502058637136 0.07215013836114426 -0.0010073162952906195
          0.13883324954701265 0.000019007714680892296 0.04406074218255939 0.005316914817764445 0.0011439623996127302 0.004169465361807706
          -0.3834486949407745 -0.007588805349030586 -0.0009648236257301934 -0.36372773261415586 -0.7721649753707164 -0.00713238166985404
          -0.0005896169667063966 -0.730176876123442 -0.39339398105593004 -0.002103755524386103 -0.00028392952769873414 -0.3603253564109394
          -0.0016226920986175675 0.001195632681095113 0.001502835725583053 0.001328340221723387 0.0018701852669071664 0.0009077167236659078
          -0.005317085305587027 -0.004851034581956265 -0.00012403093570065304 0.009290250633042285 0.00098122731942632 0.003972738686085553
          -0.006244145700054882 -0.0009870841839249023 -0.0050074585852014075 0.016191297946556882 0.004865798054303882 0.012809058852946753
          0.0005015167105501678 0.011690883753418452 0.0037880366717960717 -0.0012962790026280618 0.00033656088332903455 0.001856182267603701
          0.006913816949154043 0.01042708798727792 0.010074156177142302 0.004215739235279126 0.0030179955707454464 0.0031015979345138667
          0.0009291543429027875 0.17025485868454318 0.00006420542806759993 0.331088099667439 0.00044411160653240293 0.12211355258380543
          0.0026721122709728595 -0.003090816915296668 -0.0010017259653110622 -0.006179263762909948 -0.008872162553747731 -0.01652112555822527
          -0.014256438968979185 -0.03702691737232522 -0.005215690946280771 -0.006884065065910383 -0.023880296064358153 0.006184743391447894
          0.0025388457291442845 -0.0012591892176247454 0.0002475642534520983 -0.17018035404669205 -0.3338271296631059 0.0006121306897534928
          -0.3420051969071688 -0.6699967470407594 -0.0019369005829353025 -0.16415096236288604 -0.3154321477324166 0.00004607571061460147
          -0.40841449322604484 -0.8233428036893562 -0.42189022551906347 -0.0011341217925167485 -0.0012428658462179387 0.004217212520209734
          -0.0036013685455114908 -0.0004953529190557804 -0.003290125982677028 -0.12272630172347707 -0.24534120386488384 -0.11911111772939498
          -0.007980157493216539 -0.36328756056251155 -0.0038154458890342635 -0.723131497212965 -0.0012550713513627965 -0.34021319236718606
          0.0038025748319053115 0.002826180747929098 0.0028490155442033836 -0.001070510822710799 -0.0001762068765215341 -0.0013419011499309907
          0.00016944846665314928 -0.0007392234884862903 0.0004493662484417599 0.003031619018757078 -0.0010378581572075135 0.0020070659346778266
          -0.0019875453735739776 0.0007587591639552013 0.00021780460226668297 0.005449533496951278 -0.001431495134466075 -0.002909984725702197
          -0.009525065602517965 -0.0018142873682687743 -0.0013405949267543474 -0.01152164842868808 -0.004738856772830129 -0.012331348902863859
          -0.008440281938054843 -0.004806914506983673 -0.005894026313398828 -0.004035108442695057 -0.41491436323296577 -0.42859151839233456
          0.0011088576149662632 -0.8298213206224784 -0.8647397758119526 -0.00010040070068878526 -0.4216294982485324 -0.4614571539331638
          -0.0013939082746246556 -0.009657454769007923 -0.00705902629995353 -0.46437776904416794 -0.93347984901374 -0.5064232260741355
          -0.4211662032919674 -0.8444496516887418 -0.4213272010229721 -0.020580130128635576 -0.012994309774905871 -0.005416781995580544
          -0.24772502380825379 -0.2190902195784882 -0.008801512672917261 -0.5060629453616986 -0.4434850053096986 -0.015576938295649004
          -0.2870688289286064 -0.30891141128877114 -0.01189816777090498 -0.3733747741393241 -0.75303204212815 -0.38835362862875134
          0.0058467000772589595 0.002821357772041899 0.0009206872367579638 -0.00009519647976746759 -0.02104566058585937 -0.009302703496161302
          -0.03098170460030853 -0.002814800682327312 -0.017029946371880378 -0.13800156280793655 -0.2479001526704738 -0.05959692745294898
          -0.012146382808737588 -0.007241510230609927 -0.0035970320891005048 0.013834352003906508 0.024294647618478105 0.00668981093851706
          -0.32566089587330693 -0.598339553320434 -0.1511542898328141 -0.16818099194898795 -0.30341066963969954 -0.6137040097250942
          0.6589109832625271 1.2277329380842374 -0.5452822753445479 -0.05356627126513214 -1.5921624066500164 -0.09647732246956009
          -3.2156095314428454 -0.05091639379633184 -1.4976671570885827 0.5255874288653926 -2.7603923053773785 1.0596161699285107
          -5.55046126506142 0.5340430147333677 -2.8765947248092902 0.12257649712877994 -3.3589940282189352 0.24494902098658544
          -6.723348527007921 0.1190094004423301 -3.7237471408887357 -0.04640002338681992 -0.07519686032426287 -0.04672228000766099
          0.2757010164573782 0.5460019202748864 0.26682205107094176 0.22459395643867808 0.44448198967818264 0.2162609468721053
          -0.021603590953125418 -0.0272941715140409 -0.036728523757070586 -0.06699465498377505 -0.11300088898400074 -0.0819225819435514
          0.5739562943028673 1.1356124042003068 0.5775995875585869 -0.02542630239763083 -0.029694359822376337 -0.022210597508627528
          -0.04061217379436299 -0.05687167212386969 -0.032464120590463 0.034292662548063735 0.09389980277165078 -0.008112372364366127
          -0.01172875272435267 0.00602914897349735 -0.020370672942101375 -0.02772954052629495 -0.02868106946176674 -0.012120387260401544
          0.0017443767578802227 0.03570015194920392 -0.013264950222588334 -0.011658346621871152 0.010625360582388332 -0.015294338857002043
          -0.009617366591495313 0.020320314467065614 -0.019175335451542597 -0.011625183176379617 0.017860616850652877 -0.023601396828884624
          -0.019172555986796014 -0.0015657954435431831 -0.02654163186103692 -0.04929751880825778 -0.0165761937314457 -0.013982291629025645
          -0.02098868187394965 -0.005567795653974389 -0.01654292121748533 -0.019632008286064817 0.005961895180544796 -0.024024842419628212
          -0.07464362418198922 -3.509046896522521 -0.14876173880677568 -7.003859836182397 -0.07769940885580184 -3.6630240165580252
          -0.5984841760334132 -1.1967065784955135 -0.5747768019031745 0.1304671872000931 0.2593648176666892 0.12470334929689253
          0.37712631290480214 0.7742006087650806 0.3478927095086859 0.15970302097529077 0.3038731781984667 0.15972600368563872
          -0.02111386310889163 -0.017397194307566366 -0.021965404045917625 -0.017751862364766113 -0.008749890961733786 -0.014186036009483871
          -0.04130472419636014 0.011116334607507383 -0.02240536854446551 -0.05399479678685676 0.02149584466127008 -0.028560929313686922
          -0.031704446283825294 -0.006324022153529896 -0.01947487814795379 -0.0030325153711225905 -0.011558155533883396 -0.0022564391022429353
          0.0037199497083267863 -0.00729036730558652 0.030754563390422457 -0.0289182756839394 -0.030174839900692252 -0.01409651647756971
          -0.029508886943288903 -0.04951574962078009 -0.031481533921717764 -0.07620307244954283 -0.1358117428963619 -0.09131470589508095
          -0.4442738484637466 -0.8580548358565132 -0.4363629286744277 0.21347172399612913 0.4702508556732305 0.20938506456057673
          0.10629964840073464 0.26514634234327206 0.12553945081906254 0.00045217078511505804 -3.539098166666695 0.0006746879712626885
          -7.077796159453128 -0.0037841927647488394 -3.529613669584461 -0.001082498194617143 -0.0029598334071558874 -0.00140305221712822
          -0.2534409525379142 -0.49396144171414225 -0.25292494075633964 -0.3865299798636628 -0.7289381568865618 -0.3703493172266441
          0.5452349629638968 1.0381275380198383 0.4552382458727151 0.12744879278859722 0.2942550291810879 0.13654502633244303
          0.327409016658895 0.6585622642310529 0.33656589429614137 0.06911534221785098 0.13412560912102967 0.09074197399070982
          -0.04040486451204961 -0.046637451162420795 -0.05699803946246629 0.026888212952255852 0.08291282710907133 0.022891506320117827
        </DataArray>
        <DataArray type="Float64" Name="resid_z" format="ascii" RangeMin="0" RangeMax="0">
          0 0 0 0 0 0
          0 0 0 0 0 0
          0 0 0 0 0 0
          0 0 0 0 0 0
          0 0 0 0 0 0
          0 0 0 0 0 0
          0 0 0 0 0 0
          0 0 0 0 0 0
          0 0 0 0 0 0
          0 0 0 0 0 0
          0 0 0 0 0 0
          0 0 0 0 0 0
          0 0 0 0 0 0
          0 0 0 0 0 0
          0 0 0 0 0 0
          0 0 0 0 0 0
          0 0 0 0 0 0
          0 0 0 0 0 0
          0 0 0 0 0 0
          0 0 0 0 0 0
          0 0 0 0 0 0
          0 0 0 0 0 0
          0 0 0 0 0 0
          0 0 0 0 0 0
          0 0 0 0 0 0
          0 0 0 0 0 0
          0 0 0 0 0 0
          0 0 0 0 0 0
          0 0 0 0 0 0
          0 0 0 0 0 0
          0 0 0 0 0 0
          0 0 0 0 0 0
          0 0 0 0 0 0
          0 0 0 0 0 0
          0 0 0 0 0 0
          0 0 0 0 0 0
          0 0 0 0 0 0
          0 0 0 0 0 0
          0 0 0 0 0 0
          0 0 0 0 0 0
          0 0 0 0 0 0
          0 0 0 0 0 0
          0 0 0 0 0 0
          0 0 0 0 0 0
          0 0 0 0 0 0
          0 0 0 0 0 0
          0 0 0 0 0 0
          0 0 0 0 0 0
          0 0 0 0 0 0
          0 0 0 0 0 0
          0 0 0 0 0 0
          0 0 0 0 0 0
          0 0 0 0 0 0
          0 0 0 0 0 0
          0 0 0 0 0 0
          0 0 0 0 0 0
          0 0 0 0 0 0
          0 0 0 0 0 0
          0 0 0 0 0 0
          0 0 0 0 0 0
          0 0 0 0 0 0
          0 0 0 0 0 0
          0 0 0 0 0 0
          0 0 0 0 0 0
          0 0 0 0 0 0
          0 0 0 0 0 0
          0 0 0 0 0 0
          0 0 0 0 0 0
          0 0 0 0 0 0
          0 0 0 0 0 0
          0 0 0 0 0 0
          0 0 0 0 0 0
          0 0 0 0 0 0
          0 0 0 0 0 0
          0 0 0 0 0 0
          0 0 0 0 0 0
          0 0 0 0 0 0
          0 0 0 0 0 0
          0 0 0 0 0 0
          0 0 0 0 0 0
          0 0 0 0 0 0
          0 0 0 0 0 0
          0 0 0 0 0 0
          0 0 0 0 0 0
          0 0 0 0 0 0
          0 0 0 0 0 0
          0 0 0 0 0 0
          0 0 0 0 0 0
          0 0 0 0 0 0
          0 0 0 0 0 0
          0 0 0 0 0 0
          0 0 0 0 0 0
          0 0 0 0 0 0
          0 0 0 0 0 0
          0 0 0 0 0 0
          0 0 0 0 0 0
          0 0 0 0 0 0
          0 0 0 0 0 0
          0 0 0 0 0 0
          0 0 0 0 0 0
          0 0 0 0 0 0
          0 0 0 0 0 0
          0 0 0 0 0 0
          0 0 0 0 0 0
          0 0 0 0 0 0
          0 0 0 0 0 0
          0 0 0 0 0 0
          0 0 0 0 0 0
          0 0 0 0 0 0
          0 0 0 0 0 0
          0 0 0 0 0 0
          0 0 0 0 0 0
          0 0 0 0 0 0
          0 0 0 0 0 0
          0 0 0 0 0 0
          0 0 0 0 0 0
          0 0 0 0 0 0
          0 0 0 0 0 0
          0 0 0 0 0 0
          0 0 0 0 0 0
          0 0 0 0 0 0
          0 0 0 0 0 0
          0 0 0 0 0 0
          0 0 0 0 0 0
          0 0 0 0 0 0
          0 0 0 0 0 0
          0 0 0 0 0 0
          0 0 0 0 0 0
          0 0 0 0 0 0
          0 0 0 0 0 0
          0 0 0 0 0 0
          0 0 0 0 0 0
          0 0 0 0 0 0
        </DataArray>
        <DataArray type="Float64" Name="stress_zz" format="ascii" RangeMin="-2727249.9360036184" RangeMax="7174600.024683355">
          241439.88870070782 -963.8907497426699 602632.5315388832 -170519.07551836595 268182.1890173164 74897.78442029915
          774895.0547388336 -14613.593324512156 294924.489333925 150759.45959034094 947157.577938784 141291.8888693416
          296183.580172273 33375.14144857761 118417.75718790456 172631.66065922898 292843.88993749977 -15439.542724748258
          63509.90160140821 188198.72002521582 289504.1997027266 -64254.22689807409 8602.046014911903 203765.77939120258
          2792187.2670902107 -2348325.5412229598 2070486.7588194762 3953580.0260964506 2721776.167766673 -2527018.9050426916
          2025701.7069805937 4089116.3312169337 2651365.0684431363 -2705712.268862423 1980916.6551417117 4224652.636337415
          436616.75773526856 183068.49546885534 -180697.01209160325 588718.0842176111 400627.1618544331 174966.34832379452
          -163265.19304610783 571596.1947619668 364637.5659735977 166864.20117873373 -145833.3740006124 554474.3053063224
          665712.7391564482 1035121.4793441517 916903.4319552226 870754.2392246497 674100.1581169474 1043722.7186002221
          890560.8270105533 853396.0103172499 682487.5770774467 1052323.9578562926 864218.2220658839 836037.7814098501
          -502764.68486754573 -26699.60458334956 -156072.59563181084 -177176.35645119398 -521134.5763732894 -28619.34207690062
          -182218.24911675174 -208581.86531433027 -539504.4678790332 -30539.079570451693 -208363.90260169262 -239987.37417746658
          391759.9849420658 493382.0823994333 590533.050328434 401112.05941767094 493246.2371941832 566562.2313718342
          410464.1338932761 493110.3919889331 542591.4124152344 383796.00388577156 26918.36571466789 428461.605768495
          12682.847085491929 473127.2076512185 -1552.6715436840132 1649648.6368484434 2290690.8302945425 1587878.2950412354
          693776.3738106292 1634059.2883806007 2315611.0030637234 1694743.6088824668 698853.5533313263 1618469.939912758
          2340531.1758329044 1801608.9227236982 703930.7328520233 -255806.6279080718 -438910.7965025723 -248658.70446831192
          -405966.18887964333 -241510.78102855207 -373021.5812567144 614187.0923461323 468137.07014754444 644330.7618436365
          467511.15265169693 674474.4313411408 466885.2351558495 4977003.97115019 3957507.165243768 4979570.171869101
          5034165.468039343 4090130.408943561 4699871.210929465 5091326.964928497 4222753.652643354 4420172.249989827
          -563908.0016558738 -606689.7796202113 -574051.7703771614 -599394.025277567 -584195.539098449 -592098.2709349226
          453514.04190174845 537182.2064035732 488530.6021968577 159399.97245737287 489250.4591375231 566304.1797052685
          506023.0550229181 180801.634259015 524986.8763732979 595426.1530069637 523515.50784897845 202203.2960606571
          605409.6187122983 429326.2431820658 754191.1968096909 612900.5109585971 449332.95717033057 759650.0533349871
          620391.4032048956 469339.6711585956 765108.9098602829 372038.6009322608 386020.7979508254 400002.99496939004
          546549.4624934418 173750.80707565407 156779.588446674 540985.5860713421 198806.98468759668 107533.56084919392
          535421.7096492425 223863.16229953925 58287.533251713845 864998.434004638 236949.66699520274 519329.2285829933
          853655.2469906636 252154.4159644585 522856.5514433383 842312.0599766895 267359.16493371426 526383.8743036832
          -391826.3128912097 -1090965.7036009552 -754658.9574350831 -348116.5633269487 -1042979.9264503573 -723424.9352515598
          -304406.8137626878 -994994.1492997594 -692190.9130680365 152099.7268222335 -413328.2266809728 134969.01199927693
          -460385.050735506 117838.29717632034 -507441.87479003926 -829258.7286634122 -274719.8024185955 -837658.867150038
          -314564.2985387235 -846059.0056366641 -354408.7946588515 -1227048.8013310884 -1312530.9743893866 -1398013.1474476843
          -325105.81938684895 937807.083240717 -306936.61691150157 764499.1997958546 -288767.4144361542 591191.3163509923
          678328.2310657371 656395.34336298 672577.6764238746 647887.6705739016 666827.121782012 639379.9977848233
          164714.37195355425 147867.2189896038 131020.06602565345 -521878.0737942266 -6410.936497182207 47754.25271840031
          -524886.3593607815 -542563.9465997192 -30492.337567275907 31344.100027303975 -558156.5296883357 -563249.819405212
          -54573.73863736961 14933.947336207639 -591426.7000158901 3005782.4202569625 3034984.7299586646 3064187.0396603667
          3811514.4062508913 2885757.3646038845 3846110.7088440615 2859450.972253206 3880707.0114372317 2833144.5799025274
          -792099.8963835072 -402353.0166473764 -806032.1031400242 -378023.00403534743 -819964.309896541 -353692.9914233186
          1031509.5816902585 1008509.4425211068 985509.3033519551 -408604.90798046853 -445474.83857543755 -445317.46289154695
          -428655.6986928843 -482030.01780262537 -411836.5588103311 -1059880.540880533 -1449981.5834073715 -950739.7652605834
          -113771.89237687044 -1064371.1253658012 -1540225.678738437 -1018835.7091570473 -128197.10340449214 -1068861.7098510694
          -1630469.774069502 -1086931.6530535107 -142622.31443211384 1498115.0335776033 1872258.9150522829 1470967.0832512525
          1819818.786487539 1443819.1329249016 1767378.6579227957 2217541.4047671366 1222640.1625964786 864539.3832258946
          1960042.6137566925 1964886.7519467927 1128598.9810193742 969523.7479658584 1998935.4095509262 1712232.0991264486
          1034557.7994422695 1074508.1127058223 2037828.20534516 426713.6908072432 449745.1724868258 472776.65416640835
          -869902.7021749577 -519186.238604754 -850633.3484913267 -533417.7232900375 -831363.9948076959 -547649.207975321
          507152.64694465155 895036.2670576642 515243.35142705194 905877.4372061554 523334.05590945226 916718.6073546465
          683063.7847001748 656820.326799399 630576.8688986234 376484.81374235125 -431206.72606032377 369611.27099700156
          -458017.05297297955 362737.72825165186 -484827.3798856354 41844.969441942 -694303.5165686681 38221.31817036147
          -736112.7509284766 34597.66689878094 -777921.9852882853 830707.8219111068 13133.517365272273 856148.8969447516
          12493.796838126436 881589.9719783964 11854.076310980483 202417.40501274832 180691.96859408813 158966.5321754279
          -72695.78294281474 -4952.86806819231 -60241.0251267141 -31216.11886245954 -47786.26731061344 -57479.3696567268
          -244467.0002169586 -338872.9992389922 -292228.7833268007 -346517.64523774094 -339990.5664366428 -354162.2912364897
          83551.48763956629 96103.98505436564 269359.2606528029 116999.86506363295 100577.48012633891 269389.29142318823
          150448.24248769964 105050.97519831217 269419.3221935736 -87876.53368539218 -39661.80374398181 8552.926197428562
          -156837.25470546068 396956.93225091335 -163300.96663113567 447512.4564363178 -169764.67855681066 498067.9806217223
          578485.9567332306 575686.2565563284 591295.3194204877 582743.0453011567 604104.682107745 589799.8340459852
          1077490.1003436323 -363136.7585215328 1097495.561019421 -368260.6680564778 1117501.0216952101 -373384.57759142277
          -563392.6996231324 -1288292.6135735125 -558860.7078614194 -1253069.74753629 -554328.7160997065 -1217846.8814990676
          -519117.9736271097 -551268.373931281 -17226.328122371415 -548780.7491554242 -493363.26127013733 -51166.13340376975
          -578443.5246837385 -435458.14860899345 -85105.93868516808 -1496345.9811770858 -1532180.7131748532 -1568015.4451726207
          377451.58156680345 402188.4421021327 426925.3026374619 493578.4205614145 469900.79981492145 446223.1790684285
          -622392.2555035143 -594604.9313311698 -566817.6071588253 788864.746407509 772204.8330280979 755544.9196486869
          -1000890.2268626696 -1079504.2980471018 -1158118.3692315342 -1458086.5421204015 -1534707.3002116282 -1611328.0583028554
          484460.74077848037 505995.32364477706 527529.9065110737 -734473.4494790798 -2132130.229835849 -547293.3608910459
          -2066470.5276156447 -360113.2723030122 -2000810.8253954402 -2551231.800744666 -1827112.2437281972 -2639240.8683741423
          -1887768.493031284 -2727249.9360036184 -1948424.742334371 -2084918.1896807745 -2196736.911103555 -2308555.6325263362
          -1934378.545830626 -1509993.2460459315 -1908569.584764921 -1550427.853671142 -1882760.6236992162 -1590862.4612963523
          6737043.41524291 5376582.125207425 6766463.886248458 5455518.754447112 6795884.357254007 5534455.383686798
          1366188.9315730964 1367704.5333133633 1369220.1350536305 -1415247.9417057026 -1407206.267196248 -1399164.5926867938
          1439650.3418484153 869805.6935029781 1290285.154754356 877463.9969939806 1140919.9676602965 885122.3004849828
          -520328.7971832708 -149983.12511680936 -535447.3024134077 -182785.66164573794 -550565.8076435446 -215588.19817466653
          854317.5561376732 873596.5230040032 892875.489870333 658988.677114169 643428.0152578417 627867.3534015145
          -420509.4129719857 -478258.03533099964 -536006.6576900135 -1012802.5047084267 -709387.4816430507 -998809.1699648733
          -694381.84936382 -984815.8352213202 -679376.2170845894 562393.9469288314 567913.0128939674 573432.0788591034
          849322.9131252948 809563.175034449 713541.5158706575 1025418.2367402737 874351.3065048109 814625.0708910071
          718867.6083198301 1022327.6778786321 899379.699884327 819686.9667475648 724193.7007690028 1019237.1190169905
          328020.4354688831 472878.1962878431 365080.2105910227 545233.7381146329 402139.98571316234 617589.2799414225
          801413.2707574676 810213.4477905525 819013.6248236371 328333.08103604097 607118.2672998332 350573.31554431963
          613820.6253137449 372813.5500525983 620522.9833276566 366190.0341256218 -212102.92418733696 390401.49222311244
          -208967.83291400282 414612.95032060315 -205832.74164066865 370120.0748898663 352582.98897532525 335045.9030607842
          761838.9986575629 742242.9594080371 722646.9201585115 748318.2977890099 717439.9711827259 686561.6445764417
          -1240919.6144350218 -1137606.3678850525 -1203664.242404806 -1048147.5684645292 -1166408.87037459 -958688.7690440062
          412167.9010039948 401873.7754639211 391579.64992384723 2919775.869859799 2190727.5146053964 495784.8315549748
          2830867.6001546714 2199553.263142821 464290.937661364 2741959.3304495444 2208379.011680246 432797.0437677531
          -324261.2934838241 -428810.3342448972 -533359.3750059704 303693.20882747666 475803.89024955104 638014.0337060222
          330305.36877256655 466000.9830087228 616252.766947033 356917.5287176565 456198.07576789445 594491.5001880438
          746652.1856835053 761332.9411881829 776013.6966928607 559619.9559240682 564430.3432656906 569240.730607313
          1388374.095292601 1341337.2780772261 1294300.4608618505 281821.83536583325 277565.2886172051 273308.74186857697
          744873.3454987839 1039453.9727218025 677562.0169058449 988724.3161221205 610250.6883129058 937994.6595224384
          925706.2782672887 898329.4383399354 870952.598412582 -1599621.4217850994 -1241577.5682761986 -1592613.593964079
          -1234021.8698533487 -1585605.7661430584 -1226466.1714304988 30294.43853297911 143145.0799487584 -43547.5627118235
          85470.52350210429 -117389.5639566261 27795.967055450117 925886.6910926322 552798.4079308714 851379.6898611712
          504697.6726867654 776872.6886297099 456596.9374426593 4334787.488860933 3664093.7527424595 4414211.305551794
          3678574.8628783254 4493635.122242655 3693055.9730141917 599788.9903121414 1081729.0448535471 1855571.172628412
          608127.0787605428 1108871.6720422034 1971439.6437269016 616465.167208944 1136014.2992308596 2087308.1148253912
          1735488.7065437618 1684212.6308531845 1632936.5551626072 1901138.0884682848 1949289.2473520874 1997440.4062358905
          583364.2009801801 585757.1787751681 588150.1565701563 4592818.024287457 4552516.447922241 4512214.871557025
          2232381.471884252 2942662.7644397793 1728964.9384746843 2430057.3021025644 2929163.1460458795 1606901.6948370123
          2627733.132320877 2915663.5276519796 1484838.4511993406 1167183.6913650741 1256844.1950313547 1346504.6986976354
          4702895.633709676 4738896.29465423 4774896.955598784 5364430.024630722 3923571.0206864877 5483255.743398953
          3902893.536768907 5602081.462167186 3882216.052851326 2057117.9068387037 2312620.7250629 2568123.5432870965
          3019425.502977514 2970924.5716076116 2922423.6402377095 4173562.630974918 3799966.2470303182 3426369.8630857184
          4224000.292513065 3640681.6314676437 3057362.970422222 5064089.828757388 4725321.334140711 4386552.839524036
          6030092.404138071 6602346.214410714 7174600.024683355 1158490.1751193516 2595086.31683232 1095091.2909754906
          2512033.8742113626 1031692.4068316292 2428981.4315904053 -51468.829885999905 1026222.1982465021 -87545.78351185504
          981960.2267753361 -123622.73713771018 937698.2553041701 4802498.720350667 6467140.224326775 4765921.009188564
          6434036.20315632 4729343.298026461 6400932.181985866 970176.627914381 914350.5306324561 858524.4333505312
          -1692349.3925971661 -1714781.6853275585 -1737213.978057951 1895413.4962631688 1884026.493744304 1872639.4912254384
          2492802.0171687244 2456158.9847492524 2419515.952329781 -1064324.0449840806 -1079894.2848194432 -1095464.524654806
          -1094492.3940484398 -1090932.133338891 -1087371.8726293421 2827838.757500371 2818407.8253488187 2808976.893197266
          582028.9868801138 564620.9472834539 547212.907686794 -1866933.5196908785 -1872943.212855845 -1878952.9060208115
          1589746.5504640113 1579386.770461639 1569026.9904592664 170783.86028220714 172529.1993905766 174274.53849894606
          2943667.948778265 2932375.8048229157 2921083.6608675662 2181213.415195584 2173267.9642234733 2165322.513251363
          4396013.993645532 4372876.978941633 4349739.964237736 3878896.3141664476 3860603.47011982 3842310.6260731905
          2840529.0308420327 2830574.9070587573 2820620.7832754822 2841444.8173386035 2831026.79350048 2820608.7696623565
          634040.007574069 637892.8123065247 641745.6170389804 1054043.6410379666 1048549.1896610076 1043054.7382840486
          3279665.07992973 2842578.3763803383 3236724.3773880536 2796444.9296614598 3193783.674846377 2750311.482942581
          4028601.7194504626 3990825.573100203 3953049.426749944 2125422.2336086663 2098173.7130288635 2070925.192449061
          -739771.5870143482 -752330.719579446 -764889.8521445437 -991343.4806774305 -1000323.2440322348 -1009303.0073870389
          -332262.31092057395 120744.87656867213 -325501.7930064322 147772.84274076764 -318741.2750922904 174800.80891286314
          2352366.8039476145 1051268.0673928559 1153520.4608343395 2366315.5635069124 1029675.5697913325 1128833.311947171
          2380264.3230662104 1008083.0721898088 1104146.1630600027 1467345.8982710103 1491873.2991747374 1516400.7000784646
          279399.58516066545 235627.94954171506 191856.3139227646 569244.3589999435 576925.4956936134 584606.6323872831
          2553874.6640073173 2541936.9295267453 2529999.1950461734 2008875.6996912784 1999648.4054724008 1990421.111253523
          2393414.1006873976 2395425.8693526736 2397437.63801795 983733.5194992706 1001422.6694839193 1019111.8194685676
          -1020826.3879226592 -997533.4131217733 -974240.4383208873 -363716.4254943904 -877337.3825607661 -355124.9486995273
          -864336.3146087257 -346533.47190466424 -851335.2466566851 894366.0437321989 888245.33729717 882124.6308621406
          2139571.569855117 2114791.0925368536 2090010.6152185902 2860982.4391805325 2748540.081216866 2636097.7232532
          1227970.3966614208 1068914.502444949 909858.6082284772 69285.15529243628 55985.3426271631 42685.52996188993
          -1853327.1119407665 -1898517.3659731501 -1943707.620005534 2378214.6401478346 2363338.020790737 2348461.401433639
          2180823.9915916915 2166169.562948834 2151515.134305977 336539.98900322174 321918.71350412973 307297.4380050377
        </DataArray>
        <DataArray type="Float64" Name="peeq" format="ascii" RangeMin="0" RangeMax="0.0062557415188866814">
          0.0049444281306866185 0.005280263384114751 0.005415587903455888 0.00497350933067528 0.0049480706081014725 0.005284123877090955
          0.005418536038201029 0.004978481170436484 0.004951713085516325 0.00528798437006716 0.0054214841729461685 0.004983453010197688
          0.005028569562747061 0.004922807159228432 0.004999191460770721 0.005094321499557897 0.005027458965422461 0.004922003422171168
          0.004997541149617218 0.005092888534496269 0.005026348368097861 0.004921199685113906 0.004995890838463714 0.00509145556943464
          0.002627901448538547 0.0029157272687337366 0.00275663627515876 0.0017637222774137817 0.002627941023673497 0.0029147501523836632
          0.002755858833695057 0.001766052714835673 0.0026279805988084467 0.0029137730360335895 0.0027550813922313537 0.0017683831522575645
          0.005593557064574238 0.005327779456028407 0.005370028227394864 0.005645322867553792 0.005592975184629266 0.0053279788357879845
          0.0053707603855688655 0.005645165080554796 0.005592393304684296 0.005328178215547562 0.005371492543742869 0.0056450072935558
          0.005058244623757331 0.005068895170359534 0.005140719588310895 0.005131888623852707 0.005057756422951524 0.0050679429185610456
          0.005139462986763552 0.005131017787207764 0.005057268222145717 0.005066990666762556 0.00513820638521621 0.005130146950562822
          0.00461204502163317 0.004694587830399512 0.004866539544916794 0.004763416310532988 0.004612768135011779 0.00469513525303554
          0.0048669592638733265 0.004764084036868665 0.00461349124839039 0.004695682675671569 0.0048673789828298595 0.004764751763204343
          0.005085982714112484 0.005017427632191125 0.004962820659626363 0.005085288241698845 0.005016883197522264 0.00496208064382414
          0.005084593769285203 0.005016338762853403 0.0049613406280219164 0.004773499862268329 0.004880831453099817 0.004774302602364622
          0.004881364524832087 0.0047751053424609155 0.004881897596564358 0.0043466264934667355 0.004766791373297592 0.0047418523920550945
          0.004425763840397392 0.004345830354501579 0.004765419798357302 0.004741113399452062 0.0044240583837458075 0.004345034215536424
          0.004764048223417011 0.004740374406849029 0.004422352927094223 0.005103457115722866 0.0051426963146743955 0.00510408047971297
          0.0051434085293968045 0.005104703843703075 0.005144120744119213 0.00485459309224307 0.004913308757798113 0.0048551056080501495
          0.004913850012534376 0.00485561812385723 0.00491439126727064 0.0033894995663370144 0.0033052581960332774 0.0027315052590243956
          0.0033884817517695477 0.00330412681638345 0.002728143361733425 0.003387463937202081 0.003302995436733622 0.0027247814644424553
          0.0046958453790438915 0.004551433631695588 0.004697280654643742 0.004552652407338662 0.004698715930243592 0.004553871182981735
          0.0046496284725508555 0.0047874954213028165 0.004834301928177982 0.004737681815416336 0.0046490403718372 0.00478792787934382
          0.004834445547610293 0.004737189683211993 0.004648452271123545 0.004788360337384823 0.004834589167042603 0.004736697551007651
          0.005099083910781219 0.005136675771838797 0.005132529737087557 0.0050983297534746876 0.005135745812279248 0.005131410468589345
          0.0050975755961681565 0.005134815852719698 0.0051302912000911315 0.005399252196209303 0.0053997857732007385 0.005400319350192174
          0.004899894183120412 0.0048109504988518 0.004963794373580428 0.00490027123757767 0.004811536270832623 0.0049638674137461695
          0.004900648292034927 0.004812122042813445 0.0049639404539119115 0.00503679304931638 0.004997578183521918 0.005031559779058657
          0.005035047640983699 0.0049966077839682585 0.005031141849381219 0.00503330223265102 0.0049956373844146 0.005030723919703781
          0.004894290956268225 0.00489592573683351 0.004699487412482369 0.0048960865218649445 0.004898202624260552 0.0047015543367191085
          0.004897882087461664 0.004900479511687594 0.004703621260955847 0.004725563757620477 0.004693554976299708 0.004727739227178886
          0.004696307886335077 0.004729914696737293 0.0046990607963704484 0.003980303861527821 0.0037659420547217905 0.003979601953121028
          0.0037655951182358066 0.003978900044714235 0.003765248181749823 0.0062557415188866814 0.006252806772312507 0.00624987202573833
          0.004800166217204166 0.004655897711242334 0.004799461818102023 0.004653121258274702 0.0047987574189998815 0.00465034480530707
          0.004938796679842323 0.00492334492205125 0.004938982624732893 0.004923178863367762 0.004939168569623463 0.004923012804684274
          0.004863008465080091 0.00486297889693489 0.004862949328789689 0.004359149579968217 0.004484687791198043 0.0045184770607428724
          0.004406935097341299 0.004359739311682916 0.004485081259892696 0.004518995489466237 0.004407580426742605 0.004360329043397617
          0.004485474728587349 0.004519513918189602 0.004408225756143913 0.00215140112221039 0.002151561106075705 0.0021517210899410196
          0.0019302110649568414 0.0024565174300294015 0.0019307425612283486 0.0024568314752452065 0.001931274057499855 0.002457145520461011
          0.004930718115099348 0.004753468787420651 0.004933281816287749 0.004755765021272249 0.00493584551747615 0.0047580612551238475
          0.005079051596902136 0.005077540130608884 0.005076028664315632 0.0046293766719117885 0.004393299113023346 0.004627577864778616
          0.00439190644552812 0.004625779057645442 0.004390513778032894 0.004587051618384613 0.0044078210206915215 0.0042256650437725906
          0.004496707939449207 0.004586584964216779 0.004406587799482799 0.004224639322713439 0.0044962185668491654 0.004586118310048944
          0.004405354578274078 0.004223613601654288 0.004495729194249126 0.004948748502041822 0.004952975080310006 0.004947589645680062
          0.004950959411468347 0.004946430789318301 0.004948943742626689 0.004492902465084044 0.004399590140799579 0.004097065388611453
          0.004138447829746587 0.004490127239186548 0.004397746651239275 0.00409730440812902 0.0041376386267507285 0.004487352013289051
          0.004395903161678975 0.004097543427646585 0.004136829423754869 0.005152701581360795 0.005153201731050457 0.00515370188074012
          0.0044296984781698745 0.004490266473172253 0.004431140242636394 0.004491035144588945 0.004432582007102913 0.004491803816005638
          0.004745838098242738 0.0046721565342117116 0.004746306463235482 0.004672700000959872 0.004746774828228226 0.004673243467708033
          0.00497592466731217 0.004977100263906857 0.004978275860501544 0.005012336697546853 0.00499701545363504 0.0050127790640136375
          0.0049975338251000995 0.005013221430480421 0.004998052196565158 0.0050317510306179085 0.004985855679944337 0.005032290261914887
          0.004986441211939095 0.005032829493211866 0.004987026743933854 0.005128157519286995 0.005266777897372089 0.005128395221814299
          0.005266893820799375 0.005128632924341603 0.005267009744226659 0.005010546334663172 0.005011266393452422 0.0050119864522416725
          0.004718071563105156 0.004811109202207691 0.004718893786980873 0.004811322207368184 0.004719716010856589 0.004811535212528678
          0.005199879382101753 0.005147440596717353 0.00520021788369057 0.005147458982589349 0.005200556385279388 0.005147477368461344
          0.005208811903767406 0.0049536991069793045 0.0052608560038013095 0.005209920412072576 0.004954681577181617 0.0052611857789114065
          0.005211028920377744 0.004955664047383929 0.005261515554021504 0.005190274393030509 0.005191634827189285 0.005192995261348059
          0.004583608741282112 0.00464592782849964 0.004584281233007883 0.004647001119896573 0.004584953724733654 0.004648074411293508
          0.004937513686219435 0.004956909010894827 0.0049376404444260134 0.004956685539666292 0.004937767202632592 0.004956462068437757
          0.003560513904961386 0.0039864093062890295 0.003559697045593695 0.003985696343803253 0.0035588801862260046 0.003984983381317477
          0.00456383632352217 0.004428307690307176 0.004565437315216453 0.004430122722226569 0.004567038306910737 0.004431937754145961
          0.005553397154031995 0.005218958829410472 0.005475640870633033 0.005552752639151887 0.005220471856333237 0.005475510239906549
          0.005552108124271779 0.005221984883256003 0.005475379609180063 0.0055685474938702954 0.005568915396664431 0.005569283299458568
          0.00483122762337431 0.004831292929851261 0.004831358236328213 0.005654273936858816 0.005652943215113651 0.005651612493368485
          0.005251331209745408 0.005253866425755236 0.005256401641765063 0.005011440704002855 0.005011598141857523 0.005011755579712192
          0.0045102351839693845 0.004511890663194748 0.0045135461424201115 0.005774976209101788 0.005773461927667206 0.005771947646232624
          0.005460860270069201 0.0054611742872305484 0.0054614883043918976 0.005122904965164083 0.0051941176686367985 0.005127489828395472
          0.005198772518342347 0.00513207469162686 0.005203427368047896 0.004708740712454744 0.004692369036361002 0.0047112293699588925
          0.004695238062103282 0.004713718027463041 0.004698107087845562 0.005773856936863431 0.005774132950218664 0.005774408963573896
          0.004427098144639546 0.004453085986813645 0.004428878762422529 0.004454823176760914 0.004430659380205514 0.004456560366708183
          0.0024359842667883496 0.00171704141837291 0.002436525198925458 0.0017181812160715839 0.0024370661310625665 0.0017193210137702582
          0.0038296110298241142 0.0038292309851153342 0.003828850940406554 0.0055524609165687674 0.005554058517715372 0.005555656118861976
          0.004643995825066765 0.004824993596522597 0.0046412514623505804 0.00482373349156637 0.004638507099634398 0.004822473386610144
          0.004345014173447334 0.0044766296298013614 0.004345631488592107 0.00447700274060886 0.004346248803736878 0.004477375851416358
          0.005447716536788778 0.005447777729723096 0.005447838922657412 0.005649424223957101 0.005648645854434685 0.005647867484912269
          0.005044828212589989 0.005044816025513301 0.005044803838436611 0.004293306708866473 0.004273794707413703 0.0042949524370443325
          0.004275402278043202 0.004296598165222194 0.004277009848672703 0.004952447482653956 0.004952363434300797 0.004952279385947639
          0.005171957649327305 0.005171811744669758 0.005165440527446603 0.005175889576030431 0.005171011971379058 0.005170648737691398
          0.0051635729022945975 0.005173967425128552 0.00517006629343081 0.005169485730713038 0.0051617052771425935 0.005172045274226673
          0.004634290720024444 0.004793667453899456 0.004635313705670543 0.004794400071657903 0.0046363366913166415 0.00479513268941635
          0.004949992042498084 0.004949642334504585 0.0049492926265110836 0.005139961219682649 0.005163767891110069 0.005138290337339894
          0.00516257118428047 0.00513661945499714 0.0051613744774508695 0.00491390744146827 0.004847766919304296 0.0049136762604914275
          0.0048466329970012515 0.004913445079514585 0.004845499074698207 0.005062029622257781 0.005061829823761535 0.005061630025265287
          0.004976100333493287 0.00497609584951514 0.004976091365536994 0.004870811494808373 0.004868612463749445 0.004866413432690518
          0.004319791042706293 0.004290438810747367 0.004321906375580891 0.00429262640646427 0.0043240217084554895 0.004294814002181173
          0.004913560745948032 0.004911396120219762 0.004909231494491494 0.0040172128295033445 0.0035437491235417646 0.004218215467285586
          0.004016264842881026 0.0035443133498398354 0.004216596306168636 0.004015316856258706 0.0035448775761379057 0.004214977145051686
          0.004769903241948541 0.004767609715762517 0.004765316189576495 0.004805387396550763 0.004970238045301944 0.004960917886365748
          0.004805900372095292 0.004968994737220063 0.004959708812874483 0.004806413347639822 0.004967751429138183 0.0049584997393832195
          0.005124862912877618 0.00512432958545385 0.005123796258030082 0.0049024298986026 0.004902663395723165 0.004902896892843728
          0.0032857513905069193 0.0032851449069206612 0.0032845384233344023 0.0046386485280900894 0.004639523133315099 0.0046403977385401085
          0.005097650205672669 0.005108517610872833 0.005095158831438538 0.005106029789356836 0.005092667457204406 0.0051035419678408375
          0.004607551611722893 0.0046057112442216275 0.0046038708767203625 0.004381333034097874 0.004346913422596237 0.0043833272193914904
          0.004348546563855441 0.004385321404685108 0.004350179705114646 0.005063408099949625 0.004961034480271707 0.0050611151670665105
          0.004959590468070118 0.005058822234183397 0.0049581464558685305 0.004752959556755954 0.004521221350525508 0.004750149410296221
          0.00451887134192902 0.004747339263836487 0.004516521333332531 0.003601640396354761 0.004011295874245794 0.0036019898252673812
          0.004011054755998156 0.0036023392541800004 0.004010813637750518 0.004959042401119746 0.004962387033553814 0.004816081211707985
          0.004958594292446759 0.004961528041051647 0.004814353204547867 0.004958146183773771 0.004960669048549481 0.0048126251973877494
          0.00432160222160362 0.004319905770937012 0.004318209320270402 0.004604660667683672 0.004601974933892433 0.004599289200101194
          0.005055560181601805 0.005055062120206243 0.005054564058810683 0.0030741742399337476 0.0030737821682406755 0.0030733900965476033
          0.004061330616188156 0.0037089177846741676 0.003742813971420526 0.004061151476608864 0.0037089480064699957 0.0037428543406340773
          0.00406097233702957 0.0037089782282658237 0.0037428947098476282 0.00435079606608091 0.004349181893753107 0.004347567721425303
          0.003825620946681639 0.0038260133224721324 0.0038264056982626263 0.0034500724021712687 0.0029514197074356754 0.0034512320332865947
          0.0029517513315650934 0.003452391664401921 0.0029520829556945113 0.0032841156110124583 0.003282886349692632 0.0032816570883728064
          0.003767834422786056 0.003767859729814318 0.0037678850368425784 0.002136136777520827 0.0021361849245086573 0.002136233071496489
          0.002755119310921953 0.0027491600421045326 0.0027432007732871126 0.002029359182667897 0.002029802863269787 0.002030246543871677
          0.0012666197334358785 0.0012722840564749532 0.001277948379514028 0.0006844124897490818 0.0005678657417207549 0.0006850174641326333
          0.0005686035111244165 0.0006856224385161847 0.0005693412805280781 0.0001543956557579119 0.00010355781007530566 0.0001545132357477777
          0.00010369127404008275 0.00015463081573764345 0.00010382473800485983 0 0 0
          0 0 0 0.0009768670522516002 0.0009771356535911286 0.0009774042549306567
          0.0003379290604261279 0.00033816961152382337 0.00033841016262151877 0.00003755107396444604 0.00003774149413273172 0.0000379319143010174
          0.0013255662806391155 0.0013255588999246163 0.001325551519210117 0.0006641475271165374 0.0006643633669656981 0.0006645792068148589
          0.00018110488490104664 0.0001814507677110661 0.00018179665052108556 0.0016654930426285726 0.0016653935607866862 0.0016652940789448
          0.0010665728057870458 0.001066533301168051 0.0010664937965490563 0.0004804794190445606 0.0004807003408236676 0.00048092126260277463
          0.001484788690547338 0.0014845797217407726 0.0014843707529342068 0.0009058641883357235 0.0009058301651298122 0.0009057961419239012
          0.0018956720131927238 0.0018953320809487445 0.0018949921487047654 0.0013880055422653042 0.0013877201185788638 0.001387434694892423
          0.0022746092024675236 0.002274186468249894 0.002273763734032263 0.0018914291964367248 0.001890954821559378 0.0018904804466820316
          0.002585223450812022 0.002584868645955298 0.0025845138410985746 0.0023902830190838287 0.002389605401321414 0.002388927783558999
          0.0027184703187325228 0.0027182129678236335 0.0027179556169147443 0.0026358415693692894 0.00263506320091284 0.002634284832456391
          0 0 0 0 0 0
          0 0 0 0.000012931113460329589 0.00001299244881657486 0.00001305378417282013
          0.00011258432687506339 0.0001127517834669374 0.0001129192400588114 0.00037310091993913904 0.0003732644108636646 0.0003734279017881901
          0.0032807608726213152 0.003558711801579157 0.003281529684633044 0.0035591160800946577 0.0032822984966447716 0.0035595203586101572
          0.0023337462154831437 0.0025772584956877532 0.0025325037003986655 0.002333769201054828 0.0025770821178589896 0.0025324992287663797
          0.0023337921866265123 0.0025769057400302263 0.002532494757134094 0.004384659580982856 0.004383891077167879 0.004383122573352901
          0.003924707123287602 0.003923940890593024 0.0039231746578984455 0.0029705898577713536 0.0029711874808788195 0.002971785103986285
          0.0019798572202525287 0.0019797342326385854 0.001979611245024643 0.0022388346578329672 0.002238728812070464 0.0022386229663079607
          0.0024267999670610683 0.0024267213111432775 0.0024266426552254873 0.002566589821528153 0.0025665627135919387 0.0025665356056557244
          0.0026301629747997528 0.002630181175526626 0.002630199376253499 0 0 0
          0 0 0 0 0 0
          0 0 0 0.000004498581098661795 0.000004542912722417294 0.000004587244346172792
          0.00006885800919038987 0.0000689938055601042 0.00006912960192981852 0.000783333548446375 0.0007833527101044205 0.000783371871762466
          0.00027585901323717475 0.00027610716800292184 0.000276355322768669 0.0013024178469711089 0.0013021507440195402 0.0013018836410679715
          0.0019066255690502122 0.0019059249153579407 0.0019052242616656697 0.0022281871280021466 0.0022272436104590386 0.0022263000929159307
        </DataArray>
        <DataArray type="Float64" Name="pe11" format="ascii" RangeMin="0" RangeMax="0.006251726159927573">
          0.004942376762096785 0.005277511308225999 0.005412746202233592 0.004971278230157151 0.00494609587330762 0.005281441909848893
          0.005415760520260373 0.004976339273006162 0.004949814984518457 0.005285372511471786 0.0054187748382871544 0.004981400315855171
          0.005027406278623743 0.0049218268984835304 0.004998045147032915 0.005092968426078254 0.0050263076366459485 0.004921028904527408
          0.00499641383754332 0.005091561603462939 0.005025208994668153 0.004920230910571287 0.0049947825280537254 0.005090154780847623
          0.0026258245021114966 0.0029135204115267074 0.002755128714998613 0.001761996184920716 0.002625849437807228 0.002912540317321523
          0.0027543215684235197 0.0017642485186974693 0.00262587437350296 0.002911560223116339 0.0027535144218484254 0.001766500852474222
          0.005590687673938786 0.005324492677953196 0.005366595574316296 0.0056425387173354566 0.005590081773014996 0.005324651888705715
          0.005367299517063568 0.005642360077038578 0.005589475872091204 0.005324811099458232 0.005368003459810838 0.0056421814367417005
          0.005056396945073452 0.005066822357307934 0.00513879969044678 0.005129991168768538 0.005055922084295952 0.0050658915278757035
          0.005137569055640967 0.005129138605937458 0.005055447223518453 0.005064960698443474 0.005136338420835155 0.0051282860431063814
          0.004610577120730469 0.004693160849056293 0.0048642814480993534 0.004761287512181417 0.004611286721558161 0.004693684761445435
          0.004864676609744918 0.004761940977681638 0.0046119963223858525 0.0046942086738345785 0.004865071771390483 0.004762594443181859
          0.005084762385345211 0.005016414372265206 0.004961787370022814 0.0050840820306803924 0.0050158731382462535 0.0049610419534187825
          0.005083401676015575 0.005015331904227301 0.00496029653681475 0.004772315267055568 0.004878997328280345 0.004773092409179866
          0.004879507335158415 0.004773869551304163 0.004880017342036486 0.004344683586454825 0.004765133053280782 0.004740236382256659
          0.004424140785330631 0.004343906414053042 0.004763777844029258 0.004739508134881584 0.004422445919703459 0.004343129241651259
          0.004762422634777734 0.004738779887506509 0.004420751054076286 0.005100734049242939 0.005139800654150438 0.0051013174331387915
          0.005140477485517791 0.005101900817034641 0.005141154316885145 0.0048535603951092915 0.004911924003251884 0.00485404537734087
          0.004912438618468862 0.004854530359572449 0.004912953233685842 0.0033883841815427807 0.003304623016973209 0.0027303516115864818
          0.0033873614012020978 0.003303492847029669 0.0027269388797730608 0.0033863386208614153 0.00330236267708613 0.002723526147959639
          0.004694094675458074 0.004550090608137736 0.0046955388672788615 0.004551319005362533 0.004696983059099648 0.004552547402587329
          0.004648917567383301 0.0047868437390583786 0.004833643342325257 0.00473667784774649 0.004648325739073695 0.004787265350363292
          0.004833782708109419 0.004736195128478118 0.004647733910764089 0.004787686961668207 0.004833922073893581 0.0047357124092097455
          0.005097769911181219 0.005135210410488056 0.0051308415982532765 0.005097034563105691 0.005134303018105381 0.005129748388854093
          0.005096299215030162 0.005133395625722705 0.005128655179454909 0.005395759057389294 0.005396274463403051 0.005396789869416807
          0.004899113816888209 0.004809925315755403 0.004962668259184937 0.004899471576400728 0.0048104999501014005 0.004962721293397324
          0.004899829335913248 0.004811074584447398 0.00496277432760971 0.005035202956428088 0.004996451099359462 0.0050305845299372645
          0.005033483480503485 0.004995495521383599 0.005030173959211076 0.005031764004578884 0.004994539943407735 0.005029763388484888
          0.004892094451140611 0.004893910609308508 0.0046978493071626 0.004893900793169811 0.004896212112497385 0.00469994598920212
          0.004895707135199012 0.004898513615686261 0.00470204267124164 0.004723780641563254 0.004691604299233056 0.004726006497115024
          0.004694418657991535 0.004728232352666794 0.004697233016750015 0.003979175398666224 0.0037647489531621604 0.003978478368718473
          0.003764395153131557 0.003977781338770721 0.003764041353100953 0.006251726159927573 0.006248687604118967 0.00624564904831036
          0.004798443420667975 0.004654122720673509 0.00479776941105865 0.004651386498840293 0.0047970954014493255 0.0046486502770070786
          0.004937595551975929 0.004922329108126951 0.004937753758273685 0.00492214082652161 0.00493791196457144 0.0049219525449162695
          0.004862098644613249 0.004862055496085996 0.004862012347558744 0.004358879737011884 0.004484327931686413 0.004517900875384594
          0.004406399524497466 0.004359465605976925 0.0044847136928018545 0.004518407750455759 0.004407037862700939 0.004360051474941964
          0.0044850994539172954 0.004518914625526925 0.004407676200904412 0.002150000318106864 0.0021501524373488787 0.002150304556590893
          0.0019284826400246015 0.002454898152544092 0.0019290058416243656 0.0024551912667886075 0.0019295290432241297 0.002455484381033122
          0.004928762143300445 0.004751775145215573 0.004931367502159884 0.004754110774252235 0.004933972861019323 0.004756446403288898
          0.005077055166192727 0.005075574698460421 0.005074094230728113 0.004627936523236357 0.0043922330911587825 0.0046261666576657475
          0.004390847437784914 0.004624396792095139 0.004389461784411046 0.004586361139626036 0.004407021236278911 0.004224832910868234
          0.0044958845030200565 0.00458589109479174 0.004405793640864543 0.004223812271471293 0.004495391216551226 0.004585421049957445
          0.004404566045450174 0.004222791632074353 0.004494897930082396 0.004946795547496515 0.004951178080172015 0.004945656411843942
          0.004949182371616806 0.004944517276191369 0.004947186663061597 0.0044911513618151695 0.004397935977166809 0.004096047570988266
          0.004137084648426351 0.004488405725310445 0.004396116016901427 0.004096291037077105 0.0041362813818907294 0.004485660088805721
          0.004394296056636044 0.004096534503165944 0.004135478115355107 0.005149973873724682 0.005150444941878665 0.0051509160100326485
          0.004428799458714182 0.004489355330223835 0.004430246855877804 0.004490113463312619 0.004431694253041425 0.004490871596401402
          0.004744576619363864 0.004670846953932176 0.004745034694089066 0.004671381304484519 0.004745492768814267 0.004671915655036861
          0.0049742465106026 0.004975409313164664 0.004976572115726729 0.005010443210733313 0.004994755567089482 0.005010860001726216
          0.004995245688662442 0.0050112767927191215 0.004995735810235401 0.005029048273476635 0.004983460722593757 0.005029557042580838
          0.004984014503245507 0.005030065811685041 0.004984568283897258 0.005126023894130828 0.005263903932825527 0.005126229561179736
          0.0052639847410121295 0.005126435228228643 0.005264065549198731 0.005009095512185341 0.005009796723912632 0.005010497935639921
          0.004717290202388507 0.004810329543845803 0.0047180958725872215 0.004810538972927478 0.004718901542785936 0.004810748402009153
          0.005198053025847938 0.005145697839988125 0.005198358305711977 0.005145678502216892 0.005198663585576016 0.005145659164445659
          0.005205761442575899 0.004951094403685869 0.005257576649573211 0.0052068705789572595 0.004952066081338715 0.005257879433956089
          0.0052079797153386205 0.004953037758991561 0.005258182218338967 0.005187712696301991 0.005189089894626098 0.005190467092950205
          0.004582740399589304 0.004645327050752781 0.004583394552076357 0.0046463892461165186 0.0045840487045634105 0.0046474514414802555
          0.004936591020405499 0.004956015821833997 0.00493669599252719 0.004955781113404353 0.00493680096464888 0.004955546404974708
          0.003558709971022205 0.003984367938802216 0.003557894707558374 0.003983664943157757 0.0035570794440945423 0.0039829619475133
          0.00456236642603507 0.004427216744526489 0.004563998745760677 0.004429050918846468 0.004565631065486284 0.004430885093166445
          0.005551716811532782 0.005216636515956521 0.00547333856014824 0.005551059045680813 0.005218170397621255 0.005473223580604774
          0.005550401279828846 0.00521970427928599 0.005473108601061308 0.005566374966349991 0.00556671284694088 0.00556705072753177
          0.004830407530128719 0.004830470934949085 0.004830534339769451 0.005652623339950704 0.00565129711188002 0.005649970883809335
          0.00524890544689526 0.005251475978900221 0.0052540465109051785 0.00500987374991897 0.0050100044506281366 0.005010135151337301
          0.004508671960835634 0.004510362985062599 0.004512054009289565 0.0057722168850179445 0.005770670153953833 0.00576912342288972
          0.0054579341184775 0.0054582527217369075 0.005458571324996315 0.005117727190035695 0.005190261592709943 0.005122492273845558
          0.0051950009568817 0.0051272573576554206 0.005199740321053458 0.004705839468632764 0.004689897936446865 0.004708427813625585
          0.004692850514620345 0.004711016158618405 0.004695803092793823 0.0057702119873477755 0.005770433492851856 0.005770654998355936
          0.0044257477412148576 0.0044516267126251865 0.004427589448395963 0.0044534139600554985 0.004429431155577068 0.00445520120748581
          0.002434300903573358 0.0017153013002659278 0.0024348135133702635 0.0017164283075608105 0.002435326123167168 0.0017175553148556922
          0.0038277242317641966 0.0038273493245322213 0.003826974417300247 0.005549608781921192 0.005551208646948078 0.005552808511974963
          0.004641920256164112 0.004823257279503458 0.004639215626162414 0.004822027057011465 0.004636510996160715 0.004820796834519472
          0.004344828200219027 0.004476318882275659 0.004345443413337478 0.004476687409522855 0.004346058626455928 0.004477055936770053
          0.005444446788654779 0.005444488931898501 0.005444531075142222 0.00564708992458663 0.005646310183331725 0.00564553044207682
          0.005043517958490372 0.00504348037384155 0.005043442789192727 0.004292960911769318 0.00427356645922739 0.004294617492211283
          0.00427518640323623 0.004296274072653246 0.0042768063472450706 0.004951677698733536 0.004951590167214765 0.004951502635695995
          0.005170089391236619 0.005169952024249317 0.005163602778129904 0.005173925039896393 0.005169166652696215 0.005168815588472708
          0.005161774664931101 0.005172043063173221 0.005168243914155811 0.005167679152696097 0.005159946551732297 0.0051701610864500515
          0.004633828850154904 0.0047929094541318915 0.004634844701494022 0.004793639314447251 0.004635860552833137 0.00479436917476261
          0.004948080703052193 0.004947748676148236 0.004947416649244277 0.005138375300593893 0.005162047718801032 0.005136739397504584
          0.005160879292241714 0.005135103494415275 0.005159710865682395 0.004913050405504811 0.0048465472301489525 0.004912824133563623
          0.004845437336340375 0.004912597861622434 0.004844327442531798 0.00506052192901155 0.005060291944404108 0.005060061959796666
          0.004974971888644975 0.004974942031660131 0.004974912174675287 0.004869159084304277 0.0048669905708529 0.004864822057401524
          0.004319030856865566 0.004289823677463738 0.004321176782827524 0.0042920503013575105 0.004323322708789481 0.004294276925251282
          0.004912142961780852 0.004910008968086573 0.004907874974392294 0.004016240481371229 0.0035428090332309033 0.004217056740425551
          0.004015292382437652 0.0035433569449804607 0.004215445092287592 0.004014344283504076 0.0035439048567300177 0.004213833444149632
          0.00476833129497035 0.004766082990718846 0.004763834686467342 0.0048045961205585965 0.004968719674733372 0.00495956839332139
          0.004805111330017935 0.0049674996707126445 0.00495837780933587 0.004805626539477272 0.0049662796666919175 0.004957187225350348
          0.005123068004672616 0.005122546798566387 0.005122025592460159 0.004901770901737591 0.004901991158398732 0.004902211415059874
          0.00328378866823745 0.003283176662103509 0.0032825646559695677 0.004638222326859455 0.004639092465102574 0.004639962603345692
          0.005095889321297741 0.005106543829478027 0.005093439189751227 0.005104099218594627 0.0050909890582047125 0.005101654607711227
          0.004605626333146901 0.004603818259400601 0.004602010185654301 0.004380292819052058 0.004346290076305606 0.004382308710283999
          0.0043479305580274435 0.004384324601515938 0.00434957103974928 0.0050620068035830594 0.0049598784318829175 0.005059744935107027
          0.004958447204933248 0.005057483066630996 0.004957015977983577 0.004751286691099142 0.004519664297338357 0.004748520717099922
          0.004517346046326937 0.0047457547431007 0.004515027795315518 0.003600332837645135 0.004009821358378833 0.003600670436388175
          0.0040095864457176155 0.003601008035131216 0.004009351533056399 0.004957386750903433 0.004960857397268885 0.0048144101350125635
          0.0049569541441938265 0.004960013941548804 0.004812696945376139 0.0049565215374842205 0.004959170485828723 0.004810983755739716
          0.004319944716797369 0.0043182664269342304 0.004316588137071091 0.004602874410554972 0.004600196383235848 0.004597518355916725
          0.0050538779753966315 0.00505339162048005 0.0050529052655634695 0.0030725543611302497 0.0030721345129848705 0.0030717146648394904
          0.0040606870278385365 0.003708350295616148 0.0037420498328477126 0.004060502660073794 0.0037083745689380316 0.0037420918124881496
          0.004060318292309051 0.0037083988422599154 0.003742133792128587 0.004349654429923577 0.0043480427349702686 0.00434643104001696
          0.0038247485950118325 0.003825135404634741 0.003825522214257649 0.003449174997907523 0.0029500399791286733 0.003450315184980837
          0.002950342841654382 0.0034514553720541514 0.002950645704180091 0.003283593226731889 0.003282368076787184 0.0032811429268424794
          0.0037667482254799254 0.0037667786697050385 0.0037668091139301516 0.002134312260012435 0.002134184045323055 0.002134055830633675
          0.002753733143188598 0.0027477191664592566 0.0027417051897299146 0.002027156654056304 0.0020273795053836704 0.0020276023567110365
          0.0012649038887649362 0.0012704015419608143 0.0012758991951566925 0.0006832417428433359 0.0005670665018002215 0.00068384062026969
          0.0005677947299556881 0.0006844394976960442 0.0005685229581111546 0.0001539922736212753 0.00010335725246126234 0.00015410586334680345
          0.00010348571443239785 0.0001542194530723316 0.00010361417640353336 0 0 0
          0 0 0 0.0009750378334082333 0.000975303996798828 0.0009755701601894229
          0.0003368139455060346 0.00033705134685647133 0.000337288748206908 0.000037331078711979506 0.000037520388721689786 0.00003770969873140007
          0.0013232388186329284 0.0013232271682620189 0.0013232155178911095 0.0006617626261610041 0.0006619746926914656 0.000662186759221927
          0.00017995032628827516 0.00018029389352011853 0.0001806374607519619 0.0016630473229739973 0.0016629425303819815 0.0016628377377899653
          0.0010629272952349398 0.001062884179821666 0.001062841064408392 0.0004773072734602894 0.0004775260704648017 0.0004777448674693141
          0.0014807315176382145 0.0014805187028832413 0.001480305888128268 0.0009003985204111139 0.0009003633381554266 0.000900328155899739
          0.0018921619681739044 0.0018918178954558467 0.0018914738227377892 0.0013813094371185875 0.0013810228404470943 0.0013807362437756009
          0.0022721354829952313 0.0022717074824240148 0.0022712794818527983 0.0018848362360018897 0.0018843550769163974 0.0018838739178309047
          0.002583756395083159 0.0025833932463979873 0.0025830300977128158 0.0023842647023839692 0.002383569258614182 0.0023828738148443944
          0.002717432659625887 0.0027171655688052903 0.002716898477984693 0.002630054817947094 0.002629252499311651 0.0026284501806762076
          0 0 0 0 0 0
          0 0 0 0.000012777993867192024 0.000012838686536195354 0.000012899379205198683
          0.00011139236663177375 0.00011155802567701514 0.00011172368472225653 0.0003692779347870824 0.0003694397584400166 0.00036960158209295077
          0.0032797209648662753 0.003557771382027804 0.0032804743215001197 0.0035581702907786766 0.003281227678133964 0.003558569199529549
          0.0023328142663050647 0.0025765985312367744 0.0025313276981814717 0.002332831704635974 0.0025764149848858026 0.0025313101864201173
          0.002332849142966883 0.0025762314385348313 0.002531292674658763 0.00438374387757365 0.004382971717483149 0.0043821995573926475
          0.003923983585455096 0.003923215655457609 0.0039224477254601224 0.0029694949804539286 0.002970073199494537 0.002970651418535145
          0.001977829998381802 0.0019777025175757006 0.0019775750367695996 0.0022375043602798736 0.002237394592844072 0.0022372848254082704
          0.002426093403086736 0.0024260120185607753 0.0024259306340348144 0.00256626161523369 0.0025662324833728425 0.0025662033515119944
          0.0026299608397022042 0.002629977287414765 0.002629993735127326 0 0 0
          0 0 0 0 0 0
          0 0 0 0.00000443449498374148 0.00000447808156170493 0.000004521668139668382
          0.00006787891746184586 0.00006801279239849186 0.00006814666733513785 0.0007756948467828279 0.0007757145730707167 0.0007757342993586055
          0.0002714927431379902 0.00027174117846884044 0.0002719896137996907 0.0012908591695571982 0.0012905915384306267 0.001290323907304055
          0.0018904082028091218 0.0018897013201292939 0.001888994437449466 0.0022091606360245012 0.002208207870940374 0.002207255105856247
        </DataArray>
        <DataArray type="Float64" Name="pe22" format="ascii" RangeMin="-0.003299318948381783" RangeMax="0">
          -0.0025779620530654358 -0.002775242890412639 -0.0028445429600980014 -0.0026007376978267886 -0.002576982984475518 -0.002774913116405118
          -0.0028437517178533773 -0.0026002555385546506 -0.0025760039158856008 -0.002774583342397598 -0.0028429604756087523 -0.0025997733792825135
          -0.0024353240528073236 -0.002394593785414632 -0.0024172453010471487 -0.0024536872944217842 -0.0024355046338268484 -0.0023948076368193565
          -0.0024174581008907276 -0.002454107826603467 -0.002435685214846374 -0.00239502148822408 -0.002417670900734307 -0.00245452835878515
          -0.0012938317901176608 -0.0014178315910658929 -0.0013520758018403145 -0.0008775364478564132 -0.0012936948110998832 -0.0014175048573431678
          -0.001351770135160622 -0.00087799273584628 -0.0012935578320821056 -0.0014171781236204425 -0.0013514644684809293 -0.0008784490238361468
          -0.0028416646604221257 -0.002697321140059218 -0.0027127430467685735 -0.0028677214490027353 -0.0028424900670368384 -0.0026975177375911635
          -0.0027130918767256794 -0.002868442576883159 -0.00284331547365155 -0.0026977143351231084 -0.0027134407066827853 -0.0028691637047635827
          -0.0024148423717227667 -0.0024147617120436568 -0.002453994038957231 -0.002449798805345577 -0.0024151164003556706 -0.0024150794391073253
          -0.002454373011964985 -0.002450056854612504 -0.0024153904289885746 -0.002415397166170994 -0.0024547519849727395 -0.002450314903879431
          -0.002317991760373498 -0.002343525901186067 -0.0024430300036830535 -0.0024030782364638133 -0.0023174963985656736 -0.002343203456931335
          -0.0024427774491256635 -0.002402617788281489 -0.0023170010367578493 -0.002342881012676603 -0.0024425248945682742 -0.0024021573400991652
          -0.002456115921426665 -0.0024375704187501374 -0.0024186628046895227 -0.002456473427922697 -0.0024376976902687544 -0.0024185080883690107
          -0.002456830934418729 -0.002437824961787371 -0.002418353372048499 -0.0023694704735411814 -0.0024361361262752236 -0.0023692811471920532
          -0.002436011139201638 -0.0023690918208429247 -0.002435886152128053 -0.0020854173628808447 -0.0022863943853529286 -0.002272903978450816
          -0.002134404868556118 -0.0020855952886106527 -0.002286280487157534 -0.0022728807833497316 -0.002134276060759486 -0.0020857732143404616
          -0.002286166588962139 -0.0022728575882486465 -0.002134147252962855 -0.002568214419095625 -0.002582110573744736 -0.0025681100386859674
          -0.0025819506483593297 -0.00256800565827631 -0.002581790722973924 -0.0023947440756964386 -0.0024377028673612192 -0.0023945127093297413
          -0.0024376238918357718 -0.002394281342963044 -0.0024375449163103247 -0.0016417454594460311 -0.001626200322894992 -0.0013409035686503313
          -0.001641515455324172 -0.0016265948193503936 -0.0013401522651279789 -0.0016412854512023128 -0.0016269893158057957 -0.001339400961605627
          -0.002385068490104651 -0.0023074695956282133 -0.002384394103397209 -0.0023067340300906135 -0.0023837197166897673 -0.0023059984645530133
          -0.002271255412663365 -0.002355857041536309 -0.0023615874729171816 -0.002295111429732336 -0.0022708380344870355 -0.0023556881415368663
          -0.002361557692641455 -0.002295274371347854 -0.002270420656310706 -0.0023555192415374232 -0.0023615279123657285 -0.0022954373129633722
          -0.0024566840148588227 -0.0024677790488768087 -0.0024578874198193353 -0.0024571416635702113 -0.0024682207559737347 -0.0024583800108336313
          -0.0024575993122815986 -0.0024686624630706607 -0.002458872601847928 -0.0027230159309329744 -0.0027229957388256267 -0.002722975546718279
          -0.0024233398700708557 -0.0023931641672279578 -0.002473948914464729 -0.0024231478716809263 -0.002393017348984013 -0.0024737763703207814
          -0.0024229558732909973 -0.002392870530740068 -0.002473603826176834 -0.002417304897142013 -0.002414653275852184 -0.0024400696985003283
          -0.002417523917136132 -0.002414904664271753 -0.0024402990587552176 -0.002417742937130252 -0.0024151560526913213 -0.0024405284190101074
          -0.002493797406552115 -0.0025140539322511804 -0.0024097061500507797 -0.0024932668014884503 -0.0025135403665704943 -0.002408833585455777
          -0.002492736196424786 -0.0025130268008898074 -0.002407961020860774 -0.0024500740671031607 -0.0024418433761971003 -0.002448992888627793
          -0.0024410770342732095 -0.0024479117101524252 -0.002440310692349319 -0.0019396249639121164 -0.0018437865042561462 -0.0019393877079787788
          -0.0018437044656569553 -0.0019391504520454405 -0.001843622427057764 -0.0032991018661756313 -0.0032992104072787076 -0.003299318948381783
          -0.0022957902491811976 -0.0022289936832341414 -0.002296526423278113 -0.0022295900909228626 -0.0022972625973750292 -0.002230186498611584
          -0.002437437595209994 -0.0024144973735854445 -0.002437249705723562 -0.0024142129581092805 -0.00243706181623713 -0.0024139285426331165
          -0.0023826828283445125 -0.0023826033191795357 -0.002382523810014558 -0.002169658196925326 -0.0022127337818777866 -0.002236950093073374
          -0.0021994270856006658 -0.0021688660301536 -0.002212298028928134 -0.0022364428800343244 -0.002198674591643057 -0.0021680738633818746
          -0.002211862275978481 -0.002235935666995275 -0.002197922097685448 -0.0010631944659548044 -0.00106334244190757 -0.0010634904178603358
          -0.0009541477543178605 -0.001210080756761558 -0.0009543266099600963 -0.0012100576019326936 -0.0009545054656023323 -0.001210034447103829
          -0.002553514257980713 -0.0024532196964207865 -0.0025528185536428977 -0.0024522116967320815 -0.0025521228493050833 -0.0024512036970433765
          -0.0024241440000756405 -0.002424580787813782 -0.002425017575551924 -0.002228298675554607 -0.002132548693918673 -0.0022285048177250856
          -0.002132171407367313 -0.0022287109598955646 -0.002131794120815953 -0.002257134751678861 -0.0021484036228367675 -0.002068595535597237
          -0.002226041655781004 -0.0022568736405179234 -0.002148122053298143 -0.0020682776065739455 -0.00222584527354749 -0.002256612529356986
          -0.002147840483759519 -0.002067959677550654 -0.0022256488913139755 -0.002362803204415955 -0.002369820964389933 -0.0023628928101773134
          -0.0023696253743543793 -0.002362982415938671 -0.002369429784318825 -0.0021530160784277185 -0.002111440566523895 -0.001992837369662115
          -0.00200014696345612 -0.0021538077362388127 -0.0021116854129319723 -0.0019936481932794213 -0.0020006541967651894 -0.002154599394049907
          -0.002111930259340049 -0.0019944590168967276 -0.0020011614300742588 -0.002582685080028869 -0.0025823729914893675 -0.0025820609029498652
          -0.0022378688593812104 -0.0022483633685792636 -0.00223716773219559 -0.0022477120311225926 -0.002236466605009971 -0.002247060693665922
          -0.002375128116319381 -0.0023506337998941075 -0.0023749735907113833 -0.0023505513686687355 -0.0023748190651033865 -0.002350468937443363
          -0.002500875044569188 -0.0025008629876842213 -0.0025008509307992543 -0.0024999173115437135 -0.002500905380470306 -0.002499790272927983
          -0.002500795185750534 -0.0024996632343122533 -0.0025006849910307605 -0.002540028414975749 -0.0025011263984896074 -0.002539837522787203
          -0.002501027532914894 -0.002539646630598658 -0.0025009286673401804 -0.0025663082320993022 -0.0026447228280232432 -0.0025660313097398482
          -0.0026446813106406506 -0.0025657543873803946 -0.002644639793258057 -0.002510260003456849 -0.0025102219648433584 -0.002510183926229868
          -0.0023230131612562224 -0.002349515580315287 -0.0023229987541000833 -0.002349785258877973 -0.002322984346943945 -0.002350054937440659
          -0.0026056050283292066 -0.002578184972003509 -0.0026058603789783216 -0.002578222770823757 -0.0026061157296274375 -0.0025782605696440058
          -0.0026638115260685623 -0.002512183900970535 -0.0026762686685885013 -0.00266372676845462 -0.002511779482911515 -0.0026762143727195246
          -0.0026636420108406772 -0.002511375064852494 -0.0026761600768505484 -0.00266346172415928 -0.002663421266733702 -0.0026633808093081235
          -0.0022762037279274666 -0.0022844128227307676 -0.0022758141107960075 -0.0022842816019160257 -0.0022754244936645483 -0.002284150381101284
          -0.0024298811443413215 -0.0024230415706525004 -0.002429659850292045 -0.002422910385885067 -0.002429438556242768 -0.0024227792011176337
          -0.0017175402428814442 -0.0019222405271946217 -0.001717448352841979 -0.0019225047916072095 -0.0017173564628025144 -0.0019227690560197968
          -0.002342994810741149 -0.002255442369415712 -0.0023422079178645307 -0.0022549035425940057 -0.002341421024987913 -0.0022543647157723
          -0.0028641982381068876 -0.002697306748521473 -0.002809166303293545 -0.0028647052491237697 -0.0026975408412114876 -0.002809589922896335
          -0.002865212260140652 -0.002697774933901502 -0.0028100135424991247 -0.0029044761180766496 -0.0029053634811397884 -0.002906250844202927
          -0.0023518906359224984 -0.002352009090042498 -0.002352127544162498 -0.002876133507485399 -0.002876677951287432 -0.002877222395089464
          -0.0027416222457174585 -0.0027418988668348925 -0.002742175487952327 -0.0024900536516657894 -0.0024898469223875643 -0.0024896401931093393
          -0.0023274134793336105 -0.0023268256927842265 -0.0023262379062348433 -0.0030253126196557838 -0.003024745554833155 -0.0030241784900105267
          -0.0027959610569598873 -0.002796419301237272 -0.0027968775455146566 -0.0027410229048819464 -0.002747371662995278 -0.002739844178131613
          -0.0027477120123151526 -0.0027386654513812795 -0.0027480523616350274 -0.0024827144847255197 -0.0024585373516678027 -0.00248145227494737
          -0.0024576281864047925 -0.0024801900651692196 -0.002456719021141782 -0.0030430792522731327 -0.003043838935137865 -0.003044598618002597
          -0.002295088399298463 -0.0023040000853288894 -0.002293551406174585 -0.002302896556539279 -0.0022920144130507067 -0.0023017930277496688
          -0.0012018190462556833 -0.0008517167199326092 -0.0012016462984913675 -0.0008519407135177667 -0.0012014735507270516 -0.0008521647071029245
          -0.0018496071181402474 -0.0018499787248235674 -0.0018503503315068872 -0.0029170293939671846 -0.002917319666368131 -0.002917609938769078
          -0.0022108456846936103 -0.0023054660266876087 -0.002211025131654017 -0.0023060538538816604 -0.002211204578614424 -0.0023066416810757127
          -0.00215998652794423 -0.0022045566545050355 -0.002159200018699329 -0.0022042160049664202 -0.002158413509454428 -0.002203875355427805
          -0.0027817910982753167 -0.0027821308099592787 -0.002782470521643241 -0.0028720584826210796 -0.002873005585978576 -0.0028739526893360734
          -0.0025248924637136564 -0.002524801038512188 -0.0025247096133107203 -0.002166116468401634 -0.0021554274679959394 -0.002165138693674909
          -0.0021543113334833025 -0.0021641609189481836 -0.0021531951989706656 -0.0024153097585594336 -0.002415296327660863 -0.002415282896762292
          -0.0024701462544778714 -0.0024704051029321773 -0.002468482816249411 -0.0024695808875942332 -0.0024705187443011946 -0.002470802325449836
          -0.0024689547298763974 -0.0024700182411463677 -0.0024708912341245177 -0.0024711995479674946 -0.0024694266435033837 -0.0024704555946985013
          -0.0022755912027645725 -0.0023351424313932724 -0.002275587719722436 -0.002335417606195332 -0.002275584236680299 -0.002335692780997391
          -0.0023617359041767337 -0.002362116445846096 -0.0023624969875154587 -0.002465129109432031 -0.0024711815096903713 -0.0024656533295936696
          -0.002471653119481963 -0.0024661775497553085 -0.002472124729273554 -0.0023861221874106856 -0.002337126246663169 -0.002386306968697095
          -0.002337601129686396 -0.0023864917499835047 -0.0023380760127096234 -0.002526610080428499 -0.002526382042166814 -0.00252615400390513
          -0.002465856947494117 -0.0024656020394483807 -0.0024653471314026437 -0.0023395770105280296 -0.0023396908730837036 -0.002339804735639378
          -0.002208946415994205 -0.0021958026565976575 -0.0022078908178077197 -0.0021943819710793675 -0.0022068352196212343 -0.0021929612855610776
          -0.0023644204714660484 -0.0023647054366255304 -0.0023649904017850124 -0.0019598708772431326 -0.001738817997392789 -0.0020534870043986617
          -0.0019597847659696254 -0.0017389624226367573 -0.002053333709512538 -0.0019596986546961187 -0.0017391068478807264 -0.002053180414626414
          -0.002286235684252623 -0.002286846760098091 -0.0022874578359435593 -0.0023390790724721177 -0.0023879885294707777 -0.002388907436887114
          -0.002339454844733106 -0.002388278506548683 -0.0023891390507138773 -0.0023398306169940936 -0.0023885684836265886 -0.0023893706645406413
          -0.0024490287523351575 -0.002449235267618346 -0.0024494417829015345 -0.002407236188816282 -0.002407050536974051 -0.00240686488513182
          -0.0015974591065885384 -0.00159746226538875 -0.001597465424188962 -0.002275170839879575 -0.0022753213688822254 -0.0022754718978848752
          -0.0024389078620671092 -0.002437344129475906 -0.002439174519877084 -0.002437609179624798 -0.002439441177687059 -0.0024378742297736897
          -0.0022099363656566257 -0.0022101854586539854 -0.002210434551651346 -0.0022371488154079703 -0.0021941366434698336 -0.0022365788274988636
          -0.0021933805226460475 -0.0022360088395897565 -0.002192624401822262 -0.002436469927430822 -0.0023967446946380525 -0.0024366611282263017
          -0.0023967871148215373 -0.002436852329021781 -0.002396829535005022 -0.0022810330918305887 -0.00217812679344911 -0.0022814053523625122
          -0.0021783763969598666 -0.0022817776128944353 -0.002178626000470623 -0.0017549730159033712 -0.0019363807633612942 -0.0017549525966849104
          -0.0019362805492145862 -0.0017549321774664498 -0.0019361803350678784 -0.0023718707000884697 -0.0023779023205986313 -0.0023040458868941235
          -0.0023722797048080376 -0.002378153730529567 -0.002303933777863651 -0.002372688709527605 -0.0023784051404605023 -0.0023038216688331782
          -0.0020803020874028944 -0.002080313090415816 -0.002080324093428738 -0.002200375693570741 -0.0021993003889077857 -0.0021982250842448306
          -0.0024182921958759993 -0.002418527068308158 -0.0024187619407403166 -0.0015045828004260895 -0.0015041579632564426 -0.0015037331260867959
          -0.0019959859669238405 -0.0018317777267643973 -0.0018329376714632333 -0.0019958655521816523 -0.0018319054194432345 -0.0018333060454009894
          -0.0019957451374394645 -0.0018320331121220717 -0.0018336744193387453 -0.002106252289408069 -0.002105246050657637 -0.002104239811907204
          -0.0018654793416156244 -0.0018653702908938694 -0.0018652612401721142 -0.0016867359052591512 -0.0014419781244505933 -0.0016867762212998043
          -0.001441797649292533 -0.0016868165373404576 -0.001441617174134473 -0.0016262046288845772 -0.0016270042993390922 -0.0016278039697936071
          -0.0018252467645041859 -0.0018256551271181767 -0.0018260634897321673 -0.001044522132872848 -0.0010438895684350042 -0.0010432570039971606
          -0.0013451689658159484 -0.0013438781318441551 -0.0013425872978723619 -0.0009812032057541404 -0.0009806538552542474 -0.0009801045047543543
          -0.0006263016860210757 -0.000627754804162697 -0.0006292079223043183 -0.0003354594181244753 -0.0002803152525737983 -0.00033545691701382087
          -0.00028032278502729795 -0.0003354544159031665 -0.0002803303174807976 -0.00007104808212586709 -0.00004746703655237159 -0.00007103000838687894
          -0.000047469531125729174 -0.0000710119346478908 -0.00004747202569908677 0 0 0
          0 0 0 -0.00047359379792309513 -0.0004735757857518621 -0.0004735577735806291
          -0.00015601254160953331 -0.00015604401241324444 -0.00015607548321695553 -0.00001655362723435825 -0.000016623596032197183 -0.00001669356483003612
          -0.0006399611112874965 -0.0006399154347872968 -0.0006398697582870971 -0.00030662686343490284 -0.0003066448106360037 -0.00030666275783710446
          -0.00007955906584179156 -0.00007966326300994195 -0.00007976746017809235 -0.0008061399647601329 -0.0008061183676340428 -0.0008060967705079528
          -0.0004942719710734621 -0.0004942142504377325 -0.000494156529802003 -0.00021087896766982611 -0.00021090262603330303 -0.00021092628439677995
          -0.0006955798021365842 -0.0006955302917338512 -0.000695480781331118 -0.0004019334648053173 -0.00040187059288282766 -0.00040180772096033794
          -0.0009017410780991812 -0.0009017063990949665 -0.0009016717200907519 -0.0006295374246824972 -0.0006294578582280532 -0.0006293782917736092
          -0.001100874262825881 -0.0011008193245846418 -0.0011007643863434025 -0.0008841851259518624 -0.0008840448800378646 -0.0008839046341238667
          -0.0012668724691136312 -0.0012667696182861587 -0.001266666767458686 -0.001143065841003224 -0.0011427311044323886 -0.0011423963678615532
          -0.0013370051352975167 -0.0013368892209071823 -0.0013367733065168482 -0.0012687164079818684 -0.0012682728975906155 -0.0012678293871993627
          0 0 0 0 0 0
          0 0 0 -0.0000051634169446951405 -0.000005182390460803093 -0.000005201363976911046
          -0.00004626477326184202 -0.00004629889179828742 -0.00004633301033473283 -0.00015581360932326197 -0.00015581200231049383 -0.0001558103952977257
          -0.0016108140690060814 -0.0017474983642273684 -0.001610897792157462 -0.0017472203731217942 -0.0016109815153088427 -0.0017469423820162203
          -0.0011557405179115077 -0.0012733890971313193 -0.0012481514282387917 -0.001155888704313271 -0.0012734717648991785 -0.001248213805552954
          -0.0011560368907150343 -0.0012735544326670377 -0.0012482761828671164 -0.002187217992975986 -0.0021866610256475135 -0.002186104058319041
          -0.0019403815925048775 -0.0019396684036534057 -0.0019389552148019336 -0.0014566136049662024 -0.00145677351039277 -0.0014569334158193374
          -0.0009643497823404498 -0.0009643998635582659 -0.0009644499447760818 -0.0010989022228281033 -0.00109900413991364 -0.0010991060569991765
          -0.0011997227183732791 -0.0011998404459291334 -0.001199958173484988 -0.0012749785354049857 -0.0012750528853287136 -0.0012751272352524417
          -0.001308558234155031 -0.0013085998197067809 -0.0013086414052585309 0 0 0
          0 0 0 0 0 0
          0 0 0 -0.0000016839184150863545 -0.0000016985371031745677 -0.000001713155791262781
          -0.000027234938982488426 -0.000027265971296390293 -0.00002729700361029216 -0.0003355829622782251 -0.00033554098516917275 -0.00033549900806012034
          -0.0001122952944530897 -0.00011234285763856751 -0.00011239042082404532 -0.0005818498552446076 -0.0005816904635243896 -0.0005815310718041717
          -0.0008812550648206769 -0.0008808289055847276 -0.0008804027463487781 -0.0010405518376963585 -0.0010399678525130022 -0.0010393838673296459
        </DataArray>
        <DataArray type="Float64" Name="pe33" format="ascii" RangeMin="-0.0029526242937519417" RangeMax="0">
          -0.002364414709031349 -0.0025022684178133605 -0.002568203242135589 -0.002370540532330363 -0.0023691128888321013 -0.002506528793443773
          -0.0025720088024069948 -0.0023760837344515106 -0.002373811068632854 -0.0025107891690741855 -0.0025758143626784004 -0.0023816269365726584
          -0.0025920822258164184 -0.0025272331130688965 -0.0025807998459857653 -0.00263928113165647 -0.002590803002819099 -0.0025262212677080523
          -0.0025789557366525913 -0.0026374537768594714 -0.002589523779821779 -0.002525209422347208 -0.002577111627319418 -0.0026356264220624725
          -0.0013319927119938351 -0.0014956888204608139 -0.0014030529131582982 -0.0008844597370643029 -0.0013321546267073445 -0.0014950354599783547
          -0.001402551433262897 -0.000886255782851189 -0.001332316541420854 -0.001494382099495896 -0.0014020499533674959 -0.0008880518286380749
          -0.0027490230135166598 -0.0026271715378939774 -0.0026538525275477216 -0.002774817268332719 -0.0027475917059781568 -0.002627134151114551
          -0.0026542076403378873 -0.002773917500155418 -0.0027461603984396538 -0.0026270967643351245 -0.002654562753128054 -0.002773017731978117
          -0.002641554573350686 -0.0026520606452642764 -0.002684805651489549 -0.0026801923634229598 -0.002640805683940282 -0.0026508120887683787
          -0.0026831960436759826 -0.002679081751324955 -0.0026400567945298785 -0.00264956353227248 -0.0026815864358624153 -0.00267797113922695
          -0.0022925853603569715 -0.002349634947870225 -0.0024212514444162995 -0.0023582092757176037 -0.0022937903229924873 -0.0023504813045140995
          -0.002421899160619253 -0.0023593231894001483 -0.002294995285628003 -0.002351327661157974 -0.002422546876822207 -0.002360437103082693
          -0.0026286464639185456 -0.0025788439535150685 -0.0025431245653332905 -0.002627608602757695 -0.0025781754479774987 -0.002542533865049771
          -0.002626570741596844 -0.0025775069424399293 -0.002541943164766251 -0.002402844793514385 -0.0024428612020051185 -0.002403811261987811
          -0.0024434961959567754 -0.0024047777304612374 -0.0024441311899084323 -0.0022592662235739807 -0.002478738667927854 -0.002467332403805842
          -0.0022897359167745133 -0.002258311125442389 -0.002477497356871724 -0.0024666273515318513 -0.002288169858943972 -0.002257356027310797
          -0.0024762560458155944 -0.0024659222992578604 -0.0022866038011134307 -0.0025325196301473137 -0.002557690080405701 -0.002533207394452822
          -0.002558526837158461 -0.0025338951587583303 -0.002559363593911221 -0.002458816319412852 -0.0024742211358906637 -0.0024595326680111286
          -0.00247481472663309 -0.0024602490166094047 -0.0024754083173755166 -0.0017466387220967492 -0.001678422694078217 -0.0013894480429361505
          -0.0017458459458779255 -0.0016768980276792751 -0.001386786614645081 -0.0017450531696591018 -0.0016753733612803335 -0.0013841251863540112
          -0.0023090261853534236 -0.0022426210125095227 -0.0023111447638816517 -0.0022445849752719188 -0.00231326334240988 -0.002246548938034315
          -0.0023776621547199357 -0.0024309866975220687 -0.0024720558694080745 -0.002441566418014154 -0.002377487704586659 -0.002431577208826426
          -0.002472225015467964 -0.0024409207571302635 -0.002377313254453383 -0.002432167720130783 -0.002472394161527853 -0.0024402750962463724
          -0.002641085896322395 -0.0026674313616112466 -0.002672954178433941 -0.002639892899535479 -0.0026660822621316456 -0.002671368378020461
          -0.002638699902748564 -0.002664733162652043 -0.002669782577606981 -0.00267274312645632 -0.0026732787245774235 -0.0026738143226985277
          -0.0024757739468173534 -0.0024167611485274446 -0.0024887193447202076 -0.0024763237047198015 -0.0024174826011173866 -0.0024889449230765413
          -0.0024768734626222496 -0.0024182040537073287 -0.0024891705014328746 -0.002617898059286074 -0.002581797823507277 -0.0025905148314369344
          -0.002615959563367353 -0.0025805908571118453 -0.0025898749004558573 -0.002614021067448633 -0.002579383890716414 -0.00258923496947478
          -0.002398297044588495 -0.0023798566770573282 -0.0022881431571118212 -0.0024006339916813604 -0.002382671745926891 -0.002291112403746343
          -0.002402970938774226 -0.002385486814796453 -0.0022940816503808654 -0.0022737065744600935 -0.0022497609230359567 -0.002277013608487231
          -0.0022533416237183264 -0.0022803206425143683 -0.0022569223244006957 -0.002039550434754107 -0.0019209624489060144 -0.0020390906607396938
          -0.0019206906874746018 -0.0020386308867252805 -0.0019204189260431893 -0.0029526242937519417 -0.002949477196840259 -0.002946330099928577
          -0.002502653171486777 -0.0024251290374393674 -0.0025012429877805365 -0.0024217964079174307 -0.002499832804074296 -0.0024184637783954935
          -0.002500157956765934 -0.0025078317345415065 -0.002500504052550122 -0.0025079278684123295 -0.00250085014833431 -0.0025080240022831526
          -0.0024794158162687345 -0.00247945217690646 -0.0024794885375441847 -0.002189221540086558 -0.002271594149808626 -0.0022809507823112196
          -0.0022069724388968006 -0.002190599575823323 -0.00227241566387372 -0.0022819648704214346 -0.0022083632710578824 -0.0021919776115600885
          -0.002273237177938814 -0.0022829789585316496 -0.0022097541032189637 -0.0010868058521520596 -0.0010868099954413084 -0.0010868141387305572
          -0.000974334885706741 -0.0012448173957825342 -0.0009746792316642695 -0.0012451336648559134 -0.0009750235776217976 -0.0012454499339292927
          -0.002375247885319731 -0.0022985554487947864 -0.0023785489485169844 -0.0023018990775201535 -0.002381850011714238 -0.0023052427062455207
          -0.002652911166117086 -0.0026509939106466375 -0.00264907665517619 -0.002399637847681751 -0.002259684397240109 -0.0023976618399406627
          -0.0022586760304176006 -0.0023956858321995734 -0.0022576676635950926 -0.0023292263879471755 -0.002258617613442143 -0.0021562373752709967
          -0.002269842847239053 -0.0023290174542738174 -0.0022576715875663993 -0.002155534664897347 -0.0022695459430037363 -0.0023288085206004594
          -0.0022567255616906556 -0.0021548319545236978 -0.0022692490387684196 -0.0025839923430805586 -0.0025813571157820817 -0.0025827636016666276
          -0.002579556997262426 -0.0025815348602526975 -0.0025777568787427713 -0.0023381352833874505 -0.002286495410642914 -0.0021032102013261505
          -0.002136937684970231 -0.002334597989071632 -0.0022844306039694544 -0.002102642843797683 -0.00213562718512554 -0.0023310606947558143
          -0.0022823657972959946 -0.002102075486269215 -0.002134316685280849 -0.002567288793695812 -0.0025680719503892975 -0.0025688551070827833
          -0.002190930599332972 -0.002240991961644571 -0.0021930791236822126 -0.0022424014321900253 -0.0021952276480314537 -0.00224381090273548
          -0.0023694485030444825 -0.002320213154038069 -0.002370061103377681 -0.0023208299358157833 -0.00237067370371088 -0.0023214467175934972
          -0.0024733714660334126 -0.002474546325480443 -0.0024757211849274737 -0.0025105258991895978 -0.002493850186619174 -0.0025110697287982326
          -0.0024944505029119066 -0.002511613558406868 -0.00249505081920464 -0.0024890198585008853 -0.0024823343241041486 -0.002489719519793633
          -0.0024829869703306127 -0.002490419181086381 -0.002483639616557077 -0.0025597156620315253 -0.002619181104802284 -0.002560198251439887
          -0.002619303430371479 -0.0025606808408482487 -0.0026194257559406732 -0.002498835508728492 -0.002499574759069272 -0.0025003140094100526
          -0.0023942770411322844 -0.0024608139635305146 -0.002395097118487137 -0.0024607537140495044 -0.00239591719584199 -0.002460693464568494
          -0.002592447997518731 -0.0025675128679846166 -0.0025924979267336547 -0.002567455731393135 -0.002592547855948578 -0.0025673985948016526
          -0.0025419499165073352 -0.0024389105027153328 -0.0025813079809847094 -0.0025431438105026393 -0.002440286598427199 -0.0025816650612365635
          -0.0025443377044979424 -0.0024416626941390664 -0.0025820221414884176 -0.0025242509721427105 -0.0025256686278923956 -0.0025270862836420807
          -0.002306536671661837 -0.0023609142280220123 -0.002307580441280349 -0.002362107644200491 -0.002308624210898862 -0.00236330106037897
          -0.002506709876064177 -0.002532974251181495 -0.0025070361422351445 -0.002532870727519285 -0.0025073624084061114 -0.002532767203857074
          -0.00184116972814076 -0.0020621274116075935 -0.0018404463547163936 -0.002061160151550548 -0.001839722981292027 -0.0020601928914935025
          -0.002219371615293922 -0.0021717743751107775 -0.002221790827896146 -0.002174147376252461 -0.00222421004049837 -0.002176520377394144
          -0.0026875185734258934 -0.002519329767435047 -0.002664172256854695 -0.002686353796557043 -0.0025206295564097667 -0.0026636336577084384
          -0.002685189019688192 -0.002521929345384486 -0.0026630950585621828 -0.002661898848273341 -0.002661349365801091 -0.002660799883328841
          -0.00247851689420622 -0.002478461844906586 -0.0024784067956069534 -0.0027764898324653033 -0.0027746191605925873 -0.0027727484887198712
          -0.002507283201177803 -0.002509577112065327 -0.0025118710229528503 -0.0025198200982531806 -0.002520157528240571 -0.0025204949582279612
          -0.002181258481502024 -0.002183537292278373 -0.002185816103054721 -0.00274690426536216 -0.002745924599120677 -0.002744944932879193
          -0.002661973061517611 -0.002661833420499635 -0.0026616937794816577 -0.002376704285153749 -0.002442889929714665 -0.002382648095713945
          -0.0024472889445665467 -0.00238859190627414 -0.0024516879594184285 -0.002223124983907244 -0.0022313605847790624 -0.002226975538678214
          -0.0022352223282155518 -0.002230826093449184 -0.002239084071652041 -0.002727132735074642 -0.0027265945577139906 -0.002726056380353339
          -0.0021306593419163937 -0.002147626627296297 -0.0021340380422213766 -0.0021505174035162194 -0.0021374167425263603 -0.002153408179736141
          -0.0012324818573176749 -0.0008635845803333191 -0.0012331672148788956 -0.0008644875940430435 -0.001233852572440116 -0.0008653906077527678
          -0.0019781171136239485 -0.001977370599708654 -0.001976624085793359 -0.002632579387954007 -0.002633888980579946 -0.002635198573205885
          -0.0024310745714705016 -0.002517791252815849 -0.0024281904945083954 -0.0025159732031298037 -0.0024253064175462895 -0.0025141551534437587
          -0.0021848416722747965 -0.0022717622277706228 -0.0021862433946381473 -0.002272471404556435 -0.002187645117001498 -0.0022731805813422466
          -0.0026626556903794614 -0.0026623581219392214 -0.002662060553498982 -0.0027750314419655495 -0.0027733045973531477 -0.0027715777527407464
          -0.0025186254947767157 -0.002518679335329361 -0.002518733175882006 -0.0021268444433676825 -0.0021181389912314492 -0.002129478798536372
          -0.002120875069752927 -0.002132113153705062 -0.002123611148274404 -0.0025363679401741008 -0.002536293839553902 -0.0025362197389337026
          -0.0026999431367587473 -0.0026995469213171395 -0.0026951199618804925 -0.0027043441523021588 -0.0026986479083950204 -0.002698013263022871
          -0.0026928199350547024 -0.0027020248220268536 -0.0026973526800312935 -0.002696479604728602 -0.0026905199082289124 -0.002699705491751549
          -0.0023582376473903315 -0.0024577670227386187 -0.0023592569817715847 -0.0024582217082519185 -0.002360276316152838 -0.0024586763937652183
          -0.002586344798875459 -0.0025856322303021385 -0.002584919661728818 -0.002673246191161862 -0.0026908662091106603 -0.0026710860679109135
          -0.0026892261727597504 -0.002668925944659965 -0.0026875861364088404 -0.002526928218094124 -0.002509420983485783 -0.002526517164866527
          -0.0025078362066539785 -0.0025261061116389296 -0.0025062514298221737 -0.0025339118485830517 -0.0025339099022372935 -0.0025339079558915354
          -0.002509114941150858 -0.0025093399922117496 -0.002509565043272641 -0.0025295820737762462 -0.002527299697769196 -0.002525017321762146
          -0.00211008444087136 -0.0020940210208660794 -0.0021132859650198027 -0.0020976683302781417 -0.002116487489168246 -0.002101315639690204
          -0.0025477224903148036 -0.002545303531461042 -0.00254288457260728 -0.0020563696041280962 -0.0018039910358381146 -0.0021635697360268885
          -0.002055507616468026 -0.001804394522343703 -0.0021621113827750525 -0.0020546456288079566 -0.001804798008849291 -0.002160653029523217
          -0.002482095610717727 -0.002479236230620754 -0.0024763768505237805 -0.002465517048086478 -0.0025807311452625942 -0.0025706609564342757
          -0.0024656564852848285 -0.002579221164163962 -0.0025692387586219913 -0.0024657959224831786 -0.0025777111830653293 -0.0025678165608097065
          -0.002674039252337458 -0.002673311530948041 -0.0026725838095586233 -0.002494534712921307 -0.00249494062142468 -0.0024953465299280535
          -0.001686329561648911 -0.0016857143967147585 -0.0016850992317806058 -0.0023630514869798797 -0.0023637710962203487 -0.0023644907054608177
          -0.0026569814592306315 -0.0026691997000021206 -0.002654264669874142 -0.0026664900389698288 -0.002651547880517653 -0.0026637803779375373
          -0.0023956899674902757 -0.0023936328007466154 -0.002391575634002955 -0.0021431440036440877 -0.0021521534328357724 -0.002145729882785135
          -0.0021545500353813947 -0.0021483157619261815 -0.002156946637927018 -0.002625536876152236 -0.0025631337372448637 -0.0026230838068807246
          -0.0025616600901117097 -0.0026206307376092134 -0.0025601864429785556 -0.0024702535992685536 -0.0023415375038892475 -0.0024671153647374093
          -0.0023389696493670707 -0.0024639771302062646 -0.0023364017948448936 -0.0018453598217417632 -0.0020734405950175385 -0.0018457178397032646
          -0.0020733058965030295 -0.0018460758576647658 -0.002073171197988521 -0.002585516050814963 -0.002582955076670254 -0.00251036424811844
          -0.0025846744393857894 -0.0025818602110192373 -0.0025087631675124885 -0.002583832827956616 -0.0025807653453682206 -0.002507162086906537
          -0.002239642629394475 -0.0022379533365184143 -0.002236264043642353 -0.002402498716984231 -0.002400895994328062 -0.0023992932716718927
          -0.0026355857795206323 -0.002634864552171892 -0.0026341433248231513 -0.00156797156070416 -0.0015679765497284273 -0.0015679815387526943
          -0.0020647010609146955 -0.0018765725688517506 -0.0019091121613844788 -0.0020646371078921408 -0.0018764691494947967 -0.0019087857670871597
          -0.002064573154869586 -0.001876365730137843 -0.0019084593727898406 -0.0022434021405155083 -0.0022427966843126318 -0.002242191228109756
          -0.0019592692533962077 -0.001959765113740871 -0.001960260974085534 -0.0017624390926483714 -0.0015080618546780805 -0.0017635389636810322
          -0.0015085451923618485 -0.001764638834713693 -0.0015090285300456167 -0.0016573885978473117 -0.0016553637774480916 -0.0016533389570488719
          -0.0019415014609757391 -0.0019411235425868614 -0.0019407456241979837 -0.0010897901271395873 -0.0010902944768880504 -0.001090798826636514
          -0.0014085641773726497 -0.0014038410346151008 -0.0013991178918575519 -0.001045953448302164 -0.0010467256501294228 -0.0010474978519566817
          -0.0006386022027438608 -0.0006426467377981175 -0.0006466912728523742 -0.00034778232471886067 -0.0002867512492264232 -0.0003483837032558692
          -0.00028747194492839 -0.00034898508179287755 -0.00028819264063035675 -0.00008294419149540822 -0.000055890215908890764 -0.0000830758549599245
          -0.00005601618330666867 -0.00008320751842444079 -0.00005614215070444658 0 0 0
          0 0 0 -0.0005014440354851381 -0.0005017282110469658 -0.0005020123866087936
          -0.0001808014038965013 -0.0001810073344432268 -0.00018121326498995237 -0.000020777451477621243 -0.000020896792689492596 -0.00002101613390136395
          -0.000683277707345432 -0.0006833117334747223 -0.0006833457596040123 -0.00035513576272610127 -0.0003553298820554619 -0.0003555240013848225
          -0.00010039126044648357 -0.00010063063051017656 -0.00010087000057386953 -0.0008569073582138642 -0.0008568241627479385 -0.0008567409672820127
          -0.0005686553241614777 -0.0005686699293839334 -0.0005686845346063891 -0.00026642830579046324 -0.00026662344443149867 -0.00026681858307253404
          -0.0007851517155016304 -0.0007849884111493902 -0.0007848251067971501 -0.0004984650556057965 -0.0004984927452725989 -0.0004985204349394014
          -0.000990420890074723 -0.00099011149636088 -0.000989802102647037 -0.0007517720124360903 -0.0007515649822190408 -0.0007513579520019916
          -0.0011712612201693498 -0.0011708881578393726 -0.0011705150955093955 -0.0010006511100500268 -0.0010003101968785323 -0.0009999692837070378
          -0.0013168839259695276 -0.0013166236281118287 -0.0013163633302541295 -0.001241198861380745 -0.001240838154181793 -0.0012404774469828412
          -0.0013804275243283707 -0.0013802763478981076 -0.001380125171467845 -0.0013613384099652255 -0.001360979601721035 -0.0013606207934768444
          0 0 0 0 0 0
          0 0 0 -0.0000076145769224968855 -0.00000765629607539226 -0.000007698015228287635
          -0.00006512759336993172 -0.00006525913387872769 -0.00006539067438752368 -0.0002134643254638205 -0.00021362775612952282 -0.0002137911867952252
          -0.0016689068958601937 -0.0018102730178004352 -0.0016695765293426573 -0.0018109499176568818 -0.0016702461628251212 -0.001811626817513328
          -0.0011770737483935568 -0.0013032094341054548 -0.0012831762699426798 -0.0011769430003227025 -0.001302943219986624 -0.001283096380867163
          -0.0011768122522518483 -0.0013026770058677934 -0.0012830164917916464 -0.002196525884597663 -0.0021963106918356347 -0.002196095499073606
          -0.001983601992950218 -0.0019835472518042034 -0.001983492510658188 -0.001512881375487726 -0.0015132996891017666 -0.0015137180027158077
          -0.001013480216041352 -0.0010133026540174348 -0.0010131250919935173 -0.00113860213745177 -0.0011383904529304319 -0.0011381787684090938
          -0.001226370684713457 -0.001226171572631642 -0.0012259724605498267 -0.0012912830798287047 -0.0012911795980441287 -0.0012910761162595527
          -0.0013214026055471738 -0.001321377467707984 -0.0013213523298687942 0 0 0
          0 0 0 0 0 0
          0 0 0 -0.0000027505765686551238 -0.0000027795444585303633 -0.0000028085123484056028
          -0.00004064397847935743 -0.00004074682110210156 -0.00004084966372484569 -0.0004401118845046026 -0.00044017358790154394 -0.0004402352912984852
          -0.00015919744868490046 -0.00015939832083027288 -0.00015959919297564535 -0.0007090093143125905 -0.0007089010749062369 -0.0007087928354998831
          -0.001009153137988445 -0.001008872414544566 -0.0010085916911006874 -0.0011686087983281425 -0.0011682400184273717 -0.0011678712385266008
        </DataArray>
        <DataArray type="Float64" Name="disp_x" format="ascii" RangeMin="0.000056051346264190534" RangeMax="0.00014651626852754148">
          0.0000651050462928317 0.00006276958651117213 0.00006135770254127608 0.0000641980405535896 0.00006510221899882948 0.00006276511423613454
          0.00006135082224786664 0.00006419444213321376 0.00006509449559840309 0.00006275299999230894 0.00006133073709741628 0.00006418467786504741
          0.00009259193403320081 0.0000893187315920387 0.00009063622875458093 0.00009383783642436665 0.00009259320033103507 0.00008932035136472181
          0.00009063798584897524 0.00009383827672217021 0.000092596824167982 0.00008932594510728177 0.00009064438372863907 0.00009384052782598937
          0.00012817472117180367 0.00012731775780614664 0.0001287606438831454 0.0001330579081901156 0.0001281683190718592 0.00012731254522355695
          0.00012875392061027625 0.0001330530347679046 0.00012814833105241367 0.00012729839226718358 0.00012873254371822683 0.00013303860189026008
          0.00007028357623116286 0.00007380021071761488 0.00007617943501230191 0.00007285237211506425 0.00007028192612562969 0.00007379882664661507
          0.00007617798025251082 0.00007285030306060041 0.00007027729714287201 0.00007379457652818192 0.00007617358819367837 0.00007284433376515959
          0.00010633837385723988 0.00010540319224328366 0.00010189229284855947 0.00010289064557741885 0.00010633679112052764 0.00010540162714502241
          0.0001018914874701584 0.00010288941198997027 0.00010633330993570595 0.00010539763257214791 0.00010188973784669433 0.00010288667784300539
          0.00007618905329514033 0.00007941607230275027 0.00007773683557266362 0.00007446063114635647 0.0000761895421407625 0.00007941618827271839
          0.00007773670324291358 0.00007446038324516198 0.00007619125614996035 0.00007941725757727813 0.00007773676557041104 0.0000744604596815496
          0.00009618920315359228 0.00009480507594232588 0.00009122163306913786 0.00009619003246526854 0.00009480540857048854 0.00009122255952623469
          0.00009619205785264266 0.00009480695855197603 0.00009122576015807721 0.00008293710957308648 0.00008177998465509557 0.0000829379611774933
          0.00008178029553806053 0.00008293957079388049 0.00008178048871204373 0.00011528072730132975 0.00011098047396502063 0.0001121400163437433
          0.00011692790884132272 0.00011527734075903338 0.00011097743194608409 0.00011213778603928832 0.00011692479579193148 0.00011526790288112734
          0.00011096823799818005 0.00011213108550568404 0.00011691704886895914 0.00007650477444235081 0.00007892622860971506 0.00007650410947178985
          0.00007892566252221547 0.00007650197667673111 0.00007892341481774224 0.00008640595715016988 0.00008516724711592731 0.00008640729338824468
          0.00008516765405619348 0.00008641059260777697 0.00008516826589728242 0.0001257664851717422 0.00012703552279973873 0.00012962452681785744
          0.00012576185637380255 0.00012703096497560545 0.0001296189267900764 0.00012574816031710252 0.00012701261954818266 0.00012960960403054911
          0.00007176201000587667 0.00007343416634916386 0.00007176200549289537 0.00007343434256684333 0.0000717613508138767 0.0000734344720132639
          0.00010116732105090796 0.0000974690655134441 0.0000989938412631643 0.00010246054768364416 0.00010116642858181869 0.00009746848514425216
          0.00009899339125638775 0.00010246015249866579 0.00010116400794694094 0.00009746715662588383 0.00009899277714333469 0.00010245976434821875
          0.00010008464645092755 0.00009733300368652625 0.0001010553292216941 0.00010008517537482642 0.00009733379670997742 0.0001010555549123904
          0.0001000856792837387 0.00009733456851880826 0.0001010556129487436 0.00007944680190118079 0.00007944585608249758 0.00007944266528141918
          0.0000939685677209854 0.00009524323308516449 0.00009214298685465771 0.000093967849864481 0.00009524211726676893 0.0000921415690405871
          0.00009396548425140507 0.00009523836540366769 0.00009213679370304917 0.00010494843586038264 0.00010242415320398215 0.00009857512486424566
          0.00010494811102805163 0.0001024241313963703 0.00009857578103456235 0.00010494682196807556 0.00010242459171254208 0.00009857690658698319
          0.00006970549041715685 0.00006766380735298485 0.00006942108048148654 0.00006970457773363531 0.00006766192492297368 0.00006942027404251918
          0.00006970181116565243 0.00006765631745223109 0.0000694178828278831 0.00006761196608711379 0.00006723018341970705 0.00006761052579305704
          0.00006722870452629572 0.0000676056503681281 0.00006722430248416351 0.00010726354458452974 0.00011169918624981908 0.00010726040510615888
          0.00011169556874685787 0.00010725136180995815 0.00011168532100223404 0.00005606910118053142 0.00005606448206941769 0.000056051346264190534
          0.00011253323948455735 0.00011589460741940399 0.00011253216496521243 0.00011589195939321376 0.00011252832402285792 0.00011588644172071919
          0.00008853818987395691 0.00008985595069832082 0.00008853846294399069 0.00008985745443343744 0.00008853892065014695 0.00008986040865745947
          0.00008783375530016769 0.00008783616810640554 0.00008784129301429595 0.00007832572989960262 0.00008120586705732316 0.00008091009542559406
          0.00007791868748571524 0.00007832731203701896 0.00008120726905794003 0.00008091106919736115 0.0000779196729006502 0.00007833228689128346
          0.00008121247284902982 0.00008091483606898517 0.00007792365877951002 0.0001279896827511669 0.00012798803846535728 0.000127983268922894
          0.00013005386573747082 0.00012609122727961044 0.00013005162017735297 0.00012608813125100608 0.00013004486893822764 0.00012607864130943002
          0.00006616472674295105 0.00006774919020773877 0.00006616281365220068 0.00006774802644309498 0.0000661554154461408 0.0000677425084950416
          0.00010482833574803237 0.0001048278860185511 0.00010482580554513213 0.0001058676229583474 0.00010550735230118756 0.00010586691201140579
          0.0001055057649840098 0.00010586418186699888 0.00010549994106019003 0.00009984828144054593 0.00010270144083087903 0.00010308764697282285
          0.00009911726461655323 0.00009984792827421448 0.00010270002340380433 0.00010308569345189657 0.00009911548169075844 0.00009984642711970024
          0.00010269492387630538 0.00010307922829649611 0.0000991110346824471 0.00010848820081175284 0.00010828315556379697 0.00010848670145109747
          0.00010828252295910541 0.00010847955728276063 0.000108276729892095 0.00011826115419015695 0.00011890627004125836 0.00012138793501069763
          0.00012000372130481004 0.00011825779644998942 0.00011890182339295388 0.00012138289273944743 0.00011999899288772715 0.0001182433629799943
          0.00011888670298168035 0.00012137024372035703 0.00011998294885624582 0.00008215989308256203 0.00008215943979094643 0.0000821574737492306
          0.00007461838633317318 0.00007730327748424789 0.00007461886746477712 0.00007730433597241745 0.00007462028516181494 0.00007730690818962928
          0.00009511474806229836 0.00009476450394750824 0.00009511370085559594 0.00009476266287493552 0.00009510941270928954 0.00009475738472781707
          0.00009116486177765497 0.0000911634905830037 0.00009115803671621725 0.00008390024136164597 0.00008070249828658157 0.00008390032818963285
          0.0000807026331023104 0.00008389994434694803 0.0000807018466505955 0.00007445222613525384 0.00007839739383378809 0.00007445209149374945
          0.00007839786852583245 0.00007445066262134113 0.0000783973039731231 0.0000857989581662801 0.00008439334814748234 0.00008579851906775747
          0.00008439221504584258 0.00008579695436216158 0.00008438828571955397 0.00009097567447603968 0.00009097407045633338 0.00009096808830875981
          0.00008446209684857424 0.00008709998238023124 0.00008446388000870196 0.00008710235314916933 0.00008446890607276713 0.00008710851588778072
          0.00008741215303254517 0.00008796839534043217 0.00008741037072018868 0.00008796769385149752 0.00008740374245928176 0.00008796458298376948
          0.00006971594817864169 0.00007213701944127731 0.00007183765050106942 0.00006971476023417173 0.00007213713478787101 0.00007183702265494718
          0.00006971170737984415 0.00007213591889113122 0.0000718342418603153 0.00006731450617885479 0.00006731311417895211 0.00006730779400746873
          0.00008043036188646357 0.00008408085283521179 0.00008043230113699962 0.00008408320839282683 0.00008043578970620512 0.0000840884031231392
          0.00009197672478022568 0.00009330716654801974 0.00009197671107011284 0.00009330814583958185 0.00009197672452929207 0.00009330958317338816
          0.00012380557295313318 0.00012030671810804294 0.0001238015583320379 0.00012030253316162714 0.00012378925711797282 0.00012028798295713672
          0.00007075156370952636 0.0000727757712497759 0.00007075127472164734 0.00007277592753625424 0.00007074886731536579 0.00007277546545761113
          0.00006174798770271159 0.0000652148435190784 0.00006514265211338362 0.00006174570934171944 0.00006521269660312262 0.00006514104614830903
          0.0000617393741214551 0.0000652043968561362 0.00006513501546677867 0.000061016730220125123 0.000061012842298166956 0.00006100004299843844
          0.00008764241093358707 0.00008764572541247402 0.00008765451619632169 0.0000636359064202081 0.00006363532650787126 0.00006363357384895649
          0.00006379409029150647 0.00006379110172375798 0.00006378125291831127 0.00008726809435202441 0.00008726847030166852 0.00008726781249713276
          0.00007010283009538766 0.00007010212998548375 0.00007009878861478012 0.000059134342270399855 0.00005912916202341501 0.000059111304510610545
          0.00006786720277640772 0.00006786629100959846 0.00006786171431982838 0.0000639654869832146 0.00006299021517060497 0.00006396168437810538
          0.00006298463518847344 0.00006395407106494433 0.00006296770490158777 0.000067149875316588 0.00006692516032491659 0.00006714815327555332
          0.00006692313968904265 0.0000671420679246142 0.00006691736850334235 0.000059716878081034325 0.000059710031787691 0.000059684476244069395
          0.00007012530837024233 0.00007001032664629919 0.00007012407848941718 0.00007000973546176506 0.00007011862326097441 0.00007000644852570348
          0.0001277983362299049 0.00013167776050234932 0.00012779365575155537 0.00013167559402147983 0.0001277793058344107 0.00013166942979683216
          0.00012027135214851373 0.00012026751382327622 0.00012025450218212347 0.00006095467471979259 0.000060950346830681766 0.000060934149265663756
          0.00011618510162015325 0.00011300742790157394 0.00011618242678551537 0.00011300572585912192 0.00011617433675810253 0.00011300135853226414
          0.00007869253633708614 0.00008161619110261684 0.00007869452714863669 0.00008161821754012512 0.00007869988931707582 0.0000816239103635761
          0.00006995797252581075 0.0000699575631535911 0.0000699544558937579 0.00006668993353347934 0.0000666891902666019 0.00006668571225130874
          0.00009045463692795737 0.00009045387052928499 0.00009044988389490196 0.00007551968025961554 0.0000758280294165932 0.00007552074539644514
          0.00007582955296550055 0.00007552362901939704 0.00007583343709674758 0.0000969044442012206 0.00009690506735856441 0.00009690585169632247
          0.00010085912254893329 0.00009955332621379407 0.00009618731524319391 0.00009752257991278014 0.00010085845079152187 0.00009955326183894595
          0.00009618747736928223 0.0000975222198528978 0.00010085633782153492 0.00009955211014817189 0.00009618871610911631 0.00009752153581001165
          0.00008427343392839162 0.00008715198360196003 0.00008427565113743798 0.00008715474035818846 0.00008428061598922423 0.00008716295863087327
          0.00010900069585672988 0.0001089997902368111 0.00010899470296737656 0.00009504202725803612 0.00009841198285482349 0.00009504312227566428
          0.00009841270256000042 0.00009504513515353398 0.0000984131555746581 0.00010049106051426921 0.00010375871072304803 0.00010049193283812873
          0.00010375882839676459 0.00010049272673715898 0.00010375976559962292 0.0000891750348305893 0.00008917495208575573 0.00008917261044859825
          0.0000906509026301078 0.00009065123063020707 0.00009064944587699405 0.00010852250121939887 0.00010852081926716601 0.00010851503127119042
          0.00007281864168054817 0.00007298823797656018 0.00007281889430661575 0.00007298858338494342 0.00007281808582811426 0.00007298896103682504
          0.000105792884130529 0.00010579288967589804 0.00010579153652883598 0.00011403871273589563 0.00011589198621675227 0.00011033285335674912
          0.00011403396825858844 0.00011588784744858672 0.00011033024726894842 0.00011402076530198565 0.0001158744282284019 0.00011032255915169721
          0.0001059558252854166 0.00010595581926489868 0.00010595369329309843 0.00008772273721416264 0.00009091841338659564 0.00008959774735215503
          0.0000877255088858173 0.0000909206506080102 0.00008960069843951164 0.00008773348471994686 0.00009092790634624745 0.00008960964147043232
          0.00010417278188247977 0.00010417265901785596 0.000104170213123788 0.00009548845641483067 0.00009548932374724442 0.00009548935799260809
          0.00012421205679515287 0.00012420801205648298 0.0001241957579636815 0.00008462131476346253 0.0000846242881715454 0.00008463076445449609
          0.00009301400434730218 0.00009419384624678978 0.000093016209454338 0.00009419572197764144 0.0000930205442740424 0.00009419848583552784
          0.00011124058806253432 0.00011123760870754297 0.00011122755652904238 0.00007274395635926258 0.00007522959473078476 0.00007274430909638642
          0.00007523094017791993 0.00007274299704854437 0.00007523328674941759 0.00009186134577228782 0.00008981004411701126 0.00009186409454965066
          0.00008981352020004942 0.00009186869370038373 0.00008982222266872762 0.00010805959716486686 0.00010933694318612848 0.00010805826534314573
          0.00010933471808001377 0.00010805270435701617 0.00010932638407738778 0.00011987944786948906 0.00011627211205097112 0.00011987566983560492
          0.00011626775381092437 0.0001198648304783298 0.00011625487055373908 0.00010963442282268462 0.0001107032707375466 0.00011388805156190093
          0.00010963413213036919 0.00011070172727089269 0.00011388617376236387 0.00010963033199604638 0.00011069689577968315 0.00011387957004616463
          0.00011280110578241991 0.0001127977845402939 0.00011278610457396375 0.00011696517675296584 0.00011696221227985023 0.00011695272878487318
          0.00010745556593645412 0.00010745563792521224 0.00010745274716329643 0.00012372710146918176 0.00012372314043063422 0.00012371013108619926
          0.00012272968064973866 0.0001253662692521438 0.00012428303825960828 0.00012272555198795818 0.000125361727676425 0.00012427869184206914
          0.00012271233821742656 0.00012534843791991426 0.00012426599668599527 0.00011991025299315485 0.00011990671607019446 0.00011989402041517476
          0.0001163813085487823 0.00011637698478378476 0.00011636001310397512 0.0001186190385891526 0.00012204990143293076 0.00011861550994535847
          0.00012204778031273999 0.00011860481242391143 0.00012204136132454946 0.00012780733352821646 0.0001278046042681259 0.0001277943050712085
          0.0001234798427223488 0.00012347623112391232 0.00012346445299229216 0.00013144778189860817 0.00013144014553907203 0.00013141294543794193
          0.00013007297647615494 0.00013006449302856672 0.00013004403727216046 0.00013200973153333403 0.00013199734706612255 0.00013194779790479444
          0.00013338204290550335 0.00013337820597781144 0.00013336956493170863 0.000136854064083504 0.00013701219049923268 0.000136852019743118
          0.00013701081662393958 0.00013684567770620013 0.00013700620512922059 0.00013940743260789883 0.00013945290657105025 0.00013940602824228382
          0.00013945122262863828 0.00013940186081118122 0.0001394460114637106 0.0001412541435136162 0.00014122028430768187 0.00014125476919006014
          0.0001412212293347215 0.00014125673943847898 0.00014122419203297103 0.00013614187311845983 0.00013613957655342446 0.0001361324399799356
          0.00013925605142680046 0.00013925379270465863 0.00013924685347525 0.0001413875500946958 0.00014138735400123117 0.0001413868216567077
          0.0001349679105090287 0.00013496604005307854 0.0001349604808239356 0.0001387805312733137 0.0001387780016787104 0.0001387703721361798
          0.00014144407156304697 0.00014144285171995683 0.00014143907107118614 0.00013340584891901393 0.0001334042841881952 0.00013339949729946024
          0.00013787650196489247 0.00013787438884320708 0.0001378679992160496 0.00014125204267798872 0.00014125003717477917 0.0001412439728645434
          0.00013655437306412275 0.0001365525565043227 0.0001365470244167397 0.00014070484468597092 0.00014070286103277495 0.0001406969914294813
          0.00013478736423507397 0.00013478614808980758 0.00013478252003659832 0.00013975421177768476 0.00013975230522737952 0.0001397465593944814
          0.00013261517806739857 0.00013261460190616402 0.000132612906640246 0.00013839179966460897 0.0001383901204112864 0.0001383850393244113
          0.0001301711710020647 0.00013017127447746517 0.00013017165808425552 0.00013664356108983612 0.00013664254509230874 0.00013663913277738837
          0.00012756630699646164 0.00012756723186193268 0.00012757006499890594 0.00013456446667754355 0.0001345646803869432 0.00013456537107705058
          0.0001431453412299348 0.00014310236555092274 0.00014314557915468822 0.00014310263295017286 0.00014314624363388648 0.00014310338031314933
          0.00014319163094713618 0.0001431921787710851 0.00014319387658838373 0.00014334389880976594 0.000143344212770213 0.00014334524611493907
          0.00014364725450554324 0.00014364624898347534 0.00014364316757158494 0.00014379337143614472 0.00014379151636779064 0.00014378560268352196
          0.00011283778577032037 0.00010825656962719462 0.00011283518340048494 0.00010825335838564653 0.00011282666246501792 0.00010824358238819693
          0.00012559487704631023 0.00012162818334078112 0.00012388624460506545 0.00012559374054381276 0.00012162688545878776 0.0001238844212923102
          0.00012559009019549037 0.00012162297927327992 0.00012387869020427344 0.00009860776243282055 0.00009860600146244976 0.000098600269684055
          0.00010339793496756877 0.00010339449254442561 0.00010338327951411004 0.00011865179662113553 0.00011864985050466283 0.00011864428218301172
          0.00013143405289343523 0.00013143298274380293 0.0001314298237343673 0.00012909558093769416 0.00012909497329563732 0.0001290930490313329
          0.00012640110719040694 0.00012640141129594687 0.00012640223030685078 0.00012359767164949072 0.00012359829109448268 0.00012360009003417428
          0.00012084588562760497 0.00012084632322825379 0.00012084740661292099 0.00014503416075459566 0.0001449880660086896 0.00014503396175482772
          0.000144987853415289 0.00014503333857118796 0.0001449872124127111 0.00014512111703434663 0.00014512107417525804 0.000145120912068818
          0.00014529591265657345 0.00014529599576743285 0.00014529622159858356 0.00014556433547484947 0.00014556466271112845 0.00014556575017455036
          0.00014608481547524163 0.0001460832300570279 0.0001460794768339818 0.00014367524310728136 0.00014367281519447745 0.00014366536998555588
          0.00014651626852754148 0.00014651474366411582 0.00014650979231035826 0.00014322594182313993 0.0001432236065534726 0.00014321656891967032
          0.0001424819365086655 0.0001424794759744805 0.00014247211022614076 0.00014148070486210757 0.00014147860412053921 0.00014147231310588504
        </DataArray>
        <DataArray type="Float64" Name="disp_y" format="ascii" RangeMin="-0.00001891937917672921" RangeMax="0">
          -0.000004388298423814137 -0.00000526295176797267 -0.000004433273496129852 -0.000003346317865735284 -0.0000043865739249984065 -0.000005261252531351369
          -0.0000044328285810471445 -0.0000033449302083711396 -0.000004380841365612116 -0.000005254519846936515 -0.0000044298346173147 -0.0000033415841258984904
          -0.000004862828502130462 -0.0000042462102388140785 -0.0000031409544749272833 -0.0000035927813911185047 -0.00000486349529927728 -0.000004246637330255649
          -0.000003141240556809053 -0.0000035932849915385243 -0.0000048655364743662725 -0.000004248087244548606 -0.0000031424400871613645 -0.000003595171190000494
          -0.000003832580144037365 -0.0000031264010417569414 -0.0000021607851209311 -0.00000159516946139186 -0.000003833983486392679 -0.000003127276674338642
          -0.0000021619470751767103 -0.0000015938625455175234 -0.0000038396274157553176 -0.000003128202958391007 -0.0000021652194922112204 -0.0000015896354311359485
          -0.000011267033321469304 -0.000010109582997354122 -0.000011211899480216448 -0.000012473706824901201 -0.000011264557811540704 -0.000010107244849782412
          -0.000011210112631351499 -0.00001247184962555754 -0.000011256439704175719 -0.000010100091270410525 -0.00001120442076193328 -0.000012466685782366021
          -0.0000014022626373762533 -0.0000028515830386543927 -0.0000027731776317633218 -0.0000013597571296944335 -0.0000014021937311835776 -0.000002851700802514697
          -0.000002773189691195784 -0.000001359889053667492 -0.0000014021903820184333 -0.0000028517335007462196 -0.000002773761447986507 -0.0000013595788356965536
          -0.0000047639242336082395 -0.000005323496895057054 -0.000007013399329285728 -0.0000060450473798960395 -0.000004762405051772039 -0.0000053222389520922846
          -0.000007011774900874573 -0.000006043081884142928 -0.000004757186937955009 -0.000005318461258018543 -0.000007006847401688186 -0.000006037562804143364
          -0.000005414582983180724 -0.000006827851774351944 -0.000006146193707407432 -0.000005415159318141227 -0.000006828631645605331 -0.000006146835540463268
          -0.000005417435836755376 -0.000006831268364672702 -0.000006148387527510858 -0.000005938643635923894 -0.0000073985308717379896 -0.000005937721980767989
          -0.00000739733881426672 -0.0000059352895084931004 -0.000007393365402843939 -0.000006767004201249321 -0.000005924197271465625 -0.000004366510764671427
          -0.0000042955853722306215 -0.0000067683297344566665 -0.000005924472217972312 -0.000004367429552846309 -0.000004296637585155899 -0.000006772165898618693
          -0.0000059243307014054845 -0.000004370583772464444 -0.000004299707450121281 -0.000009050099942807255 -0.000009975352286102572 -0.000009048371441911843
          -0.000009974074680098556 -0.000009043091698607329 -0.000009969562292464046 -0.000006663104858325507 -0.00000803824418038755 -0.00000666269774998754
          -0.000008037397871342266 -0.000006661401965847076 -0.000008034954051757848 -0.0000021627795952877588 -0.000001048260086603411 -0.000001030819241144791
          -0.000002163322396436827 -0.0000010485789819291635 -0.0000010317452516717053 -0.0000021649134784099256 -0.0000010501877226622168 -0.0000010370966408097678
          -0.00000540527081960672 -0.000004233114360375239 -0.0000054031604877233176 -0.0000042312627444518396 -0.0000053968785330840146 -0.00000422593610499137
          -0.000013271405525169707 -0.000012717710814403437 -0.000011118412756821466 -0.000011639881758078494 -0.000013272718802078109 -0.000012718570488643961
          -0.00001111941763357532 -0.000011641419845199262 -0.000013276453297621615 -0.000012721268501529413 -0.000011122435855245705 -0.000011645966217431659
          -0.000005884033979382742 -0.0000039819659595190855 -0.000004291039995079278 -0.000005884861894558799 -0.000003982717238422196 -0.000004291605847689579
          -0.000005887411640009113 -0.000003984587756160172 -0.0000042928527090873565 -0.000012698370188462054 -0.000012696714618919587 -0.00001269214840054374
          -0.000011860776721418775 -0.00001464589699587702 -0.00001317202740371757 -0.000011860968005430118 -0.000014646599337756689 -0.000013172249986672278
          -0.000011861930143151361 -0.000014648352033771751 -0.000013172714957041648 -0.000006265267493292206 -0.000008108299629812295 -0.000007466616774261175
          -0.000006265881385432802 -0.000008109209200682329 -0.000007467685386551404 -0.000006268058613658574 -0.000008112123737429473 -0.000007471016063467529
          -0.0000066204001872738645 -0.000005986380374332438 -0.000004924443760031707 -0.000006618148592741203 -0.000005984150898201519 -0.000004922465328679525
          -0.000006611079845807816 -0.000005977495200401757 -0.00000491703675829491 -0.000003835089102355719 -0.0000027082028801574207 -0.0000038336305788878275
          -0.000002707461630444216 -0.000003829892020071625 -0.0000027046531899160674 -0.000015076824849470129 -0.000013363470453605765 -0.00001507920209532955
          -0.000013365765623211077 -0.000015086027783617335 -0.000013372983697262612 -0.000005375328726732304 -0.000005376663755089465 -0.000005379958601492689
          -0.000002814359177648166 -0.0000025589357791261546 -0.0000028151988889125035 -0.0000025595008976606395 -0.0000028188613930057626 -0.000002563133818570584
          -0.00000877752319936413 -0.000007449180557622419 -0.0000087773150824516 -0.000007449264094940973 -0.000008776570286254947 -0.000007449809208845997
          -0.00000538983368896505 -0.000005390119886930603 -0.000005390731302249613 -0.000001139722915046418 -0.0000012166950344499936 -0.000002501634598553309
          -0.0000023017562647143036 -0.0000011393239120338101 -0.0000012164769283850248 -0.000002501178383267066 -0.0000023008260475399164 -0.0000011380226367195125
          -0.0000012158119858443996 -0.0000024996163076860375 -0.000002298218579186268 -0.0000073459761687001265 -0.000007345196860509676 -0.000007342818680472609
          -0.000005294626109364003 -0.00000707701785147817 -0.0000052935832696122945 -0.000007076477822054519 -0.000005290411795418912 -0.000007074851351708121
          -0.000005271362904523292 -0.000004659769422963028 -0.000005269171222745036 -0.000004657904754372052 -0.000005262911621131685 -0.000004652458622099703
          -0.0000043847707314936616 -0.000004385089082081444 -0.000004385861821911695 -0.000011605645463673255 -0.000013578398238452566 -0.000011607662270473009
          -0.00001358018408151839 -0.000011615063097480504 -0.000013585513515410825 -0.000015016009347867158 -0.000015084162290302374 -0.00001627757463082594
          -0.000016819668476324008 -0.000015016909034433099 -0.000015085310945217119 -0.000016279397658488428 -0.000016820730740649958 -0.00001501949218912795
          -0.000015088459361737979 -0.000016285438332733843 -0.00001682404660483806 -0.000004324843169322511 -0.000005443593577690048 -0.000004325195851207027
          -0.000005443883926901663 -0.000004325306209104132 -0.000005446368553495212 -0.000002189697807169659 -0.0000012132325301399831 -0.0000012152695127148304
          -0.0000028135832861745034 -0.000002190243250312428 -0.000001213073973914442 -0.0000012152135402914458 -0.000002814828018289554 -0.0000021926201792590833
          -0.0000012101534023106909 -0.0000012150263540267746 -0.0000028183302664353873 -0.000010836863874776598 -0.000010835759059335297 -0.000010832295245431989
          -0.0000031631353991822256 -0.0000035032997699537594 -0.00000316187140540206 -0.0000035021679199853592 -0.0000031577377510890643 -0.0000034983486129033117
          -0.000016936949046068785 -0.0000189150773986829 -0.00001693760414296246 -0.000018916116926532892 -0.000016939202044875708 -0.00001891937917672921
          -0.00001697839345316941 -0.000016978828241714893 -0.00001697985626230529 -0.000009414525538647426 -0.000008735818005636279 -0.000009413731441299421
          -0.00000873464611469581 -0.0000094111187730696 -0.00000873116736064128 -0.000008109805075467646 -0.000008320127558801392 -0.000008107756297405138
          -0.000008318703661705454 -0.000008101152645060125 -0.000008314055288079221 -0.000011588117270203117 -0.000013164589213253381 -0.000011587174663470344
          -0.000013163267144906507 -0.000011584950640038962 -0.000013159132646948464 -0.000015182076581439096 -0.000015182255277415363 -0.0000151833259095222
          -0.0000042835563730576406 -0.0000037115602573940295 -0.000004283045790976689 -0.000003711433527961637 -0.000004281703201923957 -0.000003710732911874818
          -0.00001512914634756804 -0.000013625930377093186 -0.000015128731058829668 -0.00001362537599690119 -0.000015127554012252143 -0.000013623772866433856
          -0.00000850870078082058 -0.000007283981820404034 -0.000009190831169707093 -0.000008505975536357396 -0.00000728151734600201 -0.000009188497998469003
          -0.000008497548358654613 -0.000007274250649197937 -0.000009180892983128242 -0.000007913795709578421 -0.00000791114113784298 -0.00000790255876109757
          -0.000003885842443943749 -0.000002597494455910688 -0.000003884863737737693 -0.0000025971564701927374 -0.0000038818762354270794 -0.0000025961422403090462
          -0.000009572600914634432 -0.000008197638718168444 -0.00000957271245914446 -0.000008198172088946702 -0.000009573572471557708 -0.000008200052462590522
          -0.0000036706710269593614 -0.000004764772528188467 -0.000003671390679291364 -0.0000047657911786764966 -0.000003673324451438492 -0.000004768174370684679
          -0.0000035898230470845053 -0.000002915906533572735 -0.00000358848882697336 -0.000002914618784407961 -0.000003584879865266282 -0.000002910751425480713
          -0.000008857552780988243 -0.000007173594538632044 -0.000009439999513815814 -0.000008856051357907887 -0.000007171099743735974 -0.000009437707026132115
          -0.000008851438990299282 -0.000007163149450837051 -0.000009429886281150453 -0.000007102903025026619 -0.0000071016086651630575 -0.000007096623060393403
          -0.0000025298496171410803 -0.00000252985005472785 -0.0000025292449167935485 -0.000011131840489958341 -0.000011129742014113078 -0.000011123531599026379
          -0.000006192048701259777 -0.000006189579276848037 -0.000006182272500311893 -0.000010154572937511004 -0.000010154235289952952 -0.000010152718437493745
          -0.000002315139532096292 -0.0000023140300610480364 -0.0000023107909351829445 -0.000005921280128924247 -0.000005920412747382522 -0.000005916293542958598
          -0.000009813755146117442 -0.00000981096182327024 -0.000009802249052534626 0 -0.0000019671690348247057 0
          -0.000001966020138988994 0 -0.000001962953738639471 0 -0.0000013919002314475098 0
          -0.0000013913779649081767 0 -0.0000013904698044723818 -0.000003628251785689355 -0.000003627846046017712 -0.000003629569145641274
          0 -0.0000011692479494429922 0 -0.0000011685588032044533 0 -0.0000011653250760711243
          -0.000005178084457614351 -0.0000034004657096602163 -0.00000517831695647975 -0.000003399494520639623 -0.000005178634650839174 -0.0000033967536363993525
          -0.000006066142213981183 -0.000006068039032723022 -0.0000060743810302370555 -0.000006076788258497825 -0.000006075521507683921 -0.000006070620280564359
          -0.0000012567100011907304 -0.0000013612726842050487 -0.000001256874549651699 -0.0000013614161934229765 -0.0000012551260298974066 -0.0000013610862871012275
          0 0 0 0 0 0
          -0.00001003403886945333 -0.000010031263482122718 -0.000010022376401885758 -0.000011235148142893799 -0.000011232690874885636 -0.00001122486676130869
          -0.000014001037098084474 -0.000014001036952016007 -0.000014001006131361876 -0.0000010763722780465807 0 -0.0000010757753220416588
          0 -0.0000010740079377525666 0 -0.000008933457695004749 -0.000008934499910241337 -0.00000893742323124893
          0 -0.0000012789783586671683 -0.0000011688361029153678 0 0 -0.0000012790875162480746
          -0.000001168934911800357 0 0 -0.0000012793499510053744 -0.0000011697609882146264 0
          -0.0000012491232891209323 -0.0000011833227197420274 -0.000001248976059005511 -0.000001183094701154365 -0.0000012493884627133844 -0.0000011832225046024893
          -0.0000028579643702078015 -0.000002858010074269972 -0.000002858387199092346 -0.0000023670163807208637 -0.0000026020414457469515 -0.000002367508508998392
          -0.00000260248949908329 -0.0000023687518103234844 -0.0000026035521667755085 -0.000009615305882975802 -0.000010177977009155612 -0.000009616392811366221
          -0.000010179319112542516 -0.000009619884082170133 -0.000010183065175667274 -0.000012302223150049549 -0.000012301870921505005 -0.000012301035610877121
          -0.000010958354477590909 -0.000010958308666084882 -0.000010957926444659387 -0.000007390456763381786 -0.000007390994724611317 -0.0000073921496909333155
          -0.000001080415597224044 0 -0.0000010797474468731624 0 -0.000001077139175607321 0
          -0.000008809893879645074 -0.000008810891781243515 -0.000008814180732441251 -0.000010649291526762812 -0.00001130918629821646 -0.000012146094156513199
          -0.000010651227252438755 -0.000011310861049520608 -0.000012148346310332063 -0.000010657006726975203 -0.00001131527359138442 -0.000012156173016183286
          -0.000010498105890417832 -0.000010499818658697787 -0.00001050437057274991 0 0 -0.000001026997762337439
          0 0 -0.000001027321975146221 0 0 -0.000001027529222354349
          0 0 0 -0.00001039138652309451 -0.000010392075708117431 -0.00001039433921757799
          -0.000005153332944531598 -0.000005154418419415102 -0.000005157876743725919 0 0 0
          -0.000001064325617846411 0 -0.0000010642852255866832 0 -0.000001064754631106729 0
          -0.000008410121866744526 -0.0000084111360717358 -0.000008414718814849487 -0.0000021396242892850077 -0.000002142048763528132 -0.0000021384287405371762
          -0.000002141094372915117 -0.0000021350409321835674 -0.000002137908608158885 -0.0000020919047396423684 -0.0000018517017512673497 -0.0000020921508545668153
          -0.0000018521390974291536 -0.000002092824860717117 -0.000001852945787315364 -0.000009692455003772162 -0.000010832283549774188 -0.000009693699843054336
          -0.000010834163267941618 -0.000009697233991601071 -0.000010840060149420785 -0.000007747981801346439 -0.000008528963866522414 -0.000007750275822280367
          -0.000008530666381150144 -0.000007757540237875052 -0.000008536264876902781 -0.0000014012406504861792 0 0
          -0.0000014013242551160389 0 0 -0.000001402144398594481 0 0
          -0.000009596195169408778 -0.000009597693693738162 -0.000009601752792357466 0 0 0
          0 0 0 -0.000006726459439937085 -0.000006727646013248122 -0.000006731505503783186
          0 0 -0.0000010618426922549861 0 0 -0.0000010625532612247631
          0 0 -0.0000010622500843171935 0 0 0
          -0.000009569821490273785 -0.00000957149575868674 -0.000009576369684580888 -0.000009432949887840606 -0.000008648575826718568 -0.00000943445317878366
          -0.00000864951678640341 -0.000009439333553973346 -0.000008652419645664183 0 0 0
          -0.000001922402991992383 -0.000001922491834050136 -0.0000019261767948079684 -7.532579782398657e-7 -7.530019366574523e-7 -7.508959969266919e-7
          0 0 0 0 0 0
          0 0 0 -8.289173072137845e-7 0 -8.280660934493988e-7
          0 -8.256096493003844e-7 0 -4.1448584369132665e-7 0 -4.137318233693409e-7
          0 -4.114743860073466e-7 0 -3.2653756518095696e-7 0 -3.265511978391097e-7
          0 -3.26587446338605e-7 0 -0.0000018382569729429489 -0.0000018365696807892404 -0.0000018313797153694893
          -9.402068073509769e-7 -9.386261136716914e-7 -9.337739240727173e-7 -6.490358011737812e-7 -6.488391349749938e-7 -6.483770435980485e-7
          -0.0000031613468649270546 -0.0000031600650260849193 -0.000003156328487679063 -0.0000016999801987097172 -0.0000016982343549530156 -0.0000016930224027250976
          -0.0000010128754638762246 -0.0000010114210424916716 -0.0000010068931604839485 -0.000004750303995852158 -0.000004748945107219013 -0.000004744881497816508
          -0.000002754091570430507 -0.0000027523145151544765 -0.00000274699074094712 -0.0000015612486103780826 -0.000001559330158265725 -0.0000015535763380067347
          -0.000004113834998368044 -0.000004112125892109167 -0.00000410704296741149 -0.0000024020010478542994 -0.0000023999960146057442 -0.0000023940359060026392
          -0.000005788846428962596 -0.0000057872330892091395 -0.000005782430470707587 -0.000003589813477270995 -0.000003587699058903736 -0.000003581308887673999
          -0.00000778939825758281 -0.000007788029465833818 -0.000007783929044490768 -0.000005169210001812012 -0.0000051674794778586475 -0.000005162427270783351
          -0.000010096196574328876 -0.000010095391648906071 -0.00001009302194683946 -0.00000718050489001178 -0.000007178510229911358 -0.000007172666897784586
          -0.00001260011743500953 -0.000012599469906794749 -0.00001259768780148461 -0.000009587413323760114 -0.00000958476302385883 -0.000009576998134745132
          -3.273388835512495e-7 0 -3.274947940962063e-7 0 -3.279791342041768e-7 0
          -6.422006325838433e-7 -6.424171664813915e-7 -6.430794067042345e-7 -9.083194395157342e-7 -9.083348275530603e-7 -9.084656838909571e-7
          -0.0000011831303128705498 -0.0000011821193207863014 -0.00000117910129326068 -0.000001601945856327768 -0.0000016001093620125401 -0.0000015944421708798434
          -0.00001433155079474002 -0.0000163082935982477 -0.000014333694712415756 -0.000016310651988584525 -0.000014340475454574127 -0.000016318513121768093
          -0.000009555177529178052 -0.000011351257843986143 -0.000009237682222608111 -0.000009554444981086602 -0.000011351282509137168 -0.000009237463676562975
          -0.000009552316489885044 -0.000011351178332702079 -0.00000923697667538566 -0.000018693802826196725 -0.000018694991008595845 -0.00001869891640145235
          -0.000018192714044152742 -0.000018194535467989365 -0.000018199516194972664 -0.00001146042480005264 -0.00001146120351765523 -0.000011463567926997522
          -0.000006596503866677887 -0.000006595420766265783 -0.000006592168514794899 -0.000008674983036336405 -0.000008674258323892402 -0.000008672076337054038
          -0.000010922343407263409 -0.000010921926682822123 -0.000010920808775238364 -0.000013270116278455567 -0.000013269627303428375 -0.000013268251206036035
          -0.00001570795478803431 -0.000015707353250863986 -0.000015705758355888194 -3.2217640288117453e-7 0 -3.2211741437448705e-7
          0 -3.219425058720357e-7 0 -6.446744196851427e-7 -6.44491727236459e-7 -6.438913776841778e-7
          -9.730361866698769e-7 -9.731617713422131e-7 -9.735552779603003e-7 -0.0000012718703094520261 -0.0000012722111502255148 -0.000001273335400422968
          -0.0000015258315630206366 -0.000001525371316374804 -0.0000015239641404934912 -0.0000022839547039001743 -0.0000022819780227311834 -0.0000022761640669963646
          -0.0000018741869784249841 -0.000001872543924387882 -0.000001867519766625578 -0.0000033279049846997735 -0.000003325850687059209 -0.000003319586005357736
          -0.000004851065051462668 -0.0000048484211130423456 -0.0000048405440180464325 -0.000006894125103450203 -0.00000689034665928039 -0.0000068789813219478545
        </DataArray>
        <DataArray type="Float64" Name="disp_z" format="ascii" RangeMin="-0.0000010063355358645236" RangeMax="0">
          0 0 0 0 -4.0761760302267976e-7 -4.2538095929197845e-7
          -4.3093474671487454e-7 -4.024424678490775e-7 -8.167635384182868e-7 -8.526552210466923e-7 -8.644403774861483e-7 -8.070658909345271e-7
          0 0 0 0 -4.4869194778452456e-7 -4.383441869867554e-7
          -4.4940220946281944e-7 -4.5765962983279624e-7 -8.969981642434093e-7 -8.762663974401548e-7 -8.978796379222489e-7 -9.147539818404994e-7
          0 0 0 0 -2.659782444635089e-7 -3.010301675508113e-7
          -2.707716497938211e-7 -1.6238956754992566e-7 -5.320525425904788e-7 -6.016831783504458e-7 -5.415109932601911e-7 -3.253106161686291e-7
          0 0 0 0 -4.7093038447764274e-7 -4.501931267890936e-7
          -4.5474700857396103e-7 -4.7403564459350964e-7 -9.41187593871276e-7 -9.004478951653926e-7 -9.097169126967801e-7 -9.477580748990572e-7
          0 0 0 0 -4.577321999752352e-7 -4.593315428354628e-7
          -4.647185772561181e-7 -4.63436304837414e-7 -9.154199710739785e-7 -9.18314288585289e-7 -9.288136612155617e-7 -9.265660434671588e-7
          0 0 0 0 -4.003059741952826e-7 -4.0932420237786427e-7
          -4.194702461621775e-7 -4.1012350600360294e-7 -8.008730631445715e-7 -8.188347791011714e-7 -8.390635961204998e-7 -8.205468238741209e-7
          0 0 0 -4.552826119167693e-7 -4.464811618317991e-7 -4.414660543635975e-7
          -9.102246910772861e-7 -8.927949480934963e-7 -8.826728585084305e-7 0 0 -4.152278038973412e-7
          -4.2366487555731594e-7 -8.308817714348106e-7 -8.474499924319079e-7 0 0 0
          0 -4.021021425548385e-7 -4.307786155020308e-7 -4.251890150854452e-7 -4.0902847912796825e-7 -8.038942678625413e-7
          -8.613517412961827e-7 -8.507477703139673e-7 -8.172699183329222e-7 0 0 -4.347682698728636e-7
          -4.386246215531111e-7 -8.697861634103223e-7 -8.775763541671106e-7 0 0 -4.2449492578218763e-7
          -4.2864549389382164e-7 -8.494658780658606e-7 -8.574760130176649e-7 0 0 0
          -3.226228511729493e-7 -3.095303328713081e-7 -2.6552158842560415e-7 -6.444877550917102e-7 -6.196431901413762e-7 -5.283649725824854e-7
          0 0 -4.0174168457812917e-7 -3.899112059920435e-7 -8.040396393176062e-7 -7.804340864394651e-7
          0 0 0 0 -4.164594817872474e-7 -4.222386337379765e-7
          -4.2974607819547827e-7 -4.259796342506055e-7 -8.328479317947136e-7 -8.446845303803774e-7 -8.594987438398551e-7 -8.518831588013589e-7
          0 0 0 -4.585879815834051e-7 -4.6128313392552696e-7 -4.618643850881322e-7
          -9.168743805767388e-7 -9.223245392715225e-7 -9.233321930376503e-7 0 -4.5632238935741247e-7 -9.128723157235145e-7
          0 0 0 -4.2820448049848866e-7 -4.17883275091434e-7 -4.319947645514204e-7
          -8.5678008743173e-7 -8.362648001630704e-7 -8.638665551697742e-7 0 0 0
          -4.553652583942638e-7 -4.490041783778003e-7 -4.480442072527223e-7 -9.101370770045443e-7 -8.977540537483967e-7 -8.959622938071761e-7
          0 0 0 -4.12981544886728e-7 -4.0865432973263795e-7 -3.969266613904503e-7
          -8.269204574558578e-7 -8.183244104850462e-7 -7.949239472842947e-7 0 0 -3.9396184517503177e-7
          -3.9094227840970913e-7 -7.888113771842352e-7 -7.827911771419732e-7 0 0 -3.6826585093212274e-7
          -3.5166864908127916e-7 -7.362162201514566e-7 -7.031239045150145e-7 0 -5.038347382410825e-7 -0.0000010063355358645236
          0 0 -4.366781666913973e-7 -4.3145383738816244e-7 -8.731792009174138e-7 -8.612075478733259e-7
          0 0 -4.3256329503184446e-7 -4.345400418158054e-7 -8.652156584407219e-7 -8.690826384160041e-7
          0 -4.303410628845255e-7 -8.607658485956167e-7 0 0 0
          0 -3.8412531776327414e-7 -3.97933329596073e-7 -3.99532427183151e-7 -3.873134984599805e-7 -7.686562532415991e-7
          -7.958882452876794e-7 -7.993972278987439e-7 -7.749252382344899e-7 0 -2.1947932307630053e-7 -4.3893948016255066e-7
          0 0 -2.0129568338179101e-7 -2.4983631728966293e-7 -4.027280420654792e-7 -4.997368941281654e-7
          0 0 -4.110426859861027e-7 -3.9771925482303146e-7 -8.230774035847206e-7 -7.964834510261184e-7
          0 -4.617931642101118e-7 -9.226449318151746e-7 0 0 -4.2500430367627883e-7
          -3.990547269909677e-7 -8.493530893142449e-7 -7.978540888413913e-7 0 0 0
          0 -4.0868619848358685e-7 -4.049367414831265e-7 -3.875368359324681e-7 -4.010608662449373e-7 -8.171376145659583e-7
          -8.094385499268488e-7 -7.746935649900849e-7 -8.019294288028084e-7 0 0 -4.531650305655237e-7
          -4.525740307051672e-7 -9.058440257299277e-7 -9.044352269855753e-7 0 0 0
          0 -4.2762193584431227e-7 -4.049453735337385e-7 -3.73762474672701e-7 -3.840503125556833e-7 -8.537701798757805e-7
          -8.088472395334419e-7 -7.473110883757893e-7 -7.677477038332242e-7 0 -4.4028643083199165e-7 -8.808286197987899e-7
          0 0 -3.8406361557791845e-7 -3.918301270029803e-7 -7.689608359037273e-7 -7.840756161853966e-7
          0 0 -4.1376627888673177e-7 -4.055536600604097e-7 -8.274814026222391e-7 -8.110455340605593e-7
          0 -4.261418099914223e-7 -8.530150476584934e-7 0 0 -4.3330726036586965e-7
          -4.317931649945676e-7 -8.667257162259276e-7 -8.636246286628059e-7 0 0 -4.289109864290548e-7
          -4.312297090229053e-7 -8.579613867252573e-7 -8.628147903725455e-7 0 0 -4.400772417290339e-7
          -4.4880403831401145e-7 -8.804979837623852e-7 -8.977093041474479e-7 0 -4.316860098995368e-7 -8.635234218307588e-7
          0 0 -4.1603872439219975e-7 -4.279864368522003e-7 -8.32336765137152e-7 -8.560289656660309e-7
          0 0 -4.4773028996904666e-7 -4.4078071712220993e-7 -8.956498501152243e-7 -8.814646087708646e-7
          0 0 0 -4.3692219667363016e-7 -4.197693570767385e-7 -4.442458075349155e-7
          -8.744552648662382e-7 -8.398640237527821e-7 -8.885779768585206e-7 0 -4.321815489715962e-7 -8.650381918447231e-7
          0 0 -4.022324178958185e-7 -4.0922804054110117e-7 -8.048099831001227e-7 -8.19054588720673e-7
          0 0 -4.3380040119647734e-7 -4.389234047341584e-7 -8.678633434085407e-7 -8.777493772251869e-7
          0 0 -3.334625352327529e-7 -3.811348919480354e-7 -6.668135206285774e-7 -7.623736726791347e-7
          0 0 -3.868888241222807e-7 -3.7986345776490893e-7 -7.744971618586098e-7 -7.602509406281776e-7
          0 0 0 -4.612454122897075e-7 -4.3156198877820516e-7 -4.5560023976008136e-7
          -9.219769363072312e-7 -8.633864402623551e-7 -9.110389331514889e-7 0 -4.544079893920636e-7 -9.086441375973149e-7
          0 -4.2760308314718394e-7 -8.553893671292172e-7 0 -4.7566492062860133e-7 -9.506705668210283e-7
          0 -4.29795229026283e-7 -8.603937700540512e-7 0 -4.3628199872847976e-7 -8.726339412828417e-7
          0 -3.8364537385905755e-7 -7.676961291961593e-7 0 -4.719499711747651e-7 -9.429018249524862e-7
          0 -4.5342029550479003e-7 -9.06931408313258e-7 0 0 -3.975256971094385e-7
          -4.116073603074589e-7 -7.971091336059506e-7 -8.252906880097089e-7 0 0 -3.89963300304893e-7
          -3.852794224909344e-7 -7.806042321147772e-7 -7.718014635290861e-7 0 -4.65320086399672e-7 -9.297696193110617e-7
          0 0 -3.6877867660638253e-7 -3.7651252317376216e-7 -7.387234827894024e-7 -7.537404060699133e-7
          0 0 -2.3593164922521298e-7 -1.8068677003108687e-7 -4.7279883065877e-7 -3.6150754795553634e-7
          0 -3.5883993893789575e-7 -7.171296887420894e-7 0 -4.489801217817825e-7 -8.98702885317839e-7
          0 0 -4.3160095567047014e-7 -4.4092698939279115e-7 -8.619580798444735e-7 -8.810944420875884e-7
          0 0 -3.8507351346673705e-7 -3.9947284879460015e-7 -7.705984014466497e-7 -7.991366092080253e-7
          0 -4.531808687430015e-7 -9.064151517315786e-7 0 -4.7478733422317745e-7 -9.490334363459107e-7
          0 -4.3813145233088717e-7 -8.760865469827129e-7 0 0 -3.7333003372630734e-7
          -3.724215879089245e-7 -7.476193895549116e-7 -7.455831445791606e-7 0 -4.3932925700804973e-7 -8.786409466518172e-7
          0 0 0 0 -4.648812880091753e-7 -4.667104573918389e-7
          -4.659624478085684e-7 -4.678997824270527e-7 -9.295600700646085e-7 -9.329970424945124e-7 -9.312370143209594e-7 -9.350135617078961e-7
          0 0 -4.1114785414607546e-7 -4.222694144589881e-7 -8.228116192898119e-7 -8.449293833489942e-7
          0 -4.4765766493836917e-7 -8.952686959469738e-7 0 0 -4.6145190581757946e-7
          -4.6515548935142556e-7 -9.223006979733741e-7 -9.297869374612232e-7 0 0 -4.378150598049583e-7
          -4.371113914877512e-7 -8.756869132914017e-7 -8.737282766224942e-7 0 -4.3897640104427933e-7 -8.778254456862308e-7
          0 -4.340360655266871e-7 -8.679310031491467e-7 0 -4.4638903581227147e-7 -8.916033943083614e-7
          0 0 -3.6976906498416615e-7 -3.656579202049542e-7 -7.405575618799318e-7 -7.328577930242329e-7
          0 -4.4500069160653456e-7 -8.891066860981606e-7 0 0 0
          -3.7547554294034797e-7 -3.2823147580261234e-7 -3.87283608572269e-7 -7.503143941655117e-7 -6.568381125906532e-7 -7.74021165739532e-7
          0 -4.3825365101349176e-7 -8.754880430990467e-7 0 0 0
          -4.305046298910319e-7 -4.5372996539465886e-7 -4.4368897224571145e-7 -8.609711085908752e-7 -9.071778230080791e-7 -8.866782601815246e-7
          0 -4.5973847868921784e-7 -9.194997940868177e-7 0 -4.32494613737241e-7 -8.651623175882203e-7
          0 -3.1229071912449125e-7 -6.238782805890572e-7 0 -4.1436896754535256e-7 -8.289424730650702e-7
          0 0 -4.5950900704794954e-7 -4.6514961094636325e-7 -9.180107360181186e-7 -9.293913459685514e-7
          0 -4.2507708000527346e-7 -8.498095913421333e-7 0 0 -3.7592736957571447e-7
          -3.7732977514275156e-7 -7.527767579662328e-7 -7.554442946774351e-7 0 0 -4.5584358008649143e-7
          -4.4782954045917966e-7 -9.106705212861467e-7 -8.955967286778677e-7 0 0 -4.3476823112213284e-7
          -4.162140394949324e-7 -8.680068269927048e-7 -8.313470921016298e-7 0 0 -3.368019482054526e-7
          -3.6793497095799666e-7 -6.741122782614951e-7 -7.358293477232471e-7 0 0 0
          -4.505793098406024e-7 -4.4682507449790096e-7 -4.330173759845789e-7 -9.012189646341169e-7 -8.929942398449239e-7 -8.656053145901099e-7
          0 -3.9724181635329606e-7 -7.938107273007172e-7 0 -4.1564728172860904e-7 -8.310082895268024e-7
          0 -4.5486179668416274e-7 -9.094097611738523e-7 0 -2.9592322776884236e-7 -5.914902176858952e-7
          0 0 0 -3.6019853205644027e-7 -3.301713837861269e-7 -3.5568870319711434e-7
          -7.201840204373381e-7 -6.602214163224644e-7 -7.110494709433707e-7 0 -3.906763680742781e-7 -7.822384207441066e-7
          0 -3.50384743773521e-7 -7.011619855910445e-7 0 0 -3.127457725281975e-7
          -2.832368178312782e-7 -6.263109491653589e-7 -5.665100450507248e-7 0 -3.029933257505828e-7 -6.062042637432169e-7
          0 -3.5430962437369237e-7 -7.088973729766709e-7 0 -2.5455208292913304e-7 -5.120229866417511e-7
          0 -2.8063878474621526e-7 -5.554840126860828e-7 0 -2.026761345928964e-7 -4.0810511716170186e-7
          0 -1.1786847711129362e-7 -2.3651744412136992e-7 0 0 -1.0592151382292526e-7
          -1.1095222872996928e-7 -2.1217729609466315e-7 -2.223119903765035e-7 0 0 -5.470878294663224e-8
          -4.765233127357931e-8 -1.0960442265860017e-7 -9.543356187159766e-8 0 0 -5.127449756400644e-8
          -4.822511679594629e-8 -1.0275142646425139e-7 -9.664045549853173e-8 0 -1.396412765768514e-7 -2.793699535917339e-7
          0 -7.850456491893302e-8 -1.5723078033078758e-7 0 -4.847980164306226e-8 -9.71978117099257e-8
          0 -1.645685848889935e-7 -3.290072141564381e-7 0 -1.130167493695972e-7 -2.26124796265394e-7
          0 -6.428813668375941e-8 -1.2890654699825805e-7 0 -1.915821909615823e-7 -3.831776900976428e-7
          0 -1.459550368852304e-7 -2.918270311742887e-7 0 -1.0103649581483425e-7 -2.0225463740667684e-7
          0 -1.8078037564483805e-7 -3.614748287676336e-7 0 -1.3737933282802946e-7 -2.747782973772852e-7
          0 -2.116041141393764e-7 -4.2308850240717306e-7 0 -1.783577806810656e-7 -3.565500614963072e-7
          0 -2.421608118339852e-7 -4.841374834207651e-7 0 -2.1629782361362832e-7 -4.3247171091396964e-7
          0 -2.6262394310035944e-7 -5.251118444697882e-7 0 -2.478447825181839e-7 -4.955611424383215e-7
          0 -2.7508544712393766e-7 -5.50169780928442e-7 0 -2.937653849095651e-7 -5.873928556653457e-7
          0 0 -6.498329900013582e-8 -6.473008462123314e-8 -1.2994103102794705e-7 -1.293134751283594e-7
          0 -5.910639050675967e-8 -1.1818641108660638e-7 0 -5.735169557915922e-8 -1.1488820648218014e-7
          0 -6.240091243879743e-8 -1.2497274901787992e-7 0 -9.557593360985983e-8 -1.9129746465170113e-7
          0 0 -3.0808007652769523e-7 -3.273234377882877e-7 -6.165248872012196e-7 -6.549723761746632e-7
          0 0 0 -2.3360834850892913e-7 -2.579991834568001e-7 -2.535639526308271e-7
          -4.6715526563499904e-7 -5.159091990027733e-7 -5.070294797917691e-7 0 -3.894765224490655e-7 -7.787343124842349e-7
          0 -3.5862524569440474e-7 -7.171580920193372e-7 0 -2.8074076753289986e-7 -5.617116447932493e-7
          0 -2.144996319325661e-7 -4.289158040815228e-7 0 -2.3290773578607858e-7 -4.657177378372553e-7
          0 -2.426275402676912e-7 -4.852047671642463e-7 0 -2.498649666857767e-7 -4.996613658105076e-7
          0 -2.595060596554162e-7 -5.191591744469028e-7 0 0 -6.066281338947316e-8
          -6.076743380091435e-8 -1.2130172025958595e-7 -1.2152430004930825e-7 0 -6.36245889525072e-8 -1.2719104718226791e-7
          0 -6.5810930318102e-8 -1.3157716246490207e-7 0 -5.8953280829473235e-8 -1.1800497540293574e-7
          0 -5.751748449272775e-8 -1.153736023083759e-7 0 -1.300265774400023e-7 -2.6006785926284024e-7
          0 -7.96903769127652e-8 -1.595879023391294e-7 0 -1.711111077526643e-7 -3.421952813038584e-7
          0 -2.1192441403796304e-7 -4.237552055202862e-7 0 -2.7754583506415944e-7 -5.549476806336857e-7
        </DataArray>
      </PointData>
      <CellData>
        <DataArray type="Int32" Name="libmesh_elem_id" format="ascii" RangeMin="1386" RangeMax="3465">
          1386 1387 1390 1391 1394 1395
          1400 1401 1406 1407 1410 1411
          1420 1421 1424 1425 1426 1427
          1432 1433 1436 1437 1444 1445
          1446 1447 1450 1451 1462 1463
          1466 1467 1474 1475 1498 1499
          1504 1505 1508 1509 1514 1515
          1524 1525 1526 1527 1530 1531
          1540 1541 1550 1551 1552 1553
          1554 1555 1578 1579 1588 1589
          1592 1593 1594 1595 1596 1597
          1598 1599 1600 1601 1606 1607
          1662 1663 1698 1699 1702 1703
          1712 1713 1726 1727 1730 1731
          1734 1735 1748 1749 1752 1753
          1774 1775 1778 1779 1834 1835
          1854 1855 1872 1873 1892 1893
          1894 1895 1896 1897 1902 1903
          1914 1915 1920 1921 1922 1923
          1932 1933 1942 1943 1944 1945
          1988 1989 2000 2001 2010 2011
          2024 2025 2070 2071 2100 2101
          2112 2113 2132 2133 2140 2141
          2150 2151 2166 2167 2206 2207
          2218 2219 2238 2239 2242 2243
          2244 2245 2256 2257 2258 2259
          2268 2269 2278 2279 2284 2285
          2306 2307 2334 2335 2340 2341
          2360 2361 2372 2373 2392 2393
          2396 2397 2398 2399 2418 2419
          2422 2423 2426 2427 2432 2433
          2434 2435 2436 2437 2476 2477
          2480 2481 2482 2483 2518 2519
          2534 2535 2540 2541 2542 2543
          2546 2547 2556 2557 2562 2563
          2568 2569 2574 2575 2584 2585
          2588 2589 2598 2599 2612 2613
          2638 2639 2656 2657 2664 2665
          2678 2679 2682 2683 2702 2703
          2704 2705 2708 2709 2720 2721
          2724 2725 2734 2735 2738 2739
          2742 2743 2746 2747 2774 2775
          2788 2789 2790 2791 2804 2805
          2806 2807 2834 2835 2840 2841
          2844 2845 2850 2851 2854 2855
          2858 2859 2872 2873 2888 2889
          2892 2893 2896 2897 2908 2909
          2912 2913 2916 2917 2918 2919
          2924 2925 2932 2933 2944 2945
          2972 2973 2984 2985 2996 2997
          3000 3001 3002 3003 3022 3023
          3024 3025 3030 3031 3032 3033
          3044 3045 3048 3049 3080 3081
          3092 3093 3108 3109 3120 3121
          3130 3131 3136 3137 3140 3141
          3142 3143 3146 3147 3150 3151
          3160 3161 3162 3163 3164 3165
          3170 3171 3172 3173 3174 3175
          3178 3179 3186 3187 3188 3189
          3198 3199 3216 3217 3218 3219
          3228 3229 3232 3233 3238 3239
          3242 3243 3246 3247 3250 3251
          3256 3257 3260 3261 3262 3263
          3266 3267 3268 3269 3270 3271
          3272 3273 3274 3275 3276 3277
          3278 3279 3280 3281 3282 3283
          3284 3285 3286 3287 3288 3289
          3290 3291 3292 3293 3294 3295
          3298 3299 3300 3301 3304 3305
          3306 3307 3310 3311 3312 3313
          3316 3317 3318 3319 3320 3321
          3322 3323 3338 3339 3340 3341
          3356 3357 3358 3359 3374 3375
          3376 3377 3392 3393 3394 3395
          3410 3411 3412 3413 3428 3429
          3446 3447 3464 3465
        </DataArray>
        <DataArray type="Int32" Name="subdomain_id" format="ascii" RangeMin="107" RangeMax="109">
          107 107 107 107 107 107
          107 107 107 107 107 107
          107 107 107 107 107 107
          107 107 107 107 107 107
          107 107 107 107 107 107
          107 107 107 107 107 107
          107 107 107 107 107 107
          107 107 107 107 107 107
          107 107 107 107 107 107
          107 107 107 107 107 107
          107 107 107 107 107 107
          107 107 107 107 107 107
          107 107 107 107 107 107
          107 107 107 107 107 107
          107 107 107 107 107 107
          107 107 107 107 107 107
          107 107 107 107 107 107
          107 107 107 107 107 107
          107 107 107 107 107 107
          107 107 107 107 107 107
          107 107 107 107 107 107
          107 107 107 107 107 107
          107 107 107 107 107 107
          107 107 107 107 107 107
          107 107 107 107 107 107
          107 107 107 107 107 107
          107 107 107 107 107 107
          107 107 107 107 107 107
          107 107 107 107 107 107
          107 107 107 107 107 107
          107 107 107 107 107 107
          107 107 107 107 107 107
          107 107 107 107 107 107
          107 107 107 107 107 107
          107 107 107 107 107 107
          107 107 107 107 107 107
          107 107 107 107 107 107
          107 107 107 107 107 107
          107 107 107 107 107 107
          107 107 107 107 107 107
          107 107 107 107 107 107
          107 107 107 107 107 107
          107 107 107 107 107 107
          107 107 107 107 107 107
          107 107 107 107 107 107
          107 107 107 107 107 107
          107 107 107 107 107 107
          107 107 107 107 107 107
          107 107 107 107 107 107
          107 107 107 107 107 107
          107 107 107 107 107 107
          107 107 107 107 107 107
          107 107 107 107 107 107
          107 107 107 107 107 107
          107 107 107 107 107 107
          107 107 107 107 107 107
          107 107 107 107 107 107
          107 107 107 107 107 107
          107 107 107 107 107 107
          107 107 107 107 107 107
          107 107 107 107 107 107
          107 107 107 107 107 107
          107 107 107 107 107 107
          108 108 108 108 108 108
          108 108 108 108 108 108
          108 108 108 108 108 108
          108 108 108 108 108 108
          108 108 108 108 108 108
          108 108 108 108 108 108
          108 108 108 108 108 108
          108 108 108 108 109 109
          109 109 109 109 109 109
          109 109 109 109 109 109
          109 109 109 109 109 109
          109 109 109 109 109 109
          109 109 109 109
        </DataArray>
        <DataArray type="Int32" Name="processor_id" format="ascii" RangeMin="1" RangeMax="1">
          1 1 1 1 1 1
          1 1 1 1 1 1
          1 1 1 1 1 1
          1 1 1 1 1 1
          1 1 1 1 1 1
          1 1 1 1 1 1
          1 1 1 1 1 1
          1 1 1 1 1 1
          1 1 1 1 1 1
          1 1 1 1 1 1
          1 1 1 1 1 1
          1 1 1 1 1 1
          1 1 1 1 1 1
          1 1 1 1 1 1
          1 1 1 1 1 1
          1 1 1 1 1 1
          1 1 1 1 1 1
          1 1 1 1 1 1
          1 1 1 1 1 1
          1 1 1 1 1 1
          1 1 1 1 1 1
          1 1 1 1 1 1
          1 1 1 1 1 1
          1 1 1 1 1 1
          1 1 1 1 1 1
          1 1 1 1 1 1
          1 1 1 1 1 1
          1 1 1 1 1 1
          1 1 1 1 1 1
          1 1 1 1 1 1
          1 1 1 1 1 1
          1 1 1 1 1 1
          1 1 1 1 1 1
          1 1 1 1 1 1
          1 1 1 1 1 1
          1 1 1 1 1 1
          1 1 1 1 1 1
          1 1 1 1 1 1
          1 1 1 1 1 1
          1 1 1 1 1 1
          1 1 1 1 1 1
          1 1 1 1 1 1
          1 1 1 1 1 1
          1 1 1 1 1 1
          1 1 1 1 1 1
          1 1 1 1 1 1
          1 1 1 1 1 1
          1 1 1 1 1 1
          1 1 1 1 1 1
          1 1 1 1 1 1
          1 1 1 1 1 1
          1 1 1 1 1 1
          1 1 1 1 1 1
          1 1 1 1 1 1
          1 1 1 1 1 1
          1 1 1 1 1 1
          1 1 1 1 1 1
          1 1 1 1 1 1
          1 1 1 1 1 1
          1 1 1 1 1 1
          1 1 1 1 1 1
          1 1 1 1 1 1
          1 1 1 1 1 1
          1 1 1 1 1 1
          1 1 1 1 1 1
          1 1 1 1 1 1
          1 1 1 1 1 1
          1 1 1 1 1 1
          1 1 1 1 1 1
          1 1 1 1 1 1
          1 1 1 1 1 1
          1 1 1 1 1 1
          1 1 1 1 1 1
          1 1 1 1 1 1
          1 1 1 1 1 1
          1 1 1 1
        </DataArray>
      </CellData>
      <Points>
        <DataArray type="Float64" Name="Points" NumberOfComponents="3" format="ascii" RangeMin="0.011720201602553146" RangeMax="0.03445906060790294">
          0.012969222910182 0.0014853020742274 0 0.012627852011276 0.0016898182928561 0
          0.01236786906931 0.0013587217336166 0 0.012783325134333 0.0011067100297067 0
          0.012969222910182 0.0014853020742274 0.00015 0.012627852011276 0.0016898182928561 0.00015
          0.01236786906931 0.0013587217336166 0.00015 0.012783325134333 0.0011067100297067 0.00015
          0.012969222910182 0.0014853020742274 0.0003 0.012627852011276 0.0016898182928561 0.0003
          0.01236786906931 0.0013587217336166 0.0003 0.012783325134333 0.0011067100297067 0.0003
          0.017563073004652 0.0017425656775748 0 0.017044554764736 0.0015497457581888 0
          0.017260149731535 0.0011385367421141 0 0.017760141546291 0.0012815461285561 0
          0.017563073004652 0.0017425656775748 0.00015 0.017044554764736 0.0015497457581888 0.00015
          0.017260149731535 0.0011385367421141 0.00015 0.017760141546291 0.0012815461285561 0.00015
          0.017563073004652 0.0017425656775748 0.0003 0.017044554764736 0.0015497457581888 0.0003
          0.017260149731535 0.0011385367421141 0.0003 0.017760141546291 0.0012815461285561 0.0003
          0.023776898874178 0.0022456328082928 0 0.023504823460796 0.0016933718681226 0
          0.023764932341086 0.0012053538973125 0 0.025 0.0014444444444417 0
          0.023776898874178 0.0022456328082928 0.00015 0.023504823460796 0.0016933718681226 0.00015
          0.023764932341086 0.0012053538973125 0.00015 0.025 0.0014444444444417 0.00015
          0.023776898874178 0.0022456328082928 0.0003 0.023504823460796 0.0016933718681226 0.0003
          0.023764932341086 0.0012053538973125 0.0003 0.025 0.0014444444444417 0.0003
          0.014128459199836 0.0039835282877348 0 0.014611363502717 0.0036877867763913 0
          0.015005639561329 0.0040763460944633 0 0.014554004584986 0.0044253882271801 0
          0.014128459199836 0.0039835282877348 0.00015 0.014611363502717 0.0036877867763913 0.00015
          0.015005639561329 0.0040763460944633 0.00015 0.014554004584986 0.0044253882271801 0.00015
          0.014128459199836 0.0039835282877348 0.0003 0.014611363502717 0.0036877867763913 0.0003
          0.015005639561329 0.0040763460944633 0.0003 0.014554004584986 0.0044253882271801 0.0003
          0.019696280766899 0.00050763342021358 0 0.019550033943553 0.0010320458815065 0
          0.01900444612813 0.00098950685152215 0 0.019158982336274 0.00048623495360749 0
          0.019696280766899 0.00050763342021358 0.00015 0.019550033943553 0.0010320458815065 0.00015
          0.01900444612813 0.00098950685152215 0.00015 0.019158982336274 0.00048623495360749 0.00015
          0.019696280766899 0.00050763342021358 0.0003 0.019550033943553 0.0010320458815065 0.0003
          0.01900444612813 0.00098950685152215 0.0003 0.019158982336274 0.00048623495360749 0.0003
          0.014859009547347 0.0018414606933245 0 0.015407964407671 0.0020438178723745 0
          0.01515544156871 0.0026588338800995 0 0.014598102610542 0.0022982704245768 0
          0.014859009547347 0.0018414606933245 0.00015 0.015407964407671 0.0020438178723745 0.00015
          0.01515544156871 0.0026588338800995 0.00015 0.014598102610542 0.0022982704245768 0.00015
          0.014859009547347 0.0018414606933245 0.0003 0.015407964407671 0.0020438178723745 0.0003
          0.01515544156871 0.0026588338800995 0.0003 0.014598102610542 0.0022982704245768 0.0003
          0.018126604709057 0.0019215066283495 0 0.017910174904861 0.0024312076221655 0
          0.017342980714859 0.0022157520731189 0 0.018126604709057 0.0019215066283495 0.00015
          0.017910174904861 0.0024312076221655 0.00015 0.017342980714859 0.0022157520731189 0.00015
          0.018126604709057 0.0019215066283495 0.0003 0.017910174904861 0.0024312076221655 0.0003
          0.017342980714859 0.0022157520731189 0.0003 0.015995561521593 0.0022418351865966 0
          0.01581460170494 0.0027743126456578 0 0.015995561521593 0.0022418351865966 0.00015
          0.01581460170494 0.0027743126456578 0.00015 0.015995561521593 0.0022418351865966 0.0003
          0.01581460170494 0.0027743126456578 0.0003 0.021203243478062 0.0026574159093233 0
          0.020454986610371 0.0022211941162512 0 0.020632218270446 0.001642443645643 0
          0.021442904813338 0.0016925342242502 0 0.021203243478062 0.0026574159093233 0.00015
          0.020454986610371 0.0022211941162512 0.00015 0.020632218270446 0.001642443645643 0.00015
          0.021442904813338 0.0016925342242502 0.00015 0.021203243478062 0.0026574159093233 0.0003
          0.020454986610371 0.0022211941162512 0.0003 0.020632218270446 0.001642443645643 0.0003
          0.021442904813338 0.0016925342242502 0.0003 0.015000171033694 0.0033600360828681 0
          0.015396645228865 0.0036775895732469 0 0.015000171033694 0.0033600360828681 0.00015
          0.015396645228865 0.0036775895732469 0.00015 0.015000171033694 0.0033600360828681 0.0003
          0.015396645228865 0.0036775895732469 0.0003 0.016564676280502 0.0024636417082771 0
          0.016363912484153 0.0029730068966809 0 0.016564676280502 0.0024636417082771 0.00015
          0.016363912484153 0.0029730068966809 0.00015 0.016564676280502 0.0024636417082771 0.0003
          0.016363912484153 0.0029730068966809 0.0003 0.023072410624366 0.001035238244058 0
          0.023303887517976 0.00051385162283572 0 0.023907474886085 0.00057797945625648 0
          0.023072410624366 0.001035238244058 0.00015 0.023303887517976 0.00051385162283572 0.00015
          0.023907474886085 0.00057797945625648 0.00015 0.023072410624366 0.001035238244058 0.0003
          0.023303887517976 0.00051385162283572 0.0003 0.023907474886085 0.00057797945625648 0.0003
          0.014126846853415 0.0020250855845452 0 0.014376196219822 0.0016213258676016 0
          0.014126846853415 0.0020250855845452 0.00015 0.014376196219822 0.0016213258676016 0.00015
          0.014126846853415 0.0020250855845452 0.0003 0.014376196219822 0.0016213258676016 0.0003
          0.018981322625637 0.0048047339747308 0 0.018357141436072 0.0045551651420339 0
          0.018591751365599 0.0039752866369835 0 0.01916753543825 0.0042045163914746 0
          0.018981322625637 0.0048047339747308 0.00015 0.018357141436072 0.0045551651420339 0.00015
          0.018591751365599 0.0039752866369835 0.00015 0.01916753543825 0.0042045163914746 0.00015
          0.018981322625637 0.0048047339747308 0.0003 0.018357141436072 0.0045551651420339 0.0003
          0.018591751365599 0.0039752866369835 0.0003 0.01916753543825 0.0042045163914746 0.0003
          0.018733892370512 0.0020905204418308 0 0.018302277235643 0.001411928503633 0
          0.018878430913296 0.0015272195647153 0 0.018733892370512 0.0020905204418308 0.00015
          0.018302277235643 0.001411928503633 0.00015 0.018878430913296 0.0015272195647153 0.00015
          0.018733892370512 0.0020905204418308 0.0003 0.018302277235643 0.001411928503633 0.0003
          0.018878430913296 0.0015272195647153 0.0003 0.015535554193674 0.0045828394817383 0
          0.015535554193674 0.0045828394817383 0.00015 0.015535554193674 0.0045828394817383 0.0003
          0.017780760549951 0.0042442262797048 0 0.018018112537919 0.0052480329433742 0
          0.017497318700769 0.0047182001999379 0 0.017780760549951 0.0042442262797048 0.00015
          0.018018112537919 0.0052480329433742 0.00015 0.017497318700769 0.0047182001999379 0.00015
          0.017780760549951 0.0042442262797048 0.0003 0.018018112537919 0.0052480329433742 0.0003
          0.017497318700769 0.0047182001999379 0.0003 0.019494677591535 0.00226139088066 0
          0.019117853172676 0.0029004952170283 0 0.018505903140776 0.002650294613165 0
          0.019494677591535 0.00226139088066 0.00015 0.019117853172676 0.0029004952170283 0.00015
          0.018505903140776 0.002650294613165 0.00015 0.019494677591535 0.00226139088066 0.0003
          0.019117853172676 0.0029004952170283 0.0003 0.018505903140776 0.002650294613165 0.0003
          0.013829014690192 0.0024142080164891 0 0.013458574547778 0.0021218274131508 0
          0.013711742209243 0.0017918189860839 0 0.013829014690192 0.0024142080164891 0.00015
          0.013458574547778 0.0021218274131508 0.00015 0.013711742209243 0.0017918189860839 0.00015
          0.013829014690192 0.0024142080164891 0.0003 0.013458574547778 0.0021218274131508 0.0003
          0.013711742209243 0.0017918189860839 0.0003 0.0133672983588 0.0013583262253912 0
          0.013268156677071 0.00095273786274694 0 0.0133672983588 0.0013583262253912 0.00015
          0.013268156677071 0.00095273786274694 0.00015 0.0133672983588 0.0013583262253912 0.0003
          0.013268156677071 0.00095273786274694 0.0003 0.020151989638292 0.0057951577471947 0
          0.020929132214341 0.005368110675239 0 0.020151989638292 0.0057951577471947 0.00015
          0.020929132214341 0.005368110675239 0.00015 0.020151989638292 0.0057951577471947 0.0003
          0.020929132214341 0.005368110675239 0.0003 0.011634800364854 0.0014122839921498 0
          0.011634800364854 0.0014122839921498 0.00015 0.011634800364854 0.0014122839921498 0.0003
          0.020690070611507 0.0010537467946972 0 0.021241463234904 0.0010007048777636 0
          0.020690070611507 0.0010537467946972 0.00015 0.021241463234904 0.0010007048777636 0.00015
          0.020690070611507 0.0010537467946972 0.0003 0.021241463234904 0.0010007048777636 0.0003
          0.01690585017332 0.0031962434076044 0 0.017120511962154 0.0027019865785896 0
          0.01690585017332 0.0031962434076044 0.00015 0.017120511962154 0.0027019865785896 0.00015
          0.01690585017332 0.0031962434076044 0.0003 0.017120511962154 0.0027019865785896 0.0003
          0.016801656731456 0.0019822328720047 0 0.016801656731456 0.0019822328720047 0.00015
          0.016801656731456 0.0019822328720047 0.0003 0.015193226280812 0.00045041659473928 0
          0.015698309574236 0.00047366638839958 0 0.015648437383567 0.00097128418016613 0
          0.015127663000402 0.00090574444628299 0 0.015193226280812 0.00045041659473928 0.00015
          0.015698309574236 0.00047366638839958 0.00015 0.015648437383567 0.00097128418016613 0.00015
          0.015127663000402 0.00090574444628299 0.00015 0.015193226280812 0.00045041659473928 0.0003
          0.015698309574236 0.00047366638839958 0.0003 0.015648437383567 0.00097128418016613 0.0003
          0.015127663000402 0.00090574444628299 0.0003 0.025 0.0057777777777625 0
          0.025 0.0057777777777625 0.00015 0.025 0.0057777777777625 0.0003
          0.025 0.0043333333333224 0 0.023896353247243 0.0043894596145303 0
          0.025 0.0043333333333224 0.00015 0.023896353247243 0.0043894596145303 0.00015
          0.025 0.0043333333333224 0.0003 0.023896353247243 0.0043894596145303 0.0003
          0.013179014717582 0.001822526704721 0 0.013420070576712 0.0016525675047962 0
          0.013179014717582 0.001822526704721 0.00015 0.013420070576712 0.0016525675047962 0.00015
          0.013179014717582 0.001822526704721 0.0003 0.013420070576712 0.0016525675047962 0.0003
          0.01946472134525 0.0015844882179861 0 0.01946472134525 0.0015844882179861 0.00015
          0.01946472134525 0.0015844882179861 0.0003 0.019738918970445 0.0042679072806348 0
          0.019737200842686 0.0050366958134185 0 0.019738918970445 0.0042679072806348 0.00015
          0.019737200842686 0.0050366958134185 0.00015 0.019738918970445 0.0042679072806348 0.0003
          0.019737200842686 0.0050366958134185 0.0003 0.018801022408002 0.0054477015438504 0
          0.019301386887175 0.0055580415356932 0 0.019427042946373 0.0060730727381959 0
          0.018733542944404 0.0061279994653871 0 0.018801022408002 0.0054477015438504 0.00015
          0.019301386887175 0.0055580415356932 0.00015 0.019427042946373 0.0060730727381959 0.00015
          0.018733542944404 0.0061279994653871 0.00015 0.018801022408002 0.0054477015438504 0.0003
          0.019301386887175 0.0055580415356932 0.0003 0.019427042946373 0.0060730727381959 0.0003
          0.018733542944404 0.0061279994653871 0.0003 0.020038894590203 0.0015918984718873 0
          0.020014763899096 0.0020069766457038 0 0.020038894590203 0.0015918984718873 0.00015
          0.020014763899096 0.0020069766457038 0.00015 0.020038894590203 0.0015918984718873 0.0003
          0.020014763899096 0.0020069766457038 0.0003 0.02163606673442 0.0008902471917336 0
          0.021744201350165 0.00049421716196859 0 0.022190644598282 0.0005058615377216 0
          0.021944604947084 0.0011684672971015 0 0.02163606673442 0.0008902471917336 0.00015
          0.021744201350165 0.00049421716196859 0.00015 0.022190644598282 0.0005058615377216 0.00015
          0.021944604947084 0.0011684672971015 0.00015 0.02163606673442 0.0008902471917336 0.0003
          0.021744201350165 0.00049421716196859 0.0003 0.022190644598282 0.0005058615377216 0.0003
          0.021944604947084 0.0011684672971015 0.0003 0.015913060403389 0.0039637658470315 0
          0.015913060403389 0.0039637658470315 0.00015 0.015913060403389 0.0039637658470315 0.0003
          0.014558693053864 0.0012292895498017 0 0.015031644896308 0.0013689537442351 0
          0.014558693053864 0.0012292895498017 0.00015 0.015031644896308 0.0013689537442351 0.00015
          0.014558693053864 0.0012292895498017 0.0003 0.015031644896308 0.0013689537442351 0.0003
          0.018057579772584 0.0060827128421873 0 0.018070157245618 0.0068021820766994 0
          0.018057579772584 0.0060827128421873 0.00015 0.018070157245618 0.0068021820766994 0.00015
          0.018057579772584 0.0060827128421873 0.0003 0.018070157245618 0.0068021820766994 0.0003
          0.017413401850906 0.0060417176080878 0 0.017413401850906 0.0060417176080878 0.00015
          0.017413401850906 0.0060417176080878 0.0003 0.016169389215855 0.0034677229039223 0
          0.015655980876909 0.003250339095381 0 0.016169389215855 0.0034677229039223 0.00015
          0.015655980876909 0.003250339095381 0.00015 0.016169389215855 0.0034677229039223 0.0003
          0.015655980876909 0.003250339095381 0.0003 0.014652329158707 0.0030238496825634 0
          0.015285307382498 0.0031101507370722 0 0.014652329158707 0.0030238496825634 0.00015
          0.015285307382498 0.0031101507370722 0.00015 0.014652329158707 0.0030238496825634 0.0003
          0.015285307382498 0.0031101507370722 0.0003 0.016487808895433 0.0042010147125967 0
          0.016291762387835 0.0047307906783276 0 0.016487808895433 0.0042010147125967 0.00015
          0.016291762387835 0.0047307906783276 0.00015 0.016487808895433 0.0042010147125967 0.0003
          0.016291762387835 0.0047307906783276 0.0003 0.017341722495578 0.0054175123203669 0
          0.017341722495578 0.0054175123203669 0.00015 0.017341722495578 0.0054175123203669 0.0003
          0.016251164393845 0.0016133033435965 0 0.016687160352932 0.001374608348519 0
          0.016251164393845 0.0016133033435965 0.00015 0.016687160352932 0.001374608348519 0.00015
          0.016251164393845 0.0016133033435965 0.0003 0.016687160352932 0.001374608348519 0.0003
          0.01678493258985 0.0053840721103251 0 0.016848637368385 0.0048798435935376 0
          0.01678493258985 0.0053840721103251 0.00015 0.016848637368385 0.0048798435935376 0.00015
          0.01678493258985 0.0053840721103251 0.0003 0.016848637368385 0.0048798435935376 0.0003
          0.013915703094631 0.0030656560250288 0 0.01425441565673 0.0027053116394345 0
          0.014277331184122 0.0033493109511997 0 0.013915703094631 0.0030656560250288 0.00015
          0.01425441565673 0.0027053116394345 0.00015 0.014277331184122 0.0033493109511997 0.00015
          0.013915703094631 0.0030656560250288 0.0003 0.01425441565673 0.0027053116394345 0.0003
          0.014277331184122 0.0033493109511997 0.0003 0.013503308513005 0.0027817056572273 0
          0.013503308513005 0.0027817056572273 0.00015 0.013503308513005 0.0027817056572273 0.0003
          0.015571407447371 0.001500509245043 0 0.016188320748251 0.0009824473909215 0
          0.015571407447371 0.001500509245043 0.00015 0.016188320748251 0.0009824473909215 0.00015
          0.015571407447371 0.001500509245043 0.0003 0.016188320748251 0.0009824473909215 0.0003
          0.017456683820944 0.0034405145363726 0 0.017671289470578 0.0029336357035204 0
          0.017456683820944 0.0034405145363726 0.00015 0.017671289470578 0.0029336357035204 0.00015
          0.017456683820944 0.0034405145363726 0.0003 0.017671289470578 0.0029336357035204 0.0003
          0.022716879195272 0.001694170750475 0 0.022069698771397 0.0020298487038736 0
          0.022716879195272 0.001694170750475 0.00015 0.022069698771397 0.0020298487038736 0.00015
          0.022716879195272 0.001694170750475 0.0003 0.022069698771397 0.0020298487038736 0.0003
          0.013893710777701 0.0013389894450257 0 0.014229820502632 0.0011148528015907 0
          0.013893710777701 0.0013389894450257 0.00015 0.014229820502632 0.0011148528015907 0.00015
          0.013893710777701 0.0013389894450257 0.0003 0.014229820502632 0.0011148528015907 0.0003
          0.012674188674928 0.0028095410694266 0 0.013119330518162 0.0024349279719224 0
          0.013248150362312 0.0031919567697963 0 0.012674188674928 0.0028095410694266 0.00015
          0.013119330518162 0.0024349279719224 0.00015 0.013248150362312 0.0031919567697963 0.00015
          0.012674188674928 0.0028095410694266 0.0003 0.013119330518162 0.0024349279719224 0.0003
          0.013248150362312 0.0031919567697963 0.0003 0.012451479243686 0.0021914486022899 0
          0.012451479243686 0.0021914486022899 0.00015 0.012451479243686 0.0021914486022899 0.0003
          0.016782084774574 0.00093367828557597 0 0.016782084774574 0.00093367828557597 0.00015
          0.016782084774574 0.00093367828557597 0.0003 0.013121586466294 0.0036708577033715 0
          0.013121586466294 0.0036708577033715 0.00015 0.013121586466294 0.0036708577033715 0.0003
          0.012837862818801 0.0020433604618052 0 0.012837862818801 0.0020433604618052 0.00015
          0.012837862818801 0.0020433604618052 0.0003 0.016706746155521 0.0036970402910047 0
          0.016706746155521 0.0036970402910047 0.00015 0.016706746155521 0.0036970402910047 0.0003
          0.013749164985008 0.00086088989331873 0 0.013749164985008 0.00086088989331873 0.00015
          0.013749164985008 0.00086088989331873 0.0003 0.012096711335481 0.0017058387426491 0
          0.012096711335481 0.0017058387426491 0.00015 0.012096711335481 0.0017058387426491 0.0003
          0.013693266362936 0.0034326845509566 0 0.013693266362936 0.0034326845509566 0.00015
          0.013693266362936 0.0034326845509566 0.0003 0.012692307692288 0 0
          0.012542896420733 0.00061304595643839 0 0.012692307692288 0 0.00015
          0.012542896420733 0.00061304595643839 0.00015 0.012692307692288 0 0.0003
          0.012542896420733 0.00061304595643839 0.0003 0.013205128205107 0 0
          0.013181655749567 0.00048421972568225 0 0.013205128205107 0 0.00015
          0.013181655749567 0.00048421972568225 0.00015 0.013205128205107 0 0.0003
          0.013181655749567 0.00048421972568225 0.0003 0.012087580163866 0.0010424427844857 0
          0.012087580163866 0.0010424427844857 0.00015 0.012087580163866 0.0010424427844857 0.0003
          0.013717948717925 0 0 0.013709151553936 0.00043508888993868 0
          0.013717948717925 0 0.00015 0.013709151553936 0.00043508888993868 0.00015
          0.013717948717925 0 0.0003 0.013709151553936 0.00043508888993868 0.0003
          0.023934294716764 0.0032087575652495 0 0.025 0.0028888888888822 0
          0.023934294716764 0.0032087575652495 0.00015 0.025 0.0028888888888822 0.00015
          0.023934294716764 0.0032087575652495 0.0003 0.025 0.0028888888888822 0.0003
          0.022119784948444 0.002618759724243 0 0.022119784948444 0.002618759724243 0.00015
          0.022119784948444 0.002618759724243 0.0003 0.012384518900215 0.0018567382086698 0
          0.012384518900215 0.0018567382086698 0.00015 0.012384518900215 0.0018567382086698 0.0003
          0.021279978971931 0.00049482730399591 0 0.020757556768826 0.00050973095909409 0
          0.021279978971931 0.00049482730399591 0.00015 0.020757556768826 0.00050973095909409 0.00015
          0.021279978971931 0.00049482730399591 0.0003 0.020757556768826 0.00050973095909409 0.0003
          0.015256410256382 0 0 0.015769230769205 0 0
          0.015256410256382 0 0.00015 0.015769230769205 0 0.00015
          0.015256410256382 0 0.0003 0.015769230769205 0 0.0003
          0.014025581742285 0.0035717972510793 0 0.014025581742285 0.0035717972510793 0.00015
          0.014025581742285 0.0035717972510793 0.0003 0.013590285783394 0.0038446716816234 0
          0.013590285783394 0.0038446716816234 0.00015 0.013590285783394 0.0038446716816234 0.0003
          0.017243082343815 0.0050067004105205 0 0.017243082343815 0.0050067004105205 0.00015
          0.017243082343815 0.0050067004105205 0.0003 0.014691316585943 0.00042340821879555 0
          0.014743589743561 0 0 0.014691316585943 0.00042340821879555 0.00015
          0.014743589743561 0 0.00015 0.014691316585943 0.00042340821879555 0.0003
          0.014743589743561 0 0.0003 0.018245486290569 0.0031782516753476 0
          0.018245486290569 0.0031782516753476 0.00015 0.018245486290569 0.0031782516753476 0.0003
          0.018846153846135 0 0 0.018644197304734 0.00045373129675669 0
          0.01812656348281 0.00041497632726255 0 0.018333333333313 0 0
          0.018846153846135 0 0.00015 0.018644197304734 0.00045373129675669 0.00015
          0.01812656348281 0.00041497632726255 0.00015 0.018333333333313 0 0.00015
          0.018846153846135 0 0.0003 0.018644197304734 0.00045373129675669 0.0003
          0.01812656348281 0.00041497632726255 0.0003 0.018333333333313 0 0.0003
          0.016222123693441 0.00047331176344161 0 0.016700854199337 0.00043557402690065 0
          0.016222123693441 0.00047331176344161 0.00015 0.016700854199337 0.00043557402690065 0.00015
          0.016222123693441 0.00047331176344161 0.0003 0.016700854199337 0.00043557402690065 0.0003
          0.020119253581834 0.0010505613075795 0 0.020119253581834 0.0010505613075795 0.00015
          0.020119253581834 0.0010505613075795 0.0003 0.017948162073368 0.00084248305268282 0
          0.018468108748109 0.00092264731154686 0 0.017948162073368 0.00084248305268282 0.00015
          0.018468108748109 0.00092264731154686 0.00015 0.017948162073368 0.00084248305268282 0.0003
          0.018468108748109 0.00092264731154686 0.0003 0.018823294200687 0.0034327213803771 0
          0.019357958441624 0.0036753812238739 0 0.018823294200687 0.0034327213803771 0.00015
          0.019357958441624 0.0036753812238739 0.00015 0.018823294200687 0.0034327213803771 0.0003
          0.019357958441624 0.0036753812238739 0.0003 0.017020820655581 0.0044256808272369 0
          0.017020820655581 0.0044256808272369 0.00015 0.017020820655581 0.0044256808272369 0.0003
          0.017246333426457 0.0039469397271967 0 0.017246333426457 0.0039469397271967 0.00015
          0.017246333426457 0.0039469397271967 0.0003 0.020078691259254 0.0027314397537426 0
          0.020078691259254 0.0027314397537426 0.00015 0.020078691259254 0.0027314397537426 0.0003
          0.014206101807249 0.00041708713844452 0 0.014230769230743 0 0
          0.014206101807249 0.00041708713844452 0.00015 0.014230769230743 0 0.00015
          0.014206101807249 0.00041708713844452 0.0003 0.014230769230743 0 0.0003
          0.019663480844036 0.0032045589214632 0 0.019663480844036 0.0032045589214632 0.00015
          0.019663480844036 0.0032045589214632 0.0003 0.021168425648455 0.0043064684914555 0
          0.021635594211814 0.0048272474453844 0 0.020555573714582 0.0046911399787169 0
          0.021168425648455 0.0043064684914555 0.00015 0.021635594211814 0.0048272474453844 0.00015
          0.020555573714582 0.0046911399787169 0.00015 0.021168425648455 0.0043064684914555 0.0003
          0.021635594211814 0.0048272474453844 0.0003 0.020555573714582 0.0046911399787169 0.0003
          0.019723975353689 0.0038421555098755 0 0.019723975353689 0.0038421555098755 0.00015
          0.019723975353689 0.0038421555098755 0.0003 0.01679487179485 0 0
          0.017307692307672 0 0 0.017098243235352 0.00037703288126221 0
          0.01679487179485 0 0.00015 0.017307692307672 0 0.00015
          0.017098243235352 0.00037703288126221 0.00015 0.01679487179485 0 0.0003
          0.017307692307672 0 0.0003 0.017098243235352 0.00037703288126221 0.0003
          0.019358974358957 0 0 0.019358974358957 0 0.00015
          0.019358974358957 0 0.0003 0.018021318366412 0.0037089471112668 0
          0.018021318366412 0.0037089471112668 0.00015 0.018021318366412 0.0037089471112668 0.0003
          0.022914230268928 0.0025172233828488 0 0.022914230268928 0.0025172233828488 0.00015
          0.022914230268928 0.0025172233828488 0.0003 0.016282051282027 0 0
          0.016282051282027 0 0.00015 0.016282051282027 0 0.0003
          0.017636327566636 0.00038375181151782 0 0.017820512820494 0 0
          0.017636327566636 0.00038375181151782 0.00015 0.017820512820494 0 0.00015
          0.017636327566636 0.00038375181151782 0.0003 0.017820512820494 0 0.0003
          0.020545307319607 0.0031941956482125 0 0.020545307319607 0.0031941956482125 0.00015
          0.020545307319607 0.0031941956482125 0.0003 0.014207774647908 0.00082121811907846 0
          0.014649951203035 0.00083908958777153 0 0.014207774647908 0.00082121811907846 0.00015
          0.014649951203035 0.00083908958777153 0.00015 0.014207774647908 0.00082121811907846 0.0003
          0.014649951203035 0.00083908958777153 0.0003 0.017453973974276 0.00075538641526017 0
          0.017131504825278 0.00067680946789985 0 0.017453973974276 0.00075538641526017 0.00015
          0.017131504825278 0.00067680946789985 0.00015 0.017453973974276 0.00075538641526017 0.0003
          0.017131504825278 0.00067680946789985 0.0003 0.020049549059284 0.0035870308776452 0
          0.020306231316884 0.0040846257713005 0 0.020049549059284 0.0035870308776452 0.00015
          0.020306231316884 0.0040846257713005 0.00015 0.020049549059284 0.0035870308776452 0.0003
          0.020306231316884 0.0040846257713005 0.0003 0.022163023796879 0.0034061119862663 0
          0.021471654866651 0.0034951402573089 0 0.022163023796879 0.0034061119862663 0.00015
          0.021471654866651 0.0034951402573089 0.00015 0.022163023796879 0.0034061119862663 0.0003
          0.021471654866651 0.0034951402573089 0.0003 0.020216848120139 0.00051365536395203 0
          0.020384615384602 0 0 0.020897435897425 0 0
          0.020216848120139 0.00051365536395203 0.00015 0.020384615384602 0 0.00015
          0.020897435897425 0 0.00015 0.020216848120139 0.00051365536395203 0.0003
          0.020384615384602 0 0.0003 0.020897435897425 0 0.0003
          0.020867240059882 0.0037570922548429 0 0.020867240059882 0.0037570922548429 0.00015
          0.020867240059882 0.0037570922548429 0.0003 0.021410256410247 0 0
          0.021410256410247 0 0.00015 0.021410256410247 0 0.0003
          0.01987179487178 0 0 0.01987179487178 0 0.00015
          0.01987179487178 0 0.0003 0.022975084693504 0.003367305376383 0
          0.022975084693504 0.003367305376383 0.00015 0.022975084693504 0.003367305376383 0.0003
          0.022435897435893 0 0 0.022948717948713 0 0
          0.022737844672879 0.00047743690091317 0 0.022435897435893 0 0.00015
          0.022948717948713 0 0.00015 0.022737844672879 0.00047743690091317 0.00015
          0.022435897435893 0 0.0003 0.022948717948713 0 0.0003
          0.022737844672879 0.00047743690091317 0.0003 0.02192307692307 0 0
          0.02192307692307 0 0.00015 0.02192307692307 0 0.0003
          0.021567010772127 0.0039949981403974 0 0.021567010772127 0.0039949981403974 0.00015
          0.021567010772127 0.0039949981403974 0.0003 0.02205136800235 0.0041574599345453 0
          0.022874799944018 0.0043411431204517 0 0.02205136800235 0.0041574599345453 0.00015
          0.022874799944018 0.0043411431204517 0.00015 0.02205136800235 0.0041574599345453 0.0003
          0.022874799944018 0.0043411431204517 0.0003 0.023461538461532 0 0
          0.023461538461532 0 0.00015 0.023461538461532 0 0.0003
          0.022597273609822 0.0008601076908125 0 0.022597273609822 0.0008601076908125 0.00015
          0.022597273609822 0.0008601076908125 0.0003 0.024392416230449 0.00057909033861659 0
          0.024392416230449 0.00057909033861659 0.00015 0.024392416230449 0.00057909033861659 0.0003
          0.023974358974355 0 0 0.023974358974355 0 0.00015
          0.023974358974355 0 0.0003 0.024487179487177 0 0
          0.024487179487177 0 0.00015 0.024487179487177 0 0.0003
          0.025 0 0 0.025 0 0.00015
          0.025 0 0.0003 0.026666666666664 0.0014444444444417 0
          0.026666666666663 0 0 0.026666666666664 0.0014444444444417 0.00015
          0.026666666666663 0 0.00015 0.026666666666664 0.0014444444444417 0.0003
          0.026666666666663 0 0.0003 0.028333333333331 0.0014444444444417 0
          0.02833333333333 0 0 0.028333333333331 0.0014444444444417 0.00015
          0.02833333333333 0 0.00015 0.028333333333331 0.0014444444444417 0.0003
          0.02833333333333 0 0.0003 0.03 0.0014444444444417 0
          0.03 0 0 0.03 0.0014444444444417 0.00015
          0.03 0 0.00015 0.03 0.0014444444444417 0.0003
          0.03 0 0.0003 0.026666666666665 0.0028888888888822 0
          0.026666666666665 0.0028888888888822 0.00015 0.026666666666665 0.0028888888888822 0.0003
          0.028333333333331 0.0028888888888822 0 0.028333333333331 0.0028888888888822 0.00015
          0.028333333333331 0.0028888888888822 0.0003 0.03 0.0028888888888822 0
          0.03 0.0028888888888822 0.00015 0.03 0.0028888888888822 0.0003
          0.026666666666666 0.0043333333333224 0 0.026666666666666 0.0043333333333224 0.00015
          0.026666666666666 0.0043333333333224 0.0003 0.028333333333332 0.0043333333333224 0
          0.028333333333332 0.0043333333333224 0.00015 0.028333333333332 0.0043333333333224 0.0003
          0.03 0.0043333333333224 0 0.03 0.0043333333333224 0.00015
          0.03 0.0043333333333224 0.0003 0.026666666666666 0.0057777777777625 0
          0.026666666666666 0.0057777777777625 0.00015 0.026666666666666 0.0057777777777625 0.0003
          0.028333333333333 0.0057777777777625 0 0.028333333333333 0.0057777777777625 0.00015
          0.028333333333333 0.0057777777777625 0.0003 0.03 0.0057777777777625 0
          0.03 0.0057777777777625 0.00015 0.03 0.0057777777777625 0.0003
          0.028333333333334 0.0072222222222063 0 0.028333333333334 0.0072222222222063 0.00015
          0.028333333333334 0.0072222222222063 0.0003 0.03 0.0072222222222063 0
          0.03 0.0072222222222063 0.00015 0.03 0.0072222222222063 0.0003
          0.028333333333334 0.0086666666666559 0 0.028333333333334 0.0086666666666559 0.00015
          0.028333333333334 0.0086666666666559 0.0003 0.03 0.0086666666666559 0
          0.03 0.0086666666666559 0.00015 0.03 0.0086666666666559 0.0003
          0.028333333333335 0.010111111111103 0 0.028333333333335 0.010111111111103 0.00015
          0.028333333333335 0.010111111111103 0.0003 0.03 0.010111111111103 0
          0.03 0.010111111111103 0.00015 0.03 0.010111111111103 0.0003
          0.028333333333336 0.011555555555552 0 0.028333333333336 0.011555555555552 0.00015
          0.028333333333336 0.011555555555552 0.0003 0.03 0.011555555555552 0
          0.03 0.011555555555552 0.00015 0.03 0.011555555555552 0.0003
          0.028333333333337 0.013 0 0.028333333333337 0.013 0.00015
          0.028333333333337 0.013 0.0003 0.03 0.013 0
          0.03 0.013 0.00015 0.03 0.013 0.0003
          0.031601181467612 0.0014508094753802 0 0.03158989866902 0 0
          0.031601181467612 0.0014508094753802 0.00015 0.03158989866902 0 0.00015
          0.031601181467612 0.0014508094753802 0.0003 0.03158989866902 0 0.0003
          0.031612464266204 0.0029016189507591 0 0.031612464266204 0.0029016189507591 0.00015
          0.031612464266204 0.0029016189507591 0.0003 0.031623747064796 0.0043524284261377 0
          0.031623747064796 0.0043524284261377 0.00015 0.031623747064796 0.0043524284261377 0.0003
          0.031635029863388 0.0058032379015163 0 0.031635029863388 0.0058032379015163 0.00015
          0.031635029863388 0.0058032379015163 0.0003 0.031646312661979 0.0072540473768985 0
          0.031646312661979 0.0072540473768985 0.00015 0.031646312661979 0.0072540473768985 0.0003
          0.021356284292895 0.0061182113295331 0 0.020489019208248 0.0065103794253073 0
          0.021356284292895 0.0061182113295331 0.00015 0.020489019208248 0.0065103794253073 0.00015
          0.021356284292895 0.0061182113295331 0.0003 0.020489019208248 0.0065103794253073 0.0003
          0.025 0.0072222222222063 0 0.023816654948859 0.0069324696013164 0
          0.023829479378086 0.0056593315311521 0 0.025 0.0072222222222063 0.00015
          0.023816654948859 0.0069324696013164 0.00015 0.023829479378086 0.0056593315311521 0.00015
          0.025 0.0072222222222063 0.0003 0.023816654948859 0.0069324696013164 0.0003
          0.023829479378086 0.0056593315311521 0.0003 0.018734278863615 0.0068564365277259 0
          0.018734278863615 0.0068564365277259 0.00015 0.018734278863615 0.0068564365277259 0.0003
          0.019611341590458 0.0069319215290848 0 0.019611341590458 0.0069319215290848 0.00015
          0.019611341590458 0.0069319215290848 0.0003 0.022477642087048 0.0055533155338694 0
          0.022477642087048 0.0055533155338694 0.00015 0.022477642087048 0.0055533155338694 0.0003
          0.026666666666667 0.0072222222222063 0 0.026666666666667 0.0072222222222063 0.00015
          0.026666666666667 0.0072222222222063 0.0003 0.026666666666668 0.0086666666666559 0
          0.026666666666668 0.0086666666666559 0.00015 0.026666666666668 0.0086666666666559 0.0003
          0.026666666666669 0.010111111111103 0 0.026666666666669 0.010111111111103 0.00015
          0.026666666666669 0.010111111111103 0.0003 0.026666666666669 0.011555555555552 0
          0.026666666666669 0.011555555555552 0.00015 0.026666666666669 0.011555555555552 0.0003
          0.02666666666667 0.013 0 0.02666666666667 0.013 0.00015
          0.02666666666667 0.013 0.0003 0.033201501647561 0.0014698753983525 0
          0.033179797338052 0 0 0.033201501647561 0.0014698753983525 0.00015
          0.033179797338052 0 0.00015 0.033201501647561 0.0014698753983525 0.0003
          0.033179797338052 0 0.0003 0.033223205957069 0.0029397507967035 0
          0.033223205957069 0.0029397507967035 0.00015 0.033223205957069 0.0029397507967035 0.0003
          0.033244910266578 0.0044096261950543 0 0.033244910266578 0.0044096261950543 0.00015
          0.033244910266578 0.0044096261950543 0.0003 0.033266614576087 0.0058795015934051 0
          0.033266614576087 0.0058795015934051 0.00015 0.033266614576087 0.0058795015934051 0.0003
          0.033288318885596 0.0073493769917596 0 0.033288318885596 0.0073493769917596 0.00015
          0.033288318885596 0.0073493769917596 0.0003 0.031657595460571 0.0087048568522863 0
          0.031657595460571 0.0087048568522863 0.00015 0.031657595460571 0.0087048568522863 0.0003
          0.033310023195106 0.0088192523901195 0 0.033310023195106 0.0088192523901195 0.00015
          0.033310023195106 0.0088192523901195 0.0003 0.031668878259163 0.010155666327672 0
          0.031668878259163 0.010155666327672 0.00015 0.031668878259163 0.010155666327672 0.0003
          0.031680161057755 0.011606475803059 0 0.031680161057755 0.011606475803059 0.00015
          0.031680161057755 0.011606475803059 0.0003 0.031691443856347 0.013057285278446 0
          0.031691443856347 0.013057285278446 0.00015 0.031691443856347 0.013057285278446 0.0003
          <InformationKey name="L2_NORM_RANGE" location="vtkDataArray" length="2">
            <Value index="0">
              0.011720201603
            </Value>
            <Value index="1">
              0.034459060608
            </Value>
          </InformationKey>
        </DataArray>
      </Points>
      <Cells>
        <DataArray type="Int64" Name="connectivity" format="ascii" RangeMin="0" RangeMax="797">
          0 1 2 3 4 5
          6 7 4 5 6 7
          8 9 10 11 12 13
          14 15 16 17 18 19
          16 17 18 19 20 21
          22 23 24 25 26 27
          28 29 30 31 28 29
          30 31 32 33 34 35
          36 37 38 39 40 41
          42 43 40 41 42 43
          44 45 46 47 48 49
          50 51 52 53 54 55
          52 53 54 55 56 57
          58 59 60 61 62 63
          64 65 66 67 64 65
          66 67 68 69 70 71
          72 73 74 12 75 76
          77 16 75 76 77 16
          78 79 80 20 61 81
          82 62 65 83 84 66
          65 83 84 66 69 85
          86 70 87 88 89 90
          91 92 93 94 91 92
          93 94 95 96 97 98
          37 99 100 38 41 101
          102 42 41 101 102 42
          45 103 104 46 81 105
          106 82 83 107 108 84
          83 107 108 84 85 109
          110 86 26 111 112 113
          30 114 115 116 30 114
          115 116 34 117 118 119
          63 120 121 60 67 122
          123 64 67 122 123 64
          71 124 125 68 126 127
          128 129 130 131 132 133
          130 131 132 133 134 135
          136 137 138 72 139 140
          141 75 142 143 141 75
          142 143 144 78 145 146
          150 127 151 152 153 131
          154 155 153 131 154 155
          156 135 157 158 159 160
          161 138 162 163 164 141
          162 163 164 141 165 166
          167 144 120 168 169 170
          122 171 172 173 122 171
          172 173 124 174 175 176
          15 139 72 12 19 142
          75 16 19 142 75 16
          23 145 78 20 177 0
          3 178 179 4 7 180
          179 4 7 180 181 8
          11 182 183 184 726 727
          185 186 728 729 185 186
          728 729 187 188 730 731
          192 193 90 89 194 195
          94 93 194 195 94 93
          196 197 98 97 198 106
          105 199 200 108 107 201
          200 108 107 201 202 110
          109 203 204 13 12 74
          205 17 16 77 205 17
          16 77 206 21 20 80
          207 208 209 210 211 212
          213 214 211 212 213 214
          215 216 217 218 732 733
          734 219 735 736 737 220
          735 736 737 220 738 739
          740 221 222 219 734 223
          224 220 737 225 224 220
          737 225 226 221 740 227
          228 229 170 169 230 231
          173 172 230 231 173 172
          232 233 176 175 234 140
          50 49 235 143 54 53
          235 143 54 53 236 146
          58 57 129 237 238 126
          133 239 240 130 133 239
          240 130 137 241 242 134
          243 244 245 246 247 248
          249 250 247 248 249 250
          251 252 253 254 255 256
          159 234 257 258 162 235
          257 258 162 235 259 260
          165 236 261 262 263 264
          265 266 267 268 265 266
          267 268 269 270 271 272
          273 147 38 100 274 148
          42 102 274 148 42 102
          275 149 46 104 121 276
          277 60 123 278 279 64
          123 278 279 64 125 280
          281 68 282 246 741 283
          284 250 742 285 284 250
          742 285 286 254 743 287
          291 292 82 106 293 294
          84 108 293 294 84 108
          295 296 86 110 99 297
          62 298 101 299 66 300
          101 299 66 300 103 301
          70 302 303 304 147 273
          305 306 148 274 305 306
          148 274 307 308 149 275
          105 204 74 199 107 205
          77 201 107 205 77 201
          109 206 80 203 288 309
          151 282 289 310 154 284
          289 310 154 284 290 311
          157 286 312 313 13 204
          314 315 17 205 314 315
          17 205 316 317 21 206
          99 298 292 100 101 300
          294 102 101 300 294 102
          103 302 296 104 292 298
          62 82 294 300 66 84
          294 300 66 84 296 302
          70 86 151 127 126 243
          154 131 130 247 154 131
          130 247 157 135 134 251
          246 282 151 243 250 284
          154 247 250 284 154 247
          254 286 157 251 100 292
          291 273 102 294 293 274
          102 294 293 274 104 296
          295 275 324 325 297 326
          327 328 299 329 327 328
          299 329 330 331 301 332
          325 63 62 297 328 67
          66 299 328 67 66 299
          331 71 70 301 333 168
          325 324 334 171 328 327
          334 171 328 327 335 174
          331 330 168 120 63 325
          171 122 67 328 171 122
          67 328 174 124 71 331
          312 336 209 337 314 338
          213 339 314 338 213 339
          316 340 217 341 88 256
          255 89 92 258 257 93
          92 258 257 93 96 260
          259 97 342 198 199 343
          344 200 201 345 344 200
          201 345 346 202 203 347
          90 264 348 349 94 268
          350 351 94 268 350 351
          98 272 352 353 354 355
          276 121 356 357 278 123
          356 357 278 123 358 359
          280 125 360 361 333 362
          363 364 334 365 363 364
          334 365 366 367 335 368
          336 277 210 209 338 279
          214 213 338 279 214 213
          340 281 218 217 73 72
          138 161 76 75 141 164
          76 75 141 164 79 78
          144 167 372 14 13 313
          373 18 17 315 373 18
          17 315 374 22 21 317
          168 333 361 169 171 334
          364 172 171 334 364 172
          174 335 367 175 378 361
          360 369 379 364 363 370
          379 364 363 370 380 367
          366 371 381 291 106 198
          382 293 108 200 382 293
          108 200 383 295 110 202
          354 177 178 384 356 179
          180 385 356 179 180 385
          358 181 182 386 37 326
          297 99 41 329 299 101
          41 329 299 101 45 332
          301 103 324 390 362 333
          327 391 365 334 327 391
          365 334 330 392 368 335
          394 393 399 400 396 395
          401 402 396 395 401 402
          398 397 403 404 2 387
          189 405 6 388 190 406
          6 388 190 406 10 389
          191 407 400 399 408 409
          402 401 410 411 402 401
          410 411 404 403 412 413
          414 24 27 415 416 28
          31 417 416 28 31 417
          418 32 35 419 420 87
          90 349 421 91 94 351
          421 91 94 351 422 95
          98 353 199 74 73 343
          201 77 76 345 201 77
          76 345 203 80 79 347
          336 61 60 277 338 65
          64 279 338 65 64 279
          340 69 68 281 426 193
          192 427 428 195 194 429
          428 195 194 429 430 197
          196 431 207 432 433 208
          211 434 435 212 211 434
          435 212 215 436 437 216
          326 438 390 324 329 439
          391 327 329 439 391 327
          332 440 392 330 441 375
          362 390 442 376 365 391
          442 376 365 391 443 377
          368 392 381 303 273 291
          382 305 274 293 382 305
          274 293 383 307 275 295
          348 111 26 25 350 114
          30 29 350 114 30 29
          352 117 34 33 319 444
          309 318 321 445 310 320
          321 445 310 320 323 446
          311 322 432 207 447 448
          434 211 449 450 434 211
          449 450 436 215 451 452
          238 244 243 126 240 248
          247 130 240 248 247 130
          242 252 251 134 140 234
          159 138 143 235 162 141
          143 235 162 141 146 236
          165 144 161 453 343 73
          164 454 345 76 164 454
          345 76 167 455 347 79
          456 457 458 459 460 461
          462 463 460 461 462 463
          464 465 466 467 61 336
          312 81 65 338 314 83
          65 338 314 83 69 340
          316 85 81 312 204 105
          83 314 205 107 83 314
          205 107 85 316 206 109
          468 469 372 337 470 471
          373 339 470 471 373 339
          472 473 374 341 468 337
          209 208 470 339 213 212
          470 339 213 212 472 341
          217 216 474 255 234 49
          475 257 235 53 475 257
          235 53 476 259 236 57
          372 313 312 337 373 315
          314 339 373 315 314 339
          374 317 316 341 152 151
          309 444 155 154 310 445
          155 154 310 445 158 157
          311 446 477 478 139 15
          479 480 142 19 479 480
          142 19 481 482 145 23
          483 484 129 128 485 486
          133 132 485 486 133 132
          487 488 137 136 489 319
          304 303 490 321 306 305
          490 321 306 305 491 323
          308 307 744 741 246 245
          745 742 250 249 745 742
          250 249 746 743 254 253
          492 381 198 342 493 382
          200 344 493 382 200 344
          494 383 202 346 88 495
          159 256 92 496 162 258
          92 496 162 258 96 497
          165 260 498 499 448 447
          500 501 450 449 500 501
          450 449 502 503 452 451
          223 414 415 222 225 416
          417 224 225 416 417 224
          227 418 419 226 354 121
          120 170 356 123 122 173
          356 123 122 173 358 125
          124 176 394 3 2 405
          396 7 6 406 396 7
          6 406 398 11 10 407
          453 161 160 483 454 164
          163 485 454 164 163 485
          455 167 166 487 495 504
          160 159 496 505 163 162
          496 505 163 162 497 506
          166 165 492 489 303 381
          493 490 305 382 493 490
          305 382 494 491 307 383
          264 90 193 261 268 94
          195 265 268 94 195 265
          272 98 197 269 507 508
          184 509 510 511 186 512
          510 511 186 512 513 514
          188 515 237 129 484 516
          239 133 486 517 239 133
          486 517 241 137 488 518
          469 519 520 521 471 522
          523 524 471 522 523 524
          473 525 526 527 457 456
          528 51 461 460 529 55
          461 460 529 55 465 464
          530 59 531 342 343 453
          532 344 345 454 532 344
          345 454 533 346 347 455
          238 183 245 244 240 185
          249 248 240 185 249 248
          242 187 253 252 1 378
          369 423 5 379 370 424
          5 379 370 424 9 380
          371 425 504 484 483 160
          505 486 485 163 505 486
          485 163 506 488 487 166
          453 483 128 531 454 485
          132 532 454 485 132 532
          455 487 136 533 747 726
          184 508 748 728 186 511
          748 728 186 511 749 730
          188 514 478 457 51 50
          480 461 55 54 480 461
          55 54 482 465 59 58
          400 409 384 178 402 411
          385 180 402 411 385 180
          404 413 386 182 420 349
          348 534 421 351 350 535
          421 351 350 535 422 353
          352 536 468 537 519 469
          470 538 522 471 470 538
          522 471 472 539 525 473
          509 184 183 238 512 186
          185 240 512 186 185 240
          515 188 187 242 170 229
          177 354 173 231 179 356
          173 231 179 356 176 233
          181 358 499 498 409 408
          501 500 411 410 501 500
          411 410 503 502 413 412
          540 541 459 458 542 543
          463 462 542 543 463 462
          544 545 467 466 87 546
          495 88 91 547 496 92
          91 547 496 92 95 548
          497 96 228 169 361 378
          230 172 364 379 230 172
          364 379 232 175 367 380
          549 550 276 355 551 552
          278 357 551 552 278 357
          553 554 280 359 478 50
          140 139 480 54 143 142
          480 54 143 142 482 58
          146 145 540 555 556 521
          542 557 558 524 542 557
          558 524 544 559 560 527
          36 441 390 438 40 442
          391 439 40 442 391 439
          44 443 392 440 561 562
          237 516 563 564 239 517
          563 564 239 517 565 566
          241 518 152 444 319 489
          155 445 321 490 155 445
          321 490 158 446 323 491
          567 568 87 420 569 570
          91 421 569 570 91 421
          571 572 95 422 150 492
          342 531 153 493 344 532
          153 493 344 532 156 494
          346 533 477 15 14 555
          479 19 18 557 479 19
          18 557 481 23 22 559
          531 128 127 150 532 132
          131 153 532 132 131 153
          533 136 135 156 24 534
          348 25 28 535 350 29
          28 535 350 29 32 536
          352 33 504 495 546 561
          505 496 547 563 505 496
          547 563 506 497 548 565
          474 192 89 255 475 194
          93 257 475 194 93 257
          476 196 97 259 573 574
          575 427 576 577 578 429
          576 577 578 429 579 580
          581 431 546 582 562 561
          547 583 564 563 547 583
          564 563 548 584 566 565
          561 516 484 504 563 517
          486 505 563 517 486 505
          565 518 488 506 555 540
          458 477 557 542 462 479
          557 542 462 479 559 544
          466 481 550 210 277 276
          552 214 279 278 552 214
          279 278 554 218 281 280
          744 245 183 727 745 249
          185 729 745 249 185 729
          746 253 187 731 210 550
          447 207 214 552 449 211
          214 552 449 211 218 554
          451 215 427 575 585 426
          429 578 586 428 429 578
          586 428 431 581 587 430
          150 152 489 492 153 155
          490 493 153 155 490 493
          156 158 491 494 48 588
          574 573 52 589 577 576
          52 589 577 576 56 590
          580 579 573 474 49 48
          576 475 53 52 576 475
          53 52 579 476 57 56
          562 509 238 237 564 512
          240 239 564 512 240 239
          566 515 242 241 372 556
          555 14 373 558 557 18
          373 558 557 18 374 560
          559 22 534 591 567 420
          535 592 569 421 535 592
          569 421 536 593 571 422
          521 556 372 469 524 558
          373 471 524 558 373 471
          527 560 374 473 178 3
          394 400 180 7 396 402
          180 7 396 402 182 11
          398 404 263 594 595 596
          267 597 598 599 267 597
          598 599 271 600 601 602
          549 355 354 384 551 357
          356 385 551 357 356 385
          553 359 358 386 0 228
          378 1 4 230 379 5
          4 230 379 5 8 232
          380 9 426 585 603 262
          428 586 604 266 428 586
          604 266 430 587 605 270
          582 546 87 568 583 547
          91 570 583 547 91 570
          584 548 95 572 474 573
          427 192 475 576 429 194
          475 576 429 194 476 579
          431 196 262 603 594 263
          266 604 597 267 266 604
          597 267 270 605 600 271
          537 468 208 433 538 470
          212 435 538 470 212 435
          539 472 216 437 36 438
          326 37 40 439 329 41
          40 439 329 41 44 440
          332 45 541 540 521 520
          543 542 524 523 543 542
          524 523 545 544 527 526
          1 423 387 2 5 424
          388 6 5 424 388 6
          9 425 389 10 498 447
          550 549 500 449 552 551
          500 449 552 551 502 451
          554 553 228 0 177 229
          230 4 179 231 230 4
          179 231 232 8 181 233
          507 582 568 606 510 583
          570 607 510 583 570 607
          513 584 572 608 588 48
          51 528 589 52 55 529
          589 52 55 529 590 56
          59 530 609 567 591 610
          611 569 592 612 611 569
          592 612 613 571 593 614
          596 595 615 112 599 598
          616 115 599 598 616 115
          602 601 617 118 414 591
          534 24 416 592 535 28
          416 592 535 28 418 593
          536 32 262 261 193 426
          266 265 195 428 266 265
          195 428 270 269 197 430
          223 610 591 414 225 612
          592 416 225 612 592 416
          227 614 593 418 477 458
          457 478 479 462 461 480
          479 462 461 480 481 466
          465 482 610 747 508 609
          612 748 511 611 612 748
          511 611 614 749 514 613
          549 384 409 498 551 385
          411 500 551 385 411 500
          553 386 413 502 223 734
          747 610 225 737 748 612
          225 737 748 612 227 740
          749 614 596 618 264 263
          599 619 268 267 599 619
          268 267 602 620 272 271
          507 606 609 508 510 607
          611 511 510 607 611 511
          513 608 613 514 582 507
          509 562 583 510 512 564
          583 510 512 564 584 513
          515 566 113 621 27 26
          116 622 31 30 116 622
          31 30 119 623 35 34
          112 615 624 113 115 616
          625 116 115 616 625 116
          118 617 626 119 609 606
          568 567 611 607 570 569
          611 607 570 569 613 608
          572 571 112 111 618 596
          115 114 619 599 115 114
          619 599 118 117 620 602
          113 624 627 621 116 625
          628 622 116 625 628 622
          119 626 629 623 111 348
          264 618 114 350 268 619
          114 350 268 619 117 352
          272 620 27 621 627 630
          31 622 628 631 31 622
          628 631 35 623 629 632
          633 27 630 634 635 31
          631 636 635 31 631 636
          637 35 632 638 639 633
          634 640 641 635 636 642
          641 635 636 642 643 637
          638 644 645 639 640 646
          647 641 642 648 647 641
          642 648 649 643 644 650
          651 415 27 633 652 417
          31 635 652 417 31 635
          653 419 35 637 654 651
          633 639 655 652 635 641
          655 652 635 641 656 653
          637 643 657 654 639 645
          658 655 641 647 658 655
          641 647 659 656 643 649
          660 222 415 651 661 224
          417 652 661 224 417 652
          662 226 419 653 663 660
          651 654 664 661 652 655
          664 661 652 655 665 662
          653 656 666 663 654 657
          667 664 655 658 667 664
          655 658 668 665 656 659
          669 219 222 660 670 220
          224 661 670 220 224 661
          671 221 226 662 672 669
          660 663 673 670 661 664
          673 670 661 664 674 671
          662 665 675 672 663 666
          676 673 664 667 676 673
          664 667 677 674 665 668
          750 732 219 669 751 735
          220 670 751 735 220 670
          752 738 221 671 678 750
          669 672 679 751 670 673
          679 751 670 673 680 752
          671 674 681 678 672 675
          682 679 673 676 682 679
          673 676 683 680 674 677
          684 753 750 678 685 754
          751 679 685 754 751 679
          686 755 752 680 687 684
          678 681 688 685 679 682
          688 685 679 682 689 686
          680 683 690 756 753 684
          691 757 754 685 691 757
          754 685 692 758 755 686
          693 690 684 687 694 691
          685 688 694 691 685 688
          695 692 686 689 696 759
          756 690 697 760 757 691
          697 760 757 691 698 761
          758 692 699 696 690 693
          700 697 691 694 700 697
          691 694 701 698 692 695
          702 762 759 696 703 763
          760 697 703 763 760 697
          704 764 761 698 705 702
          696 699 706 703 697 700
          706 703 697 700 707 704
          698 701 708 645 646 709
          710 647 648 711 710 647
          648 711 712 649 650 713
          765 708 709 766 767 710
          711 768 767 710 711 768
          769 712 713 770 714 657
          645 708 715 658 647 710
          715 658 647 710 716 659
          649 712 771 714 708 765
          772 715 710 767 772 715
          710 767 773 716 712 769
          717 666 657 714 718 667
          658 715 718 667 658 715
          719 668 659 716 774 717
          714 771 775 718 715 772
          775 718 715 772 776 719
          716 773 720 675 666 717
          721 676 667 718 721 676
          667 718 722 677 668 719
          777 720 717 774 778 721
          718 775 778 721 718 775
          779 722 719 776 723 681
          675 720 724 682 676 721
          724 682 676 721 725 683
          677 722 780 723 720 777
          781 724 721 778 781 724
          721 778 782 725 722 779
          783 687 681 723 784 688
          682 724 784 688 682 724
          785 689 683 725 786 783
          723 780 787 784 724 781
          787 784 724 781 788 785
          725 782 789 693 687 783
          790 694 688 784 790 694
          688 784 791 695 689 785
          792 699 693 789 793 700
          694 790 793 700 694 790
          794 701 695 791 795 705
          699 792 796 706 700 793
          796 706 700 793 797 707
          701 794
        </DataArray>
        <DataArray type="Int64" Name="offsets" format="ascii" RangeMin="8" RangeMax="3632">
          8 16 24 32 40 48
          56 64 72 80 88 96
          104 112 120 128 136 144
          152 160 168 176 184 192
          200 208 216 224 232 240
          248 256 264 272 280 288
          296 304 312 320 328 336
          344 352 360 368 376 384
          392 400 408 416 424 432
          440 448 456 464 472 480
          488 496 504 512 520 528
          536 544 552 560 568 576
          584 592 600 608 616 624
          632 640 648 656 664 672
          680 688 696 704 712 720
          728 736 744 752 760 768
          776 784 792 800 808 816
          824 832 840 848 856 864
          872 880 888 896 904 912
          920 928 936 944 952 960
          968 976 984 992 1000 1008
          1016 1024 1032 1040 1048 1056
          1064 1072 1080 1088 1096 1104
          1112 1120 1128 1136 1144 1152
          1160 1168 1176 1184 1192 1200
          1208 1216 1224 1232 1240 1248
          1256 1264 1272 1280 1288 1296
          1304 1312 1320 1328 1336 1344
          1352 1360 1368 1376 1384 1392
          1400 1408 1416 1424 1432 1440
          1448 1456 1464 1472 1480 1488
          1496 1504 1512 1520 1528 1536
          1544 1552 1560 1568 1576 1584
          1592 1600 1608 1616 1624 1632
          1640 1648 1656 1664 1672 1680
          1688 1696 1704 1712 1720 1728
          1736 1744 1752 1760 1768 1776
          1784 1792 1800 1808 1816 1824
          1832 1840 1848 1856 1864 1872
          1880 1888 1896 1904 1912 1920
          1928 1936 1944 1952 1960 1968
          1976 1984 1992 2000 2008 2016
          2024 2032 2040 2048 2056 2064
          2072 2080 2088 2096 2104 2112
          2120 2128 2136 2144 2152 2160
          2168 2176 2184 2192 2200 2208
          2216 2224 2232 2240 2248 2256
          2264 2272 2280 2288 2296 2304
          2312 2320 2328 2336 2344 2352
          2360 2368 2376 2384 2392 2400
          2408 2416 2424 2432 2440 2448
          2456 2464 2472 2480 2488 2496
          2504 2512 2520 2528 2536 2544
          2552 2560 2568 2576 2584 2592
          2600 2608 2616 2624 2632 2640
          2648 2656 2664 2672 2680 2688
          2696 2704 2712 2720 2728 2736
          2744 2752 2760 2768 2776 2784
          2792 2800 2808 2816 2824 2832
          2840 2848 2856 2864 2872 2880
          2888 2896 2904 2912 2920 2928
          2936 2944 2952 2960 2968 2976
          2984 2992 3000 3008 3016 3024
          3032 3040 3048 3056 3064 3072
          3080 3088 3096 3104 3112 3120
          3128 3136 3144 3152 3160 3168
          3176 3184 3192 3200 3208 3216
          3224 3232 3240 3248 3256 3264
          3272 3280 3288 3296 3304 3312
          3320 3328 3336 3344 3352 3360
          3368 3376 3384 3392 3400 3408
          3416 3424 3432 3440 3448 3456
          3464 3472 3480 3488 3496 3504
          3512 3520 3528 3536 3544 3552
          3560 3568 3576 3584 3592 3600
          3608 3616 3624 3632
        </DataArray>
        <DataArray type="UInt8" Name="types" format="ascii" RangeMin="12" RangeMax="12">
          12 12 12 12 12 12
          12 12 12 12 12 12
          12 12 12 12 12 12
          12 12 12 12 12 12
          12 12 12 12 12 12
          12 12 12 12 12 12
          12 12 12 12 12 12
          12 12 12 12 12 12
          12 12 12 12 12 12
          12 12 12 12 12 12
          12 12 12 12 12 12
          12 12 12 12 12 12
          12 12 12 12 12 12
          12 12 12 12 12 12
          12 12 12 12 12 12
          12 12 12 12 12 12
          12 12 12 12 12 12
          12 12 12 12 12 12
          12 12 12 12 12 12
          12 12 12 12 12 12
          12 12 12 12 12 12
          12 12 12 12 12 12
          12 12 12 12 12 12
          12 12 12 12 12 12
          12 12 12 12 12 12
          12 12 12 12 12 12
          12 12 12 12 12 12
          12 12 12 12 12 12
          12 12 12 12 12 12
          12 12 12 12 12 12
          12 12 12 12 12 12
          12 12 12 12 12 12
          12 12 12 12 12 12
          12 12 12 12 12 12
          12 12 12 12 12 12
          12 12 12 12 12 12
          12 12 12 12 12 12
          12 12 12 12 12 12
          12 12 12 12 12 12
          12 12 12 12 12 12
          12 12 12 12 12 12
          12 12 12 12 12 12
          12 12 12 12 12 12
          12 12 12 12 12 12
          12 12 12 12 12 12
          12 12 12 12 12 12
          12 12 12 12 12 12
          12 12 12 12 12 12
          12 12 12 12 12 12
          12 12 12 12 12 12
          12 12 12 12 12 12
          12 12 12 12 12 12
          12 12 12 12 12 12
          12 12 12 12 12 12
          12 12 12 12 12 12
          12 12 12 12 12 12
          12 12 12 12 12 12
          12 12 12 12 12 12
          12 12 12 12 12 12
          12 12 12 12 12 12
          12 12 12 12 12 12
          12 12 12 12 12 12
          12 12 12 12 12 12
          12 12 12 12 12 12
          12 12 12 12 12 12
          12 12 12 12 12 12
          12 12 12 12 12 12
          12 12 12 12 12 12
          12 12 12 12 12 12
          12 12 12 12 12 12
          12 12 12 12 12 12
          12 12 12 12 12 12
          12 12 12 12 12 12
          12 12 12 12 12 12
          12 12 12 12 12 12
          12 12 12 12
        </DataArray>
      </Cells>
    </Piece>
  </UnstructuredGrid>
</VTKFile>
