<?xml version="1.0"?>
<VTKFile type="UnstructuredGrid" version="0.1" byte_order="LittleEndian" header_type="UInt32" compressor="vtkZLibDataCompressor">
  <UnstructuredGrid>
    <Piece NumberOfPoints="756" NumberOfCells="468">
      <PointData>
        <DataArray type="Int32" Name="libmesh_node_id" format="ascii" RangeMin="120" RangeMax="2168">
          120 121 122 123 124 125
          126 127 128 129 130 131
          132 133 134 135 136 137
          138 139 140 141 142 143
          144 145 146 147 148 149
          150 151 152 153 154 155
          156 157 158 159 160 161
          162 163 164 165 166 167
          168 169 170 171 172 173
          174 175 176 177 178 179
          240 241 242 243 244 245
          246 247 248 249 250 251
          252 253 254 255 256 257
          258 259 260 261 262 263
          264 265 266 267 268 269
          330 331 332 333 334 335
          336 337 338 339 340 341
          342 343 344 345 346 347
          348 349 350 351 352 353
          354 355 356 357 358 359
          420 421 422 423 424 425
          426 427 428 429 430 431
          432 433 434 435 436 437
          438 439 440 441 442 443
          444 445 446 447 448 449
          510 511 512 513 514 515
          516 517 518 519 520 521
          522 523 524 525 526 527
          528 529 530 531 532 533
          534 535 536 537 538 539
          600 601 602 603 604 605
          606 607 608 609 610 611
          612 613 614 615 616 617
          618 619 620 621 622 623
          624 625 626 627 628 629
          690 691 692 693 694 695
          696 697 698 699 700 701
          702 703 704 705 706 707
          708 709 710 711 712 713
          714 715 716 717 718 719
          780 781 782 783 784 785
          786 787 788 789 790 791
          792 793 794 795 796 797
          798 799 800 801 802 803
          804 805 806 807 808 809
          876 877 878 879 880 881
          882 883 884 885 886 887
          888 889 890 891 892 893
          894 895 896 897 898 899
          900 901 902 903 904 905
          906 907 908 909 910 911
          912 913 914 915 916 917
          918 919 920 921 922 923
          924 925 926 927 928 929
          930 931 932 933 934 935
          936 937 938 939 940 941
          942 943 944 945 946 947
          948 949 950 951 952 953
          954 955 956 957 958 959
          960 961 962 963 964 965
          966 967 968 969 970 971
          972 973 974 975 976 977
          978 979 980 981 982 983
          984 985 986 987 988 989
          990 991 992 993 994 995
          996 997 998 999 1000 1001
          1002 1003 1004 1005 1006 1007
          1008 1009 1010 1011 1012 1013
          1014 1015 1016 1017 1018 1019
          1020 1021 1022 1023 1024 1025
          1026 1027 1028 1029 1030 1031
          1032 1033 1034 1035 1036 1037
          1038 1039 1040 1041 1042 1043
          1044 1045 1046 1047 1048 1049
          1050 1051 1052 1053 1054 1055
          1056 1057 1058 1059 1060 1061
          1062 1063 1064 1065 1066 1067
          1068 1069 1070 1071 1072 1073
          1074 1075 1076 1077 1078 1079
          1080 1081 1082 1083 1084 1085
          1086 1087 1088 1089 1090 1091
          1092 1093 1094 1095 1096 1097
          1098 1099 1100 1101 1102 1103
          1104 1105 1106 1107 1108 1109
          1110 1111 1112 1113 1114 1115
          1116 1117 1118 1119 1120 1121
          1122 1123 1124 1125 1126 1127
          1128 1129 1130 1131 1132 1133
          1134 1135 1136 1137 1138 1139
          1140 1141 1142 1143 1144 1145
          1146 1147 1148 1149 1150 1151
          1152 1153 1154 1155 1156 1157
          1158 1159 1160 1161 1162 1163
          1164 1165 1166 1167 1168 1169
          1170 1171 1172 1173 1174 1175
          1176 1177 1178 1179 1180 1181
          1182 1183 1184 1185 1186 1187
          1188 1189 1190 1191 1192 1193
          1194 1195 1196 1197 1198 1199
          1200 1201 1202 1203 1204 1205
          1206 1207 1208 1209 1210 1211
          1212 1213 1214 1215 1216 1217
          1218 1219 1220 1221 1222 1223
          1224 1225 1226 1227 1228 1229
          1230 1231 1232 1233 1234 1235
          1236 1237 1238 1239 1240 1241
          1242 1243 1244 1245 1246 1247
          1248 1249 1250 1251 1252 1253
          1254 1255 1256 1257 1258 1259
          1260 1261 1262 1263 1264 1265
          1266 1267 1268 1269 1270 1271
          1893 1894 1895 1896 1897 1898
          1920 1921 1922 1923 1924 1925
          1947 1948 1949 1974 1975 1976
          2001 2002 2003 2028 2029 2030
          2055 2056 2057 2112 2113 2114
          2115 2116 2117 2124 2125 2126
          2127 2128 2129 2130 2131 2132
          2133 2134 2135 2148 2149 2150
          2151 2152 2153 2164 2166 2168
          1926 1899 1927 1900 1928 1901
          1950 1951 1952 1953 1954 1955
          1977 1978 1979 2004 2005 2006
          2031 2032 2033 2058 2059 2060
          2142 2144 2146 2163 2143 2096
          2165 2145 2100 2167 2147 2104
        </DataArray>
        <DataArray type="Float64" Name="resid_x" format="ascii" RangeMin="-20.054718501709512" RangeMax="0.05205037668911833">
          -0.00015673873206178968 -8.22812900014514 -0.00025375974254071565 -16.499191973433604 -0.0006601516170219313 -8.331649078407068
          -0.000006981370771264039 -8.243344352377022 -0.000028998062868268448 -16.611430461426966 -0.0006362706427154308 -8.520818493147544
          0.012901489324776527 -8.323563685039055 0.03459186499085476 -16.8830315859894 -0.008124458859533945 -8.864319142282092
          -0.017747694400612524 -8.512264123157092 -0.015977045572381776 -17.308557924713384 -0.005130711077132588 -9.317200797873937
          0.00013232440374189025 -8.78235115167027 0.00020623686124032758 -17.755932117081237 -0.002499626845433589 -9.630589294495957
          0.00013291015719563148 -9.029580031638368 0.00012339887721868337 -18.145262189340965 -0.0023518305810394935 -9.743507867211264
          0.00018897734916833997 -9.254707153648837 0.0002172381668810175 -18.51955708094669 -0.0009488501509622438 -9.643531683239498
          0.0001512826132605838 -9.550271376423073 0.00032188527371701525 -19.01952146272931 0.0022031813633347497 -9.346150860104363
          0.0017972168992699267 -10.112376108400177 0.003218425772253397 -20.054718501709512 0.010630860240282924 -8.864271982305588
          0.006645244748402335 -6.291386102784552 0.011708344919546976 -12.415679656784567 0.018158862538480924 -4.835303882147371
          -0.0030079795265010034 -0.0028991860243428036 -0.0007188775358430988 0.005335083536381902 0.012695820292758064 0.0013758139899460176
          0.017130279877156873 0.017509723235639818 -0.005656148943547379 -0.004628445791587055 -0.01097111011824392 -0.0073606240032990655
          0.0007046696591626045 0.000851494669446673 -0.00458543358649699 0.000850401408558632 0.0010918251545239954 -0.003985783165240342
          0.0008583397086416866 0.0012083940540819071 -0.001182333573875205 0.0009838764523095733 0.0015583108513217425 0.004885696067851164
          0.0026765706715519144 0.004538433753029203 0.01889237082795514 0.006924235556645453 0.012688455185007719 0.030450815349147176
          -0.0001789595538248534 0.002877582649489341 0.002189578938239123 0.02526841975234273 0.038316581657960924 0.012818085382368949
          -0.023179968789745153 -0.05067863744512202 -0.012843261676856343 -0.004229006240528577 -0.0038511124153037812 -0.0056361812890797225
          0.0003902330719087743 0.00032390364530421323 -0.006563043725768658 0.0005878880717320456 0.0007309565081907721 -0.005361512918378608
          0.000742235661433277 0.0010706378049079035 -0.0012348037835998582 0.000987110910572575 0.001616947399341484 0.007060392327707721
          0.0031758047176708715 0.005729156055136464 0.025253905700633794 0.0073452744945371184 0.013910412447861554 0.04082656240611839
          0.01937255096102941 0.017494167194115562 -0.014730693284255914 -0.0020695421834142635 -0.02631947951868341 -0.02107301787194782
          -0.01285874517078156 -0.01294274948519103 -0.006923608130430914 0.00012357819885266963 0.00022773762317651602 -0.007473494741489617
          0.00031831500611545493 0.00044429624241448806 -0.007948145201162049 0.0006809348776952717 0.0010206337856448755 -0.005878618819004977
          0.0008477677097342706 0.0014352854538408621 -0.0004651363054790636 0.0008706997016760809 0.0015141177588811061 0.009215988563685329
          0.0026113713041526765 0.0047401463852514425 0.028462883871353206 0.005579596382706331 0.011052725094646831 0.04069798542549807
          0.013493213891364153 0.004006468864772295 0.00578882556319904 -0.027969233198469556 -0.02467699137189161 -0.006414857617492942
          -0.000037147534703407814 0.0008871740963201091 -0.0074115862564578805 0.00019314258746039314 0.0004662109680930726 -0.008880941602624759
          0.00027529042134766257 0.0006507896409271297 -0.008661210983449408 0.0006835132220643914 0.0012946006744627425 -0.005659952097153642
          0.0008000720370446857 0.0017058299716508074 0.0008789127468062929 0.0008072099234190944 0.0014163391975658968 0.011287261665071657
          0.0020246856683998615 0.003586812345615975 0.029646783336259475 0.0018454774913458927 0.004437354873851662 0.035648031714036854
          -0.0327320114071421 -0.026031179917648473 -0.0060242733180890795 -0.0018033187130703787 0.0010976774606294981 -0.0077588968288981874
          0.0002983614776441712 0.0007436750880605025 -0.009245482396551097 -0.00013080108144336577 0.00007240781045236844 -0.010014485039807397
          0.00014928853214257742 0.00041459989097702987 -0.009010006459829967 0.0004065453135222441 0.0009163977627544284 -0.0051615364624906235
          0.0007500173859655845 0.0016491163605429904 0.0023082967184722136 0.0008577451374955913 0.0016939104015678552 0.013313307782672368
          0.0016652241834904657 0.0032325418888046187 0.03005951682631114 0.0014494658929105064 0.0030639953272917353 0.030317373109581824
          -0.0006182700580303901 -0.0001734596179225889 -0.006807022808990482 0.0005187258025882713 -0.0004968167159935533 -0.008535836492155724
          -0.00029210623337938557 -0.0004793616819531721 -0.010578295674230631 -0.0005047047305106744 -0.0005341641328966418 -0.010619481852991886
          -0.0002700827890116386 -0.00025143164896412884 -0.008779296951851201 0.00005234139826981732 0.0003781110508231933 -0.004174187255606032
          0.0005973961763672264 0.001681269766625526 0.004041868328433118 0.001014054577209933 0.0025908180157161453 0.015273060806419991
          0.0014152564937512935 0.003684288596875085 0.02945042299616052 0.0009277320087558438 0.0028225067525693426 0.025600506770833142
          0.000717490022678291 0.0010266955349891305 -0.008052954657994604 0.0014202295977678858 0.0008797581765094264 -0.009449594195572786
          -0.000329383744982259 -0.0002851035384860978 -0.01090986351274914 -0.0007058833864483915 -0.0009141481133463358 -0.010513083961767755
          -0.000719339305384814 -0.0009788235896790454 -0.007885932101960869 -0.000265018628138769 -0.00020788521069015076 -0.0024295184217599797
          0.00034992561004187905 0.0011049493394326149 0.006301511635306234 0.0015740988119690158 0.003848197888736138 0.018398847289547327
          0.0010094725390326076 0.003941543862571173 0.030368517898032188 -0.0021117341555403346 -0.0028752561264275833 0.020717335595118236
          0.00028767620915370884 -0.00014359709832412193 -0.00826583753664245 0.0006385738224352622 0.0003712882458835054 -0.005892880966821501
          0.0007414578604723054 0.000793853624996288 -0.002379841502210489 0.0005852215745516531 0.0008709288511941082 0.0024145139252125247
          -0.00045743282514010275 -0.0007901858079355506 0.009432616832785179 -0.0010941182490684653 -0.0031034256051150066 0.019775071043306447
          -0.001210064251940146 -0.00474278636475578 0.03280110289804661 -0.0018180455547005536 -0.006060261116974441 0.022087090124201847
          -0.0027073226398080796 -0.00002582825889119178 -0.0026452852330592636 -0.0038372079531806547 -0.004912192193428561 -0.0011075651101740691
          -0.0037315388129747495 -0.0075437881773585125 -0.0012879801960379925 -0.00030777371100981776 0.0017007462080563807 -0.0030801954257845265
          -0.001988495589547723 -0.003386332188995847 -0.004376117040454125 -0.006844700197281782 -0.0033025431884805834 -0.0035785578896547696
          -0.0033387984422993677 -0.001819453058450323 -0.00273001283061422 -0.006223713741843717 -0.003617845402955817 -0.00602462512811049
          -0.0012957006129282467 -0.0013542998974833513 -0.003725228024942115 -0.00031947930248332757 0.004005817298314618 -0.008375307958714995
          0.000026405632650078337 -0.00042200659692126496 0.004426017047171937 -0.011528466043187802 0.00025603870576026977 0.00944812648379989
          0.018517300663633662 0.006239223442963793 0.005389437636882405 -0.0047583755456521715 -0.003172413719241707 -0.0019417052460919404
          -0.002940587102156944 -0.009156687526015506 -0.007605464950363516 -0.00360543620937237 0.001830408492562316 0.015941532867591812
          0.016627259652755244 0.009139557381355523 0.007321402366231189 0.001081928219160977 0.0039107312557729035 -0.0008648617598198127
          -0.001408078977459537 0.00012163270891329958 0.005929533792105701 0.00005543958325815446 -0.0022961230299061164 0.015396888024158617
          0.017290662173956584 0.01244626229952328 0.011861550942570798 -0.0013981782979509694 0.001373570283453751 -0.000547297319920037
          -0.0016062205529349116 -0.005876046054056172 0.001059427392202772 -0.000054101830918251714 -0.002373012958207188 0.007148085962402351
          0.012130714635194773 0.01288685691102981 0.009895131579743421 -0.0019298319384351004 -0.0012960495101930203 -0.004574327475135753
          -0.0021220645937192195 0.004706961976741253 0.008231105676257622 0.0032214351466729463 -0.0010090611018692686 0.003754947430472888
          -0.0010304139342490748 0.008178215788909315 0.013403821435278518 -0.0036555166849453133 -0.0010296734900998444 0.0011179135207948776
          -0.0019031627120261185 -0.007607652191082517 -0.0027203512851642284 0.0009194365525113969 -0.00512931320822127 -0.005055192189838076
          -0.0018409920544813496 -0.0008341778877162531 -0.003265758345651293 0.000561457802386145 0.0027013486753113547 0.00048270693235952233
          -1.7587332424623991 0.0012068250222173615 0.004067695758702916 0.0017066267331593554 -3.3661028255460184 0.001972948395288554
          0.007201304835993905 0.005614427291605051 -1.2469904042997328 0.00208190946925757 -0.007747010689522216 0.0011021978599703441
          -0.00924832255973157 0.011655062675524852 0.018330891254939835 -0.00040092061024532555 -0.00011462448244781154 -0.0014794275980363758
          -0.004366105658254682 0.00048762071326557965 0.032740718353390985 0.0102743808121602 -0.007980424376607287 0.00047091080511307837
          0.03931365924488295 0.010199348770562666 -0.009601740283615046 0.0069080374576475645 -0.012363986809375338 0.022711212295482786
          0.034669576279549696 0.0062917477912489694 -0.029780566673346054 0.0327591206299343 0.05205037668911833 0.0004664503895355221
          -0.013643618252074607 0.018564799492772788 0.03215090659697023 0.0002289645515481109 -0.00025387196397169687 -0.0024846265695313147
          -0.0007199492897138407 0.0002512965466405087 0.00001777851278230748 -0.005199990335093406 -0.0015081771416861345 -0.0006244626606165815
          0.0017134553816205433 -0.00232850678894346 -0.0007412494976377464 -0.0014182254418269036 0.000051551734720045594 -0.0024196995473562133
          0.00013505580693540242 0.006951212361415493 0.012949409755547148 0.0022931961496999165 0.0036150657596698554 0.017090337333148797
          -0.006601930916305565 -0.0028124865509584485 -0.012127437224912607 -0.005160934571421083 -0.005742971608663661 -0.005265275690698901
          -0.0017961565814433866 -0.0034571799156921657 0.00004851620554136016 -0.007030299945362861 -0.00639597316596574 -0.002730218212706248
          -0.001249142348161758 0.0012459414668825053 -0.0023748330674977502 -0.0010070384997890036 -0.0008879950622703858 0.00030971442026195284
          -0.005501805617142308 0.0010531691353002914 0.006085047564951172 -0.005849274832499862 -0.007110098548541319 0.02014164138194885
          0.029186040555369636 0.03154181394763911 0.032376260043328504 -1.2322470558500036 0.0007519018739579053 -1.5397577714011854
          -2.4982458429602006 0.001935325395958143 -2.9466737201558324 -0.996032305484986 0.0036917269534473274 -1.1521558868488464
          -0.0020992895385894064 -0.0016540954265905627 -0.005057997098944812 -0.0027156577910495416 0.008150164430972884 0.01117790375334704
          -0.0019002329932557294 -0.009193086604546707 -0.0019024637382143439 -0.0194046424552754 0.001674159580779211 -0.006029658376509595
          0.00038801872486195904 -0.0029256844345751723 -0.0010923620171520154 -0.0043402147789800005 0.0072253320070899685 0.010603880453146891
          -1.3442158177138022 0.00145322173594864 0.0037976970735105683 -1.6168665713960038 -2.6223242728097897 0.0017242883223296257
          0.0061365300703528775 -3.131931176517865 -1.2622714135065651 0.0027039479786165055 0.004821679295829717 -1.3880200202637571
          -0.0008094153023477935 0.0003413560932048476 0.0002466779636520755 -0.0009031218931454532 0.0022218170293497597 -0.0017153691739196786
          0.015472793338994095 0.019023875445530303 0.013654560613677091 -0.0008229576514835052 -0.003045503039021291 -0.0016173348741838622
          -0.006311218174340216 0.001841448909219584 -0.002667053514348261 -0.0005786346625871186 -0.0002027767056405061 -0.001534375437704183
          -0.000666213110568803 0.021532917680829433 0.01581416395489743 -0.0022039401761439342 -0.007745282249328078 -0.00448405155751317
          -0.010299038269332733 0.02181309252941192 0.018345730127993454 -0.003624132104419253 -0.0007453800236845165 -0.005590829051332125
          -0.0020447782865775643 0.0057904114902394 0.005620046650415267 0.000004610166123186765 -0.003118159596586026 -0.00047763959878360795
          -0.0002781342579667445 -0.005956201963041304 -0.001028729485536936 -0.00012756115229915072 -0.0026343470602320646 -0.00043963274900286897
          0.00005474429601926012 0.0008822444812151969 -0.0036480688093276648 -0.0010467944854364308 0.0013285591243840933 -0.008571064530103922
          0.00575652035387586 0.005138651581348241 0.0010187037763800255 -0.0011180489608640931 -0.0012512635630964608 -1.334753271580761
          -0.0024429713984281953 -0.0014928613102972443 -2.6042073658972265 0.0004897672845434464 0.0011929737715948852 -1.0831456825829244
          -1.252694603894415 -2.4978144775326148 -1.1841081906688098 -0.00004922114939402006 -0.0006407033903982062 -0.004063521809644616
          -0.0021015539541801888 -0.00028833886915602056 -0.0015267424798571516 -0.008099342658797748 -0.004181856536222016 -0.00014844432348490658
          -0.0006922518376176606 -0.004059207243667706 -0.002073982732916771 0.0008443329278035039 0.006427951606744586 -0.0005689478332689957
          0.010160518792701911 0.004266900537765572 0.010925719342115947 -0.002569374619121538 -0.0016293675708204877 -0.005077247876226279
          -0.003282995019303306 -0.0024079278811036317 -0.0015288886198602872 0.004146954988955065 0.001794530448277501 0.007621356371314836
          0.001387326434871175 0.008488803950810864 0.014411418864586564 0.03091635977504703 -0.028508232805297462 0.05061779517042231
          -0.04418110582563295 0.040757804682079346 0.01318969523331015 -0.0030486974082146387 -0.005801806715496599 -0.002764341774576004
          -0.0015104849556124567 -0.0032805742466632815 0.005241190910343585 -0.03171493786543711 0.013069870937923556 -0.06403217776915837
          0.01884232398177843 -0.0009878626436158333 0.01576047154510074 -0.002809603828856422 -0.00599567187388661 0.0006224265294660913
          -0.007352965983412729 -0.01346386390496257 0.0006976404372684569 -0.0013221694539577306 -0.0025279905828581445 -0.0009037755249634016
          -0.0027800249967875335 -0.0040094259458034465 0.001240737542713699 -0.0035815734514252906 -0.009462688992496915 -0.006140477919022613
          -0.0028344618959757744 -0.006619576421771467 -0.005814566453481218 0.02676596246849816 0.04209003647466947 0.03357944737702634
          -1.270915745310249 -2.4064077737947684 -1.0563525467291899 -1.6516972678147819 -3.192324892005743 -1.159345553648855
          -0.00628544357589908 -0.012178749906746111 -0.0058791061464023575 -0.0014081771774511814 -0.002985772768989925 -0.0015418419916750914
          0.0006746993398505374 0.0003301224746103948 0.0010305076836099047 -0.0028971823376009453 -0.005066481922687771 0.0005867447419616312
          0.0009522226855569471 0.0011213737511486244 0.005544802293884654 -0.0021033071960960825 -0.0023470233905262816 0.00613721868737116
          -0.0006617773095989321 -0.0008580871896812781 0.009453744718114443 -0.001829457796209688 -0.0023110111254354138 0.013756387090075428
          -0.0018385832948828451 -0.0007422383129789267 0.019777861725571277 -0.0023093354114367415 0.0003677133449233594 0.02558306652238329
          -0.005442087536247531 -0.007908835999187458 0.014350643536353402 -0.0013524714761756762 -0.0009829652787738397 -0.001135732596303285
          -0.001556259312435554 0.0037319936045512314 0.0038039849648825452 -0.0031978956381487206 -0.005054958163586587 -0.00375631786842634
          -0.002528730215413333 -0.00703139960115888 -0.013572897778815651 -0.041911046705428 -0.003889061282506212 -0.0021972397269632016
          -0.01038513521757789 -0.05355675122857462 0.0010400260912564185 -0.005012164351039794 -0.01027795744202109 -0.007573243808189523
          -0.0026389343350936567 -0.004207456193608072 0.0012910255235665247 -0.017273282733887896 -0.03425840724196361 -0.017977619429782654
          -0.00035124988687584846 -0.0021372228316058894 -0.002551957324623544 -0.005019115148922282 0.005409505180294261 0.001871080608469633
          -0.002398405240825241 -0.0024429678964104085 0.009948402341547258 0.0005840412519422244 0.00025557190841496435 0.009446611169040331
          -0.0007382977904164534 -0.0019188607979430117 0.0125391204261458 0.00008931579963977754 -0.00018754276971932882 0.015276439070310843
          -0.001290980384545115 -0.003061943070454376 0.01431204363619365 -0.0043419828691515505 -0.00919073922225877 0.003253380138681372
          -0.006799577065203621 -0.010690225390591834 -0.0040136083167974235 -0.01370948118225046 -0.00914158402958698 -0.0007678620439501849
          -0.026231280238467214 -0.014912978129731691 -0.0034196586932528916 -0.014612558047317314 -0.007266101053100993 -0.004546681001353914
        </DataArray>
        <DataArray type="Float64" Name="resid_y" format="ascii" RangeMin="-0.06807371899610493" RangeMax="0.037875028224611695">
          -0.001226904416722234 -0.0007934606018866856 -0.0022894154435097666 -0.0017288768337469992 -0.000716381955061525 -0.0007019660373419681
          0.00011330608961717531 -0.00044828849663564084 0.00018958072890155886 -0.001273349005060688 -0.00004935544850885598 -0.000803764889100958
          -0.0037345652697277423 -0.0025336984764324846 -0.007703581485761848 -0.00417081124355477 -0.0025688535696808956 -0.002258261033495995
          0.0033933524217213684 0.0005920526029238593 0.005685380153770958 -0.0005491591592313716 0.0017647787229385647 0.00006869583607899132
          0.00018684830621848447 -0.0004563103673501101 0.0007434105769163202 -0.0011401423714861303 -0.0012583114348792002 -0.0016213228777453015
          0.0002999885328429097 -0.000401748114917333 0.0010362071515419569 -0.0010503810888295995 -0.002852363002238123 -0.0025202314982663565
          0.00015708701072381093 -0.00057265122608402 0.0009219195519588053 -0.0013086320214257818 -0.004987683498614726 -0.0037241960054675838
          -0.00002046075559453131 -0.000697093849460928 0.0009058989827861463 -0.00139901901499484 -0.00744018675331054 -0.005064628781109748
          -0.0015719154804618718 -0.00178148591946925 -0.0011290009786990574 -0.0027587268527420328 -0.012294866460082265 -0.007852343021874375
          -0.000896601904294525 -0.0016978020525399984 -0.000637213983256002 -0.00266865618316392 -0.012024788139203546 -0.006399134366583736
          -0.0012292188344037516 -0.002092726452029993 -0.0008816453777747979 -0.0023110620710946744 -0.005902719392361263 -0.0016753282237984488
          -0.005946851783417681 -0.006497450076915288 -0.001771613336365968 0.0034129549769561715 0.004925089842274508 0.0000770786269695678
          -0.00039723248111697695 -0.00009520861488193644 -0.0015184597169100589 -0.0004740433670452626 -0.0001209936613409679 -0.0030999257673865466
          -0.0004992442614252801 -0.00007648658664288766 -0.004991423913913828 -0.0005520162327120048 0.00009543999454081353 -0.007031134255477578
          -0.002448654809465989 -0.0029095546868831423 -0.010648296892458387 0.00019119306513781797 0.00132128562766759 -0.009275280844290551
          -0.000425018112711964 -0.0015215744998782477 -0.0017152535301948463 -0.007543263871873318 -0.00922342065470786 -0.0012535113274349668
          0.00617694440131078 0.011363620854000049 0.0011805005149200243 0.0016140334895880445 0.0023516767793408406 -0.00004668605087201905
          0.00016325422520116484 0.0013342101825771918 -0.0004636592074856727 0.0004076153817923478 0.0016838970454694235 -0.0016601271454733113
          0.0006039446351556177 0.0020807128589200863 -0.0031092899161457854 0.0004869910564490043 0.002052731193526558 -0.0048213505508016286
          0.0010563869048077767 0.0032358980713657615 -0.005941747237235895 0.0029436403956902835 0.00666971041154607 -0.004829904947024566
          -0.0043909097238517825 -0.006407256351890461 -0.002617089927386851 -0.001670067335876546 0.0012208100756947587 0.0012848713506084936
          0.004481318717098337 0.005028178798247518 0.0002569488307628959 0.00009778351931599011 0.0009507818620283978 0.00010725836185745963
          0.00004397489003626909 0.0011159923120845766 -0.0000909631028179897 0.0005453477132864315 0.0019449892718560458 -0.0007627710631119833
          0.0009074562698227484 0.002581053406404743 -0.0018527648443323885 0.0008136528920431596 0.0025820778905284447 -0.0031345329758865614
          0.0022093447466847715 0.005092074090127907 -0.0032466568352042535 0.006747726200221793 0.0135498180797895 0.0013825077805011965
          -0.0036776405290794845 -0.0033906694863027886 -0.0014596566630467045 0.007351971408799951 0.006860550176021218 0.000004732090436922187
          0.00048721785281787 0.000969122031085734 0.00014052195068281134 -0.00011068107500593685 0.0006288584091006799 0.00023686087647184148
          0.00011483359423622441 0.0011015215490688818 0.000291351133860307 0.0006706192496814534 0.0020551057795269168 -0.000046486212159746465
          0.001179685184443252 0.0029179605868089875 -0.0007785532852079002 0.0013000882457081808 0.0032443919739565674 -0.0016240374734811935
          0.00263247754840526 0.005696819177589296 -0.0011292169475460578 0.0039990029559696105 0.0077730606989981355 0.001228241928669327
          0.0055615193044437905 0.004026386780873303 -0.000488389143048773 0.0011931253725032953 0.0010058757113418915 0.00003878594460188234
          -0.00047899536190917913 0.00033126709133815546 0.00028927511232754166 -0.00038434048364506535 0.00020491618310806287 0.0004416761342503073
          0.00004353482544856152 0.0007623089308617468 0.0005042702068464855 0.000682216809197625 0.0018794621920060484 0.0004016104511411489
          0.0013809752998687752 0.003109759830785902 -0.00002938182056906602 0.0017487049142909938 0.0037695353565841833 -0.0005863419919560214
          0.0029725317810977425 0.006233210578726195 0.0006191766092148304 0.0027030847579372907 0.006109255446425765 0.0029910444227816413
          0.00011455160268702969 -0.0001236767174365161 -0.00028843666791183997 -0.0012862454211064536 0.00016054291324378578 0.000357683226535066
          -0.0007594548754649294 -0.00018123242688190128 0.0004633969665142623 -0.0005091495567899375 -0.00027104493906707217 0.0005161529362189554
          -0.00013679468054992455 0.0003117816428387533 0.000648195061647136 0.0006034765924687324 0.0015315199448155403 0.0005393484226357548
          0.001543770938831443 0.003212868217388677 0.00025735256255352695 0.0023598059530761106 0.004590134810508517 -0.00005386252700818883
          0.003865701014868106 0.007309163276542574 0.0012223956743224462 0.004241073289055319 0.00802199968946854 0.00378110827363487
          -0.0015992931320295 -0.0025607012588597655 -0.001352993616648257 -0.0013237511071249042 -0.0023404003621885217 -0.0006052805131672168
          -0.0009830209063886874 -0.001419045321597201 0.0003865346495180999 -0.0007030620600992389 -0.0008663579283931001 0.000740325350838969
          -0.0003632963185695899 -0.0002929089782543791 0.0006757947635515071 0.0003648386104403941 0.0009536443478038933 0.00036517868439857326
          0.0015954555247719403 0.0031761583967912163 -0.000025812877067932227 0.0032928805195072616 0.0063179455277163135 3.648064228756187e-7
          0.0042405176547058165 0.008316419955241308 0.0007486842835302543 0.0013379840124068676 0.002730788451318744 0.0006357381784634908
          -0.0008071133560773047 -0.001539477103755349 -0.002488086621057317 -0.0005886519704716431 -0.0011273432356189161 -0.0024211331617358667
          -0.0007843157495459052 -0.001064546897185159 -0.0024877995986629653 -0.00042707826535876015 -0.00048814746900566197 -0.0020466381976474712
          0.00017418451054754258 0.0004543634656100082 -0.0009860048525802134 0.0015129220288478962 0.0028722856469589053 0.0022626663782226997
          0.004021277339266605 0.007980203596199442 0.009037965409420812 0.004348526068741698 0.007796323466190858 0.009157214959737092
          -0.0007370640253379821 -0.0006265681014070504 -0.00019747701011210705 -0.001512140680851648 -0.0005027158187830005 -0.0016395529618304372
          0.00041460026068049216 -0.0026691681257517003 -0.0001385028142779493 -0.005073277839200974 0.00314207031161981 0.00032585552878221236
          -0.00013809120041823053 -0.00021970379106922957 -0.0006466668152783905 -0.0003872234855513135 -0.0009560892939945165 -0.00003321067694307678
          0.00011168259579211887 -0.00009421594604724914 -0.00024003129103708498 0.0004716218909225009 -0.000414166804412662 -0.0008416678220195817
          0.0022362453832883676 -0.00043068090196003717 -0.0007190143528351123 0.0002506070224311818 -0.0013541516470839676 0.01304619692887099
          -0.003953328630490416 0.0011977193554393306 -0.0006281294843054064 0.02163570813702137 -0.006863599348118921 -0.0014676959854635907
          -0.00229890919499387 0.006392133482139739 -0.005003627446502262 -0.0018452576660792364 -0.001261741791163229 0.0006692579446341274
          0.000031100166947573005 -0.005752686586278699 -0.006615130748466758 0.005947591210995418 -0.005901763741316901 -0.0027310504695994275
          0.0008086455716642127 0.012945416653722175 -0.005337285317238094 0.001035451054233305 0.0033847801034140312 0.001893089287770655
          -0.0002656770446412826 0.0014959579703497372 0.006914186719798487 0.0039888256610666195 -0.0010127470226346108 -0.00027930402147943734
          0.00423456714157 0.00155023938892207 -0.002307729814149867 -0.0005875435189319211 0.003287940894923236 0.0029291152889828476
          0.00076703408968265 -0.0031209990812649524 0.005119940294667336 0.006367265830766244 0.0009328892284667933 -0.0006958732503296039
          0.0033149085674620826 0.005673527937558237 0.0031712554059289966 0.00017884890794667152 0.00120715601313795 0.00014571079848857416
          0.001935202906293093 0.0005324320809598007 0.001175423460625935 -0.001382357584668259 0.0015479234246904006 -0.0016256570375415627
          0.0026039476557299657 -0.0006913778983262536 0.0005019035503482372 -0.0025976289149549437 -0.0011894431753811108 0.001920351523531802
          0.001404753462803665 -0.004480673813214223 -0.00253868896800169 0.0015655295581087775 -0.002853358928783134 -0.001390236287488078
          -0.0014526348037181003 -0.0013951849987244858 -0.006207597747256655 -0.0019059210994682415 -0.005171861371258135 -0.0039441702728554495
          -0.002453787752115355 -0.003709995141994293 -0.008789969018667576 -0.0068788583593954716 -0.003996156311453558 -0.004054917251634444
          -0.005795310064530712 -0.005225629630576838 -0.003049116983654801 -0.004757103955350339 -0.007778293131893543 -0.005766630115713434
          -0.01167701135427951 -0.001501962968535886 -0.002626453207775825 -0.0002585464831746376 0.00028205016374170666 -0.0019403829727713817
          -0.000423259918493582 -0.000769459674217321 -0.01365125305526925 0.021583153118249376 0.0006245874158967157 0.00043447314028111084
          -0.011866220046410414 0.033030886729002895 0.0022223100682803865 -0.037346062965716964 -0.017826105257509273 -0.010014179068720208
          0.009800452363509727 -0.06807371899610493 -0.03402447439576095 -0.018210668173479744 0.02099810689666964 -0.02486922667604552
          -0.015462082957020895 -0.00298562712427089 0.014442128842225371 0.00005420062672183146 -0.0002123062881294012 0.000482732172662044
          0.0001309989964987865 -0.00007092990238539987 -0.00014762551952627982 0.0015539486917710704 -0.0002613625187130736 -0.00018566237541287056
          0.0008164035760603872 0.001918958335364214 -0.001122948446778493 0.0014964560379893133 0.005158919518851071 0.00337824612630766
          0.010778911173871253 0.0023389055151257776 0.006216349918892886 -0.0020796900700081333 -0.0027200236486325524 -0.00447246265391682
          -0.0022189145415918987 -0.0003902504027608056 -0.002203033804146104 -0.0017483146409510986 -0.0008925537428683405 0.001095078183456999
          -0.0007303497896290478 -0.002567875063598124 -0.0015485309484013499 -0.0045435890636514875 -0.005884406200383163 -0.0007855994898392712
          0.0031861228962876964 0.0007005451145460917 0.002802600501483954 0.0019293305453790544 0.004792767059858094 0.01453294962429963
          0.0020200716634971305 0.00562199813702241 0.013242577199661487 0.030953022275057362 0.009897052477112284 0.004527439937285521
          0.013999793495026613 0.02758386183904027 0.011362900943103812 -0.0011613703131724273 -0.00348662121131052 -0.0026140688643932555
          -0.0015821998686027516 -0.005838165000939671 -0.004183806416317881 -0.000810821902240258 -0.004448057319889218 -0.002597158227783593
          0.0006369584832203873 0.001487437992357954 0.0001470300176347472 0.0040011671301039 0.0019987490715798195 0.003552304501085235
          -0.002461199750049714 0.002714460607174396 -0.0034822748217274713 0.0031101968802209057 0.0023669401782776545 0.0024853657939242213
          0.004712948055037636 -0.0020728040498879663 0.008302079888990344 -0.00703025776646532 0.006069998999151283 0.001115896416970661
          -0.0052255546181991935 -0.001533389432053861 -0.0030303690968942476 -0.005010565684429882 -0.006741066993019615 -0.0011191527812955404
          -0.005018430706318799 -0.007706855554522489 -0.0018072476566262999 -0.001153644441618945 -0.003717044270798553 -0.0031575291364309387
          0.001802184288388367 0.00418737473989611 -0.0015198688359815277 0.00392258698347156 0.006427099853092033 -0.0033659817459624486
          0.0031632769751784792 0.00380459030214636 -0.0011367713990430572 -0.0012148739421096177 -0.0010919031490428388 -0.0023480621709134897
          -0.0016956469179334466 0.0017225048804836857 0.0007325581642552148 0.0006950903211405679 0.0018783893671314722 0.0015705229895074946
          0.003050648559637714 0.0014114902314081301 0.0016893700380900545 0.005625642539147824 -0.00273317433029871 0.012470233451748136
          -0.0008986884425892377 0.010406432109493935 0.004322279202779722 -0.00012545126257407224 0.0011320336294495803 -0.00007663036888438945
          0.0011475235192978106 0.003811539953482046 0.0026368884888424426 -0.00028343071691644753 0.000624085038745734 -0.00025132523881084105
          -0.0006680458431979081 0.0010628007441537968 -0.0005188448115420533 -0.0003281569379833399 0.0003053692999448812 -0.00019707201610025087
          0.0024361287680709776 -0.0003025522599862107 -0.000056943010878662825 0.005146556965311855 0.0010154385739691296 -0.0012175358472673592
          0.005469182737258327 0.002054964636799994 0.0008586669100731914 0.0003245757313114217 0.001988812549171007 -0.00294410535797179
          0.0008852178888176243 0.0034943154976762314 -0.004685303727205339 -0.0007474656688282733 -0.0009253376071310659 -0.0022359004014459883
          -0.004018132003771657 -0.006364514473364159 -0.0023539266123194756 0.00004048742706559694 -0.0001573900517438595 0.0007971613933617575
          -0.0004527485418318747 0.00007234992418960438 -0.0002891520044281254 0.00145536226097729 -0.001027737308585231 -0.00006050249382239664
          -0.00006248023708338435 0.0006838420752455152 -0.0005737394159789216 -0.003511285991456961 0.0022259529297907754 -0.006342655695833796
          0.0030843424382285267 -0.0033719273755796406 -0.0021108880890806647 0.00010376053276214131 0.0009857430786320617 0.0001705826108567149
          0.0019035333552104433 0.00006602986838864788 0.0008815796283478464 -0.0013173119807312617 -0.010724836342728361 -0.0031997816403780965
          -0.018940664992436185 -0.00460161682499588 -0.007933370306437593 -0.020968827042092908 0.025527917488151086 -0.037124716008141434
          0.037875028224611695 -0.012141350365019066 0.014993105120001737 -0.00037584765724903504 -0.0007696174923150102 -0.0004084771785624712
          0.0035073882827514336 0.006984141454998927 0.0061808378038739065 -0.01820651669504436 0.0011351713494492377 -0.019051189173040828
          -0.0040229402409671655 0.006493862631658853 0.004995767804190421 0.000786974219617903 0.0013554188199730033 0.0010098370975314408
          -0.00558745401730841 -0.011421037397173178 -0.0024916690527148344 0.00030729401022824626 0.0004099655205441737 0.00005058359458185932
          -0.0005125841706236645 -0.0007648750653966307 0.0020296635440336663 -0.001090304132638914 0.00111544778208153 0.00283906335607062
          0.00020582776954580773 -0.0026473614150785696 -0.003700504705306973 0.0014695102062688425 -0.0010665695710205259 0.001778411102906774
          -0.013967454196214521 -0.025387033893965037 -0.011311265030026399 -0.0025354679552973963 -0.004807649735687175 -0.0031883650831948454
          -0.0012437137724394948 -0.002631089995963537 -0.0013592681136906787 0.00089221668372233 0.0015989584202554565 0.00007363794326061684
          -0.0017071835548746472 -0.0035322011976546275 -0.003863825326657744 -0.0024569744239895525 -0.004818817445440132 -0.0021219477093211425
          -0.0011173626121367408 -0.0024194416564930626 -0.0032249753052876473 -0.0007915612933807048 -0.001339512220508654 -0.0007087599304441694
          -0.0006531175700690284 -0.0012225896669388892 -0.001900311484064665 0.001034796502310531 0.0022395880958280268 0.000944376475595643
          0.002768729690644234 0.0059287762529709465 0.0051855353335581444 0.004963079649120239 0.01130743269469936 0.010320753872056443
          0.0016873243504048618 0.00349365952466274 0.0027311149588137296 0.0009097334047202255 -0.0003331845005125622 0.002203682344903257
          -0.0017566288105739236 0.002715799739064162 -0.0007199373095873041 -0.0017146720062085619 -0.0006700683697989374 -0.0005419898094630726
          -0.002237794141298627 -0.00326337981749264 -0.0006765911822242954 -0.015724015541428382 -0.003521068713954023 -0.0008644452085235232
          -0.00024633813162677765 -0.02464704875146073 -0.0031470344677806406 0.0016506116793978953 0.003196013777961998 0.001755255519608201
          0.0012965067402554986 0.001315111893623655 0.0005576656865723395 0.0010656839808630691 0.0024528400006079837 0.0010649086597025459
          -0.0004323605166432487 -0.0008976471560802057 -0.001107346045598423 -0.0015305316933937885 -0.00041029430957530144 -0.00003461154755540763
          0.00044107862775388806 0.00008633804791524646 0.00012252145730073938 0.0014723885473776899 0.0015701541314889766 0.0006803327363361089
          0.0015896624530121195 0.002458082639663628 0.0016105620773198825 0.003933894704492791 0.006296504613023668 0.0038227277045713715
          0.003951014250648477 0.005414382906480775 0.002857340472367742 -0.00025006682624684196 -0.0038699173672922527 -0.0037969129738872898
          0.00003974154790076234 -0.0012553698831547777 0.00022894623309954731 0.0005406420028454817 0.0001444397095750529 0.00044525788350480155
          -0.0023072835399364777 -0.000352131210352059 0.000931069347958946 -0.0012969352067825346 0.00020951047842203419 0.001588969090206005
        </DataArray>
        <DataArray type="Float64" Name="resid_z" format="ascii" RangeMin="0" RangeMax="0">
          0 0 0 0 0 0
          0 0 0 0 0 0
          0 0 0 0 0 0
          0 0 0 0 0 0
          0 0 0 0 0 0
          0 0 0 0 0 0
          0 0 0 0 0 0
          0 0 0 0 0 0
          0 0 0 0 0 0
          0 0 0 0 0 0
          0 0 0 0 0 0
          0 0 0 0 0 0
          0 0 0 0 0 0
          0 0 0 0 0 0
          0 0 0 0 0 0
          0 0 0 0 0 0
          0 0 0 0 0 0
          0 0 0 0 0 0
          0 0 0 0 0 0
          0 0 0 0 0 0
          0 0 0 0 0 0
          0 0 0 0 0 0
          0 0 0 0 0 0
          0 0 0 0 0 0
          0 0 0 0 0 0
          0 0 0 0 0 0
          0 0 0 0 0 0
          0 0 0 0 0 0
          0 0 0 0 0 0
          0 0 0 0 0 0
          0 0 0 0 0 0
          0 0 0 0 0 0
          0 0 0 0 0 0
          0 0 0 0 0 0
          0 0 0 0 0 0
          0 0 0 0 0 0
          0 0 0 0 0 0
          0 0 0 0 0 0
          0 0 0 0 0 0
          0 0 0 0 0 0
          0 0 0 0 0 0
          0 0 0 0 0 0
          0 0 0 0 0 0
          0 0 0 0 0 0
          0 0 0 0 0 0
          0 0 0 0 0 0
          0 0 0 0 0 0
          0 0 0 0 0 0
          0 0 0 0 0 0
          0 0 0 0 0 0
          0 0 0 0 0 0
          0 0 0 0 0 0
          0 0 0 0 0 0
          0 0 0 0 0 0
          0 0 0 0 0 0
          0 0 0 0 0 0
          0 0 0 0 0 0
          0 0 0 0 0 0
          0 0 0 0 0 0
          0 0 0 0 0 0
          0 0 0 0 0 0
          0 0 0 0 0 0
          0 0 0 0 0 0
          0 0 0 0 0 0
          0 0 0 0 0 0
          0 0 0 0 0 0
          0 0 0 0 0 0
          0 0 0 0 0 0
          0 0 0 0 0 0
          0 0 0 0 0 0
          0 0 0 0 0 0
          0 0 0 0 0 0
          0 0 0 0 0 0
          0 0 0 0 0 0
          0 0 0 0 0 0
          0 0 0 0 0 0
          0 0 0 0 0 0
          0 0 0 0 0 0
          0 0 0 0 0 0
          0 0 0 0 0 0
          0 0 0 0 0 0
          0 0 0 0 0 0
          0 0 0 0 0 0
          0 0 0 0 0 0
          0 0 0 0 0 0
          0 0 0 0 0 0
          0 0 0 0 0 0
          0 0 0 0 0 0
          0 0 0 0 0 0
          0 0 0 0 0 0
          0 0 0 0 0 0
          0 0 0 0 0 0
          0 0 0 0 0 0
          0 0 0 0 0 0
          0 0 0 0 0 0
          0 0 0 0 0 0
          0 0 0 0 0 0
          0 0 0 0 0 0
          0 0 0 0 0 0
          0 0 0 0 0 0
          0 0 0 0 0 0
          0 0 0 0 0 0
          0 0 0 0 0 0
          0 0 0 0 0 0
          0 0 0 0 0 0
          0 0 0 0 0 0
          0 0 0 0 0 0
          0 0 0 0 0 0
          0 0 0 0 0 0
          0 0 0 0 0 0
          0 0 0 0 0 0
          0 0 0 0 0 0
          0 0 0 0 0 0
          0 0 0 0 0 0
          0 0 0 0 0 0
          0 0 0 0 0 0
          0 0 0 0 0 0
          0 0 0 0 0 0
          0 0 0 0 0 0
          0 0 0 0 0 0
          0 0 0 0 0 0
          0 0 0 0 0 0
          0 0 0 0 0 0
          0 0 0 0 0 0
          0 0 0 0 0 0
          0 0 0 0 0 0
        </DataArray>
        <DataArray type="Float64" Name="stress_zz" format="ascii" RangeMin="-113864345.16205937" RangeMax="181071385.1462909">
          1110388.7403359283 1078111.542481976 447033.2722490126 445846.0083225999 -216322.19583790313 -186419.52583677633
          940284.943966182 1041911.9398877146 224954.07738205284 302763.90553291765 -490376.7892020764 -436384.1288218792
          -579133.9602167103 -314036.6257085582 -939382.0214715325 -780617.5122844982 -1299630.0827263547 -1247198.3988604383
          -2810804.862709734 -2761699.0449787634 -2456560.5525387963 -2459391.026490002 -2102316.2423678595 -2157083.00800124
          -3397614.198964181 -3668447.6089948365 -2561311.7840560395 -2788683.660682006 -1725009.369147898 -1908919.7123691756
          -2254241.178516886 -2589676.9226339567 -1489758.5414279993 -1767260.9627506277 -725275.9043391121 -944845.0028672984
          -220917.7889814908 -647062.9557329996 94947.83150786799 -334312.2944849363 410813.45199722674 -21561.633236872847
          2899189.8667424116 1624466.8076794078 2424648.009086953 863933.4511989494 1950106.1514314942 103400.09471849083
          6525709.4966484215 6021967.36216624 4565861.333289186 4015653.0481565055 2606013.1699299496 2009338.734146771
          35426158.51896181 12775938.791958291 28875176.36234321 8455883.18573793 22324194.205724612 4135827.5795175694
          1044677.1937740458 361349.6183077812 -321977.95715848333 456247.2704069228 -144431.65799178102 -745110.5863904848
          -1257680.0489675996 -1408146.3539732038 -1558612.658978808 -2779802.6388514955 -2349514.3854311574 -1919226.1320108199
          -2673630.6999481115 -1949768.9150163955 -1225907.1300846797 -1300668.883849054 -687049.77018297 -73430.65651688579
          1213131.6717419857 1545815.0115740178 1878498.3514060501 4640909.601804586 4731389.2868981315 4821868.971991676
          6741476.214067098 5176589.865788149 3611703.5175092025 -1451745.8057791744 -4169831.4294082145 -6887917.053037256
          415301.24967715354 -156692.3874812969 -728686.0246397473 -874372.57144792 -1123396.0958850437 -1372419.620322167
          -2284514.3630218757 -2047398.0001802233 -1810281.6373385708 -2559943.191133108 -2010047.3185326043 -1460151.4459321005
          -1736570.323884466 -1148855.3539182188 -561140.3839519718 194086.5418714019 602179.1978258184 1010271.8537802352
          3285345.3931178134 3621313.959163626 3957282.5252094385 5254695.251242989 5887165.646800159 6519636.0423573265
          2064598.8548028138 1315217.3874094784 565835.9200161428 -2702308.1716377875 -3852677.518875166 -5003046.866112543
          -1508311.885667859 -1564226.1269512898 -1620140.3682347205 -3222153.647935527 -2666758.9352196753 -2111364.2225038237
          -3468984.8286531204 -2585594.9021079377 -1702204.9755627546 -2282402.6475683968 -1554117.6661252598 -825832.6846821229
          -757438.4690126092 -284387.01495142974 188664.4391097497 1897263.2902654945 2078119.6512143798 2258976.0121632647
          5254639.69666808 5519360.184590089 5784080.672512097 5262928.798118039 6268827.655151948 7274726.512185855
          -2166565.1453103567 -2550663.418098028 -2934761.6908856984 -6279134.236281276 -8201183.899957329 -10123233.563633382
          -5401935.076906083 -4077402.0592572354 -2752869.0416083867 -6190024.784568511 -4342345.467010259 -2494666.1494520064
          -4561938.409750854 -2966086.3520841477 -1370234.2944174418 -2159833.829355965 -1214103.2832093677 -268372.737062771
          162833.3057688772 555592.7940648766 948352.2823608759 3362338.1794324955 3327236.399090368 3292134.61874824
          6647862.836100808 6712706.815204169 6777550.794307529 5536893.986462798 6363484.33358006 7190074.680697323
          -2599341.343811908 -3349214.929374982 -4099088.5149380565 -20053037.52337793 -22769848.16420925 -25486658.805040568
          -10328673.388039228 -6982445.820254076 -3636218.2524689226 -8949831.367328204 -5782297.05238444 -2614762.7374406746
          -5650018.788432458 -3402252.941099932 -1154487.0937674057 -2270835.8938884465 -1065576.9605087477 139681.9728709509
          870471.947677184 1225384.2657280492 1580296.583778915 4323056.571528657 4075733.965861059 3828411.360193461
          7514722.8618760295 7177770.82166228 6840818.781448531 6278543.982562167 6239647.788290167 6200751.594018169
          -2321635.8673013626 -3921799.4674152806 -5521963.067529198 -7718815.798826488 -12273408.660775535 -16828001.522724587
          -13542462.65413728 -9203017.35910625 -4863572.064075222 -10329082.705324179 -6843517.482446732 -3357952.259569285
          -6256817.62359301 -3960775.1537330295 -1664732.6838730485 -2322005.5464264243 -1175296.376231474 -28587.20603652409
          1368084.6192139692 1574399.1226101476 1780713.6260063262 4853904.434500106 4333320.91728534 3812737.4000705755
          7861323.552035492 6975652.998322071 6089982.444608648 7873047.756159129 6649226.444786139 5425405.133413151
          1992896.3340829692 -521373.5907157336 -3035643.515514436 -1834672.5978313847 -4972662.932016984 -8110653.266202584
          -10392057.459747897 -10586498.327133337 -10780939.194518778 -6602303.521045935 -7755904.385878933 -8909505.250711929
          -3004640.0059552426 -4801513.376531023 -6598386.747106804 230050.61168736452 -1812724.2112600843 -3855499.034207533
          3269635.7707909346 1349335.4642801974 -570964.8422305404 5832860.098617736 4444439.640273346 3056019.181928957
          7023234.398275486 6706127.484294843 6389020.5703142 7606727.298813654 8562442.362558965 9518157.426304273
          5747608.048512747 8063846.576419051 10380085.104325352 -3159367.4387765634 1782003.5649608416 6723374.568698248
          124161.50025095977 -4036073.6392634846 -8196308.778777929 2268576.428895511 -1365597.5322518938 -4999771.4933993
          4244757.032059422 1506524.126078993 -1231708.779901436 5631967.746997865 4263355.557505082 2894743.368012299
          5433425.480324646 6031187.228999681 6628948.977674715 4754145.653226598 7373626.16521516 9993106.67720372
          9441613.619063746 14723087.718187723 20004561.8173117 6235355.019816519 12339133.12162059 18442911.22342466
          -2007430.8617654252 -36627558.811524466 -24763810.813827056 -3967183.3220605846 -6354972.809304615 -34544549.341759756
          -20496512.8525061 -6321564.392795542 -10702514.756843802 -32461539.87199504 -16229214.891185146 -8675945.4635305
          24772153.602614984 19282826.025229804 15160360.272489913 13629397.069863325 5548566.94236484 7975968.114496847
          26023573.72426186 46051285.30158851 58050097.776944265 17147926.10398919 30317322.69214698 44392321.82542604
          8272278.483716512 14583360.082705447 30734545.873907812 25979637.67140438 12911528.548006859 78231782.44298893
          27293181.326433662 21962959.814189337 10288829.57118313 69068648.47698031 22453626.0413121 17946281.95697429
          7666130.5943594035 59905514.51097168 17614070.75619054 -16523836.583171789 -39089808.612002775 -52952643.50832635
          -51511724.28835459 -7452034.249776858 -27343406.70473993 -32758475.891207613 -28753997.496659465 1619768.0836180765
          -15597004.797477081 -12564308.274088867 -5996270.704964321 7973645.1836188305 1951685.1443152 41987921.49606108
          10540089.69252193 9042713.07486428 864820.0974229667 38685688.1232211 9863965.617698465 10111780.966109728
          -222044.9494692674 35383454.75038111 9187841.542874997 -22323863.13623027 24706540.201463513 -8781000.095870296
          -19838202.419816874 -17653349.559371915 30914384.146630757 -5042873.849704997 -15340765.627781387 -12982835.982513553
          37122228.09179801 -1304747.6035396978 -10843328.835745903 1690353.064242471 -270837.37941931095 8072979.029753342
          -1938986.900964073 14455604.995264212 -3607136.422508834 33651703.21419483 4457259.11242624 32207504.661502615
          -766611.7056312198 30763306.1088104 -5990482.523688678 -12269423.551887285 23535645.751414705 32786981.4052143
          -71214364.96740048 -6480913.810514715 14847867.969494328 6655116.130281664 -53369021.55612811 -692404.0691421442
          6160090.18757395 -19476749.144650973 -35523678.144855715 40807987.836616926 54906849.78164621 24700693.81375622
          8888242.496439382 30129165.080742836 47474790.2970994 20274459.974234264 3059580.936868941 19450342.324868746
          40042730.81255259 15848226.134712305 -2769080.622701496 -81272225.95911771 -47556444.449765526 -76383031.94554226
          -46546950.95219678 -71493837.9319668 -45537457.45462803 -19773204.14716304 -9058804.80657062 -1658182.4918087085
          -2334897.86607851 -17924698.589855894 -6443651.794140893 -951448.2554514805 -3597971.812433944 -16076193.032548746
          -3828498.781711165 -244714.01909425203 -4861045.758789378 97097255.37966734 181071385.1462909 37016227.082110144
          36432671.49481161 72475628.92180592 156245894.34495836 35262142.28018685 28395866.8657313 47854002.46394447
          131420403.54362579 33508057.478263542 20359062.236650996 82264684.93252985 69532045.73733923 65886832.95987075
          87578950.58540723 42420355.43037791 31456452.468149316 42531603.95005104 57498922.4402921 2576025.928225955
          -6619140.8010406 19176374.940231327 27418894.295176975 26123129.41638304 -12959273.74282208 35099031.61609498
          -6370991.247833626 44074933.81580692 217291.2471548263 6258294.812007482 5365364.207760915 4472433.603514346
          -37117298.40329528 -54754414.44796965 -24114470.325029388 -47249466.74829982 -11111642.246763496 -39744519.04862998
          -58100446.80157985 -65084154.3423073 -53139802.92196319 -40012044.35980657 -51037402.4593537 -47740632.6982638
          -21923641.918033283 -36990650.5764001 -42341462.47456442 -11988313.950545605 -432576.1018288871 50269536.922406435
          32388108.08533247 -34595482.73120404 -30069269.614671756 46298712.05717786 25188853.457023848 -57202651.51186249
          -59705963.12751463 42327887.191949286 17989598.828715224 20993969.693071105 7118986.052340452 19724449.427041683
          16860785.00799811 1918045.0551035134 13528561.23597592 12727600.322925113 -3282895.942133423 7332673.044910158
          8132532.109576645 -11498127.544084007 13869169.186421935 -15242188.155114148 19605806.263267215 -18986248.766144283
          -76209622.89806867 -38572581.191902496 -47621523.66526684 -26718497.067923505 -19033424.432465006 -14864412.943944504
          -44026913.49443501 -41749358.73647756 -22305501.1093031 -33441121.05924646 -584088.7241711803 -25132883.382015374
          61279202.06532435 77523889.38067551 64504457.094266996 48998565.35885388 60483810.83216186 73852652.35614571
          59830513.153618105 46455048.425359465 59688419.59899938 70181415.33161592 55156569.21296921 43911531.491865054
          -8876689.33935986 20075586.89385163 10212079.519862764 -6390031.08368944 13963361.798262319 4622587.511920287
          -3903372.8280190215 7851136.702673007 -966904.496022189 -27092496.36214757 -27303560.779318303 -22888542.6391309
          -18664341.93110865 -18684588.916114233 -10025123.082898991 545123.7909095831 2620206.9882313386 2688621.8891586177
          3407392.755109897 4832119.987407653 4194578.521988461 -27058802.049711496 -30485347.12976823 -23892787.36747731
          -47426462.42531104 -20726772.685243115 -64367577.72085386 -21040854.432191137 -17485403.970280863 -19176550.80463242
          -8769130.968275107 -17312247.177073706 -52857.96626934735 56371346.04767494 35728144.02640227 43057819.229689784
          35905915.700428896 23253615.031550184 27862738.583936736 15440485.353182852 10779086.036698092 12667657.938183688
          -7419634.50667946 -8122292.279792312 10417269.778834807 -5023150.676068075 -2803541.8565915236 23713016.114329614
          -2626666.8454566896 2515208.5666092644 37008762.44982442 -3132928.4434826286 -4236286.250377707 -37036296.342560865
          -2510692.1223956067 2538688.6319597913 -30968612.507992137 -1888455.8013085853 9313663.514297292 -24900928.673423417
          1195847.2037086338 8115659.336509444 15035471.469310258 22580170.85473842 19075022.291153207 12114617.461943569
          11939547.480794838 13493218.532426547 11828345.151893146 6648557.911241053 4897903.602797865 4406266.210114671
          4581668.012633082 1182498.3605385371 -2143740.275199108 42514775.773742124 -14954007.405281395 41692400.22657584
          -15025674.895627286 40870024.679409556 -15097342.38597317 27531173.691152193 32724369.393894054 17854693.035283223
          20436224.22771083 8178212.379414247 8148079.061527604 55012355.43878911 -48882064.62413015 48220942.11832595
          -41462319.70752315 41429528.79786277 -34042574.79091616 99410729.19380076 -81721304.1053798 91619629.51452644
          -74541418.2598686 83828529.83525214 -67361532.41435742 13428409.888213497 9213731.218258454 4999052.548303414
          -5871541.41936839 -3026339.6360491253 -181137.85272986 43730529.24529998 89095984.78001034 54787554.97029501
          95166550.40766795 65844580.695290014 101237116.03532559 -5632372.454544303 7595482.014231254 20823336.483006816
          -80160875.88421434 -51928532.66015164 -23696189.436088946 73746002.75542945 51143484.23746522 28540965.71950099
          -24650849.33211128 -17931363.76428903 -11211878.19646677 5989146.590895279 2874311.28768563 -240524.0155240193
          -113864345.16205937 -90781935.3990601 -67699525.63606082 68447829.88518442 66456708.61589276 64465587.34660109
          112618044.04155672 97902809.64858328 83187575.25560984 -10287093.79612612 -17893988.187675826 -25500882.57922553
          8524617.408435563 3675762.131564363 -1173093.1453068363 72037965.16928995 31764703.46509641 -8508558.239097126
          2423018.4588807104 2443194.227599254 2463369.9963177973 4669508.907085463 5754858.631919567 6840208.356753669
          3559242.5970861735 3658810.523713631 3758378.4503410878 4222278.729712548 5083489.532569709 5944700.335426873
          4043735.7687672535 4216205.711495504 4388675.654223755 3206414.001226455 3485838.590992526 3765263.1807585973
          2125710.119914906 1682276.401880957 1238842.6838470078 4087716.3851473155 3558597.5383953825 3029478.6916434495
          6314153.0155348 5747405.627278281 5180658.239021765 -2624102.3238202515 -8018149.973321741 -5942361.262410633
          -10614713.89017747 -9260620.201001016 -13211277.807033198 -611829.1424804407 1880603.6255336516 1669379.6470483276
          -4069225.6035704073 -1233219.5294232776 1080600.933511051 2483295.975971719 -4252912.77840903 -1854609.9163661147
          280598.2414884507 3297212.3048951104 -4436599.953247652 2874739.440713367 1796384.7926990062 718030.1446846452
          4823126.475661257 4564747.584273383 4306368.692885509 4545278.489348314 3498696.959330229 2452115.4293121444
          3706934.6046210844 5547626.507172076 3551223.9647088293 5364636.77654722 3395513.324796574 5181647.045922364
          2786870.6310208067 3254585.089627789 3722299.5482347705 676928.2196839517 544765.6280734362 412603.0364629205
          -87612.49890097883 -196945.90339504404 -306279.30788910924 -3987379.9401032915 -5387299.406641156 -6787218.873179022
          -6922087.446536092 -8945296.115377788 -10968504.784219481 3006754.518261866 2737842.318492902 2468930.1187239373
          8855281.200621676 8958925.904999722 9062570.609377768 1859033.9872181942 5176884.587320279 1479751.9142719174
          1794425.6261711186 4106569.869446491 1236538.8256160324 1729817.265124043 3036255.1515727034 993325.7369601468
        </DataArray>
        <DataArray type="Float64" Name="peeq" format="ascii" RangeMin="0" RangeMax="0.09634128380615542">
          0.00006760662903306219 0.00005775877735767854 0.00008339221813426296 0.00007153600504215181 0.00009917780723546371 0.00008531323272662508
          0.00006225244339964674 0.0000368375334929626 0.00009330852520176333 0.000065899527685569 0.0001243646070038799 0.00009496152187817537
          0.00019501040625360686 0.00014525227147561552 0.0002497997828709745 0.0001975990455972361 0.00030458915948834215 0.0002499458197188567
          0.0006926190123992086 0.0006080122853369936 0.0007820059470847413 0.0006959759323244358 0.0008713928817702739 0.0007839395793118781
          0.0019259461606633828 0.001809640595077821 0.0020438599204483767 0.0019299435604003992 0.002161773680233371 0.0020502465257229772
          0.004310101508469959 0.004186129613464945 0.004417068213045189 0.0042984537216482375 0.0045240349176204194 0.00441077782983153
          0.008242835272217542 0.008145631924923648 0.008271464120726844 0.008178135261761109 0.008300092969236145 0.00821063859859857
          0.014234586183802455 0.014219050088022156 0.014092895556893196 0.014073391073383465 0.013951204929983937 0.013927732058744775
          0.023962047423095684 0.024298915634998808 0.023512854299620575 0.023821075703011944 0.023063661176145462 0.02334323577102508
          0.03690456814381287 0.036147940705617304 0.03600404460233255 0.035304205228808574 0.03510352106085223 0.03446046975199985
          0.00010001199146799424 0.00012224516354660082 0.0001444783356252074 0.0001417631455091556 0.00017964651942752567 0.00021752989334589574
          0.00035048108928524384 0.00041255917701515856 0.0004746372647450733 0.00095142841969547 0.001043903313622975 0.0011363782075504796
          0.0022722745270793137 0.0023825790769457225 0.0024928836268121317 0.004674407052062922 0.004765954146852265 0.00485750124164161
          0.008526405362028673 0.008543646752269339 0.008560888142510003 0.014266044928214688 0.014136215448793368 0.014006385969372055
          0.02300214051288159 0.022629706402620204 0.02225727229235882 0.0328413798554436 0.03217530955852536 0.03150923926160711
          0.00016490368722312632 0.0001987066402159341 0.00023250959320874189 0.00028722415332647477 0.0003386209047290178 0.0003900176561315609
          0.0006280092506838596 0.0007025725340161085 0.000777135817348357 0.0013943700719164787 0.0014887880531794318 0.001583206034442385
          0.0028395481955350186 0.002935560105423688 0.003031572015312357 0.005256301090113175 0.005323813555280164 0.005391326020447153
          0.008963141074648205 0.008963183110243692 0.00896322514583918 0.014276560539977941 0.01416449302574346 0.014052425511508981
          0.021539577572075263 0.021279415866760618 0.021019254161445972 0.0291213673289224 0.02877524234679608 0.028429117364669763
          0.00028204520373669014 0.0003327361401477667 0.00038342707655884324 0.0005269479193896983 0.0005975482640079579 0.0006681486086262177
          0.0010550419038644666 0.0011423392495514793 0.0012296365952384925 0.0020278588053092043 0.002117237475078625 0.0022066161448480452
          0.0036089378216649487 0.003681886399409348 0.0037548349771537467 0.006014921193934181 0.006051486016244722 0.006088050838555264
          0.009490951640213583 0.009471729805782335 0.009452507971351089 0.014202188015393536 0.014111575778230594 0.014020963541067653
          0.01979691639045608 0.019661552341527645 0.019526188292599223 0.023603978295192514 0.02353882797892044 0.023473677662648372
          0.0004875012738555636 0.000556435497842125 0.0006253697218286864 0.0009079297925119611 0.00099281252471592 0.001077695256919879
          0.0016635551533059152 0.001749666810160673 0.0018357784670154308 0.0028493637851399706 0.002918198239135128 0.0029870326931302838
          0.0045486184866910685 0.004587037357123245 0.00462545622755542 0.00689010934252948 0.006891195049769512 0.006892280757009546
          0.010026227260697664 0.009990409664149439 0.009954592067601218 0.013972345277922592 0.01390949522600159 0.013846645174080588
          0.017940278774241498 0.017920667073356447 0.0179010553724714 0.01976469392938043 0.019912716680313438 0.020060739431246442
          0.0008420682622594445 0.0009104889539831343 0.0009789096457068244 0.0014851265357024356 0.0015545103462607365 0.0016238941568190372
          0.0024756132526567516 0.002528323844420094 0.0025810344361834364 0.0038467199210276927 0.0038694070674156135 0.003892094213803535
          0.005612169461798372 0.00560169273338179 0.005591216004965208 0.007806532206078451 0.007771189411843478 0.007735846617608504
          0.01047745946580851 0.010434624700367904 0.0103917899349273 0.013526082887285388 0.013505755725013807 0.013485428562742225
          0.01597976316968005 0.01607482459646737 0.016169886023254698 0.01642910465294289 0.01674974006889775 0.017070375484852608
          0.0014079765549922466 0.001428033973459419 0.0014480913919265909 0.0022932823510149686 0.002294950405786345 0.002296618460557721
          0.0034943056485933844 0.0034685671251660603 0.0034428286017387354 0.004991901599198071 0.004937422501342921 0.004882943403487771
          0.006737859579954963 0.006665608590191315 0.006593357600427669 0.008680677583794223 0.008613772572986771 0.008546867562179324
          0.010761564021963134 0.010730995673366796 0.01070042732477046 0.012809986706301214 0.012858842573917445 0.012907698441533678
          0.013938867551910138 0.014157279298105313 0.01437569104430049 0.013376096302863058 0.013820937321229049 0.014265778339595045
          0.0021799397126534992 0.0021405157585583745 0.0021010918044632497 0.003298224074243226 0.0032302271511111683 0.0031622302279791102
          0.004665169800120773 0.004569633539843402 0.004474097279566031 0.006210849587571811 0.006097843253860228 0.005984836920148648
          0.007836708892249876 0.007726695529899666 0.007616682167549457 0.009423444917465506 0.009346768830914814 0.009270092744364123
          0.010824619941355931 0.010818133225335516 0.0108116465093151 0.0118294566919379 0.011938452089335312 0.012047447486732723
          0.011867346362974936 0.012147252677694209 0.012427158992413482 0.01074358580276192 0.011175286085876522 0.011606986368991129
          0.0057758364369429795 0.005687471219103285 0.005599106001263593 0.007251431652587921 0.007155544528275817 0.007059657403963714
          0.008659927476576425 0.008573248333656514 0.008486569190736603 0.009842999554186622 0.009787932445819877 0.009732865337453128
          0.01060912212311264 0.010611977133163971 0.010614832143215304 0.010722064307020582 0.010812964287342429 0.010903864267664277
          0.009878422224612427 0.010075438918763537 0.010272455612914644 0.00853580096415055 0.008816972761843334 0.009098144559536118
          0.0000033649822652718683 0.00018832274285412724 0.00023057650975036916 0.0000016628712311671276 0.0005042597946064548 0.0016083025672532292
          0.00037986036829298404 0.000002221805014406884 0.0010051546069476378 0.0030282823916523314 0.000529144226835599 0.00000278073879764664
          0 0 0.00012114051787522787 0 0.00024228103575045574 0
          0 0 0 0.00028043809878067975 0.00003733473050451098 0.00012099967038415829
          0.0005608761975613595 0.00007466946100902196 0.00024199934076831657 0.049096977982070814 0.04514228179169873 0.0570065309538228
          0.057237913396969285 0.047789304117683874 0.04427897279624272 0.055482844712119735 0.055477357749152745 0.046481630253296935
          0.043415663800786715 0.05395915847041667 0.053716802101336225 0.0170934466360554 0.010638161364742894 0.008034390215397145
          0.010914193957084008 0.020313409861771 0.012953041633809939 0.010510934537693736 0.013773757938606412 0.02353337308748659
          0.015267921902876982 0.012987478859990326 0.016633321920128816 0.029255179347086012 0.02932522404111207 0.03508097052749355
          0.03396966733559446 0.029134843663420854 0.029395823811961024 0.03475385943265562 0.033555841171223635 0.029014507979755695
          0.029466423582809972 0.034426748337817684 0.03314201500685281 0.014540534395925175 0.01572615716767735 0.011288099614652687
          0.00961271828753513 0.015370292132947041 0.016368538073866276 0.011975949890810796 0.010427982593439198 0.016200049869968904
          0.017010918980055207 0.012663800166968909 0.011243246899343265 0.00919207547157417 0.011567933620079268 0.009671122093998688
          0.012145351476316811 0.010150168716423208 0.012722769332554352 0.03985289722233354 0.03681393187862323 0.039164623281402466
          0.0365101569314997 0.03847634934047139 0.036206381984376174 0.000007264178620147327 0 0
          0.000358840223176945 0.0006884109909619816 0.00047844781729246906 0.0005565711305669099 0.002137818090197667 0.0013695578033038158
          0.0009568956345849381 0.0011131422611338198 0.00391679595721839 0.04509888128830411 0.04434061320060946 0.0528159079952439
          0.050234671849212105 0.04390743890815972 0.04310548697139732 0.05109721975974838 0.048739888383491886 0.04271599652801533
          0.041870360742185184 0.04937853152425285 0.047245104917771674 0.04702494887574706 0.062009535898493784 0.04607432398847419
          0.06023894653749493 0.045123699101201335 0.05846835717649605 0.0004443914340509769 0.0008057069812915515 0.00018057635616099997
          0.000056630149831844114 0.0005642892511460964 0.0009129579537081481 0.00019454450099013406 0.00006377586015948809 0.0006841870682412156
          0.001020208926124745 0.00020851264581926815 0.00007092157048713206 0.08460478871679092 0.09634128380615542 0.09036694123144848
          0.07595081393044964 0.08265137953958546 0.09332805953373802 0.0873124627675913 0.074075724809234 0.08069797036238
          0.0903148352613206 0.08425798430373413 0.07220063568801838 0 0 0
          0 0.0007713887970630779 0.0007973612367663793 0.0005517357550557048 0.000511488572265624 0.0015427775941261558
          0.0015947224735327586 0.0011034715101114097 0.001022977144531248 0.01886813080830144 0.019148221268482132 0.019432261611577246
          0.019863086657376728 0.019996392414853053 0.02057795204627132 0.04034390265380773 0.03945572192669904 0.03856754119959034
          0.00016667365324317274 0.0006452693784216273 0.0024561447018537986 0.004422819048563672 0.004745615750464425 0.008200368718705716
          0.004005845301754683 0.004221508595196663 0.0011717033128468347 0.007769148384625578 0.006869069575047741 0.003179841958275733
          0.011532451467496473 0.00951663055489882 0.0051879806037046314 0.02604564772907233 0.024345353828476714 0.04258384993711707
          0.03741752951135576 0.027159485962287552 0.02646266464290826 0.04360822264580183 0.03734586171766368 0.028273324195502773
          0.028579975457339816 0.04463259535448658 0.03727419392397159 0.05680227059599717 0.05981134021398607 0.06374647460011153
          0.05478207715020329 0.057697767380176686 0.06125300774012552 0.052761883704409415 0.0555841945463673 0.05875954088013954
          0.008256161399629692 0.014530877251651492 0.008776748704007697 0.015072438213741482 0.009297336008385702 0.015613999175831469
          0.006685997620287057 0.008210790819691791 0.008088611661409765 0.010056377055192217 0.009491225702532474 0.011901963290692643
          0.009308015721461421 0.004847783744816957 0.010598448129102185 0.005769822214837999 0.011888880536742953 0.006691860684859039
          0.08018698961895379 0.07756256307713479 0.08499291174773552 0.08668967855770021 0.07644834881510514 0.07419946522230182
          0.08149815214261463 0.08289483189449297 0.07270970801125648 0.07083636736746886 0.07800339253749375 0.07909998523128572
          0.02382286419017105 0.024588187861716414 0.030512870211683404 0.024242537999835802 0.025331106028516043 0.03080369502270384
          0.024662211809500553 0.026074024195315678 0.031094519833724278 0.0014923836481260733 0.0008731693557486275 0.00191020028591139
          0.001285738976970635 0.002328016923696707 0.0016983085981926423 0.023007870928119963 0.01819394570571478 0.023229327080355883
          0.01859047240190578 0.023450783232591803 0.018986999098096778 0.015514459551201511 0.01879565970325597 0.016594840063678867
          0.02038621289922478 0.017675220576156222 0.021976766095193587 0.009243338168525494 0.005261584430397544 0.010247418379707931
          0.005901616800944141 0.011251498590890368 0.006541649171490739 0 0 0
          0.000005681076951731729 0 0 0.000011362153903463459 0 0
          0.0052287219555265906 0.0029365887035862413 0.006043598659804302 0.00555110155240487 0.003195904345226642 0.006556260114784722
          0.005873481149283151 0.003455219986867041 0.007068921569765143 0.06583309975042548 0.07180897898018632 0.07193687549655117
          0.06328268225069832 0.06878891389135533 0.06879642567265616 0.06073226475097115 0.06576884880252436 0.06565597584876115
          0.0751319197538639 0.07176021065923023 0.06838850156459657 0 0 0
          0 0 0 0 0 0
          0 0 0 0.0655121050020708 0.07235360733315288 0.06320473822438462
          0.06964206741648851 0.060897371446698434 0.06693052749982414 0 0 0
          0 0 0 0.09270559304147175 0.0785547051698243 0.08937822584227023
          0.07572883198045957 0.0860508586430687 0.07290295879109487 0.05478274528809393 0.06423085518750997 0.053804091032928214
          0.06404134387944053 0.0528254367777625 0.0638518325713711 0 0 0
          0.007074434759160337 0.00740023078165974 0.007726026804159142 0.033732450301520604 0.02073115524587943 0.03691246676428812
          0.02429603889262053 0.04009248322705562 0.02786092253936164 0.008206321614526857 0.008882974551400453 0.009559627488274049
          0.002734214415631442 0.005285051428411255 0.007835888441191066 0 0.000005681076951731729 0.000011362153903463459
          0.0022126081086639867 0.002570981854177529 0.002929355599691071 0 4.672910923185655e-7 9.34582184637131e-7
          0.0032249385678601227 0.005340782336922103 0.007456626105984083 0.057317087398752874 0.05857757673548322 0.059838066072213564
          0.09551225301903025 0.09205569571083046 0.08859913840263064 0.04439494715474096 0.04331338647409891 0.042231825793456856
          0 0 0 0 0.0005198004495949076 0.0010396008991898152
          0.00793020678810859 0.007891292438243722 0.007852378088378853 0.008294860072973587 0.008290026150872855 0.008285192228772123
          0.009019149903359064 0.00898474402852693 0.008950338153694797 0.00895608951429828 0.008952252840601867 0.00894841616690545
          0.00978004377472776 0.009758719619582443 0.009737395464437127 0.010007629136510675 0.010009404450722494 0.010011179764934314
          0.009464736795127252 0.009501283070325547 0.009537829345523843 0.007908545321042093 0.007981715990387373 0.008054886659732655
          0.005407993785226964 0.00551201903088641 0.005616044276545856 0.005267278935154764 0.003469645849782808 0.00547007012410915
          0.0036242456706506313 0.005672861313063535 0.003778845491518454 0.001294830592225754 0.000498964393326953 0.0005027288606858505
          0.0017368318473458266 0.0013118164702773996 0.0005008886349942207 0.0005213152606385543 0.001811991931287949 0.0013288023483290453
          0.0005028128766614884 0.0005399016605912581 0.001887152015230072 0.000027909436624927704 0.00002895554271407378 0.000030001648803219862
          0.0025175522062009094 0.002561225177377826 0.0026048981485547427 0.00012153167392060935 0.00012008080094986088 0.00011862992797911244
          0.008456057933270148 0.008287909990177986 0.008455115300055178 0.008285120591799732 0.008454172666840207 0.008282331193421477
          0.009224098364475866 0.009222674656100105 0.009221250947724344 0.008192647345820994 0.00819423367520367 0.008195820004586345
          0.00890922582932208 0.008912777725219824 0.008916329621117568 0.007816695925247731 0.007829433269630311 0.007842170614012892
          0.005843832482354622 0.005863368982210412 0.005882905482066202 0.00347192913333488 0.0034855056638427723 0.0034990821943506637
          0.0015618035955945488 0.0015675916221410328 0.0015733796486875166 0.00006101283495158822 0.0004697745403744476 0.0003686166949237675
          0.00006323669984921707 0.0004695608384214311 0.0003724673194535704 0.00006546056474684593 0.0004693471364684144 0.0003763179439833734
        </DataArray>
        <DataArray type="Float64" Name="pe11" format="ascii" RangeMin="-0.0009357247707159772" RangeMax="0.09368092577971268">
          0.00006756961468405497 0.00005773095468979951 0.00008336172922607279 0.00007151318668988183 0.00009915384376809061 0.00008529541868996416
          0.00006218235778787426 0.000036824266385677865 0.00009317105597499762 0.00006583566806941517 0.00012415975416212098 0.00009484706975315248
          0.00019407888061419298 0.00014479134250978636 0.00024795981847702657 0.00019633405544471929 0.00030184075633986015 0.0002478767683796522
          0.0006838327053405419 0.0006008516510498683 0.0007682783790224555 0.0006839625546850831 0.000852724052704369 0.0007670734583202979
          0.001882384823442572 0.0017686228994553015 0.001986536616045901 0.0018748636745891062 0.00209068840864923 0.001981104449722911
          0.004167834816614025 0.004044617391371207 0.004252252546005399 0.0041336085682012 0.004336670275396772 0.004222599745031193
          0.00789278040993373 0.0077885758873528395 0.007897633179820215 0.007796505301379225 0.007902485949706705 0.007804434715405611
          0.013512441077693744 0.013468314502844862 0.013354716458260028 0.013305436875514397 0.013196991838826312 0.013142559248183933
          0.022475972217796868 0.02270678926466866 0.022015401851445463 0.022217113780306087 0.021554831485094066 0.021727438295943514
          0.03447094034561462 0.033541692393580444 0.0335331605289383 0.032647118184471025 0.032595380712261986 0.03175254397536162
          0.00009992386418487448 0.00012216364020300422 0.00014440341622113398 0.00014133030300560106 0.00017908536333591298 0.0002168404236662249
          0.00034754740576463757 0.0004084797400247326 0.00046941207428482753 0.0009371399485806678 0.0010245420781078392 0.0011119442076350107
          0.002220870749009588 0.0023182983964818845 0.002415726043954181 0.00452978610434622 0.0046009105682503285 0.004672035032154436
          0.008196724394720963 0.008192376140185803 0.008188027885650645 0.01362203961894544 0.013478568262883643 0.013335096906821844
          0.021770897652205322 0.02139267589904203 0.021014454145878745 0.030882035940461565 0.030233126357966406 0.029584216775471243
          0.00016460997001181514 0.000198391785354728 0.0002321736006976409 0.00028554910986587276 0.0003366641538320299 0.0003877791977981871
          0.0006202856334974939 0.0006933978543770176 0.0007665100752565414 0.0013695486020267726 0.0014589006945703623 0.001548252787113952
          0.0027747582587100317 0.00285927192327463 0.0029437855878392282 0.005107712682999574 0.005157715996581148 0.0052077193101627214
          0.008664806387361192 0.008646181551067774 0.008627556714774356 0.013742899168044404 0.013619539674477913 0.013496180180911421
          0.0206075645766578 0.02035084011209864 0.02009411564753949 0.027610685090263647 0.027308352901808552 0.027006020713353462
          0.00028107416466985195 0.00033161359804444494 0.00038215303141903793 0.000522135671116494 0.0005921196421245299 0.0006621036131325656
          0.0010383595088962764 0.0011237980378902698 0.0012092365668842629 0.0019868708505669953 0.002071353734346051 0.0021558366181251066
          0.0035259014980278357 0.0035890154167170594 0.0036521293354062835 0.005861654193242216 0.0058837939832541005 0.005905933773265984
          0.009230814376411371 0.009195846298830138 0.009160878221248904 0.013791782010346434 0.01369220139859136 0.013592620786836285
          0.019158013456611292 0.019032030193936917 0.018906046931262542 0.02264655113081743 0.022625909869602057 0.022605268608386686
          0.0004845345721609415 0.0005529987027231496 0.0006214628332853576 0.000896322482011559 0.0009801404391716257 0.0010639583963316923
          0.0016321378385200408 0.0017161343762441507 0.00180013091396826 0.002786572211549867 0.0028510638628659476 0.0029155555141820283
          0.004444308752325911 0.004474800570443039 0.004505292388560167 0.0067334507141829395 0.0067229794793326175 0.006712508244482296
          0.009807866756873913 0.00975893278682139 0.009709998816768872 0.013681247251619769 0.01361143326863555 0.01354161928565133
          0.017545420758053893 0.01753739847304863 0.01752937618804337 0.01915226808088245 0.019334559755864896 0.019516851430847335
          0.0008333908575993531 0.0009012739653846504 0.0009691570731699478 0.0014598448030905017 0.0015284669409705745 0.0015970890788506475
          0.002421679477591096 0.0024731541600931553 0.0025246288425952155 0.003756915131165965 0.0037769162523819074 0.003796917373597849
          0.005486258441659124 0.005470315226715647 0.0054543720117721725 0.007650363206021438 0.007606091799628411 0.007561820393235386
          0.010302973651512877 0.010249214367316437 0.010195455083119994 0.01333905540604236 0.01331279042804754 0.013286525450052716
          0.01574944117148531 0.01585453849396369 0.01595963581644207 0.016012600765985666 0.016357176413929135 0.016701752061872605
          0.001385039349806022 0.0014059953763091088 0.0014269514028121956 0.002243057244186185 0.0022463485744510896 0.0022496399047159943
          0.003408236449947988 0.003384222084007069 0.0033602077180661504 0.004871008350920256 0.004817035466347191 0.0047630625817741265
          0.006593272561087825 0.006518649828028144 0.006444027094968463 0.008531751623342897 0.008458324166755436 0.008384896710167976
          0.010631775692112043 0.01059161407421088 0.010551452456309717 0.01270448234161221 0.012746931457749053 0.012789380573885898
          0.013801793369292265 0.01402569796620778 0.014249602563123291 0.013057049662673407 0.01351397621511424 0.013970902767555072
          0.0021325398329665917 0.0020925676765389807 0.0020525955201113693 0.0032133439056526714 0.003145164886362765 0.003076985867072859
          0.0045416407385290136 0.004446217160036953 0.0043507935815448925 0.0060603056150364066 0.005947114920552101 0.005833924226067797
          0.007681346644719474 0.007569548784843624 0.007457750924967772 0.009291120435097496 0.009209362937109266 0.009127605439121035
          0.010738186787437237 0.010722827791014994 0.01070746879459275 0.011777817067174665 0.01187733885537447 0.011976860643574273
          0.011741242536258481 0.012019508858223789 0.012297775180189095 0.010360050038042938 0.010795525454998893 0.011231000871954848
          0.005655674858413711 0.005565459636654662 0.005475244414895613 0.007122715224866037 0.007025318856409314 0.006927922487952592
          0.008545789648552207 0.00845750759652265 0.008369225544493094 0.009764514624540113 0.009706904073641623 0.009649293522743135
          0.010569220986076506 0.01056808657103916 0.010566952156001813 0.010679666439021747 0.01076596094254129 0.010852255446060834
          0.009703967325638576 0.009899881179541305 0.010095795033444032 0.008059538601792721 0.008341472937188156 0.00862340727258359
          0.0000028270052817069254 0.00017418657081587065 0.00021391799945170824 0.0000015458856072594046 0.000025468777890283682 -0.000022932089647686003
          0.00029588379799355365 0.0000019475189699446248 0.00004811055049886045 -0.00022005075011124266 0.00037784959653539913 0.0000023491523326298454
          0 0 -0.000021797834956433154 0 -0.00004359566991286631 0
          0 0 0 0.00009364198444957831 -0.000009286362149595731 0.000013164192047838642
          0.00018728396889915663 -0.000018572724299191463 0.000026328384095677284 0.04685508776224055 0.04246242158157469 0.05451957939718902
          0.05516626678454693 0.04545678405709522 0.04168225731118121 0.052942059917276574 0.053277061253831665 0.04405848035194988
          0.04090209304078772 0.05136454043736412 0.051387855723116375 0.011688957269720846 0.00693049023343789 0.002123227727907628
          0.005722736472759117 0.013234037005010696 0.007533435598173417 0.003056112721175862 0.007311005043997494 0.014779116740300547
          0.008136380962908946 0.003988997714444095 0.00889927361523587 0.02780368293496879 0.027695286798984343 0.032926543437027625
          0.0320230291185342 0.027761015343639173 0.02788055350969838 0.03274580214848274 0.03169682532999334 0.02771834775230956
          0.02806582022041242 0.03256506085993784 0.031370621541452495 0.013324430617432291 0.014851397810216207 0.010367912710266328
          0.008410662418386061 0.01414163378507242 0.015502035185794969 0.011029985825482423 0.009168036623873516 0.014958836952712544
          0.01615267256137373 0.011692058940698519 0.009925410829360968 0.00857135897758961 0.01105141168071456 0.009042250853704626
          0.011634135988576709 0.00951314272981964 0.012216860296438856 0.03746876712383449 0.03424034743607132 0.036921797324818435
          0.03419312484476467 0.03637482752580238 0.034145902253458024 0.0000020988560609269532 0 0
          0.000013717801588526808 0.00006867343105194521 0.00022528991296107698 0.00012166810577289977 -0.0004610034845637253 0.00013524800604296347
          0.0004505798259221539 0.00024333621154579954 -0.0009357247707159772 0.04250608769758617 0.04190716644793546 0.050969174066338885
          0.048176048020182716 0.04119339947139681 0.04060381671062335 0.04908356245880535 0.04650090638248743 0.039880711245207444
          0.03930046697331124 0.04719795085127181 0.044825764744792135 0.043306890605689465 0.058652992321413154 0.04260749429422036
          0.057089306234462824 0.04190809798275125 0.0555256201475125 0.0004056478272172438 0.000755420551948425 0.00016859858066581104
          0.00005295085100952998 0.0004843044297355436 0.0008349018636560797 0.00017852737822230747 0.00005794965151145 0.0005629610322538435
          0.0009143831753637347 0.00018845617577880388 0.00006294845201337002 0.07215613805758007 0.09144177480484798 0.08678827023639905
          0.0680879186982213 0.07101673509934969 0.08849105483681374 0.08369219311743836 0.066846774674882 0.0698773321411193
          0.08554033486877949 0.08059611599847769 0.06560563065154268 0 0 0
          0 -0.00021263220849537494 -0.000017869163966658865 0.00003187228357466766 -0.00016698500379092008 -0.0004252644169907499
          -0.00003573832793331773 0.00006374456714933533 -0.00033397000758184016 0.018002406955564616 0.017960114162213082 0.01861026821289746
          0.01870891934704127 0.019218129470230296 0.01945772453186946 0.038046397459254325 0.037194474306027035 0.03634255115279974
          0.00005160824391037487 0.0003730576628067042 0.00007346417576308433 -0.0001270907951827968 0.0000953201076157938 -0.0006272392531722978
          0.000639941386013881 0.002309986196777855 0.0009387430074648427 0.0005690286080252633 0.002188899948452962 0.0007610388589912851
          0.0004981158300366459 0.002067813700128069 0.0005833347105177277 0.023226823006950247 0.019781516366219935 0.03353792134305307
          0.03326971709928215 0.024433830482972596 0.021204099319468084 0.034680479933432866 0.03367706397574192 0.02564083795899495
          0.022626682272716237 0.035823038523812654 0.03408441085220169 0.055366159162347106 0.05825944046825722 0.0625434847958134
          0.053129566052519596 0.05591541703035887 0.0597909789550054 0.050892972942692086 0.05357139359246053 0.05703847311419739
          0.007559518349803969 0.01390129416358503 0.008049610733909897 0.014460632132440681 0.008539703118015825 0.01501997010129633
          0.0003084183924868173 0.002654794544727232 0.0019641369415849975 0.004150223061236056 0.0036198554906831776 0.005645651577744879
          0.007420711300696633 0.00396737405312423 0.008386892196912283 0.0046561290904691514 0.009353073093127938 0.005344884127814073
          0.07905356637390511 0.07631490355327988 0.08349614924594857 0.0852546535250229 0.07508477090057411 0.07277293811879582
          0.079714506902473 0.08120361246146121 0.07111597542724311 0.06923097268431172 0.07593286455899742 0.07715257139789952
          0.022484502556649615 0.022626312582678054 0.028402915990459465 0.02301985288812326 0.023516015359616206 0.028899530130127197
          0.0235552032195969 0.02440571813655436 0.02939614426979493 0.0012936869217916665 0.0007746766985295209 0.001582995251223661
          0.0010256401052600081 0.0018723035806556556 0.0012766035119904956 0.021982526675932774 0.017433558477460136 0.022281416437748988
          0.017866852056458833 0.022580306199565206 0.018300145635457534 0.013660367345608078 0.015764577257956054 0.01464535294424553
          0.01696040014276142 0.015630338542882986 0.018156223027566788 0.007750246501674905 0.004474361646563901 0.008624126537263502
          0.005002049803691658 0.009498006572852097 0.005529737960819416 0 0 0
          0.000002479746267319538 0 0 0.000004959492534639076 0 0
          0.004603704691249478 0.0025531211137047385 0.00530774083183762 0.004889089303405722 0.0027592040226775633 0.005747132308333132
          0.005174473915561966 0.0029652869316503885 0.006186523784828644 0.06467005859705366 0.07089961152466609 0.07117546278794479
          0.06186667831151058 0.06762495671218405 0.06772994091930751 0.059063298025967506 0.064350301899702 0.06428441905067024
          0.07421148180505815 0.07053944488180575 0.06686740795855334 0 0 0
          0 0 0 0 0 0
          0 0 0 0.06386883563589477 0.07040558956054015 0.06145300824002877
          0.06770306304919396 0.059037180844162776 0.06500053653784778 0 0 0
          0 0 0 0.0909881448712739 0.07601701938659519 0.0872477649236097
          0.07324382707935642 0.08350738497594547 0.07047063477211762 0.048578416829932664 0.04985923877487958 0.04834464675442772
          0.05036004843863367 0.048110876678922776 0.050860858102387774 0 0 0
          0.006383906375211682 0.006696994947994969 0.007010083520778256 0.0210595917005424 0.010894875579163826 0.023102672768627024
          0.012905669480927091 0.025145753836711644 0.014916463382690355 0.007301841333385946 0.007913448346711186 0.008525055360036426
          -0.00016212013420596917 0.00012779227552937373 0.0004177046852647166 0 0.000002479746267319538 0.000004959492534639076
          0.001883531565907523 0.0021496299605987083 0.0024157283552898932 0 4.443764810042819e-7 8.887529620085638e-7
          -0.0002784904286495679 -0.00029416668414488387 -0.0003098429396401999 0.038840558004858756 0.040089087385019866 0.041337616765180975
          0.09368092577971268 0.08987860698182078 0.08607628818392887 0.041666551790890766 0.04045349033151778 0.039240428872144795
          0 0 0 0 -0.00009129440940890973 -0.00018258881881781945
          0.00787405995554357 0.007834964719566228 0.007795869483588885 0.008283997749696485 0.008278968252269132 0.008273938754841777
          0.008980467030212606 0.008945828908021937 0.008911190785831264 0.008947878604509834 0.008943971880510975 0.008940065156512116
          0.009758890469597102 0.00973738259100732 0.009715874712417538 0.009982706851736328 0.009984755545917039 0.009986804240097746
          0.009383853570874363 0.00942160152466713 0.009459349478459899 0.007696264019397425 0.007770148275021738 0.007844032530646049
          0.0050911526439876426 0.005191426800142661 0.005291700956297678 0.004801214107168155 0.003172035431476098 0.004993141591424812
          0.0033094182207081746 0.005185069075681469 0.003446801009940251 0.0012385608744164322 0.0004869692019610253 0.0004803681733522807
          0.0016133287494383523 0.0012509678331644027 0.0004877279845422751 0.0004946331220290119 0.0016745675610555888 0.0012633747919123738
          0.0004884867671235249 0.0005088980707057429 0.0017358063726728252 0.000027694509379179413 0.00002866214901012034 0.00002962978864106127
          0.0023796834785989682 0.0024163702188898036 0.0024530569591806385 0.00011911991597248185 0.00011759506106329777 0.00011607020615411371
          0.008436054029854485 0.00828048892071557 0.008435149219558482 0.008277594072970792 0.008434244409262475 0.008274699225226017
          0.00920480093049226 0.009203378458098066 0.009201955985703874 0.008147140341356256 0.008148777586160238 0.008150414830964221
          0.008854372568018798 0.008857780835128252 0.008861189102237703 0.007699645922722937 0.007711473676883798 0.007723301431044659
          0.005669497818746415 0.005686184068169746 0.005702870317593076 0.003337325120762643 0.0033477159579625186 0.003358106795162395
          0.0015109263604274506 0.001514637153075532 0.0015183479457236135 0.000059425929253960246 0.0004623547409038401 0.0003641688745655872
          0.00006152305050883403 0.000461637846643352 0.0003676836296892829 0.00006362017176370782 0.00046092095238286395 0.00037119838481297846
        </DataArray>
        <DataArray type="Float64" Name="pe22" format="ascii" RangeMin="-0.04094322094301764" RangeMax="0.0006052906542380491">
          -0.00003542029137274177 -0.000030347284846602796 -0.00004290596644483894 -0.000037008966016533336 -0.0000503916415169361 -0.00004367064718646388
          -0.000031233397470631804 -0.000018717292553464497 -0.00004476368069764863 -0.00003182886006855809 -0.00005829396392466545 -0.00004494042758365167
          -0.00008643592026389895 -0.00006456581267674268 -0.00010375013481361244 -0.00008207151197635214 -0.00012106434936332594 -0.00009957721127596158
          -0.0002603710803203818 -0.00022757424137220163 -0.0002717366279056826 -0.00023982664278825893 -0.0002831021754909833 -0.00025207904420431626
          -0.0006121350727887061 -0.0005690027579993496 -0.000600797040003199 -0.0005585465987927532 -0.0005894590072176919 -0.0005480904395861567
          -0.0011668168870134004 -0.0011148915779718317 -0.0011239629099485367 -0.0010718039518950503 -0.0010811089328836734 -0.001028716325818269
          -0.0019315140825635984 -0.0018651229726397987 -0.0018614157364985418 -0.001793558849356803 -0.001791317390433485 -0.0017219947260738073
          -0.002934272979245066 -0.002831114459805356 -0.0028362097569236055 -0.00272649844570931 -0.0027381465346021446 -0.002621882431613264
          -0.004142332783495347 -0.0039466413793250365 -0.003994197363915153 -0.0037831070074333235 -0.0038460619443349588 -0.0036195726355416104
          -0.006134928211170605 -0.005252673087222819 -0.005796903963515022 -0.004936548844033094 -0.005458879715859439 -0.0046204246008433696
          -0.00005183676479643226 -0.00006181660781379974 -0.00007179645083116721 -0.0000693614105435297 -0.00008422849359182715 -0.00009909557664012455
          -0.0001529413116080116 -0.00016973663477801897 -0.00018653195794802633 -0.0003597719218558079 -0.00036863221221991534 -0.00037749250258402274
          -0.0007409172962006355 -0.0007273164166487845 -0.0007137155370969335 -0.0013207575211841252 -0.0012788821013474123 -0.0012370066815106993
          -0.0021291071582647675 -0.002063588002005421 -0.0019980688457460747 -0.003221651112563588 -0.0031400824946122403 -0.0030585138766608916
          -0.004588767633288311 -0.004483981175866898 -0.004379194718445486 -0.006279211595783386 -0.006100388665026782 -0.005921565734270179
          -0.00008362683666263749 -0.00009748034340313657 -0.00011133385014363565 -0.00013582406105918667 -0.00015297439769592028 -0.0001701247343326539
          -0.00026707565157947383 -0.0002832065917563153 -0.0002993375319331569 -0.0005274188052430168 -0.0005324958542725161 -0.0005375729033020155
          -0.0009525243780872627 -0.00093623971671073 -0.0009199550553341973 -0.0015712662545731765 -0.0015317451692192017 -0.0014922240838652267
          -0.0024440296977660484 -0.002386210071263699 -0.0023283904447613498 -0.0036359868668431367 -0.0035762387487563883 -0.0035164906306696404
          -0.005054930927152721 -0.005012656204925338 -0.004970381482697953 -0.006774960078518309 -0.006792895497088458 -0.006810830915658607
          -0.00013780792967985208 -0.0001560093411897077 -0.00017421075269956332 -0.00023805378872506427 -0.00025744663371934245 -0.0002768394787136206
          -0.0004339919815299383 -0.00044822603406272267 -0.00046246008659550696 -0.0007615180085315677 -0.0007617732202314321 -0.0007620284319312964
          -0.0012406068107457383 -0.0012224448184119338 -0.001204282826078129 -0.0019078797659922693 -0.001872527928599339 -0.0018371760912064086
          -0.0028430380365706597 -0.002795786666294024 -0.0027485352960173884 -0.004097644897154158 -0.004062485134524933 -0.004027325371895709
          -0.005484874368750408 -0.005500896290281992 -0.005516918211813576 -0.006627242108324023 -0.00673752889039522 -0.006847815672466418
          -0.00022432839834790727 -0.000245493419185663 -0.00026665844002341876 -0.00038626177663651404 -0.0004050237578906683 -0.00042378573914482253
          -0.0006561173527589784 -0.0006653341157255495 -0.0006745508786921207 -0.0010546114204926665 -0.0010498370156789294 -0.0010450626108651927
          -0.0015947306914016492 -0.0015763272627239845 -0.0015579238340463198 -0.0023125727269705967 -0.00228324616912295 -0.002253919611275304
          -0.00328324327390059 -0.0032490377836117876 -0.0032148322933229856 -0.004529970086855733 -0.0045183008033575275 -0.004506631519859322
          -0.005824941490620477 -0.005877522090400107 -0.005930102690179738 -0.006697016538083228 -0.006836527449943494 -0.006976038361803759
          -0.00035543493704480965 -0.00037348220560652975 -0.00039152947416824986 -0.0005856901164915291 -0.0005975430259251399 -0.0006093959353587508
          -0.0009274849178233614 -0.0009290374491511077 -0.0009305899804788539 -0.0013955293665810563 -0.001386818894079167 -0.0013781084215772781
          -0.00199908917437329 -0.0019824585373834033 -0.001965827900393517 -0.002759727547430124 -0.002738162971058661 -0.002716598394687198
          -0.0037232724694163284 -0.0037033551281213228 -0.0036834377868263163 -0.00487767131908458 -0.004884948836364097 -0.004892226353643614
          -0.0059627451888803655 -0.006034223582779373 -0.006105701976678382 -0.0065752974511970015 -0.00671983088890572 -0.006864364326614438
          -0.0005356867791162525 -0.0005409342376668409 -0.0005461816962174294 -0.0008303027585105942 -0.0008295365782049085 -0.0008287703978992227
          -0.0012373500938311543 -0.0012306156034419858 -0.0012238811130528171 -0.0017705312355674211 -0.0017596526360628567 -0.0017487740365582922
          -0.0024318029530566764 -0.002419081096046819 -0.002406359239036961 -0.0032191459642258637 -0.0032069475610232846 -0.003194749157820706
          -0.00412848965603565 -0.0041230390056793305 -0.004117588355323012 -0.005106481443382731 -0.0051281556736057065 -0.005149829903828681
          -0.0059135023071901 -0.005990601728236265 -0.00606770114928243 -0.006193130493609356 -0.006333253122940814 -0.006473375752272271
          -0.0007561886265811718 -0.0007439513320235538 -0.0007317140374659358 -0.0011105848134254762 -0.001094727787187196 -0.0010788707609489156
          -0.0015773106408097837 -0.0015607967568538545 -0.0015442828728979253 -0.0021657712234965437 -0.002151555956718172 -0.0021373406899398003
          -0.0028684642555261404 -0.0028587960415306294 -0.0028491278275351193 -0.0036584012484178925 -0.003655537457990725 -0.0036526736675635586
          -0.004475358481136344 -0.00448547544062796 -0.004495592400119578 -0.005209887004516553 -0.0052472102184928605 -0.005284533432469168
          -0.005684360236197447 -0.005764075098832457 -0.0058437899614674675 -0.00564470093876154 -0.005769427211671231 -0.005894153484580923
          -0.0020751386706583147 -0.0020594161914955006 -0.002043693712332686 -0.002714226978372046 -0.002704042100841619 -0.0026938572233111916
          -0.003429143051367751 -0.003426485096989259 -0.0034238271426107678 -0.004162438547594104 -0.004169300295902319 -0.004176162044210534
          -0.004805888561557764 -0.004827804414215925 -0.004849720266874085 -0.005193531655506686 -0.005237394364400206 -0.005281257073293726
          -0.005186142598540808 -0.005251687289613316 -0.005317231980685823 -0.004871077274089278 -0.004951208889919542 -0.005031340505749808
          -0.0000014087682637295073 -0.0000993041489675474 -0.0001156544663528358 -7.688563019923682e-7 -0.00011588864961820852 -0.00013187189633069541
          -0.0001107817201192423 -7.876693497764084e-7 -0.00023036853097268753 -0.00016443964369384346 -0.00010590897388564876 -8.064823975604486e-7
          0 0 0.000013099397020039816 0 0.00002619879404007963 0
          0 0 0 -0.00009172871026751837 0.000009665127199845376 -0.00001458331663363605
          -0.00018345742053503677 0.000019330254399690753 -0.000029166633267272102 -0.012543728415985887 -0.011322627064404114 -0.01717163425078203
          -0.017059094490010696 -0.011715690077270746 -0.010972104835525307 -0.01601093853519132 -0.01569816138022498 -0.010887651738555605
          -0.010621582606646501 -0.01485024281960061 -0.014337228270439258 -0.002587865345506676 -0.0024245035129930002 -0.0007561948253724127
          -0.0010957836684441125 -0.0033579186886992184 -0.0022866090509310556 -0.0007841356306920908 -0.0015440048157719256 -0.004127972031891761
          -0.002148714588869111 -0.0008120764360117689 -0.0019922259630997382 -0.007854472613370841 -0.00812175133099728 -0.00823696856500206
          -0.007772940642109802 -0.00803857118951002 -0.008414857072816029 -0.008374714144863018 -0.007828074401048466 -0.008222669765649199
          -0.008707962814634778 -0.008512459724723977 -0.007883208159987132 -0.0066058405253621045 -0.006780043615205965 -0.005520296231299602
          -0.004601472302656702 -0.006922022425236842 -0.007083594586333285 -0.0056973510340536816 -0.004767673304504611 -0.007238204325111579
          -0.007387145557460605 -0.0058744058368077594 -0.004933874306352519 -0.005074127517935522 -0.005891175402517001 -0.005201774061148256
          -0.006050297805595498 -0.005329420604360991 -0.006209420208673992 -0.00911569492711295 -0.009045217875439895 -0.009034166170461039
          -0.009251307943255245 -0.008952637413809129 -0.009457398011070593 -7.966470323696767e-7 0 0
          0.00003778404883135346 -0.00011442050332727917 -0.00023272792995203428 -0.00010626161947112796 0.000022148931285106695 -0.00022804435962218866
          -0.00046545585990406856 -0.00021252323894225593 0.000006513813738859929 -0.008549425986821742 -0.00906931393871534 -0.014379879613610185
          -0.012166844965341109 -0.007896058008815666 -0.00845196530252988 -0.013151021798968807 -0.011135075504979428 -0.0072426900308095905
          -0.007834616666344418 -0.011922163984327428 -0.010103306044617748 -0.012509196142984846 -0.021656379508877284 -0.01214925570558796
          -0.02035478875123299 -0.011789315268191073 -0.019053197993588695 -0.0002277745954724673 -0.0004340863670840478 -0.00009684010625048088
          -0.0000306523907105404 -0.00022940836157048637 -0.00043484353420253873 -0.0000957489158245137 -0.00003069388115288917 -0.00023104212766850542
          -0.0004356007013210297 -0.00009465772539854651 -0.000030735371595237934 -0.030842790347548207 -0.04094322094301764 -0.0385971749599508
          -0.028778561441471534 -0.029630359469583784 -0.03807535394352096 -0.035722051258822926 -0.027690272141522188 -0.028417928591619356
          -0.035207486944024285 -0.03284692755769505 -0.026601982841572853 0 0 0
          0 0.00030264532711902456 0.000038954776546697395 -0.00004447405450478096 0.0002037619409563794 0.0006052906542380491
          0.00007790955309339479 -0.00008894810900956192 0.0004075238819127588 -0.007334572078364725 -0.007840852205316981 -0.007718463021370178
          -0.008258668861407982 -0.008102353964375633 -0.008676485517498982 -0.00871986819027517 -0.008415564847986636 -0.008111261505698106
          -0.000044007504480610085 -0.00022578710664541057 -0.0005517647759779839 -0.0003983067196688633 -0.0010595220474753577 -0.0005708263326923159
          -0.0003847491759172361 -0.0010397706682827993 -0.00045381380239723444 -0.0004724393710727995 -0.0005148581823896069 -0.00021973309558026357
          -0.0005601295662283628 0.000010054303503585527 0.00001434761123670727 -0.007298333020812242 -0.0055313078478229135 -0.010089648812090334
          -0.008744570142621528 -0.007909336398553344 -0.006213353901262775 -0.011165337299105913 -0.009231574345901675 -0.008520339776294445
          -0.0068953999547026355 -0.012241025786121492 -0.009718578549181815 -0.017069000807419875 -0.018846323442474985 -0.021889578106168442
          -0.015520434229644985 -0.01707443948590871 -0.019700691187523087 -0.013971867651870095 -0.01530255552934243 -0.017511804268877728
          -0.004439989399321843 -0.0064833262398591805 -0.004545174487404347 -0.006666724176666788 -0.00465035957548685 -0.006850122113474396
          0.00005723332866861572 -0.0004615099229999533 -0.001051600834769177 -0.0011014993830229644 -0.0021604349982069695 -0.0017414888430459753
          -0.003091136689083457 -0.0019691354587366735 -0.003465989263628637 -0.0020873416584538266 -0.0038408418381738175 -0.00220554785817098
          -0.032239850730523864 -0.03056663194945303 -0.03410469385647523 -0.03371470233607429 -0.02873066381515388 -0.027466669116342594
          -0.030631175390374174 -0.02993990460162102 -0.025221476899783896 -0.024366706283232155 -0.02715765692427312 -0.026165106867167748
          -0.007995380361002507 -0.007783355892931083 -0.007994305785290798 -0.008389749709840971 -0.008386118439846577 -0.008505784091336442
          -0.008784119058679436 -0.008988880986762073 -0.009017262397382087 -0.0006981893330286178 -0.00039640143385192596 -0.0007182498617453459
          -0.00040002833014023993 -0.0007383103904620742 -0.00040365522642855396 -0.007432770114373444 -0.006837721349679034 -0.007708361102310049
          -0.007073499806585208 -0.007983952090246655 -0.007309278263491381 -0.005910099143584465 -0.005744789070762228 -0.006341319084090029
          -0.0061598934608679936 -0.006772539024595595 -0.006574997850973761 -0.0038539865646133845 -0.00270035285090268 -0.004033617515922821
          -0.002771482167853304 -0.0042132484672322565 -0.0028426114848039284 0 0 0
          -0.000002160875769706247 0 0 -0.000004321751539412494 0 0
          -0.002931420606469214 -0.0016012036791901087 -0.0032546858074661887 -0.0029733528062891117 -0.001620376189459797 -0.0033301322264601514
          -0.003015285006109009 -0.0016395486997294855 -0.003405578645454114 -0.023485068644635055 -0.027950008477406568 -0.02868063826944435
          -0.021236761898342886 -0.02517193241361908 -0.025677503751152117 -0.018988455152050717 -0.02239385634983159 -0.022674369232859877
          -0.030281257018796037 -0.02703056303709165 -0.023779869055387266 0 0 0
          0 0 0 0 0 0
          0 0 0 -0.022922929036352273 -0.02770647346167497 -0.02100801175994903
          -0.025307641280126105 -0.01909309448354578 -0.022908809098577242 0 0 0
          0 0 0 -0.03868186964633739 -0.03244553801551762 -0.03512980230083489
          -0.029952260052890117 -0.0315777349553324 -0.027458982090262606 -0.016579628848349907 -0.019467021478916897 -0.016634464440654376
          -0.020017696844318412 -0.016689300032958848 -0.020568372209719927 0 0 0
          -0.004093641875407629 -0.004161720475579462 -0.004229799075751295 -0.004931173653386778 -0.0006752563923824641 -0.006677666107236164
          -0.0020363427053159346 -0.008424158561085552 -0.0033974290182494046 -0.004320215135378356 -0.00444948468910186 -0.004578754242825364
          0.0001960427996827855 -0.0006381141009136127 -0.001472271001510011 0 -0.000002160875769706247 -0.000004321751539412494
          -0.0011164064233155492 -0.0011385190533149082 -0.0011606316833142672 0 -2.058448333624933e-7 -4.116896667249866e-7
          0.0005554693845441442 -0.00014614404107627727 -0.0008477574666966987 -0.013285666557783654 -0.014481065682989428 -0.015676464808195203
          -0.03934498874587365 -0.03566796408472491 -0.03199093942357617 -0.007818000692873393 -0.007199106757172765 -0.006580212821472137
          0 0 0 0 0.00019776677232529033 0.00039553354465058065
          -0.003464381573142489 -0.003468294511031868 -0.003472207448921248 -0.004071704788703418 -0.004081961953276496 -0.004092219117849574
          -0.004115568389405807 -0.004124849142737574 -0.004134129896069342 -0.0045386269830154 -0.004552081698229714 -0.0045655364134440275
          -0.004675268004595133 -0.004690479769714434 -0.004705691534833736 -0.005003975194312683 -0.005027785386311569 -0.005051595578310456
          -0.004925695250522256 -0.004957583722744685 -0.004989472194967114 -0.004314504838795686 -0.004342881239957762 -0.004371257641119838
          -0.003120261515372933 -0.0031297380983021207 -0.0031392146812313088 -0.0031206358023905894 -0.0019933009654189856 -0.003138236866445076
          -0.001996449493865739 -0.0031558379304995623 -0.001999598022312493 -0.0007111945018988631 -0.0002682743677175067 -0.0002775011902044806
          -0.00098147634463123 -0.0007000624554810226 -0.00026222834532829264 -0.00027233062115931207 -0.0009760262142709393 -0.0006889304090631821
          -0.00025618232293907856 -0.00026716005211414347 -0.0009705760839106485 -0.000014524132536112714 -0.000014698098321592208 -0.000014872064107071703
          -0.0014175903815219126 -0.0014018773118917626 -0.001386164242261612 -0.00006632841222691907 -0.00006478746407000474 -0.00006324651591309043
          -0.004487631825670271 -0.0042894545840705504 -0.004498626446003077 -0.004298329272998178 -0.004509621066335883 -0.004307203961925805
          -0.00481336968337087 -0.004829679859838261 -0.004845990036305653 -0.004442401057688971 -0.004454666469087477 -0.004466931880485981
          -0.004760498617553842 -0.004779368969851849 -0.004798239322149855 -0.0042425412290208004 -0.00425971162257917 -0.00427688201613754
          -0.0032124801711165994 -0.003216484099779848 -0.0032204880284430965 -0.001929927912161573 -0.0019184583586841723 -0.0019069888052067718
          -0.0008535811903468315 -0.0008417698893369739 -0.0008299585883271161 -0.000026550503932200366 -0.00024083210338003176 -0.0001823215184755368
          -0.000027315559976298904 -0.00023679043357649162 -0.0001823730550666076 -0.00002808061602039744 -0.00023274876377295142 -0.00018242459165767846
        </DataArray>
        <DataArray type="Float64" Name="pe33" format="ascii" RangeMin="-0.05433593703383886" RangeMax="0.0011980655858689418">
          -0.000032149323311313174 -0.0000273836698431967 -0.00004045576278123384 -0.000034504220673348484 -0.00004876220225115451 -0.000041624771503500266
          -0.00003094896031724245 -0.00001810697383221336 -0.000048407375277349 -0.00003400680800085708 -0.00006586579023745554 -0.000049906642169500796
          -0.00010764296035029402 -0.00008022552983304372 -0.00014420968366341412 -0.00011426254346836714 -0.0001807764069765342 -0.00014829955710369056
          -0.0004234616250201601 -0.00037327740967766667 -0.0004965417511167728 -0.000444135911896824 -0.0005696218772133856 -0.0005149944141159814
          -0.0012702497506538657 -0.001199620141455952 -0.0013857395760427018 -0.001316317075796353 -0.0015012294014315382 -0.0014330140101367537
          -0.0030010179296006247 -0.0029297258133993745 -0.003128289636056861 -0.0030618046163061485 -0.003255561342513098 -0.003193883419212923
          -0.00596126632737013 -0.005923452914713039 -0.0060362174433216745 -0.0060029464520224216 -0.006111168559273218 -0.006082439989331803
          -0.010578168098448675 -0.010637200043039502 -0.01051850670133642 -0.010578938429805083 -0.010458845304224166 -0.010520676816570665
          -0.01833363943430151 -0.018760147885343616 -0.018021204487530307 -0.018434006772872758 -0.017708769540759103 -0.0181078656604019
          -0.028336012134444 -0.02828901930635762 -0.02773625656542326 -0.027710569340437936 -0.027136500996402524 -0.027132119374518253
          -0.000048087099388442215 -0.000060347032389204474 -0.00007260696538996674 -0.00007196889246207134 -0.00009485686974408584 -0.00011774484702610033
          -0.00019460609415662602 -0.0002387431052467136 -0.0002828801163368012 -0.0005773680267248599 -0.0006559098658879238 -0.0007344517050509877
          -0.001479953452808952 -0.0015909819798330996 -0.001702010506857247 -0.0032090285831620946 -0.0033220284669029155 -0.003435028350643736
          -0.006067617236456196 -0.0061287881381803825 -0.006189959039904569 -0.010400388506381848 -0.0103384857682714 -0.01027658303016095
          -0.017182130018916997 -0.01690869472317512 -0.016635259427433248 -0.024602824344678097 -0.02413273769293952 -0.02366265104120094
          -0.00008098313334917763 -0.00010091144195159144 -0.00012083975055400523 -0.00014972504880668604 -0.0001836897561361096 -0.00021765446346553316
          -0.00035320998191801993 -0.0004101912626207021 -0.00046717254332338435 -0.0008421297967837557 -0.0009264048402978459 -0.0010106798838119362
          -0.001822233880622769 -0.0019230322065639002 -0.0020238305325050313 -0.003536446428426397 -0.0036259708273619455 -0.0037154952262974943
          -0.006220776689595142 -0.006259971479804074 -0.006299166270013005 -0.010106912301201264 -0.01004330092572152 -0.00997968955024178
          -0.015552633649505059 -0.015338183907173284 -0.015123734164841505 -0.020835725011745167 -0.020515457404719856 -0.020195189797694545
          -0.0001432662349899998 -0.00017560425685473718 -0.00020794227871947455 -0.0002840818823914298 -0.0003346730084051873 -0.00038526413441894485
          -0.0006043675273663381 -0.0006755720038275469 -0.0007467764802887557 -0.0012253528420354274 -0.0013095805141146186 -0.0013938081861938096
          -0.002285294687282097 -0.0023665705983051256 -0.0024478465093281544 -0.003953774427249946 -0.004011266054654759 -0.004068757682059574
          -0.00638777633984071 -0.0064000596325361125 -0.006412342925231515 -0.009694137113192274 -0.009629716264066421 -0.009565295414940573
          -0.013673139087860851 -0.013531133903654884 -0.01338912871944892 -0.01601930902249325 -0.015888380979206633 -0.01575745293592002
          -0.0002602061738130342 -0.0003075052835374865 -0.00035480439326193876 -0.0005100607053750448 -0.0005751166812809572 -0.0006401726571868695
          -0.0009760204857610625 -0.0010508002605186008 -0.001125580035276139 -0.0017319607910572007 -0.0018012268471870182 -0.001870492903316835
          -0.0028495780609242615 -0.0028984733077190537 -0.002947368554513846 -0.004420877987212342 -0.0044397333102096665 -0.00445858863320699
          -0.006524623482973318 -0.006509895003209602 -0.006495166523445885 -0.009151277164764026 -0.009093132465278014 -0.009034987765791999
          -0.011720479267433378 -0.011659876382648482 -0.011599273497863584 -0.012455251542799119 -0.012498032305921268 -0.012540813069043418
          -0.0004779559205545434 -0.0005277917597781206 -0.0005776275990016977 -0.0008741546865989726 -0.0009309239150454347 -0.0009876931434918967
          -0.0014941945597677342 -0.0015441167109420477 -0.0015940388621163615 -0.0023613857645849085 -0.0023900973583027394 -0.002418808952020571
          -0.003487169267285833 -0.0034878566893322437 -0.0034885441113786542 -0.0048906356585913125 -0.004867928828569749 -0.004845221998548185
          -0.006579701182096544 -0.006545859239195109 -0.006512017296293675 -0.008461384086957768 -0.00842784159168343 -0.00839429909640909
          -0.009786695982604916 -0.009820314911184284 -0.009853933839763653 -0.009437303314788613 -0.009637345525023348 -0.009837387735258083
          -0.0008493525706897694 -0.0008650611386422677 -0.000880769706594766 -0.0014127544856755905 -0.001416811996246181 -0.0014208695068167717
          -0.002170886356116833 -0.002153606480565083 -0.0021363266050133333 -0.0031004771153528344 -0.0030573828302843343 -0.003014288545215834
          -0.004161469608031148 -0.004099568731981325 -0.004037667855931501 -0.0053126056591170315 -0.005251376605732149 -0.005190147552347267
          -0.006503286036076387 -0.006468575068531543 -0.006433864100986698 -0.007598000898229463 -0.007618775784143331 -0.007639550670057201
          -0.007888291062102142 -0.008035096237971487 -0.008181901413840831 -0.006863919169064023 -0.00718072309217339 -0.007497527015282759
          -0.0013763512063854194 -0.0013486163445154266 -0.0013208814826454335 -0.0021027590922271947 -0.002050437099175569 -0.001998115106123943
          -0.002964330097719229 -0.0028854204031830977 -0.002806510708646967 -0.0038945343915398624 -0.003795558963833929 -0.0036965835361279955
          -0.004812882389193334 -0.004710752743312993 -0.004608623097432651 -0.005632719186679602 -0.005553825479118538 -0.005474931771557474
          -0.006262828306300888 -0.006237352350387027 -0.006211876394473165 -0.006567930062658099 -0.006630128636881595 -0.006692327211105091
          -0.006056882300061017 -0.006255433759391312 -0.006453985218721607 -0.0047153490992813876 -0.005026098243327647 -0.005336847387373906
          -0.003580536187755395 -0.003506043445159161 -0.0034315507025629273 -0.0044084882464939905 -0.004321276755567695 -0.0042340652646413995
          -0.005116646597184455 -0.005031022499533391 -0.004945398401882326 -0.005602076076946007 -0.005537603777739302 -0.005473131478532599
          -0.005763332424518737 -0.005740282156823229 -0.0057172318891277225 -0.005486134783515054 -0.005528566578141077 -0.005570998372767101
          -0.00451782472709776 -0.00464819388992798 -0.004778563052758202 -0.003188461327703439 -0.003390264047268608 -0.0035920667668337767
          -0.0000014182370179774177 -0.00007488242184832323 -0.00009826353309887242 -7.770293052670361e-7 0.00009041987172668772 0.00015480398596912006
          -0.00018510207787431136 -0.000001159849620168216 0.00018225798047135283 0.0003844903937865634 -0.0002719406226497503 -0.0000015426699350693957
          0 0 0.000008698437936393337 0 0.000017396875872786673 0
          0 0 0 -0.0000019132741820614693 -3.787650502496363e-7 0.0000014191245857972954
          -0.000003826548364122939 -7.575301004992726e-7 0.0000028382491715945904 -0.03431135934625452 -0.03113979451717013 -0.03734794514640678
          -0.038107172294536196 -0.033741093979824256 -0.030710152475654933 -0.03693112138208479 -0.037578899873606644 -0.033170828613394
          -0.030280510434139724 -0.036514297617762814 -0.03705062745267709 -0.009101091924211213 -0.0045059867204444775 -0.0013670329025333532
          -0.0046269528043137425 -0.009876118316299191 -0.005246826547230016 -0.002271977090462819 -0.005767000228215915 -0.01065114470838717
          -0.005987666374015553 -0.0031769212783922854 -0.006907047652118088 -0.019949210321597615 -0.019573535467986472 -0.024689574872024955
          -0.024250088476424028 -0.019722444154128667 -0.019465696436881435 -0.02437108800361877 -0.023868750928944363 -0.019495677986659722
          -0.0193578574057764 -0.024052601135212587 -0.023487413381464692 -0.006718590092070088 -0.008071354195010153 -0.004847616478966702
          -0.0038091901157293454 -0.007219611359835414 -0.008418440599461546 -0.005332634791428708 -0.004400363319368883 -0.00772063262760074
          -0.008765527003912938 -0.005817653103890716 -0.004991536523008419 -0.003497231459654077 -0.005160236278197536 -0.0038404767925563554
          -0.0055838381829811795 -0.004183722125458634 -0.006007440087764824 -0.02835307219672109 -0.025195129560630393 -0.02788763115435668
          -0.024941816901507798 -0.027422190111992272 -0.024688504242385202 -0.0000013022090285572712 0 0
          -0.00005150185041987925 0.000045747072275458094 0.000007438016990955445 -0.000015406486301771785 0.00043885455327900407 0.00009279635357947348
          0.000014876033981910897 -0.00003081297260354357 0.0009292109569778874 -0.03395666171076442 -0.03283785250922008 -0.03658929445272866
          -0.0360092030548416 -0.03329734146258115 -0.032151851408093436 -0.035932540659836545 -0.03536583087750801 -0.032638021214397864
          -0.03146585030696679 -0.03527578686694443 -0.03472245870017442 -0.0307976944627036 -0.036996612812535384 -0.03045823858862971
          -0.03673451748322849 -0.03011878271455581 -0.0364724221539216 -0.00017787323174477641 -0.00032133418486437706 -0.00007175847441533013
          -0.00002229846029898958 -0.0002548960681650572 -0.00040005832945354096 -0.00008277846239779375 -0.000027255770358560833 -0.000331918904585338
          -0.000478782474042705 -0.00009379845038025737 -0.000032213080418132085 -0.04131334771002973 -0.050498553861830074 -0.04819109527644805
          -0.0393093572567487 -0.04138637562976618 -0.05041570089331996 -0.047970141858629814 -0.03915650253335908 -0.04145940354950263
          -0.05033284792480984 -0.04774918844081159 -0.03900364780996947 0 0 0
          0 -0.0000900131186236513 -0.000021085612580039475 0.000012601770930112768 -0.00003677693716546042 -0.0001800262372473026
          -0.000042171225160078956 0.000025203541860225535 -0.00007355387433092083 -0.010667834877199753 -0.010119261956895928 -0.010891805191527056
          -0.010450250485632985 -0.011115775505854361 -0.010781239014370045 -0.029326529268978895 -0.028778909458040035 -0.02823128964710119
          -0.0000076007394297655404 -0.00014727055616129436 0.000478300600211103 0.0005253975148538238 0.0009642019398519717 0.0011980655858689418
          -0.00025519221009582974 -0.0012702155284956592 -0.00048492920506760823 -0.00009658923692934349 -0.0016740417660419974 -0.0005413057634061525
          0.00006201373623714273 -0.0020778680035883354 -0.0005976823217446964 -0.015928489986136874 -0.014250208518394538 -0.023448272530960372
          -0.024525146956659288 -0.016524494084416974 -0.01499074541819941 -0.02351514263431175 -0.024445489629837034 -0.017120498182697074
          -0.01573128231800429 -0.023582012737663124 -0.024365832303014784 -0.03829715835492722 -0.0394131170257822 -0.04065390668964494
          -0.037609131822874634 -0.03884097754445019 -0.040090287767482344 -0.03692110529082206 -0.038268838063118184 -0.03952666884531975
          -0.0031195289504821156 -0.0074179679237258035 -0.003504436246505538 -0.007793907955773824 -0.00388934354252896 -0.008169847987821846
          -0.0003656517211534362 -0.0021932846217271743 -0.0009125361068080706 -0.003048723678210886 -0.0014594204924627048 -0.0039041627346945973
          -0.004329574611613153 -0.001998238594387553 -0.0049209029332835915 -0.0025687874320153175 -0.0055122312549540295 -0.003139336269643083
          -0.04681371564338124 -0.045748271603826864 -0.049391455389473364 -0.05153995118894865 -0.04635410708542359 -0.04530626900245534
          -0.049083331512107795 -0.05126370785985571 -0.04589449852746594 -0.04486426640108382 -0.04877520763474223 -0.050987464530762784
          -0.01448912219564678 -0.014842956689746419 -0.02040861020516754 -0.014630103178281754 -0.015129896919768642 -0.02039374603878905
          -0.014771084160916728 -0.01541683714979087 -0.020378881872410562 -0.0005954975887630486 -0.0003782752646775949 -0.000864745389478315
          -0.0006256117751197683 -0.0011339931901935814 -0.0008729482855619414 -0.014549756561559102 -0.010595837127780977 -0.01457305533543862
          -0.01079335224987346 -0.014596354109318138 -0.01099086737196594 -0.007750268202023443 -0.01001978818719342 -0.00830403386015518
          -0.010800506681892417 -0.008857799518286916 -0.011581225176591412 -0.0038962599370615087 -0.0017740087956612186 -0.004590509021340657
          -0.0022305676358383513 -0.005284758105619808 -0.002687126476015483 0 0 0
          -3.188704976132899e-7 0 0 -6.377409952265798e-7 0 0
          -0.001672284084780263 -0.0009519174345146298 -0.002053055024371427 -0.0019157364971166095 -0.0011388278332177663 -0.0024170000818729757
          -0.002159188909452956 -0.0013257382319209025 -0.002780945139374525 -0.04118498995241858 -0.04294960304725951 -0.04249482451850046
          -0.04062991641316774 -0.04245302429856514 -0.042052437168155474 -0.04007484287391688 -0.04195644554987077 -0.04161004981781049
          -0.04393022478626213 -0.04350888184471433 -0.043087538903166536 0 0 0
          0 0 0 0 0 0
          0 0 0 -0.04094590659954249 -0.04269911609886518 -0.04044499648007986
          -0.04239542176906847 -0.03994408636061723 -0.04209172743927178 0 0 0
          0 0 0 -0.052306275224936395 -0.04357148137107751 -0.052117962622795305
          -0.043291567026467186 -0.051929650020654194 -0.04301165268185686 -0.03199878798158203 -0.03039221729596046 -0.0317101823137701
          -0.030342351594291425 -0.03142157664595815 -0.03029248589262239 0 0 0
          -0.0022902644998040516 -0.002535274472415505 -0.0027802844450269576 -0.01612841804715292 -0.01021961918678054 -0.0164250066613699
          -0.010869326775604591 -0.01672159527558688 -0.011519034364428637 -0.0029816261980075837 -0.003463963657609315 -0.003946301117211046
          -0.00003392266547561677 0.000510321825385912 0.0010545663162474406 0 -3.188704976132899e-7 -6.377409952265798e-7
          -0.0007671251425919738 -0.0010111109072838 -0.0012550966719756258 0 -2.3853164764178855e-7 -4.770632952835771e-7
          -0.0002769789558944177 0.0004403107252215618 0.0011576004063375413 -0.025554891447072597 -0.025608021702001632 -0.025661151956930667
          -0.05433593703383886 -0.054210642897124954 -0.054085348760411045 -0.03384855109801736 -0.03325438357434502 -0.03266021605067267
          0 0 0 0 -0.00010647236291638178 -0.00021294472583276356
          -0.0044096783824010815 -0.0043666702085343595 -0.004323662034667637 -0.004212292960993064 -0.004197006298992634 -0.004181719636992203
          -0.004864898640806797 -0.00482097976528436 -0.004777060889761922 -0.004409251621494433 -0.00439189018228126 -0.004374528743068087
          -0.005083622465001969 -0.0050469028212928825 -0.005010183177583798 -0.004978731657423645 -0.004956970159605466 -0.004935208661787287
          -0.0044581583203521045 -0.004464017801922444 -0.004469877283492785 -0.003381759180601737 -0.0034272670350639746 -0.003472774889526212
          -0.001970891128614709 -0.0020616887018405387 -0.0021524862750663693 -0.0016805783047775654 -0.0011787344660571125 -0.0018549047249797367
          -0.0013129687268424353 -0.0020292311451819076 -0.0014472029876277577 -0.0005273663725175687 -0.00021869483424351852 -0.00020286698314779988
          -0.0006318524048071223 -0.0005509053776833802 -0.00022549963921398235 -0.00022230250086969968 -0.0006985413467846494 -0.0005744443828491917
          -0.0002323044441844462 -0.00024173801859159937 -0.0007652302887621763 -0.000013170376843066693 -0.000013964050688528132 -0.000014757724533989568
          -0.0009620930970770552 -0.0010144929069980406 -0.0010668927169190262 -0.00005279150374556275 -0.000052807596993293 -0.000052823690241023266
          -0.003948422204184214 -0.0039910343366450175 -0.003936522773555402 -0.003979264799972614 -0.00392462334292659 -0.0039674952633002095
          -0.0043914312471213905 -0.004373698598259803 -0.004355965949398216 -0.0037047392836672835 -0.003694111117072762 -0.00368348295047824
          -0.0040938739504649555 -0.004078411865276401 -0.0040629497800878465 -0.003457104693702135 -0.0034517620543046273 -0.0034464194149071196
          -0.002457017647629815 -0.0024696999683898975 -0.00248238228914998 -0.001407397208601069 -0.0014292575992783459 -0.0014511179899556227
          -0.0006573451700806187 -0.000672867263738558 -0.0006883893573964971 -0.00003287542532175987 -0.00022152263752380828 -0.00018184735609005044
          -0.00003420749053253512 -0.0002248474130668603 -0.0001853105746226752 -0.00003553955574331038 -0.00022817218860991237 -0.00018877379315529992
        </DataArray>
        <DataArray type="Float64" Name="disp_x" format="ascii" RangeMin="0" RangeMax="0.000033222244282797286">
          1.4653765839780742e-7 0 1.4811999246933387e-7 0 1.524148453916849e-7 0
          1.4064143306870451e-7 0 1.4411683959442463e-7 0 1.5429940790604557e-7 0
          1.4650961182474264e-7 0 1.5296054569314218e-7 0 1.714877307756426e-7 0
          1.8619573243526534e-7 0 1.9553100262671238e-7 0 2.268176271871559e-7 0
          3.0521979436437687e-7 0 3.179017785493296e-7 0 3.580752318116597e-7 0
          5.50197044555339e-7 0 5.61557614601942e-7 0 5.971899658736709e-7 0
          9.626464121641007e-7 0 9.65519472328187e-7 0 9.76140465380409e-7 0
          0.0000015891478796181599 0 0.0000015724817025746194 0 0.0000015289865472387342 0
          0.000002519279866872974 0 0.0000024731875524583626 0 0.0000023277264348500104 0
          0.0000042963760476310185 0 0.000004191057844085487 0 0.000003835458087714116 0
          2.9448535107428856e-7 2.982159601677352e-7 3.0861576132471516e-7 2.8606480382583395e-7 2.937325575779267e-7 3.159347248954166e-7
          3.030464141063561e-7 3.157785067283631e-7 3.55635651745067e-7 3.908321003459928e-7 4.102565383894783e-7 4.740858921270147e-7
          6.373110058681097e-7 6.620799819416205e-7 7.406279776026078e-7 0.0000011299801105676972 0.0000011515522563410798 0.000001219283810044215
          0.000001951694728562561 0.0000019560979957759066 0.0000019737473794605486 0.0000031908194163461787 0.000003159291725182611 0.0000030740990715669594
          0.000005026160725835184 0.000004935734755985257 0.00000466185172452471 0.000008382536895140482 0.000008183072762535098 0.000007527829179669366
          4.459628343844369e-7 4.530884935947151e-7 4.7330801493392857e-7 4.4180074006670473e-7 4.5476625362926634e-7 4.934535168689693e-7
          4.802538519098373e-7 5.005218995659573e-7 5.665309008101447e-7 6.339760190875582e-7 6.644510022155196e-7 7.620314517096651e-7
          0.0000010221359687690406 0.0000010579498470159165 0.0000011710155701078373 0.0000017672575834377563 0.0000017967046335762235 0.0000018894561710070704
          0.0000029906130073044237 0.0000029944870514055467 0.0000030130358170478167 0.000004817941192360939 0.000004773033224384374 0.000004648649621404953
          0.00000748583873514468 0.0000073586127949522384 0.000006984506568240998 0.000012074822293020914 0.00001180822096985836 0.00001094995530102148
          6.047529225602123e-7 6.172396272152266e-7 6.530508729475634e-7 6.145153274117057e-7 6.347561138414579e-7 6.969373048628768e-7
          6.929696908849377e-7 7.236671243857692e-7 8.213195380738493e-7 9.370012535736501e-7 9.786037970792261e-7 0.0000011092158450041535
          0.0000014843565406601104 0.0000015294138145147377 0.0000016704383525307815 0.0000024862711972780397 0.000002520220054432851 0.0000026279000838340147
          0.000004097752077426796 0.0000040986569976100975 0.0000041103564258100425 0.0000064717037905549495 0.000006414520163304611 0.000006254431959864822
          0.000009865152540143809 0.000009713047226583787 0.000009270088128190896 0.000015226516565715485 0.000014930148376835428 0.000013994018203936432
          7.769502610282111e-7 7.972985566682257e-7 8.572806313616961e-7 8.159679864333571e-7 8.468725109244611e-7 9.413003666037641e-7
          9.611335147704404e-7 0.0000010035336754070225 0.000001135355877805702 0.0000013215770659154216 0.0000013730582504033342 0.0000015326045520934999
          0.0000020464887993984845 0.000002097405923062303 0.000002256310814470921 0.0000033060675709776987 0.0000033404793155602154 0.000003450845760942944
          0.000005281259688524559 0.000005276559901357544 0.000005273519271323237 0.000008141726706478939 0.000008075072450188225 0.0000078840967233611
          0.000012118743713126582 0.000011951831777715965 0.000011472678900904677 0.000017887790747911608 0.000017596067822220966 0.000016681555246206345
          9.744101303885203e-7 0.0000010052037476694566 0.0000010964885584316776 0.0000010677936675510112 0.0000011098997809575714 0.0000012389566817909977
          0.0000013075647902902023 0.0000013595923939075828 0.0000015216073729732942 0.0000018099944602829607 0.0000018669828168923621 0.0000020452126197762867
          0.0000027271402583088183 0.000002778531876566075 0.000002941209324269751 0.000004237837958774991 0.0000042682232225700945 0.000004368067282265882
          0.000006538413618452374 0.000006526702722409922 0.0000065028232580524315 0.00000980301438445354 0.000009730481421995064 0.000009516259908638746
          0.000014208334843309337 0.00001404056080919037 0.000013556107618521322 0.00002007886440517991 0.000019817041589143496 0.000018997519150659173
          0.0000012223883917454752 0.0000012592952707905178 0.0000013778850176200888 0.0000013978880165299556 0.000001444418334420851 0.0000015975506433462497
          0.0000017591431586795446 0.0000018122499948105585 0.0000019881309970311032 0.00000242355286352077 0.000002477097755265778 0.0000026544648122738314
          0.0000035390319330842595 0.000003583442312418737 0.0000037313650406038915 0.0000052834506730439005 0.000005305568362859515 0.000005382209377355393
          0.000007854421246571731 0.000007836760492647274 0.00000779034618699906 0.000011421321503228797 0.000011349423222098837 0.000011125587850773755
          0.000016089450938152983 0.000015939062400187117 0.000015483538002833297 0.00002183892474879261 0.000021632726272407878 0.0000209617041027911
          0.0000015506749264228091 0.0000015807709269832356 0.0000017035626601824799 0.0000018365130152657432 0.0000018731068833881425 0.0000020198615408140077
          0.0000023415094152352387 0.000002381516638002637 0.0000025380813406503294 0.0000031785560809802 0.000003216848763447387 0.0000033631213911435063
          0.00000448655598535367 0.000004516082891822802 0.000004626943565254805 0.000006433982525843607 0.000006445172202731354 0.0000064884588243308565
          0.000009205696592424443 0.000009186178407729455 0.000009123103844885196 0.000012952998130520598 0.000012893522344231601 0.000012684952918525239
          0.000017724049415936944 0.00001761074725340403 0.000017229261667038356 0.000023239478710855206 0.000023103859113472344 0.000022619069638726055
          0.0000030586461543731584 0.00000309096247234761 0.0000031944007034915794 0.000004071059582352706 0.000004099686132751588 0.000004190066707865338
          0.000005556526068583695 0.000005576289891955367 0.000005636716857001731 0.000007667061479371986 0.000007671000071383351 0.000007680087704283044
          0.000010565454107135553 0.000010544816799419482 0.000010477376542261016 0.000014373117398623027 0.000014321294390141195 0.000014153043479544282
          0.000019097132651609695 0.000019007426102574285 0.000018731170126963787 0.00002434168495848373 0.000024242949589726214 0.000023934003473449147
          0.00003134142939003355 0.000030713307150891224 0.00003070882749847383 0.00003133821224074193 0.00003134586696852018 0.00003070083803329706
          0.00003071270946055173 0.000031338842339966276 0.000031313118734924606 0.00003079413713231248 0.00003071639087088105 0.000031340801363055214
          0.00003193321111512133 0.00003197162470811964 0.000031926717246286986 0.00003197102114413008 0.00003195577617602657 0.00003198137171115595
          0.00003189330029148972 0.00003235019496159044 0.00003236443235706978 0.00003187574143737178 0.000032344027187691864 0.00003234915957766007
          0.000031912244380908165 0.00003236271043573468 0.0000323899436382719 0.000008325659139983038 0.000012559679522738759 0.000010038375456395254
          0.00000720604697984177 0.000008004139269027617 0.000012131984105063315 0.000009645489057463168 0.000006899682583479419 0.000007056059850380059
          0.000010780553706854163 0.000008421529571736892 0.00000601290275522362 0.0000275752887578672 0.000028218348430237407 0.00002947723011313202
          0.000029005691034476858 0.000027374566195040785 0.000028053914491283376 0.00002957443073832911 0.000028975140175104806 0.000026400697207453197
          0.00002719806001825688 0.000029791473378675973 0.000028817498644357886 0.000015866397208911545 0.000017488966784295685 0.000014633046926925255
          0.000013025857052103706 0.00001551874815356489 0.000017069194609915157 0.00001421723066998447 0.00001270376710869338 0.000014392104446419599
          0.00001576078637145739 0.000012930621355855197 0.000011654248365523838 0.000024693620763653272 0.000023038085439596816 0.000024973939853007804
          0.00002651852735106051 0.00002443286926073084 0.00002274602638037352 0.000024775901117833888 0.000026357376399870418 0.00002354314337071773
          0.0000218426974420763 0.00002413125613361583 0.000025719500205460967 0.00002488372641935729 0.000023708256411052724 0.000024755651641076232
          0.00002352827025166757 0.000024325210415384967 0.000022921277752854763 0.000012375237843130876 0.000015957851513778806 0.000011987949956632404
          0.000015502770952587633 0.00001077769822721857 0.00001405486897956188 0.0000315900361590938 0.000032058566773193784 0.00003216608763872011
          0.000031548193808638914 0.000031585634244195544 0.000032046021554453844 0.00003214636410473998 0.00003154183595807455 0.00003150717205041951
          0.0000319927198681106 0.00003207272020738786 0.00003146718612101933 0.000002405709072126415 0.000005307969550996999 0.000004014955450619326
          0 0.0000023537569100830672 0.000005161573534581812 0.000003858004897879537 0 0.000002118042974032001
          0.0000046378332658669185 0.00000338731794181657 0 0.000014816398393768618 0.000013023236461642087 0.000014326983603448276
          0.000012565244078283744 0.000012697702003516223 0.000010936188571321071 0.00003055728296430377 0.000030226858775961434 0.000031111928111712695
          0.000031367326651371004 0.00003056195174163209 0.00003022499122485958 0.00003111208063010038 0.000031367347723867434 0.00003054087403152216
          0.00003020198751503998 0.00003111031427404958 0.0000313671214771476 0.00001880496887286246 0.000010060803887081929 0.000009728349095365541
          0.00001641008231147527 0.000018583946579343305 0.000009895225629522904 0.000009502445610839528 0.000015977276159867275 0.000016701590785091683
          0.000008601074201834028 0.000008070898718794917 0.000013734695365808043 0.000032796519145503756 0.0000324930829919866 0.00003242241217486339
          0.00003276989256122451 0.00003275058787899684 0.00003245724895454048 0.00003239433652372239 0.00003275095053777927 0.00003287296211336832
          0.000032492174211186 0.00003247114178392922 0.000032700761742948594 0.00002180302749239964 0.000022636169037558502 0.000021476495942441275
          0.000022301677661258013 0.00002042098678891651 0.00002118681286695242 0.000009542732196978874 0.000009254235635714947 0.000008341289980459396
          0.00003103805869333331 0.00003044767089367906 0.000031034464666069085 0.000030457672839419715 0.00003092267348284734 0.000030795904169441804
          0.00002997404445184407 0.000029400466170605678 0.00003003924005396465 0.000030043902490409336 0.000029259638189232924 0.00003000606415538641
          0.00003056168416897414 0.00002883562418897748 0.000029842913116511246 0.00002288596745006404 0.000024897151878806866 0.000022720454665600876
          0.000018967487762245876 0.000022373128064132907 0.000024411706317267753 0.00002213063065340548 0.00001837659325242506 0.000020821696352232366
          0.00002293035471788394 0.000020189500931532006 0.000016512550478256572 0 0.000003880972642940829 0
          0 0.0000037101169314599126 0 0 0.000003235943373901161 0
          0.0000261863174880965 0.000022515906656152916 0.000026062737751275898 0.000022258463382707106 0.000025641410368011545 0.000021474366710482863
          0.000030146201637093763 0.000030307780952912 0.000030183365606353672 0.00003015396533502521 0.000030123204746419532 0.000029620463679626325
          0.000027617022563124753 0.000028850037427770027 0.00002742864738328243 0.000028742254922915575 0.000026620295559131584 0.00002833093772782328
          0 0.000003966610791919706 0.0000048403861402240965 0 0 0.000003794472801708873
          0.000004680047340768322 0 0 0.0000031792601191385763 0.000003844552403216928 0
          0.000020400346442661998 0.00002188723393174372 0.000018968773359440474 0.000020007352538902462 0.000021477339041427096 0.000018506797338787035
          0.00001875404184986333 0.00002010701075773445 0.00001705129670563675 0.00002985752461141472 0.000030176782967441116 0.00002984357023473851
          0.000030170362846074842 0.000029731434974238594 0.00003008776649568645 0.000018963095699100918 0.00002075133779167639 0.000018614814592721752
          0.000020447099805666545 0.00001750385831058524 0.00001949700517585979 0.000025522913774174763 0.00002581658434912059 0.000025233489417130822
          0.00002543400386351079 0.000024170686172481957 0.000024174711252665033 0.0000270759980329511 0.000028345582566951982 0.000026889564822169168
          0.000028259353781858425 0.000026169961110444496 0.000027925874788520123 0.000032723583339782455 0.000032382418353164776 0.00003270371908457525
          0.00003270903054340588 0.000032377822322476685 0.000032694615978836456 0.000032711006286089866 0.000032395164747745845 0.000032703241980194856
          0.00002784346190112944 0.00002926387968628033 0.00002766095879433325 0.00002777902307971239 0.000029238150185860127 0.000027565629878597405
          0.00002757384653797088 0.000029149046758013878 0.000027222950035577393 0.000003501700618845657 0.0000028355876649617815 0
          0.000003352181908779308 0.000002711061335778606 0 0.000002846752188551941 0.0000022819943425746965 0
          0 0 0 0.00003267937817147903 0.00003235815010490288 0.00003224216952438611
          0.000032672322262108175 0.00003267607810064661 0.00003235728469259838 0.000032242288798399624 0.00003267054933461106 0.000032686137734951874
          0.00003236977294970203 0.00003225370593379901 0.000032681057164556076 0.0000065838391895987084 0.000007646279881195078 0.0000063069040017354365
          0.000007344884723285221 0.000005396638992072641 0.000006302885790659332 0.0000323856131671666 0.00003268876124286173 0.0000323834992050371
          0.00003268322635076093 0.000032397061312521414 0.00003269374740011183 0.0000052599998472598405 0.000010349984067841983 0.000005140500280238493
          0.000010005055047117441 0.000004324559787586292 0.000008345062807878016 0.000018165599240864788 0.000021474116430202103 0.000017594350225186804
          0.00002107207418884633 0.000015445112591399497 0.000018997511205055014 0.00003196605507008057 0.00003196633296553559 0.00003197663630792156
          0.000026159383731704342 0.000026053870174456748 0.00002576697231952997 0.000026927385301807354 0.000028743670217937466 0.000026685266519228053
          0.000028674144784704998 0.000025099390543201373 0.00002812363367823796 0.00002672063131281496 0.00002660168669768764 0.000026110550894264555
          0.00003062746165506715 0.000030637161327358575 0.00003072627744518217 0.00003274709357893634 0.00003272808339559466 0.00003270948704566347
          0.000029451017315956994 0.000029425213626021275 0.00002929265174761555 0.00003192182611499397 0.00003192388388535666 0.000031931826677275845
          0.00003074895667956252 0.000030922451990633506 0.000031088865341136527 0.000026273236066952943 0.000026102662936469926 0.000024165665253664405
          0 0 0 0 0 0
          0.00003266927339434882 0.00003266916267714285 0.00003268014264142747 0.000032809588450918205 0.000032742538130763955 0.00003291830253681251
          0.000008060819458910843 0.000008062376671326764 0.000008045157897930396 0.000012305917364580399 0.000012295116975414344 0.000012275709548909218
          0.000010146628687789693 0.000010141096816896583 0.000010106247251772336 0.000014817328423310138 0.000014801032567062389 0.000014763132608855646
          0.000012732110108832052 0.000012718245540877689 0.000012665975249579947 0.00001587321909742677 0.00001584978812162722 0.00001578113524437795
          0.000019568432129276714 0.000019534981926863122 0.000019452623358285623 0.00002364023542337303 0.00002360099933680214 0.000023517412731555068
          0.000027677480730238545 0.000027659804108888382 0.00002761174103060643 0.000027718230983439364 0.00002886386386845014 0.00002767309495898039
          0.000028854134696790802 0.000027554210647353202 0.00002878718855298893 0.000030558124030586184 0.00003143149163730639 0.000031047813767592404
          0.00003001144938390202 0.000030555676630697 0.000031432674603620924 0.000031047197575570775 0.000030005227477239033 0.00003054690452174066
          0.000031436966592034 0.000031048865736347206 0.000029986735302283312 0.00003188828293829905 0.00003189019244686608 0.00003189984614380464
          0.000029507597737805264 0.00002950368195582046 0.000029474716339303002 0.000032852789115807105 0.00003285428820568069 0.00003286176397834284
          0.000019366475891083722 0.000016656466134773505 0.000019353831624223064 0.00001664972546395419 0.000019315742826217953 0.00001662876250003555
          0.000017663197721154723 0.000017642664591813515 0.000017588271760468704 0.0000222148136062666 0.000022197066116820817 0.00002214337781594243
          0.00002079683645341672 0.00002077455760717717 0.000020707460651214033 0.00002409012254852354 0.000024068058433864942 0.000023995341951384028
          0.000027287163653216414 0.000027273831224370193 0.00002720927868666414 0.000029800083017419503 0.00002979471485728222 0.000029768856405847968
          0.000030813186102110825 0.00003080848748080366 0.00003080010666525248 0.000033219710049692086 0.00003188623945015095 0.000032523712959325014
          0.00003322089388084001 0.000031885875816946267 0.000032523734553315275 0.000033222244282797286 0.00003188340906737112 0.00003252422702124993
        </DataArray>
        <DataArray type="Float64" Name="disp_y" format="ascii" RangeMin="-0.000023582035076784734" RangeMax="-0.0000031016416904782982">
          -0.0000031045472649736775 -0.000003104094863332364 -0.0000031033975248206836 -0.00000310316595024405 -0.000003102217620409975 -0.0000031025860079529306
          -0.0000032772664998877063 -0.0000032745702816945895 -0.000003274128530554705 -0.000003271714507290408 -0.0000032682119883621754 -0.0000032667161624725067
          -0.000003439450798451712 -0.0000034317397856466007 -0.000003431896071414422 -0.0000034244538033749563 -0.000003413215075843243 -0.0000034072382802630255
          -0.000003613154292260487 -0.000003595928938785318 -0.0000035969618261938162 -0.000003579879515876607 -0.00000354926436650139 -0.0000035333236636210773
          -0.000003851701190119817 -0.000003818611602543443 -0.000003820993514201345 -0.0000037877372139388415 -0.0000037223388259136356 -0.000003689117330444763
          -0.000004236467103563901 -0.000004182354426980189 -0.000004184192723702326 -0.000004129562202478306 -0.0000040121478952255715 -0.000003955843010133773
          -0.000004859200633510718 -0.000004779077978106484 -0.0000047794965447662725 -0.000004698691199200328 -0.000004517554233314309 -0.000004433028158614876
          -0.000005820403136870638 -0.0000057061466827983455 -0.000005707640504183395 -0.000005591929785998533 -0.000005338679674993397 -0.000005217195050051631
          -0.000007227744935179778 -0.000007056681195076431 -0.0000070760181795105225 -0.000006896191669688838 -0.000006552750479151494 -0.000006350889392981921
          -0.000009127913787354607 -0.000008830915433844375 -0.000008923698820581677 -0.000008615230995670383 -0.000008144515725555017 -0.000007764982826770894
          -0.0000031064470862013066 -0.000003104641134642873 -0.0000031016416904782982 -0.0000032864007248153 -0.000003282471246302103 -0.0000032736963648719197
          -0.000003464051541351315 -0.000003455702655244525 -0.0000034332112014619284 -0.0000036670970669584035 -0.000003650667955368283 -0.000003600043341409664
          -0.000003953420464792174 -0.000003923188268045268 -0.000003824640022034356 -0.000004400349134711972 -0.000004349561515034863 -0.0000041823670053025
          -0.00000510013666672364 -0.00000502296864126725 -0.0000047720147501084945 -0.000006163730388371817 -0.000006055483098733314 -0.000005705539054994499
          -0.00000773162430365687 -0.0000075972968091002225 -0.000007128277074645536 -0.000009969402179287351 -0.00000978828934500395 -0.000009148887986170341
          -0.0000031114720336373693 -0.000003108628415156581 -0.000003102498381813819 -0.000003304810621105248 -0.000003299542696724056 -0.000003285913586344805
          -0.000003509805254188486 -0.0000035005435823731846 -0.0000034722465147243465 -0.0000037647620690165174 -0.0000037481769631681415 -0.000003693344549484847
          -0.000004130188727634973 -0.000004100512640990431 -0.000004002322896862755 -0.0000046778666304342314 -0.000004629635780512606 -0.000004470645630996231
          -0.000005501518681218872 -0.000005428644118709532 -0.000005196086484431411 -0.000006733811845910687 -0.0000066342952722709785 -0.000006315654791886769
          -0.000008520091674112367 -0.000008407422888021953 -0.00000801084553229217 -0.00001090224270467949 -0.00001078136816281881 -0.000010363421641874289
          -0.000003122584888359501 -0.0000031183291750585274 -0.0000031074208017953547 -0.0000033369078344074877 -0.0000033302610433870605 -0.0000033100502854474217
          -0.000003584938412256307 -0.0000035747698730926315 -0.000003539496489334679 -0.000003915744162896656 -0.000003898746056459578 -0.000003839031282478825
          -0.0000043896098796054806 -0.000004360936845657226 -0.000004264006638289856 -0.0000050737106803239325 -0.0000050288848204883905 -0.000004881783134291579
          -0.000006062683115382415 -0.00000599647824748476 -0.000005788963700989614 -0.000007499449177133363 -0.00000741098780082465 -0.000007134538949610046
          -0.00000951456396679754 -0.000009428775760029142 -0.000009120780086031272 -0.000012074756659739207 -0.0000120147716814596 -0.000011814138192074116
          -0.0000031437681323420885 -0.0000031379373793705848 -0.0000031205296733466427 -0.0000033898776816659807 -0.0000033820447980620647 -0.0000033543823414861078
          -0.0000037000980183613745 -0.0000036889389016061392 -0.0000036462969052470514 -0.000004129279897193115 -0.000004111943175254138 -0.000004048172495720994
          -0.00000473824276423355 -0.0000047108075562639725 -0.000004617410874254182 -0.000005589952371860921 -0.00000554921885283477 -0.000005417605085264131
          -0.00000677436740838714 -0.0000067163704523316885 -0.000006539036254142436 -0.000008422040791336558 -0.000008348825440738761 -0.000008125016987584044
          -0.000010631161945675652 -0.000010573191730488752 -0.000010360282111373996 -0.000013369283953884759 -0.000013338476237601341 -0.000013277501268800043
          -0.000003181020617775459 -0.0000031737177627575736 -0.0000031487350603216427 -0.0000034744290345944937 -0.0000034651836275124692 -0.0000034293016848393297
          -0.000003866054765168867 -0.000003853495344692233 -0.000003803905571888119 -0.000004414586803965885 -0.000004396513639294942 -0.0000043299767773864986
          -0.000005180191340795174 -0.000005154026885533391 -0.00000506650147510383 -0.000006222585819060366 -0.000006186263155495148 -0.000006073052706967518
          -0.000007616439989550878 -0.0000075680012419884535 -0.000007425089861436182 -0.000009461120469633587 -0.000009405582552178997 -0.000009239670160475183
          -0.000011812857761570336 -0.000011776062212983468 -0.000011648396819423459 -0.00001454749282350121 -0.00001455525367168594 -0.00001460693509970347
          -0.000003244181905268308 -0.0000032349454924294106 -0.000003201220565086433 -0.000003601792964102711 -0.000003590118672185838 -0.000003545480653625754
          -0.000004092964351428869 -0.00000407793487860093 -0.000004021705224832533 -0.000004777490453958658 -0.000004757860567315121 -0.000004690019106184988
          -0.0000057140355974321275 -0.000005688852069856855 -0.000005609074680410241 -0.000006958007564981663 -0.000006926472309716612 -0.000006833660480232994
          -0.000008561188188558624 -0.000008523437810127105 -0.000008417374583612552 -0.000010571423221975524 -0.000010534133230490516 -0.00001042610119598713
          -0.000012993992701437505 -0.000012978693613927777 -0.000012928055491703222 -0.0000156678248380004 -0.000015691880692798076 -0.000015802355199559624
          -0.000003344541742800072 -0.0000033317817919285287 -0.0000032879030160248674 -0.0000037828885030576437 -0.000003766894901306522 -0.0000037122622140852254
          -0.000004388241283866493 -0.000004369106451149773 -0.000004305815200795107 -0.000005218910626893204 -0.000005197125556035475 -0.000005128344786707239
          -0.0000063307913896206376 -0.000006307168094840022 -0.000006235988560471752 -0.000007771103626046416 -0.000007746565762519626 -0.000007675614220901657
          -0.000009568969662031017 -0.00000954568868931436 -0.000009478228900840309 -0.000011710681979304637 -0.00001169562606727766 -0.000011645232736693132
          -0.000014133013889090124 -0.000014136641324593705 -0.000014148653872398115 -0.000016742084042041467 -0.00001676826206776327 -0.00001691038201995666
          -0.000004753142680719172 -0.000004731097742489322 -0.000004662444025390593 -0.000005732824726949897 -0.0000057095338797063254 -0.000005642655454656089
          -0.0000070134982289122255 -0.000006990856112617661 -0.000006932074651970956 -0.000008632149929694876 -0.000008611782558258741 -0.00000856738290602369
          -0.00001059527674089235 -0.000010579899734052964 -0.000010556229595764047 -0.000012848119483442196 -0.000012844962361368734 -0.00001285714377969264
          -0.0000152403943250476 -0.00001525198698282173 -0.00001532548350414803 -0.000017577877178455704 -0.000017620441990964682 -0.000017745034795010217
          -0.000017748666859608803 -0.00001775781725378245 -0.000018260110733747656 -0.000018398137786062252 -0.000017812082846928226 -0.000017824089413609736
          -0.000018314270353321203 -0.00001844697228073621 -0.00001796287261599578 -0.00001801404549684492 -0.00001848256335856812 -0.0000185535390191145
          -0.000017967503209802765 -0.000018473175595125585 -0.000018025545413114525 -0.00001851372880254263 -0.00001812170484042711 -0.00001860765884261204
          -0.000017423254067005396 -0.000017985018009047563 -0.000017556214774920606 -0.000017487634493140943 -0.000018039841157673806 -0.000017622840636220863
          -0.000017719071738875444 -0.00001813856665858061 -0.000017790174190166327 -0.000011019497587399568 -0.000011945188585033227 -0.000012147523823403393
          -0.000011739873137184525 -0.000010737103137195821 -0.000011734717180141668 -0.00001183111098679938 -0.000011375925418698935 -0.000009664072076915575
          -0.000010826184832668894 -0.00001054674257826443 -0.000010006138991385921 -0.000015396316391621804 -0.00001612943659784177 -0.00001609612772167444
          -0.00001543904554703407 -0.000015465886996211847 -0.000016408908656993624 -0.000016293853369875674 -0.000015512435716484316 -0.000015806943337391085
          -0.000016948467979953516 -0.000016474646651102455 -0.000016061407991833952 -0.000012189274950040688 -0.000012846999133405939 -0.000011929408082441935
          -0.000011411297486896648 -0.00001211996040094833 -0.000012806628481234571 -0.00001182889454860363 -0.000011284969813567597 -0.00001185785931647523
          -0.000012577264644461224 -0.000011392792298054013 -0.00001080125581257898 -0.000016142310997602036 -0.000015615118096908235 -0.000016770315978463254
          -0.000017097552942095796 -0.000016206219117376655 -0.00001564637816656302 -0.00001681082110202309 -0.000017163347219849594 -0.00001646129777500156
          -0.00001582558810320958 -0.00001703217702396193 -0.00001744801823599995 -0.000017511719011195752 -0.000016517320850694803 -0.000017552918505455173
          -0.00001654751763428741 -0.000017747703379505314 -0.000016717829992399878 -0.000011466944422979264 -0.00001234781514987665 -0.000011290266716020384
          -0.000012262584307419603 -0.000010591465592170218 -0.000011872698488499827 -0.00001689042607957745 -0.00001692545776908083 -0.000016371528002535316
          -0.000016136721582194586 -0.000016993397704712738 -0.000017004032808699698 -0.000016469116529563123 -0.000016232287929742918 -0.00001717596693262612
          -0.00001725219025130834 -0.000016787068098681595 -0.00001679274490879593 -0.000009361058895508781 -0.000009812128921047237 -0.00001036382245606032
          -0.000009710168266191157 -0.000009134497157602032 -0.000009575420088220253 -0.000010080791844414821 -0.000009443777119033375 -0.000008219135452561196
          -0.000008660112644678047 -0.000008940571959501534 -0.000008369405359782196 -0.000012856646404937676 -0.000013241728650984345 -0.00001266063767311366
          -0.000012907213146951925 -0.000011782305422881163 -0.00001152906765399659 -0.00001879754578153176 -0.000019512733655088052 -0.00001961716672972548
          -0.000019061811096860848 -0.000018844106481684697 -0.00001954769312345657 -0.000019647180353086313 -0.00001909681387187072 -0.000018985507478397194
          -0.000019651273254312358 -0.000019720882702652353 -0.00001918496022408283 -0.000019107996419445633 -0.000020583668397699448 -0.00001846928088292834
          -0.000016448036643947512 -0.000018465538334965093 -0.000019741799351156623 -0.00001770551893487006 -0.000015981024394093718 -0.000016303906476006026
          -0.000015995656966621416 -0.000014585630503987946 -0.000014368637777701496 -0.000016868432187719476 -0.000016819270644928234 -0.000017125147292144206
          -0.00001728239406104986 -0.00001694767623484125 -0.000016899362885337382 -0.000017187967083314532 -0.000017349548662932733 -0.000017178020066343315
          -0.000017231752619785854 -0.00001748973493654135 -0.000017589283419330065 -0.00001471800367644124 -0.000014949750962734656 -0.000014738488062334883
          -0.000014996388046328555 -0.000014850613839585529 -0.000015176385331361406 -0.000010560768707919844 -0.000010342574257946825 -0.000009569360802497448
          -0.000017073499450515282 -0.00001724316812661734 -0.00001718374731942215 -0.000017309493389579724 -0.000017395956524671076 -0.0000173546988700517
          -0.000016774062834834828 -0.000016928909511337603 -0.000017576174719627085 -0.00001669514016452443 -0.00001699618566410425 -0.000017616438903287472
          -0.000016792578727396197 -0.000017514459545173076 -0.000017965236906345806 -0.000014449772357053085 -0.000014873562734536029 -0.00001377609903645151
          -0.00001320897159065807 -0.000014571528212648903 -0.00001496162049226675 -0.000013790485983808418 -0.000013170701128315304 -0.000014754680380921135
          -0.000015219327111744478 -0.00001408612739243289 -0.000012959785171448086 -0.000010651093547763587 -0.000011493252999745821 -0.000011668714315675788
          -0.0000103100692995877 -0.00001110376397392908 -0.000011241841473468109 -0.00000899256584452456 -0.000009652445116545685 -0.00000964720988664514
          -0.00001783967490895323 -0.000015677361427673488 -0.000017888385074540128 -0.000015707112328796588 -0.00001811874778304816 -0.000015857024934401112
          -0.00001598944463202118 -0.000015275324608168638 -0.000016156874803682712 -0.0000152878227021961 -0.000016555879386647577 -0.000016223466038634906
          -0.000016538253061283964 -0.000017492682469878168 -0.00001664351724081987 -0.000017535286604896348 -0.00001707936636856606 -0.000017904645602467577
          -0.00001693263201876423 -0.000015347185291164106 -0.0000171720706556122 -0.000018829050646516575 -0.000016064937626688338 -0.00001464772968398558
          -0.000016382840285066222 -0.000017836111930467455 -0.000012746000286206525 -0.000012077738173206703 -0.00001323077720536766 -0.000013803315691504005
          -0.000014068538846158243 -0.000014356985515879625 -0.000013315021197109643 -0.000014079832783885104 -0.000014421335129203781 -0.000013287951659095833
          -0.000014070364607894423 -0.000014502003269672018 -0.00001306846844390068 -0.00001833057298011471 -0.00001807281442650366 -0.000018386835269761058
          -0.00001812700833021469 -0.000018605557241862993 -0.000018360971665915694 -0.000013514523278605967 -0.000014592121767845534 -0.000013489144204633256
          -0.000014584873724384936 -0.000013431168628092239 -0.000014649230912489765 -0.000016019426530143297 -0.000015536357322098974 -0.000016115178223706576
          -0.000015685021134908968 -0.000016447168489484595 -0.000016046683983048648 -0.00001690413677393329 -0.00001803142681234443 -0.000016970616413455108
          -0.00001808783383481504 -0.000017309090593864272 -0.000018349009741281583 -0.00001805994488490834 -0.000018354056175124727 -0.000018422249456956032
          -0.000018110088843450298 -0.00001839660608133093 -0.000018461630227408382 -0.000018202761062488573 -0.000018481033160768095 -0.000018542811975788262
          -0.000018895728951780185 -0.000019338481123073334 -0.000018211898401697104 -0.000018939476894666246 -0.000019379901735327682 -0.000018265906013474424
          -0.000019099682736933782 -0.000019528497148991492 -0.00001850776297879452 -0.000012398786742163428 -0.000013789911979084565 -0.00001335029445128474
          -0.00001191325065187613 -0.000013197045375651532 -0.0000127780372034417 -0.000010180153174495881 -0.000011041096008760168 -0.00001066166971277611
          -0.000015091764755129407 -0.000014370451341954197 -0.000011691960624018078 -0.000019095689849466674 -0.000018972128392567703 -0.0000192753908163282
          -0.00001941307828599499 -0.00001912414404944729 -0.00001900352186048337 -0.00001930340406515376 -0.000019437663751613307 -0.000019191748066529555
          -0.000019075819303121274 -0.00001937004113806255 -0.00001949715939804011 -0.000012993867763221042 -0.00001436705283330893 -0.000012504948504980671
          -0.000013809525037323923 -0.000010771834968247526 -0.000011805842759189455 -0.000018683704239986944 -0.000018765958925214903 -0.000018719005879608396
          -0.00001879894859013285 -0.000018798412125363833 -0.000018873164257809523 -0.000018475426115554495 -0.000015964836718671947 -0.000017620045507267965
          -0.000015344923591494165 -0.00001406994942121267 -0.000013033855677930294 -0.000014018996472389614 -0.00001533527603257041 -0.000013785189133251205
          -0.000015102716289489126 -0.000012858568561279992 -0.000014753897650589406 -0.00001894682721683588 -0.000018980608092127008 -0.000019056640747084797
          -0.00001829631138717489 -0.000018349744347744296 -0.000018488483172168504 -0.000014309451831313581 -0.00001437473805328596 -0.000014454256839856518
          -0.000014513923022483224 -0.000015385139123587653 -0.000016229586219795078 -0.000017499389510592915 -0.000017545057255826686 -0.000017787301713679927
          -0.00001637563409814858 -0.000016467341626175896 -0.00001705130240760197 -0.000017679614764209467 -0.000017741053600574014 -0.00001787761338854141
          -0.0000186964078662093 -0.000018751228983890965 -0.000018946972011691714 -0.000019685826491151544 -0.000019710880436738153 -0.00001976855980747874
          -0.0000156675338622879 -0.000015918908387553782 -0.000016680532717528455 -0.000016481533593834814 -0.000016254917507431624 -0.000016428989535860234
          -0.000020664630125231156 -0.000019576098534114526 -0.000014808290214414388 -0.000009156951111916598 -0.000008923298132709074 -0.000007994816661665213
          -0.000019717201108613897 -0.00001973881129454527 -0.000019790622921313322 -0.000016454866662737725 -0.000016546500980388156 -0.000016794921490878173
          -0.000008045299910102099 -0.000008031353440411852 -0.000007989089063287867 -0.000010646794369793395 -0.000010639459496872749 -0.000010617362206235559
          -0.0000098065609681169 -0.000009797722604805278 -0.000009769851093506227 -0.000012655469942396336 -0.000012652856117801693 -0.000012645288564935915
          -0.000011858922537259447 -0.000011857035161023605 -0.00001184935740914098 -0.000014133288948788279 -0.000014140497698253173 -0.000014159312060379796
          -0.000016482155350896178 -0.000016504399109101094 -0.00001656124929903844 -0.000018688366606112727 -0.000018719352963008788 -0.000018829429345098735
          -0.00002052902468335973 -0.00002056196286004738 -0.000020686786914824475 -0.00001955323616619557 -0.00002007713969200298 -0.000019591421610848145
          -0.00002010648220945669 -0.0000197267353392245 -0.000020233367320692496 -0.000021306111957571793 -0.000021474738542992365 -0.000020471374513866995
          -0.000020350692129920366 -0.000021328480954456206 -0.000021491019421169345 -0.000020495091018232477 -0.000020380504720823964 -0.000021388469072026124
          -0.000021537390104486668 -0.000020560803302478975 -0.000020478994009393963 -0.000020549375207325942 -0.00002056887416746392 -0.000020617192541878375
          -0.000021086448763321213 -0.00002111583283991575 -0.00002119632313272012 -0.000021819252421926605 -0.000021831865170542377 -0.000021864525660878076
          -0.000015362675512638396 -0.000013307962576061542 -0.000015366632232089406 -0.000013306929342782105 -0.000015377923393098697 -0.00001330372446532123
          -0.000014845362772969528 -0.000014849178665898345 -0.000014861249809805714 -0.000017466301538003397 -0.000017476248660706504 -0.000017505225821408217
          -0.000017104155726406546 -0.000017115892547241717 -0.00001715294374944475 -0.000019254265141230378 -0.000019276986720879645 -0.000019344080983319283
          -0.000021063868442180834 -0.000021092591442094834 -0.000021189580118172968 -0.00002228241926581929 -0.000022306943634473698 -0.00002238626719958834
          -0.00002240704401946728 -0.00002242655011568384 -0.000022478795188398984 -0.00002320418144937741 -0.00002250842366202049 -0.000023538264515326764
          -0.000023215350231203753 -0.000022521358392159364 -0.000023549208931231695 -0.000023247711312105747 -0.00002256149612488022 -0.000023582035076784734
        </DataArray>
        <DataArray type="Float64" Name="disp_z" format="ascii" RangeMin="-0.00001785329005823902" RangeMax="5.368710188214349e-7">
          0 0 -5.91661890727584e-8 -5.8665565199511266e-8 -1.22350324080434e-7 -1.2076619132102593e-7
          0 0 -5.7865414016314386e-8 -5.602226105755414e-8 -1.2405190878127697e-7 -1.1966193203175812e-7
          0 0 -6.760362702181349e-8 -6.357783169409891e-8 -1.5015088603649282e-7 -1.4183392282068356e-7
          0 0 -1.0948512965875543e-7 -1.018992436534693e-7 -2.458249247406739e-7 -2.295902232446263e-7
          0 0 -2.289377980264975e-7 -2.1777285485302584e-7 -4.994177776081275e-7 -4.777691350965325e-7
          0 0 -4.803452498524949e-7 -4.6878024081662295e-7 -0.0000010068662645175599 -9.854926304313188e-7
          0 0 -9.16222612936318e-7 -9.085714113382231e-7 -0.00000186210177629963 -0.0000018487250891115433
          0 0 -0.000001582636500276194 -0.0000015885902104238866 -0.0000031556661022840802 -0.0000031675133563475375
          0 0 -0.0000025941965276906256 -0.0000026252906772879154 -0.000005112722200166001 -0.000005177352036241225
          0 0 -0.0000045798024912356585 -0.000004789420239598349 -0.000008963751294141066 -0.000009358622722424356
          0 -6.106642595269213e-8 -1.279371334462871e-7 0 -6.377591222127392e-8 -1.3794296185656225e-7
          0 -8.017413348653589e-8 -1.772989948969988e-7 0 -1.328842995408938e-7 -2.9500432433076255e-7
          0 -2.619178978808765e-7 -5.635157054851094e-7 0 -5.145241153231564e-7 -0.000001069811169478251
          0 -9.367957790806148e-7 -0.0000018976543037703468 0 -0.0000015686954685761113 -0.00000312759795348394
          0 -0.000002484705702944126 -0.000004893654982327893 0 -0.000004079537514910262 -0.000008005791263178772
          0 -6.548741410610451e-8 -1.399351790980978e-7 0 -7.513516885871461e-8 -1.6407433647750063e-7
          0 -1.0340660878695457e-7 -2.2846849385118631e-7 0 -1.7368807207019768e-7 -3.7855739555674856e-7
          0 -3.1597809149671225e-7 -6.678928360395235e-7 0 -5.684515667858235e-7 -0.0000011687099170503872
          0 -9.675886588483096e-7 -0.000001951187609377857 0 -0.0000015385983800999889 -0.000003063841857192839
          0 -0.000002334809601088703 -0.0000046070273530588295 0 -0.000003427293532939177 -0.000006747553820369125
          0 -7.459816088951344e-8 -1.6273362950730887e-7 0 -9.490879703850482e-8 -2.0913302340616426e-7
          0 -1.4149305365092398e-7 -3.1006098491038035e-7 0 -2.3343310555701978e-7 -4.973796689188454e-7
          0 -3.8965772581041827e-7 -8.081898727863966e-7 0 -6.375283218077587e-7 -0.0000012950694572064348
          0 -0.0000010018765155963573 -0.000002009693298411153 0 -0.0000014951940035057355 -0.000002975473351865817
          0 -0.0000021339143667770513 -0.000004212409366810426 0 -0.0000027272050972920105 -0.000005414092736561187
          0 -9.255599836822009e-8 -2.0410230792184616e-7 0 -1.292024020686323e-7 -2.837170438798951e-7
          0 -1.989517303957401e-7 -4.2609853957289924e-7 0 -3.1261270916805623e-7 -6.50644059141477e-7
          0 -4.798490022843107e-7 -9.7711573552347e-7 0 -7.153017370894871e-7 -0.0000014370143020015354
          0 -0.0000010321551015634407 -0.0000020600756724564184 0 -0.0000014342257830949829 -0.0000028525810347817234
          0 -0.0000018923831033497752 -0.000003745466102231087 0 -0.000002086462353244723 -0.000004200219014572939
          0 -1.2734968080916347e-7 -2.74885581703618e-7 0 -1.8644475444331768e-7 -3.9561899980681165e-7
          0 -2.7980207356107855e-7 -5.799070738035118e-7 0 -4.1166641177890565e-7 -8.351508086821148e-7
          0 -5.819811204411532e-7 -0.0000011649871826909027 0 -7.941315424231284e-7 -0.000001580359751445258
          0 -0.0000010507691476851518 -0.000002089798705839694 0 -0.0000013454797441850054 -0.0000026783332721162157
          0 -0.0000016321057262128027 -0.000003253801557799429 0 -0.0000015328960517039199 -0.0000031350486903891924
          0 -1.8775772847234797e-7 -3.8282614986826335e-7 0 -2.722525099212488e-7 -5.486493075848736e-7
          0 -3.870258697516732e-7 -7.70892517872436e-7 0 -5.289151904221702e-7 -0.0000010448326025795836
          0 -6.904508416078431e-7 -0.0000013605560045779024 0 -8.659425711357428e-7 -0.0000017105930257260476
          0 -0.0000010486717049666665 -0.00000208449838250061 0 -0.0000012255215516546382 -0.0000024521130123537247
          0 -0.0000013452710137931249 -0.0000027199506823934216 0 -0.0000010733989701322695 -0.000002271530612568524
          0 -2.752052274629409e-7 -5.30622100601574e-7 0 -3.857517856742216e-7 -7.420786815028344e-7
          0 -5.168654357311447e-7 -9.94991927666883e-7 0 -6.584329676561418e-7 -0.0000012726143081663851
          0 -7.98061218159374e-7 -0.0000015535320081871973 0 -9.228235938004635e-7 -0.0000018148091455561023
          0 -0.0000010187775464804203 -0.0000020311193112784805 0 -0.000001070271648248456 -0.0000021688509951355243
          0 -0.0000010327387931561587 -0.000002147944692832193 0 -6.908885449987997e-7 -0.0000015287074314886836
          0 -6.430532396805569e-7 -0.000001270314001279086 0 -7.769230280676499e-7 -0.0000015324893993197553
          0 -8.864927179350487e-7 -0.000001750003883835883 0 -9.537767444189294e-7 -0.0000018885377743637725
          0 -9.60639310217461e-7 -0.000001911504365650182 0 -8.965450321716312e-7 -0.000001795317211363356
          0 -7.342048327433903e-7 -0.0000014946059118474988 0 -4.244504386151207e-7 -8.908158725269308e-7
          0 0 0 0 -1.9669330466618796e-8 -6.64502283690452e-8
          -6.909822750861182e-8 -2.8566525284929166e-8 -6.771374945028386e-8 -1.359570508967611e-7 -1.540155780394114e-7 -6.764708156564156e-8
          0 0 6.435583205237719e-9 3.7888377384482677e-10 5.942374308834145e-9 -1.147219505331509e-8
          0 0 0 1.2823927768193218e-8 2.974820587061537e-8 4.332664585200764e-8
          2.011307724375502e-8 4.346932801494228e-8 4.65029504338592e-8 0 0 0
          0 -0.000005182689387416819 -0.000004648629777358547 -0.000005668178934916164 -0.000005781443914241302 -0.000010191391583462441
          -0.000009191719363240627 -0.000011282427033274164 -0.000011453084876267282 0 0 0
          0 -0.0000011946930332001594 -7.251273120775797e-7 1.823145443258832e-7 -8.514449914250194e-7 -0.000002583370700270989
          -0.0000014332656252561585 -3.9035702811621824e-7 -0.000001991337253494 0 0 0
          0 -0.000002995963777202147 -0.0000029363862424435 -0.0000037611185222246445 -0.000003753507372593858 -0.0000059052620464838114
          -0.00000584279542272497 -0.000007444854277426819 -0.00000741073429807922 0 0 0
          0 -9.857303940048913e-7 -0.000001193538171594936 -7.467069436843638e-7 -5.857471267119493e-7 -0.0000020621070625044514
          -0.000002455230255446529 -0.0000017034825254333246 -0.0000014228386489040819 0 0 -5.304998986271841e-7
          -8.196876132390536e-7 -0.000001121614857315977 -0.000001802774483617231 0 0 -0.000004183537073251049
          -0.000003913075170311143 -0.000008173466669812946 -0.000007795749192125226 0 0 0
          0 -8.63828790547743e-9 2.7726148839709074e-8 2.2887804601008356e-8 3.107648870755078e-9 -1.0414728862505197e-7
          6.894059820147318e-8 5.1265589857325055e-8 -9.969071462390332e-8 0 0 0
          0 -0.0000051310939257150455 -0.000004922265647298726 -0.000005528436668566499 -0.0000055227600702784495 -0.000010091773735308536
          -0.000009601905524970828 -0.000010875834038761535 -0.000010901113200547095 0 0 -0.000004589050993368812
          -0.000005638475567793325 -0.000009001225875941061 -0.000011358706866524332 0 0 0
          0 -7.47173787879617e-8 -8.751183773583673e-8 -5.350309246444074e-8 -3.471802097187823e-8 -1.6953594730625292e-7
          -1.8619243329187285e-7 -1.1579873465287924e-7 -7.84595871365605e-8 0 0 0
          0 -0.000006711469466800302 -0.000007908735447129567 -0.000007009160943676265 -0.000005914344093090274 -0.000013774912071323717
          -0.000015962480432539892 -0.00001372325337518063 -0.000011856999866519266 0 0 0
          0 8.265118817812696e-8 4.128420116055803e-8 5.5022368357081965e-8 8.439083604361435e-8 -5.091167188959721e-8
          3.071265567993846e-8 9.940903110981572e-8 1.5865220173920314e-7 0 0 -0.0000016393679505877698
          -0.0000016065252006601867 -0.000003329637063333627 -0.0000033567317051943124 0 -0.000004434649063870681 -0.000008747523348472092
          0 0 -3.63459018022851e-8 -6.084682465831088e-8 -1.4731839543580745e-7 5.368710188214349e-7
          0 0 0 -3.518807096067017e-8 -2.724164246599733e-7 -1.112443034526641e-7
          1.4409336666338387e-7 -8.742824435906417e-7 -3.618647104908227e-7 0 0 0
          0 -0.0000025091399081761076 -0.0000021857970435605015 -0.0000035390863039588037 -0.000003663412390958041 -0.000005202107875664136
          -0.000004979652724609406 -0.000007076189995687064 -0.000007287564782598328 0 0 0
          -0.000005713135954600973 -0.000005974543581974246 -0.00000608899890032923 -0.000011153337363430518 -0.000011869920944943049 -0.000012017953116323125
          0 0 -4.3952515479909836e-7 -0.0000011578616131436514 -0.0000010117864285594006 -0.0000024472358673701613
          0 0 -5.131284817388479e-8 -2.66326178828012e-7 -4.6470352595643096e-7 -9.964359804968862e-7
          0 0 -6.344358894793046e-7 -2.923664960451637e-7 -0.0000013332236391516827 -7.746064604058154e-7
          0 0 0 0 -0.000006884109085494447 -0.000006710870339076702
          -0.000007415301378659261 -0.0000077739588746206 -0.000013630672328674162 -0.000013307428894138452 -0.00001478148323461622 -0.000015493835469382135
          0 0 0 -0.000002240583024430565 -0.0000022741716516739616 -0.0000030315298322400245
          -0.0000045326873245000146 -0.0000046039382246105674 -0.000006095711251514863 0 0 -1.1532037318501238e-7
          -1.013648725664562e-7 -3.206538476534095e-7 -2.8365394745302615e-7 0 0 -0.000002217510361988546
          -0.0000016083206967262484 -0.000004448165628486878 -0.000003268204051020803 0 0 -0.0000011234598835083659
          -0.0000015073332472576083 -0.000002427676294797696 -0.0000033849130089621296 0 0 -5.996460891612658e-7
          -2.67305011557219e-7 -0.0000015533883135440438 -6.507350311034259e-7 0 0 0
          5.6616069587292155e-8 2.3491562910449406e-8 4.235605822358974e-8 7.562965883761738e-8 3.082289260019111e-8 5.8850040504411337e-8
          0 0 0 -2.6143653997509187e-7 -1.4488358881987906e-7 -2.796164543026749e-7
          -6.200210552781705e-7 -3.4076565674600597e-7 -6.450219183903092e-7 0 0 0
          -0.000006143759386637223 -0.000006411997254961585 -0.000006312496078945956 -0.00001211415516877442 -0.000012699537488858208 -0.000012539857178708183
          0 -0.000006473146068585642 -0.000012817292279279205 0 0 0
          0 2.2895179887377615e-8 8.245341641198756e-9 -3.0677142423353255e-9 1.4500504878815591e-8 3.1263514968961333e-8
          7.142991816131732e-9 -1.4047198993827887e-8 1.9006516004320663e-8 0 0 -0.000006056538656536134
          -0.000006464827531352826 -0.000011866057048077221 -0.00001289773486822486 0 0 1.638640232191815e-8
          3.180075296582372e-8 1.9557129855645088e-8 4.426408721539073e-8 0 0 -0.000007760613007992492
          -0.000006569535229752286 -0.0000157537184941221 -0.000013058775820852181 0 0 -0.000004716066611405608
          -0.000004893976172866453 -0.000009306989733257904 -0.000009856805702127315 0 -8.738904637280134e-9 -2.4462008084786585e-8
          0 -3.7087658379685926e-7 -8.09367685425747e-7 0 0 -0.0000022127539827740856
          -0.0000013362841229691626 -0.0000043870348250306364 -0.0000029442098505076904 0 -4.584678075241753e-7 -9.6818687271789e-7
          0 -1.118075918945368e-7 3.256897832008123e-7 0 7.566509268932792e-8 1.1176937942527925e-7
          0 -1.4265246893817896e-7 -3.8746824417757304e-7 0 -2.2896088791218893e-8 -5.410120532532639e-8
          0 -1.2432381437393888e-7 2.606449031119458e-7 0 -0.000003944694630703132 -0.000008036653184163357
          0 -0.000008931070229824893 -0.00001785329005823902 0 -0.000005168177155138541 -0.000010230154297067462
          0 7.032084097100813e-9 3.3714123283605904e-9 0 7.364005847897187e-8 1.3251855125914955e-8
          0 -7.223929934965731e-7 -0.0000014277678226868695 0 -6.918555564162648e-7 -0.0000013833911123645095
          0 -7.897348222444333e-7 -0.000001563192639162042 0 -7.218454489430823e-7 -0.0000014418017095820091
          0 -8.232798356150931e-7 -0.0000016337363958310483 0 -8.11115865221506e-7 -0.0000016157489773243858
          0 -7.402038326589236e-7 -0.0000014809821107131956 0 -5.876991732987744e-7 -0.000001197554169962651
          0 -2.8090631854148866e-7 -5.897201518466665e-7 0 0 -2.9136737871691245e-7
          -2.097769000002342e-7 -6.903312008577525e-7 -4.62971848257619e-7 0 0 0
          0 -1.219405673783395e-7 -7.82149455297733e-8 -6.832607381164226e-8 -1.219301750338142e-7 -2.5853992157609036e-7
          -1.5519713645391657e-7 -1.4790817031802316e-7 -2.6182635905404947e-7 0 -3.715274563978423e-8 -6.944663905518148e-8
          0 -1.5814123765313302e-7 -3.146226093302095e-7 0 -2.6042752781674238e-8 -5.5970209864136814e-8
          0 0 -6.543620996750466e-7 -6.618263761276353e-7 -0.000001304320837179024 -0.0000013193316080582885
          0 -7.207237054660362e-7 -0.0000014377268740660894 0 -6.161352639266836e-7 -0.0000012281477092437747
          0 -6.77994758268983e-7 -0.0000013504559502218033 0 -5.824132644347208e-7 -0.0000011570956225493446
          0 -4.242711130409129e-7 -8.487205210096607e-7 0 -2.152829155613558e-7 -4.331175522156252e-7
          0 -1.4026858053794317e-7 -2.914115762008195e-7 0 0 0
          -3.295193589878984e-8 -8.41771647203301e-8 -7.633809594278231e-8 -6.637618706395505e-8 -1.6811460055870783e-7 -1.5417993312476453e-7
        </DataArray>
      </PointData>
      <CellData>
        <DataArray type="Int32" Name="libmesh_elem_id" format="ascii" RangeMin="40" RangeMax="1373">
          40 41 42 43 44 45
          46 47 48 49 50 51
          52 53 54 55 56 57
          98 99 100 101 102 103
          104 105 106 107 108 109
          110 111 112 113 114 115
          156 157 158 159 160 161
          162 163 164 165 166 167
          168 169 170 171 172 173
          214 215 216 217 218 219
          220 221 222 223 224 225
          226 227 228 229 230 231
          272 273 274 275 276 277
          278 279 280 281 282 283
          284 285 286 287 288 289
          330 331 332 333 334 335
          336 337 338 339 340 341
          342 343 344 345 346 347
          388 389 390 391 392 393
          394 395 396 397 398 399
          400 401 402 403 404 405
          446 447 448 449 450 451
          452 453 454 455 456 457
          458 459 460 461 462 463
          508 509 510 511 512 513
          514 515 516 517 518 519
          520 521 522 523 524 525
          526 527 528 529 530 531
          532 533 534 535 536 537
          538 539 540 541 542 543
          544 545 546 547 548 549
          550 551 552 553 554 555
          556 557 558 559 560 561
          562 563 564 565 566 567
          568 569 570 571 572 573
          574 575 576 577 578 579
          580 581 582 583 584 585
          586 587 588 589 590 591
          592 593 594 595 596 597
          598 599 600 601 602 603
          604 605 606 607 608 609
          610 611 612 613 614 615
          616 617 618 619 620 621
          622 623 624 625 626 627
          628 629 630 631 632 633
          634 635 636 637 638 639
          640 641 642 643 644 645
          646 647 648 649 650 651
          652 653 654 655 656 657
          658 659 660 661 662 663
          664 665 666 667 668 669
          670 671 672 673 674 675
          676 677 678 679 680 681
          682 683 684 685 686 687
          688 689 690 691 692 693
          694 695 696 697 698 699
          700 701 702 703 704 705
          706 707 708 709 710 711
          712 713 714 715 716 717
          718 719 720 721 722 723
          724 725 726 727 728 729
          730 731 732 733 734 735
          736 737 738 739 740 741
          742 743 744 745 746 747
          748 749 750 751 752 753
          754 755 756 757 758 759
          760 761 762 763 764 765
          766 767 768 769 770 771
          1186 1187 1188 1189 1190 1191
          1204 1205 1206 1207 1208 1209
          1222 1223 1224 1225 1240 1241
          1242 1243 1258 1259 1260 1261
          1276 1277 1278 1279 1300 1301
          1304 1305 1306 1307 1314 1315
          1316 1317 1326 1327 1328 1329
          1330 1331 1338 1339 1344 1345
          1348 1349 1356 1357 1358 1359
          1360 1361 1366 1367 1372 1373
        </DataArray>
        <DataArray type="Int32" Name="subdomain_id" format="ascii" RangeMin="103" RangeMax="143">
          103 103 103 103 103 103
          103 103 103 103 103 103
          103 103 103 103 103 103
          103 103 103 103 103 103
          103 103 103 103 103 103
          103 103 103 103 103 103
          103 103 103 103 103 103
          103 103 103 103 103 103
          103 103 103 103 103 103
          103 103 103 103 103 103
          103 103 103 103 103 103
          103 103 103 103 103 103
          103 103 103 103 103 103
          103 103 103 103 103 103
          103 103 103 103 103 103
          103 103 103 103 103 103
          103 103 103 103 103 103
          103 103 103 103 103 103
          103 103 103 103 103 103
          103 103 103 103 103 103
          103 103 103 103 103 103
          103 103 103 103 103 103
          103 103 103 103 103 103
          103 103 103 103 103 103
          103 103 103 103 103 103
          103 103 103 103 103 103
          103 103 104 104 104 104
          104 104 104 104 104 104
          104 104 104 104 104 104
          104 104 104 104 104 104
          104 104 104 104 104 104
          104 104 104 104 104 104
          104 104 104 104 104 104
          104 104 104 104 104 104
          104 104 104 104 104 104
          104 104 104 104 104 104
          104 104 104 104 104 104
          104 104 104 104 104 104
          104 104 104 104 104 104
          104 104 104 104 104 104
          104 104 104 104 104 104
          104 104 104 104 104 104
          104 104 104 104 104 104
          104 104 104 104 104 104
          104 104 104 104 104 104
          104 104 104 104 104 104
          104 104 104 104 104 104
          104 104 104 104 104 104
          104 104 104 104 104 104
          104 104 104 104 104 104
          104 104 104 104 104 104
          104 104 104 104 104 104
          104 104 104 104 104 104
          104 104 104 104 104 104
          104 104 104 104 104 104
          104 104 104 104 104 104
          104 104 104 104 104 104
          104 104 104 104 104 104
          104 104 104 104 104 104
          141 141 141 141 141 141
          141 141 141 141 141 141
          141 141 141 141 141 141
          141 141 141 141 141 141
          141 141 141 141 141 141
          141 141 141 141 141 141
          141 141 141 141 141 141
          141 141 141 141 141 141
          141 141 141 141 141 141
          105 105 105 105 105 105
          105 105 105 105 105 105
          105 105 105 105 105 105
          105 105 105 105 105 105
          105 105 105 105 106 106
          106 106 106 106 106 106
          106 106 106 106 106 106
          106 106 106 106 106 106
          106 106 106 106 106 106
          143 143 143 143 143 143
        </DataArray>
        <DataArray type="Int32" Name="processor_id" format="ascii" RangeMin="5" RangeMax="5">
          5 5 5 5 5 5
          5 5 5 5 5 5
          5 5 5 5 5 5
          5 5 5 5 5 5
          5 5 5 5 5 5
          5 5 5 5 5 5
          5 5 5 5 5 5
          5 5 5 5 5 5
          5 5 5 5 5 5
          5 5 5 5 5 5
          5 5 5 5 5 5
          5 5 5 5 5 5
          5 5 5 5 5 5
          5 5 5 5 5 5
          5 5 5 5 5 5
          5 5 5 5 5 5
          5 5 5 5 5 5
          5 5 5 5 5 5
          5 5 5 5 5 5
          5 5 5 5 5 5
          5 5 5 5 5 5
          5 5 5 5 5 5
          5 5 5 5 5 5
          5 5 5 5 5 5
          5 5 5 5 5 5
          5 5 5 5 5 5
          5 5 5 5 5 5
          5 5 5 5 5 5
          5 5 5 5 5 5
          5 5 5 5 5 5
          5 5 5 5 5 5
          5 5 5 5 5 5
          5 5 5 5 5 5
          5 5 5 5 5 5
          5 5 5 5 5 5
          5 5 5 5 5 5
          5 5 5 5 5 5
          5 5 5 5 5 5
          5 5 5 5 5 5
          5 5 5 5 5 5
          5 5 5 5 5 5
          5 5 5 5 5 5
          5 5 5 5 5 5
          5 5 5 5 5 5
          5 5 5 5 5 5
          5 5 5 5 5 5
          5 5 5 5 5 5
          5 5 5 5 5 5
          5 5 5 5 5 5
          5 5 5 5 5 5
          5 5 5 5 5 5
          5 5 5 5 5 5
          5 5 5 5 5 5
          5 5 5 5 5 5
          5 5 5 5 5 5
          5 5 5 5 5 5
          5 5 5 5 5 5
          5 5 5 5 5 5
          5 5 5 5 5 5
          5 5 5 5 5 5
          5 5 5 5 5 5
          5 5 5 5 5 5
          5 5 5 5 5 5
          5 5 5 5 5 5
          5 5 5 5 5 5
          5 5 5 5 5 5
          5 5 5 5 5 5
          5 5 5 5 5 5
          5 5 5 5 5 5
          5 5 5 5 5 5
          5 5 5 5 5 5
          5 5 5 5 5 5
          5 5 5 5 5 5
          5 5 5 5 5 5
          5 5 5 5 5 5
          5 5 5 5 5 5
          5 5 5 5 5 5
          5 5 5 5 5 5
        </DataArray>
      </CellData>
      <Points>
        <DataArray type="Float64" Name="Points" NumberOfComponents="3" format="ascii" RangeMin="0.0082758620689774" RangeMax="0.013139935358843113">
          0.00011111111111123 0.0082758620689751 0 0 0.0082758620689774 0
          0.00011111111111123 0.0082758620689751 0.00015 0 0.0082758620689774 0.00015
          0.00011111111111123 0.0082758620689751 0.0003 0 0.0082758620689774 0.0003
          0.00011111111111125 0.0086896551724226 0 0 0.0086896551724246 0
          0.00011111111111125 0.0086896551724226 0.00015 0 0.0086896551724246 0.00015
          0.00011111111111125 0.0086896551724226 0.0003 0 0.0086896551724246 0.0003
          0.00011111111111126 0.0091034482758696 0 0 0.0091034482758716 0
          0.00011111111111126 0.0091034482758696 0.00015 0 0.0091034482758716 0.00015
          0.00011111111111126 0.0091034482758696 0.0003 0 0.0091034482758716 0.0003
          0.00011111111111128 0.0095172413793168 0 0 0.0095172413793185 0
          0.00011111111111128 0.0095172413793168 0.00015 0 0.0095172413793185 0.00015
          0.00011111111111128 0.0095172413793168 0.0003 0 0.0095172413793185 0.0003
          0.00011111111111129 0.0099310344827632 0 0 0.0099310344827645 0
          0.00011111111111129 0.0099310344827632 0.00015 0 0.0099310344827645 0.00015
          0.00011111111111129 0.0099310344827632 0.0003 0 0.0099310344827645 0.0003
          0.00011111111111131 0.01034482758621 0 0 0.01034482758621 0
          0.00011111111111131 0.01034482758621 0.00015 0 0.01034482758621 0.00015
          0.00011111111111131 0.01034482758621 0.0003 0 0.01034482758621 0.0003
          0.00011111111111132 0.010758620689657 0 0 0.010758620689657 0
          0.00011111111111132 0.010758620689657 0.00015 0 0.010758620689657 0.00015
          0.00011111111111132 0.010758620689657 0.0003 0 0.010758620689657 0.0003
          0.00011111111111134 0.011172413793104 0 0 0.011172413793104 0
          0.00011111111111134 0.011172413793104 0.00015 0 0.011172413793104 0.00015
          0.00011111111111134 0.011172413793104 0.0003 0 0.011172413793104 0.0003
          0.00011111111111135 0.011586206896551 0 0 0.011586206896551 0
          0.00011111111111135 0.011586206896551 0.00015 0 0.011586206896551 0.00015
          0.00011111111111135 0.011586206896551 0.0003 0 0.011586206896551 0.0003
          0.00011111111111137 0.012 0 0 0.012 0
          0.00011111111111137 0.012 0.00015 0 0.012 0.00015
          0.00011111111111137 0.012 0.0003 0 0.012 0.0003
          0.00022222222222243 0.0082758620689727 0 0.00022222222222243 0.0082758620689727 0.00015
          0.00022222222222243 0.0082758620689727 0.0003 0.00022222222222246 0.0086896551724206 0
          0.00022222222222246 0.0086896551724206 0.00015 0.00022222222222246 0.0086896551724206 0.0003
          0.00022222222222249 0.0091034482758676 0 0.00022222222222249 0.0091034482758676 0.00015
          0.00022222222222249 0.0091034482758676 0.0003 0.00022222222222253 0.0095172413793151 0
          0.00022222222222253 0.0095172413793151 0.00015 0.00022222222222253 0.0095172413793151 0.0003
          0.00022222222222256 0.0099310344827619 0 0.00022222222222256 0.0099310344827619 0.00015
          0.00022222222222256 0.0099310344827619 0.0003 0.0002222222222226 0.010344827586209 0
          0.0002222222222226 0.010344827586209 0.00015 0.0002222222222226 0.010344827586209 0.0003
          0.00022222222222263 0.010758620689656 0 0.00022222222222263 0.010758620689656 0.00015
          0.00022222222222263 0.010758620689656 0.0003 0.00022222222222266 0.011172413793103 0
          0.00022222222222266 0.011172413793103 0.00015 0.00022222222222266 0.011172413793103 0.0003
          0.0002222222222227 0.011586206896551 0 0.0002222222222227 0.011586206896551 0.00015
          0.0002222222222227 0.011586206896551 0.0003 0.00022222222222273 0.012 0
          0.00022222222222273 0.012 0.00015 0.00022222222222273 0.012 0.0003
          0.00033333333333363 0.0082758620689704 0 0.00033333333333363 0.0082758620689704 0.00015
          0.00033333333333363 0.0082758620689704 0.0003 0.00033333333333368 0.0086896551724185 0
          0.00033333333333368 0.0086896551724185 0.00015 0.00033333333333368 0.0086896551724185 0.0003
          0.00033333333333373 0.0091034482758657 0 0.00033333333333373 0.0091034482758657 0.00015
          0.00033333333333373 0.0091034482758657 0.0003 0.00033333333333379 0.0095172413793133 0
          0.00033333333333379 0.0095172413793133 0.00015 0.00033333333333379 0.0095172413793133 0.0003
          0.00033333333333384 0.0099310344827607 0 0.00033333333333384 0.0099310344827607 0.00015
          0.00033333333333384 0.0099310344827607 0.0003 0.00033333333333389 0.010344827586208 0
          0.00033333333333389 0.010344827586208 0.00015 0.00033333333333389 0.010344827586208 0.0003
          0.00033333333333394 0.010758620689656 0 0.00033333333333394 0.010758620689656 0.00015
          0.00033333333333394 0.010758620689656 0.0003 0.000333333333334 0.011172413793103 0
          0.000333333333334 0.011172413793103 0.00015 0.000333333333334 0.011172413793103 0.0003
          0.00033333333333405 0.011586206896551 0 0.00033333333333405 0.011586206896551 0.00015
          0.00033333333333405 0.011586206896551 0.0003 0.0003333333333341 0.012 0
          0.0003333333333341 0.012 0.00015 0.0003333333333341 0.012 0.0003
          0.00044444444444486 0.0082758620689681 0 0.00044444444444486 0.0082758620689681 0.00015
          0.00044444444444486 0.0082758620689681 0.0003 0.00044444444444493 0.0086896551724165 0
          0.00044444444444493 0.0086896551724165 0.00015 0.00044444444444493 0.0086896551724165 0.0003
          0.00044444444444501 0.0091034482758637 0 0.00044444444444501 0.0091034482758637 0.00015
          0.00044444444444501 0.0091034482758637 0.0003 0.00044444444444508 0.0095172413793116 0
          0.00044444444444508 0.0095172413793116 0.00015 0.00044444444444508 0.0095172413793116 0.0003
          0.00044444444444516 0.0099310344827594 0 0.00044444444444516 0.0099310344827594 0.00015
          0.00044444444444516 0.0099310344827594 0.0003 0.00044444444444523 0.010344827586207 0
          0.00044444444444523 0.010344827586207 0.00015 0.00044444444444523 0.010344827586207 0.0003
          0.00044444444444531 0.010758620689655 0 0.00044444444444531 0.010758620689655 0.00015
          0.00044444444444531 0.010758620689655 0.0003 0.00044444444444538 0.011172413793103 0
          0.00044444444444538 0.011172413793103 0.00015 0.00044444444444538 0.011172413793103 0.0003
          0.00044444444444546 0.011586206896551 0 0.00044444444444546 0.011586206896551 0.00015
          0.00044444444444546 0.011586206896551 0.0003 0.00044444444444553 0.012 0
          0.00044444444444553 0.012 0.00015 0.00044444444444553 0.012 0.0003
          0.00055555555555597 0.0082758620689657 0 0.00055555555555597 0.0082758620689657 0.00015
          0.00055555555555597 0.0082758620689657 0.0003 0.00055555555555605 0.0086896551724145 0
          0.00055555555555605 0.0086896551724145 0.00015 0.00055555555555605 0.0086896551724145 0.0003
          0.00055555555555613 0.0091034482758618 0 0.00055555555555613 0.0091034482758618 0.00015
          0.00055555555555613 0.0091034482758618 0.0003 0.00055555555555621 0.0095172413793099 0
          0.00055555555555621 0.0095172413793099 0.00015 0.00055555555555621 0.0095172413793099 0.0003
          0.00055555555555629 0.0099310344827581 0 0.00055555555555629 0.0099310344827581 0.00015
          0.00055555555555629 0.0099310344827581 0.0003 0.00055555555555636 0.010344827586206 0
          0.00055555555555636 0.010344827586206 0.00015 0.00055555555555636 0.010344827586206 0.0003
          0.00055555555555644 0.010758620689655 0 0.00055555555555644 0.010758620689655 0.00015
          0.00055555555555644 0.010758620689655 0.0003 0.00055555555555652 0.011172413793102 0
          0.00055555555555652 0.011172413793102 0.00015 0.00055555555555652 0.011172413793102 0.0003
          0.0005555555555566 0.011586206896551 0 0.0005555555555566 0.011586206896551 0.00015
          0.0005555555555566 0.011586206896551 0.0003 0.00055555555555667 0.012 0
          0.00055555555555667 0.012 0.00015 0.00055555555555667 0.012 0.0003
          0.00066666666666675 0.0082758620689634 0 0.00066666666666675 0.0082758620689634 0.00015
          0.00066666666666675 0.0082758620689634 0.0003 0.00066666666666679 0.0086896551724125 0
          0.00066666666666679 0.0086896551724125 0.00015 0.00066666666666679 0.0086896551724125 0.0003
          0.00066666666666684 0.0091034482758598 0 0.00066666666666684 0.0091034482758598 0.00015
          0.00066666666666684 0.0091034482758598 0.0003 0.00066666666666688 0.0095172413793081 0
          0.00066666666666688 0.0095172413793081 0.00015 0.00066666666666688 0.0095172413793081 0.0003
          0.00066666666666693 0.0099310344827568 0 0.00066666666666693 0.0099310344827568 0.00015
          0.00066666666666693 0.0099310344827568 0.0003 0.00066666666666697 0.010344827586205 0
          0.00066666666666697 0.010344827586205 0.00015 0.00066666666666697 0.010344827586205 0.0003
          0.00066666666666701 0.010758620689654 0 0.00066666666666701 0.010758620689654 0.00015
          0.00066666666666701 0.010758620689654 0.0003 0.00066666666666706 0.011172413793102 0
          0.00066666666666706 0.011172413793102 0.00015 0.00066666666666706 0.011172413793102 0.0003
          0.0006666666666671 0.01158620689655 0 0.0006666666666671 0.01158620689655 0.00015
          0.0006666666666671 0.01158620689655 0.0003 0.00066666666666715 0.012 0
          0.00066666666666715 0.012 0.00015 0.00066666666666715 0.012 0.0003
          0.00077777777777787 0.0082758620689611 0 0.00077777777777787 0.0082758620689611 0.00015
          0.00077777777777787 0.0082758620689611 0.0003 0.00077777777777791 0.0086896551724104 0
          0.00077777777777791 0.0086896551724104 0.00015 0.00077777777777791 0.0086896551724104 0.0003
          0.00077777777777794 0.0091034482758578 0 0.00077777777777794 0.0091034482758578 0.00015
          0.00077777777777794 0.0091034482758578 0.0003 0.00077777777777797 0.0095172413793064 0
          0.00077777777777797 0.0095172413793064 0.00015 0.00077777777777797 0.0095172413793064 0.0003
          0.000777777777778 0.0099310344827555 0 0.000777777777778 0.0099310344827555 0.00015
          0.000777777777778 0.0099310344827555 0.0003 0.00077777777777803 0.010344827586205 0
          0.00077777777777803 0.010344827586205 0.00015 0.00077777777777803 0.010344827586205 0.0003
          0.00077777777777806 0.010758620689654 0 0.00077777777777806 0.010758620689654 0.00015
          0.00077777777777806 0.010758620689654 0.0003 0.00077777777777809 0.011172413793101 0
          0.00077777777777809 0.011172413793101 0.00015 0.00077777777777809 0.011172413793101 0.0003
          0.00077777777777813 0.01158620689655 0 0.00077777777777813 0.01158620689655 0.00015
          0.00077777777777813 0.01158620689655 0.0003 0.00077777777777816 0.012 0
          0.00077777777777816 0.012 0.00015 0.00077777777777816 0.012 0.0003
          0.0008888888888888 0.0082758620689588 0 0.0008888888888888 0.0082758620689588 0.00015
          0.0008888888888888 0.0082758620689588 0.0003 0.00088888888888881 0.0086896551724084 0
          0.00088888888888881 0.0086896551724084 0.00015 0.00088888888888881 0.0086896551724084 0.0003
          0.00088888888888882 0.0091034482758559 0 0.00088888888888882 0.0091034482758559 0.00015
          0.00088888888888882 0.0091034482758559 0.0003 0.00088888888888883 0.0095172413793047 0
          0.00088888888888883 0.0095172413793047 0.00015 0.00088888888888883 0.0095172413793047 0.0003
          0.00088888888888884 0.0099310344827542 0 0.00088888888888884 0.0099310344827542 0.00015
          0.00088888888888884 0.0099310344827542 0.0003 0.00088888888888885 0.010344827586204 0
          0.00088888888888885 0.010344827586204 0.00015 0.00088888888888885 0.010344827586204 0.0003
          0.00088888888888885 0.010758620689653 0 0.00088888888888885 0.010758620689653 0.00015
          0.00088888888888885 0.010758620689653 0.0003 0.00088888888888886 0.011172413793101 0
          0.00088888888888886 0.011172413793101 0.00015 0.00088888888888886 0.011172413793101 0.0003
          0.00088888888888887 0.01158620689655 0 0.00088888888888887 0.01158620689655 0.00015
          0.00088888888888887 0.01158620689655 0.0003 0.00088888888888888 0.012 0
          0.00088888888888888 0.012 0.00015 0.00088888888888888 0.012 0.0003
          0.001 0.0091034482758539 0 0.001 0.0091034482758539 0.00015
          0.001 0.0091034482758539 0.0003 0.001 0.0095172413793029 0
          0.001 0.0095172413793029 0.00015 0.001 0.0095172413793029 0.0003
          0.001 0.0099310344827529 0 0.001 0.0099310344827529 0.00015
          0.001 0.0099310344827529 0.0003 0.001 0.010344827586203 0
          0.001 0.010344827586203 0.00015 0.001 0.010344827586203 0.0003
          0.001 0.010758620689653 0 0.001 0.010758620689653 0.00015
          0.001 0.010758620689653 0.0003 0.001 0.0111724137931 0
          0.001 0.0111724137931 0.00015 0.001 0.0111724137931 0.0003
          0.001 0.01158620689655 0 0.001 0.01158620689655 0.00015
          0.001 0.01158620689655 0.0003 0.001 0.012 0
          0.001 0.012 0.00015 0.001 0.012 0.0003
          0.00067947077571632 0.012798245728111 0 0.00068678568032061 0.012710429785181 0
          0.00076344362314339 0.012698069087358 0 0.00078000626700894 0.012788238676479 0
          0.00067947077571632 0.012798245728111 0.00015 0.00068678568032061 0.012710429785181 0.00015
          0.00076344362314339 0.012698069087358 0.00015 0.00078000626700894 0.012788238676479 0.00015
          0.00067947077571632 0.012798245728111 0.0003 0.00068678568032061 0.012710429785181 0.0003
          0.00076344362314339 0.012698069087358 0.0003 0.00078000626700894 0.012788238676479 0.0003
          0.0007101811699723 0.012881232243155 0 0.00078737528777453 0.012884598822829 0
          0.0007101811699723 0.012881232243155 0.00015 0.00078737528777453 0.012884598822829 0.00015
          0.0007101811699723 0.012881232243155 0.0003 0.00078737528777453 0.012884598822829 0.0003
          0.00063149088332091 0.012876508075697 0 0.00071156048039536 0.012943694476106 0
          0.00064992343237843 0.012944046337553 0 0.00063149088332091 0.012876508075697 0.00015
          0.00071156048039536 0.012943694476106 0.00015 0.00064992343237843 0.012944046337553 0.00015
          0.00063149088332091 0.012876508075697 0.0003 0.00071156048039536 0.012943694476106 0.0003
          0.00064992343237843 0.012944046337553 0.0003 0.00014271480927744 0.012184528409521 0
          0.00021074182908597 0.012239195039162 0 0.00014617236906556 0.012274772666576 0
          0.00010836971036758 0.0122326927564 0 0.00014271480927744 0.012184528409521 0.00015
          0.00021074182908597 0.012239195039162 0.00015 0.00014617236906556 0.012274772666576 0.00015
          0.00010836971036758 0.0122326927564 0.00015 0.00014271480927744 0.012184528409521 0.0003
          0.00021074182908597 0.012239195039162 0.0003 0.00014617236906556 0.012274772666576 0.0003
          0.00010836971036758 0.0122326927564 0.0003 0.00040316247653445 0.012523054457121 0
          0.00050524235438491 0.012516470580574 0 0.00047556583290331 0.012611926172403 0
          0.00040677839563254 0.01259579728731 0 0.00040316247653445 0.012523054457121 0.00015
          0.00050524235438491 0.012516470580574 0.00015 0.00047556583290331 0.012611926172403 0.00015
          0.00040677839563254 0.01259579728731 0.00015 0.00040316247653445 0.012523054457121 0.0003
          0.00050524235438491 0.012516470580574 0.0003 0.00047556583290331 0.012611926172403 0.0003
          0.00040677839563254 0.01259579728731 0.0003 0.00038389728538556 0.012111104172094 0
          0.00037958632650406 0.012195366170904 0 0.00029855370140418 0.012181148574691 0
          0.00029802321336891 0.012105931916082 0 0.00038389728538556 0.012111104172094 0.00015
          0.00037958632650406 0.012195366170904 0.00015 0.00029855370140418 0.012181148574691 0.00015
          0.00029802321336891 0.012105931916082 0.00015 0.00038389728538556 0.012111104172094 0.0003
          0.00037958632650406 0.012195366170904 0.0003 0.00029855370140418 0.012181148574691 0.0003
          0.00029802321336891 0.012105931916082 0.0003 0.00062435778703091 0.012280526392523 0
          0.00063694887874418 0.012191685157308 0 0.00075163746499696 0.012211869018538 0
          0.0007101306235237 0.012330652999586 0 0.00062435778703091 0.012280526392523 0.00015
          0.00063694887874418 0.012191685157308 0.00015 0.00075163746499696 0.012211869018538 0.00015
          0.0007101306235237 0.012330652999586 0.00015 0.00062435778703091 0.012280526392523 0.0003
          0.00063694887874418 0.012191685157308 0.0003 0.00075163746499696 0.012211869018538 0.0003
          0.0007101306235237 0.012330652999586 0.0003 0.00090036231429234 0.012108977226849 0
          0.00080269198720626 0.012096984730608 0 0.00090036231429234 0.012108977226849 0.00015
          0.00080269198720626 0.012096984730608 0.00015 0.00090036231429234 0.012108977226849 0.0003
          0.00080269198720626 0.012096984730608 0.0003 0.00023865656240352 0.012177237347116 0
          0.00029061852669854 0.01224857812735 0 0.00023865656240352 0.012177237347116 0.00015
          0.00029061852669854 0.01224857812735 0.00015 0.00023865656240352 0.012177237347116 0.0003
          0.00029061852669854 0.01224857812735 0.0003 0.00056164385173704 0.012835416164401 0
          0.00056508360468666 0.012898794448667 0 0.00049240387645224 0.012913175910861 0
          0.00046984631090009 0.012828989929731 0 0.00056164385173704 0.012835416164401 0.00015
          0.00056508360468666 0.012898794448667 0.00015 0.00049240387645224 0.012913175910861 0.00015
          0.00046984631090009 0.012828989929731 0.00015 0.00056164385173704 0.012835416164401 0.0003
          0.00056508360468666 0.012898794448667 0.0003 0.00049240387645224 0.012913175910861 0.0003
          0.00046984631090009 0.012828989929731 0.0003 0.000050495613361417 0.012066083920595 0
          0.00011131843390441 0.012086989142678 0 0.000069577205110887 0.012153607960951 0
          0 0.012111111111109 0 0.000050495613361417 0.012066083920595 0.00015
          0.00011131843390441 0.012086989142678 0.00015 0.000069577205110887 0.012153607960951 0.00015
          0 0.012111111111109 0.00015 0.000050495613361417 0.012066083920595 0.0003
          0.00011131843390441 0.012086989142678 0.0003 0.000069577205110887 0.012153607960951 0.0003
          0 0.012111111111109 0.0003 0.00022470825547396 0.012306913365418 0
          0.00017103954025546 0.012340304715306 0 0.00022470825547396 0.012306913365418 0.00015
          0.00017103954025546 0.012340304715306 0.00015 0.00022470825547396 0.012306913365418 0.0003
          0.00017103954025546 0.012340304715306 0.0003 0.00085640575367095 0.012657655614724 0
          0.001 0.012571428571438 0 0.001 0.012714285714292 0
          0.00089085524488654 0.012778191533234 0 0.00085640575367095 0.012657655614724 0.00015
          0.001 0.012571428571438 0.00015 0.001 0.012714285714292 0.00015
          0.00089085524488654 0.012778191533234 0.00015 0.00085640575367095 0.012657655614724 0.0003
          0.001 0.012571428571438 0.0003 0.001 0.012714285714292 0.0003
          0.00089085524488654 0.012778191533234 0.0003 0.00017101007138246 0.012530153689505 0
          0.000086824088695593 0.01250759612347 0 0.00010015626416536 0.012463076177022 0
          0.00018026894988108 0.012457509098897 0 0.00017101007138246 0.012530153689505 0.00015
          0.000086824088695593 0.01250759612347 0.00015 0.00010015626416536 0.012463076177022 0.00015
          0.00018026894988108 0.012457509098897 0.00015 0.00017101007138246 0.012530153689505 0.0003
          0.000086824088695593 0.01250759612347 0.0003 0.00010015626416536 0.012463076177022 0.0003
          0.00018026894988108 0.012457509098897 0.0003 0.00055555555555552 0.013 0
          0.00054972466987376 0.012958523613261 0 0.00059017772624368 0.012950117696029 0
          0.00061111111111072 0.013 0 0.00055555555555552 0.013 0.00015
          0.00054972466987376 0.012958523613261 0.00015 0.00059017772624368 0.012950117696029 0.00015
          0.00061111111111072 0.013 0.00015 0.00055555555555552 0.013 0.0003
          0.00054972466987376 0.012958523613261 0.0003 0.00059017772624368 0.012950117696029 0.0003
          0.00061111111111072 0.013 0.0003 0.00056012017374448 0.012193168747791 0
          0.00054338833040714 0.012250054231166 0 0.00056012017374448 0.012193168747791 0.00015
          0.00054338833040714 0.012250054231166 0.00015 0.00056012017374448 0.012193168747791 0.0003
          0.00054338833040714 0.012250054231166 0.0003 0.00020164702899907 0.012111009853496 0
          0.00020164702899907 0.012111009853496 0.00015 0.00020164702899907 0.012111009853496 0.0003
          0.00058698867508036 0.01276393301723 0 0.00061242021253103 0.012689969395149 0
          0.00058698867508036 0.01276393301723 0.00015 0.00061242021253103 0.012689969395149 0.00015
          0.00058698867508036 0.01276393301723 0.0003 0.00061242021253103 0.012689969395149 0.0003
          0.00054704952286259 0.01264760123259 0 0.00058547756026548 0.012574831423214 0
          0.00066845126455385 0.012625352450745 0 0.00054704952286259 0.01264760123259 0.00015
          0.00058547756026548 0.012574831423214 0.00015 0.00066845126455385 0.012625352450745 0.00015
          0.00054704952286259 0.01264760123259 0.0003 0.00058547756026548 0.012574831423214 0.0003
          0.00066845126455385 0.012625352450745 0.0003 0.00040316497174951 0.012375710115571 0
          0.00038996592658543 0.012448925709731 0 0.00030251984068288 0.012451026681152 0
          0.00030273327950676 0.012339921797294 0 0.00040316497174951 0.012375710115571 0.00015
          0.00038996592658543 0.012448925709731 0.00015 0.00030251984068288 0.012451026681152 0.00015
          0.00030273327950676 0.012339921797294 0.00015 0.00040316497174951 0.012375710115571 0.0003
          0.00038996592658543 0.012448925709731 0.0003 0.00030251984068288 0.012451026681152 0.0003
          0.00030273327950676 0.012339921797294 0.0003 0 0.012166666666663 0
          0.000060257043043922 0.012213388328671 0 0 0.012222222222217 0
          0 0.012166666666663 0.00015 0.000060257043043922 0.012213388328671 0.00015
          0 0.012222222222217 0.00015 0 0.012166666666663 0.0003
          0.000060257043043922 0.012213388328671 0.0003 0 0.012222222222217 0.0003
          0.00086766031505541 0.012218873949421 0 0.00070802748250363 0.01210226547145 0
          0.00086766031505541 0.012218873949421 0.00015 0.00070802748250363 0.01210226547145 0.00015
          0.00086766031505541 0.012218873949421 0.0003 0.00070802748250363 0.01210226547145 0.0003
          0.00045681564832724 0.012667985356076 0 0.00038302222240927 0.012678606196169 0
          0.00045681564832724 0.012667985356076 0.00015 0.00038302222240927 0.012678606196169 0.00015
          0.00045681564832724 0.012667985356076 0.0003 0.00038302222240927 0.012678606196169 0.0003
          0.00057343997443155 0.012462111372123 0 0.00067467937701806 0.012497336760124 0
          0.00057343997443155 0.012462111372123 0.00015 0.00067467937701806 0.012497336760124 0.00015
          0.00057343997443155 0.012462111372123 0.0003 0.00067467937701806 0.012497336760124 0.0003
          0 0.012388888888886 0 0.00004805763346656 0.012364070531781 0
          0.000052775834931525 0.012418323433379 0 0 0.012444444444443 0
          0 0.012388888888886 0.00015 0.00004805763346656 0.012364070531781 0.00015
          0.000052775834931525 0.012418323433379 0.00015 0 0.012444444444443 0.00015
          0 0.012388888888886 0.0003 0.00004805763346656 0.012364070531781 0.0003
          0.000052775834931525 0.012418323433379 0.0003 0 0.012444444444443 0.0003
          0.0004655657017567 0.012222981448331 0 0.0004403524252846 0.012306679111378 0
          0.00036518397892919 0.012268658791136 0 0.0004655657017567 0.012222981448331 0.00015
          0.0004403524252846 0.012306679111378 0.00015 0.00036518397892919 0.012268658791136 0.00015
          0.0004655657017567 0.012222981448331 0.0003 0.0004403524252846 0.012306679111378 0.0003
          0.00036518397892919 0.012268658791136 0.0003 0.00079059026611164 0.012574208252283 0
          0.00074033738884001 0.012629472897336 0 0.00079059026611164 0.012574208252283 0.00015
          0.00074033738884001 0.012629472897336 0.00015 0.00079059026611164 0.012574208252283 0.0003
          0.00074033738884001 0.012629472897336 0.0003 0.00049134001885305 0.012124425854677 0
          0.00060162315338905 0.012101782274206 0 0.00049134001885305 0.012124425854677 0.00015
          0.00060162315338905 0.012101782274206 0.00015 0.00049134001885305 0.012124425854677 0.0003
          0.00060162315338905 0.012101782274206 0.0003 0.00055165526617401 0.012365152711649 0
          0.00046621557592763 0.012427373679685 0 0.00055165526617401 0.012365152711649 0.00015
          0.00046621557592763 0.012427373679685 0.00015 0.00055165526617401 0.012365152711649 0.0003
          0.00046621557592763 0.012427373679685 0.0003 0.00065175768920993 0.012395993188634 0
          0.00078658012555766 0.01242031863996 0 0.00065175768920993 0.012395993188634 0.00015
          0.00078658012555766 0.01242031863996 0.00015 0.00065175768920993 0.012395993188634 0.0003
          0.00078658012555766 0.01242031863996 0.0003 0.00072222222222142 0.013 0
          0.00076767785213736 0.012949407633443 0 0.00077777777777722 0.013 0
          0.00072222222222142 0.013 0.00015 0.00076767785213736 0.012949407633443 0.00015
          0.00077777777777722 0.013 0.00015 0.00072222222222142 0.013 0.0003
          0.00076767785213736 0.012949407633443 0.0003 0.00077777777777722 0.013 0.0003
          0.001 0.01228571428572 0 0.001 0.012428571428581 0
          0.00085243404696798 0.012340254950119 0 0.001 0.01228571428572 0.00015
          0.001 0.012428571428581 0.00015 0.00085243404696798 0.012340254950119 0.00015
          0.001 0.01228571428572 0.0003 0.001 0.012428571428581 0.0003
          0.00085243404696798 0.012340254950119 0.0003 0.000047305708530005 0.012255757186949 0
          0.000035989657241992 0.012305788523607 0 0 0.012277777777773 0
          0.000047305708530005 0.012255757186949 0.00015 0.000035989657241992 0.012305788523607 0.00015
          0 0.012277777777773 0.00015 0.000047305708530005 0.012255757186949 0.0003
          0.000035989657241992 0.012305788523607 0.0003 0 0.012277777777773 0.0003
          0 0.01233333333333 0 0 0.01233333333333 0.00015
          0 0.01233333333333 0.0003 0.00088888888888861 0.013 0
          0.00086852226729803 0.012945143609779 0 0.00092105077811413 0.012923509600428 0
          0.0009444444444442 0.013 0 0.00088888888888861 0.013 0.00015
          0.00086852226729803 0.012945143609779 0.00015 0.00092105077811413 0.012923509600428 0.00015
          0.0009444444444442 0.013 0.00015 0.00088888888888861 0.013 0.0003
          0.00086852226729803 0.012945143609779 0.0003 0.00092105077811413 0.012923509600428 0.0003
          0.0009444444444442 0.013 0.0003 0.000088322519872331 0.012287262323421 0
          0.000098057359918883 0.01234321954228 0 0.000088322519872331 0.012287262323421 0.00015
          0.000098057359918883 0.01234321954228 0.00015 0.000088322519872331 0.012287262323421 0.0003
          0.000098057359918883 0.01234321954228 0.0003 0.00082037799021753 0.012949927278989 0
          0.00083333333333302 0.013 0 0.00082037799021753 0.012949927278989 0.00015
          0.00083333333333302 0.013 0.00015 0.00082037799021753 0.012949927278989 0.0003
          0.00083333333333302 0.013 0.0003 0.000055423585756317 0.01245648439217 0
          0.00011750487062481 0.01240389197138 0 0.000055423585756317 0.01245648439217 0.00015
          0.00011750487062481 0.01240389197138 0.00015 0.000055423585756317 0.01245648439217 0.0003
          0.00011750487062481 0.01240389197138 0.0003 0.00022703795328819 0.012397087263253 0
          0.00024412512388832 0.012487409031957 0 0.00022703795328819 0.012397087263253 0.00015
          0.00024412512388832 0.012487409031957 0.00015 0.00022703795328819 0.012397087263253 0.0003
          0.00024412512388832 0.012487409031957 0.0003 0.00086622784349606 0.012879340816766 0
          0.00086622784349606 0.012879340816766 0.00015 0.00086622784349606 0.012879340816766 0.0003
          0.001 0.01214285714286 0 0.001 0.01214285714286 0.00015
          0.001 0.01214285714286 0.0003 0.00032807036377433 0.012530514194312 0
          0.00032139380548758 0.012616977778981 0 0.00032807036377433 0.012530514194312 0.00015
          0.00032139380548758 0.012616977778981 0.00015 0.00032807036377433 0.012530514194312 0.0003
          0.00032139380548758 0.012616977778981 0.0003 0.00078653837511981 0.012300730611142 0
          0.00078653837511981 0.012300730611142 0.00015 0.00078653837511981 0.012300730611142 0.0003
          0.00050187285486533 0.012723776617989 0 0.00050187285486533 0.012723776617989 0.00015
          0.00050187285486533 0.012723776617989 0.0003 0.00066666666666612 0.013 0
          0.00066666666666612 0.013 0.00015 0.00066666666666612 0.013 0.0003
          0.00086640285866826 0.012499721374928 0 0.00086640285866826 0.012499721374928 0.00015
          0.00086640285866826 0.012499721374928 0.0003 0.001 0.012857142857146 0
          0.001 0.012857142857146 0.00015 0.001 0.012857142857146 0.0003
          0.00043301270230906 0.012750000000722 0 0.00043301270230906 0.012750000000722 0.00015
          0.00043301270230906 0.012750000000722 0.0003 0.00025000000019401 0.01256698729822 0
          0.00025000000019401 0.01256698729822 0.00015 0.00025000000019401 0.01256698729822 0.0003
          0 0.0125 0 0 0.0125 0.00015
          0 0.0125 0.0003 0 0.012055555555554 0
          0 0.012055555555554 0.00015 0 0.012055555555554 0.0003
          0.001 0.013 0 0.001 0.013 0.00015
          0.001 0.013 0.0003 0.0005 0.013 0
          0.0005 0.013 0.00015 0.0005 0.013 0.0003
          0.0014444444444451 0.0095172413793029 0 0.0014444444444451 0.0095172413793029 0.00015
          0.0014444444444451 0.0095172413793029 0.0003 0.0018888888888902 0.0095172413793029 0
          0.0018888888888902 0.0095172413793029 0.00015 0.0018888888888902 0.0095172413793029 0.0003
          0.0014444444444452 0.0099310344827529 0 0.0014444444444452 0.0099310344827529 0.00015
          0.0014444444444452 0.0099310344827529 0.0003 0.0018888888888903 0.0099310344827529 0
          0.0018888888888903 0.0099310344827529 0.00015 0.0018888888888903 0.0099310344827529 0.0003
          0.0014444444444452 0.010344827586203 0 0.0014444444444452 0.010344827586203 0.00015
          0.0014444444444452 0.010344827586203 0.0003 0.0014444444444453 0.010758620689653 0
          0.0014444444444453 0.010758620689653 0.00015 0.0014444444444453 0.010758620689653 0.0003
          0.0014444444444453 0.0111724137931 0 0.0014444444444453 0.0111724137931 0.00015
          0.0014444444444453 0.0111724137931 0.0003 0.0014444444444454 0.01158620689655 0
          0.0014444444444454 0.01158620689655 0.00015 0.0014444444444454 0.01158620689655 0.0003
          0.0014444444444455 0.012 0 0.0014444444444455 0.012 0.00015
          0.0014444444444455 0.012 0.0003 0.0011659770658264 0.012184916069452 0
          0.0011978981211319 0.012291694091132 0 0.0011659770658264 0.012184916069452 0.00015
          0.0011978981211319 0.012291694091132 0.00015 0.0011659770658264 0.012184916069452 0.0003
          0.0011978981211319 0.012291694091132 0.0003 0.0014134281085546 0.012468353283698 0
          0.001412897365997 0.01265802692797 0 0.0011710921098332 0.012660749606473 0
          0.0011928404820732 0.012464476127519 0 0.0014134281085546 0.012468353283698 0.00015
          0.001412897365997 0.01265802692797 0.00015 0.0011710921098332 0.012660749606473 0.00015
          0.0011928404820732 0.012464476127519 0.00015 0.0014134281085546 0.012468353283698 0.0003
          0.001412897365997 0.01265802692797 0.0003 0.0011710921098332 0.012660749606473 0.0003
          0.0011928404820732 0.012464476127519 0.0003 0.0011801499871676 0.012824831216028 0
          0.0011801499871676 0.012824831216028 0.00015 0.0011801499871676 0.012824831216028 0.0003
          0.0014335559245349 0.012265987585326 0 0.0014335559245349 0.012265987585326 0.00015
          0.0014335559245349 0.012265987585326 0.0003 0.0014444444444455 0.013 0
          0.0014444444444455 0.013 0.00015 0.0014444444444455 0.013 0.0003
          0.0023333333333355 0.0099310344827529 0 0.0023333333333353 0.0095172413793029 0
          0.0023333333333355 0.0099310344827529 0.00015 0.0023333333333353 0.0095172413793029 0.00015
          0.0023333333333355 0.0099310344827529 0.0003 0.0023333333333353 0.0095172413793029 0.0003
          0.0018888888888904 0.010344827586203 0 0.0018888888888904 0.010344827586203 0.00015
          0.0018888888888904 0.010344827586203 0.0003 0.0023333333333357 0.010344827586203 0
          0.0023333333333357 0.010344827586203 0.00015 0.0023333333333357 0.010344827586203 0.0003
          0.0018888888888905 0.010758620689653 0 0.0018888888888905 0.010758620689653 0.00015
          0.0018888888888905 0.010758620689653 0.0003 0.0018888888888907 0.0111724137931 0
          0.0018888888888907 0.0111724137931 0.00015 0.0018888888888907 0.0111724137931 0.0003
          0.0018888888888908 0.01158620689655 0 0.0018888888888908 0.01158620689655 0.00015
          0.0018888888888908 0.01158620689655 0.0003 0.0018888888888909 0.012 0
          0.0018888888888909 0.012 0.00015 0.0018888888888909 0.012 0.0003
          0.0017386847932316 0.012348636106575 0 0.0017386847932316 0.012348636106575 0.00015
          0.0017386847932316 0.012348636106575 0.0003 0.0018888888888909 0.013 0
          0.001702980389272 0.012655949584096 0 0.0020604062010233 0.012679406151259 0
          0.0018888888888909 0.013 0.00015 0.001702980389272 0.012655949584096 0.00015
          0.0020604062010233 0.012679406151259 0.00015 0.0018888888888909 0.013 0.0003
          0.001702980389272 0.012655949584096 0.0003 0.0020604062010233 0.012679406151259 0.0003
          <InformationKey name="L2_NORM_RANGE" location="vtkDataArray" length="2">
            <Value index="0">
              0.008275862069
            </Value>
            <Value index="1">
              0.013139935359
            </Value>
          </InformationKey>
        </DataArray>
      </Points>
      <Cells>
        <DataArray type="Int64" Name="connectivity" format="ascii" RangeMin="0" RangeMax="755">
          1 0 6 7 3 2
          8 9 3 2 8 9
          5 4 10 11 7 6
          12 13 9 8 14 15
          9 8 14 15 11 10
          16 17 13 12 18 19
          15 14 20 21 15 14
          20 21 17 16 22 23
          19 18 24 25 21 20
          26 27 21 20 26 27
          23 22 28 29 25 24
          30 31 27 26 32 33
          27 26 32 33 29 28
          34 35 31 30 36 37
          33 32 38 39 33 32
          38 39 35 34 40 41
          37 36 42 43 39 38
          44 45 39 38 44 45
          41 40 46 47 43 42
          48 49 45 44 50 51
          45 44 50 51 47 46
          52 53 49 48 54 55
          51 50 56 57 51 50
          56 57 53 52 58 59
          0 60 63 6 2 61
          64 8 2 61 64 8
          4 62 65 10 6 63
          66 12 8 64 67 14
          8 64 67 14 10 65
          68 16 12 66 69 18
          14 67 70 20 14 67
          70 20 16 68 71 22
          18 69 72 24 20 70
          73 26 20 70 73 26
          22 71 74 28 24 72
          75 30 26 73 76 32
          26 73 76 32 28 74
          77 34 30 75 78 36
          32 76 79 38 32 76
          79 38 34 77 80 40
          36 78 81 42 38 79
          82 44 38 79 82 44
          40 80 83 46 42 81
          84 48 44 82 85 50
          44 82 85 50 46 83
          86 52 48 84 87 54
          50 85 88 56 50 85
          88 56 52 86 89 58
          60 90 93 63 61 91
          94 64 61 91 94 64
          62 92 95 65 63 93
          96 66 64 94 97 67
          64 94 97 67 65 95
          98 68 66 96 99 69
          67 97 100 70 67 97
          100 70 68 98 101 71
          69 99 102 72 70 100
          103 73 70 100 103 73
          71 101 104 74 72 102
          105 75 73 103 106 76
          73 103 106 76 74 104
          107 77 75 105 108 78
          76 106 109 79 76 106
          109 79 77 107 110 80
          78 108 111 81 79 109
          112 82 79 109 112 82
          80 110 113 83 81 111
          114 84 82 112 115 85
          82 112 115 85 83 113
          116 86 84 114 117 87
          85 115 118 88 85 115
          118 88 86 116 119 89
          90 120 123 93 91 121
          124 94 91 121 124 94
          92 122 125 95 93 123
          126 96 94 124 127 97
          94 124 127 97 95 125
          128 98 96 126 129 99
          97 127 130 100 97 127
          130 100 98 128 131 101
          99 129 132 102 100 130
          133 103 100 130 133 103
          101 131 134 104 102 132
          135 105 103 133 136 106
          103 133 136 106 104 134
          137 107 105 135 138 108
          106 136 139 109 106 136
          139 109 107 137 140 110
          108 138 141 111 109 139
          142 112 109 139 142 112
          110 140 143 113 111 141
          144 114 112 142 145 115
          112 142 145 115 113 143
          146 116 114 144 147 117
          115 145 148 118 115 145
          148 118 116 146 149 119
          120 150 153 123 121 151
          154 124 121 151 154 124
          122 152 155 125 123 153
          156 126 124 154 157 127
          124 154 157 127 125 155
          158 128 126 156 159 129
          127 157 160 130 127 157
          160 130 128 158 161 131
          129 159 162 132 130 160
          163 133 130 160 163 133
          131 161 164 134 132 162
          165 135 133 163 166 136
          133 163 166 136 134 164
          167 137 135 165 168 138
          136 166 169 139 136 166
          169 139 137 167 170 140
          138 168 171 141 139 169
          172 142 139 169 172 142
          140 170 173 143 141 171
          174 144 142 172 175 145
          142 172 175 145 143 173
          176 146 144 174 177 147
          145 175 178 148 145 175
          178 148 146 176 179 149
          150 180 183 153 151 181
          184 154 151 181 184 154
          152 182 185 155 153 183
          186 156 154 184 187 157
          154 184 187 157 155 185
          188 158 156 186 189 159
          157 187 190 160 157 187
          190 160 158 188 191 161
          159 189 192 162 160 190
          193 163 160 190 193 163
          161 191 194 164 162 192
          195 165 163 193 196 166
          163 193 196 166 164 194
          197 167 165 195 198 168
          166 196 199 169 166 196
          199 169 167 197 200 170
          168 198 201 171 169 199
          202 172 169 199 202 172
          170 200 203 173 171 201
          204 174 172 202 205 175
          172 202 205 175 173 203
          206 176 174 204 207 177
          175 205 208 178 175 205
          208 178 176 206 209 179
          180 210 213 183 181 211
          214 184 181 211 214 184
          182 212 215 185 183 213
          216 186 184 214 217 187
          184 214 217 187 185 215
          218 188 186 216 219 189
          187 217 220 190 187 217
          220 190 188 218 221 191
          189 219 222 192 190 220
          223 193 190 220 223 193
          191 221 224 194 192 222
          225 195 193 223 226 196
          193 223 226 196 194 224
          227 197 195 225 228 198
          196 226 229 199 196 226
          229 199 197 227 230 200
          198 228 231 201 199 229
          232 202 199 229 232 202
          200 230 233 203 201 231
          234 204 202 232 235 205
          202 232 235 205 203 233
          236 206 204 234 237 207
          205 235 238 208 205 235
          238 208 206 236 239 209
          210 240 243 213 211 241
          244 214 211 241 244 214
          212 242 245 215 213 243
          246 216 214 244 247 217
          214 244 247 217 215 245
          248 218 216 246 249 219
          217 247 250 220 217 247
          250 220 218 248 251 221
          219 249 252 222 220 250
          253 223 220 250 253 223
          221 251 254 224 222 252
          255 225 223 253 256 226
          223 253 256 226 224 254
          257 227 225 255 258 228
          226 256 259 229 226 256
          259 229 227 257 260 230
          228 258 261 231 229 259
          262 232 229 259 262 232
          230 260 263 233 231 261
          264 234 232 262 265 235
          232 262 265 235 233 263
          266 236 234 264 267 237
          235 265 268 238 235 265
          268 238 236 266 269 239
          246 270 273 249 247 271
          274 250 247 271 274 250
          248 272 275 251 249 273
          276 252 250 274 277 253
          250 274 277 253 251 275
          278 254 252 276 279 255
          253 277 280 256 253 277
          280 256 254 278 281 257
          255 279 282 258 256 280
          283 259 256 280 283 259
          257 281 284 260 258 282
          285 261 259 283 286 262
          259 283 286 262 260 284
          287 263 261 285 288 264
          262 286 289 265 262 286
          289 265 263 287 290 266
          264 288 291 267 265 289
          292 268 265 289 292 268
          266 290 293 269 294 295
          296 297 298 299 300 301
          298 299 300 301 302 303
          304 305 306 294 297 307
          308 298 301 309 308 298
          301 309 310 302 305 311
          312 306 313 314 315 308
          316 317 315 308 316 317
          318 310 319 320 321 322
          323 324 325 326 327 328
          325 326 327 328 329 330
          331 332 333 334 335 336
          337 338 339 340 337 338
          339 340 341 342 343 344
          345 346 347 348 349 350
          351 352 349 350 351 352
          353 354 355 356 357 358
          359 360 361 362 363 364
          361 362 363 364 365 366
          367 368 267 369 370 237
          268 371 372 238 268 371
          372 238 269 373 374 239
          375 347 376 322 377 351
          378 326 377 351 378 326
          379 355 380 330 381 382
          383 384 385 386 387 388
          385 386 387 388 389 390
          391 392 393 394 395 396
          397 398 399 400 397 398
          399 400 401 402 403 404
          323 322 405 406 327 326
          407 408 327 326 407 408
          331 330 409 410 411 412
          413 414 415 416 417 418
          415 416 417 418 419 420
          421 422 423 424 425 426
          427 428 429 430 427 428
          429 430 431 432 433 434
          435 436 437 438 439 440
          441 442 439 440 441 442
          443 444 445 446 447 358
          357 448 449 362 361 450
          449 362 361 450 451 366
          365 452 54 87 453 394
          56 88 454 398 56 88
          454 398 58 89 455 402
          456 457 295 294 458 459
          299 298 458 459 299 298
          460 461 303 302 457 462
          463 464 459 465 466 467
          459 465 466 467 461 468
          469 470 456 294 312 381
          458 298 315 385 458 298
          315 385 460 302 318 389
          471 472 473 474 475 476
          477 478 475 476 477 478
          479 480 481 482 483 395
          484 485 486 399 487 488
          486 399 487 488 489 403
          490 491 370 492 359 493
          372 494 363 495 372 494
          363 495 374 496 367 497
          237 370 493 207 238 372
          495 208 238 372 495 208
          239 374 497 209 336 335
          498 499 340 339 500 501
          340 339 500 501 344 343
          502 503 463 334 504 505
          466 338 506 507 466 338
          506 507 469 342 508 509
          510 511 512 513 514 515
          516 517 514 515 516 517
          518 519 520 521 522 523
          524 346 525 526 527 350
          525 526 527 350 528 529
          530 354 531 532 464 505
          533 534 467 507 533 534
          467 507 535 536 470 509
          537 147 177 538 539 148
          178 540 539 148 178 540
          541 149 179 542 523 543
          544 471 526 545 546 475
          526 545 546 475 529 547
          548 479 549 360 550 505
          551 364 552 507 551 364
          552 507 553 368 554 509
          555 313 556 557 558 316
          559 560 558 316 559 560
          561 319 562 563 564 565
          566 492 567 568 569 494
          567 568 569 494 570 571
          572 496 573 574 575 485
          576 577 578 488 576 577
          578 488 579 580 581 491
          582 574 511 510 583 577
          515 514 583 577 515 514
          584 580 519 518 87 117
          348 453 88 118 352 454
          88 118 352 454 89 119
          356 455 504 334 544 543
          506 338 546 545 506 338
          546 545 508 342 548 547
          585 586 587 588 589 590
          591 592 589 590 591 592
          593 594 595 596 574 597
          598 511 577 599 600 515
          577 599 600 515 580 601
          602 519 375 322 321 453
          377 326 325 454 377 326
          325 454 379 330 329 455
          557 556 603 604 560 559
          605 606 560 559 605 606
          563 562 607 608 425 609
          512 610 429 611 516 612
          429 611 516 612 433 613
          520 614 207 493 538 177
          208 495 540 178 208 495
          540 178 209 497 542 179
          615 473 616 426 617 477
          618 430 617 477 618 430
          619 481 620 434 297 414
          621 307 301 418 622 309
          301 418 622 309 305 422
          623 311 492 369 624 564
          494 371 625 567 494 371
          625 567 496 373 626 570
          627 333 336 628 629 337
          340 630 629 337 340 630
          631 341 344 632 360 633
          566 550 364 634 569 552
          364 634 569 552 368 635
          572 554 457 456 636 462
          459 458 637 465 459 458
          637 465 461 460 638 468
          357 360 549 543 361 364
          551 545 361 364 551 545
          365 368 553 547 295 464
          532 296 299 467 534 300
          299 467 534 300 303 470
          536 304 639 314 313 555
          640 317 316 558 640 317
          316 558 641 320 319 561
          471 474 524 523 475 478
          527 526 475 478 527 526
          479 482 530 529 426 610
          406 615 430 612 408 617
          430 612 408 617 434 614
          410 619 504 543 549 505
          506 545 551 507 506 545
          551 507 508 547 553 509
          566 565 642 550 569 568
          643 552 569 568 643 552
          572 571 644 554 610 512
          511 598 612 516 515 600
          612 516 515 600 614 520
          519 602 621 414 645 587
          622 418 646 591 622 418
          646 591 623 422 647 595
          405 474 615 406 407 478
          617 408 407 478 617 408
          409 482 619 410 381 384
          636 456 385 388 637 458
          385 388 637 458 389 392
          638 460 648 499 498 636
          649 501 500 637 649 501
          500 637 650 503 502 638
          616 651 423 426 618 652
          427 430 618 652 427 430
          620 653 431 434 324 597
          573 484 328 599 576 487
          328 599 576 487 332 601
          579 490 642 412 411 531
          643 416 415 533 643 416
          415 533 644 420 419 535
          538 358 447 537 540 362
          449 539 540 362 449 539
          542 366 451 541 524 376
          347 346 527 378 351 350
          527 378 351 350 530 380
          355 354 627 651 616 473
          629 652 618 477 629 652
          618 477 631 653 620 481
          405 322 376 474 407 326
          378 478 407 326 378 478
          409 330 380 482 306 307
          556 313 308 309 559 316
          308 309 559 316 310 311
          562 319 345 117 147 537
          349 118 148 539 349 118
          148 539 353 119 149 541
          414 297 296 411 418 301
          300 415 418 301 300 415
          422 305 304 419 621 586
          603 307 622 590 605 309
          622 590 605 309 623 594
          607 311 544 334 333 472
          546 338 337 476 546 338
          337 476 548 342 341 480
          348 347 375 453 352 351
          377 454 352 351 377 454
          356 355 379 455 531 505
          550 642 533 507 552 643
          533 507 552 643 535 509
          554 644 321 324 484 395
          325 328 487 399 325 328
          487 399 329 332 490 403
          598 597 323 406 600 599
          327 408 600 599 327 408
          602 601 331 410 447 448
          522 537 449 450 525 539
          449 450 525 539 451 452
          528 541 513 512 609 654
          517 516 611 655 517 516
          611 655 521 520 613 656
          604 603 586 585 606 605
          590 589 606 605 590 589
          608 607 594 593 463 462
          335 334 466 465 339 338
          466 465 339 338 469 468
          343 342 438 437 314 639
          442 441 317 640 442 441
          317 640 446 445 320 641
          436 383 382 437 440 387
          386 441 440 387 386 441
          444 391 390 445 393 657
          55 54 397 658 57 56
          397 658 57 56 401 659
          59 58 312 314 437 382
          315 317 441 386 315 317
          441 386 318 320 445 390
          346 345 537 522 350 349
          539 525 350 349 539 525
          354 353 541 528 498 335
          462 636 500 339 465 637
          500 339 465 637 502 343
          468 638 369 267 291 624
          371 268 292 625 371 268
          292 625 373 269 293 626
          358 538 493 359 362 540
          495 363 362 540 495 363
          366 542 497 367 394 453
          321 395 398 454 325 399
          398 454 325 399 402 455
          329 403 587 645 660 588
          591 646 661 592 591 646
          661 592 595 647 662 596
          448 543 523 522 450 545
          526 525 450 545 526 525
          452 547 529 528 472 333
          627 473 476 337 629 477
          476 337 629 477 480 341
          631 481 436 435 663 383
          440 439 664 387 440 439
          664 387 444 443 665 391
          411 296 532 531 415 300
          534 533 415 300 534 533
          419 304 536 535 609 425
          424 654 611 429 428 655
          611 429 428 655 613 433
          432 656 492 566 633 359
          494 569 634 363 494 569
          634 363 496 572 635 367
          393 394 54 397 398 56
          397 398 56 401 402 58
          413 414 645 417 418 646
          417 418 646 421 422 647
          628 627 651 630 629 652
          630 629 652 632 631 653
          117 348 345 118 352 349
          118 352 349 119 356 353
          565 642 412 568 643 416
          568 643 416 571 644 420
          457 295 464 459 299 467
          459 299 467 461 303 470
          463 464 505 466 467 507
          466 467 507 469 470 509
          499 336 628 501 340 630
          501 340 630 503 344 632
          384 636 648 388 637 649
          388 637 649 392 638 650
          492 369 370 494 371 372
          494 371 372 496 373 374
          473 474 615 477 478 617
          477 478 617 481 482 619
          381 382 312 385 386 315
          385 386 315 389 390 318
          471 472 544 475 476 546
          475 476 546 479 480 548
          582 574 575 583 577 578
          583 577 578 584 580 581
          312 306 294 315 308 298
          315 308 298 318 310 302
          524 376 474 527 378 478
          527 378 478 530 380 482
          396 393 657 400 397 658
          400 397 658 404 401 659
          483 395 396 486 399 400
          486 399 400 489 403 404
          357 448 543 361 450 545
          361 450 545 365 452 547
          485 573 484 488 576 487
          488 576 487 491 579 490
          621 586 587 622 590 591
          622 590 591 623 594 595
          324 597 323 328 599 327
          328 599 327 332 601 331
          603 307 556 605 309 559
          605 309 559 607 311 562
          610 425 426 612 429 430
          612 429 430 614 433 434
          360 633 359 364 634 363
          364 634 363 368 635 367
          598 610 406 600 612 408
          600 612 408 602 614 410
          574 597 573 577 599 576
          577 599 576 580 601 579
          672 276 273 666 673 277
          274 667 673 277 274 667
          674 278 275 668 675 672
          666 669 676 673 667 670
          676 673 667 670 677 674
          668 671 720 675 669 721
          722 676 670 723 722 676
          670 723 724 677 671 725
          678 279 276 672 679 280
          277 673 679 280 277 673
          680 281 278 674 726 678
          672 675 727 679 673 676
          727 679 673 676 728 680
          674 677 729 726 675 720
          730 727 676 722 730 727
          676 722 731 728 677 724
          681 282 279 678 682 283
          280 679 682 283 280 679
          683 284 281 680 732 681
          678 726 733 682 679 727
          733 682 679 727 734 683
          680 728 684 285 282 681
          685 286 283 682 685 286
          283 682 686 287 284 683
          735 684 681 732 736 685
          682 733 736 685 682 733
          737 686 683 734 687 288
          285 684 688 289 286 685
          688 289 286 685 689 290
          287 686 738 687 684 735
          739 688 685 736 739 688
          685 736 740 689 686 737
          690 291 288 687 691 292
          289 688 691 292 289 688
          692 293 290 689 741 690
          687 738 742 691 688 739
          742 691 688 739 743 692
          689 740 693 694 564 624
          695 696 567 625 695 696
          567 625 697 698 570 626
          699 700 701 702 703 704
          705 706 703 704 705 706
          707 708 709 710 702 701
          412 565 706 705 416 568
          706 705 416 568 710 709
          420 571 413 701 711 645
          417 705 712 646 417 705
          712 646 421 709 713 647
          690 741 744 714 691 742
          745 715 691 742 745 715
          692 743 746 716 714 699
          702 694 715 703 706 696
          715 703 706 696 716 707
          710 698 694 702 565 564
          696 706 568 567 696 706
          568 567 698 710 571 570
          747 717 748 749 750 718
          751 752 750 718 751 752
          753 719 754 755 699 744
          748 700 703 745 751 704
          703 745 751 704 707 746
          754 708 711 701 700 717
          712 705 704 718 712 705
          704 718 713 709 708 719
          714 694 693 690 715 696
          695 691 715 696 695 691
          716 698 697 692 291 690
          693 624 292 691 695 625
          292 691 695 625 293 692
          697 626 711 717 660 645
          712 718 661 646 712 718
          661 646 713 719 662 647
          714 699 744 715 703 745
          715 703 745 716 707 746
          748 700 717 751 704 718
          751 704 718 754 708 719
          413 701 412 417 705 416
          417 705 416 421 709 420
        </DataArray>
        <DataArray type="Int64" Name="offsets" format="ascii" RangeMin="8" RangeMax="3624">
          8 16 24 32 40 48
          56 64 72 80 88 96
          104 112 120 128 136 144
          152 160 168 176 184 192
          200 208 216 224 232 240
          248 256 264 272 280 288
          296 304 312 320 328 336
          344 352 360 368 376 384
          392 400 408 416 424 432
          440 448 456 464 472 480
          488 496 504 512 520 528
          536 544 552 560 568 576
          584 592 600 608 616 624
          632 640 648 656 664 672
          680 688 696 704 712 720
          728 736 744 752 760 768
          776 784 792 800 808 816
          824 832 840 848 856 864
          872 880 888 896 904 912
          920 928 936 944 952 960
          968 976 984 992 1000 1008
          1016 1024 1032 1040 1048 1056
          1064 1072 1080 1088 1096 1104
          1112 1120 1128 1136 1144 1152
          1160 1168 1176 1184 1192 1200
          1208 1216 1224 1232 1240 1248
          1256 1264 1272 1280 1288 1296
          1304 1312 1320 1328 1336 1344
          1352 1360 1368 1376 1384 1392
          1400 1408 1416 1424 1432 1440
          1448 1456 1464 1472 1480 1488
          1496 1504 1512 1520 1528 1536
          1544 1552 1560 1568 1576 1584
          1592 1600 1608 1616 1624 1632
          1640 1648 1656 1664 1672 1680
          1688 1696 1704 1712 1720 1728
          1736 1744 1752 1760 1768 1776
          1784 1792 1800 1808 1816 1824
          1832 1840 1848 1856 1864 1872
          1880 1888 1896 1904 1912 1920
          1928 1936 1944 1952 1960 1968
          1976 1984 1992 2000 2008 2016
          2024 2032 2040 2048 2056 2064
          2072 2080 2088 2096 2104 2112
          2120 2128 2136 2144 2152 2160
          2168 2176 2184 2192 2200 2208
          2216 2224 2232 2240 2248 2256
          2264 2272 2280 2288 2296 2304
          2312 2320 2328 2336 2344 2352
          2360 2368 2376 2384 2392 2400
          2408 2416 2424 2432 2440 2448
          2456 2464 2472 2480 2488 2496
          2504 2512 2520 2528 2536 2544
          2552 2560 2568 2576 2584 2592
          2600 2608 2616 2624 2632 2640
          2648 2656 2664 2672 2680 2688
          2696 2704 2712 2720 2728 2736
          2744 2752 2760 2768 2776 2784
          2792 2800 2808 2816 2824 2832
          2838 2844 2850 2856 2862 2868
          2874 2880 2886 2892 2898 2904
          2910 2916 2922 2928 2934 2940
          2946 2952 2958 2964 2970 2976
          2982 2988 2994 3000 3006 3012
          3018 3024 3030 3036 3042 3048
          3054 3060 3066 3072 3078 3084
          3090 3096 3102 3108 3114 3120
          3126 3132 3138 3144 3150 3156
          3164 3172 3180 3188 3196 3204
          3212 3220 3228 3236 3244 3252
          3260 3268 3276 3284 3292 3300
          3308 3316 3324 3332 3340 3348
          3356 3364 3372 3380 3388 3396
          3404 3412 3420 3428 3436 3444
          3452 3460 3468 3476 3484 3492
          3500 3508 3516 3524 3532 3540
          3548 3556 3564 3572 3580 3588
          3594 3600 3606 3612 3618 3624
        </DataArray>
        <DataArray type="UInt8" Name="types" format="ascii" RangeMin="12" RangeMax="13">
          12 12 12 12 12 12
          12 12 12 12 12 12
          12 12 12 12 12 12
          12 12 12 12 12 12
          12 12 12 12 12 12
          12 12 12 12 12 12
          12 12 12 12 12 12
          12 12 12 12 12 12
          12 12 12 12 12 12
          12 12 12 12 12 12
          12 12 12 12 12 12
          12 12 12 12 12 12
          12 12 12 12 12 12
          12 12 12 12 12 12
          12 12 12 12 12 12
          12 12 12 12 12 12
          12 12 12 12 12 12
          12 12 12 12 12 12
          12 12 12 12 12 12
          12 12 12 12 12 12
          12 12 12 12 12 12
          12 12 12 12 12 12
          12 12 12 12 12 12
          12 12 12 12 12 12
          12 12 12 12 12 12
          12 12 12 12 12 12
          12 12 12 12 12 12
          12 12 12 12 12 12
          12 12 12 12 12 12
          12 12 12 12 12 12
          12 12 12 12 12 12
          12 12 12 12 12 12
          12 12 12 12 12 12
          12 12 12 12 12 12
          12 12 12 12 12 12
          12 12 12 12 12 12
          12 12 12 12 12 12
          12 12 12 12 12 12
          12 12 12 12 12 12
          12 12 12 12 12 12
          12 12 12 12 12 12
          12 12 12 12 12 12
          12 12 12 12 12 12
          12 12 12 12 12 12
          12 12 12 12 12 12
          12 12 12 12 12 12
          12 12 12 12 12 12
          12 12 12 12 12 12
          12 12 12 12 12 12
          12 12 12 12 12 12
          12 12 12 12 12 12
          12 12 12 12 12 12
          12 12 12 12 12 12
          12 12 12 12 12 12
          12 12 12 12 12 12
          12 12 12 12 12 12
          12 12 12 12 12 12
          12 12 12 12 12 12
          12 12 12 12 12 12
          13 13 13 13 13 13
          13 13 13 13 13 13
          13 13 13 13 13 13
          13 13 13 13 13 13
          13 13 13 13 13 13
          13 13 13 13 13 13
          13 13 13 13 13 13
          13 13 13 13 13 13
          13 13 13 13 13 13
          12 12 12 12 12 12
          12 12 12 12 12 12
          12 12 12 12 12 12
          12 12 12 12 12 12
          12 12 12 12 12 12
          12 12 12 12 12 12
          12 12 12 12 12 12
          12 12 12 12 12 12
          12 12 12 12 12 12
          13 13 13 13 13 13
        </DataArray>
      </Cells>
    </Piece>
  </UnstructuredGrid>
</VTKFile>
