<?xml version="1.0"?>
<VTKFile type="UnstructuredGrid" version="0.1" byte_order="LittleEndian" header_type="UInt32" compressor="vtkZLibDataCompressor">
  <UnstructuredGrid>
    <Piece NumberOfPoints="780" NumberOfCells="454">
      <PointData>
        <DataArray type="Int32" Name="libmesh_node_id" format="ascii" RangeMin="1278" RangeMax="5063">
          1278 1279 1280 1281 1282 1283
          1284 1285 1286 1287 1288 1289
          1290 1291 1292 1293 1294 1295
          1296 1297 1298 1299 1300 1301
          1302 1303 1304 1305 1306 1307
          1308 1309 1310 1311 1312 1313
          1314 1315 1316 1317 1318 1319
          1320 1321 1322 1323 1324 1325
          1329 1330 1331 1332 1333 1334
          1335 1336 1337 1338 1339 1340
          1341 1342 1343 1344 1345 1346
          1347 1348 1349 1350 1351 1352
          1356 1357 1358 1359 1360 1361
          1362 1363 1364 1365 1366 1367
          1368 1369 1370 1371 1372 1373
          1374 1375 1376 1377 1378 1379
          1383 1384 1385 1386 1387 1388
          1389 1390 1391 1392 1393 1394
          1395 1396 1397 1398 1399 1400
          1401 1402 1403 1404 1405 1406
          1410 1411 1412 1413 1414 1415
          1416 1417 1418 1419 1420 1421
          1422 1423 1424 1425 1426 1427
          1428 1429 1430 1431 1432 1433
          1437 1438 1439 1440 1441 1442
          1443 1444 1445 1446 1447 1448
          1449 1450 1451 1452 1453 1454
          1455 1456 1457 1458 1459 1460
          1461 1462 1463 1464 1465 1466
          1467 1468 1469 1470 1471 1472
          1473 1474 1475 1476 1477 1478
          1479 1480 1481 1482 1483 1484
          1485 1486 1487 1488 1489 1490
          1491 1492 1493 1494 1495 1496
          1497 1498 1499 1500 1501 1502
          1503 1504 1505 1506 1507 1508
          1509 1510 1511 1512 1513 1514
          1515 1516 1517 1518 1519 1520
          1521 1522 1523 1524 1525 1526
          1527 1528 1529 1530 1531 1532
          1533 1534 1535 1536 1537 1538
          1539 1540 1541 1542 1543 1544
          1545 1546 1547 1548 1549 1550
          1551 1552 1553 1554 1555 1556
          1557 1558 1559 1560 1561 1562
          1563 1564 1565 1566 1567 1568
          1569 1570 1571 1572 1573 1574
          1575 1576 1577 1578 1579 1580
          1581 1582 1583 1584 1585 1586
          1587 1588 1589 1590 1591 1592
          1593 1594 1595 1596 1597 1598
          1599 1600 1601 1602 1603 1604
          1605 1606 1607 1608 1609 1610
          1611 1612 1613 1614 1615 1616
          1617 1618 1619 1620 1621 1622
          1623 1624 1625 1626 1627 1628
          1629 1630 1631 1632 1633 1634
          1635 1636 1637 1638 1639 1640
          1641 1642 1643 1644 1645 1646
          1647 1648 1649 1650 1651 1652
          1653 1654 1655 1656 1657 1658
          1659 1660 1661 1662 1663 1664
          1665 1666 1667 1668 1669 1670
          1671 1672 1673 1674 1675 1676
          1680 1681 1682 1683 1684 1685
          1686 1687 1688 1689 1690 1691
          1692 1693 1694 1695 1696 1697
          1698 1699 1700 1701 1702 1703
          1707 1708 1709 1710 1711 1712
          1713 1714 1715 1716 1717 1718
          1719 1720 1721 1722 1723 1724
          1725 1726 1727 1728 1729 1730
          1734 1735 1736 1737 1738 1739
          1740 1741 1742 1743 1744 1745
          1746 1747 1748 1749 1750 1751
          1752 1753 1754 1755 1756 1757
          1761 1762 1763 1764 1765 1766
          1767 1768 1769 1770 1771 1772
          1773 1774 1775 1776 1777 1778
          1779 1780 1781 1782 1783 1784
          1791 1792 1793 1794 1795 1796
          1797 1798 1799 1800 1801 1802
          1803 1804 1805 1806 1807 1808
          1809 1810 1811 1818 1819 1820
          1821 1822 1823 1824 1825 1826
          1827 1828 1829 1830 1831 1832
          1833 1834 1835 1836 1837 1838
          1845 1846 1847 1848 1849 1850
          1851 1852 1853 1854 1855 1856
          1857 1858 1859 1860 1861 1862
          1872 1873 1874 1875 1876 1877
          1878 1879 1880 1881 1882 1883
          1884 1885 1886 2184 2185 2186
          2187 2188 2189 2190 2191 2192
          2193 2194 2195 2196 2197 2198
          2199 2200 2201 2202 2203 2204
          2205 2206 2207 2208 2210 2211
          2212 2214 2215 2216 2218 2219
          2244 2246 2248 2262 2263 2264
          2265 2266 2267 2268 2269 2270
          2271 2272 2273 2592 2593 2594
          2595 2596 2597 2913 2914 2915
          2916 2917 2918 2919 2920 2921
          3336 3337 3338 3339 3340 3341
          3582 3583 3584 3585 3586 3587
          3688 3690 3692 3699 3700 3701
          3702 3703 3704 4161 4162 4163
          4164 4165 4166 4527 4528 4529
          4530 4531 4532 4536 4537 4538
          4539 4540 4541 4671 4672 4673
          4698 4699 4700 4701 4702 4703
          4725 4726 4727 4770 4771 4772
          4884 4885 4886 4905 4906 4907
          4983 4984 4985 5034 5035 5036
          5061 5062 5063 1863 1864 1865
          1887 1888 1889 1890 1891 1892
          1902 1899 1903 1900 1904 1901
          1905 1906 1907 1908 1909 1910
          1911 1912 1913 1914 1915 1916
          2209 2213 2217 2245 2247 2249
          2526 2525 2530 2529 2534 2533
          3234 3235 3236 3237 3238 3239
          3300 3301 3302 3303 3304 3305
          3366 3367 3368 3663 3665 3667
          3687 3386 3689 3389 3691 3392
          3705 3706 3707 3939 3940 3941
          3942 3943 3944 4467 4468 4469
          3455 3458 3461 3210 3120 3212
          3124 3214 3128 4441 4443 4445
          3119 3123 3127 3231 3232 3233
        </DataArray>
        <DataArray type="Float64" Name="resid_x" format="ascii" RangeMin="-0.6548713960225832" RangeMax="0.7291577383744245">
          0.28279445782266777 0.18434314973761934 0.5005759799834415 0.26579241336179127 0.19694178984087607 0.03989521003505736
          -0.2685294506018727 -0.16738278543440188 -0.5102852465227543 -0.306249485559285 -0.21824708839386986 -0.04823161881518834
          -0.029800907509815566 0.00011327472802769023 -0.014433555098096296 -0.00013086511352167207 0.0015261401387260953 -0.00004368594706161133
          0.35897036094944834 0.12536585015930646 0.6439389196661764 0.2600826004432242 0.3051758658699937 0.17743655326056196
          -0.3345023570570409 -0.09146962210075138 -0.6548713960225832 -0.20869977462226785 -0.33369826903697986 -0.17111854673799076
          -0.012384460426114963 -0.02840165512970838 -0.01642780592107229 -0.04369241265700374 -0.0076462732573903125 -0.013221878304677581
          -0.0005381736700371675 0.00041934163612111774 0.0009942049529945152 0.0011731240479475602 -0.0026495725920172575 -0.001076620364334424
          0.0003868164866878132 0.00007060981038620184 -0.000046270946052473505 0.00026389094450074424 -0.005683779672915001 -0.0031630447027310993
          0.13577916103001542 0.2566037183561143 0.1158837285692016 0.06655547060225775 0.11700984044169704 0.050959249863259615
          -0.10765758505546996 -0.03698031354689402 0.023477341639424942 0.024811912985682305 -0.14367070677942095 -0.12770648072065205
          -0.14055455120475724 -0.2516505575565908 -0.10861862532494815 -0.0003460602359646181 -0.0005873785504353357 -0.003818032064921262
          0.00007265222305985475 0.0006436405168663839 -0.003647790426171138 0.00044903969905574215 -0.000383920334065202 -0.005937377516888276
          0.0186557750968106 0.03760831515495511 0.018932456619115356 0.33439253829155735 0.655186174346094 0.3172972197916839
          -0.06564925679719247 -0.14601561442871258 -0.0845999841183418 -0.2734518583202643 -0.5225242259804013 -0.24682826120064494
          -0.005016853015431089 -0.009498491528061592 -0.005568516005462598 -0.0009607833033586921 -0.0022185881605643054 -0.004722499894127097
          -0.00038360829831241006 -0.0010838641152419726 -0.005245297428900564 -0.0010484211893988515 -0.0024898373992794376 -0.007334061933494063
          0.0015401206216267838 0.002468892344079876 0.0013758340320624285 0.3761133718353462 0.7291577383744245 0.34734791758078165
          -0.25576646390415636 -0.5189266336434528 -0.26703019215780976 -0.11002802460325167 -0.1934254089945333 -0.0816983874159467
          0.00044365021365910806 0.0008220487139030119 -0.002988158259195739 -0.00047921540291984144 -0.0013585265181919048 -0.0052111049917904495
          -0.000647368294582229 -0.001701274804912778 -0.005812181516129833 -0.0005850985909727768 -0.0015613278105526263 -0.0072676125631598865
          0.0011266742312976419 0.002067109515689225 0.0011420408844973196 0.2404954829976642 0.4496911864214672 0.20179383129386874
          -0.23060005305907794 -0.4348960265970412 -0.20204588668709622 -0.003585381537720256 -0.004707950356639401 -0.0038990619430814277
          0.00020869568066750332 0.0006423672836097793 -0.0039007970551860893 -0.0005084529350845024 -0.0009011957651305913 -0.00555118048868497
          0.0001729036803217454 -0.00009435908623345313 -0.005479212493644692 -0.00032849681524993457 -0.0006663313984429653 -0.007420470579576399
          0.044456857838747865 0.08256499600961575 0.03720704760697302 -0.007634482259679665 -0.020017717645703925 -0.01662017698902929
          -0.034300723924120646 -0.059002216537691776 -0.022356049536877087 -0.0006214860445790116 -0.0013247405417580183 -0.004560136035883566
          -0.00037984212239594584 -0.000980200778341711 -0.0055262323428002524 -0.00011924550917186139 -0.0003205868182849514 -0.005977149296231943
          0.00018410146764669122 0.00003546696040634956 -0.005843018901348085 -0.00007474938088680716 0.00012828575081913485 -0.0076852252606833815
          0.01140588258244346 0.021441019027747643 0.010347248251630248 0.07872822471402507 0.13562793777754756 0.05347614626381514
          -0.08799660677082688 -0.15412986203150503 -0.06479888864413397 -0.001167183538694161 -0.0027353771498921375 -0.004020635814787177
          -0.0012722640637847782 -0.0025638593049546188 -0.005733888401608489 -0.00046915065573482906 -0.0013467814046075333 -0.006340636415050227
          -0.00009008220729977978 -0.0004815899077681429 -0.006522127890810303 0.00027923416942154944 0.0004934854649896181 -0.005881909115758255
          0.00022493846836324494 0.0007752205483684271 -0.007598452339292905 0.10280725588739692 0.19133422738762107 0.0864098279592529
          -0.1340607548891537 -0.2543306052988932 -0.1195088030544822 -0.006882023993889597 -0.010839537959904 -0.006893969450922022
          -0.00010674448706060602 -0.0005885293027407812 -0.004863807143931531 -0.0002713384153256726 -0.0009233220366762218 -0.006089841838277543
          -0.0005489232305557756 -0.001116765403510911 -0.007052853804728532 -0.00027841305656917115 -0.0007981119758748711 -0.007320767959723362
          -0.00015802497015249273 0.00009561900249455135 -0.006343969463465271 -0.000026246299763332814 0.0008078661549082433 -0.007249097837981111
          -0.24100894714505294 -0.48929151364169954 -0.25115896559719175 -0.0997712160730364 -0.17829930271861905 -0.07772428260012365
          -0.0002703841724533973 0.0006673641525360985 -0.002607564773365212 -0.00025956400987947603 0.0009735325216366775 -0.004778440423796937
          0.00022341398998459994 -0.0011645052402173839 -0.007510751119247594 -0.0007689405973465568 -0.001264744803542328 -0.007699859691394639
          -0.001027531523880576 -0.0012296847464017269 -0.007852323460957322 -0.0004495975534126728 -0.0002994346932676528 -0.0066205355433521795
          -0.000015352175900318343 0.0005993366257794897 -0.006666440542849816 -0.3289406389996241 -0.634788691779562 -0.30503133341386857
          -0.002503321845910733 -0.006095971830954561 -0.008966813957848707 0.000582689527222513 0.0012116280455276573 -0.00419755501682495
          -0.00006613546728084785 0.0006290513737692294 -0.0054550517388536335 0.0017858354982775992 0.0008896386756642727 -0.007607411259664687
          0.001482788650689404 0.0010096164550472686 -0.008292293508763926 -0.0004496133355069709 0.0008685180818015503 -0.006848615722554463
          -0.00027493001369593983 0.0006860041441205667 -0.00567874814045588 -0.00009547228799755558 0.0007018305778951905 -0.005883779574095804
          -0.10745566463040035 -0.19357055361475517 -0.08384738273406711 0.0020906106894247323 0.0021283314704256817 -0.006449219173893184
          0.00013657651416476568 -0.00006898139388766822 -0.00614423427197508 0.0003419562270039478 -0.00021758472177868526 -0.0075018072185333295
          0.0005776778468851163 -0.0005604047149412317 -0.009360845561847686 0.0005665780144354926 -0.001075044236158007 -0.009793543650014058
          -0.0011182654762045274 0.0006123425315105457 -0.0066341215921470464 -0.0009849007474826976 0.0008634869647869969 -0.004648157986372858
          0.0005879834005551032 0.0019975735971069497 -0.0055435328912603055 -0.005291888317128013 -0.010168190991645787 -0.004176444334850871
          0.000576691654909034 0.00016793976772566666 -0.007304441453034549 0.001047378489560824 0.0014698307598530747 -0.0067287323594809045
          -0.00018914574880080082 0.0007549452964714654 -0.008574762246840173 -0.0002519412753971828 -0.001334682082381633 -0.01026374286494569
          -0.0006213706980360278 -0.0018550357822535446 -0.00990781798897622 -0.0017162118149331995 -0.0017738557740947236 -0.00787485705880231
          -0.0026428179627444592 -0.0002394468357671542 -0.004371950761703047 0.0011313602169908954 0.0015910050409120302 -0.003139647534151635
          0.0023567855647446123 0.0030883524825355835 -0.0002428421434679251 0.0004353443097797616 0.0005302867556213897 -0.007084846070831041
          0.0012036369276939851 0.003503071058703622 -0.007444931950899125 0.0007986376130415529 0.0020465617827709615 -0.008520164454334012
          -0.0005792482259012743 -0.00008291187058340199 -0.009610438655895948 -0.001334654273489111 -0.001466748296030218 -0.008989247808285583
          -0.0008272488060647731 -0.0006996009863549091 -0.007217407155704514 -0.002405337674356467 0.0004144175853397769 -0.003357538891391343
          -0.0007614110170681698 -0.0005277043357478917 -0.0025014440029442753 -0.0014833117336836565 -0.003366254155260151 -0.006435746016240529
          -0.000025900107409881912 0.00025381332559248904 -0.008518126393265213 -0.0013437263595013071 -0.0011594598265163292 -0.010350976055299999
          -0.0009210412027389481 0.00005740129146891704 -0.00998720477934878 -0.0005311622174186681 0.0005438834288744587 -0.008966449290807699
          -0.0004315319653755978 0.0015703880407968995 -0.0065217439148059775 0.0004317813253109648 0.0030004613100267363 -0.003932666170182841
          -0.0002548597498650551 0.001994701902021667 -0.002243685340304502 -0.0005147995182408494 0.0006498488232224986 -0.0014151699529776351
          -0.00003573101931308997 -0.0005721983979007916 -0.010468598368188253 -0.000824423395076046 -0.001389514974301953 -0.011577179815021488
          -0.0015354432500900295 -0.0017188770059868297 -0.0112589459934207 -0.0013678988145118254 -0.00044748445714848373 -0.008870268993620645
          -0.0010923857773521561 0.0007373926290776822 -0.0058316157243174516 -0.0008304220127302031 0.0013518742416893659 -0.0034234929612404486
          0.0000286691487669799 0.002246562919555828 -0.0014335863447039188 0.0006915863824445978 0.003333497927002771 -0.00005399784381854289
          -0.0008915582153861124 -0.002662216986742294 -0.01231618180197458 -0.0012549278039566403 -0.0016254521566576585 -0.011831359133573915
          -0.002040243820570886 -0.0018750304366128567 -0.010832278826920394 -0.0020636878306996564 -0.0012641575640106595 -0.008088165631413347
          -0.0017554783643607408 -0.0003835502617075548 -0.005299219056301041 -0.001932750878897771 -0.00018694928201856698 -0.0029035851780445654
          -0.0019316286349111422 -0.0008925566350983516 -0.001650940217242436 -0.0009552932922147761 -0.000430154062076582 -0.0006312318950767448
          -0.0007923849187640997 -0.0022401614180758145 -0.011950359906442998 -0.0021836976948090836 -0.003018053009745447 -0.011986147072199138
          -0.002946097052526575 -0.003368404535665448 -0.010756900708789097 -0.002588393932677846 -0.001979142069693296 -0.006935660587320314
          -0.0017127430109544761 0.0002426006894822308 -0.0033427273304269534 -0.001501228387327913 0.0008347671245898525 -0.0011283611604770982
          -0.0022548292397619463 -0.0006299648405843072 -0.0007298497180086017 -0.0032187093717901405 -0.001989555560804046 -0.000104767998691635
          -0.00043863534475008237 -0.0015186666867155196 -0.010453687331708927 -0.0022416597383676518 -0.003213020994914828 -0.011554662716488195
          -0.003570444392755334 -0.0044624774311730064 -0.010040759708893177 -0.0018612994069275857 -0.00037957884542372256 -0.004664504715375273
          -0.0012456137307141901 0.0014874595709750693 -0.0008900221159731103 -0.0012648872914207132 0.0014731973257635644 0.000704805385635332
          -0.0009561983311598965 0.002283648717417819 0.0011953612948056858 -0.0002940291632844705 0.004300514287398194 0.0025092841658960197
          -0.0009425766460449125 -0.0009634878752393661 -0.00669943340661483 0.001199535223761039 0.003796414371548096 -0.0036477955881792923
          0.0009992876571693898 0.0047142978384719925 -0.001552850697909669 -0.001727248294597139 0.0009824390154529183 0.0008085888637436867
          -0.002070497800163551 0.0004295333525448086 0.0013620748598324184 -0.002899265069608248 -0.0005277404026147181 0.0011549683038163394
          -0.0027043737547916002 0.00001550168389297113 0.0032273359423076187 0.0004492908138384877 0.0010165939845130367 -0.0030453482833543433
          0.0029893151550108854 0.007954128987102571 0.0018559348185993585 -0.001750854652766698 -0.00037295006709303635 -0.0016227955634828817
          -0.0031934312856352065 -0.0012711657690998024 0.0010445075896470257 -0.002848411939989859 -0.0007460484535704026 0.0019015530383938994
          -0.005192304567079198 -0.004327631655826281 0.0013066894655144878 -0.004764816546688255 -0.005631292801112409 0.0028747873230616783
          -0.002179379764026379 -0.006682817378759864 -0.005522110371952493 -0.0035055534338646055 -0.006252324629666184 -0.0027346835943680148
          -0.004146157526395022 -0.004051673007785972 -0.00016117705133211757 -0.0027983571925647155 -0.0014259990918903398 0.001886235899154265
          -0.0034417437144149687 -0.001422984063930599 0.003606513103227016 -0.005955878152959393 -0.006571365551474528 0.0026587472411794266
          0.000662053265529039 -0.00813047855123017 -0.006086247330159722 -0.00011896210059525458 0.00022264876020106072 0.002150357665374081
          -0.0052980160909337215 -0.005749426872843522 0.00286086404396535 -0.002978003914058114 -0.0004935304121413964 0.006264060176137676
          -0.008440575192829591 -0.005314505944613579 0.008021266536822225 0.00043190617085153704 -0.0008131805475573017 -0.0015223341049770411
          -0.0003781208372322098 0.00023506792903127405 -0.001343645833919993 -0.0013648639848278243 -0.0014663989733891825 0.005039665995728804
          0.0002187751835842633 -0.0008535711331147944 0.0014236919852343988 -0.000858155954011508 -0.00043927560089196405 -0.00010554374365856489
          0.00007026509187291197 -0.002236693532314149 -0.0006974556486603056 0.00005464278979783188 0.0008760499259894416 -0.008131784806668207
          -0.004701885655312488 -0.006329968126435936 -0.007343429342770769 -0.0036219949797002826 -0.006297485452968488 -0.003720517259997891
          -0.00474148551943987 -0.010515242841098171 -0.005902875390845885 0.00622327381596488 0.0035664587186428065 0.0035071730702815884
          -0.00754947258494898 -0.0142947980774899 -0.00290094444696809 -0.0014073942437295983 -0.00017238845334421882 -0.0018022716381622672
          -0.0001465289122988267 -0.0007872188493185384 0.0008287256372287999 -0.003569807847747075 -0.00006232651060233962 -0.0019471450275494462
          -0.0017134335753716812 -0.0034166790281142667 0.0006017220560448067 -0.00014149832642429416 -0.0007572501663162257 -0.001051596976228808
          -0.0005177544936296741 -0.009638444125482426 -0.009068319912691969 -0.001023455766967274 -0.0036451552276455246 -0.003733028894478352
          -0.0000395958991834533 -0.00681107205415632 -0.007670642495773983 0.0022372496615581383 0.00019644368065652174 0.0011258124272055525
          -0.0005919689793647542 -0.0004170226568183111 -0.0006697255143883751 -0.0010741660278061893 -0.009485779133008965 -0.010678287490159644
          -0.002461542552111895 -0.0013514810995337578 0.0015235043927017689 -0.003498369016044389 0.008188166208348613 0.006259593763027427
          -0.00162238812796911 -0.003217028875940997 -0.004049612053892204 -0.0041417782882486875 -0.005047385849936248 -0.004136972011047568
          -0.00851721536578287 0.0016878266769166927 0.0011625203675698081 -0.002873939854423746 -0.004588359066478365 -0.00026010519436958646
          0.0019721594481354465 0.003031855496639757 0.004478667978757844 -0.0008177596292795464 -0.002272751819829999 0.0002869848643891615
          -0.003169635685241312 -0.0015036225759454958 -0.00411763449050806 -0.0007510723807517827 -0.001761523757690009 -0.0000028965662908220224
          -0.0015359531042913321 -0.004724180618291385 -0.004154179616650433 -0.0006878475624896296 -0.0019403607189989458 -0.010065881178372926
          -0.001187937456499366 -0.0007470014183850182 -0.0017965787195355354 -0.0021931685817579982 -0.007482220950768781 -0.008242384634974176
          -0.0014102839402774237 -0.0012425499808532692 -0.00258224807570695 0.0004913829557628979 0.002062161439266852 -0.007342199472089028
          -0.0031724438374660657 -0.0013804382910334034 0.002654610833522586 -0.0007053457687624665 -0.0009648839748588323 -0.006355515032773873
          -0.0021417693014873507 -0.0010809520999330857 -0.009886050070495145 -0.001180391961049132 0.0007839304391392687 -0.006491327542583747
          -0.0007186611183631619 0.0008232787412869591 -0.003368011913963631 -0.003837287884028484 -0.008030941558708093 0.002840545214582768
          -0.002611884620881355 -0.007793231515062615 -0.00024144233940059934 -0.0001905836340583278 -0.0022353538386781224 0.0027027267136405797
          0.0025807869166594166 0.0033327987121083424 0.0012910508694123912 0.0008362229508609431 0.005406528711731529 0.001483815923394971
          -0.0033723895022852446 -0.0024322324302503695 0.0056826239291623 -0.0030168741594334136 -0.0006567258685201693 0.007279317593610113
          -0.008651253058441277 -0.004861450244305843 0.00604647952704962 -0.0008183480351915406 -0.005763810785644807 -0.0011473461036581867
          -0.007998808820927295 -0.010231839680610477 0.0018074629793467523 -0.008083211658837186 -0.012306745568936961 -0.0051398322132518715
          -0.0024566239447434413 -0.0023929291189856983 -0.006922301165953826 -0.004878873782363513 -0.003031154173118722 0.002866401128748919
          -0.003565332761561457 -0.005434590713964127 -0.005788668166172073 -0.007568849795614341 -0.0005974419872689651 -0.0008582519700048863
          -0.0008522988209982429 -0.0002830859499400873 -0.003364221533317391 -0.0021552883044861915 -0.009389271107394848 -0.006856974193675924
          0.0000872734512054052 -0.0010691370019983992 -0.008879611389319919 -0.0040722270240323155 -0.007372649466045544 -0.0009406206756015223
          -0.003798882968498063 -0.0017906570572110425 -0.0050741939316374385 -0.004174467973946605 -0.0035379556337318263 -0.003199008064780351
          -0.007618546091348044 -0.01241258450701821 -0.0013867735114505564 -0.005915018640975767 -0.006002796961805501 -0.008581230751103952
          -0.007560464838898717 -0.0017130226593997655 0.00037283532899667904 -0.003692738967147946 -0.001895880287177576 0.006184246479206124
          -0.0017513053153876967 -0.0038126681216645864 -0.011599797006571322 -0.00021133019938535114 0.002895932238580201 -0.0012857223793236727
          -0.0012180215120238813 -0.014601661896628038 -0.023151818969353144 0.002330867136583592 0.0015597755678200542 -0.012325734138228128
          0.0049672228472061875 0.0008034860939574173 -0.015798001951988994 -0.005588032234288498 -0.005273085045640613 0.00015704905522895274
        </DataArray>
        <DataArray type="Float64" Name="resid_y" format="ascii" RangeMin="-1.2737997048587943" RangeMax="0.18060426368360621">
          0.012888989655392702 -0.24027562984187256 0.013503144145036394 -0.3786188578430767 -0.024266939840653867 0.11360799533947608
          0.00903204845246261 0.051190889081563905 -0.022040898104838946 0.14618155869721386 -0.0494746110622247 0.007205899995915331
          -0.02485232776317793 -0.01864266501864408 -0.06432396517358864 -0.0015321378165566758 -0.050605374032250655 -0.02705500132622944
          -0.00349475390175491 0.016210386085229254 -0.08027015252167936 0.014573295040952929 -0.009248015045544337 0.03846701381664931
          0.050645806934076575 0.04345664102621364 0.09869766303779792 0.03079372775886765 0.05231902417149199 -0.052237964998514436
          0.002270883239991972 -0.0021525642690348734 0.0012326703371709768 -0.09230394476706705 -0.0021155889667003325 -0.20537525920170807
          -0.0015550979091674133 -0.02658333899838733 -0.00346377491081884 -0.13236277543659541 -0.0017184371976711188 -0.196988151628
          -0.00109420958358028 0.13931610646671133 -0.0025761477359431406 0.18060426368360621 -0.0013710376502120147 0.05445955173229916
          0.047873598245056714 0.09475129158932019 0.04598128443167923 -0.015130013969303632 -0.029614987126449548 -0.016317568866724794
          -0.13420354747162114 -0.250481994124963 -0.10357224206394784 -0.016075053324274335 0.058247712988512605 0.02652533632276646
          0.07693262313720418 0.140503666379745 0.059423922003717836 -0.0038722313017145737 -0.007362512347433736 -0.0042432983030739335
          -0.003292976604526876 -0.0065652478605680575 -0.0033927245388210014 -0.0021777777022705114 -0.004026874533764213 -0.002050573793284882
          0.021377132294421022 0.04412063119223496 0.021400350890652453 -0.0011410423283445478 -0.0004143799333208992 0.0007482581084095052
          -0.008651564190367162 -0.008892248401788106 -0.00014288964299150053 0.042075126903506 0.08705462937976118 0.04173681341669644
          0.002524893851189966 0.0048783815360446126 0.0010658749907597187 -0.0033763188882023065 -0.006027073313373765 -0.003620696010746438
          -0.003812321573027383 -0.007138061325615341 -0.0041551736830801045 -0.0022831178586668055 -0.004507354751823289 -0.002839770202130165
          -0.0007083572653473064 -0.0004150423560466063 -0.0011249257040916102 0.011378013515670863 0.02728827943010447 0.015233311753306882
          0.07449480311631813 0.1463698563701433 0.06971718253929683 0.051757788520433334 0.09438744924395115 0.04078527371654325
          -0.0009246539768370532 -0.0007352623843815964 -0.000684437093722845 -0.0028712850346571672 -0.004537446526284156 -0.0027315332649185953
          -0.003125539905095426 -0.0053496577292129754 -0.0032844882001265008 -0.002115042677342579 -0.003815667740048087 -0.002330299621845347
          -0.0005775573096831119 -0.00013388509658439351 -0.0011850562858818983 0.05488577763970455 0.11189632579494525 0.05594518570649863
          0.07314066581298134 0.1393606829324867 0.06249452395368382 -0.00019448991278908645 -0.0004850954028975396 -0.0021007977144438805
          -0.002595665114700829 -0.003949327622619431 -0.0028073291289543723 -0.0027574379641349678 -0.004235678503084539 -0.002758456614274485
          -0.0023683196542326757 -0.0037713223842279486 -0.002489161950973484 -0.0020094586996380615 -0.003101653130723414 -0.0017959845443712985
          -0.02416542703173341 -0.04298590100352547 -0.019333117191601197 0.0021631505771798204 0.0012339758780607613 -0.0033785364239132393
          0.02342235213865923 0.04215126172934469 0.015083607914846503 -0.004524608138871428 -0.0071061367046789115 -0.004729530431988982
          -0.003392243234165482 -0.005092167620993626 -0.0035354822740935044 -0.0025815391057099624 -0.0037100771431664015 -0.0026111058151405686
          -0.0017821742647929073 -0.002554266022357865 -0.0019388857183896824 -0.0015842118828906515 -0.002371115323709483 -0.0012859871627606823
          -0.007837675099140004 -0.015453917165159092 -0.008142237601060524 -0.008056577501067523 -0.013258148881722248 -0.007005510927216435
          0.029442578748731296 0.057695701350372275 0.024191915388851765 -0.003880555088013382 -0.005469582461862715 -0.0037934961369378017
          -0.004229151131229292 -0.006482971721674724 -0.004443523363467872 -0.0031886348853229496 -0.0045702066150077325 -0.003216675449726869
          -0.0024646719159935326 -0.0031943736752135243 -0.0021737365525974495 -0.001417872840539569 -0.0015155573274502343 -0.0012714427782863913
          -0.0006931918974293905 -0.0004859500276316875 -0.00029148934218886646 -0.09214802403829256 -0.17572867599692382 -0.08233309831803128
          -0.009239358702174752 -0.01715238709890872 -0.009268390164178963 0.0023004218480481287 0.0033278783847434934 -0.0011528117344347666
          -0.0037045879003018145 -0.005442120602786871 -0.004165298134956585 -0.0031802554351873513 -0.004556842742042766 -0.00338144096847659
          -0.002887646745186656 -0.004061324427175272 -0.0029399586433626612 -0.0020866141731200605 -0.002705485238560068 -0.002022540851832122
          -0.0006282610130871613 -0.00036732119270899144 -0.000876406529106144 -0.00023954409234783203 0.0003723185702999565 0.00007534982724555217
          -0.012652953862116872 -0.02541707540798005 -0.015667104825369482 0.04092516448181016 0.07653434269479659 0.03113953802977315
          -0.002703554088225091 -0.002646154754855967 -0.003038439552086214 -0.0018345200128813688 -0.0014814782577530217 -0.0021439628031356683
          -0.0028149124275287374 -0.003246673854290727 -0.0028148954287439687 -0.002942635314784281 -0.003766925101637897 -0.002594859917548764
          -0.001762422611599479 -0.0018815969893548612 -0.0014112815868556061 -0.0001861509604124123 0.0005388916530530419 -0.00030518937063439555
          -0.00021896674459592758 0.0007070070639054737 0.00028106234460922863 0.056182354931920774 0.11042600003062333 0.050766418943665265
          0.00069072205140433 0.0032881681988607414 -0.0008643603529312482 -0.0021604191668671002 -0.0014410578496951154 -0.0023960484174199714
          -0.001743285036148512 -0.0009235454891149963 -0.001790892639462749 -0.002679991939202875 -0.002624098466601721 -0.0023499210899053935
          -0.0021923956190827987 -0.0028817932909038224 -0.002419357807139144 -0.0014342256994259173 -0.001365677408414978 -0.0010144970593470304
          -0.00025211849620801474 0.0003863524900954707 -0.0004544942511426342 0.00026913958192875675 0.0014003297245700486 0.0003429048235221721
          0.051982969342138384 0.09872447077162946 0.043138815158287214 -0.001830426113453798 -0.00034383553905587005 -0.0016288140396290562
          -0.0023590472314821698 -0.0011329126300993475 -0.0019810628585603673 -0.0033456922253114474 -0.003260196941113902 -0.002651047755047542
          -0.0023468233396995997 -0.0017401676861809046 -0.0018288823199114068 -0.0019592755483033297 -0.0019714596287348507 -0.0014756745968071971
          -0.0013825343924972477 -0.0013452407653565257 -0.0008003557862298893 0.0006417602615400586 0.0018575934831121521 0.0002264752444079976
          0.00019704508094174622 0.001861537612666421 0.0006342288260218765 -0.0021576537345529834 -0.0016915503884301353 -0.0018223043455883811
          -0.001750496707657978 0.00017614861036380214 -0.0011959250714791425 -0.002785539734401987 -0.000997251773026453 -0.001992998679441138
          -0.0034366726184491547 -0.0033568483375153724 -0.002621599476510972 -0.0020550131745805666 -0.0012938968901679004 -0.0014810499206473482
          -0.00138810039108328 -0.0011488857793512386 -0.0008562088813452995 -0.0004303223975842263 0.0004981256217344576 0.000020381685436499097
          -0.0005378773603170184 0.0004510082471937127 0.00035879359300974856 -0.00043963454867142725 0.00024693289403861273 0.000137704066866395
          -0.002508993417053476 -0.004447490254405287 -0.004685392252429421 -0.001882723202921488 -0.0014268390469382997 -0.002688056467719857
          -0.0011507455136625655 0.0008141177633761432 -0.0014899568361597115 -0.0016572033425965582 -0.000758966840154196 -0.001844960673778151
          -0.0017762862148269498 -0.001477630832876775 -0.0017246283800402828 -0.0008735532006086677 -0.0006715492268442591 -0.0011156415012053555
          0.00023694497873399945 0.0003873000691868578 -0.000619690634516723 -0.0007942332074039465 -0.0009219942287663069 -0.0008246866060318547
          -0.0012087404935613583 -0.001617050339638132 -0.0009342472662506596 -0.006847659874811951 -0.010839787392546318 -0.007035448161042068
          -0.004002011540686273 -0.004595840135199092 -0.0046734578925287235 -0.001364747880043482 0.0009873143666260242 -0.0016709842764238703
          -0.0013863722502888143 0.00008539710571764392 -0.0014825349247812314 -0.0016104877839092646 -0.0010776028538505011 -0.0014218633365522537
          -0.0007786933878544677 -0.00029423957196067496 -0.0008078276814675323 -0.0001307545782568975 0.00044167912360174033 -0.00021429852375470793
          -0.0003626725207952807 0.00009249216479580331 -0.0003058266142325766 -0.0003749010188683014 0.00009281628035780892 0.00015482107387725444
          -0.0024172871277391428 -0.0017607830093550048 -0.0027378826455287664 -0.001695488155308067 -0.0003074895244510323 -0.001965448199291342
          -0.0015924903702144722 -0.00011973180515689741 -0.0014538653736850815 -0.0013000932580620739 -0.0004567395192542345 -0.001187348468004945
          -0.0008454487301974845 -0.0002453050324757178 -0.0007287067680573633 -0.0002836268095552097 0.00009519752461199793 -0.000374663189182986
          -0.0001244223194223626 -0.00003025976275901343 -0.00026854209910409654 -0.00021121723262398917 -0.00034490946175033677 -0.0003104656182303933
          -0.003097690030150868 -0.0035539502414830837 -0.003306453022613398 -0.002383222803927776 -0.0014138940763293029 -0.0023514844807982493
          -0.0017484392145841188 -0.00042059865818999675 -0.0016661966021791486 -0.0011643122940306894 -0.00015351702083832297 -0.0010876049927688869
          -0.0006823137935947354 0.00015135258520737604 -0.0006432480590840006 -0.0003346976697690962 0.00012710804785193153 -0.00036435708465103883
          -0.0001400245215706919 0.000040425945348671055 0.0001451337485786075 -0.00003242829614702458 -0.000015156434297947108 0.0003858542567508616
          -0.0024736325800491232 -0.00242076561764748 -0.002891627776971717 -0.002434973651690764 -0.0011509090271792921 -0.001961691388352671
          -0.0021931322723702795 -0.001100511993147757 -0.002028553236327557 -0.0011698270253624188 -0.000050298352252203804 -0.0011563895751282027
          -0.00038548596435057994 0.0007682414000967641 -0.0004519958371581173 -0.00028606337384265434 0.00036812696188959215 -0.00039745805169630333
          -0.0004689350981655349 -0.0005598240658979681 -0.0004370556822646532 -0.0006985941160663478 -0.0013321229905915444 0.000042306401769109936
          -0.003941708049183701 -0.005629990849344679 -0.004299403419501857 -0.0031897207728277255 -0.002918286953510596 -0.002896481677370416
          -0.003077923879367117 -0.002657957085929641 -0.002646624080707205 -0.0005986070903398338 0.0011957383686833772 -0.0005500678344893817
          -0.0003188831375508516 0.0010835187837331395 -0.0003505070352556039 -0.00030794071164907955 0.0003585205546166592 -0.00048564861155475647
          -0.00008046939461248126 0.000496145104188328 0.00016339252150165962 0.0002338886217291558 0.0009545510319052819 0.0012750602968303881
          -0.004132696476320863 -0.005201426810517162 -0.004068827884985804 -0.0018653619378898312 -0.0007455681498236832 -0.0013980967652522935
          -0.00007502426643925253 0.0025561564573206366 0.00013022409269633495 -0.00045414150020450794 0.0009526807555692296 -0.0006756936033415206
          -0.0006343706153505435 0.00001965614237303681 -0.000599182373715923 -0.00013326737703817093 0.0005407573770598306 0.0004385675639831943
          -0.000276161878749015 0.00001446551546402386 -0.00003141883986190752 -0.003967720623002213 -0.005938921311992917 -0.003838281683887168
          -0.000338952098799309 0.002660520346670709 0.000014707277534276031 0.000496286811904556 0.003449999127278197 -0.0005579546099567789
          -0.0008821172666039767 0.00041995605745054343 -0.0011104233093314209 -0.0009386400091179192 -0.0004057629153316755 -0.0008489183607746087
          -0.0015013585125882023 -0.0018644144932770668 -0.0008019829682878177 -0.002693616664765086 -0.0039038179381951643 -0.0018748582640393252
          -0.004314608207425297 -0.005598957762064316 -0.004877280400119366 0.0016576114617599114 0.006314143481400886 0.0008823649596383376
          0.0010809591636476434 0.006174132984655523 0.0014606229613505772 -0.000903028437069131 0.001779381287631887 0.0008995728202879638
          -0.0015607507401760312 -0.0011366283801886867 -0.0008239413428696718 -0.002281354357494547 -0.0028458615892845707 -0.001255985495816514
          -0.005341251315554685 -0.011153344342574645 -0.007105913777331552 -0.005002896550163671 -0.00577583624465372 -0.004751115367138237
          -0.002234248702053132 -0.0007099290955276949 -0.0015843579182179823 -0.0012253809488945722 -0.0005366702817990454 -0.0009447327917979642
          -0.0036004413330849028 -0.004593854328367231 -0.0019902140807942503 0.0021414904906243183 -0.0010922912565093645 -0.002010258366255707
          0.0004754547465726511 0.002113071976694976 -0.0018007449494427397 -0.0030741294787474116 0.0008675295305134167 0.0011107316019774993
          -0.0008012641021298839 -0.000397695630425729 0.00018364367176626484 0.0008179767961671303 0.0006433989586853185 0.0004096523029218646
          -0.00003768755129862633 0.0012960058506367722 0.000998860579791979 0.0016395742110731568 -0.00022252886211626688 0.0003601845555932792
          0.0002259460033109742 0.0008334059936682126 -0.00006217476410769196 -0.000661882444810552 0.00010153306065113776 0.0014259351125645026
          -0.0008915995908730101 0.0004862263525826638 0.001966985007375327 -0.00011592308995153622 -0.0013537378921483212 0.00043960546642903
          -0.000566737681443219 -0.002964463740461998 -0.0020130656056157603 -0.002046208428187729 -0.0001701803662378515 0.0005083479943229496
          0.0012746002555286962 -0.003770712716891861 -0.0001744815334751293 0.0015289314328189793 0.0008602409671138456 -0.0014846385106911664
          -0.00021480371460651237 0.0008870227987503726 0.000185429210469934 -0.00008632551241988251 -0.0006268817025246176 -0.00004324459785753909
          -0.00041061441692352707 -0.0001795305698015226 0.00021259726739703 0.0013868639252178488 0.0001575023218561844 -0.003131100782338067
          0.002697719975017554 0.0007634878966603642 -0.0044252386162723645 0.001635478741665572 0.000720191621008337 -0.0015205655077403374
          -0.0010816441459183257 -0.0002095223282167491 -0.001712566020168782 -0.0003429709184255558 -0.0006360704531748196 -0.00008868075025653122
          -0.0013168838787672998 -0.0020047259349935675 -0.002517245304389071 -0.003813250247206079 -0.00025282008015425905 -0.0013020561904785177
          -0.0022645218181194526 -0.004232825779379168 -0.001985956626291391 -0.00006466078636872818 -0.00007196907895512528 -0.0002821026085524231
          -0.0013180979164112705 0.00034686143430712885 -0.0003670813363605835 0.002336539409424687 0.003352748114059126 0.0032265818582277173
          0.004599397283021833 0.0018196868756533702 0.0020753099838192943 -0.0008403234317798242 0.00012439405978424863 -0.0006793177744439244
          0.00021333612158371765 -0.00041285489881630333 -0.00005408641468601649 0.00018184926808742508 -0.0005988665412404032 0.0008349421236232835
          -0.0005785331230758611 0.0004044769944093751 -0.00034479219206361156 -0.0021870599497526566 -0.003395950304784956 -0.0011384030590962935
          -0.0003159545950656706 -0.0023660077593617157 -0.0008166161561216634 -0.0033262058340998157 -0.0008836872506213789 -0.0011676410860066433
          -0.000027258847949712672 0.0002950104245784124 -0.00007639007638349238 -0.0009224474191217302 -0.001410174543442333 -0.00025929810939090414
          0.0005711312606267449 0.0011538571402674863 0.0012103824317803158 -0.0014385268930199313 -0.002943419157379279 -0.001291547548559313
          -0.0012193490468637158 -0.0022442997474698134 -0.0004292427931177345 -0.0016798023124584005 -0.001414025005910896 -0.00030534872924695144
          -0.001341808487432955 -0.00281433480700799 -0.0019352635306966667 -0.0004569827729702658 -0.002287358945640361 -0.0016543764348597167
          -0.0012421304385945575 -0.0040831057132004744 -0.0020140744948990985 -0.0008830162150975651 -0.0021384012668961283 -0.0010315865410025493
          -0.00552810389405578 -0.00369029727756498 -0.011397453007385927 -0.006281684669509735 -0.0059293881730341225 -0.004972563593185875
          -0.0014354445251036907 -0.004085616702862449 -0.003159015807617016 -0.00009565656656607135 -0.00048730312964462286 -0.0004940244273013983
          -0.00034641690598691266 -0.0022709447873612287 -0.0021976494181757955 -0.0019014078244771193 -0.0037241122902489376 -0.0014291427971722115
          -0.0010007461187605537 -0.000371698497716344 0.0007965209463129119 0.00046962741755303405 0.001991511391535472 0.0008272167722782053
          -0.00021037339132931598 0.000915995321454921 -0.000034813910086722855 0.0032037267281912474 -0.00030928348016222296 0.0012587944492557512
          0.00043076155285240447 -0.0016558297114594167 -0.0015205522283173178 -0.004293000304156469 0.00006419652128020203 -0.0011367313873918983
          -0.00023601468496489697 -0.0005487581226051308 -0.0004983431133369631 -0.0007682931276884464 -0.00042139492989184957 0.00006572385308756257
          -0.00017898282446043856 0.0001087799833499048 0.000005692737542306592 0.0009504049959649374 0.001724839778438847 0.0007954800120912875
          0.00025991824292498356 -0.00011013789139815988 0.0008359773730276521 0.00016626310824796597 0.00048331223173986304 -0.000016079687706643808
          0.003325450662115842 0.004227631542820243 0.0027599517747609603 0.006902880875885975 0.00625902183999838 0.01151023330652623
          0.011262289468195297 0.0036284550848942887 0.004115864580606643 -0.0005556847981074697 -0.0029373046998756314 -0.0018394026948872488
          0.0003091061434591924 0.00026953351010194915 0.00041053898308124337 -0.6209709612719096 0.003028253463271846 -1.2737997048587943
          0.004090598023206882 -0.6575904585497656 0.0022948775229258978 -0.0007567199506192113 -0.0013671671570328892 -0.0005505078569027488
          0.002358782471583387 0.0019197341401482326 -0.0009876918041160643 -0.0008180471965931746 -0.0015628973309492755 0.0005578243616129464
        </DataArray>
        <DataArray type="Float64" Name="resid_z" format="ascii" RangeMin="0" RangeMax="0">
          0 0 0 0 0 0
          0 0 0 0 0 0
          0 0 0 0 0 0
          0 0 0 0 0 0
          0 0 0 0 0 0
          0 0 0 0 0 0
          0 0 0 0 0 0
          0 0 0 0 0 0
          0 0 0 0 0 0
          0 0 0 0 0 0
          0 0 0 0 0 0
          0 0 0 0 0 0
          0 0 0 0 0 0
          0 0 0 0 0 0
          0 0 0 0 0 0
          0 0 0 0 0 0
          0 0 0 0 0 0
          0 0 0 0 0 0
          0 0 0 0 0 0
          0 0 0 0 0 0
          0 0 0 0 0 0
          0 0 0 0 0 0
          0 0 0 0 0 0
          0 0 0 0 0 0
          0 0 0 0 0 0
          0 0 0 0 0 0
          0 0 0 0 0 0
          0 0 0 0 0 0
          0 0 0 0 0 0
          0 0 0 0 0 0
          0 0 0 0 0 0
          0 0 0 0 0 0
          0 0 0 0 0 0
          0 0 0 0 0 0
          0 0 0 0 0 0
          0 0 0 0 0 0
          0 0 0 0 0 0
          0 0 0 0 0 0
          0 0 0 0 0 0
          0 0 0 0 0 0
          0 0 0 0 0 0
          0 0 0 0 0 0
          0 0 0 0 0 0
          0 0 0 0 0 0
          0 0 0 0 0 0
          0 0 0 0 0 0
          0 0 0 0 0 0
          0 0 0 0 0 0
          0 0 0 0 0 0
          0 0 0 0 0 0
          0 0 0 0 0 0
          0 0 0 0 0 0
          0 0 0 0 0 0
          0 0 0 0 0 0
          0 0 0 0 0 0
          0 0 0 0 0 0
          0 0 0 0 0 0
          0 0 0 0 0 0
          0 0 0 0 0 0
          0 0 0 0 0 0
          0 0 0 0 0 0
          0 0 0 0 0 0
          0 0 0 0 0 0
          0 0 0 0 0 0
          0 0 0 0 0 0
          0 0 0 0 0 0
          0 0 0 0 0 0
          0 0 0 0 0 0
          0 0 0 0 0 0
          0 0 0 0 0 0
          0 0 0 0 0 0
          0 0 0 0 0 0
          0 0 0 0 0 0
          0 0 0 0 0 0
          0 0 0 0 0 0
          0 0 0 0 0 0
          0 0 0 0 0 0
          0 0 0 0 0 0
          0 0 0 0 0 0
          0 0 0 0 0 0
          0 0 0 0 0 0
          0 0 0 0 0 0
          0 0 0 0 0 0
          0 0 0 0 0 0
          0 0 0 0 0 0
          0 0 0 0 0 0
          0 0 0 0 0 0
          0 0 0 0 0 0
          0 0 0 0 0 0
          0 0 0 0 0 0
          0 0 0 0 0 0
          0 0 0 0 0 0
          0 0 0 0 0 0
          0 0 0 0 0 0
          0 0 0 0 0 0
          0 0 0 0 0 0
          0 0 0 0 0 0
          0 0 0 0 0 0
          0 0 0 0 0 0
          0 0 0 0 0 0
          0 0 0 0 0 0
          0 0 0 0 0 0
          0 0 0 0 0 0
          0 0 0 0 0 0
          0 0 0 0 0 0
          0 0 0 0 0 0
          0 0 0 0 0 0
          0 0 0 0 0 0
          0 0 0 0 0 0
          0 0 0 0 0 0
          0 0 0 0 0 0
          0 0 0 0 0 0
          0 0 0 0 0 0
          0 0 0 0 0 0
          0 0 0 0 0 0
          0 0 0 0 0 0
          0 0 0 0 0 0
          0 0 0 0 0 0
          0 0 0 0 0 0
          0 0 0 0 0 0
          0 0 0 0 0 0
          0 0 0 0 0 0
          0 0 0 0 0 0
          0 0 0 0 0 0
          0 0 0 0 0 0
          0 0 0 0 0 0
          0 0 0 0 0 0
          0 0 0 0 0 0
          0 0 0 0 0 0
          0 0 0 0 0 0
        </DataArray>
        <DataArray type="Float64" Name="stress_zz" format="ascii" RangeMin="-7796138.064475595" RangeMax="8500036.447558146">
          5693905.171750542 8500036.447558146 5367510.4517141795 7378449.298516191 5041115.731677818 6256862.149474236
          -1653665.0836237269 -4679272.074062306 -1918073.7862309036 -5389391.659487555 -2182482.4888380794 -6099511.244912801
          2598739.3402948966 2768316.9240691564 2500710.1045074165 2731159.8469211096 2402680.868719936 2694002.769773063
          2171499.2295600004 2188033.1734708613 2093807.638512305 2145993.268301155 2016116.04746461 2103953.363131448
          -604442.2650739199 -146667.79478386184 -430958.1046977509 60843.114440148696 -257473.9443215818 268354.02366415947
          -2473869.165528834 -2700282.555435223 -2577912.681080046 -2769747.336661267 -2681956.1966312574 -2839212.1178873107
          37390.57117332588 -1113373.6584958276 -405401.9843660161 -1616791.1485634786 -848194.5399053581 -2120208.6386311296
          -2519824.909381547 -3051497.914771518 -1524457.1119428233 -2585268.1692190147 -529089.3145040998 -2119038.423666511
          2362533.1908269404 2479721.939187372 2596910.687547804 2411915.29985541 2468888.709009766 2525862.118164122
          3207361.663191217 3115824.528780576 3024287.3943699347 1548758.0414479151 1473145.1975636738 1397532.3536794325
          -1777390.8411871486 -1638742.6560804737 -1500094.4709737988 -2168696.419054481 -2303288.7851072075 -2437881.151159933
          501353.87205023435 163429.9951504444 -174493.88174934557 73209.57802405965 822602.7552090376 1571995.9323940156
          1436823.96124296 1265701.7987328274 1094579.6362226943 3401832.0585503937 3296610.5347832628 3191389.0110161323
          3458322.667171807 3377241.195359101 3296159.723546396 415099.0567913075 333640.2696806985 252181.4825700894
          -2402875.9702875284 -2282791.209192398 -2162706.448097268 -2097711.5347598265 -2213023.094006968 -2328334.65325411
          164947.850212796 -126443.0991426842 -417834.0484981644 2763793.6083340193 2746834.153510924 2729874.6986878286
          1078779.2621146082 977797.456271824 876815.6504290396 2886965.5822453653 2742445.6025497564 2597925.622854148
          1517382.4682271213 1422594.1102322885 1327805.752237456 -1084222.4856415293 -1153776.7382739757 -1223330.9909064218
          -2267851.68108089 -2169960.5336340833 -2072069.3861872773 -1639412.5329054298 -1779754.1851040795 -1920095.8373027295
          1083294.1741330214 856851.328057094 630408.481981166 2743646.2847385574 3009026.3702071793 3274406.4556758017
          943966.7048143856 827974.4276470515 711982.1504797176 1143813.417283924 996158.3499055051 848503.2825270864
          -1035105.7042977938 -1061624.8509293653 -1088143.9975609365 -2169459.8101388738 -2161113.0912478846 -2152766.372356895
          -2071558.2298155767 -1980168.329114511 -1888778.4284134451 -892305.8037436153 -1085667.1593009 -1279028.5148581848
          1527976.6256801556 1364487.1650604205 1200997.7044406855 2150000.9603955885 2620365.9069644446 3090730.8535333015
          554291.2549117501 411620.7197129518 268950.1845141535 -850520.835606456 -927204.4264095027 -1003888.0172125495
          -2416355.593519626 -2380808.1299804943 -2345260.666441363 -2220131.2095206687 -2198850.9692008747 -2177570.72888108
          -1772131.5739804816 -1682989.3062343602 -1593847.038488239 -491085.18249062763 -697101.0540779405 -903116.9256652534
          1353970.2311274444 1216307.9495764794 1078645.6680255146 2178570.518152781 2592805.7112672785 3007040.9043817767
          467071.4065627299 370741.3223373033 274411.23811187677 -245005.00509379216 -341383.90669691295 -437762.8083000338
          -2083697.7791419984 -2051007.2967331356 -2018316.8143242728 -2505946.4292596765 -2460813.36766658 -2415680.3060734826
          -2095100.0739528157 -2083474.7049348825 -2071849.335916949 -1465189.8017160818 -1382887.5272398072 -1300585.252763533
          -126092.19979419908 -327495.0540361542 -528897.908278109 1464015.628957375 1377974.3065584106 1291932.9841594466
          1979572.251900547 2410919.919628348 2842267.58735615 1255335.639728159 1113069.648936597 970803.6581450349
          -879200.3316647543 -920723.339815507 -962246.3479662593 -2617708.1144353882 -2556311.1686635255 -2494914.2228916627
          -2407899.597677881 -2392315.679435849 -2376731.7611938175 -1950247.4503761046 -1930981.638537454 -1911715.8266988033
          -1087555.0813515156 -1022006.0873728851 -956457.0933942546 434073.15038881655 246976.54495753266 59879.93952624875
          1936392.1727852707 1888080.0390480114 1839767.9053107523 2143658.24473795 2556322.536419001 2968986.8281000517
          1904430.6579552856 1805621.8199416273 1706812.981927969 -1551662.6471211088 -1576777.668883602 -1601892.6906460952
          -2723347.1757926904 -2681935.11559869 -2640523.0554046906 -2455958.4232730865 -2435851.1582374093 -2415743.893201731
          -1673127.152907323 -1645927.830146189 -1618728.5073850546 -579349.7658619621 -537594.0047621331 -495838.2436623041
          1062098.8851989626 863894.8809187856 665690.8766386088 2705732.458459847 2637415.430419603 2569098.402379358
          3135083.270539179 3485565.9202633975 3836048.569987616 948010.6787724986 817463.1912996653 686915.7038268314
          -2565437.372136799 -2542739.9033060875 -2520042.434475376 -2913882.0569134657 -2875523.2777820695 -2837164.4986506742
          -2305474.8433143655 -2279458.628197488 -2253442.4130806103 -1135414.4580820552 -1118314.4753523858 -1101214.4926227164
          205225.99400827906 217304.1008009835 229382.2075936879 1755297.2765270856 1588119.4028755368 1420941.529223988
          3320840.3268652475 3271537.529998188 3222234.7331311274 4023653.717273434 4238076.585142956 4452499.453012478
          -1406653.8300361263 -1532212.8232983914 -1657771.8165606565 -3270554.3987720595 -3184113.5229219054 -3097672.6470717513
          -3010567.0554005625 -2967352.317502924 -2924137.5796052837 -1859305.7387385732 -1842135.5622913782 -1824965.3858441836
          -329529.16927963577 -334205.5675270235 -338881.9657744111 1138375.727274039 1131440.9686466504 1124506.2100192625
          2439631.4401874384 2353901.1109857215 2268170.7817840055 2965079.5971626416 2958961.1758755445 2952842.7545884475
          4002357.6649565576 4162895.285734047 4323432.906511536 -3323138.1894889483 -3355172.025442303 -3387205.861395659
          -3809600.3200541893 -3677930.620813861 -3546260.921573533 -2802154.897957426 -2774896.2296004794 -2747637.5612435327
          -1098388.8246899159 -1102457.2794430505 -1106525.7341961854 619820.7891396179 598075.115761013 576329.442382408
          1925905.1116977269 1910333.6328930384 1894762.15408835 2783260.0093685463 2714667.5546135968 2646075.0998586467
          3063720.9325238736 3006939.110468466 2950157.288413057 4125261.859383393 4279171.485536732 4433081.1116900705
          -4437408.100912057 -4429350.704872062 -4421293.308832066 -4074933.4500912637 -3910191.7839302975 -3745450.1177693307
          -2185577.8556322497 -2190023.9971171734 -2194470.138602097 -100474.9676052109 -126691.0883926033 -152907.2091799957
          1591128.198974799 1562517.1137981503 1533906.0286215018 2656402.02247071 2632303.4954813393 2608204.968491969
          3157582.5022885916 3101972.225136609 3046361.9479846256 3557994.3637478 3504360.92313891 3450727.4825300206
          2837075.027813168 2898309.4212426944 2959543.8146722214 -5466872.807656125 -5450291.138443547 -5433709.4692309685
          -3871024.432708913 -3678306.3761353767 -3485588.319561841 -1162480.3441168386 -1212265.8831317448 -1262051.422146651
          1013726.2205538424 972266.3273764432 930806.4341990442 2532390.9131482476 2501408.6213556877 2470426.3295631283
          3427081.7600528374 3401214.3096562847 3375346.859259732 3757041.3546981933 3731300.1730331485 3705558.991368103
          3384350.0954745715 3347837.866091013 3311325.6367074554 2819599.0709946514 2836301.344091733 2853003.6171888146
          -3100918.855026235 -2877147.6765902312 -2653376.4981542267 204800.27154110745 103211.24371531943 1622.2158895314788
          2197623.8796072626 2147773.265635454 2097922.651663646 3384775.5001020953 3354243.345941402 3323711.1917807083
          4027440.114939132 3992997.0031135334 3958553.8912879354 4213564.663214508 4195648.59813775 4177732.533060992
          3679121.1603025366 3683117.4689290607 3687113.777555585 1702296.4156745933 1824146.6600302975 1945996.904386002
          -1862171.7434113203 -1581763.8490192315 -1301355.9546271425 1768243.9560352517 1616241.2957857044 1464238.6355361575
          3425131.465760924 3371782.87515756 3318434.2845541965 4181011.7899978687 4154406.997545125 4127802.2050923817
          4338532.6264497675 4291864.36901034 4245196.111570915 4050447.440836916 4030913.387490627 4011379.334144338
          3385564.644755028 3440962.871919972 3496361.0990849165 1902023.2841620012 2086776.2131800833 2271529.1421981654
          -401486.7946571056 -10828.683185458649 379829.42828618817 3335826.888982158 3141704.904623802 2947582.920265445
          4591744.678601505 4531879.114041436 4472013.549481368 4899791.987918288 4874132.951499229 4848473.91508017
          4515463.582334879 4467820.140977729 4420176.699620579 3261730.4414227917 3307999.4197704787 3354268.3981181663
          1235934.883617959 1348998.5783707523 1462062.2731235458 473430.90029699646 350442.63970321714 227454.3791094377
          1020431.9667414713 1593163.4737825072 2165894.980823543 4757102.474963745 4534288.321142469 4311474.167321191
          5526498.856618762 5453935.759912243 5381372.663205723 5301659.297387409 5274691.225090731 5247723.15279405
          4396271.142749938 4349848.0288315825 4303424.914913227 2347521.6190185472 2509831.980707027 2672142.3423955063
          -1215595.2238390404 -970027.4404608832 -724459.6570827257 -3299464.744718149 -3725848.476394151 -4152232.2080701524
          5886682.341654662 5652417.838514772 5418153.3353748815 6080779.694810507 5989700.437178416 5898621.1795463255
          5202999.944109838 5178198.2653413685 5153396.5865728995 3734670.8113287417 3680759.9457801785 3626849.080231615
          1239292.6623844777 1441475.6724569877 1643658.682529498 -2164436.122189937 -1998166.0835362598 -1831896.0448825825
          -2727980.9401670313 -3383659.366584508 -4039337.793001985 6595513.570200768 6357018.788433699 6118524.006666629
          6197968.114191289 6079984.987179337 5962001.860167386 4672731.128343785 4645551.118777413 4618371.109211041
          2772021.47860008 2703025.086261502 2634028.693922924 265698.9653077881 489141.69713556865 712584.4289633492
          -1996194.7581756674 -2002102.3685375166 -2008009.9788993658 -1767715.945621342 -2443481.392691258 -3119246.839761174
          6830815.294726778 6613679.176416445 6396543.058106111 5863344.104558696 5725483.774577663 5587623.444596631
          3846840.948279491 3811256.4991007214 3775672.0499219513 1747339.0940086863 1674765.015872258 1602190.9377358297
          -572822.2163838848 -319238.4936404656 -65654.77089704646 -2455902.3907505004 -2523321.748004967 -2590741.1052594343
          6548976.446900644 6387016.725602986 6225057.004305329 5005645.314016803 4854784.103295859 4703922.892574916
          2612149.6502326117 2564765.907711234 2517382.1651898557 394807.692357629 330339.22651867964 265870.76067973016
          -1882888.8177676024 -1645327.5733738816 -1407766.3289801609 2387751.0711396732 1302612.425029853 2508837.2733932375
          2342525.2505306182 2176523.1862648865 1268567.5733631786 2551211.5513282744 2175867.570456746 1965295.3013901003
          1234522.7216965044 2593585.829263312 2009209.8903828738 -541917.1760445713 -789813.4570301198 1848480.7378698206
          722307.4313852952 -934255.1305575988 -1167005.151741055 1751161.9730064909 655971.4674392331 -1326593.0850706259
          -1544196.8464519903 1653843.2081431607 589635.5034931711 1483406.1144394653 -1572683.2981972322 -2818060.1311017717
          1843534.714374748 -1524478.19925546 -3442389.12961022 2203663.3143100305 -1476273.1003136877 -4066718.128118668
          4563655.995829985 5270149.606819625 5976643.217809265 2285212.4168206975 4467801.004150985 2494902.6597189214
          3420325.5087374 2315060.0488353306 4633249.799974384 2333285.5326158796 3201624.166409114 2344907.680849965
          4798698.595797783 2171668.4055128368 2982922.8240808276 341223.9071709524 1222210.1064150974 26268.769842672802
          1199821.0888851304 -288686.36748560687 1177432.0713551636 4032816.239880845 4046239.2759148013 600642.1488642686
          4153778.895213218 4369487.978233987 813593.4381763235 4274741.550545591 4692736.680553174 1026544.7274883785
          1397032.1144666595 -1165414.4817458803 1377934.5016051468 -1443003.7689755731 1358836.8887436339 -1720593.0562052662
          -83761.0505425878 -790044.6083702848 -373921.78249881585 -704284.9284757299 -664082.5144550435 -618525.2485811752
          236499.8618348849 156463.66764794372 76427.47346100258 3323656.422885941 3857728.4191139694 3176252.133243386
          4014800.6078343983 3028847.8436008315 4171872.7965548267 -1608562.4283099463 -2314180.642825538 -1770078.8579272549
          -2917035.450300397 -1931595.2875445632 -3519890.2577752564 4585437.093988123 1251905.0650246856 4810016.345744244
          1263080.7559219734 5034595.597500362 1274256.446819261 3149260.9229435255 1725429.4971591674 3000333.8384789987
          1676490.6545505794 2851406.7540144706 1627551.8119419909 368620.35832643526 558749.058820097 748877.7593137587
          1211763.964162038 -315205.58959105145 1646440.4391858699 435973.24543854914 2081116.9142097014 1187152.080468149
          953958.9173127514 597689.2101040917 241419.50289543197 -3039475.3044907004 -2346198.8635901064 -1652922.4226895126
          -2626990.352851613 -3519056.3277391796 -4411122.302626746 -7796138.064475595 -6260961.107127433 -4725784.149779274
          -2758721.6228879495 -3000457.285666741 -3242192.9484455325 -4366497.577367507 -3812482.7519077063 -3258467.9264479056
          -2917378.3704553447 -2207558.0276915063 -1497737.6849276682 -3129321.895764069 -3635934.755030351 -4142547.614296632
          -3857700.2586346483 -3956075.647484241 -4054451.036333834 -4560405.429931065 -5031039.119871288 -5501672.809811512
          3441871.63380705 5573080.152977947 3275254.4772520554 5454418.433658427 3108637.3206970617 5335756.714338906
          702533.7105250566 642338.0283875018 582142.3462499472 -1555450.8209647965 -1612195.6812968594 -1668940.541628922
          -3525430.7882630983 -3321446.670739484 -3117462.5532158697 -4797699.969111944 -4886966.883072032 -4976233.79703212
          -913760.335640917 -427962.82255094947 57834.69053901844 222233.7992829089 491635.7404951473 761037.6817073855
          1233852.6207236908 4034643.552874334 953365.320966077 3964031.3174751117 672878.0212084634 3893419.082075888
          -1152683.4365615472 -3576488.8835993884 -1228222.9919904433 -3641756.152214067 -1303762.5474193392 -3707023.4208287457
          -483256.77448796656 -825922.5852007626 -422973.3737621029 -833183.0217260517 -362689.9730362392 -840443.4582513409
          -1085422.8324487288 -1082744.8761421498 -1080066.9198355707 -4272318.524441024 -4251741.047195125 -4231163.569949227
          346686.58385471057 240297.28667651472 182185.13944260095 88363.42844914278 17683.69503049142 -63570.42977822924
          2236577.007805768 2307268.6246780716 2377960.2415503757 1863845.2966517755 3887338.809287268 1898282.0338414968
          4094885.600405668 1932718.7710312186 4302432.391524069 -2099062.157299075 -1678644.239025008 -1258226.320750941
          -2717498.3644036707 -2692055.3857290316 -2666612.407054392 -3409254.899528054 -3792369.0412157564 -3288846.480144122
          -4252460.226365215 -3168438.0607601907 -4712551.411514674 -3459235.67273348 -3628270.0379113024 -3797304.4030891247
          -5863043.13349529 -6277989.393130785 -6692935.65276628 -1992616.3073819943 -1643301.1248639775 -1293985.94234596
        </DataArray>
        <DataArray type="Float64" Name="peeq" format="ascii" RangeMin="0" RangeMax="0.009275164813662579">
          0.00012227229583323566 0.00022355156029207475 0.000130911135276949 0.0002435824065637346 0.00013954997472066233 0.0002636132528353945
          0.000014300259312342742 0.000020173053677784526 0.000013401349444641805 0.000019518058780473997 0.000012502439576940867 0.000018863063883163467
          0.0000034051292375014044 0.000006810258475002809 0.0000017025646187507022 0.0000034051292375014044 0 0
          0 0 0 0 0 0
          0.000027153430406900423 0.00000519847759984041 0.0000293900677860098 0.0000071428639433239105 0.000031626705165119166 0.000009087250286807411
          0.00022539826054986432 0.00016885379471549402 0.00022887496911587696 0.00017234037265278056 0.00023235167768188966 0.0001758269505900671
          0.0006625711749967076 0.0006032817671656159 0.0006696542537952919 0.0006111633950061055 0.0006767373325938762 0.0006190450228465951
          0.0012730931385618828 0.0012634759122896247 0.0012913851343237673 0.0012809189492014694 0.0013096771300856516 0.0012983619861133139
          0.000010496515687198292 0.00000911993199508168 0.000007743348302965066 0.000004213732473450481 0.000003642320054404807 0.0000030709076353591326
          0 0 0 0.000005664088506440222 0.000006502277781602104 0.000007340467056763987
          0.00009514625730749935 0.00009830120612471515 0.00010145615494193092 0.00037835001442014136 0.0003815833004937399 0.0003848165865673385
          0.0008505286854095697 0.000856501116831668 0.0008624735482537665 0.001452433184800304 0.0014701628236782835 0.0014878924625562626
          0 0 0 0 0 0
          0 3.2645344325765546e-8 6.529068865153109e-8 0.00003886434495728838 0.000040773123316971764 0.00004268190167665515
          0.0002226055717445214 0.00022636797825389412 0.0002301303847632668 0.0006040943403967662 0.0006068199108210034 0.0006095454812452407
          0.0011442591320539935 0.0011494558922080598 0.0011546526523621258 0.0017744732125577324 0.001789650969704437 0.0018048287268511414
          0 0 0 0 0 0
          0.000006783732899506165 0.00000771188890532177 0.000008640044911137374 0.00011384589737598613 0.00011693581799441574 0.00012002573861284535
          0.00041246232863349547 0.00041608714332336553 0.0004197119580132357 0.0008900536895652941 0.0008919877185163636 0.0008939217474674332
          0.001491394779626812 0.0014958392147353282 0.0015002836498438446 0.002123914818589402 0.002137462640206046 0.0021510104618226895
          0 0 0 5.5683782527536395e-8 3.271246204210704e-7 5.985654583146045e-7
          0.00004467909336798756 0.000047115080140758645 0.00004955106691352973 0.0002491220906224766 0.0002535185384168687 0.0002579149862112608
          0.0006585634578227728 0.0006618410918441194 0.0006651187258654662 0.0012268635659348952 0.0012279314937234226 0.00122899942151195
          0.0018865403002384564 0.00189075072855811 0.0018949611568777635 0.0025715419155129663 0.002583673109748857 0.0025958043039847473
          0 0 0 0.000016754569974366742 0.000018168260592578884 0.000019581951210791026
          0.00014178956246956387 0.00014569742632977655 0.00014960529018998923 0.0004602459667790093 0.0004648754580338127 0.0004695049492886161
          0.0009659637427332536 0.0009687650460781232 0.0009715663494229926 0.0016166766675715762 0.0016171589121017904 0.0016176411566320046
          0.0023425977520796443 0.0023466217222467903 0.002350645692413936 0.0030931078018771978 0.0031029398210468454 0.0031127718402164935
          0 0 0 0.0000027237034104231236 0.0000033649617037715505 0.0000040062199971199774
          0.00007293496612166282 0.00007593551814196702 0.00007893607016227122 0.00030986253868209654 0.0003146088034804685 0.0003193550682788405
          0.0007401616011290498 0.0007444821317625287 0.0007488026623960074 0.001340953094869537 0.0013431693764758177 0.0013453856580820983
          0.0020698856787230813 0.002069733949778333 0.0020695822208335844 0.0028519345463748733 0.002855195123891329 0.0028584557014077845
          0.0036386997200808717 0.0036459702531877122 0.0036532407862945528 0 0 0
          0.000028859291587192047 0.00003061891440587786 0.00003237853722456367 0.00018785967364046854 0.00019210002274919186 0.00019634037185791513
          0.0005443448843494963 0.0005491076945157386 0.000553870504681981 0.0010860412291840932 0.0010899534122057772 0.001093865595227461
          0.0017869219389235465 0.001788322495895577 0.0017897230528676079 0.0025895642483212754 0.0025884165409001056 0.002587268833478935
          0.0034049605830278103 0.003406916222028962 0.0034088718610301135 0.004183200171005142 0.004188175587965225 0.004193151004925308
          0.0000051936817268688795 0.000005898446002011266 0.000006603210277153653 0.00009595207653433468 0.00009905063134115085 0.00010214918614796702
          0.0003685194113668298 0.0003734886810541057 0.0003784579507413816 0.0008411888797440469 0.0008458912768291673 0.000850593673914288
          0.0014991015860863783 0.0015023882945679407 0.0015056750030495026 0.0022996958764227955 0.0023000107917988183 0.002300325707174841
          0.0031647965808213794 0.0031624364727427 0.0031600763646640207 0.00398885862643562 0.0039891196252198335 0.003989380624004046
          0.0047111066937269176 0.004713892695530404 0.004716678697333891 0.000034338840258219654 0.000036214226423941224 0.000038089612589662794
          0.00021383821263157285 0.00021846260276169193 0.00022308699289181098 0.00060691699542235 0.0006122759701094682 0.0006176349447965866
          0.0012050489581911694 0.0012094259036763357 0.0012138028491615017 0.0019824007526298014 0.0019846010964850143 0.001986801440340227
          0.0028697187322929076 0.0028686274915623857 0.0028675362508318635 0.0037700016071079223 0.003766380707929382 0.0037627598087508415
          0.004575627478578637 0.004574042742228854 0.0045724580058790695 0.00522465180467703 0.005225019619613728 0.0052253874345504275
          0.00010090364578428066 0.0001042781866280772 0.00010765272747187376 0.0003886982684567363 0.00039449648075650675 0.0004002946930562771
          0.0009069628618583123 0.0009125329269582083 0.0009181029920581044 0.0016419194066059767 0.0016454851398903006 0.0016490508731746244
          0.0025343598290577126 0.002534990555674651 0.0025356212822915895 0.0034863160303392304 0.0034836479687163384 0.003480979907093446
          0.004390659091382344 0.004385801688557848 0.004380944285733351 0.005158519081033259 0.005155021491510041 0.005151523901986822
          0.0058485267463577705 0.005846288021882037 0.005844049297406303 0.00021797419927679115 0.00022320156673465662 0.0002284289341925221
          0.000622140547399717 0.0006288532812813053 0.0006355660151628938 0.0012816812379748146 0.001287008979571984 0.0012923367211691535
          0.0021567399952275973 0.002158915781273179 0.00216109156731876 0.003148385442049463 0.0031471674478332767 0.003145949453617091
          0.004138334151401059 0.004134181458032992 0.004130028764664926 0.005023173011871907 0.005017273912003554 0.005011374812135204
          0.005728979173567262 0.005723900777082189 0.005718822380597115 0.006223506307929731 0.006220343170783893 0.0062171800336380525
          0.0003943219217959821 0.000400851547766354 0.000407381173736726 0.0009290313273758782 0.0009362585807050682 0.0009434858340342583
          0.001744225833187107 0.0017486463784513392 0.0017530669237155712 0.002751164868028542 0.0027514291390606667 0.0027516934100927913
          0.0038154081923082225 0.0038122038276337342 0.003808999462959245 0.004809434466904799 0.004803844442797351 0.004798254418689902
          0.005638395050749872 0.005631663420002813 0.0056249317892557524 0.006238662768116057 0.0062325692041036666 0.006226475640091277
          0.0065817827003949066 0.006576975241891565 0.0065721677833882235 0.0006355033539660824 0.000642661829288039 0.0006498203046099956
          0.0013283473885961307 0.0013353703113873484 0.0013423932341785662 0.0023039299919116545 0.002306715418211349 0.002309500844511044
          0.003420262916001927 0.003418247593872553 0.0034162322717431783 0.004519605656318079 0.004514404386843528 0.004509203117368977
          0.005474870547761388 0.005467920731298947 0.005460970914836504 0.006200247734217126 0.006192899394610794 0.006185551055004461
          0.0066527985861738834 0.006646216313766433 0.0066396340413589815 0.006831068484813241 0.006825005311346084 0.006818942137878928
          0.0018387876409298016 0.0018447107251971693 0.0018506338094645372 0.0029629836362142946 0.002963504776541933 0.002964025916869571
          0.004149946780625053 0.004145483087366971 0.004141019394108888 0.005234988130352064 0.0052280268802260416 0.0052210656301000195
          0.006104361901949193 0.0060963868544198965 0.0060884118068906 0.006687366582486352 0.006679636549339038 0.006671906516191723
          0.00695795550048971 0.006951412558018381 0.006944869615547053 0.0069515391920026235 0.006945184045409419 0.006938828898816217
          0.0024749072900008455 0.0024789107455559477 0.0024829142011110494 0.003714468082126006 0.00371242828430145 0.0037103884864768946
          0.004919253657763672 0.004912362991609061 0.004905472325454452 0.005931540698831082 0.005923134381180293 0.005914728063529502
          0.006663474066570097 0.006655123236700811 0.006646772406831525 0.007074908556881727 0.00706770540875473 0.007060502260627735
          0.007167209706935997 0.007160996256454287 0.007154782805972578 0.0069889459313561015 0.006981829554008822 0.006974713176661542
          0.0032426790396722924 0.0032442848424484604 0.003245890645224628 0.004542067165804487 0.00453770940713579 0.004533351648467093
          0.005702905012435425 0.005693873266500475 0.005684841520565523 0.006583218288382433 0.006573655471183406 0.006564092653984378
          0.007126464940301145 0.007118367759657714 0.007110270579014282 0.007335607682478705 0.00733011502849415 0.007324622374509597
          0.007269901380081632 0.007264303172357806 0.00725870496463398 0.007009806040412755 0.007000084767387047 0.006990363494361339
          0.004137046115721437 0.004136248489485519 0.004135450863249602 0.005421888327634114 0.005415960665082367 0.0054100330025306205
          0.006471501021163347 0.0064609315675170234 0.0064503621138707005 0.0071664340270701735 0.0071562375705950055 0.007146041114119838
          0.007483974064168292 0.007476607450832665 0.007469240837497041 0.007467324379217974 0.007463722086528887 0.0074601197938398
          0.007229388987228929 0.0072241086222832075 0.007218828257337486 0.006898012626799451 0.00688464109153605 0.006871269556272649
          0.006325015449810607 0.0063185628440427565 0.006312110238274906 0.007193161276500723 0.007181872624070478 0.007170583971640234
          0.007654138738016373 0.0076440395887670785 0.007633940439517784 0.007720378508453475 0.007714222215447764 0.007708065922442056
          0.007465859514726025 0.007463678980033002 0.007461498445339979 0.007019190867554391 0.007013391813283598 0.0070075927590128075
          0.00647278382542455 0.006458885597033062 0.0064449873686415774 0.007216872949826193 0.007210999011453776 0.007205125073081358
          0.007832786454153733 0.007821630819425279 0.0078104751846968246 0.00801021664676654 0.008000824437443512 0.007991432228120482
          0.007792846190121043 0.007788092739222861 0.007783339288324679 0.007273949768702191 0.007272703881110205 0.007271457993518219
          0.006577511034660143 0.006571519530818361 0.00656552802697658 0.005767115374717511 0.005757386672633307 0.005747657970549104
          0.008052617394772194 0.008047965818457879 0.008043314242143561 0.00834428236913871 0.008334027162412994 0.008323771955687278
          0.00818286888676857 0.008174676082760242 0.008166483278751916 0.00764012769225327 0.007636937800943309 0.007633747909633347
          0.006829425768885098 0.006829454168605037 0.0068294825683249735 0.005891148397314659 0.005886908751055659 0.005882669104796663
          0.008768468600029469 0.008765149507363162 0.008761830414696855 0.008663121731789455 0.008654520336630372 0.008645918941471289
          0.008109591926836097 0.00810333219332543 0.008097072459814766 0.007215748383857569 0.007214777982974747 0.0072138075820919224
          0.006130666599886442 0.006133066945562869 0.006135467291239296 0.0062575765749983605 0.006758549302063385 0.006768501471923348
          0.006527487259442971 0.006252691026192957 0.006750125662918667 0.006760982345413311 0.006519543905223895 0.00624780547738755
          0.006741702023773949 0.006753463218903275 0.006511600551004818 0.005571328594395285 0.005859566610781481 0.00533358519386898
          0.0049170510949905185 0.0055618751259077885 0.00584961759996968 0.005329888699494011 0.004914532769259439 0.005552421657420292
          0.00583966858915788 0.005326192205119042 0.004912014443528359 0.005243711949348927 0.004881506500933306 0.005855543917159527
          0.005248445357250684 0.004883604156770522 0.005846758922219868 0.005253178765152443 0.004885701812607739 0.005837973927280211
          0.004854480912025055 0.004864138766370644 0.004873796620716232 0.006701872089623756 0.0065275057963200146 0.0066514775859505115
          0.006637694724156292 0.006695254345397068 0.006522122932290608 0.006641431585197654 0.006628420866659923 0.006688636601170381
          0.006516740068261204 0.0066313855844447964 0.006619147009163553 0.005112745815035942 0.004406204125458234 0.005105040071474188
          0.004406540598950427 0.005097334327912432 0.004406877072442621 0.005928280043175499 0.005248926762208126 0.005294581262233275
          0.005927630891980243 0.00525217713769163 0.005298576772432393 0.005926981740784987 0.005255427513175135 0.005302572282631515
          0.0038444329003824076 0.004585137755190548 0.0038491650194725185 0.004580232822012163 0.0038538971385626295 0.00457532788883378
          0.006315296577443149 0.005427522994402313 0.0063074655249700405 0.0054304051297222 0.006299634472496933 0.0054332872650420866
          0.006292138976787603 0.006282329567338248 0.006272520157888895 0.006106991943247765 0.005382530071666838 0.0061045728776652295
          0.005386191897778036 0.006102153812082692 0.005389853723889234 0.006644543808229372 0.006291408353067881 0.006635789775856385
          0.00628520719429693 0.0066270357434834 0.006279006035525981 0.006355648877475427 0.006475502003852107 0.00635106889188478
          0.006467174537355184 0.006346488906294132 0.00645884707085826 0.005709850675932167 0.006116914374992944 0.00570496523772511
          0.006110529826017015 0.005700079799518052 0.006104145277041087 0.003280823554617255 0.003291373626707941 0.003301923698798626
          0.0024431383929316174 0.0027511995495063677 0.00246140337303209 0.0027672911554381206 0.002479668353132563 0.0027833827613698726
          0.005986714243645668 0.005976656623650451 0.0059665990036552345 0.002276715534954718 0.002295208169593194 0.0023137008042316697
          0.006525463397521497 0.006509899626601742 0.006494335855681988 0.00199436045651933 0.0020143142932984854 0.0020342681300776406
          0.004054263128249252 0.004053195452029336 0.004052127775809418 0.003497051986936283 0.0035011561628460613 0.00350526033875584
          0.00306648012181681 0.0030755042259592385 0.0030845283301016674 0.0049253227187542985 0.004921008104425324 0.004916693490096349
          0.005032323581691291 0.005031529473185724 0.005030735364680159 0.004054494598719689 0.004054631646233 0.004054768693746311
          0.00870941788085097 0.009275164813662579 0.008703355838428278 0.009273285689170544 0.008697293796005586 0.009271406564678508
          0.007734345977539507 0.0077311437043948526 0.007727941431250197 0.006510600584604585 0.0065128019246429875 0.006515003264681388
          0.0052318622671748884 0.0052372650331437955 0.0052426677991127026 0.00409630691392429 0.004098992408700608 0.004101677903476927
          0.003969005032288483 0.003980406027108812 0.003991807021929143 0.004023652671362121 0.0040323835683553294 0.004041114465348538
          0.006618872006240256 0.006310210721755916 0.006609667612521964 0.006307200424242025 0.006600463218803672 0.006304190126728134
          0.004259157559905361 0.004258494356988584 0.004263964728788637 0.004263607472274913 0.0042687718976719136 0.004268720587561241
          0.0061081975287273285 0.00638943207250639 0.006102218574399212 0.006382340935366529 0.006096239620071097 0.006375249798226667
          0.005764125538792418 0.005757867326747836 0.005751609114703254 0.004213115795846293 0.004219421953667429 0.004225728111488564
          0.006584542461546088 0.006673446497454934 0.006574613333955238 0.006667372301716689 0.006564684206364385 0.006661298105978445
          0.004438981297234124 0.00444469372652651 0.0044504061558188965 0.00482750526099141 0.005598276302391283 0.0048316410798847804
          0.005603432673239462 0.00483577689877815 0.00560858904408764 0.00401227910412837 0.004020306433617329 0.0040283337631062885
          0.0053793645040344515 0.005372226234564615 0.005365087965094778 0.0028339178288061422 0.0036213943479896766 0.002842283617967131
          0.003621921653653859 0.00285064940712812 0.003622448959318042 0.004993667192622605 0.004985091860964138 0.0049765165293056725
          0.004518236232605892 0.004510187006900925 0.0045021377811959576 0.0032709150328725754 0.003284020379371097 0.003297125725869618
        </DataArray>
        <DataArray type="Float64" Name="pe11" format="ascii" RangeMin="0" RangeMax="0.009266629737625032">
          0.00012150970387232554 0.00022205517231284647 0.0001297657659641842 0.00024131333970026848 0.0001380218280560429 0.00026057150708769044
          0.000014236369341153063 0.00002005534865376437 0.000013288850567004587 0.000019301713880301197 0.000012341331792856111 0.000018548079106838026
          0.0000034008740648146524 0.000006801748129629305 0.0000017004370324073262 0.0000034008740648146524 0 0
          0 0 0 0 0 0
          0.000027142789263090612 0.000005198188112673859 0.00002937954087796184 0.000007142223429710875 0.000031616292492833065 0.000009086258746747892
          0.000225293512001944 0.00016880816031041365 0.00022876938891762947 0.000172290174868189 0.00023224526583331492 0.00017577218942596437
          0.000662166059418732 0.0006029338854046379 0.0006692497356948952 0.0006108179274529671 0.0006763334119710584 0.0006187019695012963
          0.0012718595051374733 0.0012621656163656146 0.0012900574479271804 0.0012794565827557011 0.0013082553907168876 0.0012967475491457874
          0.000010482117715902309 0.000009109096114049987 0.000007736074512197665 0.000004208695014270878 0.000003637993626853988 0.000003067292239437098
          0 0 0 0.00000566168668755936 0.00000650004407584713 0.0000073384014641348995
          0.00009508111988216941 0.00009824024391840148 0.00010139936795463354 0.00037802910301808413 0.00038127369340578646 0.0003845182837934887
          0.0008497292848644946 0.0008557159176233018 0.000861702550382109 0.0014511387177394025 0.0014688346233794301 0.0014865305290194587
          0 0 0 0 0 0
          0 3.264279657784687e-8 6.528559315569373e-8 0.00003884283188610144 0.000040753509549040604 0.000042664187211979755
          0.00022240383521441627 0.0002261784697574431 0.00022995310430046993 0.0006033763904987701 0.0006061266465794314 0.0006088769026600926
          0.0011426866616080006 0.0011479119216094642 0.0011531371816109282 0.001772307319704951 0.0017874520197629941 0.0018025967198210373
          0 0 0 0 0 0
          0.00000678212149060175 0.000007710086757237671 0.000008638052023873591 0.00011376423703316544 0.00011685823377560127 0.0001199522305180371
          0.00041199360515894974 0.0004156387942424884 0.00041928398332602727 0.0008887034483391589 0.0008906711532742154 0.0008926388582092716
          0.0014887780833733942 0.0014932534146400436 0.001497728745906693 0.0021204727462999506 0.002134017041876055 0.002147561337452159
          0 0 0 5.56831083372624e-8 3.2708748305271893e-7 5.984918577681755e-7
          0.000044655753043336054 0.00004709103626311232 0.00004952631948288859 0.0002488861731778844 0.0002532866003214872 0.00025768702746509003
          0.0006576174602254919 0.0006609194724083965 0.0006642214845913012 0.001224593836236916 0.00122570139542979 0.0012268089546226641
          0.00188272859433152 0.001886975122700622 0.0018912216510697246 0.002566980663757411 0.002579119903001802 0.002591259142246193
          0 0 0 0.000016748479621068606 0.00001816147864088542 0.000019574477660702237
          0.00014167480388503932 0.00014558189653971724 0.0001494889891943951 0.0004596559505062019 0.0004642896824633098 0.00046892341442041785
          0.0009642476732768988 0.0009670735270677785 0.0009698993808586583 0.0016133177448088292 0.0016138377062727555 0.001614357667736682
          0.0023377166932592444 0.0023417657242145035 0.002345814755169762 0.0030874612777036774 0.0030972549687435912 0.003107048659783505
          0 0 0 0.00000272314110153051 0.0000033641067781180047 0.000004005072454705499
          0.00007288870744728444 0.0000758875214014779 0.00007888633535567136 0.00030951433456358424 0.0003142603073213472 0.0003190062800791101
          0.0007389177516386528 0.000743245216858307 0.0007475726820779613 0.0013381481494740798 0.0013403905684552973 0.0013426329874365148
          0.0020654063689675498 0.002065282900311284 0.0020651594316550186 0.0028462780508487287 0.002849531259802221 0.0028527844687557123
          0.0036324027489083865 0.003639581155997344 0.003646759563086302 0 0 0
          0.000028845122633073397 0.00003060371210189801 0.00003236230157072262 0.0001876890041322501 0.00019192598408130832 0.00019616296403036657
          0.0005435301414441758 0.0005482921537980703 0.0005530541661519649 0.001083777067367459 0.0010877000632947007 0.0010916230592219424
          0.0017827477134581 0.0017841793299943091 0.0017856109465305187 0.00258400577375052 0.0025828787228647787 0.0025817516719790377
          0.0033989300009683613 0.0034008443133598087 0.003402758625751257 0.004177025681143588 0.004181858026468668 0.0041866903717937476
          0.000005192111453935731 0.000005896401519677144 0.000006600691585418557 0.00009588851694061943 0.0000989837394212854 0.00010207896190195137
          0.000368061659703151 0.00037302438108819275 0.00037798710247323436 0.0008395370186281406 0.0008442387409567656 0.0008489404632853908
          0.0014954031817523746 0.0014987038074509846 0.0015020044331495951 0.0022939856706592964 0.002294331148087776 0.002294676625516255
          0.003158268503587337 0.0031559189458577335 0.0031535693881281296 0.003982723427762593 0.003982920003079645 0.003983116578396697
          0.004705463752593615 0.004708073635375692 0.00471068351815777 0.000034324130343322065 0.000036197029901121685 0.0000380699294589213
          0.00021363923473073534 0.000218254031506971 0.0002228688282832067 0.0006058646962313456 0.0006112128563338711 0.0006165610164363968
          0.001202026662193617 0.0012064068621624755 0.001210787062131334 0.0019768637059229817 0.001979081546631537 0.001981299387340092
          0.002862515808650248 0.002861442422083188 0.002860369035516128 0.0037627772240978992 0.0037591436578539835 0.0037555100916100673
          0.0045695135813538755 0.004567850002602419 0.004566186423850964 0.005219482868087082 0.005219663336906138 0.005219843805725194
          0.00010083987630275328 0.00010420627880723645 0.00010757268131171964 0.0003881481703222864 0.000393927083584551 0.0003997059968468155
          0.0009047612773906196 0.0009103193362951627 0.0009158773951997058 0.0016368707795116405 0.0016404472983994024 0.0016440238172871638
          0.0025267166844726682 0.002527366147034358 0.002528015609596048 0.003477889462498396 0.003475225463108104 0.0034725614637178123
          0.004383411137957634 0.004378526224643547 0.004373641311329459 0.0051533541009476545 0.005149779225400186 0.005146204349852718
          0.00584505251132898 0.005842650313917737 0.005840248116506493 0.00021774854291570987 0.0002229560717013403 0.00022816360048697067
          0.0006207807379810184 0.00062746313982362 0.0006341455416662214 0.0012775071874360582 0.0012828255172087015 0.0012881438469813447
          0.002149044367465506 0.002151236949434066 0.0021534295314026264 0.003138708780313356 0.00313750240597154 0.0031362960316297234
          0.004129300724065691 0.004125135882760885 0.004120971041456079 0.005016661228452662 0.0050107226944398455 0.005004784160427031
          0.005725225632057082 0.005720071913783594 0.0057149181955101075 0.0062212656688578755 0.006217975099723659 0.006214684530589442
          0.00039363032254836623 0.00040011866411936473 0.00040660700569036324 0.0009260243820632668 0.0009332102718282438 0.0009403961615932208
          0.001737086935037332 0.0017415020041046093 0.0017459170731718872 0.0027404974336435227 0.0027407765548921616 0.0027410556761408
          0.0038042288211256247 0.003801018545486228 0.0037978082698468304 0.004800655667311458 0.004795027145995237 0.004789398624679016
          0.005633089977830754 0.005626293511174112 0.005619497044517469 0.006236055182447039 0.0062298736210854525 0.006223692059723866
          0.0065804814632446675 0.00657556191110478 0.006570642358964894 0.0006336481360147651 0.0006407306214063846 0.0006478131067980042
          0.0013224408472960027 0.0013294091114205062 0.00133637737554501 0.00229294910049259 0.0022957245119715588 0.0022984999234505273
          0.0034068360684821842 0.003404816661784755 0.003402797255087326 0.004507810792281938 0.004502573272790104 0.004497335753298271
          0.005467128885144571 0.005460110660847797 0.005453092436551023 0.006196454232487712 0.006189018952590665 0.006181583672693619
          0.006651323774721293 0.006644646135977615 0.006637968497233937 0.006830223003905763 0.006824060304659423 0.006817897605413086
          0.001828477404910121 0.001834317282373075 0.001840157159836029 0.0029478331489427665 0.0029483178034444848 0.002948802457946204
          0.004134663015339781 0.0041301572818214175 0.004125651548303053 0.005223705651480864 0.005216665115980979 0.005209624580481095
          0.00609824964062636 0.006090174570253212 0.006082099499880062 0.006685039771023979 0.00667721077132546 0.0066693817716269406
          0.006957007808427284 0.006950386735707216 0.006943765662987147 0.006950194260698382 0.0069437625273319715 0.006937330793965562
          0.0024587384540599878 0.0024626020833673204 0.0024664657126746534 0.003695637368131092 0.003693508917106829 0.003691380466082567
          0.004903613633143136 0.00489663594280435 0.004889658252465562 0.005922017819424641 0.0059134880139165135 0.005904958208408389
          0.006659359617795847 0.006650879214768533 0.006642398811741219 0.007073499714492529 0.007066187868873689 0.00705887602325485
          0.007165398595671188 0.007159109419877968 0.007152820244084745 0.0069843473269989315 0.006977218526139932 0.006970089725280932
          0.003219856483302601 0.0032212240598866156 0.00322259163647063 0.004520987025889163 0.004516460923225075 0.004511934820560987
          0.005688679773967621 0.005679519075246634 0.005670358376525648 0.006576408823199174 0.0065666985467553686 0.006556988270311565
          0.00712413913773748 0.007115911904571834 0.00710768467140619 0.007333791878850786 0.007328207357583281 0.007322622836315779
          0.007265552531285593 0.007259845468765071 0.007254138406244549 0.007001500114190547 0.006991700704617902 0.006981901295045256
          0.004108112389647648 0.004106944326500977 0.004105776263354306 0.00540082566287265 0.0053946307477409795 0.005388435832609308
          0.006460315724102755 0.006449581593130891 0.006438847462159027 0.007162445516046548 0.007152102168901345 0.007141758821756141
          0.007481967580189368 0.007474505772099919 0.00746704396401047 0.0074622899771445315 0.007458645063712403 0.007455000150280276
          0.007219016914289543 0.007213644504595325 0.007208272094901106 0.006884478312638714 0.006870989171417501 0.006857500030196289
          0.006306558566793888 0.006299747287362558 0.0062929360079312276 0.007185884815206203 0.007174408251819857 0.007162931688433511
          0.007651684028912448 0.007641454105721034 0.007631224182529621 0.007715684753422502 0.007709478764405117 0.007703272775387732
          0.007454066511363899 0.007451894783809256 0.007449723056254613 0.007000656061851592 0.006994826369732586 0.00698899667761358
          0.006452932928540189 0.006438983102780355 0.00642503327702052 0.007203128049247012 0.007196846357335798 0.007190564665424582
          0.007828717740629963 0.007817374558849944 0.007806031377069925 0.008006193589299609 0.007996702241898109 0.007987210894496609
          0.0077815630110259215 0.0077768119098532065 0.0077720608086804905 0.007253249716206594 0.007252055729204411 0.007250861742202229
          0.006552233709882429 0.006546224671111925 0.006540215632341421 0.0057437668345934985 0.005733904393351448 0.005724041952109397
          0.008044141817385523 0.008039105107985747 0.008034068398585968 0.008340408664843318 0.008329998929696743 0.008319589194550166
          0.008172529461995006 0.008164287936752144 0.008156046411509282 0.007618569956418706 0.007615442923744943 0.007612315891071182
          0.006799442361454547 0.006799554317325859 0.00679966627319717 0.0058609776644029605 0.005856678462122649 0.005852379259842335
          0.008763048170035596 0.008759443217365707 0.008755838264695816 0.00865377259420197 0.00864508802927194 0.00863640346434191
          0.008087305253153166 0.008081063019059065 0.008074820784964961 0.007181401058069081 0.0071805427347161 0.007179684411363118
          0.006092636605745648 0.006095122624181946 0.006097608642618245 0.00624827255430622 0.006755525939003157 0.006766957593606647
          0.006523853595199747 0.006243288591409147 0.006746984535460997 0.006759352673567355 0.006515853096783012 0.006238304628512073
          0.0067384431319188354 0.0067517477535280635 0.00650785259836628 0.005566164948029963 0.005855506938916648 0.005328468401760375
          0.004910946266080956 0.005556556359266388 0.005845443955137512 0.005324580283456312 0.004908250219104128 0.005546947770502815
          0.005835380971358375 0.005320692165152249 0.0049055541721273 0.005222332037103844 0.00486022578301623 0.005833259651127628
          0.005227152331261064 0.004862173408102922 0.0058244232757753474 0.0052319726254182845 0.004864121033189615 0.005815586900423068
          0.004836462975568476 0.004846268784172533 0.004856074592776591 0.006701041406213132 0.0065261070408129465 0.006650589574727799
          0.006636484294029161 0.006694313467597512 0.006520584384149255 0.0066404183222320765 0.006627100046314262 0.006687585528981891
          0.006515061727485562 0.0066302470697363535 0.006617715798599362 0.005106602910578804 0.004399668393210326 0.005098708362981288
          0.0043998469306449715 0.005090813815383771 0.004400025468079618 0.0059165329128874474 0.005232722226430818 0.005277727481268066
          0.005915935649766759 0.005236033149903974 0.005281607377747737 0.005915338386646071 0.005239344073377131 0.005285487274227408
          0.003838338851322843 0.004578282772749298 0.0038429360097076014 0.004573159347279694 0.0038475331680923605 0.004568035921810092
          0.006299017875724606 0.00541011756417638 0.006291259919097171 0.005412972414104483 0.0062835019624697345 0.005415827264032584
          0.006289972208368279 0.006280040617713473 0.006270109027058669 0.006099163129490211 0.005368882495151021 0.006096731848442876
          0.005372673648255024 0.006094300567395539 0.005376464801359027 0.006635384539033612 0.006278197813699326 0.006626634664579078
          0.006271890312900859 0.006617884790124543 0.006265582812102392 0.006353710804605337 0.006474172523980817 0.0063489677709677545
          0.0064657011842553696 0.006344224737330172 0.0064572298445299235 0.005705694641117427 0.006114220412284628 0.005700607311674485
          0.006107661919327244 0.005695519982231542 0.00610110342636986 0.0032756639358757214 0.0032861004072676334 0.003296536878659545
          0.002440091305887359 0.002747105873355868 0.002458091935206018 0.0027630001549486037 0.0024760925645246775 0.002778894436541338
          0.005983479743815141 0.005973307240622457 0.005963134737429771 0.002272878602489947 0.0022911331663215844 0.002309387730153222
          0.006507329658055079 0.006491717448296145 0.006476105238537211 0.001990243962011201 0.0020099332830147373 0.0020296226040182734
          0.004047232589132885 0.004045886225833734 0.0040445398625345835 0.003488261456222991 0.0034919571349943646 0.0034956528137657377
          0.0030581582274437635 0.0030667242919416855 0.0030752903564396084 0.004900660683556738 0.004896059742789131 0.004891458802021524
          0.005000435659086867 0.004999522446005399 0.004998609232923931 0.00403219761880466 0.004031940934612356 0.004031684250420051
          0.008686642303289357 0.009266629737625032 0.008680589187457174 0.009264615926316973 0.008674536071624992 0.00926260211500891
          0.0076951561006315 0.007692021481286941 0.007688886861942381 0.006463865782559372 0.006466169583091897 0.006468473383624421
          0.005190303880605292 0.0051957320797855495 0.005201160278965807 0.0040682135238193405 0.004070724490095083 0.004073235456370825
          0.003951307496048667 0.003962734707828831 0.003974161919608997 0.004006428762527372 0.004015217433734641 0.0040240061049419094
          0.006617474157647274 0.0063060678109037056 0.0066081305274911855 0.006302976703172501 0.0065987868973350974 0.006299885595441297
          0.004240594850254295 0.004240589809940212 0.004245536912312019 0.004245625511952764 0.004250478974369744 0.004250661213965319
          0.006104797971352955 0.0063872278866308595 0.006098660995672071 0.006380026132378207 0.006092524019991188 0.0063728243781255535
          0.005759379304757322 0.005752926529041708 0.005746473753326094 0.004195825727217861 0.0042020163277245535 0.004208206928231247
          0.006583333740573283 0.006671948319454607 0.00657325375952954 0.00666574833313484 0.006563173778485799 0.006659548346815072
          0.004422253924540893 0.004428250034880319 0.0044342461452197435 0.00481290707561818 0.005587676308605365 0.0048172388660989735
          0.005592957463730347 0.004821570656579769 0.005598238618855328 0.003992389947696629 0.00400019288372088 0.00400799581974513
          0.0053730499582573515 0.005365719442148499 0.005358388926039646 0.0028282136954986374 0.0036122613231025598 0.0028363006315361163
          0.003612560735163152 0.0028443875675735948 0.0036128601472237448 0.004986057862415456 0.004977315758964467 0.004968573655513478
          0.0045074241737951565 0.00449924056828471 0.004491056962774263 0.003255974856099841 0.003269069117055233 0.0032821633780106235
        </DataArray>
        <DataArray type="Float64" Name="pe22" format="ascii" RangeMin="-0.004833498042160255" RangeMax="0">
          -0.000056875008787118494 -0.00010396530018345562 -0.00005846443522001227 -0.00010834096552700966 -0.00006005386165290606 -0.00011271663087056371
          -0.000006812951389826613 -0.00000961898835628788 -0.000006202282424913952 -0.000008904890528844661 -0.000005591613460001289 -0.000008190792701401442
          -0.0000015829000038642127 -0.0000031658000077284254 -7.914500019321064e-7 -0.0000015829000038642127 0 0
          0 0 0 0 0 0
          -0.000013684995187620659 -0.0000026029702226077835 -0.000014754895280302467 -0.0000035646691493975788 -0.000015824795372984275 -0.000004526368076187374
          -0.00011292980106990632 -0.00008444935292208888 -0.00011406191553204576 -0.00008565097392579538 -0.00011519402999418518 -0.00008685259492950188
          -0.0003361776774755291 -0.0003078995903338658 -0.0003371406915157696 -0.0003093404875542787 -0.0003381037055560101 -0.0003107813847746916
          -0.0006403595927151086 -0.0006242043394376775 -0.0006444071655044291 -0.0006283084456454577 -0.0006484547382937494 -0.0006324125518532378
          -0.000004892358695390685 -0.0000042939524565074416 -0.000003695546217624198 -0.0000020034572116826737 -0.0000017498371604916208 -0.0000014962171093005678
          0 0 0 -0.0000028526253498103843 -0.0000032567846247736367 -0.000003660943899736889
          -0.00004785395833061283 -0.00004925964804328996 -0.000050665337755967085 -0.00018923609376247263 -0.0001900651850961906 -0.00019089427642990858
          -0.00042980558192293205 -0.0004303078104804428 -0.00043081003903795354 -0.0007415181908570818 -0.00074468135220077 -0.0007478445135444586
          0 0 0 0 0 0
          0 -1.6344768553813733e-8 -3.2689537107627465e-8 -0.00001955554547926655 -0.000020411335942111597 -0.000021267126404956643
          -0.00011126897519456179 -0.00011274333526245728 -0.00011421769533035279 -0.00030050155376242725 -0.0003008436467634409 -0.0003011857397644546
          -0.0005760704343807243 -0.0005764316687556161 -0.0005767929031305079 -0.0008958773021650303 -0.0008980153691123204 -0.0009001534360596105
          0 0 0 0 0 0
          -0.000003380542209365249 -0.000003820387032716244 -0.000004260231856067238 -0.000056721138380729965 -0.00005796689431726055 -0.000059212650253791115
          -0.00020406222191586893 -0.00020514369169462678 -0.00020622516147338467 -0.00043901237492880335 -0.000438712890824947 -0.0004384134067210908
          -0.0007450530934674654 -0.0007449085158178612 -0.0007447639381682568 -0.0010649635601707448 -0.0010667437885378056 -0.0010685240169048663
          0 0 0 -2.7638692073951377e-8 -1.6075655238036137e-7 -2.9387441268677134e-7
          -0.0000220968822471728 -0.000023175205887045735 -0.000024253529526918675 -0.00012257801097634945 -0.00012411708607166383 -0.00012565616116697818
          -0.00032180182113982967 -0.0003223124648979384 -0.0003228231086560472 -0.0005990201227650792 -0.0005980115437006178 -0.0005970029646361564
          -0.0009362469042897829 -0.0009356760878148809 -0.0009351052713399788 -0.0012885847253873016 -0.0012900854191295495 -0.0012915861128717971
          0 0 0 -0.000008240979300810684 -0.000008889042851676045 -0.000009537106402541407
          -0.00006950626245044343 -0.00007104425805990108 -0.00007258225366935873 -0.00022373706098027425 -0.00022490531450855322 -0.00022607356803683212
          -0.00046629995001937744 -0.00046614956190441076 -0.000465999173789444 -0.0007822776045055228 -0.0007807408914805595 -0.0007792041784555964
          -0.001156495646423914 -0.0011558235522569653 -0.0011551514580900163 -0.0015451122168672882 -0.0015464632327246365 -0.0015478142485819849
          0 0 0 -0.0000013304583736732649 -0.0000016355898739974362 -0.0000019407213743216075
          -0.00003563290589437373 -0.00003690853654218211 -0.0000381841671899905 -0.00015027460823382625 -0.0001518141347919362 -0.0001533536613500461
          -0.00035548096078167376 -0.00035599651041596874 -0.0003565120600502637 -0.0006406456608977697 -0.0006398987324240807 -0.0006391518039503917
          -0.000994950928182995 -0.0009930835136380042 -0.0009912160990930136 -0.001401712360248735 -0.0014009963206860353 -0.0014002802811233347
          -0.0018119334761860866 -0.0018132820274726514 -0.0018146305787592166 0 0 0
          -0.000014071932273387552 -0.000014856792152266057 -0.000015641652031144563 -0.00009095556285697033 -0.0000925433792515214 -0.00009413119564607247
          -0.0002608178937015899 -0.0002618598031573808 -0.00026290171261317177 -0.0005157318713873088 -0.0005156097924245813 -0.0005154877134618537
          -0.0008471871389333117 -0.000845998321951389 -0.0008448095049694666 -0.001239585054913537 -0.0012376791521333031 -0.0012357732493530691
          -0.0016679367143401895 -0.0016673466184727705 -0.0016667565226053517 -0.002078208256410971 -0.0020796387408130207 -0.00208106922521507
          -0.0000025280484503492816 -0.00000285616428185437 -0.000003184280113359459 -0.000046495045201458185 -0.00004776179758392046 -0.00004902854996638272
          -0.00017652731820813624 -0.000178025224811529 -0.00017952313141492181 -0.00039807312018940133 -0.00039852537125489244 -0.0003989776223203836
          -0.0007051087167724204 -0.0007043795663099939 -0.0007036504158475673 -0.0010849688545410258 -0.0010835515157723646 -0.0010821341770037036
          -0.001512379309633158 -0.0015107986805365228 -0.0015092180514398876 -0.0019504208363215324 -0.00195023200597931 -0.001950043175637088
          -0.0023368211770747123 -0.0023384252283154146 -0.0023400292795561165 -0.000016665576521727094 -0.00001748436724817979 -0.000018303157974632484
          -0.00010265241635236074 -0.00010432476571449444 -0.00010599711507662814 -0.0002871014158590219 -0.00028819217296643365 -0.0002892829300738454
          -0.0005636554336868624 -0.0005634261449769249 -0.0005631968562669873 -0.0009257938888328571 -0.0009245312064038694 -0.0009232685239748816
          -0.001351040259146607 -0.0013495290537225255 -0.001348017848298444 -0.001803700771467616 -0.0018024490309733912 -0.0018011972904791664
          -0.0022384561336719587 -0.0022385796881455857 -0.0022387032426192137 -0.0025911526425926937 -0.0025927636140655377 -0.0025943745855383812
          -0.000048637587628587095 -0.000049982025323949924 -0.00005132646301931276 -0.00018436281433175183 -0.00018604406129071427 -0.00018772530824967667
          -0.00042316686316454466 -0.00042365517956123144 -0.00042414349595791816 -0.00076036391703957 -0.0007594167818041197 -0.0007584696465686694
          -0.0011787063618322368 -0.0011770810091615406 -0.0011754556564908445 -0.0016430241089982393 -0.0016415876135571013 -0.001640151118115963
          -0.0021084530161119266 -0.0021075957627518078 -0.002106738509391689 -0.0025344444934980183 -0.0025348182360028673 -0.0025351919785077163
          -0.002928780633744942 -0.0029304271259910425 -0.0029320736182371437 -0.00010374984160558724 -0.00010558853261436814 -0.00010742722362314906
          -0.0002904544373904198 -0.00029180936240598394 -0.00029316428742154804 -0.0005898503910061263 -0.0005895550599568502 -0.0005892597289075741
          -0.0009916125822688358 -0.0009900325237874113 -0.0009884524653059868 -0.001463605538367269 -0.0014618862254900161 -0.0014601669126127637
          -0.0019585382554653317 -0.0019575391574212847 -0.0019565400593772367 -0.0024270513238848963 -0.0024270784051966788 -0.002427105486508461
          -0.002830876712077692 -0.002832096508577719 -0.002833316305077745 -0.0031293160886500613 -0.003131698664919234 -0.0031340812411884064
          -0.00018425137636605702 -0.00018603858057947658 -0.00018782578479289617 -0.0004256984228043125 -0.00042641611918443906 -0.00042713381556456554
          -0.0007932802999040639 -0.0007921291282690122 -0.0007909779566339607 -0.0012607444663087193 -0.00125877009103502 -0.0012567957157613202
          -0.0017796510143921881 -0.0017781937167934887 -0.001776736419194789 -0.0022923710824498704 -0.002292108697715169 -0.0022918463129804664
          -0.002746921987626279 -0.0027479997177223482 -0.002749077447818417 -0.003101452345531416 -0.003103800355723765 -0.003106148365916113
          -0.003322108927832372 -0.0033253420175079346 -0.003328575107183496 -0.00028948246647743527 -0.0002906291948450272 -0.00029177592321261907
          -0.0005972718005798323 -0.0005970643298180145 -0.0005968568590561966 -0.0010393087196281254 -0.001037416554313644 -0.0010355243889991626
          -0.0015690073444250003 -0.0015670213155858446 -0.0015650352867466887 -0.0021225841413753826 -0.0021217616077837823 -0.002120939074192182
          -0.0026345643325938603 -0.0026352025910875983 -0.002635840849581337 -0.0030501426971697755 -0.003052077928831226 -0.003054013160492677
          -0.003333097115264737 -0.0033360196680304547 -0.0033389422207961723 -0.0034692573290789398 -0.003472480792823268 -0.0034757042565675953
          -0.0008135287383636695 -0.0008122467049646788 -0.0008109646715656882 -0.0013322186290352547 -0.0013298956197464976 -0.0013275726104577405
          -0.001913820709107473 -0.0019122484379866795 -0.0019106761668658862 -0.0024826897341311193 -0.002482786029075406 -0.0024828823240196926
          -0.0029711947165528257 -0.002972854332065165 -0.002974513947577506 -0.003326911708027843 -0.0033295865766240183 -0.0033322614452201936
          -0.003519452062289102 -0.003522301855795976 -0.0035251516493028496 -0.0035603998295058665 -0.0035629876206524917 -0.003565575411799117
          -0.0010829546827294317 -0.0010807821378467062 -0.0010786095929639808 -0.0016738081314351368 -0.0016715550690419511 -0.0016693020066487654
          -0.002289553626606689 -0.0022887667003705313 -0.002287979774134373 -0.0028476140397620414 -0.002848692155164837 -0.0028497702705676323
          -0.0032860867314894885 -0.0032886443529167725 -0.0032912019743440565 -0.0035651763343926843 -0.0035685825454412692 -0.0035719887564898533
          -0.003665890028148185 -0.00366888989688686 -0.0036718897656255346 -0.0036114972870847696 -0.003614124734859351 -0.003616752182633933
          -0.0014131153659256547 -0.0014106390557412584 -0.0014081627455568618 -0.0020630543385604123 -0.0020614658977168732 -0.002059877456873334
          -0.0026885171582774984 -0.0026888023235191027 -0.002689087488760706 -0.003206311051546629 -0.0032083038893959857 -0.0032102967272453417
          -0.003566501758379221 -0.0035696089593517505 -0.00357271616032428 -0.0037501343828535653 -0.0037539878224793297 -0.003757841262105095
          -0.0037637494752575515 -0.0037676181392216307 -0.0037714868031857103 -0.003658182813550452 -0.0036616144218626803 -0.0036650460301749085
          -0.0018097795115327635 -0.001807875170193457 -0.0018059708288541505 -0.0024960900507892333 -0.0024956707550668838 -0.0024952514593445337
          -0.0031006033137098068 -0.0031021238075019174 -0.0031036443012940275 -0.003548125985233871 -0.0035510692837508154 -0.0035540125822677605
          -0.0038055473454067447 -0.0038092043884207444 -0.003812861431434744 -0.003874828343320607 -0.003879119253690495 -0.003883410164060384
          -0.0037860482661575836 -0.003790777098066557 -0.003795505929975531 -0.0036245972542769357 -0.00362823728192357 -0.003631877309570205
          -0.0029660561323955007 -0.0029671689228038794 -0.0029682817132122585 -0.0035127810708349694 -0.0035156354039594427 -0.0035184897370839157
          -0.0038585096915256115 -0.0038625795566054836 -0.0038666494216853557 -0.003990537033752764 -0.003995217533420348 -0.003999898033087933
          -0.003928137650691344 -0.003933544202027092 -0.003938950753362839 -0.0037083720111613025 -0.00371352452612135 -0.003718677041081399
          -0.003405147315223475 -0.003408131329936737 -0.003411115344649999 -0.0034613145088762073 -0.0034642963490106506 -0.0034672781891450944
          -0.003907219086443605 -0.003911563202743598 -0.003915907319043592 -0.004114596402198896 -0.004119962787707427 -0.0041253291732159586
          -0.004092547952418169 -0.00409841370577021 -0.0041042794591222495 -0.0038745637651976883 -0.0038808276290624626 -0.0038870914929272377
          -0.0034994590221775717 -0.003503855721604653 -0.003508252421031734 -0.0030475305769646814 -0.0030484993800479684 -0.003049468183131256
          -0.003961388467706961 -0.003966494259306785 -0.003971600050906609 -0.00425664975496949 -0.004262629015212661 -0.004268608275455832
          -0.00428247524542397 -0.004289034191212674 -0.0042955931370013785 -0.004072125247809978 -0.004078566614733331 -0.004085007981656683
          -0.0036767620478275107 -0.003682519017107968 -0.0036882759863884253 -0.00315460037648982 -0.0031569400190804638 -0.003159279661671108
          -0.004430833860200064 -0.004438219888638766 -0.004445605917077467 -0.0045202155590879246 -0.004527795196327133 -0.00453537483356634
          -0.004320860183252623 -0.004328110476218611 -0.004335360769184598 -0.0038973606862752084 -0.003903346018641313 -0.00390933135100742
          -0.003328826390093711 -0.0033329288723844956 -0.0033370313546752803 -0.003330510368835487 -0.003502459360852447 -0.0034722073132423727
          -0.003391899672211183 -0.003332809046552837 -0.0035047175482471986 -0.003474696922463823 -0.003393619776253169 -0.003335107724270188
          -0.00350697573564195 -0.0034771865316852732 -0.003395339880295156 -0.0027213277106867086 -0.002868243240737182 -0.0026270961439028317
          -0.002420643054483545 -0.002720930223245727 -0.0028689016942923693 -0.002628385887316331 -0.0024213264465293787 -0.0027205327358047456
          -0.002869560147847556 -0.00262967563072983 -0.002422009838575212 -0.0028520742102611405 -0.002619990557253443 -0.0031221262631618194
          -0.00285458946833826 -0.0026212182061288126 -0.0031243148779528515 -0.0028571047264153797 -0.002622445855004183 -0.0031265034927438822
          -0.0026659635234901435 -0.0026677892627699393 -0.002669615002049735 -0.003407528004278185 -0.00330545026850458 -0.003379903545433283
          -0.0034003882525816464 -0.0034105124883007784 -0.0033080440758953247 -0.0033816515127113476 -0.003402396176210703 -0.0034134969723233722
          -0.0033106378832860705 -0.0033833994799894124 -0.003404404099839759 -0.002476566332559472 -0.0021669777834121213 -0.0024752102711677057
          -0.00216717723223653 -0.00247385420977594 -0.00216737668106094 -0.0032088959591543933 -0.0028768264565440585 -0.0028862617280013486
          -0.0032103982975717625 -0.002877835609955321 -0.002889591736166563 -0.0032119006359891313 -0.0028788447633665837 -0.002892921744331778
          -0.001889031256572701 -0.0021983565368778614 -0.0018890932033509924 -0.0021963545544410007 -0.0018891551501292836 -0.00219435257200414
          -0.0033538263032975605 -0.0029402401325184574 -0.0033564575963951396 -0.0029435035548191226 -0.003359088889492718 -0.0029467669771197883
          -0.003128289258175989 -0.0031293676726527357 -0.0031304460871294827 -0.0032525668701459494 -0.0029380338012969264 -0.003254656047290311
          -0.002939293439228496 -0.0032567452244346724 -0.002940553077160064 -0.003477064920445177 -0.0033504885714230772 -0.003480015413104163
          -0.0033540419255152793 -0.0034829659057631487 -0.003357595279607481 -0.003216115599954562 -0.0032738803033234218 -0.003218111310439906
          -0.003275484647881432 -0.0032201070209252505 -0.0032770889924394414 -0.0028212848912783717 -0.003058911820062932 -0.0028223661644766534
          -0.003059990615544121 -0.002823447437674935 -0.0030610694110253093 -0.0016131649353447637 -0.0016134365424329076 -0.0016137081495210515
          -0.0011899218970923917 -0.0013474282312261594 -0.0011919182734898054 -0.0013484715656647264 -0.0011939146498872186 -0.001349514900103293
          -0.0029367598216935935 -0.0029372624873714496 -0.0029377651530493065 -0.0011149170485050405 -0.0011174258186696223 -0.0011199345888342042
          -0.003462619457634542 -0.003464692715504928 -0.0034667659733753128 -0.0009771287100583616 -0.0009808338054998267 -0.0009845389009412917
          -0.0019244509395150078 -0.0019214540874322947 -0.0019184572353495816 -0.0016327695719413327 -0.0016306537738161172 -0.0016285379756909018
          -0.0014223720765173357 -0.0014224696562868914 -0.0014225672360564472 -0.0026200912294448496 -0.002618624308051188 -0.0026171573866575256
          -0.002706832798681337 -0.0027069802811965204 -0.0027071277637117043 -0.002159685151974566 -0.0021569736873120133 -0.0021542622226494606
          -0.004644043276102794 -0.004813856500231988 -0.0046529202026122235 -0.004823677271196121 -0.004661797129121653 -0.004833498042160255
          -0.0041894590936775895 -0.00419658674091853 -0.004203714388159471 -0.003555957779707604 -0.0035604540420103373 -0.0035649503043130707
          -0.002856435216632542 -0.0028582320541986226 -0.002860028891764703 -0.0022041121464170792 -0.0022023348627703406 -0.002200557579123602
          -0.002172933288719186 -0.002174041751613879 -0.0021751502145085726 -0.0022071389801244694 -0.002206982476704338 -0.002206825973284207
          -0.003390657070762199 -0.0033073665042539315 -0.0033918634053799837 -0.003309730046329437 -0.003393069739997768 -0.0033120935884049414
          -0.002325353838455295 -0.002306133819582602 -0.002325708518932247 -0.002307790120287591 -0.0023260631994091985 -0.0023094464209925804
          -0.00299820259394171 -0.0031824503100900832 -0.002998325033981803 -0.003184052079348622 -0.0029984474740218964 -0.0031856538486071603
          -0.0027848159411488034 -0.002783835302356974 -0.0027828546635651438 -0.0022942520624718503 -0.0022951144457479863 -0.002295976829024122
          -0.003331518287090081 -0.003409976382627781 -0.003333040091790121 -0.003412244564754554 -0.003334561896490161 -0.0034145127468813265
          -0.002439320003660111 -0.0024390384059633902 -0.002438756808266669 -0.002620224794463985 -0.003020361071960962 -0.002620817077951119
          -0.003023417466031442 -0.0026214093614382534 -0.003026473860101922 -0.002169421827928771 -0.0021688378747828996 -0.002168253921637028
          -0.0025529991994435886 -0.0025509721014897544 -0.00254894500353592 -0.0013443879674759046 -0.0016769539510155507 -0.0013437179729947366
          -0.0016750509360155894 -0.0013430479785135688 -0.0016731479210156277 -0.0023287617671586634 -0.002325470460096209 -0.0023221791530337547
          -0.0020685266518506535 -0.002065789855921124 -0.0020630530599915946 -0.0017892073836139623 -0.0017893537654556347 -0.001789500147297307
        </DataArray>
        <DataArray type="Float64" Name="pe33" format="ascii" RangeMin="-0.004452773237393042" RangeMax="0">
          -0.00006463469508520708 -0.0001180898721293909 -0.00007130133074417196 -0.0001329723741732588 -0.00007796796640313684 -0.00014785487621712677
          -0.000007423417951326446 -0.000010436360297476487 -0.0000070865681420906375 -0.00001039682335145654 -0.000006749718332854827 -0.000010357286405436591
          -0.0000018179740609504401 -0.0000036359481219008803 -9.089870304752201e-7 -0.0000018179740609504401 0 0
          0 0 0 0 0 0
          -0.000013457794075469947 -0.0000025952178900660767 -0.000014624645597659363 -0.0000035775542803132963 -0.00001579149711984878 -0.000004559890670560516
          -0.00011236371093203764 -0.00008435880738832474 -0.0001147074733855837 -0.0000866392009423936 -0.00011705123583912979 -0.00008891959449646248
          -0.0003259883819432029 -0.0002950342950707721 -0.00033210904417912556 -0.0003014774398986884 -0.00033822970641504826 -0.0003079205847266047
          -0.0006314999124223642 -0.0006379612769279369 -0.000645650282422751 -0.0006511481371102431 -0.0006598006524231378 -0.0006643349972925495
          -0.000005589759020511619 -0.000004815143657542544 -0.0000040405282945734685 -0.0000022052378025882027 -0.0000018881564663623673 -0.0000015710751301365316
          0 0 0 -0.0000028090613377489755 -0.000003243259451073493 -0.0000036774575643980104
          -0.00004722716155155655 -0.00004898059587511149 -0.000050734030198666456 -0.00018879300925561145 -0.00019120850830959578 -0.0001936240073635801
          -0.0004199237029415624 -0.0004254081071428589 -0.0004308925113441555 -0.0007096205268823203 -0.0007241532711786602 -0.0007386860154749999
          0 0 0 0 0 0
          0 -1.6298028024033134e-8 -3.259605604806627e-8 -0.00001928728640683489 -0.000020342173606929 -0.000021397060807023115
          -0.00011113486001985446 -0.00011343513449498577 -0.00011573540897011713 -0.0003028748367363429 -0.0003052829998159904 -0.00030769116289563797
          -0.0005666162272272759 -0.0005714802528538481 -0.0005763442784804203 -0.0008764300175399203 -0.0008894366506506736 -0.0009024432837614269
          0 0 0 0 0 0
          -0.0000034015792812365004 -0.000003889699724521426 -0.000004377820167806352 -0.00005704309865243546 -0.00005889133945834072 -0.000060739580264245984
          -0.00020793138324308084 -0.00021049510254786166 -0.00021305882185264255 -0.0004496910734103556 -0.00045195826244926824 -0.0004542254514881809
          -0.0007437249899059288 -0.0007483448988221826 -0.0007529648077384361 -0.0010555091861292054 -0.0010672732533382491 -0.0010790373205472926
          0 0 0 -2.804441626331103e-8 -1.6633093067235751e-7 -3.04617445081404e-7
          -0.000022558870796163235 -0.000023915830376066577 -0.000025272789955969922 -0.0001263081622015349 -0.00012916951424982338 -0.00013203086629811188
          -0.00033581563908566205 -0.000338607007510458 -0.000341398375935254 -0.0006255737134718366 -0.0006276898517291722 -0.0006298059899865077
          -0.0009464816900417367 -0.0009512990348857413 -0.0009561163797297458 -0.0012783959383701091 -0.0012890344838722527 -0.0012996730293743958
          0 0 0 -0.000008507500320257922 -0.000009272435789209374 -0.000010037371258160827
          -0.00007216854143459585 -0.00007453763847981612 -0.00007690673552503637 -0.0002359188895259277 -0.0002393843679547567 -0.00024284984638358567
          -0.0004979477232575211 -0.0005009239651633678 -0.0005039002070692143 -0.0008310401403033061 -0.000833096814792196 -0.0008351534892810859
          -0.0011812210468353302 -0.0011859421719575382 -0.0011906632970797456 -0.0015423490608363886 -0.0015507917360189545 -0.0015592344112015206
          0 0 0 -0.0000013926827278572443 -0.0000017285169041205677 -0.000002064351080383891
          -0.00003725580155291071 -0.00003897898485929577 -0.000040702168165680834 -0.000159239726329758 -0.00016244617252941096 -0.000165652618729064
          -0.00038343679085697894 -0.00038724870644233814 -0.00039106062202769746 -0.0006975024885763101 -0.0007004918360312166 -0.0007034811834861232
          -0.0010704554407845546 -0.0010721993866732798 -0.0010739433325620052 -0.0014445656905999937 -0.0014485349391161854 -0.0014525041876323774
          -0.0018204692727223 -0.0018262991285246926 -0.001832128984327085 0 0 0
          -0.000014773190359685852 -0.00001574691994963195 -0.00001672064953957805 -0.00009673344127527977 -0.00009938260482978693 -0.00010203176838429407
          -0.0002827122477425858 -0.0002864323506406895 -0.0002901524535387931 -0.00056804519598015 -0.0005720902708701193 -0.0005761353457600885
          -0.000935560574524788 -0.00093818100804292 -0.0009408014415610518 -0.0013444207188369828 -0.0013451995707314758 -0.0013459784226259684
          -0.0017309932866281718 -0.0017334976948870386 -0.001736002103145905 -0.002098817424732616 -0.0021022192856556465 -0.0021056211465786765
          -0.00000266406300358645 -0.0000030402372378227735 -0.000003416411472059097 -0.00004939347173916124 -0.000051221941837364944 -0.00005305041193556865
          -0.0001915343414950147 -0.0001949991562766636 -0.0001984639710583125 -0.00044146389843873916 -0.0004457133697018731 -0.0004499628409650071
          -0.000790294464979954 -0.0007943242411409908 -0.0007983540173020277 -0.0012090168161182707 -0.001210779632315411 -0.0012125424485125514
          -0.0016458891939541784 -0.0016451202653212102 -0.0016443513366882416 -0.00203230259144106 -0.002032687997100334 -0.0020330734027596085
          -0.0023686425755189014 -0.0023696484070602777 -0.002370654238601653 -0.000017658553821594968 -0.000018712662652941897 -0.000019766771484288827
          -0.00011098681837837457 -0.00011392926579247658 -0.00011687171320657859 -0.00031876328037232357 -0.00032302068336743743 -0.0003272780863625513
          -0.0006383712285067544 -0.0006429807171855506 -0.0006475902058643466 -0.0010510698170901245 -0.0010545503402276675 -0.0010580308633652107
          -0.0015114755495036405 -0.0015119133683606622 -0.001512351187217684 -0.0019590764526302836 -0.001956694626880592 -0.0019543128011309
          -0.002331057447681916 -0.0023292703144568326 -0.00232748318123175 -0.0026283302254943887 -0.002626899722840601 -0.002625469220186812
          -0.000052202288674166154 -0.00005422425348328652 -0.00005624621829240687 -0.0002037853559905346 -0.00020788302229383671 -0.0002119806885971388
          -0.0004815944142260748 -0.0004866641567339312 -0.0004917338992417875 -0.0008765068624720703 -0.0008810305165952823 -0.0008855541707184941
          -0.0013480103226404306 -0.001350285137872817 -0.0013525599531052034 -0.0018348653535001556 -0.0018336378495510024 -0.0018324103456018497
          -0.0022749581218457077 -0.002270930461891739 -0.00226690280193777 -0.0026189096074496357 -0.0026149609893973184 -0.002611012371345001
          -0.002916271877584038 -0.0029122231879266935 -0.0029081744982693493 -0.00011399870131012261 -0.00011736753908697211 -0.00012073637686382162
          -0.00033032630059059856 -0.00033565377741763606 -0.0003409812542446735 -0.0006876567964299318 -0.0006932704572518511 -0.0006988841180737706
          -0.0011574317851966698 -0.0011612044256466545 -0.0011649770660966392 -0.0016751032419460863 -0.0016756161804815225 -0.0016761291190169594
          -0.0021707624686003587 -0.002167596725339601 -0.002164430982078843 -0.002589609904567765 -0.0025836442892431676 -0.00257767867391857
          -0.00289434891997939 -0.002887975405205876 -0.0028816018904323617 -0.0030919495802078146 -0.0030862764348044257 -0.003080603289401036
          -0.00020937894618230918 -0.00021408008353988813 -0.00021878122089746707 -0.0005003259592589541 -0.0005067941526438047 -0.0005132623460286553
          -0.000943806635133268 -0.0009493728758355971 -0.0009549391165379261 -0.0014797529673348034 -0.0014820064638571416 -0.0014842599603794799
          -0.002024577806733436 -0.002022824828692739 -0.002021071850652041 -0.0025082845848615866 -0.0025029184482800683 -0.0024975523116985495
          -0.0028861679902044734 -0.0028782937934517623 -0.002870419596699052 -0.0031346028369156225 -0.003126073265361687 -0.003117543693807752
          -0.003258372535412295 -0.003250219893596846 -0.003242067251781397 -0.0003441656695373299 -0.00035010142656135754 -0.00035603718358538514
          -0.0007251690467161701 -0.0007323447816024916 -0.0007395205164888131 -0.0012536403808644644 -0.0012583079576579145 -0.0012629755344513644
          -0.0018378287240571841 -0.0018377953461989108 -0.001837761968340637 -0.002385226650906556 -0.0023808116650063226 -0.002376396679106089
          -0.002832564552550711 -0.0028249080697601977 -0.0028172515869696857 -0.0031463115353179355 -0.0031369410237594383 -0.0031275705122009415
          -0.003318226659456554 -0.0033086264679471587 -0.0032990262764377638 -0.0033609656748268203 -0.0033515795118361554 -0.0033421933488454905
          -0.0010149486665464514 -0.0010220705774083958 -0.0010291924882703403 -0.0016156145199075112 -0.0016184221836979872 -0.001621229847488463
          -0.002220842306232308 -0.0022179088438347375 -0.002214975381437167 -0.0027410159173497446 -0.0027338790869055737 -0.0027267422564614023
          -0.003127054924073534 -0.003117320238188045 -0.003107585552302556 -0.0033581280629961354 -0.003347624194701441 -0.003337120326406746
          -0.0034375557461381796 -0.003428084879911238 -0.003418614013684297 -0.003389794431192515 -0.00338077490667948 -0.0033717553821664453
          -0.001375783771330556 -0.0013818199455206141 -0.0013878561197106722 -0.0020218292366959547 -0.0020219538480648774 -0.0020220784594338005
          -0.002614060006536447 -0.0026078692424338175 -0.002601678478331189 -0.003074403779662598 -0.003064795858751676 -0.0030551879378407543
          -0.0033732728863063582 -0.0033622348618517588 -0.00335119683739716 -0.003508323380099843 -0.003497605323432419 -0.003486887266764995
          -0.003499508567523001 -0.0034902195229911054 -0.00348093047845921 -0.0033728500399141624 -0.0033630937912805807 -0.0033533375426469986
          -0.0018067411173769456 -0.0018105850041453568 -0.001814428890913768 -0.00245793268732875 -0.0024549950255082016 -0.002452057363687653
          -0.0030001626156901206 -0.00299071675172753 -0.002981270887764939 -0.0033700977716525455 -0.003358394657359383 -0.00334669154306622
          -0.00355763737935826 -0.003546302945220083 -0.0035349685110819076 -0.0035836574959972195 -0.003574219535103951 -0.003564781574210683
          -0.003501803056028042 -0.0034922273295434404 -0.003482651603058838 -0.003343317300640094 -0.0033300862827552197 -0.0033168552648703458
          -0.002298332878114883 -0.002299069156307519 -0.002299805434500155 -0.002904735612083414 -0.0028989599926740944 -0.002893184373264774
          -0.003359712410392945 -0.003347457785628972 -0.0033352031608649985 -0.0036143195308126776 -0.003601032885150529 -0.0035877462394883794
          -0.003676420234782624 -0.0036653013836791745 -0.0036541825325757255 -0.003587461633823925 -0.003579525810021908 -0.0035715899862198914
          -0.0034329686481319593 -0.003422867406528767 -0.0034127661649255743 -0.0032598810583617773 -0.0032427518894939293 -0.003225622720626081
          -0.0033405024343983857 -0.0033325783645586776 -0.0033246542947189687 -0.0036731037443712322 -0.003658772847860413 -0.0036444419513495937
          -0.003793174337386835 -0.0037788745491155492 -0.003764574760844264 -0.0037251477196697377 -0.0037142612309847677 -0.003703374742299797
          -0.0035259288606725556 -0.003518350581782165 -0.003510772302891773 -0.0032922840506902887 -0.0032813018436112346 -0.0032703196365321805
          -0.0030477856133167124 -0.003030851772843616 -0.00301391793237052 -0.0037418135403708046 -0.0037325500083251464 -0.0037232864762794873
          -0.003921498654186358 -0.0039058113561063453 -0.003890124058026333 -0.003891597187100713 -0.0038767394541906813 -0.00386188172128065
          -0.003689015058607752 -0.0036783982040829956 -0.0036677813495582393 -0.003378685951008904 -0.0033712281001419477 -0.00336377024927499
          -0.003052774687704856 -0.003042368949507271 -0.0030319632113096867 -0.002696236257628815 -0.002685405013303478 -0.0026745737689781415
          -0.00408275334967856 -0.0040726108486789595 -0.004062468347679359 -0.004083758909873825 -0.00406736991448408 -0.004050980919094335
          -0.0038900542165710345 -0.003875253745539469 -0.0038604532745079045 -0.0035464447086087274 -0.0035368763090116127 -0.003527307909414498
          -0.003122680313627036 -0.003117035300217891 -0.0031113902868087455 -0.00270637728791314 -0.0026997384430421834 -0.002693099598171227
          -0.00433221430983553 -0.004321223328726939 -0.00431023234761835 -0.004133557035114043 -0.004117292832944807 -0.00410102863077557
          -0.003766445069900543 -0.0037529525428404535 -0.0037394600157803644 -0.003284040371793874 -0.0032771967160747867 -0.0032703530603557
          -0.0027638102156519375 -0.002762193751797452 -0.0027605772879429656 -0.0029177621854707325 -0.003253066578150711 -0.0032947502803642725
          -0.0031319539229885634 -0.002910479544856309 -0.0032422669872137983 -0.0032846557511035314 -0.0031222333205298434 -0.0029031969042418843
          -0.0032314673962768855 -0.00327456122184279 -0.0031125127180711234 -0.002844837237343254 -0.002987263698179465 -0.0027013722578575414
          -0.0024903032115974103 -0.002835626136020661 -0.0029765422608451424 -0.0026961943961399796 -0.0024869237725747484 -0.002826415034698068
          -0.0029658208235108187 -0.002691016534422418 -0.0024835443335520864 -0.002370257826842702 -0.002240235225762787 -0.0027111333879658085
          -0.0023725628629228035 -0.002240955201974109 -0.002700108397822497 -0.002374867899002905 -0.002241675178185431 -0.002689083407679185
          -0.002170499452078331 -0.0021784795214025935 -0.0021864595907268563 -0.003293513401934945 -0.0032206567723083663 -0.003270686029294515
          -0.003236096041447512 -0.003283800979296732 -0.003212540308253929 -0.003258766809520727 -0.003224703870103557 -0.0032740885566585184
          -0.003204423844199491 -0.00324684758974694 -0.0032133116987596018 -0.0026300365780193326 -0.002232690609798205 -0.002623498091813581
          -0.002232669698408441 -0.00261695960560783 -0.002232648787018677 -0.002707636953733052 -0.002355895769886758 -0.0023914657532667157
          -0.002705537352194995 -0.0023581975399486516 -0.0023920156415811727 -0.0027034377506569376 -0.0023604993100105453 -0.0023925655298956293
          -0.0019493075947501414 -0.0023799262358714366 -0.001953842806356609 -0.0023768047928386937 -0.0019583780179630765 -0.0023736833498059513
          -0.0029451915724270456 -0.0024698774316579204 -0.002934802322702031 -0.002469468859285358 -0.0029244130729770158 -0.0024690602869127964
          -0.0031616829501922893 -0.003150672945060737 -0.0031396629399291845 -0.002846596259344261 -0.002430848693854093 -0.002842075801152564
          -0.0024333802090265276 -0.0028375553429608657 -0.002435911724198962 -0.0031583196185884354 -0.002927709242276248 -0.003146619251474915
          -0.002917848387385579 -0.003134918884361394 -0.0029079875324949105 -0.0031375952046507737 -0.003200292220657395 -0.0031308564605278476
          -0.003190216536373937 -0.003124117716404922 -0.00318014085209048 -0.0028844097498390555 -0.003055308592221696 -0.002878241147197831
          -0.003047671303783123 -0.0028720725445566067 -0.0030400340153445503 -0.0016624990005309568 -0.0016726638648347251 -0.0016828287291384934
          -0.001250169408794967 -0.0013996776421297083 -0.0012661736617162129 -0.0014145285892838764 -0.0012821779146374587 -0.0014293795364380447
          -0.003046719922121547 -0.0030360447532510053 -0.003025369584380464 -0.0011579615539849064 -0.001173707347651962 -0.0011894531413190177
          -0.003044710200420537 -0.0030270247327912176 -0.0030093392651618974 -0.0010131152519528394 -0.00102909947751491 -0.0010450837030769808
          -0.0021227816496178767 -0.002124432138401439 -0.0021260826271850015 -0.0018554918842816584 -0.0018613033611782474 -0.0018671148380748355
          -0.0016357861509264276 -0.001644254635654794 -0.0016527231203831607 -0.0022805694541118884 -0.0022774354347379435 -0.0022743014153639982
          -0.0022936028604055303 -0.002292542164808878 -0.002291481469212227 -0.0018725124668300946 -0.0018749672473003423 -0.0018774220277705902
          -0.00404259902718656 -0.004452773237393042 -0.00402766898484495 -0.0044409386551208475 -0.004012738942503339 -0.004429104072848654
          -0.0035056970069539096 -0.00349543474036841 -0.0034851724737829104 -0.0029079080028517673 -0.00290571554108156 -0.0029035230793113525
          -0.00233386866397275 -0.002337500025586927 -0.0023411313872011043 -0.001864101377402261 -0.0018683896273247417 -0.0018726778772472225
          -0.0017783742073294805 -0.001788692956214952 -0.0017990117051004235 -0.0017992897824029026 -0.0018082349570303024 -0.001817180131657702
          -0.0032268170868850737 -0.0029987013066497723 -0.0032162671221112006 -0.002993246656843063 -0.0032057171573373284 -0.002987792007036354
          -0.0019152410117989993 -0.0019344559903576091 -0.0019198283933797718 -0.0019378353916651731 -0.0019244157749605444 -0.001941214792972737
          -0.003106595377411244 -0.003204777576540777 -0.0031003359616902674 -0.003195974053029585 -0.003094076545969291 -0.003187170529518392
          -0.002974563363608518 -0.002969091226684733 -0.0029636190897609485 -0.0019015736647460101 -0.0019069018819765672 -0.0019122300992071247
          -0.003251815453483201 -0.0032619719368268277 -0.003240213667739419 -0.003253503768380286 -0.003228611881995637 -0.003245035599933745
          -0.0019829339208807814 -0.0019892116289169275 -0.0019954893369530744 -0.002192682281154194 -0.0025673152366444026 -0.0021964217881478548
          -0.0025695399976989044 -0.002200161295141516 -0.0025717647587534054 -0.0018229681197678583 -0.0018313550089379797 -0.001839741898108101
          -0.002820050758813763 -0.002814747340658744 -0.0028094439225037253 -0.0014838257280227326 -0.0019353073720870088 -0.0014925826585413789
          -0.0019375097991475632 -0.0015013395890600256 -0.0019397122262081168 -0.002657296095256793 -0.0026518452988682577 -0.0026463945024797235
          -0.0024388975219445026 -0.002433450712363586 -0.0024280039027826696 -0.0014667674724858795 -0.0014797153515995977 -0.001492663230713316
        </DataArray>
        <DataArray type="Float64" Name="disp_x" format="ascii" RangeMin="0.0000017817228949582698" RangeMax="0.00003995117021369196">
          0.0000024038202757038235 0.00000246380279746467 0.0000024020705717131436 0.000002472934438302233 0.000002398117755995852 0.0000024603110903205505
          0.0000029618173638581436 0.0000029867533156119784 0.0000029608608775184576 0.000002987694979693034 0.0000029584808014530003 0.0000029874024171623497
          0.0000035091713424744124 0.000003519844836076969 0.000003509256004897 0.000003518410747599772 0.000003509631477927955 0.0000035199079236522357
          0.000004060640521297577 0.000004064675174086702 0.000004060219429418716 0.000004064977437438204 0.0000040580484977936606 0.000004064147639725721
          0.000004587987441671698 0.000004597171551535999 0.000004589407527050633 0.000004597420880782389 0.000004593659945730276 0.000004597544506302651
          0.0000051678313618021195 0.000005150053050235339 0.000005172256021676518 0.000005153966570345156 0.000005186099070569718 0.000005167058493166704
          0.0000059025688830130756 0.0000058452885631352295 0.0000059078750734662886 0.0000058514070910887445 0.000005925607187793238 0.000005869251076079774
          0.000006868726381202518 0.000006794114182635842 0.000006881621868569662 0.000006806657041560602 0.000006911472264117927 0.000006845886084667174
          0.000002382161678960852 0.0000023817659385083156 0.0000023801823841437493 0.0000029396159851179032 0.000002938865295130929 0.000002937499368913177
          0.0000034887657903224817 0.000003490114283719703 0.000003490517244616009 0.0000040358629385230985 0.000004034738095321024 0.000004034674314694221
          0.000004587295516348494 0.0000045900188337064764 0.00000459742412637676 0.00000522731657311914 0.00000523226295475635 0.0000052482332663893296
          0.000006046535123073494 0.000006052377222459596 0.000006069240170365972 0.000007092560551289982 0.000007104425437370239 0.000007137458487414179
          0.0000023801810906114234 0.0000023798243444176913 0.0000023789684977327584 0.000002939794783703913 0.000002939192392364766 0.000002936687931642948
          0.0000034766206758947523 0.000003476268602361393 0.000003475881395395067 0.000004015537386298865 0.000004017372206240607 0.000004022379477676869
          0.000004612255421387509 0.000004616177335107639 0.000004627395052063565 0.000005336659759240736 0.000005342377204222506 0.000005360725496678856
          0.000006270393128020138 0.000006277441562748682 0.000006298374560088145 0.0000074885608033407825 0.0000074988923151655395 0.000007531456305424575
          0.000002376089407046281 0.000002375728422368546 0.0000023747874772600593 0.0000029359980291596757 0.0000029353203962445638 0.000002932772498944927
          0.0000034685073379902143 0.0000034690788783884533 0.0000034705523910056244 0.000004025519930279729 0.000004028256757756545 0.000004036891293624792
          0.000004681565597305624 0.000004686908251404077 0.000004702520969146961 0.000005515342105822209 0.000005521984645865166 0.000005543555370373548
          0.000006601760359274477 0.000006609159462679554 0.000006630279063660339 0.000007970381981032845 0.000007981471786583835 0.000008013545875586032
          0.000002369009759952885 0.000002368703103436439 0.0000023678491318914023 0.0000029286768584909027 0.000002928359649401049 0.0000029269105924295784
          0.000003472206569804001 0.000003473643225303456 0.000003477882085106198 0.000004070873752373626 0.000004075010710697369 0.000004087788631425996
          0.0000048135697863354965 0.000004820314631198415 0.000004840146032747824 0.00000578141751675189 0.000005788851948713336 0.000005813036631483179
          0.000007034056876524157 0.000007041935741328682 0.000007063873049187192 0.000008583335632073297 0.000008595264021363591 0.000008630953045309423
          0.0000023632426371463983 0.000002363090003350568 0.0000023623748243189504 0.000002920596813103898 0.000002921050476894083 0.000002922102053546983
          0.0000034919767187612084 0.00000349475418108029 0.0000035032327950541273 0.000004163894490545044 0.000004169380756648952 0.000004186174826998568
          0.000005023769373009132 0.000005031671449626274 0.000005055057410603514 0.0000061478848291855036 0.000006156084649111323 0.000006182729253241265
          0.000007588590463733855 0.000007597248766549971 0.000007621344317245048 0.000009359513532538982 0.000009372046355772698 0.000009409508024192061
          0.0000017984239745834602 0.0000017982372924728114 0.0000017976663099604346 0.0000023606192477233957 0.0000023607018657076664 0.0000023605266659483073
          0.000002916594392828804 0.0000029184271662074036 0.0000029238806141168226 0.0000035411885170463368 0.0000035455645715388856 0.0000035591234954226874
          0.0000043173939330586344 0.000004324281224379344 0.000004345076891096563 0.000005324969128687971 0.00000533395413166307 0.0000053607789202871545
          0.000006635412559829481 0.0000066443662032242365 0.000006673226368523219 0.00000829348984500622 0.000008302725961244326 0.000008328371868380368
          0.000010302875401717431 0.000010315294529630592 0.000010352665845762128 0.000001800171436325599 0.0000018001252030197132 0.0000017994402812986481
          0.000002348917493894806 0.0000023499787776637413 0.0000023529340131026015 0.000002935201294500496 0.0000029385637096585525 0.0000029489793343992327
          0.000003639597780828268 0.000003645599553252666 0.0000036637826892835555 0.000004545635900564134 0.000004553969787036255 0.000004579189216982214
          0.000005731979805119382 0.000005742084227155936 0.000005772316741593405 0.0000072628264533774754 0.000007272329954331992 0.000007302874770949183
          0.000009166808426714877 0.000009176205757946946 0.0000092021454699668 0.00001142645250539627 0.000011438327274464226 0.000011473746468700051
          0.00000178639495798202 0.0000017870506296066695 0.0000017892594324906214 0.000002346280958408751 0.0000023487969822992027 0.0000023563873647858233
          0.000002991884268631262 0.000002996871548345294 0.00000301187468512531 0.000003802402891879212 0.000003810011855230104 0.000003833080488440796
          0.00000486608438627568 0.000004875889523474704 0.000004905615466518133 0.000006262018831872112 0.000006273117936660878 0.000006306480103191193
          0.000008043384061957734 0.000008053307955226897 0.000008084863134626819 0.000010217305138443646 0.000010226386254225634 0.000010251523655609596
          0.000012737963708031977 0.000012748367897279177 0.000012779411463754083 0.0000017817228949582698 0.0000017835068116738642 0.0000017886192074883677
          0.000002376963367298552 0.0000023807945463899927 0.000002392440506757131 0.0000031008032634522102 0.0000031074736185568586 0.0000031276543039733824
          0.000004043738605819526 0.000004053094811962998 0.000004081466732365261 0.0000052981546414862 0.000005309309318019181 0.000005343131230766842
          0.000006934805728321917 0.000006946527921440354 0.000006981821556548797 0.000008986625113998901 0.000008996483210020702 0.000009027940634921904
          0.000011438776011305715 0.00001144731284679912 0.000011470519581438679 0.000014216523960014848 0.000014224969689358574 0.000014250300703272337
          0.0000018026748765439108 0.000001805413571823827 0.000001813170558891215 0.0000024507715121024587 0.000002456131277030213 0.000002472519857388089
          0.0000032754850574808133 0.0000032840899986534177 0.0000033101328198745094 0.000004381685263964968 0.000004392768933912029 0.000004426492348420616
          0.000005861103120796445 0.000005873374574647888 0.000005910583946213231 0.000007767614447557888 0.000007779375593667092 0.000007814961309435502
          0.000010103562381350788 0.000010113182663048984 0.00001014221750375464 0.000012817315856297622 0.000012824734004081502 0.000012846091224896276
          0.00001583430818698231 0.000015840735542712493 0.000015860792329001685 0.0000018548543389397233 0.000001858640287490225 0.0000018697191929366802
          0.000002575864921490919 0.000002583037844138033 0.0000026050346010665134 0.0000035314653148246693 0.0000035421200044201293 0.000003574468969436176
          0.000004837497108417876 0.000004850173424664923 0.000004888672146709095 0.000006575654776173318 0.000006588542385335481 0.000006627565370406836
          0.000008772841352583682 0.000008784440046412657 0.000008819242741478697 0.000011402900956792128 0.000011411762562331793 0.000011439345697980311
          0.000014403090434000565 0.000014409030802330866 0.000014426432313018202 0.000017680437267027132 0.000017684725147755186 0.000017695169231308152
          0.00000194309867873369 0.000001948542343629269 0.0000019639631247383927 0.0000027636092866141075 0.000002772820870707832 0.0000028013938300978554
          0.0000038881788274292 0.000003900850303769064 0.000003939343874522635 0.000005434660746512816 0.000005448469407900934 0.000005490439586791593
          0.000007462964931771556 0.00000747601019193022 0.000007515379414879381 0.000009969051388397903 0.000009979870156985599 0.000010012502127578866
          0.00001289762456368205 0.000012905310613815174 0.000012928362849865924 0.000016155695431074452 0.000016160138387417456 0.00001617327840513972
          0.000019624585246239133 0.000019626630261780992 0.000019632820235141544 0.000002073944154666812 0.000002081397424908284 0.000002102600835780213
          0.0000030301330351918907 0.0000030415320282148564 0.00000307719294126536 0.000004369875048613048 0.000004384330463691843 0.000004428096092820379
          0.000006198677354260558 0.000006213130275886336 0.000006256840309367046 0.000008544891757719461 0.00000855740156326718 0.00000859516913900651
          0.000011368869542376217 0.000011378346745598512 0.000011406769333326212 0.000014581132077371626 0.00001458705402953672 0.000014604976215994372
          0.00001806416877739857 0.000018066683832555478 0.00001807402884732357 0.000021690197480293007 0.000021689858889954653 0.000021687354702613744
          0.0000033997578814042177 0.0000034131443591132594 0.0000034556215426505526 0.0000050065609348062335 0.000005022220069489248 0.000005069425342480492
          0.0000071569180978256716 0.000007171164063283592 0.000007214217140452413 0.000009838154443481937 0.000009849465165315438 0.000009883584416385889
          0.00001297475355375313 0.000012982321598590513 0.00001300505592882349 0.00001644688073717149 0.000016450604311171908 0.000016461381309722187
          0.000020108792673025662 0.000020109037152661573 0.0000201099931711908 0.000023821785025939742 0.000023819461359332777 0.000023812090334473153
          0.0000039044867712217965 0.0000039192142380521974 0.000003966888057182001 0.000005831325459961659 0.000005847453109552531 0.000005895613371041829
          0.000008335574929143256 0.000008348769116356537 0.00000838854989586947 0.000011356831116046264 0.000011366197343927711 0.000011394375802407168
          0.000014782867955145194 0.00001478811829705868 0.000014803888280676476 0.000018473285954271994 0.00001847460144655727 0.00001847826763510539
          0.000022273380649824596 0.000022271434451590918 0.000022264484343229686 0.000026021563378814686 0.00002601800830747764 0.000026004123653189742
          0.000004579944400933978 0.000004594883664561209 0.00000464458962952226 0.000006875901309815965 0.0000068915461091947704 0.000006937720183352339
          0.000009755823430864998 0.000009767177791304684 0.00000980128576615316 0.000013110895035675444 0.000013117597253445571 0.000013137716976808308
          0.000016792452314867684 0.000016794702281939137 0.000016801402740520567 0.00002063896125677084 0.00002063828438729097 0.000020635198378262637
          0.000024508632484742094 0.000024505778025392806 0.000024498034849071713 0.000028307611985128503 0.000028300773615508605 0.00002828169225710625
          0.00000546353846658257 0.000005476992907893704 0.0000055242178950707245 0.00000816927519729522 0.000008183369830011887 0.000008224349924464265
          0.000011432604458872685 0.000011441436684560756 0.000011467674038540237 0.000015101120766741617 0.000015104685853530529 0.000015115441281461111
          0.00001899763218075961 0.000018996652731692206 0.000018993823517159717 0.00002294864650445624 0.000022945686439196844 0.000022934488353098748
          0.00002681547397975416 0.00002681161294576972 0.00002679942848865636 0.00003053654194744655 0.00003052776697512009 0.000030507136053457255
          0.000009735618489955564 0.000009747047326414055 0.00000977968180557897 0.000013375365192777282 0.00001338099209926614 0.000013397394655089596
          0.000017321860267231236 0.000017321969184125664 0.000017322448781911384 0.000021381219639894052 0.00002137717252555783 0.000021365114084662252
          0.000025380868240586036 0.000025376006536867126 0.00002535856323622489 0.00002920329431932387 0.000029197144511624826 0.000029181572504758868
          0.000032813290040769565 0.000032801460399003 0.00003276939805577552 0.000011592044497055986 0.000011599740510055334 0.000011621037202065514
          0.000015585122483325827 0.000015587075291556743 0.00001559211049294717 0.000019758941540766986 0.000019755445896788883 0.00001974519784012587
          0.000023913991098398568 0.00002390688907992488 0.000023885809910177748 0.000027886528063597346 0.000027879472061379785 0.000027854627500012642
          0.000031569274649335056 0.00003156018487244586 0.00003153691923767618 0.000034910893137019376 0.000034896527537201605 0.000034853612686166504
          0.000013747444798795048 0.000013750485375724602 0.000013758020068406587 0.00001805133585860344 0.000018049143022349097 0.00001804143049452528
          0.000022381033812573436 0.000022373718632232312 0.000022352016593833074 0.00002653700257019199 0.000026526719621732043 0.00002649596244593598
          0.000030366418756579905 0.00003035698467988236 0.000030324534991228845 0.00003377938584916494 0.000033767832583114564 0.00003373873647464935
          0.000016200019335179017 0.000016197384381150784 0.000016188790584232436 0.00002074270514253868 0.000020735998088013795 0.000020714372424871702
          0.000025124345559380734 0.000025113169265901217 0.00002507977832979102 0.00002915619590379832 0.000029143036157479987 0.000029103404508103553
          0.00003271199833548508 0.00003270052592365425 0.00003266246112867576 0.00003131201262726062 0.000027337163609238756 0.000025079030280453714
          0.000028300843129287046 0.00003130120249184568 0.00002733107728028521 0.000025075698696518932 0.000028293849130503448 0.00003126669359350483
          0.00002731364640734125 0.00002506591791792297 0.000028275700613090292 0.000015318430236333947 0.000016732974044133137 0.000014537048442845118
          0.000013152533325706108 0.00001532883224922875 0.00001674187719920543 0.000014547930162827443 0.000013165519184444174 0.000015358476035494665
          0.000016766104227073764 0.000014584692339507559 0.000013208798379266115 0.00003579721225471226 0.000036667765942296004 0.00003445037001820399
          0.00003578065004464709 0.000036651754836958007 0.00003443464811492226 0.00003572565907900014 0.000036596308085513644 0.00003437938201690784
          0.00003653853235373946 0.000036526124822447574 0.00003649035345915643 0.000022754322633241327 0.00002052018858363528 0.000023044307639946183
          0.000025761483089325354 0.000022754103616471763 0.000020523088774969743 0.000023044312902273738 0.000025757293664869556 0.00002275371369074932
          0.00002053284017280004 0.000023047916339020807 0.000025744307848627544 0.000013635903409616638 0.000011815802608948215 0.000013649984267500204
          0.000011830520773105708 0.000013689715283181938 0.00001187846288644041 0.00003279327361256775 0.000035363267371213826 0.00003536451580874298
          0.00003278272752586214 0.00003535317501950617 0.00003535386980665875 0.00003274634045154413 0.00003532470684319742 0.00003531793710824338
          0.00001061725164383769 0.000012144524887136018 0.000010633430102374061 0.000012161755969672913 0.000010685586775460076 0.00001221101119952011
          0.00003231358619175877 0.00003509658017747965 0.00003230068563789267 0.000035083020511804145 0.000032258945906865166 0.00003503861276498852
          0.000019338146079535567 0.000019343192055969873 0.000019356300064869906 0.000031387641450688955 0.00003483735540520397 0.000031378349272673294
          0.000034827831708291285 0.00003134978137451109 0.00003479783111058547 0.000029464717062760065 0.00003189422988646055 0.000029456470592865597
          0.000031883290980024214 0.00002943926400820619 0.0000318503053882564 0.00001911781396281856 0.00002038053959789073 0.000019122487573826864
          0.00002038442111480511 0.000019137291245083524 0.000020395509226190014 0.000016008104989415893 0.00001792488025511287 0.000016016764351408922
          0.000017931685212205062 0.00001604684821033973 0.00001795158720263928 0.000009627409303232982 0.000009644514913037247 0.000009699957035277876
          0.000008411810740899184 0.00000888040985676913 0.000008432076392925775 0.000008897836773144716 0.000008484114214547408 0.000008950844171591407
          0.00001741107972743736 0.000017419794130329777 0.00001744260119613808 0.000007931542566282112 0.000007950787858795455 0.00000802218460070291
          0.000032423530299781644 0.00003241195223873355 0.00003237474612826164 0.000007607697264777742 0.0000076257037713848815 0.000007686933509734967
          0.000010905748004261061 0.000010926469091249267 0.000010986177165912865 0.000009893147616996834 0.000009915315430167047 0.000009988810217045792
          0.000009213826029433896 0.000009237348381697776 0.000009309051277930288 0.00003675133226355269 0.00003673694984824594 0.00003669018385270747
          0.000035746123354151295 0.000035734191276814083 0.00003570281412854791 0.000038299018693831714 0.00003828610344532178 0.000038245332631483254
          0.000023597843469146932 0.00001892980078911002 0.00002358627893563951 0.000018921212392166016 0.00002355017870999619 0.000018895369780829496
          0.00002789272278106622 0.00002787802893909441 0.000027833718724251212 0.000031657434235649715 0.00003164222363685809 0.00003159620249862621
          0.00003482145852729403 0.00003480939785242495 0.00003476943473831669 0.000037413020972631545 0.000037402109631622 0.00003737318673655534
          0.0000387008912402027 0.00003868930347155222 0.00003865662131288516 0.000038648563900406946 0.00003864009275318025 0.00003861726330404067
          0.00002513062609485543 0.00002918039020836351 0.000025127322711710797 0.000029172058531664153 0.000025115353533302408 0.000029145915096510357
          0.00003860106292375254 0.00003835582189071793 0.00003859257357371731 0.000038346737181260115 0.00003856823350129278 0.000038322792903725265
          0.000017941284870425727 0.00002026992208695689 0.00001794820903868305 0.000020273167528032978 0.000017965966918368362 0.000020282916934510853
          0.000015785074427144385 0.000015795797946822892 0.0000158280748743076 0.00003838284391562562 0.00003837310571497244 0.00003834705416176265
          0.00002206578551498202 0.000023912588044575176 0.00002206680920347869 0.000023911751772988193 0.000022072563756978307 0.00002390994345243335
          0.000038521420693087496 0.00003851469604056691 0.00003849374851075214 0.00003772233801317246 0.0000338535084497538 0.00003771735395378646
          0.00003384622970394845 0.00003770463900929183 0.00003382224050083425 0.000038294413172190156 0.00003828054421606574 0.000038232087569065717
          0.000013962432120843251 0.00001397710612792222 0.000014021566512805595 0.000008325744826365807 0.000009512664925334299 0.000008348291733676234
          0.00000953681743214601 0.000008419728464228299 0.00000961048155752225 0.000012480312457703892 0.000012498832462947908 0.000012554452526059406
          0.000011155145321135114 0.000011176846907755533 0.00001124552873850786 0.00003995117021369196 0.00003994136077056054 0.00003991863051695752
        </DataArray>
        <DataArray type="Float64" Name="disp_y" format="ascii" RangeMin="-0.000026128308351203425" RangeMax="0">
          -1.784738915865878e-7 0 -1.7985363707612875e-7 0 -1.8600184194109887e-7 0
          -1.5113974418391948e-7 0 -1.5089441773096096e-7 0 -1.4958667273489023e-7 0
          -1.5509030156711288e-7 0 -1.5510597660420274e-7 0 -1.5578995778573746e-7 0
          -1.5298418845093163e-7 0 -1.5356344026840565e-7 0 -1.5358942804839682e-7 0
          -1.5376521774368124e-7 0 -1.5272648814730534e-7 0 -1.502739343797182e-7 0
          -1.8470935662660912e-7 0 -1.8338881536290467e-7 0 -1.7853024525026503e-7 0
          -2.7100248424658785e-7 0 -2.6945414581345944e-7 0 -2.6427441034580203e-7 0
          -4.359892446501463e-7 0 -4.3413702310402776e-7 0 -4.3141539765121403e-7 0
          -3.2452117792095534e-7 -3.2514011800764004e-7 -3.2567629434417695e-7 -3.117671557794268e-7 -3.1184370561477033e-7 -3.118957031991586e-7
          -3.122188116509136e-7 -3.1241075819688923e-7 -3.134336984793087e-7 -3.075015621109651e-7 -3.0638475372476666e-7 -3.054226323587196e-7
          -3.1845765159592205e-7 -3.1710471100969047e-7 -3.12066868747219e-7 -3.959464904476534e-7 -3.9328006439529895e-7 -3.8538993291214427e-7
          -5.736202089367347e-7 -5.703902427155755e-7 -5.600876450190535e-7 -8.611441326773689e-7 -8.580226519515139e-7 -8.464342103637127e-7
          -4.6798067099507396e-7 -4.6781692579130075e-7 -4.6741363332256086e-7 -4.6451334693667104e-7 -4.645875537321417e-7 -4.645731647771018e-7
          -4.6296942887395484e-7 -4.6288935763701635e-7 -4.6329748401032544e-7 -4.643912886617994e-7 -4.635253462922248e-7 -4.6086850223087947e-7
          -5.071065653347503e-7 -5.048488291653763e-7 -4.978392742126242e-7 -6.468845078664568e-7 -6.433554986549424e-7 -6.325290175585262e-7
          -9.250634798797012e-7 -9.207122502902484e-7 -9.069725664451631e-7 -0.0000013758326728547932 -0.000001371342909893507 -0.0000013569879383661384
          -6.148205068501666e-7 -6.148498952497366e-7 -6.150376325370541e-7 -6.120666179304749e-7 -6.119422641937828e-7 -6.118640084202261e-7
          -6.108964960363017e-7 -6.103206626237696e-7 -6.087820439829999e-7 -6.328169869538421e-7 -6.311640192179273e-7 -6.262719480086366e-7
          -7.260375636062198e-7 -7.22953457932649e-7 -7.135447015116986e-7 -9.478851140276989e-7 -9.435820309634549e-7 -9.300775258662738e-7
          -0.000001349181183264414 -0.0000013440775152230162 -0.0000013286477857827922 -0.000001957722612468156 -0.000001952208561630938 -0.0000019371626438483107
          -7.641099762660922e-7 -7.641791195910486e-7 -7.644113961152787e-7 -7.59551563118806e-7 -7.592724873180893e-7 -7.586446576470595e-7
          -7.640976305205798e-7 -7.628206978393551e-7 -7.591438339454312e-7 -8.202512075950441e-7 -8.177014225302327e-7 -8.099646656028405e-7
          -9.833839215451798e-7 -9.794737039891538e-7 -9.67408932336014e-7 -0.0000013103161550644995 -0.0000013051990582114565 -0.000001289603511724459
          -0.0000018477241226982708 -0.0000018417916072556418 -0.0000018238543596486588 -0.0000026151462243513918 -0.0000026090290777135192 -0.000002589722941153729
          -9.146431077461268e-7 -9.146811318197441e-7 -9.151103309292415e-7 -9.108585392601512e-7 -9.101648319267399e-7 -9.086749742306745e-7
          -9.311151441632632e-7 -9.290755041314437e-7 -9.227432739252539e-7 -0.0000010386257467695041 -0.0000010350970305011126 -0.0000010242461946748844
          -0.0000012904501301194597 -0.00000128559321394769 -0.0000012707003110467532 -0.0000017408405900532635 -0.000001734876794427136 -0.000001716772432729886
          -0.0000024299729730007735 -0.000002423205736972648 -0.0000024027185412822785 -0.000003378585115941979 -0.000003371737793905803 -0.000003350321715813646
          -0.000001067243390353809 -0.0000010674451583033132 -0.0000010678763445653667 -0.0000010644561916662697 -0.0000010642582316220643 -0.0000010644148996836471
          -0.000001066649698029416 -0.0000010653330901443678 -0.0000010615758011186703 -0.000001123526416553066 -0.000001120598579763214 -0.0000011115486140419076
          -0.0000013010191169202875 -0.0000012965197703907856 -0.0000012826886028183143 -0.0000016594458877150587 -0.000001653602434467677 -0.0000016356474048607298
          -0.0000022506168316489643 -0.000002243738752086262 -0.0000022227500162240704 -0.0000031099843945330656 -0.0000031025357026174528 -0.000003080072861855758
          -0.000004253503978898803 -0.0000042463736107637056 -0.000004224295682055844 -0.0000012185501343499928 -0.0000012187294109932059 -0.000001220009565730469
          -0.0000012134280066057368 -0.0000012127179356768661 -0.0000012108246211634462 -0.000001237854838371968 -0.0000012356882944378446 -0.0000012289155627755265
          -0.0000013518445026542828 -0.0000013480037165926355 -0.0000013363115799569056 -0.000001619718684515318 -0.0000016142715802154496 -0.0000015975563146991114
          -0.000002104798637871011 -0.0000020979868319006385 -0.00000207702964125969 -0.0000028550980016978372 -0.0000028473710984629683 -0.000002823744822477263
          -0.0000038978330328472715 -0.000003889861280281094 -0.0000038657205052602876 -0.0000052393322617989376 -0.000005232253778104542 -0.0000052101291600654225
          -0.0000013615936344811933 -0.000001361422398544366 -0.000001361306119737647 -0.0000013698740996045384 -0.000001368436226619242 -0.0000013639574003097126
          -0.0000014367831952565062 -0.0000014337159548818094 -0.000001424437175301198 -0.0000016259705316125267 -0.0000016211952529245267 -0.000001606589402135822
          -0.000002006946054986326 -0.0000020005246757936216 -0.0000019807999952852238 -0.000002641620479575683 -0.000002633940695080497 -0.0000026104009439398883
          -0.0000035693117742903193 -0.0000035610571670215534 -0.000003535743518980433 -0.000004802623431401289 -0.000004794664058170685 -0.0000047699129077507196
          -0.000006335040116855384 -0.000006328067530380056 -0.000006306707062531083 -0.0000015059482321273579 -0.0000015050513790448598 -0.0000015022351002196397
          -0.0000015453327267266918 -0.0000015431123114170673 -0.0000015365972050992307 -0.000001671854798417626 -0.0000016679305768081898 -0.0000016560708264043553
          -0.0000019577089842919594 -0.000001951922403574957 -0.0000019341235667297904 -0.000002476532064977813 -0.0000024691371083519627 -0.0000024463312230864135
          -0.0000032836678173690705 -0.000003275327358392443 -0.0000032497980728263073 -0.000004404408306256623 -0.000004395981032313492 -0.000004370495991721466
          -0.000005831085637678194 -0.000005823099807137404 -0.00000579995192132496 -0.000007536996412869154 -0.000007530771171063649 -0.000007510527939083887
          -0.0000016626626885995108 -0.0000016610724031186067 -0.0000016565529908012304 -0.0000017459068399914627 -0.0000017428937009583624 -0.0000017339715652209281
          -0.000001951630354248454 -0.000001946706866434224 -0.000001931659403763438 -0.0000023602413778839445 -0.000002353369278046722 -0.000002332159224654292
          -0.0000030436458539435513 -0.0000030353831803250927 -0.0000030099358344212286 -0.0000040440752040526865 -0.000004035274929689174 -0.000004008479877809696
          -0.000005365645220652461 -0.000005357195439631843 -0.0000053317519401919445 -0.000006983673417774712 -0.000006976163061802264 -0.000006953253212698881
          -0.00000884282874315126 -0.000008837016962661404 -0.00000881952527208692 -0.000001837592248463639 -0.0000018352408108940188 -0.0000018286152085071248
          -0.0000019786879441271677 -0.000001974699979775721 -0.0000019626635423575936 -0.000002287398997499206 -0.0000022812663177415237 -0.000002262405372387574
          -0.0000028484744530909975 -0.000002840512045491684 -0.00000281591190564057 -0.000003723679023984045 -0.0000037146943201566866 -0.0000036872226420575315
          -0.000004933974617548262 -0.0000049249896047576534 -0.000004897718929243347 -0.0000064611791274554634 -0.00000645301656639413 -0.000006428041528569541
          -0.00000825885220922978 -0.000008251984583701622 -0.000008230795007179062 -0.000010283891482322163 -0.000010278990195174674 -0.000010263224090716986
          -0.0000020351228944682725 -0.000002031921621908788 -0.000002022509982054929 -0.0000022530551842247273 -0.0000022477904247513253 -0.000002231672455743149
          -0.0000026940081288885446 -0.0000026865530248713073 -0.0000026634749543859844 -0.0000034396884005338744 -0.0000034307048720969666 -0.000003403034861178847
          -0.000004531505070489968 -0.000004522088675440379 -0.000004493310386914698 -0.000005963939032011437 -0.0000059551167131052615 -0.000005928350797568017
          -0.00000769502434933309 -0.000007687580674272925 -0.0000076650700532396 -0.000009663823604435759 -0.000009658061307411155 -0.000009641203889308851
          -0.000011804860721243926 -0.00001180127680451774 -0.00001178987072447451 -0.000002260857512415157 -0.0000022563663431995907 -0.0000022430141078477953
          -0.0000025818055752213695 -0.0000025750100815639625 -0.000002553958391044652 -0.000003190270964631471 -0.000003181431999672642 -0.000003154056205290843
          -0.000004152765386343808 -0.000004142978077872972 -0.0000041129272470699136 -0.000005481586190945237 -0.000005472075437100251 -0.000005443095273819622
          -0.000007141142911688812 -0.00000713289762579692 -0.000007107915351036031 -0.000009065526544008609 -0.000009059218717652738 -0.000009040307565615517
          -0.000011177057153642855 -0.0000111730809430917 -0.000011160938256670715 -0.00001339801481956059 -0.000013396514372255501 -0.000013391078492780227
          -0.0000029828679603187136 -0.0000029743317602650583 -0.0000029477492649131605 -0.0000037980155706935796 -0.0000037879006196408393 -0.00000375665359483267
          -0.000005006297775383867 -0.000004996036098185547 -0.000004964685004529167 -0.000006585015534911699 -0.000006575854670495172 -0.000006548116384997763
          -0.000008467374184712173 -0.000008460184436628458 -0.000008438400981268576 -0.000010563539292218916 -0.000010558762452683312 -0.000010544153346965047
          -0.000012780253006243544 -0.000012777753205741123 -0.000012771011099182825 -0.00001504150951465614 -0.000015041295903347607 -0.000015042182148191854
          -0.0000034798459864525298 -0.0000034694786136577344 -0.0000034371957183829595 -0.000004540793619301958 -0.000004529673775739443 -0.000004495544099374834
          -0.00000601663069090386 -0.000006006322828818133 -0.000005974955859857145 -0.000007847201541128189 -0.00000783886592339705 -0.00000781372401257037
          -0.00000993710086048319 -0.000009931370836701132 -0.000009914295425712826 -0.000012175794704341331 -0.000012172763495482699 -0.000012163772600288757
          -0.000014456712448107686 -0.000014456090991861683 -0.000014453480737774784 -0.00001670270999941531 -0.00001670355557266716 -0.000016705511535101217
          -0.000004100886465634617 -0.000004088809140373454 -0.000004051432484337208 -0.000005442098471773286 -0.000005430394293467039 -0.000005394805873096844
          -0.000007196929450705747 -0.000007187075574449075 -0.00000715719400490098 -0.000009268339288851514 -0.000009261225140269895 -0.000009239747264751944
          -0.000011537281244946977 -0.000011533255341479415 -0.000011521454246858044 -0.00001388115320630025 -0.000013880025174872487 -0.000013877268869159348
          -0.000016190178976196198 -0.000016191107865388128 -0.000016194938122316728 -0.000018388458900657086 -0.000018390679085980365 -0.000018394006978335648
          -0.000004877644371061102 -0.000004864216393858735 -0.000004822952855705586 -0.000006523807268822807 -0.000006512052791111671 -0.000006476658359002204
          -0.000008556153748800711 -0.000008547276038055227 -0.000008520486260506517 -0.000010844143861332586 -0.000010838576331279747 -0.000010821841417010692
          -0.000013251923479132974 -0.000013249685871916031 -0.00001324318037221101 -0.00001565415343638755 -0.00001565499783427838 -0.0000156574894985039
          -0.000017950902689809917 -0.000017953751889553385 -0.000017962899580695727 -0.000020081101243332284 -0.00002008585251421444 -0.00002009838159289359
          -0.000007805103132813688 -0.000007793880114822562 -0.000007760421712532728 -0.000010097878932450296 -0.00001009048552432354 -0.000010068274361851754
          -0.00001256498040444526 -0.000012561342790028819 -0.000012550449010784083 -0.000015062255616717093 -0.000015062078567244249 -0.000015061609185586956
          -0.000017470476063020585 -0.000017473475296011984 -0.0000174816008573352 -0.000019704476596580557 -0.000019709766608124752 -0.000019724901147989603
          -0.000021725692073641806 -0.000021733854854129338 -0.00002175599646079049 -0.00000930090643640536 -0.000009290929428807677 -0.000009261299737538388
          -0.000011819353914935003 -0.000011813959359233756 -0.000011797774475619421 -0.000014413683346512377 -0.000014412485034559173 -0.00001440876342229479
          -0.000016941263774318284 -0.000016943719014848366 -0.000016950920358531942 -0.00001929551599156891 -0.00001930111762213326 -0.000019317410182420068
          -0.00002140820415998369 -0.000021416095559429032 -0.000021440560585451324 -0.00002324319427655878 -0.000023253072668482464 -0.000023283860055277082
          -0.000011019597136550617 -0.000011011609830975558 -0.000010987996140711144 -0.000013708854930557007 -0.000013706096811255427 -0.000013697769044406212
          -0.000016361561494018674 -0.00001636333526480524 -0.000016368529676215974 -0.000018846031210340416 -0.00001885158371967612 -0.000018868141653281474
          -0.000021074275353240743 -0.000021082658694341908 -0.00002110812944851889 -0.000022995644830182234 -0.000023005811587139562 -0.000023037056367156256
          -0.000012958071237559781 -0.000012953070650290139 -0.000012938123036561891 -0.000015740465950474976 -0.000015741001354685838 -0.00001574270716788078
          -0.000018362838057390653 -0.00001836803022311387 -0.000018383693598578887 -0.00002071561137070775 -0.000020724287520188085 -0.000020750565640403842
          -0.00002273804561946901 -0.00002274866419587506 -0.000022781428167057474 -0.000019673832212154156 -0.000017215324358006935 -0.000015525624718441614
          -0.000017516288922893046 -0.000019679097478792632 -0.00001721719770627039 -0.000015526085884526 -0.000017519267836482908 -0.0000196917268271564
          -0.000017222128930086343 -0.00001552832616400907 -0.000017528974601719348 -0.000007326754340881462 -0.000008616456752781281 -0.000007355949895697336
          -0.00000616799380971165 -0.000007322218336334771 -0.000008612999750161922 -0.000007350435080630942 -0.0000061620111735883536 -0.000007308225417940443
          -0.00000860249718029751 -0.00000733419840672207 -0.0000061438227656854985 -0.000023071504480643976 -0.000024046565333262506 -0.000022529112362864327
          -0.00002307993889936484 -0.000024056504300737134 -0.000022536825123825198 -0.000023105525775767013 -0.00002409184054470089 -0.0000225643597321012
          -0.00002348482086160543 -0.000023492209136233974 -0.000023519467323583788 -0.000013785709252039087 -0.000012122545597637409 -0.00001367220283709843
          -0.000015635206003040478 -0.0000137845741838499 -0.000012120281811970965 -0.000013671585829658096 -0.000015636544698151015 -0.00001378152894566127
          -0.000012111240364241487 -0.000013670021343675931 -0.00001564129682255153 -0.000005841878605640727 -0.000004992086037881195 -0.000005837094974088566
          -0.000004985671781307455 -0.0000058217698883207146 -0.00000496585432782666 -0.00002048138190267399 -0.000022196195971668857 -0.000022362748918418953
          -0.000020485993354047487 -0.00002220232547498971 -0.000022369192238287794 -0.000020504878923038007 -0.000022222215943544718 -0.000022387279477442824
          -0.000003900717252455059 -0.000004513449831761841 -0.00000389422049864734 -0.0000045085510803910225 -0.0000038741196945406336 -0.000004493779478822656
          -0.00002078280347883007 -0.000022398609828298012 -0.000020790052738244154 -0.00002240542734292894 -0.00002081000250146571 -0.000022434064297617346
          -0.000010630514669278542 -0.000010627799295625353 -0.000010621239968379876 -0.000019444283151705525 -0.000021636102598390007 -0.000019449593033068575
          -0.00002164251163611259 -0.000019464916393212292 -0.00002166571162400716 -0.000018836506228039838 -0.000020269791270931913 -0.000018839898397852873
          -0.000020276202864998987 -0.000018848852169133273 -0.00002029411703405333 -0.000011049079322927747 -0.00001173186480698034 -0.000011045540857946678
          -0.000011729377886816228 -0.00001103537177706455 -0.000011723082994738209 -0.000008542100917073579 -0.000009975523473843566 -0.000008537572206121286
          -0.000009971772855915528 -0.000008523564282246639 -0.000009961378810917238 -0.000002952032686461654 -0.000002946366565915567 -0.000002927037587754163
          -0.0000015419056927826067 -0.000002168989377782511 -0.0000015379633768655644 -0.000002164334366760538 -0.0000015275339873290366 -0.0000021484710297999486
          -0.000009293744068123647 -0.00000929054731951774 -0.000009282449782853385 -9.402520492054207e-7 -9.400664289545378e-7 -9.328824938533651e-7
          -0.000021155819199086844 -0.000021162663133028058 -0.000021182673370565543 -4.903102101917094e-7 -4.89750213159124e-7 -4.902593821729367e-7
          -0.000003353638824774775 -0.0000033492728679262096 -0.0000033344380640797094 -0.000002299821535762552 -0.000002298873884164692 -0.0000022901330647177935
          -0.0000017478537690694795 -0.0000017451870171863704 -0.0000017468641440755214 -0.00002457692385252741 -0.00002458775449941465 -0.00002462157129040394
          -0.000024406371776596836 -0.00002441750264197431 -0.000024451799115610513 -0.000025718665563186317 -0.000025728802540756793 -0.0000257612167192571
          -0.000017866586514561922 -0.000015093587278547124 -0.000017871123264263236 -0.000015092636405396337 -0.000017884970860095988 -0.000015089579826923361
          -0.000020352200604655304 -0.000020361010662831573 -0.00002038783779704417 -0.000022477803693186704 -0.00002248906207299601 -0.000022523682672302708
          -0.000024222387238529833 -0.0000242341423692277 -0.00002427074247997048 -0.00002560407293803893 -0.000025614821510697738 -0.0000256484202610155
          -0.000025046631587933412 -0.000025054656426442233 -0.000025078065356416594 -0.0000248199667982579 -0.000024828046858992994 -0.000024850742278655267
          -0.000014812119693966049 -0.00001770669943426455 -0.000014813540639097996 -0.000017710484078070043 -0.000014818138387161847 -0.000017721255365408834
          -0.000024225168571252544 -0.000024232315055465255 -0.0000242317892738274 -0.00002423925114803072 -0.0000242482528803281 -0.000024259572463669024
          -0.000008683085981422153 -0.000010797806565020964 -0.000008680964706271955 -0.000010796318247591501 -0.000008674378864343215 -0.000010791170022611267
          -0.000006814561674848807 -0.000006812396008909542 -0.0000068063909030434065 -0.00002444461494941556 -0.000024453289708817165 -0.000024476861776243984
          -0.000012600380757317151 -0.000013481583119465759 -0.000012600582079813426 -0.000013483410134835132 -0.000012597695703451335 -0.000013488316327731655
          -0.000023944035328457627 -0.00002395155354881521 -0.000023970202049704807 -0.00002312160576474805 -0.000020757880110552282 -0.000023129727793130214
          -0.000020764684824212336 -0.000023158535539333495 -0.000020782611857234358 -0.000025262196462144472 -0.00002527177442440835 -0.00002530146762728364
          -0.000005178659005175116 -0.000005176847385792914 -0.000005170773130856856 0 -0.0000013396879646381968 0
          -0.000001337092503066478 0 -0.0000013319644624783874 -0.0000037936981927743596 -0.0000037922152353095793 -0.000003789888331093711
          -0.0000025726535262881184 -0.000002570913584631268 -0.0000025708561214154567 -0.000026100440751740688 -0.000026107480278529884 -0.000026128308351203425
        </DataArray>
        <DataArray type="Float64" Name="disp_z" format="ascii" RangeMin="-0.000001457098632292436" RangeMax="0">
          0 0 -6.344279031476488e-8 -7.943743090968808e-8 -1.2409074283635974e-7 -1.7334056894043303e-7
          0 0 -5.280020612792013e-8 -4.612466038359475e-8 -1.0607128026791963e-7 -8.878601670926946e-8
          0 0 -5.5785998777488154e-8 -5.629210567868167e-8 -1.1211407607711508e-7 -1.1293745709956325e-7
          0 0 -5.1811180683214536e-8 -5.410846213294984e-8 -1.0386968034637629e-7 -1.0686187828171154e-7
          0 0 -5.0406657338023e-8 -4.902145308657405e-8 -1.0219093638463348e-7 -9.938542858450695e-8
          0 0 -6.933366616131362e-8 -6.324028604345777e-8 -1.3999138285719417e-7 -1.2790570301112648e-7
          0 0 -1.033769140328308e-7 -9.742602851510466e-8 -2.0877897073398464e-7 -1.9775024917161677e-7
          0 0 -1.41064416255677e-7 -1.4027207819037427e-7 -2.8921506479329017e-7 -2.8628156066742627e-7
          0 -5.7309918656996985e-8 -1.1524169616033471e-7 0 -5.3795575564231676e-8 -1.0768656366021135e-7
          0 -5.332979757255957e-8 -1.0656635656638572e-7 0 -5.2164730316264696e-8 -1.0420394461212457e-7
          0 -5.767924544313275e-8 -1.1741753774895245e-7 0 -8.225811728998051e-8 -1.6507077166792812e-7
          0 -1.1798099365595464e-7 -2.3841713173841464e-7 0 -1.5187443147393315e-7 -3.0838144297316426e-7
          0 -5.8910418361575036e-8 -1.1776396156648043e-7 0 -5.459671128809967e-8 -1.0938710984139009e-7
          0 -4.9894786042191647e-8 -1.0034515445283963e-7 0 -5.436340776616406e-8 -1.0992514223220343e-7
          0 -6.964338890224936e-8 -1.406686510280808e-7 0 -9.926589702665537e-8 -1.9919914592890703e-7
          0 -1.4163809102197931e-7 -2.85382560387893e-7 0 -1.856648301139656e-7 -3.7476797351534063e-7
          0 -5.879831446773778e-8 -1.1743850236092357e-7 0 -5.411607698115819e-8 -1.0846030109628812e-7
          0 -5.040867548555201e-8 -1.017385041407127e-7 0 -6.08105780887148e-8 -1.2307766586133265e-7
          0 -8.473470733855918e-8 -1.7090957466152583e-7 0 -1.2295296630316205e-7 -2.463572305030501e-7
          0 -1.6931583345838285e-7 -3.405083841438953e-7 0 -2.0834112339067848e-7 -4.193059738709827e-7
          0 -5.8331232547746696e-8 -1.1662011554925601e-7 0 -5.444195946260839e-8 -1.0937827537151238e-7
          0 -5.4615746958840895e-8 -1.104220283678383e-7 0 -7.213374140524032e-8 -1.459761145846109e-7
          0 -1.0488922760630879e-7 -2.1127915706420476e-7 0 -1.506078943838802e-7 -3.012830767480093e-7
          0 -1.997979280652767e-7 -4.0175189115196114e-7 0 -2.3988487018312893e-7 -4.830911151727049e-7
          0 -5.750174454079266e-8 -1.1514294395465802e-7 0 -5.550278828568461e-8 -1.1176875024064003e-7
          0 -6.364344216541189e-8 -1.28771032623545e-7 0 -8.954814758773416e-8 -1.808161312465723e-7
          0 -1.3009115230120014e-7 -2.616757003665192e-7 0 -1.8190017379696938e-7 -3.6381899684576636e-7
          0 -2.355870558663303e-7 -4.7332773974301033e-7 0 -2.7990853281609924e-7 -5.624849017299866e-7
          0 -5.8138503861296366e-8 -1.1629441939730711e-7 0 -5.5766728252783886e-8 -1.1209188138241432e-7
          0 -5.8911678009408844e-8 -1.189507379371111e-7 0 -7.827947833432828e-8 -1.5824020346379124e-7
          0 -1.1278442323885997e-7 -2.2721393465144222e-7 0 -1.6087385178345715e-7 -3.2318329578985256e-7
          0 -2.1851850022116267e-7 -4.369876500526516e-7 0 -2.755480284659425e-7 -5.52930046193304e-7
          0 -3.2205508047774496e-7 -6.460966065396871e-7 0 -5.603682885145824e-8 -1.1251004322122378e-7
          0 -5.577816700951314e-8 -1.123226100455288e-7 0 -6.883825536763018e-8 -1.3927618873542254e-7
          0 -9.760935198650919e-8 -1.9684594320365202e-7 0 -1.4136566650532644e-7 -2.8442428046760027e-7
          0 -1.976177733214124e-7 -3.964384271272748e-7 0 -2.606889486210783e-7 -5.209868644870704e-7
          0 -3.192889389102469e-7 -6.398965514518568e-7 0 -3.6456187997171134e-7 -7.305285753443708e-7
          0 -5.265383633938741e-8 -1.0602344823499598e-7 0 -6.193308498574299e-8 -1.251682833802852e-7
          0 -8.388433181601139e-8 -1.6934960510740279e-7 0 -1.2196993829532676e-7 -2.457463551092156e-7
          0 -1.75459792486931e-7 -3.525761092289903e-7 0 -2.398734616519595e-7 -4.80563212893198e-7
          0 -3.0736256203000053e-7 -6.137306378406079e-7 0 -3.662323931987974e-7 -7.327070078427657e-7
          0 -4.07034956175433e-7 -8.148467773096154e-7 0 -5.590566849812209e-8 -1.1280626866019158e-7
          0 -7.180665189298829e-8 -1.4506442150842914e-7 0 -1.0322177202851959e-7 -2.0831545417405193e-7
          0 -1.5221114735470565e-7 -3.0630245576641907e-7 0 -2.1571528803215203e-7 -4.3282517190599094e-7
          0 -2.864350485963623e-7 -5.731139465248379e-7 0 -3.557873366214993e-7 -7.101405379447203e-7
          0 -4.128823794013102e-7 -8.256095435471251e-7 0 -4.467473523939853e-7 -8.92965121514094e-7
          0 -6.226668429946613e-8 -1.2548987877088757e-7 0 -8.550072288644997e-8 -1.729211178141518e-7
          0 -1.2793555768988655e-7 -2.5801077423648124e-7 0 -1.8892889568817734e-7 -3.796675224329759e-7
          0 -2.617638414210201e-7 -5.243754679564351e-7 0 -3.365403468421496e-7 -6.725771551350877e-7
          0 -4.027481926367408e-7 -8.038442351754808e-7 0 -4.5161375130882187e-7 -9.018518541694632e-7
          0 -4.883828562722542e-7 -9.761155486669446e-7 0 -7.181334522355022e-8 -1.449286389925558e-7
          0 -1.0420443030176057e-7 -2.1089194922571653e-7 0 -1.5953827972664563e-7 -3.2138574079732794e-7
          0 -2.3248260546684033e-7 -4.664175265609542e-7 0 -3.1222744715119256e-7 -6.245706515477365e-7
          0 -3.8751568262189326e-7 -7.739667646080421e-7 0 -4.5074135117950095e-7 -8.993008354882705e-7
          0 -4.988767395165045e-7 -9.956926195587905e-7 0 -5.196126345768243e-7 -0.0000010376223828911383
          0 -8.580530593675571e-8 -1.732499339629474e-7 0 -1.2978242795527717e-7 -2.6258235582126793e-7
          0 -1.9913836551194718e-7 -4.004879415697994e-7 0 -2.8238097613293744e-7 -5.655638451601339e-7
          0 -3.6586390667237857e-7 -7.310707773674693e-7 0 -4.391622601926049e-7 -8.764703751618476e-7
          0 -4.962757394033541e-7 -9.898362606064579e-7 0 -5.317506225054147e-7 -0.0000010604738995289678
          0 -5.496138169201437e-7 -0.0000010969430761585337 0 -1.0599704854978944e-7 -2.1388366308928024e-7
          0 -1.6433238088126385e-7 -3.3210685071621234e-7 0 -2.472843212616671e-7 -4.963078473169596e-7
          0 -3.377192043576091e-7 -6.753479225169788e-7 0 -4.2123589165769197e-7 -8.408731416448788e-7
          0 -4.885258354621219e-7 -9.744613988971956e-7 0 -5.350095621674616e-7 -0.0000010669322651900112
          0 -5.608721008871759e-7 -0.0000011185984674656814 0 -5.648839299256721e-7 -0.000001126352188956686
          0 -2.092529381215917e-7 -4.22073909484144e-7 0 -3.0366728840428303e-7 -6.08200172191213e-7
          0 -3.9667569708781623e-7 -7.922192329769066e-7 0 -4.75546335641577e-7 -9.486324935479516e-7
          0 -5.334514064325715e-7 -0.0000010635697557697411 0 -5.667692141291908e-7 -0.0000011300769496810188
          0 -5.764025310355747e-7 -0.0000011497874554625394 0 -5.708041657468322e-7 -0.0000011396062585048112
          0 -2.6535392223035714e-7 -5.341105489827118e-7 0 -3.6673319204736935e-7 -7.331459226647926e-7
          0 -4.569294519978752e-7 -9.116054477305461e-7 0 -5.259171332334683e-7 -0.000001048647586724476
          0 -5.70304302282397e-7 -0.000001136912355728601 0 -5.89809263118918e-7 -0.000001175924661190608
          0 -5.846001677488187e-7 -0.0000011660361342352803 0 -5.577534998130631e-7 -0.0000011138778634049096
          0 -3.3196616176137894e-7 -6.668888156583182e-7 0 -4.3394654160843424e-7 -8.663277010693318e-7
          0 -5.158341989466605e-7 -0.000001028336203725654 0 -5.704453890578874e-7 -0.000001137023909561853
          0 -5.967963903359389e-7 -0.0000011898258920175272 0 -5.979870400329103e-7 -0.0000011932856191000652
          0 -5.843854283949858e-7 -0.0000011662084865097622 0 -5.682610616877397e-7 -0.000001132276544485072
          0 -4.069708691378315e-7 -8.16406535056643e-7 0 -5.01944624273399e-7 -0.000001001272722675967
          0 -5.70168949107093e-7 -0.0000011360970458128556 0 -6.068286353493538e-7 -0.0000012093062886053513
          0 -6.136516410417035e-7 -0.000001223590968931703 0 -5.958840223931373e-7 -0.0000011898964827699362
          0 -5.659120605475604e-7 -0.0000011294536258784388 0 -5.492680520657116e-7 -0.0000010917680491330296
          0 -5.675245591448765e-7 -0.0000011316809031859671 0 -6.168206240628061e-7 -0.000001228750269054492
          0 -6.328024633356151e-7 -0.0000012609750231320681 0 -6.196518504625556e-7 -0.0000012357122592814944
          0 -5.856894374870755e-7 -0.0000011699908226847956 0 -5.481940191663367e-7 -0.0000010931588439763159
          0 -5.28458535287573e-7 -0.000001050184601091166 0 -6.270517754689026e-7 -0.0000012503959925074553
          0 -6.531803800570032e-7 -0.0000013010243607668223 0 -6.465019240525975e-7 -0.0000012882458162670263
          0 -6.136257249012803e-7 -0.0000012237098473652007 0 -5.641071340734934e-7 -0.000001126801522984048
          0 -5.117723883046871e-7 -0.0000010191052935924103 0 -4.732931182069078e-7 -9.417975105982408e-7
          0 -6.770616247839157e-7 -0.000001350298233732416 0 -6.76556363933335e-7 -0.0000013474544030118181
          0 -6.453299183548168e-7 -0.000001285857131780796 0 -5.912742101667565e-7 -0.0000011792258151413105
          0 -5.237690134845878e-7 -0.0000010466720437995557 0 -4.57661057139427e-7 -9.116961745439604e-7
          0 -7.135005178773887e-7 -0.0000014229691365341282 0 -6.828387971679611e-7 -0.0000013599765381245817
          0 -6.253536447352346e-7 -0.0000012461629030838243 0 -5.49590317428237e-7 -0.0000010967317068432468
          0 -4.665860295396087e-7 -9.334955840677989e-7 0 0 0
          0 -4.998584733987737e-7 -5.483137336515921e-7 -5.50626859609733e-7 -5.299424278049503e-7 -9.961541081306013e-7
          -0.000001092974093474492 -0.0000010982274127835396 -0.0000010569656799698908 0 0 0
          0 -4.938745735325869e-7 -5.156553513981159e-7 -4.6685242879203753e-7 -4.361217212451171e-7 -9.832699196476658e-7
          -0.0000010264195631727288 -9.324282341503229e-7 -8.713359701590382e-7 0 0 0
          -3.96197309998314e-7 -3.8199161191809183e-7 -4.7266868834701385e-7 -7.954806876429255e-7 -7.654510454868369e-7 -9.389543746751183e-7
          0 -3.550911015575072e-7 -7.141366332088093e-7 0 0 0
          0 -5.572317706758038e-7 -5.383934772978391e-7 -5.546607343735225e-7 -5.503054179373793e-7 -0.000001111302584918891
          -0.0000010749444992807879 -0.0000011046975201972537 -0.0000010959090865096334 0 0 -4.559330640525273e-7
          -3.9582803868788355e-7 -9.08526816743501e-7 -7.923744599273007e-7 0 0 0
          -4.5527558443733423e-7 -3.924422838554508e-7 -4.0157727934680647e-7 -9.116765375129137e-7 -7.862671887416415e-7 -8.036880874516328e-7
          0 0 -3.5084748742941874e-7 -4.1619312608585254e-7 -7.041587084162036e-7 -8.298511646916465e-7
          0 0 -5.088994135809768e-7 -4.230499335436773e-7 -0.0000010128632801054373 -8.468166992810255e-7
          0 -5.316662324111995e-7 -0.0000010589233978205714 0 0 -4.87250507350329e-7
          -4.1445521846047833e-7 -9.722735075709918e-7 -8.298143810174849e-7 0 0 -5.300425041476829e-7
          -5.208627059695723e-7 -0.0000010545750488931515 -0.0000010386011432591105 0 0 -5.247702169528781e-7
          -5.378933109587957e-7 -0.0000010473351216675769 -0.0000010723790212813864 0 0 -4.924887603209622e-7
          -5.216764507033756e-7 -9.834751586495947e-7 -0.0000010414958178211922 0 -3.0505139638618215e-7 -6.158526204591042e-7
          0 0 -2.430247526493669e-7 -2.6063466041675333e-7 -4.961520813757728e-7 -5.28748681967753e-7
          0 -5.200405563872232e-7 -0.000001036554459491465 0 -2.2374850245980474e-7 -4.5743026958561276e-7
          0 -5.277157311638225e-7 -0.0000010491252370201636 0 -1.8254507221612297e-7 -3.6493281597777785e-7
          0 -3.7645447127062224e-7 -7.519475359877225e-7 0 -3.301928407980952e-7 -6.630181713597693e-7
          0 -2.8469860515275887e-7 -5.632378590695431e-7 0 -4.0700142124380017e-7 -8.132028732532239e-7
          0 -3.926309359144263e-7 -7.838638647355796e-7 0 -3.393425063592409e-7 -6.797488427000724e-7
          0 0 -6.676941730212588e-7 -7.30637099741203e-7 -0.0000013300272907065975 -0.000001457098632292436
          0 -5.837386834739415e-7 -0.0000011639115362832609 0 -4.894526256595764e-7 -9.779779774052547e-7
          0 -3.9803955035360533e-7 -7.982500308318277e-7 0 -3.2547148786296575e-7 -6.515185056110571e-7
          0 -3.0548588768216484e-7 -6.163335183159957e-7 0 -3.1727385583061574e-7 -6.373725922113309e-7
          0 0 -5.57143331504659e-7 -5.070538096359563e-7 -0.0000011102819660438602 -0.000001012222781224696
          0 0 -3.4201109161110935e-7 -3.3881939278420976e-7 -6.852371054699315e-7 -6.777744452415065e-7
          0 0 -5.250086080011447e-7 -5.430041063603661e-7 -0.0000010489303048813031 -0.0000010836968898487392
          0 -5.081402950582635e-7 -0.000001014604836493841 0 -3.299029848735107e-7 -6.617699541731133e-7
          0 0 -5.469153831216598e-7 -5.537007878223497e-7 -0.0000010897849801222337 -0.000001103973614656163
          0 -3.319631154967724e-7 -6.66703018410538e-7 0 0 -3.69613996399801e-7
          -4.3800222078869973e-7 -7.411025504932954e-7 -8.776309575292748e-7 0 -3.0745762081062284e-7 -6.180271703159981e-7
          0 -4.845908657166778e-7 -9.679989462203813e-7 0 0 -2.8407784816562704e-7
          -3.7499619065731277e-7 -5.734846132316984e-7 -7.503414523564966e-7 0 -4.61664197918552e-7 -9.214345272971613e-7
          0 -4.458963237167586e-7 -8.904955841705031e-7 0 -2.630423735089408e-7 -5.312394158289076e-7
        </DataArray>
      </PointData>
      <CellData>
        <DataArray type="Int32" Name="libmesh_elem_id" format="ascii" RangeMin="776" RangeMax="3207">
          776 777 778 779 780 781
          782 783 784 785 786 787
          788 789 794 795 796 797
          798 799 800 801 802 803
          804 805 806 807 812 813
          814 815 816 817 818 819
          820 821 822 823 824 825
          830 831 832 833 834 835
          836 837 838 839 840 841
          842 843 848 849 850 851
          852 853 854 855 856 857
          858 859 860 861 866 867
          868 869 870 871 872 873
          874 875 876 877 878 879
          884 885 886 887 888 889
          890 891 892 893 894 895
          896 897 900 901 902 903
          904 905 906 907 908 909
          910 911 912 913 914 915
          918 919 920 921 922 923
          924 925 926 927 928 929
          930 931 932 933 936 937
          938 939 940 941 942 943
          944 945 946 947 948 949
          950 951 954 955 956 957
          958 959 960 961 962 963
          964 965 966 967 968 969
          972 973 974 975 976 977
          978 979 980 981 982 983
          984 985 986 987 990 991
          992 993 994 995 996 997
          998 999 1000 1001 1002 1003
          1004 1005 1008 1009 1010 1011
          1012 1013 1014 1015 1016 1017
          1018 1019 1020 1021 1022 1023
          1028 1029 1030 1031 1032 1033
          1034 1035 1036 1037 1038 1039
          1040 1041 1046 1047 1048 1049
          1050 1051 1052 1053 1054 1055
          1056 1057 1058 1059 1064 1065
          1066 1067 1068 1069 1070 1071
          1072 1073 1074 1075 1076 1077
          1082 1083 1084 1085 1086 1087
          1088 1089 1090 1091 1092 1093
          1094 1095 1102 1103 1104 1105
          1106 1107 1108 1109 1110 1111
          1112 1113 1120 1121 1122 1123
          1124 1125 1126 1127 1128 1129
          1130 1131 1138 1139 1140 1141
          1142 1143 1144 1145 1146 1147
          1148 1149 1156 1157 1158 1159
          1160 1161 1162 1163 1164 1165
          1166 1167 1174 1175 1176 1177
          1178 1179 1180 1181 1182 1183
          1374 1375 1376 1377 1378 1379
          1384 1385 1388 1389 1404 1405
          1458 1459 1536 1537 1542 1543
          1624 1625 1648 1649 1658 1659
          1672 1673 1770 1771 1810 1811
          1818 1819 1828 1829 1830 1831
          1866 1867 2074 2075 2078 2079
          2116 2117 2124 2125 2288 2289
          2290 2291 2336 2337 2342 2343
          2348 2349 2352 2353 2356 2357
          2358 2359 2424 2425 2452 2453
          2464 2465 2496 2497 2526 2527
          2530 2531 2532 2533 2554 2555
          2560 2561 2590 2591 2594 2595
          2622 2623 2736 2737 2740 2741
          2762 2763 2768 2769 2794 2795
          2800 2801 2864 2865 2890 2891
          2904 2905 2920 2921 2956 2957
          2986 2987 3018 3019 3036 3037
          3088 3089 3114 3115 3144 3145
          3156 3157 3176 3177 3184 3185
          3190 3191 3206 3207
        </DataArray>
        <DataArray type="Int32" Name="subdomain_id" format="ascii" RangeMin="105" RangeMax="107">
          105 105 105 105 105 105
          105 105 105 105 105 105
          105 105 105 105 105 105
          105 105 105 105 105 105
          105 105 105 105 105 105
          105 105 105 105 105 105
          105 105 105 105 105 105
          105 105 105 105 105 105
          105 105 105 105 105 105
          105 105 105 105 105 105
          105 105 105 105 105 105
          105 105 105 105 105 105
          105 105 105 105 105 105
          105 105 105 105 105 105
          105 105 105 105 105 105
          105 105 105 105 105 105
          105 105 105 105 105 105
          105 105 105 105 105 105
          105 105 105 105 105 105
          105 105 105 105 105 105
          105 105 105 105 105 105
          105 105 105 105 105 105
          105 105 105 105 105 105
          105 105 105 105 105 105
          105 105 105 105 105 105
          105 105 105 105 105 105
          105 105 105 105 105 105
          105 105 105 105 105 105
          105 105 105 105 105 105
          105 105 105 105 105 105
          105 105 105 105 105 105
          105 105 105 105 105 105
          105 105 105 105 105 105
          105 105 105 105 105 105
          105 105 105 105 105 105
          105 105 105 105 105 105
          105 105 105 105 105 105
          105 105 105 105 105 105
          105 105 105 105 105 105
          105 105 105 105 105 105
          105 105 105 105 105 105
          105 105 105 105 105 105
          105 105 105 105 105 105
          105 105 105 105 105 105
          105 105 105 105 105 105
          105 105 105 105 105 105
          105 105 105 105 105 105
          105 105 105 105 105 105
          105 105 105 105 105 105
          105 105 105 105 105 105
          105 105 105 105 105 105
          105 105 105 105 105 105
          105 105 105 105 105 105
          105 105 105 105 105 105
          107 107 107 107 107 107
          107 107 107 107 107 107
          107 107 107 107 107 107
          107 107 107 107 107 107
          107 107 107 107 107 107
          107 107 107 107 107 107
          107 107 107 107 107 107
          107 107 107 107 107 107
          107 107 107 107 107 107
          107 107 107 107 107 107
          107 107 107 107 107 107
          107 107 107 107 107 107
          107 107 107 107 107 107
          107 107 107 107 107 107
          107 107 107 107 107 107
          107 107 107 107 107 107
          107 107 107 107 107 107
          107 107 107 107 107 107
          107 107 107 107 107 107
          107 107 107 107 107 107
          107 107 107 107 107 107
          107 107 107 107
        </DataArray>
        <DataArray type="Int32" Name="processor_id" format="ascii" RangeMin="6" RangeMax="6">
          6 6 6 6 6 6
          6 6 6 6 6 6
          6 6 6 6 6 6
          6 6 6 6 6 6
          6 6 6 6 6 6
          6 6 6 6 6 6
          6 6 6 6 6 6
          6 6 6 6 6 6
          6 6 6 6 6 6
          6 6 6 6 6 6
          6 6 6 6 6 6
          6 6 6 6 6 6
          6 6 6 6 6 6
          6 6 6 6 6 6
          6 6 6 6 6 6
          6 6 6 6 6 6
          6 6 6 6 6 6
          6 6 6 6 6 6
          6 6 6 6 6 6
          6 6 6 6 6 6
          6 6 6 6 6 6
          6 6 6 6 6 6
          6 6 6 6 6 6
          6 6 6 6 6 6
          6 6 6 6 6 6
          6 6 6 6 6 6
          6 6 6 6 6 6
          6 6 6 6 6 6
          6 6 6 6 6 6
          6 6 6 6 6 6
          6 6 6 6 6 6
          6 6 6 6 6 6
          6 6 6 6 6 6
          6 6 6 6 6 6
          6 6 6 6 6 6
          6 6 6 6 6 6
          6 6 6 6 6 6
          6 6 6 6 6 6
          6 6 6 6 6 6
          6 6 6 6 6 6
          6 6 6 6 6 6
          6 6 6 6 6 6
          6 6 6 6 6 6
          6 6 6 6 6 6
          6 6 6 6 6 6
          6 6 6 6 6 6
          6 6 6 6 6 6
          6 6 6 6 6 6
          6 6 6 6 6 6
          6 6 6 6 6 6
          6 6 6 6 6 6
          6 6 6 6 6 6
          6 6 6 6 6 6
          6 6 6 6 6 6
          6 6 6 6 6 6
          6 6 6 6 6 6
          6 6 6 6 6 6
          6 6 6 6 6 6
          6 6 6 6 6 6
          6 6 6 6 6 6
          6 6 6 6 6 6
          6 6 6 6 6 6
          6 6 6 6 6 6
          6 6 6 6 6 6
          6 6 6 6 6 6
          6 6 6 6 6 6
          6 6 6 6 6 6
          6 6 6 6 6 6
          6 6 6 6 6 6
          6 6 6 6 6 6
          6 6 6 6 6 6
          6 6 6 6 6 6
          6 6 6 6 6 6
          6 6 6 6 6 6
          6 6 6 6 6 6
          6 6 6 6
        </DataArray>
      </CellData>
      <Points>
        <DataArray type="Float64" Name="Points" NumberOfComponents="3" format="ascii" RangeMin="0.0018888888888872" RangeMax="0.010555613193541787">
          0.0018888888888873 0.00041379310344749 0 0.0018888888888872 0 0
          0.0018888888888873 0.00041379310344749 0.00015 0.0018888888888872 0 0.00015
          0.0018888888888873 0.00041379310344749 0.0003 0.0018888888888872 0 0.0003
          0.0023333333333313 0.00041379310344749 0 0.0023333333333311 0 0
          0.0023333333333313 0.00041379310344749 0.00015 0.0023333333333311 0 0.00015
          0.0023333333333313 0.00041379310344749 0.0003 0.0023333333333311 0 0.0003
          0.0027777777777734 0.00041379310344749 0 0.0027777777777731 0 0
          0.0027777777777734 0.00041379310344749 0.00015 0.0027777777777731 0 0.00015
          0.0027777777777734 0.00041379310344749 0.0003 0.0027777777777731 0 0.0003
          0.003222222222218 0.00041379310344749 0 0.0032222222222177 0 0
          0.003222222222218 0.00041379310344749 0.00015 0.0032222222222177 0 0.00015
          0.003222222222218 0.00041379310344749 0.0003 0.0032222222222177 0 0.0003
          0.0036666666666636 0.00041379310344749 0 0.0036666666666634 0 0
          0.0036666666666636 0.00041379310344749 0.00015 0.0036666666666634 0 0.00015
          0.0036666666666636 0.00041379310344749 0.0003 0.0036666666666634 0 0.0003
          0.0041111111111091 0.00041379310344749 0 0.004111111111109 0 0
          0.0041111111111091 0.00041379310344749 0.00015 0.004111111111109 0 0.00015
          0.0041111111111091 0.00041379310344749 0.0003 0.004111111111109 0 0.0003
          0.0045555555555554 0.00041379310344749 0 0.0045555555555553 0 0
          0.0045555555555554 0.00041379310344749 0.00015 0.0045555555555553 0 0.00015
          0.0045555555555554 0.00041379310344749 0.0003 0.0045555555555553 0 0.0003
          0.005 0.00041379310344749 0 0.005 0 0
          0.005 0.00041379310344749 0.00015 0.005 0 0.00015
          0.005 0.00041379310344749 0.0003 0.005 0 0.0003
          0.0018888888888875 0.00082758620689497 0 0.0018888888888875 0.00082758620689497 0.00015
          0.0018888888888875 0.00082758620689497 0.0003 0.0023333333333315 0.00082758620689497 0
          0.0023333333333315 0.00082758620689497 0.00015 0.0023333333333315 0.00082758620689497 0.0003
          0.0027777777777737 0.00082758620689497 0 0.0027777777777737 0.00082758620689497 0.00015
          0.0027777777777737 0.00082758620689497 0.0003 0.0032222222222183 0.00082758620689497 0
          0.0032222222222183 0.00082758620689497 0.00015 0.0032222222222183 0.00082758620689497 0.0003
          0.0036666666666638 0.00082758620689497 0 0.0036666666666638 0.00082758620689497 0.00015
          0.0036666666666638 0.00082758620689497 0.0003 0.0041111111111093 0.00082758620689497 0
          0.0041111111111093 0.00082758620689497 0.00015 0.0041111111111093 0.00082758620689497 0.0003
          0.0045555555555554 0.00082758620689497 0 0.0045555555555554 0.00082758620689497 0.00015
          0.0045555555555554 0.00082758620689497 0.0003 0.005 0.00082758620689497 0
          0.005 0.00082758620689497 0.00015 0.005 0.00082758620689497 0.0003
          0.0018888888888876 0.0012413793103426 0 0.0018888888888876 0.0012413793103426 0.00015
          0.0018888888888876 0.0012413793103426 0.0003 0.0023333333333317 0.0012413793103426 0
          0.0023333333333317 0.0012413793103426 0.00015 0.0023333333333317 0.0012413793103426 0.0003
          0.002777777777774 0.0012413793103426 0 0.002777777777774 0.0012413793103426 0.00015
          0.002777777777774 0.0012413793103426 0.0003 0.0032222222222186 0.0012413793103426 0
          0.0032222222222186 0.0012413793103426 0.00015 0.0032222222222186 0.0012413793103426 0.0003
          0.003666666666664 0.0012413793103426 0 0.003666666666664 0.0012413793103426 0.00015
          0.003666666666664 0.0012413793103426 0.0003 0.0041111111111095 0.0012413793103426 0
          0.0041111111111095 0.0012413793103426 0.00015 0.0041111111111095 0.0012413793103426 0.0003
          0.0045555555555554 0.0012413793103426 0 0.0045555555555554 0.0012413793103426 0.00015
          0.0045555555555554 0.0012413793103426 0.0003 0.005 0.0012413793103426 0
          0.005 0.0012413793103426 0.00015 0.005 0.0012413793103426 0.0003
          0.0018888888888877 0.0016551724137901 0 0.0018888888888877 0.0016551724137901 0.00015
          0.0018888888888877 0.0016551724137901 0.0003 0.0023333333333319 0.0016551724137901 0
          0.0023333333333319 0.0016551724137901 0.00015 0.0023333333333319 0.0016551724137901 0.0003
          0.0027777777777743 0.0016551724137901 0 0.0027777777777743 0.0016551724137901 0.00015
          0.0027777777777743 0.0016551724137901 0.0003 0.0032222222222189 0.0016551724137901 0
          0.0032222222222189 0.0016551724137901 0.00015 0.0032222222222189 0.0016551724137901 0.0003
          0.0036666666666642 0.0016551724137901 0 0.0036666666666642 0.0016551724137901 0.00015
          0.0036666666666642 0.0016551724137901 0.0003 0.0041111111111096 0.0016551724137901 0
          0.0041111111111096 0.0016551724137901 0.00015 0.0041111111111096 0.0016551724137901 0.0003
          0.0045555555555555 0.0016551724137901 0 0.0045555555555555 0.0016551724137901 0.00015
          0.0045555555555555 0.0016551724137901 0.0003 0.005 0.0016551724137901 0
          0.005 0.0016551724137901 0.00015 0.005 0.0016551724137901 0.0003
          0.0018888888888879 0.0020689655172371 0 0.0018888888888879 0.0020689655172371 0.00015
          0.0018888888888879 0.0020689655172371 0.0003 0.002333333333332 0.0020689655172371 0
          0.002333333333332 0.0020689655172371 0.00015 0.002333333333332 0.0020689655172371 0.0003
          0.0027777777777746 0.0020689655172371 0 0.0027777777777746 0.0020689655172371 0.00015
          0.0027777777777746 0.0020689655172371 0.0003 0.0032222222222192 0.0020689655172371 0
          0.0032222222222192 0.0020689655172371 0.00015 0.0032222222222192 0.0020689655172371 0.0003
          0.0036666666666643 0.0020689655172371 0 0.0036666666666643 0.0020689655172371 0.00015
          0.0036666666666643 0.0020689655172371 0.0003 0.0041111111111098 0.0020689655172371 0
          0.0041111111111098 0.0020689655172371 0.00015 0.0041111111111098 0.0020689655172371 0.0003
          0.0045555555555555 0.0020689655172371 0 0.0045555555555555 0.0020689655172371 0.00015
          0.0045555555555555 0.0020689655172371 0.0003 0.005 0.0020689655172371 0
          0.005 0.0020689655172371 0.00015 0.005 0.0020689655172371 0.0003
          0.001888888888888 0.0024827586206843 0 0.001888888888888 0.0024827586206843 0.00015
          0.001888888888888 0.0024827586206843 0.0003 0.0023333333333322 0.0024827586206843 0
          0.0023333333333322 0.0024827586206843 0.00015 0.0023333333333322 0.0024827586206843 0.0003
          0.0027777777777749 0.0024827586206843 0 0.0027777777777749 0.0024827586206843 0.00015
          0.0027777777777749 0.0024827586206843 0.0003 0.0032222222222196 0.0024827586206843 0
          0.0032222222222196 0.0024827586206843 0.00015 0.0032222222222196 0.0024827586206843 0.0003
          0.0036666666666645 0.0024827586206843 0 0.0036666666666645 0.0024827586206843 0.00015
          0.0036666666666645 0.0024827586206843 0.0003 0.0041111111111099 0.0024827586206843 0
          0.0041111111111099 0.0024827586206843 0.00015 0.0041111111111099 0.0024827586206843 0.0003
          0.0045555555555555 0.0024827586206843 0 0.0045555555555555 0.0024827586206843 0.00015
          0.0045555555555555 0.0024827586206843 0.0003 0.005 0.0024827586206843 0
          0.005 0.0024827586206843 0.00015 0.005 0.0024827586206843 0.0003
          0.0014444444444442 0.0028965517241314 0 0.0014444444444442 0.0028965517241314 0.00015
          0.0014444444444442 0.0028965517241314 0.0003 0.0018888888888881 0.0028965517241314 0
          0.0018888888888881 0.0028965517241314 0.00015 0.0018888888888881 0.0028965517241314 0.0003
          0.0023333333333324 0.0028965517241314 0 0.0023333333333324 0.0028965517241314 0.00015
          0.0023333333333324 0.0028965517241314 0.0003 0.0027777777777753 0.0028965517241314 0
          0.0027777777777753 0.0028965517241314 0.00015 0.0027777777777753 0.0028965517241314 0.0003
          0.0032222222222199 0.0028965517241314 0 0.0032222222222199 0.0028965517241314 0.00015
          0.0032222222222199 0.0028965517241314 0.0003 0.0036666666666647 0.0028965517241314 0
          0.0036666666666647 0.0028965517241314 0.00015 0.0036666666666647 0.0028965517241314 0.0003
          0.0041111111111101 0.0028965517241314 0 0.0041111111111101 0.0028965517241314 0.00015
          0.0041111111111101 0.0028965517241314 0.0003 0.0045555555555556 0.0028965517241314 0
          0.0045555555555556 0.0028965517241314 0.00015 0.0045555555555556 0.0028965517241314 0.0003
          0.005 0.0028965517241314 0 0.005 0.0028965517241314 0.00015
          0.005 0.0028965517241314 0.0003 0.0014444444444442 0.0033103448275785 0
          0.0014444444444442 0.0033103448275785 0.00015 0.0014444444444442 0.0033103448275785 0.0003
          0.0018888888888882 0.0033103448275785 0 0.0018888888888882 0.0033103448275785 0.00015
          0.0018888888888882 0.0033103448275785 0.0003 0.0023333333333326 0.0033103448275785 0
          0.0023333333333326 0.0033103448275785 0.00015 0.0023333333333326 0.0033103448275785 0.0003
          0.0027777777777756 0.0033103448275785 0 0.0027777777777756 0.0033103448275785 0.00015
          0.0027777777777756 0.0033103448275785 0.0003 0.0032222222222202 0.0033103448275785 0
          0.0032222222222202 0.0033103448275785 0.00015 0.0032222222222202 0.0033103448275785 0.0003
          0.0036666666666649 0.0033103448275785 0 0.0036666666666649 0.0033103448275785 0.00015
          0.0036666666666649 0.0033103448275785 0.0003 0.0041111111111102 0.0033103448275785 0
          0.0041111111111102 0.0033103448275785 0.00015 0.0041111111111102 0.0033103448275785 0.0003
          0.0045555555555556 0.0033103448275785 0 0.0045555555555556 0.0033103448275785 0.00015
          0.0045555555555556 0.0033103448275785 0.0003 0.005 0.0033103448275785 0
          0.005 0.0033103448275785 0.00015 0.005 0.0033103448275785 0.0003
          0.0014444444444443 0.0037241379310256 0 0.0014444444444443 0.0037241379310256 0.00015
          0.0014444444444443 0.0037241379310256 0.0003 0.0018888888888884 0.0037241379310256 0
          0.0018888888888884 0.0037241379310256 0.00015 0.0018888888888884 0.0037241379310256 0.0003
          0.0023333333333328 0.0037241379310256 0 0.0023333333333328 0.0037241379310256 0.00015
          0.0023333333333328 0.0037241379310256 0.0003 0.0027777777777759 0.0037241379310256 0
          0.0027777777777759 0.0037241379310256 0.00015 0.0027777777777759 0.0037241379310256 0.0003
          0.0032222222222205 0.0037241379310256 0 0.0032222222222205 0.0037241379310256 0.00015
          0.0032222222222205 0.0037241379310256 0.0003 0.003666666666665 0.0037241379310256 0
          0.003666666666665 0.0037241379310256 0.00015 0.003666666666665 0.0037241379310256 0.0003
          0.0041111111111104 0.0037241379310256 0 0.0041111111111104 0.0037241379310256 0.00015
          0.0041111111111104 0.0037241379310256 0.0003 0.0045555555555556 0.0037241379310256 0
          0.0045555555555556 0.0037241379310256 0.00015 0.0045555555555556 0.0037241379310256 0.0003
          0.005 0.0037241379310256 0 0.005 0.0037241379310256 0.00015
          0.005 0.0037241379310256 0.0003 0.0014444444444444 0.0041379310344727 0
          0.0014444444444444 0.0041379310344727 0.00015 0.0014444444444444 0.0041379310344727 0.0003
          0.0018888888888885 0.0041379310344727 0 0.0018888888888885 0.0041379310344727 0.00015
          0.0018888888888885 0.0041379310344727 0.0003 0.002333333333333 0.0041379310344727 0
          0.002333333333333 0.0041379310344727 0.00015 0.002333333333333 0.0041379310344727 0.0003
          0.0027777777777762 0.0041379310344727 0 0.0027777777777762 0.0041379310344727 0.00015
          0.0027777777777762 0.0041379310344727 0.0003 0.0032222222222208 0.0041379310344727 0
          0.0032222222222208 0.0041379310344727 0.00015 0.0032222222222208 0.0041379310344727 0.0003
          0.0036666666666652 0.0041379310344727 0 0.0036666666666652 0.0041379310344727 0.00015
          0.0036666666666652 0.0041379310344727 0.0003 0.0041111111111105 0.0041379310344727 0
          0.0041111111111105 0.0041379310344727 0.00015 0.0041111111111105 0.0041379310344727 0.0003
          0.0045555555555557 0.0041379310344727 0 0.0045555555555557 0.0041379310344727 0.00015
          0.0045555555555557 0.0041379310344727 0.0003 0.005 0.0041379310344727 0
          0.005 0.0041379310344727 0.00015 0.005 0.0041379310344727 0.0003
          0.0014444444444444 0.0045517241379199 0 0.0014444444444444 0.0045517241379199 0.00015
          0.0014444444444444 0.0045517241379199 0.0003 0.0018888888888886 0.0045517241379199 0
          0.0018888888888886 0.0045517241379199 0.00015 0.0018888888888886 0.0045517241379199 0.0003
          0.0023333333333331 0.0045517241379199 0 0.0023333333333331 0.0045517241379199 0.00015
          0.0023333333333331 0.0045517241379199 0.0003 0.0027777777777765 0.0045517241379199 0
          0.0027777777777765 0.0045517241379199 0.00015 0.0027777777777765 0.0045517241379199 0.0003
          0.0032222222222211 0.0045517241379199 0 0.0032222222222211 0.0045517241379199 0.00015
          0.0032222222222211 0.0045517241379199 0.0003 0.0036666666666654 0.0045517241379199 0
          0.0036666666666654 0.0045517241379199 0.00015 0.0036666666666654 0.0045517241379199 0.0003
          0.0041111111111107 0.0045517241379199 0 0.0041111111111107 0.0045517241379199 0.00015
          0.0041111111111107 0.0045517241379199 0.0003 0.0045555555555557 0.0045517241379199 0
          0.0045555555555557 0.0045517241379199 0.00015 0.0045555555555557 0.0045517241379199 0.0003
          0.005 0.0045517241379199 0 0.005 0.0045517241379199 0.00015
          0.005 0.0045517241379199 0.0003 0.0014444444444445 0.0049655172413669 0
          0.0014444444444445 0.0049655172413669 0.00015 0.0014444444444445 0.0049655172413669 0.0003
          0.0018888888888888 0.0049655172413669 0 0.0018888888888888 0.0049655172413669 0.00015
          0.0018888888888888 0.0049655172413669 0.0003 0.0023333333333333 0.0049655172413669 0
          0.0023333333333333 0.0049655172413669 0.00015 0.0023333333333333 0.0049655172413669 0.0003
          0.0027777777777768 0.0049655172413669 0 0.0027777777777768 0.0049655172413669 0.00015
          0.0027777777777768 0.0049655172413669 0.0003 0.0032222222222214 0.0049655172413669 0
          0.0032222222222214 0.0049655172413669 0.00015 0.0032222222222214 0.0049655172413669 0.0003
          0.0036666666666656 0.0049655172413669 0 0.0036666666666656 0.0049655172413669 0.00015
          0.0036666666666656 0.0049655172413669 0.0003 0.0041111111111108 0.0049655172413669 0
          0.0041111111111108 0.0049655172413669 0.00015 0.0041111111111108 0.0049655172413669 0.0003
          0.0045555555555557 0.0049655172413669 0 0.0045555555555557 0.0049655172413669 0.00015
          0.0045555555555557 0.0049655172413669 0.0003 0.005 0.0049655172413669 0
          0.005 0.0049655172413669 0.00015 0.005 0.0049655172413669 0.0003
          0.0014444444444445 0.0053793103448139 0 0.0014444444444445 0.0053793103448139 0.00015
          0.0014444444444445 0.0053793103448139 0.0003 0.0018888888888889 0.0053793103448139 0
          0.0018888888888889 0.0053793103448139 0.00015 0.0018888888888889 0.0053793103448139 0.0003
          0.0023333333333335 0.0053793103448139 0 0.0023333333333335 0.0053793103448139 0.00015
          0.0023333333333335 0.0053793103448139 0.0003 0.0027777777777771 0.0053793103448139 0
          0.0027777777777771 0.0053793103448139 0.00015 0.0027777777777771 0.0053793103448139 0.0003
          0.0032222222222217 0.0053793103448139 0 0.0032222222222217 0.0053793103448139 0.00015
          0.0032222222222217 0.0053793103448139 0.0003 0.0036666666666658 0.0053793103448139 0
          0.0036666666666658 0.0053793103448139 0.00015 0.0036666666666658 0.0053793103448139 0.0003
          0.004111111111111 0.0053793103448139 0 0.004111111111111 0.0053793103448139 0.00015
          0.004111111111111 0.0053793103448139 0.0003 0.0045555555555558 0.0053793103448139 0
          0.0045555555555558 0.0053793103448139 0.00015 0.0045555555555558 0.0053793103448139 0.0003
          0.005 0.0053793103448139 0 0.005 0.0053793103448139 0.00015
          0.005 0.0053793103448139 0.0003 0.0014444444444446 0.0057931034482612 0
          0.0014444444444446 0.0057931034482612 0.00015 0.0014444444444446 0.0057931034482612 0.0003
          0.001888888888889 0.0057931034482612 0 0.001888888888889 0.0057931034482612 0.00015
          0.001888888888889 0.0057931034482612 0.0003 0.0023333333333337 0.0057931034482612 0
          0.0023333333333337 0.0057931034482612 0.00015 0.0023333333333337 0.0057931034482612 0.0003
          0.0027777777777774 0.0057931034482612 0 0.0027777777777774 0.0057931034482612 0.00015
          0.0027777777777774 0.0057931034482612 0.0003 0.003222222222222 0.0057931034482612 0
          0.003222222222222 0.0057931034482612 0.00015 0.003222222222222 0.0057931034482612 0.0003
          0.0036666666666659 0.0057931034482612 0 0.0036666666666659 0.0057931034482612 0.00015
          0.0036666666666659 0.0057931034482612 0.0003 0.0041111111111112 0.0057931034482612 0
          0.0041111111111112 0.0057931034482612 0.00015 0.0041111111111112 0.0057931034482612 0.0003
          0.0045555555555558 0.0057931034482612 0 0.0045555555555558 0.0057931034482612 0.00015
          0.0045555555555558 0.0057931034482612 0.0003 0.005 0.0057931034482612 0
          0.005 0.0057931034482612 0.00015 0.005 0.0057931034482612 0.0003
          0.0018888888888891 0.0062068965517097 0 0.0018888888888891 0.0062068965517097 0.00015
          0.0018888888888891 0.0062068965517097 0.0003 0.0023333333333339 0.0062068965517097 0
          0.0023333333333339 0.0062068965517097 0.00015 0.0023333333333339 0.0062068965517097 0.0003
          0.0027777777777778 0.0062068965517097 0 0.0027777777777778 0.0062068965517097 0.00015
          0.0027777777777778 0.0062068965517097 0.0003 0.0032222222222224 0.0062068965517097 0
          0.0032222222222224 0.0062068965517097 0.00015 0.0032222222222224 0.0062068965517097 0.0003
          0.0036666666666661 0.0062068965517097 0 0.0036666666666661 0.0062068965517097 0.00015
          0.0036666666666661 0.0062068965517097 0.0003 0.0041111111111113 0.0062068965517097 0
          0.0041111111111113 0.0062068965517097 0.00015 0.0041111111111113 0.0062068965517097 0.0003
          0.0045555555555558 0.0062068965517097 0 0.0045555555555558 0.0062068965517097 0.00015
          0.0045555555555558 0.0062068965517097 0.0003 0.005 0.0062068965517097 0
          0.005 0.0062068965517097 0.00015 0.005 0.0062068965517097 0.0003
          0.0018888888888893 0.0066206896551586 0 0.0018888888888893 0.0066206896551586 0.00015
          0.0018888888888893 0.0066206896551586 0.0003 0.002333333333334 0.0066206896551586 0
          0.002333333333334 0.0066206896551586 0.00015 0.002333333333334 0.0066206896551586 0.0003
          0.0027777777777781 0.0066206896551586 0 0.0027777777777781 0.0066206896551586 0.00015
          0.0027777777777781 0.0066206896551586 0.0003 0.0032222222222227 0.0066206896551586 0
          0.0032222222222227 0.0066206896551586 0.00015 0.0032222222222227 0.0066206896551586 0.0003
          0.0036666666666663 0.0066206896551586 0 0.0036666666666663 0.0066206896551586 0.00015
          0.0036666666666663 0.0066206896551586 0.0003 0.0041111111111115 0.0066206896551586 0
          0.0041111111111115 0.0066206896551586 0.00015 0.0041111111111115 0.0066206896551586 0.0003
          0.0045555555555559 0.0066206896551586 0 0.0045555555555559 0.0066206896551586 0.00015
          0.0045555555555559 0.0066206896551586 0.0003 0.005 0.0066206896551586 0
          0.005 0.0066206896551586 0.00015 0.005 0.0066206896551586 0.0003
          0.0018888888888894 0.0070344827586082 0 0.0018888888888894 0.0070344827586082 0.00015
          0.0018888888888894 0.0070344827586082 0.0003 0.0023333333333342 0.0070344827586082 0
          0.0023333333333342 0.0070344827586082 0.00015 0.0023333333333342 0.0070344827586082 0.0003
          0.0027777777777784 0.0070344827586082 0 0.0027777777777784 0.0070344827586082 0.00015
          0.0027777777777784 0.0070344827586082 0.0003 0.003222222222223 0.0070344827586082 0
          0.003222222222223 0.0070344827586082 0.00015 0.003222222222223 0.0070344827586082 0.0003
          0.0036666666666665 0.0070344827586082 0 0.0036666666666665 0.0070344827586082 0.00015
          0.0036666666666665 0.0070344827586082 0.0003 0.0041111111111116 0.0070344827586082 0
          0.0041111111111116 0.0070344827586082 0.00015 0.0041111111111116 0.0070344827586082 0.0003
          0.0045555555555559 0.0070344827586082 0 0.0045555555555559 0.0070344827586082 0.00015
          0.0045555555555559 0.0070344827586082 0.0003 0.005 0.0070344827586082 0
          0.005 0.0070344827586082 0.00015 0.005 0.0070344827586082 0.0003
          0.0018888888888895 0.0074482758620575 0 0.0018888888888895 0.0074482758620575 0.00015
          0.0018888888888895 0.0074482758620575 0.0003 0.0023333333333344 0.0074482758620575 0
          0.0023333333333344 0.0074482758620575 0.00015 0.0023333333333344 0.0074482758620575 0.0003
          0.0027777777777787 0.0074482758620575 0 0.0027777777777787 0.0074482758620575 0.00015
          0.0027777777777787 0.0074482758620575 0.0003 0.0032222222222233 0.0074482758620575 0
          0.0032222222222233 0.0074482758620575 0.00015 0.0032222222222233 0.0074482758620575 0.0003
          0.0036666666666666 0.0074482758620576 0 0.0036666666666666 0.0074482758620576 0.00015
          0.0036666666666666 0.0074482758620576 0.0003 0.0041111111111118 0.0074482758620576 0
          0.0041111111111118 0.0074482758620576 0.00015 0.0041111111111118 0.0074482758620576 0.0003
          0.0045555555555559 0.0074482758620576 0 0.0045555555555559 0.0074482758620576 0.00015
          0.0045555555555559 0.0074482758620576 0.0003 0.005 0.0074482758620575 0
          0.005 0.0074482758620575 0.00015 0.005 0.0074482758620575 0.0003
          0.0023333333333346 0.0078620689655065 0 0.0023333333333346 0.0078620689655065 0.00015
          0.0023333333333346 0.0078620689655065 0.0003 0.002777777777779 0.0078620689655065 0
          0.002777777777779 0.0078620689655065 0.00015 0.002777777777779 0.0078620689655065 0.0003
          0.0032222222222236 0.0078620689655065 0 0.0032222222222236 0.0078620689655065 0.00015
          0.0032222222222236 0.0078620689655065 0.0003 0.0036666666666668 0.0078620689655065 0
          0.0036666666666668 0.0078620689655065 0.00015 0.0036666666666668 0.0078620689655065 0.0003
          0.0041111111111119 0.0078620689655065 0 0.0041111111111119 0.0078620689655065 0.00015
          0.0041111111111119 0.0078620689655065 0.0003 0.004555555555556 0.0078620689655065 0
          0.004555555555556 0.0078620689655065 0.00015 0.004555555555556 0.0078620689655065 0.0003
          0.005 0.0078620689655065 0 0.005 0.0078620689655065 0.00015
          0.005 0.0078620689655065 0.0003 0.0023333333333348 0.0082758620689564 0
          0.0023333333333348 0.0082758620689564 0.00015 0.0023333333333348 0.0082758620689564 0.0003
          0.0027777777777793 0.0082758620689564 0 0.0027777777777793 0.0082758620689564 0.00015
          0.0027777777777793 0.0082758620689564 0.0003 0.0032222222222239 0.0082758620689564 0
          0.0032222222222239 0.0082758620689564 0.00015 0.0032222222222239 0.0082758620689564 0.0003
          0.003666666666667 0.0082758620689564 0 0.003666666666667 0.0082758620689564 0.00015
          0.003666666666667 0.0082758620689564 0.0003 0.0041111111111121 0.0082758620689564 0
          0.0041111111111121 0.0082758620689564 0.00015 0.0041111111111121 0.0082758620689564 0.0003
          0.004555555555556 0.0082758620689564 0 0.004555555555556 0.0082758620689564 0.00015
          0.004555555555556 0.0082758620689564 0.0003 0.005 0.0082758620689564 0
          0.005 0.0082758620689564 0.00015 0.005 0.0082758620689564 0.0003
          0.002333333333335 0.0086896551724064 0 0.002333333333335 0.0086896551724064 0.00015
          0.002333333333335 0.0086896551724064 0.0003 0.0027777777777796 0.0086896551724064 0
          0.0027777777777796 0.0086896551724064 0.00015 0.0027777777777796 0.0086896551724064 0.0003
          0.0032222222222242 0.0086896551724064 0 0.0032222222222242 0.0086896551724064 0.00015
          0.0032222222222242 0.0086896551724064 0.0003 0.0036666666666672 0.0086896551724064 0
          0.0036666666666672 0.0086896551724064 0.00015 0.0036666666666672 0.0086896551724064 0.0003
          0.0041111111111122 0.0086896551724064 0 0.0041111111111122 0.0086896551724064 0.00015
          0.0041111111111122 0.0086896551724064 0.0003 0.004555555555556 0.0086896551724064 0
          0.004555555555556 0.0086896551724064 0.00015 0.004555555555556 0.0086896551724064 0.0003
          0.0023333333333351 0.0091034482758539 0 0.0023333333333351 0.0091034482758539 0.00015
          0.0023333333333351 0.0091034482758539 0.0003 0.0027777777777799 0.0091034482758539 0
          0.0027777777777799 0.0091034482758539 0.00015 0.0027777777777799 0.0091034482758539 0.0003
          0.0032222222222245 0.0091034482758539 0 0.0032222222222245 0.0091034482758539 0.00015
          0.0032222222222245 0.0091034482758539 0.0003 0.0036666666666673 0.0091034482758539 0
          0.0036666666666673 0.0091034482758539 0.00015 0.0036666666666673 0.0091034482758539 0.0003
          0.0041111111111124 0.0091034482758539 0 0.0041111111111124 0.0091034482758539 0.00015
          0.0041111111111124 0.0091034482758539 0.0003 0.0058597010152523 0.0063127004857001 0
          0.0053951839928307 0.0062556571299739 0 0.0053921082338215 0.005828945826549 0
          0.0057916174309905 0.0058352682535246 0 0.0058597010152523 0.0063127004857001 0.00015
          0.0053951839928307 0.0062556571299739 0.00015 0.0053921082338215 0.005828945826549 0.00015
          0.0057916174309905 0.0058352682535246 0.00015 0.0058597010152523 0.0063127004857001 0.0003
          0.0053951839928307 0.0062556571299739 0.0003 0.0053921082338215 0.005828945826549 0.0003
          0.0057916174309905 0.0058352682535246 0.0003 0.0057558905586118 0.0030553709280972 0
          0.0057130501801562 0.0035159257865852 0 0.005360618756523 0.0035837068269911 0
          0.0053739732009329 0.0031599138809835 0 0.0057558905586118 0.0030553709280972 0.00015
          0.0057130501801562 0.0035159257865852 0.00015 0.005360618756523 0.0035837068269911 0.00015
          0.0053739732009329 0.0031599138809835 0.00015 0.0057558905586118 0.0030553709280972 0.0003
          0.0057130501801562 0.0035159257865852 0.0003 0.005360618756523 0.0035837068269911 0.0003
          0.0053739732009329 0.0031599138809835 0.0003 0.0056439388514995 0.0075162532529611 0
          0.0053753336003136 0.0081134227852172 0 0.0053162760057692 0.0077147827843445 0
          0.0056439388514995 0.0075162532529611 0.00015 0.0053753336003136 0.0081134227852172 0.00015
          0.0053162760057692 0.0077147827843445 0.00015 0.0056439388514995 0.0075162532529611 0.0003
          0.0053753336003136 0.0081134227852172 0.0003 0.0053162760057692 0.0077147827843445 0.0003
          0.0059025575310583 0.0073410103875386 0 0.0059025575310583 0.0073410103875386 0.00015
          0.0059025575310583 0.0073410103875386 0.0003 0.005369078903807 0.0054112957512825 0
          0.0053441966179727 0.0050059769161847 0 0.0056930202847481 0.0049554676612008 0
          0.0057606246390047 0.0053811345728149 0 0.005369078903807 0.0054112957512825 0.00015
          0.0053441966179727 0.0050059769161847 0.00015 0.0056930202847481 0.0049554676612008 0.00015
          0.0057606246390047 0.0053811345728149 0.00015 0.005369078903807 0.0054112957512825 0.0003
          0.0053441966179727 0.0050059769161847 0.0003 0.0056930202847481 0.0049554676612008 0.0003
          0.0057606246390047 0.0053811345728149 0.0003 0.0057438065986578 0.0025718646608386 0
          0.0053684283361675 0.002728434685479 0 0.0057438065986578 0.0025718646608386 0.00015
          0.0053684283361675 0.002728434685479 0.00015 0.0057438065986578 0.0025718646608386 0.0003
          0.0053684283361675 0.002728434685479 0.0003 0.0061712548385041 0.0061513410385421 0
          0.006445117357903 0.0062971891343806 0 0.0062246515840748 0.0066057171706914 0
          0.0061712548385041 0.0061513410385421 0.00015 0.006445117357903 0.0062971891343806 0.00015
          0.0062246515840748 0.0066057171706914 0.00015 0.0061712548385041 0.0061513410385421 0.0003
          0.006445117357903 0.0062971891343806 0.0003 0.0062246515840748 0.0066057171706914 0.0003
          0.0053553835295756 0.0022900157905326 0 0.0057116151882083 0.0021168511926722 0
          0.0053553835295756 0.0022900157905326 0.00015 0.0057116151882083 0.0021168511926722 0.00015
          0.0053553835295756 0.0022900157905326 0.0003 0.0057116151882083 0.0021168511926722 0.0003
          0.0054233068561349 0.007134337670225 0 0.0059254586078826 0.006969673542248 0
          0.0054233068561349 0.007134337670225 0.00015 0.0059254586078826 0.006969673542248 0.00015
          0.0054233068561349 0.007134337670225 0.0003 0.0059254586078826 0.006969673542248 0.0003
          0.0057792643598707 0.0040250905144168 0 0.0057792643598707 0.0040250905144168 0.00015
          0.0057792643598707 0.0040250905144168 0.0003 0.0061880810420103 0.0058441905555885 0
          0.0066005814160285 0.0059502230786403 0 0.0061880810420103 0.0058441905555885 0.00015
          0.0066005814160285 0.0059502230786403 0.00015 0.0061880810420103 0.0058441905555885 0.0003
          0.0066005814160285 0.0059502230786403 0.0003 0.0054017220983371 0.0066575347525889 0
          0.0057115805714605 0.0066548075405697 0 0.0054017220983371 0.0066575347525889 0.00015
          0.0057115805714605 0.0066548075405697 0.00015 0.0054017220983371 0.0066575347525889 0.0003
          0.0057115805714605 0.0066548075405697 0.0003 0.005332609719228 0.0047287620137874 0
          0.0055816175545808 0.004587255111362 0 0.005332609719228 0.0047287620137874 0.00015
          0.0055816175545808 0.004587255111362 0.00015 0.005332609719228 0.0047287620137874 0.0003
          0.0055816175545808 0.004587255111362 0.0003 0.0053693194142364 0.0039518184911864 0
          0.0054474185858658 0.0042751360204936 0 0.0053693194142364 0.0039518184911864 0.00015
          0.0054474185858658 0.0042751360204936 0.00015 0.0053693194142364 0.0039518184911864 0.0003
          0.0054474185858658 0.0042751360204936 0.0003 0.0053395672611724 0.0018614292474742 0
          0.0053395672611724 0.0018614292474742 0.00015 0.0053395672611724 0.0018614292474742 0.0003
          0.0053367365074525 0.0010378216876611 0 0.0053236825500972 0.0014543115259673 0
          0.0053367365074525 0.0010378216876611 0.00015 0.0053236825500972 0.0014543115259673 0.00015
          0.0053367365074525 0.0010378216876611 0.0003 0.0053236825500972 0.0014543115259673 0.0003
          0.0056326688189693 0.0038271453778623 0 0.0056326688189693 0.0038271453778623 0.00015
          0.0056326688189693 0.0038271453778623 0.0003 0.0053236477572007 0.00066751117045644 0
          0.0053236477572007 0.00066751117045644 0.00015 0.0053236477572007 0.00066751117045644 0.0003
          0.0052365987891119 0.0074441888076402 0 0.0052365987891119 0.0074441888076402 0.00015
          0.0052365987891119 0.0074441888076402 0.0003 0.0052651323069134 0.00040272801788152 0
          0.0052651323069134 0.00040272801788152 0.00015 0.0052651323069134 0.00040272801788152 0.0003
          0.005675081773805 0.0016743369040255 0 0.005675081773805 0.0016743369040255 0.00015
          0.005675081773805 0.0016743369040255 0.0003 0.0056481668838523 0.0012062671985027 0
          0.0056481668838523 0.0012062671985027 0.00015 0.0056481668838523 0.0012062671985027 0.0003
          0.0055517738097912 0.00099492145317098 0 0.0055517738097912 0.00099492145317098 0.00015
          0.0055517738097912 0.00099492145317098 0.0003 0.005 0.0086896551724064 0
          0.005 0.0086896551724064 0.00015 0.005 0.0086896551724064 0.0003
          0.0045555555555561 0.0091034482758539 0 0.0045555555555561 0.0091034482758539 0.00015
          0.0045555555555561 0.0091034482758539 0.0003 0.005 0.0091034482758539 0
          0.005 0.0091034482758539 0.00015 0.005 0.0091034482758539 0.0003
          0.0027777777777802 0.0095172413793029 0 0.0023333333333353 0.0095172413793029 0
          0.0027777777777802 0.0095172413793029 0.00015 0.0023333333333353 0.0095172413793029 0.00015
          0.0027777777777802 0.0095172413793029 0.0003 0.0023333333333353 0.0095172413793029 0.0003
          0.0032222222222248 0.0095172413793029 0 0.0032222222222248 0.0095172413793029 0.00015
          0.0032222222222248 0.0095172413793029 0.0003 0.0036666666666675 0.0095172413793029 0
          0.0036666666666675 0.0095172413793029 0.00015 0.0036666666666675 0.0095172413793029 0.0003
          0.0041111111111126 0.0095172413793029 0 0.0041111111111126 0.0095172413793029 0.00015
          0.0041111111111126 0.0095172413793029 0.0003 0.0045555555555561 0.0095172413793029 0
          0.0045555555555561 0.0095172413793029 0.00015 0.0045555555555561 0.0095172413793029 0.0003
          0.0058653844060618 0.0079194158644502 0 0.0058653844060618 0.0079194158644502 0.00015
          0.0058653844060618 0.0079194158644502 0.0003 0.0061750164335738 0.0074760206739226 0
          0.0061750164335738 0.0074760206739226 0.00015 0.0061750164335738 0.0074760206739226 0.0003
          0.0060512178389602 0.0047929387822649 0 0.0062389906493372 0.0053128670028646 0
          0.0060512178389602 0.0047929387822649 0.00015 0.0062389906493372 0.0053128670028646 0.00015
          0.0060512178389602 0.0047929387822649 0.0003 0.0062389906493372 0.0053128670028646 0.0003
          0.0068354780286894 0.0065149558629347 0 0.0065694481807909 0.0068273110654121 0
          0.0068354780286894 0.0065149558629347 0.00015 0.0065694481807909 0.0068273110654121 0.00015
          0.0068354780286894 0.0065149558629347 0.0003 0.0065694481807909 0.0068273110654121 0.0003
          0.0061614658010566 0.0029736343202522 0 0.0061372854142827 0.0036106222238676 0
          0.0061614658010566 0.0029736343202522 0.00015 0.0061372854142827 0.0036106222238676 0.00015
          0.0061614658010566 0.0029736343202522 0.0003 0.0061372854142827 0.0036106222238676 0.0003
          0.0061231952422177 0.002444135475079 0 0.0061231952422177 0.002444135475079 0.00015
          0.0061231952422177 0.002444135475079 0.0003 0.0063586074578252 0.0071353312088165 0
          0.0063586074578252 0.0071353312088165 0.00015 0.0063586074578252 0.0071353312088165 0.0003
          0.005927800859391 0.0043689372395662 0 0.0063054236008776 0.0041223407032968 0
          0.005927800859391 0.0043689372395662 0.00015 0.0063054236008776 0.0041223407032968 0.00015
          0.005927800859391 0.0043689372395662 0.0003 0.0063054236008776 0.0041223407032968 0.0003
          0.0070635342364542 0.0061542378287001 0 0.0070635342364542 0.0061542378287001 0.00015
          0.0070635342364542 0.0061542378287001 0.0003 0.0071984303565192 0.0057392272964834 0
          0.0067200519522164 0.0055550541115669 0 0.0071984303565192 0.0057392272964834 0.00015
          0.0067200519522164 0.0055550541115669 0.00015 0.0071984303565192 0.0057392272964834 0.0003
          0.0067200519522164 0.0055550541115669 0.0003 0.0053754057810206 0.0085370600870078 0
          0.0053754057810206 0.0085370600870078 0.00015 0.0053754057810206 0.0085370600870078 0.0003
          0.0060722038988066 0.0019538017587265 0 0.0060722038988066 0.0019538017587265 0.00015
          0.0060722038988066 0.0019538017587265 0.0003 0.0055128205128194 0 0
          0.0057061681768373 0.00065177476244477 0 0.0055128205128194 0 0.00015
          0.0057061681768373 0.00065177476244477 0.00015 0.0055128205128194 0 0.0003
          0.0057061681768373 0.00065177476244477 0.0003 0.0060137569775388 0.0015029488511318 0
          0.0060137569775388 0.0015029488511318 0.00015 0.0060137569775388 0.0015029488511318 0.0003
          0.0059245902968253 0.0010856763727913 0 0.0059245902968253 0.0010856763727913 0.00015
          0.0059245902968253 0.0010856763727913 0.0003 0.0057785311780113 0.0084598603588589 0
          0.0057785311780113 0.0084598603588589 0.00015 0.0057785311780113 0.0084598603588589 0.0003
          <InformationKey name="L2_NORM_RANGE" location="vtkDataArray" length="2">
            <Value index="0">
              0.0018888888889
            </Value>
            <Value index="1">
              0.010555613194
            </Value>
          </InformationKey>
        </DataArray>
      </Points>
      <Cells>
        <DataArray type="Int64" Name="connectivity" format="ascii" RangeMin="0" RangeMax="779">
          6 0 1 7 8 2
          3 9 8 2 3 9
          10 4 5 11 12 6
          7 13 14 8 9 15
          14 8 9 15 16 10
          11 17 18 12 13 19
          20 14 15 21 20 14
          15 21 22 16 17 23
          24 18 19 25 26 20
          21 27 26 20 21 27
          28 22 23 29 30 24
          25 31 32 26 27 33
          32 26 27 33 34 28
          29 35 36 30 31 37
          38 32 33 39 38 32
          33 39 40 34 35 41
          42 36 37 43 44 38
          39 45 44 38 39 45
          46 40 41 47 51 48
          0 6 52 49 2 8
          52 49 2 8 53 50
          4 10 54 51 6 12
          55 52 8 14 55 52
          8 14 56 53 10 16
          57 54 12 18 58 55
          14 20 58 55 14 20
          59 56 16 22 60 57
          18 24 61 58 20 26
          61 58 20 26 62 59
          22 28 63 60 24 30
          64 61 26 32 64 61
          26 32 65 62 28 34
          66 63 30 36 67 64
          32 38 67 64 32 38
          68 65 34 40 69 66
          36 42 70 67 38 44
          70 67 38 44 71 68
          40 46 75 72 48 51
          76 73 49 52 76 73
          49 52 77 74 50 53
          78 75 51 54 79 76
          52 55 79 76 52 55
          80 77 53 56 81 78
          54 57 82 79 55 58
          82 79 55 58 83 80
          56 59 84 81 57 60
          85 82 58 61 85 82
          58 61 86 83 59 62
          87 84 60 63 88 85
          61 64 88 85 61 64
          89 86 62 65 90 87
          63 66 91 88 64 67
          91 88 64 67 92 89
          65 68 93 90 66 69
          94 91 67 70 94 91
          67 70 95 92 68 71
          99 96 72 75 100 97
          73 76 100 97 73 76
          101 98 74 77 102 99
          75 78 103 100 76 79
          103 100 76 79 104 101
          77 80 105 102 78 81
          106 103 79 82 106 103
          79 82 107 104 80 83
          108 105 81 84 109 106
          82 85 109 106 82 85
          110 107 83 86 111 108
          84 87 112 109 85 88
          112 109 85 88 113 110
          86 89 114 111 87 90
          115 112 88 91 115 112
          88 91 116 113 89 92
          117 114 90 93 118 115
          91 94 118 115 91 94
          119 116 92 95 123 120
          96 99 124 121 97 100
          124 121 97 100 125 122
          98 101 126 123 99 102
          127 124 100 103 127 124
          100 103 128 125 101 104
          129 126 102 105 130 127
          103 106 130 127 103 106
          131 128 104 107 132 129
          105 108 133 130 106 109
          133 130 106 109 134 131
          107 110 135 132 108 111
          136 133 109 112 136 133
          109 112 137 134 110 113
          138 135 111 114 139 136
          112 115 139 136 112 115
          140 137 113 116 141 138
          114 117 142 139 115 118
          142 139 115 118 143 140
          116 119 147 144 120 123
          148 145 121 124 148 145
          121 124 149 146 122 125
          150 147 123 126 151 148
          124 127 151 148 124 127
          152 149 125 128 153 150
          126 129 154 151 127 130
          154 151 127 130 155 152
          128 131 156 153 129 132
          157 154 130 133 157 154
          130 133 158 155 131 134
          159 156 132 135 160 157
          133 136 160 157 133 136
          161 158 134 137 162 159
          135 138 163 160 136 139
          163 160 136 139 164 161
          137 140 165 162 138 141
          166 163 139 142 166 163
          139 142 167 164 140 143
          174 171 144 147 175 172
          145 148 175 172 145 148
          176 173 146 149 177 174
          147 150 178 175 148 151
          178 175 148 151 179 176
          149 152 180 177 150 153
          181 178 151 154 181 178
          151 154 182 179 152 155
          183 180 153 156 184 181
          154 157 184 181 154 157
          185 182 155 158 186 183
          156 159 187 184 157 160
          187 184 157 160 188 185
          158 161 189 186 159 162
          190 187 160 163 190 187
          160 163 191 188 161 164
          192 189 162 165 193 190
          163 166 193 190 163 166
          194 191 164 167 198 195
          168 171 199 196 169 172
          199 196 169 172 200 197
          170 173 201 198 171 174
          202 199 172 175 202 199
          172 175 203 200 173 176
          204 201 174 177 205 202
          175 178 205 202 175 178
          206 203 176 179 207 204
          177 180 208 205 178 181
          208 205 178 181 209 206
          179 182 210 207 180 183
          211 208 181 184 211 208
          181 184 212 209 182 185
          213 210 183 186 214 211
          184 187 214 211 184 187
          215 212 185 188 216 213
          186 189 217 214 187 190
          217 214 187 190 218 215
          188 191 219 216 189 192
          220 217 190 193 220 217
          190 193 221 218 191 194
          225 222 195 198 226 223
          196 199 226 223 196 199
          227 224 197 200 228 225
          198 201 229 226 199 202
          229 226 199 202 230 227
          200 203 231 228 201 204
          232 229 202 205 232 229
          202 205 233 230 203 206
          234 231 204 207 235 232
          205 208 235 232 205 208
          236 233 206 209 237 234
          207 210 238 235 208 211
          238 235 208 211 239 236
          209 212 240 237 210 213
          241 238 211 214 241 238
          211 214 242 239 212 215
          243 240 213 216 244 241
          214 217 244 241 214 217
          245 242 215 218 246 243
          216 219 247 244 217 220
          247 244 217 220 248 245
          218 221 252 249 222 225
          253 250 223 226 253 250
          223 226 254 251 224 227
          255 252 225 228 256 253
          226 229 256 253 226 229
          257 254 227 230 258 255
          228 231 259 256 229 232
          259 256 229 232 260 257
          230 233 261 258 231 234
          262 259 232 235 262 259
          232 235 263 260 233 236
          264 261 234 237 265 262
          235 238 265 262 235 238
          266 263 236 239 267 264
          237 240 268 265 238 241
          268 265 238 241 269 266
          239 242 270 267 240 243
          271 268 241 244 271 268
          241 244 272 269 242 245
          273 270 243 246 274 271
          244 247 274 271 244 247
          275 272 245 248 279 276
          249 252 280 277 250 253
          280 277 250 253 281 278
          251 254 282 279 252 255
          283 280 253 256 283 280
          253 256 284 281 254 257
          285 282 255 258 286 283
          256 259 286 283 256 259
          287 284 257 260 288 285
          258 261 289 286 259 262
          289 286 259 262 290 287
          260 263 291 288 261 264
          292 289 262 265 292 289
          262 265 293 290 263 266
          294 291 264 267 295 292
          265 268 295 292 265 268
          296 293 266 269 297 294
          267 270 298 295 268 271
          298 295 268 271 299 296
          269 272 300 297 270 273
          301 298 271 274 301 298
          271 274 302 299 272 275
          306 303 276 279 307 304
          277 280 307 304 277 280
          308 305 278 281 309 306
          279 282 310 307 280 283
          310 307 280 283 311 308
          281 284 312 309 282 285
          313 310 283 286 313 310
          283 286 314 311 284 287
          315 312 285 288 316 313
          286 289 316 313 286 289
          317 314 287 290 318 315
          288 291 319 316 289 292
          319 316 289 292 320 317
          290 293 321 318 291 294
          322 319 292 295 322 319
          292 295 323 320 293 296
          324 321 294 297 325 322
          295 298 325 322 295 298
          326 323 296 299 327 324
          297 300 328 325 298 301
          328 325 298 301 329 326
          299 302 333 330 303 306
          334 331 304 307 334 331
          304 307 335 332 305 308
          336 333 306 309 337 334
          307 310 337 334 307 310
          338 335 308 311 339 336
          309 312 340 337 310 313
          340 337 310 313 341 338
          311 314 342 339 312 315
          343 340 313 316 343 340
          313 316 344 341 314 317
          345 342 315 318 346 343
          316 319 346 343 316 319
          347 344 317 320 348 345
          318 321 349 346 319 322
          349 346 319 322 350 347
          320 323 351 348 321 324
          352 349 322 325 352 349
          322 325 353 350 323 326
          354 351 324 327 355 352
          325 328 355 352 325 328
          356 353 326 329 360 357
          330 333 361 358 331 334
          361 358 331 334 362 359
          332 335 363 360 333 336
          364 361 334 337 364 361
          334 337 365 362 335 338
          366 363 336 339 367 364
          337 340 367 364 337 340
          368 365 338 341 369 366
          339 342 370 367 340 343
          370 367 340 343 371 368
          341 344 372 369 342 345
          373 370 343 346 373 370
          343 346 374 371 344 347
          375 372 345 348 376 373
          346 349 376 373 346 349
          377 374 347 350 378 375
          348 351 379 376 349 352
          379 376 349 352 380 377
          350 353 381 378 351 354
          382 379 352 355 382 379
          352 355 383 380 353 356
          387 384 360 363 388 385
          361 364 388 385 361 364
          389 386 362 365 390 387
          363 366 391 388 364 367
          391 388 364 367 392 389
          365 368 393 390 366 369
          394 391 367 370 394 391
          367 370 395 392 368 371
          396 393 369 372 397 394
          370 373 397 394 370 373
          398 395 371 374 399 396
          372 375 400 397 373 376
          400 397 373 376 401 398
          374 377 402 399 375 378
          403 400 376 379 403 400
          376 379 404 401 377 380
          405 402 378 381 406 403
          379 382 406 403 379 382
          407 404 380 383 411 408
          384 387 412 409 385 388
          412 409 385 388 413 410
          386 389 414 411 387 390
          415 412 388 391 415 412
          388 391 416 413 389 392
          417 414 390 393 418 415
          391 394 418 415 391 394
          419 416 392 395 420 417
          393 396 421 418 394 397
          421 418 394 397 422 419
          395 398 423 420 396 399
          424 421 397 400 424 421
          397 400 425 422 398 401
          426 423 399 402 427 424
          400 403 427 424 400 403
          428 425 401 404 429 426
          402 405 430 427 403 406
          430 427 403 406 431 428
          404 407 435 432 408 411
          436 433 409 412 436 433
          409 412 437 434 410 413
          438 435 411 414 439 436
          412 415 439 436 412 415
          440 437 413 416 441 438
          414 417 442 439 415 418
          442 439 415 418 443 440
          416 419 444 441 417 420
          445 442 418 421 445 442
          418 421 446 443 419 422
          447 444 420 423 448 445
          421 424 448 445 421 424
          449 446 422 425 450 447
          423 426 451 448 424 427
          451 448 424 427 452 449
          425 428 453 450 426 429
          454 451 427 430 454 451
          427 430 455 452 428 431
          459 456 432 435 460 457
          433 436 460 457 433 436
          461 458 434 437 462 459
          435 438 463 460 436 439
          463 460 436 439 464 461
          437 440 465 462 438 441
          466 463 439 442 466 463
          439 442 467 464 440 443
          468 465 441 444 469 466
          442 445 469 466 442 445
          470 467 443 446 471 468
          444 447 472 469 445 448
          472 469 445 448 473 470
          446 449 474 471 447 450
          475 472 448 451 475 472
          448 451 476 473 449 452
          477 474 450 453 478 475
          451 454 478 475 451 454
          479 476 452 455 483 480
          459 462 484 481 460 463
          484 481 460 463 485 482
          461 464 486 483 462 465
          487 484 463 466 487 484
          463 466 488 485 464 467
          489 486 465 468 490 487
          466 469 490 487 466 469
          491 488 467 470 492 489
          468 471 493 490 469 472
          493 490 469 472 494 491
          470 473 495 492 471 474
          496 493 472 475 496 493
          472 475 497 494 473 476
          498 495 474 477 499 496
          475 478 499 496 475 478
          500 497 476 479 504 501
          480 483 505 502 481 484
          505 502 481 484 506 503
          482 485 507 504 483 486
          508 505 484 487 508 505
          484 487 509 506 485 488
          510 507 486 489 511 508
          487 490 511 508 487 490
          512 509 488 491 513 510
          489 492 514 511 490 493
          514 511 490 493 515 512
          491 494 516 513 492 495
          517 514 493 496 517 514
          493 496 518 515 494 497
          519 516 495 498 520 517
          496 499 520 517 496 499
          521 518 497 500 525 522
          501 504 526 523 502 505
          526 523 502 505 527 524
          503 506 528 525 504 507
          529 526 505 508 529 526
          505 508 530 527 506 509
          531 528 507 510 532 529
          508 511 532 529 508 511
          533 530 509 512 534 531
          510 513 535 532 511 514
          535 532 511 514 536 533
          512 515 537 534 513 516
          538 535 514 517 538 535
          514 517 539 536 515 518
          687 537 516 519 688 538
          517 520 688 538 517 520
          689 539 518 521 543 540
          522 525 544 541 523 526
          544 541 523 526 545 542
          524 527 546 543 525 528
          547 544 526 529 547 544
          526 529 548 545 527 530
          549 546 528 531 550 547
          529 532 550 547 529 532
          551 548 530 533 552 549
          531 534 553 550 532 535
          553 550 532 535 554 551
          533 536 690 552 534 537
          691 553 535 538 691 553
          535 538 692 554 536 539
          693 690 537 687 694 691
          538 688 694 691 538 688
          695 692 539 689 696 697
          540 543 698 699 541 544
          698 699 541 544 700 701
          542 545 702 696 543 546
          703 698 544 547 703 698
          544 547 704 700 545 548
          705 702 546 549 706 703
          547 550 706 703 547 550
          707 704 548 551 708 705
          549 552 709 706 550 553
          709 706 550 553 710 707
          551 554 711 708 552 690
          712 709 553 691 712 709
          553 691 713 710 554 692
          555 556 557 558 559 560
          561 562 559 560 561 562
          563 564 565 566 567 568
          569 570 571 572 573 574
          571 572 573 574 575 576
          577 578 579 714 580 581
          582 715 583 584 582 715
          583 584 585 716 586 587
          579 588 717 714 582 589
          718 715 582 589 718 715
          585 590 719 716 591 592
          593 594 595 596 597 598
          595 596 597 598 599 600
          601 602 594 558 557 591
          598 562 561 595 598 562
          561 595 602 566 565 599
          603 567 570 604 605 571
          574 606 605 571 574 606
          607 575 578 608 555 609
          610 611 559 612 613 614
          559 612 613 614 563 615
          616 617 594 593 720 721
          598 597 722 723 598 597
          722 723 602 601 724 725
          726 727 611 610 728 729
          614 613 728 729 614 613
          730 731 617 616 567 732
          733 568 571 734 735 572
          571 734 735 572 575 736
          737 576 604 618 619 603
          606 620 621 605 606 620
          621 605 608 622 623 607
          567 603 738 732 571 605
          739 734 571 605 739 734
          575 607 740 736 579 624
          625 588 582 626 627 589
          582 626 627 589 585 628
          629 590 625 741 717 588
          627 742 718 589 627 742
          718 589 629 743 719 590
          744 630 733 745 746 631
          735 747 746 631 735 747
          748 632 737 749 633 634
          610 609 635 636 613 612
          635 636 613 612 637 638
          616 615 634 750 726 610
          636 751 728 613 636 751
          728 613 638 752 730 616
          555 558 633 609 559 562
          635 612 559 562 635 612
          563 566 637 615 753 750
          634 754 755 751 636 756
          755 751 636 756 757 752
          638 758 639 640 625 624
          641 642 627 626 641 642
          627 626 643 644 629 628
          625 611 727 741 627 614
          729 742 627 614 729 742
          629 617 731 743 634 633
          721 754 636 635 723 756
          636 635 723 756 638 637
          725 758 580 759 687 519
          583 760 688 520 583 760
          688 520 586 761 689 521
          581 580 519 498 584 583
          520 499 584 583 520 499
          587 586 521 500 592 645
          646 593 596 647 648 597
          596 647 648 597 600 649
          650 601 651 652 300 273
          653 654 301 274 653 654
          301 274 655 656 302 275
          569 651 273 246 573 653
          274 247 573 653 274 247
          577 655 275 248 556 405
          381 557 560 406 382 561
          560 406 382 561 564 407
          383 565 570 569 246 219
          574 573 247 220 574 573
          247 220 578 577 248 221
          557 381 354 591 561 382
          355 595 561 382 355 595
          565 383 356 599 604 570
          219 192 606 574 220 193
          606 574 220 193 608 578
          221 194 640 555 611 625
          642 559 614 627 642 559
          614 627 644 563 617 629
          618 604 192 165 620 606
          193 166 620 606 193 166
          622 608 194 167 657 618
          165 141 658 620 166 142
          658 620 166 142 659 622
          167 143 660 661 117 93
          662 663 118 94 662 663
          118 94 664 665 119 95
          661 657 141 117 663 658
          142 118 663 658 142 118
          665 659 143 119 762 738
          603 619 763 739 605 621
          763 739 605 621 764 740
          607 623 429 639 624 453
          430 641 626 454 430 641
          626 454 431 643 628 455
          666 568 733 630 667 572
          735 631 667 572 735 631
          668 576 737 632 669 660
          93 69 670 662 94 70
          670 662 94 70 671 664
          95 71 592 327 300 645
          596 328 301 647 596 328
          301 647 600 329 302 649
          721 633 558 594 723 635
          562 598 723 635 562 598
          725 637 566 602 744 720
          593 646 746 722 597 648
          746 722 597 648 748 724
          601 650 477 453 624 672
          478 454 626 673 478 454
          626 673 479 455 628 674
          327 592 591 354 328 596
          595 355 328 596 595 355
          329 600 599 356 669 675
          765 766 670 676 767 768
          670 676 767 768 671 677
          769 770 639 429 405 556
          641 430 406 560 641 430
          406 560 643 431 407 564
          581 672 624 579 584 673
          626 582 584 673 626 582
          587 674 628 585 678 619
          618 657 679 621 620 658
          679 621 620 658 680 623
          622 659 42 43 765 675
          44 45 767 676 44 45
          767 676 46 47 769 677
          646 645 300 652 648 647
          301 654 648 647 301 654
          650 649 302 656 619 678
          771 762 621 679 772 763
          621 679 772 763 623 680
          773 764 744 646 652 630
          746 648 654 631 746 648
          654 631 748 650 656 632
          678 681 774 771 679 682
          775 772 679 682 775 772
          680 683 776 773 681 678
          657 661 682 679 658 663
          682 679 658 663 683 680
          659 665 666 630 652 651
          667 631 654 653 667 631
          654 653 668 632 656 655
          651 569 568 666 653 573
          572 667 653 573 572 667
          655 577 576 668 681 684
          766 774 682 685 768 775
          682 685 768 775 683 686
          770 776 759 580 714 777
          760 583 715 778 760 583
          715 778 761 586 716 779
          672 581 498 477 673 584
          499 478 673 584 499 478
          674 587 500 479 639 556
          555 640 641 560 559 642
          641 560 559 642 643 564
          563 644 675 669 69 42
          676 670 70 44 676 670
          70 44 677 671 71 46
          684 681 661 660 685 682
          663 662 685 682 663 662
          686 683 665 664 660 669
          766 684 662 670 768 685
          662 670 768 685 664 671
          770 686
        </DataArray>
        <DataArray type="Int64" Name="offsets" format="ascii" RangeMin="8" RangeMax="3632">
          8 16 24 32 40 48
          56 64 72 80 88 96
          104 112 120 128 136 144
          152 160 168 176 184 192
          200 208 216 224 232 240
          248 256 264 272 280 288
          296 304 312 320 328 336
          344 352 360 368 376 384
          392 400 408 416 424 432
          440 448 456 464 472 480
          488 496 504 512 520 528
          536 544 552 560 568 576
          584 592 600 608 616 624
          632 640 648 656 664 672
          680 688 696 704 712 720
          728 736 744 752 760 768
          776 784 792 800 808 816
          824 832 840 848 856 864
          872 880 888 896 904 912
          920 928 936 944 952 960
          968 976 984 992 1000 1008
          1016 1024 1032 1040 1048 1056
          1064 1072 1080 1088 1096 1104
          1112 1120 1128 1136 1144 1152
          1160 1168 1176 1184 1192 1200
          1208 1216 1224 1232 1240 1248
          1256 1264 1272 1280 1288 1296
          1304 1312 1320 1328 1336 1344
          1352 1360 1368 1376 1384 1392
          1400 1408 1416 1424 1432 1440
          1448 1456 1464 1472 1480 1488
          1496 1504 1512 1520 1528 1536
          1544 1552 1560 1568 1576 1584
          1592 1600 1608 1616 1624 1632
          1640 1648 1656 1664 1672 1680
          1688 1696 1704 1712 1720 1728
          1736 1744 1752 1760 1768 1776
          1784 1792 1800 1808 1816 1824
          1832 1840 1848 1856 1864 1872
          1880 1888 1896 1904 1912 1920
          1928 1936 1944 1952 1960 1968
          1976 1984 1992 2000 2008 2016
          2024 2032 2040 2048 2056 2064
          2072 2080 2088 2096 2104 2112
          2120 2128 2136 2144 2152 2160
          2168 2176 2184 2192 2200 2208
          2216 2224 2232 2240 2248 2256
          2264 2272 2280 2288 2296 2304
          2312 2320 2328 2336 2344 2352
          2360 2368 2376 2384 2392 2400
          2408 2416 2424 2432 2440 2448
          2456 2464 2472 2480 2488 2496
          2504 2512 2520 2528 2536 2544
          2552 2560 2568 2576 2584 2592
          2600 2608 2616 2624 2632 2640
          2648 2656 2664 2672 2680 2688
          2696 2704 2712 2720 2728 2736
          2744 2752 2760 2768 2776 2784
          2792 2800 2808 2816 2824 2832
          2840 2848 2856 2864 2872 2880
          2888 2896 2904 2912 2920 2928
          2936 2944 2952 2960 2968 2976
          2984 2992 3000 3008 3016 3024
          3032 3040 3048 3056 3064 3072
          3080 3088 3096 3104 3112 3120
          3128 3136 3144 3152 3160 3168
          3176 3184 3192 3200 3208 3216
          3224 3232 3240 3248 3256 3264
          3272 3280 3288 3296 3304 3312
          3320 3328 3336 3344 3352 3360
          3368 3376 3384 3392 3400 3408
          3416 3424 3432 3440 3448 3456
          3464 3472 3480 3488 3496 3504
          3512 3520 3528 3536 3544 3552
          3560 3568 3576 3584 3592 3600
          3608 3616 3624 3632
        </DataArray>
        <DataArray type="UInt8" Name="types" format="ascii" RangeMin="12" RangeMax="12">
          12 12 12 12 12 12
          12 12 12 12 12 12
          12 12 12 12 12 12
          12 12 12 12 12 12
          12 12 12 12 12 12
          12 12 12 12 12 12
          12 12 12 12 12 12
          12 12 12 12 12 12
          12 12 12 12 12 12
          12 12 12 12 12 12
          12 12 12 12 12 12
          12 12 12 12 12 12
          12 12 12 12 12 12
          12 12 12 12 12 12
          12 12 12 12 12 12
          12 12 12 12 12 12
          12 12 12 12 12 12
          12 12 12 12 12 12
          12 12 12 12 12 12
          12 12 12 12 12 12
          12 12 12 12 12 12
          12 12 12 12 12 12
          12 12 12 12 12 12
          12 12 12 12 12 12
          12 12 12 12 12 12
          12 12 12 12 12 12
          12 12 12 12 12 12
          12 12 12 12 12 12
          12 12 12 12 12 12
          12 12 12 12 12 12
          12 12 12 12 12 12
          12 12 12 12 12 12
          12 12 12 12 12 12
          12 12 12 12 12 12
          12 12 12 12 12 12
          12 12 12 12 12 12
          12 12 12 12 12 12
          12 12 12 12 12 12
          12 12 12 12 12 12
          12 12 12 12 12 12
          12 12 12 12 12 12
          12 12 12 12 12 12
          12 12 12 12 12 12
          12 12 12 12 12 12
          12 12 12 12 12 12
          12 12 12 12 12 12
          12 12 12 12 12 12
          12 12 12 12 12 12
          12 12 12 12 12 12
          12 12 12 12 12 12
          12 12 12 12 12 12
          12 12 12 12 12 12
          12 12 12 12 12 12
          12 12 12 12 12 12
          12 12 12 12 12 12
          12 12 12 12 12 12
          12 12 12 12 12 12
          12 12 12 12 12 12
          12 12 12 12 12 12
          12 12 12 12 12 12
          12 12 12 12 12 12
          12 12 12 12 12 12
          12 12 12 12 12 12
          12 12 12 12 12 12
          12 12 12 12 12 12
          12 12 12 12 12 12
          12 12 12 12 12 12
          12 12 12 12 12 12
          12 12 12 12 12 12
          12 12 12 12 12 12
          12 12 12 12 12 12
          12 12 12 12 12 12
          12 12 12 12 12 12
          12 12 12 12 12 12
          12 12 12 12 12 12
          12 12 12 12
        </DataArray>
      </Cells>
    </Piece>
  </UnstructuredGrid>
</VTKFile>
