<?xml version="1.0"?>
<VTKFile type="UnstructuredGrid" version="0.1" byte_order="LittleEndian" header_type="UInt32" compressor="vtkZLibDataCompressor">
  <UnstructuredGrid>
    <Piece NumberOfPoints="795" NumberOfCells="454">
      <PointData>
        <DataArray type="Int32" Name="libmesh_node_id" format="ascii" RangeMin="2220" RangeMax="4979">
          2220 2221 2222 2223 2224 2225
          2226 2227 2228 2229 2230 2231
          2388 2389 2390 2391 2392 2393
          2394 2395 2396 2397 2398 2399
          2402 2405 2408 2409 2410 2411
          2463 2464 2465 2466 2467 2468
          2469 2470 2471 2472 2473 2474
          2475 2476 2477 2478 2479 2480
          2499 2500 2501 2502 2503 2504
          2505 2506 2507 2508 2509 2510
          2511 2512 2513 2514 2515 2516
          2517 2518 2519 2520 2521 2522
          2613 2614 2616 2617 2618 2620
          2621 2622 2624 2652 2653 2654
          2655 2656 2657 2658 2659 2660
          2661 2662 2663 2697 2701 2705
          2721 2722 2723 2724 2725 2726
          2736 2737 2738 2739 2740 2741
          2742 2743 2744 2745 2746 2747
          2748 2749 2750 2751 2752 2753
          2754 2755 2756 2757 2758 2759
          2760 2761 2762 2763 2764 2765
          2778 2779 2780 2781 2782 2783
          2784 2785 2786 2862 2863 2864
          2865 2866 2867 2868 2869 2870
          2871 2872 2873 2922 2923 2924
          2925 2926 2927 2940 2941 2942
          2943 2944 2945 2946 2947 2948
          2958 2959 2960 2961 2962 2963
          2964 2965 2966 2967 2968 2969
          2992 2993 2996 2997 3000 3001
          3018 3019 3020 3021 3022 3023
          3036 3039 3040 3043 3044 3047
          3060 3061 3062 3063 3064 3065
          3066 3067 3068 3069 3070 3071
          3072 3073 3074 3075 3076 3077
          3180 3181 3182 3183 3184 3185
          3204 3205 3206 3207 3208 3209
          3240 3242 3244 3258 3260 3262
          3273 3274 3275 3276 3277 3278
          3279 3280 3281 3282 3283 3284
          3285 3286 3287 3288 3289 3290
          3291 3292 3293 3294 3295 3296
          3297 3298 3299 3348 3349 3350
          3351 3352 3353 3354 3355 3356
          3357 3358 3359 3360 3361 3362
          3363 3364 3365 3369 3370 3371
          3372 3373 3374 3399 3400 3401
          3402 3403 3404 3405 3406 3407
          3408 3409 3410 3411 3412 3413
          3414 3415 3416 3417 3418 3419
          3420 3421 3422 3462 3463 3464
          3486 3487 3488 3489 3490 3491
          3507 3508 3509 3510 3511 3512
          3527 3530 3533 3534 3535 3536
          3555 3556 3557 3558 3559 3560
          3561 3562 3563 3579 3580 3581
          3594 3595 3596 3597 3598 3599
          3603 3604 3605 3606 3607 3608
          3621 3622 3623 3624 3625 3626
          3627 3628 3629 3642 3643 3644
          3645 3646 3647 3648 3649 3650
          3651 3652 3653 3669 3670 3671
          3672 3673 3674 3675 3676 3677
          3678 3679 3680 3681 3682 3683
          3750 3751 3752 3753 3754 3755
          3756 3757 3758 3759 3760 3761
          3780 3781 3782 3783 3784 3785
          3909 3910 3911 3912 3913 3914
          3915 3916 3917 3918 3919 3920
          3951 3952 3953 3966 3967 3968
          3975 3976 3977 3978 3979 3980
          3981 3982 3983 3984 3985 3986
          3987 3988 3989 3990 3991 3992
          4008 4009 4010 4011 4012 4013
          4014 4015 4016 4017 4018 4019
          4020 4021 4022 4023 4024 4025
          4026 4027 4028 4029 4030 4031
          4041 4042 4043 4044 4045 4046
          4047 4048 4049 4050 4051 4052
          4068 4069 4070 4080 4081 4082
          4092 4093 4094 4095 4096 4097
          4098 4099 4100 4101 4102 4103
          4122 4123 4124 4125 4126 4127
          4146 4147 4148 4149 4150 4151
          4152 4153 4154 4155 4156 4157
          4158 4159 4160 4173 4174 4175
          4176 4177 4178 4179 4180 4181
          4182 4183 4184 4188 4189 4190
          4194 4195 4196 4197 4198 4199
          4200 4201 4202 4203 4204 4205
          4218 4219 4220 4221 4222 4223
          4230 4231 4232 4266 4267 4268
          4281 4282 4283 4299 4300 4301
          4305 4306 4307 4308 4309 4310
          4311 4312 4313 4335 4336 4337
          4341 4342 4343 4395 4396 4397
          4455 4456 4457 4473 4474 4475
          4476 4477 4478 4515 4516 4517
          4578 4579 4580 4581 4582 4583
          4614 4615 4616 4704 4705 4706
          4707 4708 4709 4710 4711 4712
          4713 4714 4715 4737 4738 4739
          4740 4741 4742 4821 4822 4823
          4842 4843 4844 4845 4846 4847
          4854 4855 4856 4857 4858 4859
          4860 4861 4862 4863 4864 4865
          4866 4867 4868 4875 4876 4877
          4878 4879 4880 4908 4909 4910
          4914 4915 4916 4932 4933 4934
          4941 4942 4943 4977 4978 4979
          2400 2401 2403 2404 2406 2407
          2615 2619 2623 2698 2699 2700
          2702 2703 2704 2706 2707 2708
          2991 2994 2995 2998 2999 3002
          2331 2330 2335 2334 2339 2338
          3241 3243 3245 3259 3186 3188
          3261 3189 3191 3263 3192 3194
          3448 3450 3452 3525 3526 3528
          3529 3531 3532 3537 3538 3539
          3540 3541 3542 3654 3657 3660
          2328 2332 2336 3852 3853 3854
          3993 3994 3995 4338 4339 4340
          3513 3514 3515 4458 4321 4459
          4324 4460 4327 4584 4585 4586
          4587 4588 4589 4791 4792 4793
          4794 4795 4796 4797 4798 4799
          4431 4432 4433 3495 3187 3499
          3190 3503 3193 3954 3957 3958
          3961 3962 3965 4899 4900 4901
          4968 4969 4970 4911 4912 4913
          3498 3502 3506 4902 4903 4904
          4434 4436 4438
        </DataArray>
        <DataArray type="Float64" Name="resid_x" format="ascii" RangeMin="-0.14007317154752075" RangeMax="0.8623726812080541">
          -0.0028021082759819294 0.004354025481651647 0.0014873284615468663 -0.0019879838170293596 0.0075729042106802424 0.0033752655135614873
          -0.007194621628073605 -0.0040099816490482 -0.006321313302417586 -0.012911092316350903 -0.021134549067276076 -0.00863703839978669
          0.0010895093620924001 -0.00399037664071944 -0.0036017394522591673 -0.0017358058895133865 0.00037600318695041324 -0.014377559413924601
          -0.009954443815121117 -0.011712101664246966 -0.021145880500617054 -0.023834137710436742 -0.02099077971920149 -0.025593413415717414
          -0.022413994227623135 -0.03394208567948809 -0.026264586385469357 -0.023902251910655536 -0.030469349494026687 -0.023289926836627117
          -0.012377593342745907 -0.019051513529124153 0.0027213907038966534 -0.009098774029209555 0.003965922983947268 0.02280030260550303
          0.009937695604062657 0.004289579386606679 -0.005763785456778692 -0.0069249475274069106 0.01392496619833894 -0.000518047760182494
          -0.013757710183175398 -0.013447783115462242 -0.017634851734275703 -0.034678760575068246 -0.026757039209413414 -0.011502494047549217
          -0.00080373708820769 0.0006253108389788764 -0.0005538070949109297 0.0021566442756077997 -0.007788585566466111 -0.0041316176700139096
          -0.01364606839006477 -0.0061493078419747604 -0.027467285884242187 -0.024024366059537172 -0.024179203815267947 -0.021272478212348123
          0.0006280664514797252 0.000030224223579011777 0.001988650869223285 0.004083548087991495 -0.003297155492602677 -0.008807362276965769
          -0.0022382915582399576 -0.0064497190493328915 -0.02289282194797071 -0.02924434194951786 -0.026600855943165413 -0.029780578020504933
          -0.001374051741755089 -0.017786351375017162 0.0046506327241795375 -0.007793508032211349 -0.045418694766381495 -0.01348216347804243
          -0.03294990846168311 -0.0417202091122868 -0.04250412634430667 -0.00043140829858057117 0.001398117734025206 0.005419442842326649
          0.002607398014919049 -0.0019386161950709635 -0.0031699770356166113 0.0033803327118943627 -0.0034836145510235283 -0.022714148564432435
          -0.01657308959561732 -0.025136324712855374 -0.02768120856003975 -0.0220908506041555 -0.032726066876736404 -0.025799516190982086
          -0.00660429696281839 -0.0008211865431260179 -0.010546846317946112 0.003393648592343368 -0.01992123880767238 -0.012923960466729056
          -0.002567139772374105 -0.005116360003904141 -0.005962089981921714 -0.0023747040640422767 -0.00045132708612527495 -0.0025090797458275915
          -0.013560583679925742 -0.013126952761296273 -0.014384577587284397 0.004231318427644348 0.005119673354292864 0.004866890539061863
          0.007764396476623248 0.004543514978247787 0.0007982194555404831 -0.0003812399505651598 0.006537248815142116 -0.017115391022836657
          -0.02595630780497693 -0.02945755554830587 -0.022292261773142974 -0.006568472601646391 -0.012963151320458 -0.004120963292739255
          -0.00794858756262773 -0.009019638089823978 -0.011371075609540426 -0.021812158132332726 -0.01597943545198177 -0.026657234789769113
          -0.015530020771862496 -0.014521524790506835 -0.006908224612513614 -0.010812270999085882 -0.008905949287759007 -0.005091465087341263
          -0.011010262938584425 -0.012487888054229845 -0.021985938291794405 -0.01612241384967783 -0.004419668233143437 0.004198476857761951
          -0.017184256913759022 -0.004767169099729074 -0.0031464754788950167 0.0068749860373720495 -0.009457876119863151 -0.03528560488538135
          -0.018922934492297205 -0.014929709563795801 -0.03772912066603418 0.0004591374441806906 -0.0024039576305128207 -0.0021830629576129468
          -0.008888643987984501 -0.023334840897055287 -0.028191069827810722 -0.00831828699034709 -0.009069011843990893 -0.004004559348958381
          -0.00740194940139105 -0.02548547455041028 -0.005922631050346183 -0.03932264389088136 -0.0480829539358103 -0.04230977472370423
          -0.004432068402683065 0.01831202719384084 0.004487671635134305 -0.010924861150010123 -0.0026361698212715723 0.018124882574626966
          0.012036919047543115 -0.014580633286557898 -0.02233916823059623 -0.019189443874127576 -0.014081627662738683 -0.043131187554505956
          -0.03903614202427619 -0.07363264889311383 -0.06429830257832592 -0.14007317154752075 -0.012121537423397832 -0.07806653248514461
          -0.0158315966274154 -0.027401364306582465 0.00875783696138388 -0.014729105763898076 -0.0007429060519257291 -0.007191209778386387
          -0.02023490059131916 -0.016529954355746668 -0.028576531372500824 -0.024323132186342633 -0.020009911924201873 -0.01840105030053696
          -0.0031194719674134674 -0.028706829404702816 -0.06126701182938543 0.0034762975416642306 -0.015999099408200657 -0.06726996698806964
          -0.10293341519694366 0.072005647046949 -0.009974678797625813 -0.034867033791501356 -0.026728032597660878 0.03686090990475632
          -0.010703084381468386 -0.011176158591239549 -0.013946118633764826 -0.03288832609642256 -0.040366916808038056 -0.052264986986071627
          -0.01211597550373028 -0.008981917350181057 -0.005977383323484853 -0.016837874525188035 -0.02090197996347415 -0.02506882791982612
          -0.009258824427806012 -0.008216405261027404 0.012070966214939638 -0.016649448980826875 -0.011591019174308492 -0.023289180371079077
          -0.005818616286951794 0.000657216879652367 -0.026751376731960264 -0.02376500040417362 -0.0691726184574124 -0.0750270457939628
          -0.04731796408602218 -0.014611734331338333 -0.054744306934013665 -0.01679891537326217 -0.05494310554705173 -0.04080423508015674
          -0.051192540680903065 0.0005649249536308076 -0.043551813761671276 -0.03515404471961059 -0.031958085141940096 -0.0026123568606282177
          -0.012630203970182219 -0.00046864642987110017 -0.009052234020717087 -0.007876275076383499 0.009575292743039476 0.0030330795636954733
          -0.016620380536827017 -0.015473701541849572 -0.021688771394758444 -0.012312241761052584 -0.0075740203204777146 -0.0073232561575611865
          0.0014106711375392322 -0.014238407632595207 -0.016369653095574144 -0.026764398266048595 0.016916297773480693 -0.018509579170901347
          -0.00007581449805016405 0.0011573406493585736 -0.00887828524197154 -0.010039293880503841 0.0008738509346084555 -0.0005909582639187505
          -0.01669746749251999 -0.00819819883963202 -0.01514076128151931 -0.02053642541977485 -0.031805326438687054 -0.027266650824770977
          -0.020261595722859127 0.0015004946197318958 -0.028985171311210145 -0.04378793006907955 0.006769346935326936 -0.012060662014641288
          -0.04053567787968948 -0.04071403163798326 -0.0357316029448409 -0.02831792728507665 -0.0024524795361031693 -0.05318407325234542
          -0.016111339591551754 -0.04902825835432978 -0.018573355061192842 -0.03304252313214917 -0.008162369106751832 -0.028256244489961446
          0.03217809126363225 -0.04341663906211757 -0.023129899983576507 -0.008688737146324677 -0.013160649060722118 -0.0006784726752764314
          0.005153044494460524 -0.020573056448363047 -0.016227739793419627 -0.01530692201119166 -0.01056352204492228 -0.006171942219548754
          0.0007933874095717997 -0.016259684458846735 -0.016936003474566697 -0.014654762896602058 0.002349244831528763 -0.021166232280161346
          -0.029729474385034038 -0.01735304284837369 0.009128726812279275 0.0132718770341822 -0.013109545426558178 -0.010701686447033953
          -0.016522607168913184 -0.011906929720885362 -0.0032348991260817694 -0.007629756449436087 -0.015848858461144255 -0.013765811313168896
          -0.012549828449085254 -0.02185164549614438 -0.022512909745382004 -0.016286738893324326 0.01927010763518222 -0.0214118981850957
          -0.020296364905202147 -0.007440081865540016 -0.0039377840347154525 -0.0028158347197084765 -0.012483082396145706 -0.00546857168485726
          -0.014858216410939207 0.005777492207670321 -0.020376305602773037 -0.011965985176916938 0.010836893909871748 -0.03554867264992101
          -0.03408709907238361 -0.04223079210649683 0.013945789678233567 0.007363041639168344 -0.02118543554551877 -0.02233762517835114
          -0.01581165663206452 -0.008057753339460128 0.005966969840066838 0.0004272087697270166 -0.014992545962293047 -0.017563797161162853
          -0.0151138531988817 -0.02023580195145147 -0.012109654720068974 -0.0019445385242926605 -0.010376587728076814 -0.004106958316357989
          -0.008660048110694873 -0.011517094139485096 -0.009050070433584523 -0.0037119042122304435 0.0008958137327974569 -0.002348169053932203
          -0.010993025630969377 0.0004940913487230247 -0.0005716378775550979 -0.0013349030946443463 -0.014840316087157746 -0.020134442845164635
          -0.012238119554480065 -0.016502444107339365 -0.028739639439834264 0.0005571223911928769 -0.0001388397773798289 -0.004251794535653275
          0.0033834644157950677 -0.0019904323974024862 0.0014049154740494174 -0.016971445981763367 -0.002700332584889331 -0.025244316337111883
          -0.03146373544934988 -0.030355379313629527 -0.026608452424267348 -0.03201228764906894 0.002294671721445596 -0.018143177645097097
          -0.005414296109822914 -0.009492159237241893 0.0003244868546026236 -0.007413825243141048 -0.023544287019548582 -0.023085431902908127
          -0.019706432554091435 -0.021094757604180003 -0.025822602229466085 -0.045340030125121444 -0.029236309560686458 -0.028601661067006567
          -0.0037190219284299886 -0.010620755423108419 0.00480163813282708 -0.004922935927969274 -0.021124613681652527 -0.027189017952041206
          -0.011848659438852494 -0.022780547502892823 -0.003713294869168493 -0.011406949905415686 -0.024261855312090574 -0.027560959726925738
          -0.009730470046876327 -0.007624081468922128 -0.0035792988712985974 -0.004499297322686502 -0.022678847143890124 -0.019498106883179656
          -0.03487045463999827 -0.008062937986519358 -0.02333924382255148 -0.03536707582225862 -0.018611574891459703 -0.03111949774627476
          -0.002345768983308183 -0.011551877765755059 -0.015561018624006273 -0.00809030762266083 0.0011357628186559054 -0.013815409263247425
          -0.014246801549163468 -0.002420574844805401 -0.02485316052128228 -0.017784376646110545 -0.028036990973947074 -0.02540318042579237
          -0.01390708377845451 -0.006709348080669919 -0.022539724196743993 -0.005509901482142254 -0.02594074183146189 -0.023289955258634087
          -0.0260133491202712 -0.012246793838883718 -0.0005599562174527506 -0.018806405243458002 -0.055946954397605 -0.029344421580589142
          0.0015459170528826505 -0.03767478000540869 -0.03449721540966788 -0.026601810394980774 -0.010234209543994233 -0.02644452286119847
          -0.02287837655537217 -0.017532953695088338 -0.01981722267289765 -0.0265337121116751 -0.029095664701952018 -0.026890820484286593
          -0.022323633096723583 -0.018599908032985724 -0.019381743830790832 -0.02207499320832662 -0.010484354483510927 -0.034510792715799266
          -0.027432167459372714 -0.02167016277291617 -0.003016255522751976 -0.0017853576189383324 -0.012052934576721519 -0.015327923305600788
          -0.024502959431845106 -0.016780253103556575 0.0032446910345962365 0.0018618247151902523 -0.027839957987294106 -0.020619600038433106
          -0.01980225295177629 0.000685594018913882 -0.02479353290117814 -0.0472331100806862 -0.003878019649334874 -0.014712561586767592
          -0.013813463635545808 -0.008165669093364691 -0.0035431480893870493 -0.006136911367727649 -0.01472734060334746 -0.009148225408358357
          -0.026209621173980402 -0.02829824577675133 -0.01347635507111633 -0.042869660217419 -0.02131583475878074 -0.02944530584152716
          -0.026792828669373492 -0.022304348217117465 -0.0389545293927398 -0.037058541041334436 -0.02878278762689579 -0.029725967518798413
          -0.020868859920223137 -0.020338146215456376 -0.013618533302721225 -0.029909812907113142 -0.011027811948022936 -0.023164466725599908
          -0.02712505190045178 -0.025728779643591437 -0.020594041619466097 -0.041650079212879554 -0.030468145497815513 -0.025674651549366878
          -0.015488668090842594 -0.03274862284665936 -0.02871231728097623 -0.02122590917538858 -0.01370164540024943 -0.01094831493811288
          -0.009268978953940632 -0.021036686941765304 -0.018694668742796683 -0.02932310542047656 -0.016538715599294207 -0.007953739575826013
          -0.0153169115429721 -0.019974371661747092 -0.013556874613434466 -0.02229291638478159 -0.026341794056135015 -0.025411379768323528
          0.017812122403985775 0.015279532767008774 0.028791555904596144 0.02578687846396388 0.000789164897108563 0.022266240081564526
          0.03929994274252202 0.03629983558669991 -0.01699638409443649 -0.005367578781291904 0.006910476103834995 0.000008487410650737104
          -0.0014180351695998183 -0.012519376365429657 0.012937778576313619 0.013913987393763705 0.008270238622034576 0.0278354234979723
          -0.006831723219453245 -0.000143259980135646 -0.0053208364095427285 -0.00892978917295384 -0.005882584256106327 -0.010085278896636574
          -0.01134913189031117 0.007669986189903888 -0.020619727733496518 -0.018959838832793174 -0.015649515474974507 -0.02369462632206165
          -0.023455563182966266 -0.0012738828619998088 -0.020585354708146042 -0.014924522324400336 -0.018044559512200298 0.0010009691452470548
          -0.008185326220255362 -0.01589207481973176 -0.016453958090353105 -0.02181734459657214 -0.002888198777468709 -0.01555601396470152
          -0.05480027251485353 -0.05915198364269969 -0.0402230846679652 -0.0259170690864714 -0.03390515385741111 -0.02687093988837219
          -0.03514168263351891 -0.014737083828336495 -0.019822982510890874 -0.02737404833158319 -0.02065789395449702 -0.03391834237271585
          -0.0249894457710651 -0.02719642371821962 -0.02371491064639475 -0.05182198980768238 -0.004852786509768059 -0.013787887847911406
          -0.010601452602346129 -0.002663319732469027 -0.01389987073935206 -0.023976693217478307 -0.007779788510865693 -0.009833830869458993
          -0.014257692403976563 0.002486479643649453 -0.00831394229173199 -0.03543305659394136 -0.03190940445729229 -0.016952739457879673
          -0.05090805374535723 -0.05239931032212297 -0.024297704485833904 -0.010925823933516376 0.009199199021507454 -0.018509777721023468
          0.015691801331606747 0.016725611374337923 0.0161088397346143 -0.012862187527427071 -0.0008408320445623119 -0.006815454282083522
          0.004173840792455863 -0.015346657484135662 -0.002695227077740725 -0.005250676072976468 -0.03179640560756525 -0.028698172417252366
          -0.03219742446730223 -0.03694680902367242 -0.02459404714500213 -0.01803822714153469 -0.030228028753072067 -0.02638741131939959
          -0.018846279224803197 -0.009369971733226734 -0.027305071924926594 0.0003492508984601628 0.007958903464817979 0.008210366408033742
          -0.0043831056352350295 -0.001019950980389872 -0.009891547160371772 -0.002331602868104632 0.0006654697310493063 0.009142547188765171
          -0.0030645039179315603 -0.0016008010140478035 0.003987530112736337 0.01584253089937082 0.006149895878478695 0.030501291387491136
          0.010167857896154153 0.0212437038646609 0.009940133181867594 0.014214001554378797 0.04202929431545899 0.012908384720714317
          -0.019947862102039693 -0.0022019721409458626 -0.007161909820838641 -0.0050314262578092794 0.00904389408515982 0.0014834361002509233
          -0.021764530288824524 -0.019188305710493125 -0.01953729763431067 -0.013672739724432503 -0.000015242845386786996 -0.00830236179166599
          -0.020160067070181142 -0.0031734260899183298 -0.028666802315157724 -0.004892288316214355 -0.025187709663988755 -0.013072803395476562
          -0.029998183773150444 -0.03280408728938866 -0.04651714410773611 -0.008564987627114107 -0.010567316619130906 -0.004858288269005584
          -0.017927290918226646 -0.0062035174435663976 -0.0003467729658774843 -0.020480197802438482 -0.01702334223049551 -0.010707188580996174
          0.7604347507612914 0.17913207933470954 0.8623726812080541 0.14825938779226533 0.08588860196381276 -0.008687714186213391
          -0.021540050788594778 0.0033058739236784263 -0.04901710241810875 -0.00811690635014184 -0.040951512882792196 -0.03767998849704379
          0.06302250641086893 0.11744693089417346 0.016602180594276206 -0.03860547898465949 -0.04351619577132482 -0.044427319119719755
          -0.04272387267086408 -0.03270851228470484 -0.07264230014036777 -0.023250420719238996 -0.046407245291394617 -0.03574565744552238
          -0.01568463266769138 -0.01715958851584709 -0.037429203739874684 -0.008124987591086708 -0.017416281958292146 -0.021054180022098024
          -0.021510699293742164 -0.022665704467614844 -0.01940004670014872 -0.024647761785738354 -0.03722589961391076 -0.023284486391451864
          -0.011935753441065344 -0.021159267203461063 -0.01258024050000106 -0.004027969753333416 -0.012037424735595437 -0.017894658406704345
          -0.01427672453979767 -0.02121048839421391 -0.020302592800813812 -0.006080679264255373 -0.002508810142465734 -0.016289228331779704
          -0.012624670573149643 -0.011922144823977021 -0.016669217434722938 -0.005056452054022387 -0.005425874338460979 -0.014923571952149217
          -0.01979474507950041 0.011646243869332551 -0.013462143142199956 -0.0170306040468704 -0.012696719536428702 -0.03411078832783154
          -0.028885082309148657 -0.028435535457923322 -0.028035452173416076 -0.016087219746486525 -0.02352059653382188 -0.021056305486865767
          -0.044053133925771704 -0.027632574432299606 -0.022125561605741417 -0.01721097362881263 -0.011091436670817245 -0.013589318109946014
          0.015270428907776079 -0.002194337187759743 0.027927352458563703 -0.0075199521937001634 0.01322746602133762 -0.010142108764917168
          -0.022941105316010457 -0.013335349451295997 -0.018657167277745135 -0.0303725773108372 -0.04461793783555379 -0.05591218749618321
          -0.04145524099496356 -0.03621489099131914 -0.02068027573378295 0.00025439918504588377 -0.023727798799271227 -0.01431276413182303
          -0.03759713337149506 -0.023021753386537114 -0.019531160428537753 0.00145997092847594 -0.0001252529185507001 -0.023878165962397446
          -0.019516665432061764 -0.02685101911147747 -0.019029538877537444 -0.036650442090554236 -0.03538467359418718 -0.04233390514303892
          -0.022248439758300265 -0.06126387095234165 -0.03660376951731514 -0.01967666065145579 -0.024456635620325073 -0.018688119103437373
          -0.003740065992795749 -0.014746829679353368 -0.02278064024997306
        </DataArray>
        <DataArray type="Float64" Name="resid_y" format="ascii" RangeMin="-0.1900403355657477" RangeMax="0.36282022540563985">
          0.005505854656897624 -0.0033266999259554397 0.0012110856254439542 0.004884838629300753 0.01119911266990028 0.00030447558863086477
          0.00950197963266712 0.008612515217789704 0.019533633736123185 0.013473325110024498 0.017882262619873825 0.020286999974058653
          0.00039503137607446726 0.004068575965192833 0.007715571789087383 0.007834595022962632 0.0007398043975208879 0.009222521776530046
          0.018607977873617954 0.024582714649110826 0.009310603133257822 0.010051165459173922 0.015123830367353985 0.020900212883780023
          0.01229594692918709 0.02294581462067899 0.014873712492855018 0.013089255330622385 0.016079716022602164 0.009257553476708313
          0.00770822706165868 0.0050848733342416935 -0.005678669474066145 -0.0067447507857581745 0.0007691916464623166 0.036240036484436085
          0.0010310873414077944 -0.0017898415401168544 -0.004269687305113262 -0.00723131607554594 0.0018811908265252432 -0.0005052533133852316
          0.0008579788001409766 -0.005203797267701031 0.01366402196719678 0.01319822599509668 0.010524422900828487 0.006738374188875902
          0.00021467563818841628 -0.0006364486618345155 -0.000087379374114821 -0.0027118288837429533 0.0064688635257303395 0.0057779912639874115
          0.0073603181451184635 0.001971771023208127 0.020133290051663658 0.018135804638449007 0.015472338906221905 0.015546607485628708
          0.0001731356661713035 -0.0008874248446354982 -0.001376492794623152 -0.001645997904290708 0.0038583965989370805 0.003492627011401711
          0.0037134026100043294 0.007715627930229008 0.013434132225533996 0.01748067602812539 0.01787003344833704 0.017961748223477014
          0.009162873247710701 0.012682938262112947 0.01732852875343041 0.0185435105326011 0.02337597400609301 0.03677030403510578
          0.012950268141931051 0.014479337331782138 0.02479311050803193 -0.0012315981574697599 -0.00015695383382070133 -0.006313123369073803
          -0.0019281072952616052 -0.0006656973655737725 0.0009592221636387996 -0.008503288729161118 0.004470149608014395 0.010948443812389796
          0.007567391012722163 0.012289213608641658 0.017637699702354293 0.015212179837254813 0.029080716257671113 0.020570410851055487
          0.003612296151996902 0.0015000791691269083 0.003451427758480105 -0.003461683195772808 0.012613679321294716 0.004711859286404468
          0.003800023979998589 0.0027286279576200154 0.00989232874006549 0.005314766442614041 0.00745991489419489 0.0033161799358524466
          0.013736992071758242 0.017358643968337216 0.01705185698132626 0.00016388773176977123 -0.0021979801813748687 -0.0005286788163065687
          -0.00008690708223146881 0.0035940340461197845 0.006354104022989575 0.0012103802245067852 0.007515313590657505 0.01795691992406012
          0.024326713863981074 0.02258330205153758 0.021073975720534627 0.0061239630497138264 0.005694941131088163 0.013084639328989123
          0.006460569548067884 0.009002066971462233 0.009948330662485141 0.015136773994943634 0.014958612737604807 0.01488465479247815
          0.013021911069087948 0.0020329887350596237 0.0007977701954964764 0.011317667565864914 0.0001204889017097574 -0.00014426262606134777
          0.011206232088452978 0.01046009133475681 0.01866700936320339 0.033175706854716075 0.00512473136826893 -0.0003621228917261021
          0.012254892127489904 0.018936830536449702 0.0009967127189280875 0.0006804582469383189 0.01263934566228396 0.024960333105581517
          0.009566170609005664 0.012824112358546698 0.027576476479512682 0.002972987916234883 0.009404600807868507 -0.003272839327923091
          0.0032349002046941078 0.01100297255787383 0.01269165063717878 0.012197981501078176 0.009316386374726676 0.00000731665522872571
          0.014088298582273645 0.008217556450962615 0.005281018112469088 0.012387490352203073 0.010381754263044524 0.015207456406891806
          0.009884709046732443 -0.00012151173319543962 -0.0010536974797724086 0.007951025820724544 0.02125627656401008 0.013328199923219736
          -0.0033108339507921386 0.01785817990484856 0.020641509790349746 0.022084873643682695 0.010468603917044739 0.02551922871604448
          0.024409814552242504 0.07020675891104117 0.04313689728477127 0.13119957946947586 0.0005897550463918599 0.041190015733559626
          -0.003334306783719043 0.008887088556862294 -0.016316159712792683 0.016455736086593037 0.010292316646732497 0.021969795793702285
          0.0074740641254039675 0.0013279928701266513 -0.002157100036566627 -0.002845880104802804 0.0021174012692028177 0.002865571685269623
          -0.011844312360955137 -0.016873844140623352 -0.009171528259173861 0.03376401745703933 -0.018575068115241733 -0.04108481999250288
          -0.03418965510490907 0.041527061623915645 -0.010871237902779107 -0.008192844225120205 0.04976985246099501 0.04184359668662824
          0.010303649869486252 0.0022311684573444457 0.00631034325434332 0.0014298460983911132 0.008250308076433469 0.008801159411478632
          0.011291488276713113 0.006860507656764794 0.006670365009975643 0.00017973372936197496 0.014114746600178377 0.007962360919131373
          0.005739931631604148 0.00220469707750476 -0.009601482496820926 -0.00906120795313907 0.005878441913058224 0.0034058295409014616
          0.004169332180232632 -0.00734692690843218 -0.01933008545239897 0.017900283574539183 0.03253316844025245 0.01975346274245504
          0.010277185679859982 -0.0000512069000189741 0.021865597032947576 0.010473266218675337 0.026555189182143252 0.0045002167645555174
          0.02879402847595025 0.00425063775218032 0.021179590757266956 0.010749010564756634 0.014864714548987301 0.003925412725937827
          0.0159183922651498 0.012685036058511564 0.005694081540971688 0.010566608683673191 0.007818044791495705 -0.000568435142942969
          0.010567245371445586 0.012785787386578776 0.011739813010976222 0.003846500812562964 0.0005932658079159103 0.007673193583736471
          -0.0013841316216287314 0.010546649912402931 0.01043011056601309 0.02193115980054841 0.030295674233446396 0.025234326082734154
          -0.0007703208827285479 -0.0005446912686829786 -0.0015393427250457864 0.0021991957711198773 0.0007751679105106046 0.0059520051888792835
          0.0033493223320202603 0.0053577102921171516 0.010428920778065537 0.01625534286758873 0.015396845697718348 0.01697760563492709
          0.01073514741237494 0.0058044461804006575 0.010411670516327493 0.017644722739780183 0.001224868244863564 0.003991471749905773
          0.015248079415927679 0.01840055702855914 0.01035564215164736 0.012216255531164164 0.01768183476219798 -0.0010409376657270902
          0.03480570418841167 0.012202146067210984 0.024478656315079117 0.0036866001795032854 0.0010372976788662336 0.014459019887012231
          0.008762521719883898 0.019769185839640366 0.017346853562724585 0.0054495769201447775 0.0028943742693995494 0.005927909987833713
          -0.0018617092932061985 0.012751670305955837 0.010121697305376945 0.0017253632672777908 0.01006734958088757 0.0036805257101448496
          0.010860309640758792 0.01743671177891954 0.014137105218225907 0.0176768983248104 0.006616558399004345 0.018053066343608162
          0.032588170990388465 0.009920632422529635 0.023047794425128568 0.01154722950703918 0.014970340702334217 0.02323827456720895
          0.012451560121908633 0.009591196770970395 0.010559203555090867 0.0046037573906042364 0.01901366599999246 0.01056380389295778
          0.0019022412455539095 -0.005751211834460562 0.0035486838086151856 0.010243292742285692 0.0022792258557408074 0.0061710132756264136
          0.015705755511353316 0.0033821870142361314 0.0001647309868168384 -0.0038640230886589286 0.010229359121824558 0.0017669965643228314
          0.00487368532176613 -0.010964075252944266 0.0012507855957591407 0.02922676651567724 0.021847532121780477 0.015126984728493498
          0.00836852357358328 0.00791190431465165 -0.005269524905959569 -0.004441115141103971 0.006097364899064844 0.0031885425677689178
          0.013612069351620473 0.007783490014157415 0.002863999393261242 0.003274274813212963 0.013078362670341515 0.015780423707333693
          0.007931059729099861 0.010881946622108011 0.010369050419618372 0.005488808952630049 -0.0013417217972368535 0.000387413472219017
          0.008566043896437031 0.005365161034571794 0.0063797028808281475 0.0031055344800285933 -0.0007996854632138506 0.009433923839508696
          0.006798664520116959 -0.0027277184465947235 -0.0024597847236852988 0.008720648625001604 0.00823185997631834 0.0058926367829113535
          0.0037873858922872483 0.012315827938857882 0.019122864887851837 0.00043372430194246747 0.00548568122215971 -0.0003472606208814663
          -0.001469556412977427 0.0023312589151657237 0.011846348938662142 0.002823043055822344 0.003114169385820084 0.012853170988233215
          0.02475828166170299 0.013004737326036575 0.013464237685196917 0.010451762698000563 -0.011591915809464975 0.0032707189424077687
          0.011796615512887604 0.009433364018991364 0.0036382848196395423 0.003125575379451462 0.014446540225330762 0.011702560358040709
          0.008635609928701965 0.007320597485811833 0.016678450079006268 0.014769985099729821 0.007555288803115678 0.00818305328995668
          0.011306906190654442 0.010258727841061938 0.0028347667732175896 -0.0006141613724648248 0.01247876274554266 0.011149124369617042
          0.014949003712730502 0.02518913043927784 0.006720475365340761 0.008460950696484115 0.012917215847146557 0.011354514373997898
          0.010305630554470854 0.0014583194837442248 0.005662165257272644 0.003812272117298926 0.01362686850118286 0.009272492049482273
          0.011987501530071961 0.004243322961047875 0.013745169090814902 0.010067262802750693 0.003098115366365728 0.007381688440828149
          0.011344095361373624 0.008605305705630867 0.011051155183775987 0.0009156482833058421 0.0076192186210133905 0.012343991863865728
          0.012175337287821747 -0.002186705893274521 0.01804659578286999 0.014380373826877957 0.01762230366987605 0.007799001283459922
          0.008226851198584129 0.003113875187881268 -0.001840406379980064 -0.01313946266524961 -0.00036210514049388187 -0.0045490434452655215
          -0.0020522974088370977 -0.0016980073317937744 -0.0009333556230559648 0.0004682572025776349 -0.002230596651206729 -0.0010349411862441427
          -0.0020387040717531613 0.006712999223900409 0.0028955738643017814 0.0042140531760169325 0.004110403078693703 0.009938197288092615
          0.015421774793918278 0.011163458508306495 -0.0011915700813418806 0.024153801420699506 0.022223103906303998 -0.003728046923406725
          0.017092159921858974 0.013729610223000094 0.0014693067921574682 0.01044963461898124 0.0015683246420122865 0.01710320037912999
          0.026240579882013018 0.02854270763034176 0.0090206345329744 0.023354190866328617 0.011974663138171582 0.0227819172734194
          0.019957101883399837 0.004683795975849003 0.009552398093140874 0.0025783344352520166 0.02393988376047225 0.014769518075979093
          0.0241358140614846 0.005671010636954993 0.011297784166864777 0.018137266182063197 0.008054505954742913 0.011501615270887652
          0.008252049630499025 0.005316176756065827 0.003952887620275125 0.004170833195852042 0.009894784218753505 0.004842102166632001
          0.007067730792619825 0.004262421812728734 0.006118113088006583 0.008915193245317393 0.008481860934217017 0.008643492244408121
          0.011312871150289477 0.013673236831874797 0.00656656598895769 0.008879826944748231 0.005638609462616795 0.007726040527446354
          0.010764516899566673 0.007599530452390618 -0.0005648104937168996 0.006188803042900676 0.003914766906766759 0.0022096433191868825
          0.009636279069957565 0.012912592689357627 0.00833968808236038 0.022869931633873353 0.008899039968253197 0.018271289253049633
          0.0015956486062904673 0.024323309448681607 0.01411387155940469 0.01462884310218876 0.008591846216997684 0.010201509998204641
          0.005518656837670874 0.009461643234403266 0.009782216503192123 0.0228295550797199 0.003895784826336124 0.015894836404368895
          0.0014545911679926804 0.01812244806081953 0.003910715848625068 0.004499581679278865 -0.004814841011334212 0.004579764195192085
          0.013874416029735687 -0.0024801123668380665 -0.002425690369047967 0.005074986600214479 0.0155367617990754 -0.015770763374277602
          -0.004139245442498413 0.017738928644862095 0.00611482994213991 -0.004943386354910206 0.0004119256662950266 0.0062709859854786915
          0.009386389004422402 0.012941573520803357 0.026114230185792175 0.03570463620937015 0.011158850586523827 0.02376018072404132
          0.003998550462511602 0.00034948278997275206 0.0022114351420487455 0.008435005865998463 -0.0015080001818091604 0.0037134618715943812
          0.01718506374002897 0.004944044299669284 0.012945573797464055 0.0191214735273581 0.024718502772190676 0.01869578901851754
          0.020128777579456483 0.001987134117509018 0.009666839692483165 0.012864339022866919 0.018594763085547417 0.0032485964365378955
          0.009054226127501425 0.01306493794913563 0.013788838109185658 0.02247523985132513 0.007380461829144022 0.011069960041663465
          -0.005876877461782282 -0.024016459517282207 -0.004757603592320969 0.016646233730926052 0.01568447058566841 0.010965895656483482
          0.01274480051625343 0.01701793563816638 0.006810166553902028 0.0113497886267383 0.005423667956711675 0.014281473583491133
          0.00030093281158810603 0.014599068818614502 0.005656657863484904 0.006490029845629311 -0.006769502572087707 0.0010616098843953675
          0.013023416503966712 0.0018278709905923396 0.006503971807530651 0.01910969779961645 0.008240792802225685 0.008157091074907877
          0.016271758280973103 0.009296298572022244 0.007741343829637981 0.0011996113885414106 -0.0035733112290617375 0.005534387494036397
          0.005001125986432098 -0.013011783211118469 -0.0025811402986311016 -0.0068663125759938215 -0.0028067451496754936 -0.016327575493390672
          -0.004950948536691174 -0.01535636919146055 -0.005804293437508795 0.011339409083860785 0.0010632119064384465 0.0047211842506610195
          -0.0024816521084573967 0.008924683645412088 0.00123543988957521 -0.007316448064466435 -0.016331563700386437 0.0016616401167796058
          0.012318062559860676 0.006208869879192863 0.0066836154055044394 0.00204721352684575 0.0038774067669868073 0.004465121799135888
          0.003913532245175433 0.014829490823512786 0.005399309242287542 0.02125210378701864 -0.004508563199500548 0.00717605209868083
          0.0036043786170982667 0.009909398125720809 0.000986664275786829 0.0031795658242669556 0.013566139590520554 -0.005878927280489336
          0.004735664673732945 0.012870964432226933 0.0013943620866539268 -0.002985670928933551 0.004918972459737853 0.00040402610161444086
          -0.003485879978176648 0.0026403078080243225 -0.002933394650886989 -0.002908273645963494 -0.008274613892759825 -0.010556676627667239
          0.019628599192171164 0.0068918211795255535 0.010714007466209902 0.008754036995115011 0.004351978007913759 0.004184191835487308
          0.0024918679222883378 -0.005118989035839072 -0.0018159213281244424 0.013556045949436199 0.004903189963022109 0.005385571519755994
          0.012611293278570412 0.008370297521800768 0.015617486201827013 0.016667850101076576 0.010308627792972924 0.01011227609523535
          0.006937224266131303 0.03243844211736069 0.022555888135713187 -0.0013051439505774032 0.015379095173033097 0.012891132533992461
          -0.00034271049337453174 0.009618721356217552 0.01241119323860121 0.008925021500163888 0.010736862005533365 0.008883187579611207
          0.36282022540563985 -0.09596059534379173 0.3363669223387409 -0.1900403355657477 0.15569894185728644 -0.10002955866646196
          0.0021631953245067753 0.008029915637507046 0.009966890585311527 0.010725616790837916 0.010183407798880467 0.0072791185129185
          0.001583040534766416 0.005476564023609208 -0.023272259936474173 0.01208064444723271 0.005106983831689782 0.008006100379442119
          0.012329222787789751 -0.00983036179375274 0.007257529288450401 0.0069872830022497875 -0.0033725874117261356 0.0002885107560629957
          0.003264110932314296 0.025054977149984226 0.02096209282346033 0.0009973048788552846 0.009139394542353324 0.0037098941739364816
          0.007130255742422098 0.007296710265333156 0.0069429485107267985 0.015996458890101053 0.004022972523359647 0.036066516398805426
          0.013150392744961048 0.01653477628867288 0.011171881532534955 0.0004672935953596996 0.003742384209234506 0.00749070090207761
          0.014185846195864993 0.03861385336982631 0.01971128904118416 -0.02182760723525068 -0.046573034529428334 -0.026805312171037793
          0.015176476086492086 0.021595654874851822 0.012539571304227587 0.016816642692374012 0.02074563026789894 0.013854766452930073
          0.022695345952513046 0.036533159816881655 0.016302109285178334 0.01809369702625685 0.003234960173539414 0.03011129609316221
          0.011290118935940618 0.01710719279701578 0.014829230978715247 0.004252271324191731 0.005182390659713196 0.0048521726103102625
          0.01179194784075785 0.01015718048103445 0.005859577597045047 0.0008845195133166221 0.0003834140358796312 -0.0010156730546454218
          0.00020141572783094475 -0.001682078246136337 -0.0018620651185528025 -0.004584670089102169 -0.0025061177864376116 -0.0012945329304795555
          -0.0016847116749109728 0.009924674514175488 0.010921628883774924 0.00004679515474123597 0.012539764501927064 0.0006663607705473806
          0.021619933300651706 0.007733496345359803 0.013077615719452595 0.002602521998293167 0.009998869481479529 0.004317629194820594
          0.020492785740301063 0.005527301714482652 0.011158694497681504 -0.018279050362957655 -0.03705760588983342 -0.034949732111303755
          0.016364692450668683 0.023094858780399186 0.012631426176416244 0.010091933734400815 0.002364184734697905 0.007550042495133552
          0.0024226780980439455 0.008938639142920979 0.009645835164518196 0.007876201299243712 -0.002065916804233514 -0.00020622397546604665
          -0.0017302641568469335 -0.002436137385558812 0.004189366404466516
        </DataArray>
        <DataArray type="Float64" Name="resid_z" format="ascii" RangeMin="0" RangeMax="0">
          0 0 0 0 0 0
          0 0 0 0 0 0
          0 0 0 0 0 0
          0 0 0 0 0 0
          0 0 0 0 0 0
          0 0 0 0 0 0
          0 0 0 0 0 0
          0 0 0 0 0 0
          0 0 0 0 0 0
          0 0 0 0 0 0
          0 0 0 0 0 0
          0 0 0 0 0 0
          0 0 0 0 0 0
          0 0 0 0 0 0
          0 0 0 0 0 0
          0 0 0 0 0 0
          0 0 0 0 0 0
          0 0 0 0 0 0
          0 0 0 0 0 0
          0 0 0 0 0 0
          0 0 0 0 0 0
          0 0 0 0 0 0
          0 0 0 0 0 0
          0 0 0 0 0 0
          0 0 0 0 0 0
          0 0 0 0 0 0
          0 0 0 0 0 0
          0 0 0 0 0 0
          0 0 0 0 0 0
          0 0 0 0 0 0
          0 0 0 0 0 0
          0 0 0 0 0 0
          0 0 0 0 0 0
          0 0 0 0 0 0
          0 0 0 0 0 0
          0 0 0 0 0 0
          0 0 0 0 0 0
          0 0 0 0 0 0
          0 0 0 0 0 0
          0 0 0 0 0 0
          0 0 0 0 0 0
          0 0 0 0 0 0
          0 0 0 0 0 0
          0 0 0 0 0 0
          0 0 0 0 0 0
          0 0 0 0 0 0
          0 0 0 0 0 0
          0 0 0 0 0 0
          0 0 0 0 0 0
          0 0 0 0 0 0
          0 0 0 0 0 0
          0 0 0 0 0 0
          0 0 0 0 0 0
          0 0 0 0 0 0
          0 0 0 0 0 0
          0 0 0 0 0 0
          0 0 0 0 0 0
          0 0 0 0 0 0
          0 0 0 0 0 0
          0 0 0 0 0 0
          0 0 0 0 0 0
          0 0 0 0 0 0
          0 0 0 0 0 0
          0 0 0 0 0 0
          0 0 0 0 0 0
          0 0 0 0 0 0
          0 0 0 0 0 0
          0 0 0 0 0 0
          0 0 0 0 0 0
          0 0 0 0 0 0
          0 0 0 0 0 0
          0 0 0 0 0 0
          0 0 0 0 0 0
          0 0 0 0 0 0
          0 0 0 0 0 0
          0 0 0 0 0 0
          0 0 0 0 0 0
          0 0 0 0 0 0
          0 0 0 0 0 0
          0 0 0 0 0 0
          0 0 0 0 0 0
          0 0 0 0 0 0
          0 0 0 0 0 0
          0 0 0 0 0 0
          0 0 0 0 0 0
          0 0 0 0 0 0
          0 0 0 0 0 0
          0 0 0 0 0 0
          0 0 0 0 0 0
          0 0 0 0 0 0
          0 0 0 0 0 0
          0 0 0 0 0 0
          0 0 0 0 0 0
          0 0 0 0 0 0
          0 0 0 0 0 0
          0 0 0 0 0 0
          0 0 0 0 0 0
          0 0 0 0 0 0
          0 0 0 0 0 0
          0 0 0 0 0 0
          0 0 0 0 0 0
          0 0 0 0 0 0
          0 0 0 0 0 0
          0 0 0 0 0 0
          0 0 0 0 0 0
          0 0 0 0 0 0
          0 0 0 0 0 0
          0 0 0 0 0 0
          0 0 0 0 0 0
          0 0 0 0 0 0
          0 0 0 0 0 0
          0 0 0 0 0 0
          0 0 0 0 0 0
          0 0 0 0 0 0
          0 0 0 0 0 0
          0 0 0 0 0 0
          0 0 0 0 0 0
          0 0 0 0 0 0
          0 0 0 0 0 0
          0 0 0 0 0 0
          0 0 0 0 0 0
          0 0 0 0 0 0
          0 0 0 0 0 0
          0 0 0 0 0 0
          0 0 0 0 0 0
          0 0 0 0 0 0
          0 0 0 0 0 0
          0 0 0 0 0 0
          0 0 0 0 0 0
          0 0 0 0 0 0
          0 0 0 0 0 0
          0 0 0 0 0 0
          0 0 0
        </DataArray>
        <DataArray type="Float64" Name="stress_zz" format="ascii" RangeMin="-3115866.5619410058" RangeMax="5252885.974127559">
          158502.20380005185 -949338.4793748712 756588.5149517388 595863.4602999724 231497.14492941607 -1065366.1573454388
          753114.6599812015 666286.5668844765 304492.0860587802 -1181393.8353160063 749640.8050106645 736709.6734689805
          -1438159.9869734354 -1011754.0157220808 -1136127.8646826118 -453914.53805299656 -1516769.8072156187 -1104778.15804216
          -1193548.9470280057 -553062.9825284168 -1595379.6274578022 -1197802.3003622396 -1250970.0293734 -652211.427003837
          -600936.7776608008 -604981.1251234028 -609025.4725860048 -1177699.9422409825 -1107955.8311630927 -1038211.7200852027
          649376.7503430842 882130.4972882532 650645.998078622 914143.4225664183 651915.24581416 946156.3478445834
          2426182.155421392 1949244.168621519 2291773.9109526104 2781865.4900534623 2406251.0392631283 1940794.31301693
          2279184.33490906 2800302.5041397014 2386319.9231048636 1932344.4574123407 2266594.758865509 2818739.51822594
          530257.993636376 320810.5848523922 1540890.5626235947 2397244.1925321035 455646.57147281594 379486.1170663353
          1663743.9402436682 2507813.2951174453 381035.149309256 438161.6492802783 1786597.3178637417 2618382.3977027866
          -2194513.5475121355 -871136.3711610617 888012.9612080067 699765.4586030127 -2257526.379363343 -961108.9568790181
          830346.6467445721 641191.8644355922 -2320539.2112145512 -1051081.5425969744 772680.3322811371 582618.2702681718
          514921.01300579205 239354.68613765508 217623.67965447885 452051.3190857043 154435.6890878842 269281.53202202666
          389181.62516561657 69516.69203811334 320939.3843895744 1580464.0059437207 2345152.1190695954 1350799.1636534403
          657680.8275621652 1660792.027472807 2449589.4264749703 1429555.1511253684 654667.0371526775 1741120.0490018926
          2554026.7338803443 1508311.1385972963 651653.2467431898 1147223.0321934978 1157152.3033918184 1167081.574590139
          591220.9376425201 645124.0637079848 505459.3895737442 539682.2857140024 419697.8415049685 434240.50772002037
          943414.0781380588 1090015.191647997 569521.9706193025 918897.0026125386 1129021.143057127 532006.9619804794
          894379.9270870186 1168027.0944662571 494491.95334165636 203316.45044838468 -101877.23703581985 947975.6336794649
          1141631.9212533827 214024.68282358735 -61277.692536023715 960448.0358767167 1149211.3072772683 224732.91519879003
          -20678.148036227518 972920.4380739686 1156790.693301154 1107757.9852825503 2847525.715816777 218840.49528651295
          1169661.7127337675 3002799.365975569 98845.20211986778 1231565.4401849844 3158073.0161343617 -21150.09104677767
          4698125.935527924 2731767.855154114 2829643.928818957 4975505.954827742 2793037.621072784 2774115.4291045964
          5252885.974127559 2854307.3869914548 2718586.9293902363 -246053.22386009604 -973406.1941465826 -638163.3898924827
          -73836.09410483476 -175578.94972204976 -1164401.0596665954 -721082.585142479 -68877.7587268641 -105104.67558400337
          -1355395.925186609 -804001.7803924754 -63919.42334889344 478241.7899781411 1188601.1191420313 579456.4858276402
          1097235.8090408319 680671.1816771394 1005870.4989396323 1394285.1573411433 1376747.3607158936 2883222.658399684
          1362332.3796237654 1437479.9322855144 2918750.7443408947 1330379.6019063871 1498212.5038551353 2954278.8302821065
          3120228.4821540667 1128745.7982010986 1961376.3250016503 3042613.4761643508 3131834.597051851 1108847.2283578229
          1887132.31624771 3044047.2072631046 3143440.7119496344 1088948.658514547 1812888.307493769 3045480.9383618576
          758386.799024366 -958267.501243807 -29626.91181214286 -1131350.1267617159 -817640.6226486517 -1304432.7522796243
          441756.8833857444 -1046642.9980544989 471479.9808971912 -981960.4777239846 501203.078408638 -917277.9573934703
          -489536.6285786843 -265355.81597460835 -371021.8875882317 -162145.42055961932 -252507.14659777904 -58935.02514463029
          706672.9693178366 857316.5761634192 -194082.36507593014 -1206780.2087524303 814748.3542389595 989463.5333159484
          -212119.63234891836 -1202777.6863590386 922823.7391600823 1121610.4904684774 -230156.89962190646 -1198775.1639656469
          528228.8283763262 130738.63877425801 484568.7197474433 147135.24539236183 440908.6111185603 163531.85201046558
          1535949.56766592 1624475.9758777712 1521660.9957536664 1588476.0745939382 1507372.4238414126 1552476.1733101052
          1334565.9961416572 1053448.4781926973 1297729.3556860415 1009156.9103184666 1260892.715230426 964865.3424442358
          60898.687665976235 50434.937724318646 39971.18778266129 462459.2716404841 425210.08006486826 387960.8884892524
          55227.552257815085 172597.28540228904 489638.17422502674 411595.1615042231 65331.32796711812 150287.23377006536
          476399.77451821684 435787.5747992689 75435.10367642119 127977.18213784165 463161.3748114069 459979.9880943148
          2374951.0751476437 2546856.651553318 2626382.3901347285 2373369.4250753396 2602468.394920273 2660706.9696998354
          2371787.775003036 2658080.1382872285 2695031.5492649414 396765.2930330841 613652.7339669529 144595.41012351657
          520629.05274166615 -107574.47278605092 427605.37151637947 3244636.6684735324 3270851.5905133216 3297066.5125531107
          268984.57855743356 -249912.8855998844 -988276.1264558582 221002.57294499845 283616.95041586156 -249313.26284843584
          -823039.0330987704 263665.0653950282 298249.3222742893 -248713.64009698748 -657801.9397416825 306327.557845058
          442503.29795268655 386320.46825417754 330137.6385556685 1533370.2768348567 1524311.3231384933 1515252.3694421295
          128100.57007173992 123555.11013240714 119009.65019307434 -966163.3664714664 -1891043.825586832 -1036052.2024561543
          -2044194.4600275566 -1105941.0384408426 -2197345.094468281 2724177.334533409 2729503.9130408284 2736295.8213446694
          2787374.299001978 2748414.308155929 2845244.6849631285 569160.8686453396 1002780.8576121462 377928.1804707695
          906838.8422665303 186695.49229619937 810896.8269209142 334624.1102245259 -310350.4927878063 339080.3652170856
          -337685.4860605635 343536.6202096452 -365020.47933332046 1380881.9092176585 1416232.2725669267 1451582.635916195
          -13502.776132148632 -1114553.580844325 -101490.9369368366 -1251744.7140857102 -189479.09774152457 -1388935.8473270957
          -737854.1729085213 -794964.0495813183 -746924.0022085417 -980711.9283684862 -755993.8315085624 -1166459.807155654
          549551.3483041187 532828.2135692307 516105.07883434277 615837.6405285383 586111.8899813665 556386.1394341947
          -1383576.607165909 -2295515.832893716 -1375123.68243775 -2530888.667349882 -1366670.757709591 -2766261.5018060473
          1196678.9607327476 1215119.93106498 1233560.9013972133 957142.071092703 917214.2361821602 877286.4012716176
          1428214.7440480823 997930.5978411312 1419801.8682929217 1009827.23948303 1411388.9925377613 1021723.8811249291
          1508477.7072157643 -646161.7086428595 1535238.2151575861 -626765.0385285377 1561998.7230994077 -607368.368414216
          2312734.346652972 371777.16402590217 -1492709.889011161 2355938.56146703 374124.8874850807 -1664908.8179240068
          2399142.7762810886 376472.61094425945 -1837107.7468368532 -979119.3113578034 34310.398100003134 1410313.532793155
          -690757.8633107165 -962084.1900412387 -145440.25697412156 1220868.769809002 -691028.9539703492 -945049.0687246735
          -325190.91204824625 1031424.0068248492 -691300.0446299819 284311.942913791 557401.2196206283 934745.2823169566
          576792.3105896866 353357.5651143922 513129.2938102302 904178.3621421538 583283.8682274357 422403.1873149932
          468857.3679998318 873611.4419673512 589775.4258651847 1400206.2388445484 1332695.7691097269 1265185.2993749056
          763630.7685547299 -280654.76963004365 759157.4001672341 -450782.4840761546 754684.0317797381 -620910.1985222658
          569237.7687617952 709943.0181060339 564368.509636373 625349.758862953 559499.2505109508 540756.4996198722
          1956792.1501293937 789090.4815507527 1833801.1122205143 696865.1611941275 1710810.074311635 604639.8408375026
          35604.38385467074 784599.144851275 132454.75603529852 873399.9338185374 229305.1282159263 962200.7227857999
          -815520.7003540366 -356341.37714469933 -864807.6140075584 -403355.69774167053 -914094.5276610802 -450370.0183386417
          1629834.8074756945 1684766.0220149555 1739697.2365542173 1401714.6142453284 1408788.9239032315 1415863.233561135
          22786.711944086255 -1422113.33861978 278866.7870307456 596440.2089416116 33411.36343026743 -1427171.4942417778
          399588.3178951013 658446.9040829677 44036.01491644858 -1432229.6498637751 520309.848759457 720453.5992243239
          530163.3760909075 944489.3125960943 529649.5271064806 998850.7130644844 529135.6781220536 1053212.1135328745
          400894.9184330201 -50163.98093979078 -30510.53886266725 809919.56728844 364672.073219008 -28315.223980746116
          -27790.06212748959 769949.4393179341 328449.22800499585 -6466.467021701392 -25069.585392312045 729979.3113474282
          -376307.6373094438 -686550.1097641574 -1168291.7851081605 -378307.3165950988 -719059.3969341328 -1271661.981329409
          -380306.99588075385 -751568.6841041081 -1375032.1775506577 -371019.64771718206 -272415.83970159263 -173812.03168600315
          1306271.6273936632 26543.68687914199 1250389.0591385134 17352.34227917076 1194506.4908833634 8160.9976791994995
          83512.77021732581 711567.8880270614 120103.73490432496 764182.3066392499 156694.6995913242 816796.7252514384
          1060629.0685651065 1025063.7001865855 989498.3318080646 1621714.8520342526 1676263.3941869126 1730811.9363395723
          1635851.292903671 2707615.2971682693 1668743.1203273737 2525825.7115548463 1701634.9477510755 2344036.1259414237
          171567.8207799565 556332.1548004879 117126.89198060075 546670.5880105103 62685.96318124501 537009.0212205327
          2033205.5179857241 2122017.2530416036 1992498.0367494333 2098841.383116263 1951790.5555131421 2075665.5131909219
          2238367.9711307012 1497679.1159600397 2765755.201262976 2265637.911864447 1467531.9304214355 2816821.7996948184
          2292907.852598192 1437384.7448828318 2867888.398126661 552731.9253720689 330115.30042141344 571935.9645918106
          449153.44215812243 591140.0038115522 568191.5838948314 -1433199.5598569568 -1146175.1522460459 -1635554.7440461814
          -1327832.2802364687 -1837909.9282354056 -1509489.408226892 2067677.097864517 3483942.875499512 1935797.2590848408
          3468831.5606894083 1803917.4203051645 3453720.2458793046 474913.4398467792 500188.6708079451 525463.9017691109
          2139403.1005891124 1591755.7796336568 2968953.3616696335 2279606.083040923 2165860.1601522653 1599194.7698671683
          2880888.5966882054 2255594.07050432 2192317.2197154183 1606633.7601006797 2792823.8317067767 2231582.0579677164
          1218192.8166839285 776084.9198999512 1187093.0435791544 820348.9581479803 1155993.2704743803 864612.9963960093
          -1744620.8135705674 -1771091.752996593 -1797562.692422619 4469166.287200079 4461247.795286829 4453329.303373577
          126088.77780761915 150474.74324402722 174860.70868043523 598720.857752213 736422.199107727 874123.5404632414
          517801.2350244881 532142.5994691008 546483.9639137136 -1024374.7644094176 -1004507.0325820443 -966711.5096664587
          -1133147.5567905714 -909048.2549234997 -1261788.0809990987 -1125005.9012573778 -1190194.3156269826 -1255382.7299965874
          157948.43054501747 178745.89219291584 199543.35384081415 -1424850.0962991412 -1547500.324023504 -1670150.551747867
          449486.2593349735 487245.1772144718 525004.0950939701 184171.09597683244 1677362.8086459972 57638.501480608276
          1577609.0519180945 -68894.09301561583 1477855.2951901916 934475.7159066082 982703.2248922602 1030930.7338779125
          2802520.798615104 2711712.9997870848 2620905.200959066 -1802854.0325755794 -2085812.4244151853 -2368770.8162547913
          2193845.68229407 2454945.397437576 2716045.1125810836 310704.28914418304 381828.5575985273 452952.8260528714
          280269.8658060457 317872.1950938633 355474.5243816809 -2603.8115357207134 613697.4144982576 -916.0096055764006
          501299.35328239604 771.7923245679121 388901.2920665345 2345725.4975277497 4842389.997133298 2296707.0149596953
          4914762.482787248 2247688.53239164 4987134.968441198 324045.4524586868 337982.4005301741 351919.3486016614
          1083649.2878867441 1073956.330365105 1064263.3728434658 870911.7959972884 844915.4457428198 818919.0954883515
          -441428.46456372144 -1077395.102119202 -680497.1577888967 -944705.3323606452 -919565.8510140717 -812015.5626020879
          2990736.823770464 1850358.7140946062 1479527.321427858 3032615.618288311 1766514.0950607534 1575351.2421689269
          3074494.412806159 1682669.4760269008 1671175.1629099958 1109022.2253205567 1697266.5740543443 1045272.361347788
          1669808.7491034677 981522.4973750192 1642350.924152591 -592530.2936027911 -587035.2016249682 -581540.1096471454
          2204169.208237201 2041326.736764118 1878484.2652910352 4471699.383029295 4386386.108393797 4301072.833758298
          338197.1184404621 364451.3630087662 390705.60757707024 -1476169.1466907992 -1461263.2960938097 -1446357.4454968201
          -1317337.8916749335 -444977.25324425614 -1391714.6286394047 -401434.66428428196 -1466091.3656038758 -357892.0753243078
          627652.7896834763 638457.5345376985 649262.2793919208 1504102.3434271729 1631992.990708631 3356398.6537632393
          1471233.3784556612 1559927.5479893554 3487727.990280292 1438364.4134841491 1487862.1052700798 3619057.3267973447
          -1094815.6720630978 -465265.300302027 -2105341.117002052 -955191.3321343515 -3115866.5619410058 -1445117.363966676
          250618.5667528786 489683.6946199961 200633.15293897633 479202.8149827659 150647.7391250741 468721.9353455358
          -375981.99347369856 -297178.47329674795 -218374.95311979728 139731.8432928902 336522.40994172334 511091.4851867488
          145688.05288070525 368700.1679102708 572693.6315097047 151644.26246852032 400877.92587881815 634295.7778326607
          598915.5955102979 592773.1088803443 586630.6222503907 -100856.41177362279 274248.0158363088 -197428.48286195064
          266131.50293857814 -294000.55395027855 258014.9900408474 -212929.63791302417 105198.10669737362 -296016.40735449584
          44581.107229491434 -379103.1767959675 -16035.892238390752 1473155.604801511 1531424.4968856403 1589693.3889697697
          696427.2699089833 663589.3916943175 630751.513479652 61993.479044706386 154271.66832367465 246549.8576026432
          609848.1346043572 591210.0071315618 572571.8796587664 637671.5514297865 640599.9104054179 643528.2693810493
          -232006.36487153938 -265483.11168245226 -298959.8584933653 601871.0757513035 702503.8154947015 696765.8722540746
          705968.9577846976 791660.6687568454 709434.1000746938 4120652.526538849 3716356.7292228094 4248635.856920954
          3910031.393424297 4376619.187303059 4103706.0576257855 3149422.625127943 3139614.100631917 3129805.576135891
          501666.6741315534 -700187.3493999657 481713.0408265994 -663924.5068907877 461759.40752164536 -627661.66438161
          991229.521742479 940605.4341585529 889981.3465746269 -228999.3991302352 1448923.150536335 -192149.59882359937
          1502881.3891951996 -155299.79851696355 1556839.6278540636 963517.5979902181 739360.8841916922 1036670.3092620525
          740117.4086407938 1109823.020533887 740873.9330898954 -1468534.8160613417 -1667052.5119512791 -1865570.2078412161
          3623459.3565714736 3929900.07438083 4236340.792190187 734401.6417108268 763830.3463433969 793259.0509759667
          -1824939.181822479 -1905342.0178241164 -1985744.8538257538 -283289.9617052978 -278439.80622849055 -273589.65075168334
          13800.167837934947 54051.24340450416 94302.3189710734
        </DataArray>
        <DataArray type="Float64" Name="peeq" format="ascii" RangeMin="0.0048355659204578245" RangeMax="0.010406283141239078">
          0.007579418173431454 0.00830159066220732 0.008180734442479716 0.00752722508485342 0.007576820053705335 0.008296377367120106
          0.00817758104350752 0.007526139005357421 0.007574221933979214 0.008291164072032892 0.008174427644535322 0.007525052925861425
          0.006211214368720156 0.005669264497529913 0.005769058377982492 0.006384021926679752 0.006210858066733234 0.005667541556071703
          0.0057680079464770394 0.006383550137851788 0.006210501764746313 0.005665818614613493 0.005766957514971586 0.006383078349023826
          0.005148353951972532 0.005148314729072834 0.005148275506173137 0.005112125850071728 0.005112554100751059 0.0051129823514303886
          0.007894102246882013 0.007266504623378122 0.007892967721757875 0.0072671438051491715 0.007891833196633734 0.007267782986920221
          0.0099850589766293 0.01014212415120352 0.009979557781207857 0.009922582516725688 0.009982278827745415 0.01013976078452059
          0.00997705641271474 0.009919681098592405 0.009979498678861531 0.010137397417837661 0.009974555044221622 0.009916779680459122
          0.007094549708270834 0.007536711857636684 0.007805519607478357 0.007402061232329934 0.007092465391047756 0.007533798243302731
          0.0078037036692670675 0.007400751344354351 0.007090381073824677 0.007530884628968778 0.007801887731055777 0.007399441456378768
          0.006066469457044865 0.006446128753049704 0.006024463134620565 0.005734415068843781 0.006067365132781275 0.00644527591735042
          0.006024561811291201 0.005735320747425389 0.006068260808517685 0.006444423081651136 0.006024660487961838 0.0057362264260069976
          0.01022229699210367 0.010158090787847419 0.010167975810225246 0.010221279177199841 0.010157447258645189 0.010168389501258002
          0.01022026136229601 0.010156803729442955 0.01016880319229076 0.009348592334110804 0.009766715890466333 0.009763210349344091
          0.009196894966003321 0.009346886102426509 0.00976408215993537 0.009759695516829741 0.009194837845330725 0.009345179870742213
          0.009761448429404405 0.009756180684315385 0.009192780724658125 0.008743454704960907 0.008742224958843072 0.008740995212725238
          0.00879595478439271 0.008594032599272303 0.008790604738540821 0.008590153804251861 0.008785254692688932 0.008586275009231419
          0.007338535747729703 0.007874174806902879 0.007052774388414565 0.007335831554037978 0.00787011522734385 0.007051240250760709
          0.007333127360346252 0.007866055647784824 0.007049706113106852 0.009473198998280872 0.009230168512266521 0.009405886528569968
          0.009672209941520179 0.0094695555010012 0.00922841981116398 0.009404713619606523 0.009669991146817608 0.009465912003721526
          0.009226671110061438 0.009403540710643081 0.009667772352115038 0.008356699239586974 0.007978378442963657 0.008192019658523203
          0.00835627543819994 0.007977497420725042 0.00818947580738559 0.008355851636812905 0.007976616398486423 0.00818693195624798
          0.007667791244914576 0.007541595114753603 0.006908226245237818 0.007666736786279713 0.007539477976271327 0.006907013773829138
          0.007665682327644849 0.007537360837789054 0.006905801302420457 0.008787976666355024 0.008476822827154678 0.008588592966210874
          0.009019067511664107 0.008787086742751698 0.008473550216309397 0.00858555880009244 0.00901711539348318 0.008786196819148374
          0.008470277605464118 0.008582524633974008 0.00901516327530225 0.00947353204983698 0.009068185743902795 0.009470329065953785
          0.009064349501887408 0.009467126082070591 0.009060513259872022 0.010055688420345456 0.009797584728209923 0.009713932823186878
          0.010054050211316948 0.009798023166339199 0.00971323165289813 0.010052412002288437 0.009798461604468475 0.009712530482609385
          0.009338741652112641 0.009420806675662958 0.009764370721719349 0.009712717390076888 0.009337505980921222 0.009417640917971676
          0.009760804390323834 0.009710444042746198 0.0093362703097298 0.009414475160280393 0.009757238058928324 0.009708170695415505
          0.00569730669624885 0.006087444096606585 0.005697214280853152 0.0060877675748807645 0.005697121865457455 0.006088091053154945
          0.00650614821121245 0.007037990715731358 0.0065059069365013935 0.007036991741540074 0.0065056656617903386 0.00703599276734879
          0.004885118630690479 0.005011321917845648 0.004886866508725357 0.005012814805441672 0.004888614386760236 0.005014307693037696
          0.007120385511225155 0.006584412708771911 0.006893716370239125 0.007484645835361572 0.007124717118688777 0.006588932976022728
          0.006896477489764158 0.007486585365595609 0.007129048726152398 0.006593453243273546 0.006899238609289189 0.007488524895829645
          0.010285224499783063 0.01017834911544202 0.010284190470258858 0.010178134007008822 0.010283156440734652 0.010177918898575625
          0.010121543094377784 0.009867789289553286 0.01011740408626491 0.009864114112442455 0.010113265078152038 0.009860438935331624
          0.010339444511902409 0.010141172982957743 0.010335438973307387 0.01013648072592267 0.010331433434712366 0.010131788468887598
          0.006680160215645889 0.006681011752944697 0.0066818632902435025 0.009528057364735509 0.009528637255493862 0.009529217146252213
          0.010046981319299854 0.009906885227527334 0.00973024048358792 0.009928414169689325 0.010046999661306037 0.009906796966516715
          0.009730453188021133 0.009928799202493512 0.01004701800331222 0.009906708705506093 0.009730665892454348 0.009929184235297699
          0.009914351627791168 0.009823228014556238 0.009988547958569047 0.009911524303016757 0.009821677539905578 0.009987074720799096
          0.00990869697824235 0.009820127065254917 0.009985601483029143 0.010023855983343806 0.009805487729880704 0.010017950687734695
          0.009801317027180692 0.010012045392125583 0.009797146324480676 0.009363383878732976 0.009364089932793458 0.009364795986853941
          0.005285200630617882 0.00554377575556177 0.005769823158265328 0.005481743309047209 0.005285970086707134 0.00554429277400734
          0.005772447337140947 0.0054834947829830935 0.0052867395427963855 0.00554480979245291 0.005775071516016566 0.00548524625691898
          0.010133781424343576 0.010133170775785728 0.010132560127227882 0.009523150498015675 0.009524154796370806 0.00952515909472594
          0.010105733825953714 0.010106236361679689 0.010106738897405664 0.00682739512850814 0.006353957090032953 0.006827119918945773
          0.006354773389856951 0.0068268447093834065 0.0063555896896809495 0.008814993459817462 0.008933487691180094 0.008815242389032028
          0.00893520869881711 0.008815491318246596 0.008936929706454128 0.010268682171921695 0.01006529948248747 0.010263613363940697
          0.010062125273241464 0.0102585445559597 0.010058951063995457 0.00921658562773534 0.009139760325646912 0.009211402684806972
          0.009135338115280157 0.009206219741878605 0.009130915904913403 0.009570063777750812 0.009568743946956684 0.009567424116162555
          0.008946573988031259 0.00824642286310271 0.00894398396357244 0.008245708887490285 0.008941393939113623 0.008244994911877862
          0.00906658498361982 0.008796958739647838 0.009062328068366357 0.008790695164347544 0.009058071153112891 0.008784431589047249
          0.010188160789538561 0.010184153207525066 0.010180145625511575 0.010305769941879374 0.010304552913369222 0.010303335884859072
          0.008750479980935259 0.0086815741624254 0.008748102690208715 0.008676120249559098 0.008745725399482176 0.008670666336692797
          0.010309151837246781 0.01030718877183834 0.010305225706429898 0.009235341630736943 0.009236348511646928 0.009237355392556913
          0.010406283141239078 0.01033509617294578 0.01040345108555561 0.010333917437385202 0.010400619029872141 0.010332738701824624
          0.0097939121940252 0.009519194685300934 0.009792083237514683 0.009516402549548273 0.00979025428100417 0.009513610413795611
          0.007998906741733898 0.008392560611845118 0.008343921493879768 0.007996251262174646 0.008390712781073187 0.008338983143710003
          0.007993595782615392 0.008388864950301254 0.008334044793540238 0.00887853573726158 0.008583876987607673 0.008887219390294064
          0.009241045103681341 0.00887436175193243 0.008577695511067074 0.00888144692607047 0.009236943008915926 0.00887018776660328
          0.008571514034526476 0.008875674461846875 0.009232840914150511 0.006312400461961818 0.005817497843191387 0.005622233783800371
          0.006008702031052112 0.006314492700371866 0.005817773372124779 0.005621055369884152 0.00600892297170286 0.006316584938781914
          0.005818048901058169 0.005619876955967933 0.006009143912353607 0.010276934331292394 0.010271657172790386 0.010266380014288373
          0.008360644718717385 0.008052473560320472 0.008356743989668965 0.008048590365503748 0.008352843260620548 0.008044707170687023
          0.010129623004435975 0.010020207786618522 0.010129376741680848 0.010019725415402428 0.010129130478925724 0.010019243044186332
          0.00774655666192623 0.007379942657168169 0.00774359485026308 0.007379606313723331 0.007740633038599931 0.007379269970278492
          0.006385738981352255 0.006792337343600127 0.006387783428362696 0.00679422343947079 0.0063898278753731375 0.0067961095353414516
          0.005969850163946678 0.005669184843999917 0.0059690676152835305 0.0056678379792233675 0.005968285066620383 0.005666491114446818
          0.010181365090454945 0.010179848956091697 0.01017833282172845 0.010249929253134405 0.010248042026634829 0.010246154800135252
          0.006802464113827389 0.006288335427005129 0.006112135448253965 0.006584542904913448 0.006801482542478749 0.006289301153898526
          0.00611463056704649 0.006585810662281861 0.006800500971130108 0.00629026688079192 0.006117125685839016 0.006587078419650274
          0.0101397967231429 0.010228080089079048 0.010137362338466516 0.010227549440204799 0.010134927953790134 0.01022701879133055
          0.0048355659204578245 0.004841977431650511 0.004990117733125079 0.004942259442236869 0.0048357469426841965 0.00484272954232772
          0.0049903706148423915 0.004942718771949221 0.004835927964910569 0.004843481653004929 0.0049906234965597035 0.004943178101661573
          0.005320543966525594 0.005035006550458091 0.005336635932818304 0.005319954419096792 0.00503578000059314 0.005335724311489737
          0.0053193648716679896 0.005036553450728188 0.005334812690161171 0.006894804894829569 0.0068976133482902035 0.006900421801750839
          0.009780258829294229 0.009503592016412644 0.009776577677958921 0.00949951183593866 0.009772896526623618 0.009495431655464678
          0.009136778383260774 0.00854269658077085 0.009134407691999292 0.008540205785202473 0.00913203700073781 0.008537714989634099
          0.007149770194935262 0.00714882891849071 0.00714788764204616 0.010351747146183815 0.010349606833571928 0.010347466520960039
          0.0077444043369293124 0.008284998865457473 0.007744602548593549 0.008280557825669192 0.007744800760257785 0.008276116785880909
          0.005132629178737972 0.005033749455248 0.005132278934342713 0.005034268761420315 0.005131928689947454 0.00503478806759263
          0.0053438965715003565 0.005554672008808891 0.00534501779807319 0.005555530436965223 0.005346139024646023 0.005556388865121555
          0.005799002096166973 0.006334465036208264 0.006085808086506746 0.005799438229283487 0.006333819363231645 0.00608529589459481
          0.005799874362400001 0.006333173690255027 0.006084783702682872 0.006808858711235493 0.007235334902513307 0.006807388196493775
          0.007233182823509859 0.006805917681752059 0.007231030744506411 0.0053177556353668385 0.005393566407773148 0.005315933297757889
          0.005391703736415902 0.005314110960148938 0.005389841065058656 0.0066096996860665795 0.006357614036250542 0.006608069828736261
          0.006355866604887765 0.006606439971405942 0.006354119173524987 0.005260885213076343 0.0052605378408648795 0.005260190468653416
          0.006104973288631757 0.005950052099430599 0.005857822470891236 0.005952710345721152 0.006104589823650372 0.005949292650617936
          0.005856898754327927 0.005952392535246708 0.006104206358668988 0.005948533201805275 0.005855975037764617 0.005952074724772265
          0.00567180745857771 0.005733297471944481 0.005671558381040196 0.005732850780474533 0.005671309303502682 0.005732404089004585
          0.0051621156521698235 0.005161715064040054 0.005161314475910286 0.006492415051375544 0.00649127032089804 0.0064901255904205365
          0.007418594676301977 0.0074168454884515145 0.007415096300601054 0.007001363726609562 0.00700392873804257 0.007006493749475578
          0.007975330190234088 0.007973292563764374 0.007971254937294663 0.00765757001482883 0.00792677575130215 0.007655694632199336
          0.007923402547892602 0.007653819249569843 0.007920029344483057 0.008125808461321167 0.008123391388293256 0.008120974315265345
          0.007969083844740238 0.007971786942565218 0.0079744900403902 0.005535650395589288 0.005533951273122492 0.005532252150655696
          0.01020182082128024 0.010201454586878761 0.010201088352477282 0.008686909024006824 0.008536976750511373 0.008684835717297324
          0.008534604525781172 0.008682762410587824 0.00853223230105097 0.010255330490785511 0.010254766761936984 0.010254203033088459
          0.008373912359946445 0.008370948027377914 0.008367983694809386 0.008205544991322568 0.008201652241321451 0.008197759491320337
          0.007691846153412273 0.007694303358062538 0.007696760562712803 0.008925264119579017 0.008926643655785283 0.008928023191991551
          0.008479474260495322 0.008481663658049348 0.008483853055603374 0.005496924487741139 0.005456963804840663 0.005497363439177639
          0.005457041367474923 0.0054978023906141395 0.005457118930109184 0.00674975039768374 0.006459889074901229 0.006748399952308422
          0.006458968214859778 0.0067470495069331055 0.006458047354818328 0.00643068625538366 0.006430175770292224 0.006429665285200787
          0.005162634146319792 0.005163488026127357 0.005164341905934922 0.009942747105057385 0.00994209514924874 0.009941443193440097
          0.005598166923306598 0.005878147980624681 0.005598957487175928 0.00587811542737689 0.005599748051045258 0.0058780828741291
          0.006178912544225938 0.006345738770799028 0.006089465768824712 0.006179145635729789 0.006345919367961081 0.0060897149340738595
          0.006179378727233641 0.006346099965123134 0.006089964099323008 0.006010337134411191 0.006124803425652712 0.0060106929120271
          0.006125009493870949 0.006011048689643011 0.006125215562089187 0.006160948445186561 0.006160927851868076 0.0061609072585495925
          0.006561988476846405 0.006561024996950558 0.006560061517054711 0.006318433425399318 0.006317446135780397 0.006316458846161475
          0.010042299313936288 0.010041178063499216 0.010040056813062146 0.005088457003183171 0.005088248706442576 0.005088040409701982
          0.005180297887092321 0.005830871571543352 0.0051793297319603585 0.005830629023608256 0.005178361576828397 0.0058303864756731605
          0.01010552616551873 0.010106037717070096 0.010106549268621461 0.008199230909474622 0.00828321771574233 0.008781575692670468
          0.008197588821921464 0.008281725198303612 0.008780752930002125 0.008195946734368305 0.008280232680864892 0.008779930167333784
          0.00544789883044684 0.005839757157577733 0.0054553247553510735 0.005842826050750196 0.0054627506802553075 0.00584589494392266
          0.0100713228303051 0.00999465680286599 0.010071327693062617 0.009994627750838769 0.010071332555820132 0.009994598698811547
          0.0063443625625112365 0.006346265861036725 0.006348169159562214 0.00975047129860741 0.009579312586752082 0.009293456280713036
          0.00975123360523893 0.00958036317849358 0.009294711158367268 0.009751995911870452 0.00958141377023508 0.0092959660360215
          0.010109280967497055 0.010109969290859808 0.01011065761422256 0.009831217117108638 0.009966440640150648 0.009826681484413548
          0.009960775866480566 0.009822145851718457 0.009955111092810488 0.010018468364547731 0.010068851184071971 0.010018503909895178
          0.010068498824496758 0.010018539455242625 0.010068146464921546 0.00949820069717158 0.009495737249224477 0.009493273801277374
          0.009921712053004527 0.009921931249727397 0.009922150446450263 0.006131408833585258 0.006135032242860892 0.006138655652136527
          0.006502499852925222 0.006502471982994246 0.006502444113063268 0.007187194295221038 0.007188121775389092 0.007189049255557146
          0.009918910160104965 0.009919395894026536 0.009919881627948105 0.007881303226620548 0.008069293726892522 0.00788218321277429
          0.008068381126052517 0.007883063198928031 0.008067468525212512 0.006878678587805089 0.0065142674456721145 0.006882202386337941
          0.006518832433479348 0.006885726184870792 0.006523397421286581 0.0062787131729113745 0.006282142302233658 0.0062855714315559405
          0.005272149097036454 0.005299687624358104 0.005274107194286674 0.005302057616070268 0.005276065291536892 0.005304427607782431
          0.00983356499688344 0.009833333802436667 0.009833102607989894 0.008597143391105032 0.009012153958864984 0.008596637684085117
          0.009011162303735812 0.008596131977065203 0.009010170648606639 0.009812094248320847 0.00972049369848105 0.009810421962668691
          0.009719671172182743 0.009808749677016535 0.009718848645884435 0.0053525675637412775 0.005357387882731372 0.005362208201721468
          0.009152986343533542 0.009152181767828083 0.009151377192122624 0.0074433594032103124 0.007445403152506339 0.007447446901802364
          0.008058058100596288 0.008058572308733029 0.00805908651686977 0.009991308087744826 0.009986324250825874 0.009981340413906921
          0.009915496650754498 0.009912389206819389 0.009909281762884279
        </DataArray>
        <DataArray type="Float64" Name="pe11" format="ascii" RangeMin="0.0048353889216318224" RangeMax="0.010404692687737223">
          0.007578250364787058 0.008300485516925303 0.008179586609285514 0.007526106422131133 0.007575641448865293 0.00829529453450288
          0.008176432017338347 0.007524992826622998 0.00757303253294353 0.008290103552080456 0.00817327742539118 0.007523879231114862
          0.006210362805863754 0.005668669898983883 0.005768374294915555 0.006383103357222849 0.0062099946340998064 0.005666939987489067
          0.005767319428737626 0.006382614880262963 0.006209626462335861 0.00566521007599425 0.005766264562559696 0.0063821264033030786
          0.005147744227340135 0.005147693074306603 0.00514764192127307 0.005111651152579813 0.005112063347149727 0.005112475541719641
          0.007892813376224462 0.00726534633455755 0.007891693034962257 0.007265990774985392 0.00789057269370005 0.007266635215413233
          0.00998410337883824 0.010141048073348818 0.00997778259515342 0.009921003470290587 0.009981332036570114 0.010138685912601291
          0.009975278459421328 0.009918112901520372 0.00997856069430199 0.010136323751853762 0.009972774323689235 0.009915222332750159
          0.007093823855818363 0.007536093371628364 0.007804905345523295 0.007401254737875165 0.007091744494235423 0.007533182656055799
          0.007803088956322465 0.007399936269361365 0.007089665132652485 0.0075302719404832345 0.007801272567121637 0.007398617800847565
          0.006065698216771607 0.006445260711730608 0.006023416155943789 0.005733643493093142 0.006066568736429176 0.006444400638430386
          0.006023487682163157 0.005734517081216608 0.006067439256086744 0.006443540565130163 0.006023559208382524 0.005735390669340073
          0.010217952352830968 0.010152737247202904 0.01016234999862978 0.01021689250086175 0.010152041813943191 0.010162696781097916
          0.010215832648892531 0.010151346380683483 0.01016304356356605 0.009347506951236876 0.009765336384583585 0.009761700001324463
          0.009195796087325077 0.00934578718067571 0.009762719918423247 0.009758197603176253 0.009193756195193694 0.009344067410114542
          0.009760103452262909 0.009754695205028047 0.009191716303062312 0.008742593473344525 0.008741366711657404 0.00874013994997028
          0.008795257817661127 0.00859306684934913 0.008789913507106605 0.008589177237009207 0.008784569196552081 0.008585287624669282
          0.007337396623101213 0.007873114052821421 0.007051527214075979 0.00733469634341985 0.007869065691742337 0.007049972201533042
          0.0073319960637384845 0.007865017330663254 0.007048417188990104 0.009472841959702046 0.009229767547740289 0.009405492962938236
          0.00967188954932469 0.009469195718305049 0.009228022458988409 0.009404319670218252 0.009669665571021726 0.009465549476908046
          0.009226277370236525 0.009403146377498266 0.009667441592718762 0.00835615437776627 0.00797783636109733 0.008191373615745328
          0.008355735932350688 0.007976942165113498 0.008188847416974688 0.008355317486935104 0.007976047969129665 0.008186321218204048
          0.007667040362858913 0.007540697705221416 0.006906564828937934 0.007665958859070773 0.007538564272354739 0.0069053283829263986
          0.007664877355282634 0.007536430839488061 0.006904091936914861 0.008787406886940739 0.008476087367015446 0.008587695138440363
          0.009018399554687733 0.008786529893024387 0.008472844556612947 0.008584687493152802 0.009016457383351871 0.008785652899108033
          0.008469601746210446 0.008581679847865243 0.00901451521201601 0.009472122220678647 0.00906711332332202 0.00946893277344622
          0.009063311924525596 0.009465743326213793 0.009059510525729172 0.010053379149156154 0.009794625473302114 0.009711793365474262
          0.010051715303544033 0.00979502088599315 0.009711072771637946 0.010050051457931912 0.009795416298684186 0.00971035217780163
          0.009337303815302244 0.009419937492001994 0.00976340021388909 0.009711171407641911 0.00933604482868921 0.009416763829621946
          0.009759837677054689 0.0097088969413717 0.009334785842076174 0.009413590167241892 0.009756275140220285 0.009706622475101487
          0.0056966419895459865 0.006086748498181683 0.005696548352656282 0.0060870574022069066 0.005696454715766577 0.00608736630623213
          0.006505182927843659 0.007037024575272339 0.00650490522282503 0.007035989437117414 0.006504627517806402 0.007034954298962489
          0.004884797088496812 0.005010794217230614 0.004886519398049075 0.005012263908956052 0.004888241707601338 0.00501373360068149
          0.00711842048398435 0.006583098708362861 0.006892497611665122 0.007483243223897717 0.007122740870046374 0.006587626136114115
          0.006895275171178824 0.007485181240428555 0.007127061256108396 0.006592153563865368 0.006898052730692526 0.007487119256959392
          0.010281997108557789 0.010174256023833195 0.010280926735638312 0.010173988466082222 0.010279856362718835 0.010173720908331246
          0.010120012264086181 0.009866395711505486 0.010115902881658851 0.00986273168850639 0.010111793499231522 0.009859067665507293
          0.010337557030509446 0.010139483547184164 0.010333584115021235 0.010134838376489368 0.010329611199533024 0.01013019320579457
          0.00667921099486429 0.006680048012473207 0.0066808850300821235 0.009524029655536344 0.00952460601340618 0.009525182371276013
          0.010042663670503571 0.009902810095097345 0.009726068942890112 0.00992452356776972 0.010042638552926302 0.009902699552800334
          0.009726264956387625 0.009924867473186253 0.010042613435349033 0.009902589010503324 0.009726460969885135 0.009925211378602788
          0.009913764464289912 0.009822820696257027 0.00998801488300073 0.009910940619989575 0.009821270315928115 0.0099865479841377
          0.009908116775689242 0.009819719935599205 0.009985081085274673 0.01002216950340438 0.009803995658638352 0.010016286454255337
          0.009799846937562513 0.010010403405106295 0.009795698216486678 0.00936105631763294 0.009361728980834861 0.009362401644036778
          0.005284828622080342 0.005543361883057977 0.005769348028659591 0.0054812777001731795 0.005285588005203802 0.005543867363080647
          0.005771949966888884 0.005483005053884317 0.00528634738832726 0.005544372843103319 0.0057745519051181785 0.005484732407595456
          0.010130610372823666 0.010129958530996696 0.010129306689169728 0.009519727777511151 0.00952070218374956 0.009521676589987968
          0.01010058318429988 0.010101013191336506 0.010101443198373132 0.006826519379695589 0.006353290553202444 0.006826208608530447
          0.006354074946344809 0.006825897837365302 0.0063548593394871745 0.008813370344823074 0.008930918422827271 0.008813583018908024
          0.008932604416884482 0.008813795692992975 0.008934290410941688 0.010267534149807214 0.010064340874686665 0.010262484386110831
          0.010061192106823573 0.010257434622414446 0.010058043338960482 0.009216185733164156 0.009139231890679608 0.009210999892619068
          0.009134794597478232 0.00920581405207398 0.00913035730427686 0.0095695365148342 0.009568220799093715 0.009566905083353231
          0.008945625756442234 0.008245139019310507 0.008943012471957492 0.008244392096794635 0.008940399187472749 0.008243645174278764
          0.009066144434271478 0.008796335457193931 0.009061899430355175 0.008790100144410729 0.009057654426438872 0.008783864831627526
          0.01018639829423652 0.01018242508221633 0.010178451870196137 0.010303549666637058 0.010302309202144335 0.010301068737651615
          0.008749902378263874 0.00868095366723063 0.008747547692451537 0.00867553866826635 0.008745193006639198 0.008670123669302069
          0.01030686969368813 0.010304918848575952 0.010302968003463774 0.009231735810985178 0.009232736073008872 0.009233736335032565
          0.010404692687737223 0.010332500987607912 0.010401860587741188 0.010331307583556505 0.010399028487745154 0.010330114179505096
          0.009793217565486864 0.009517854607641462 0.009791401220719774 0.009515081932178367 0.009789584875952682 0.009512309256715272
          0.007998284121943176 0.008391947771206623 0.008343023680291325 0.007995618179429537 0.008390111377250271 0.008338118983042602
          0.007992952236915896 0.008388274983293918 0.008333214285793882 0.008877253144649837 0.008583170683228197 0.008886273295436531
          0.009239633294181933 0.008873104512609347 0.008577008761059863 0.00888054064465237 0.009235560023512725 0.008868955880568857
          0.00857084683889153 0.008874807993868212 0.009231486752843512 0.006311613071391179 0.005816961602524895 0.005621653554834682
          0.006008047627395518 0.006313671844490334 0.005817216158524688 0.0056204593777343945 0.006008247532480466 0.006315730617589489
          0.005817470714524481 0.005619265200634107 0.0060084474375654146 0.010275589959545911 0.01027033025698232 0.01026507055441873
          0.008359551208040644 0.0080516287471348 0.008355667088834146 0.008047753029294454 0.008351782969627651 0.008043877311454109
          0.010125971496949257 0.010016027634941986 0.010125691914175724 0.010015508176750025 0.010125412331402194 0.010014988718558064
          0.007745479911874188 0.007378901658317864 0.007742530372570541 0.007378561985204534 0.007739580833266898 0.007378222312091204
          0.006385024309467711 0.006791375815755427 0.006387044510486524 0.006793234745311764 0.006389064711505336 0.006795093674868099
          0.005969269828106436 0.005668585963436859 0.005968475983606059 0.005667227456249596 0.005967682139105681 0.005665868949062335
          0.010180737487766647 0.010179225713110397 0.01017771393845415 0.010248462818954389 0.010246568004193794 0.010244673189433198
          0.006801643151193389 0.006287558551486869 0.006111491377361454 0.006583665162772038 0.006800653776133844 0.0062885026570319
          0.006113963787327524 0.0065849078712502795 0.0067996644010743 0.006289446762576932 0.006116436197293596 0.006586150579728523
          0.01013789013218528 0.010225337394164914 0.010135461945535974 0.01022479033302726 0.010133033758886668 0.010224243271889605
          0.0048353889216318224 0.004841761475865519 0.0049898315780930996 0.00494202774741397 0.00483555212015397 0.004842491817846047
          0.004990053746143981 0.0049424596268066836 0.004835715318676117 0.004843222159826573 0.004990275914194862 0.004942891506199396
          0.005319960595672567 0.005034586406033187 0.005336183336368553 0.005319355751737384 0.005035339015245038 0.005335257552627179
          0.005318750907802199 0.005036091624456888 0.005334331768885804 0.006893936713968643 0.006896728927886753 0.006899521141804863
          0.009779712656413343 0.009503086469307358 0.009776032805033955 0.009499005224704458 0.009772352953654567 0.00949492398010156
          0.009135604140922916 0.008541582290284653 0.009133249756864366 0.008539111533990843 0.009130895372805814 0.008536640777697033
          0.007148757157463718 0.007147807082080013 0.007146857006696308 0.010350875745871613 0.01034873413388491 0.01034659252189821
          0.007743859646613522 0.008284541418964217 0.007744043789413202 0.008280097130612328 0.007744227932212881 0.008275652842260438
          0.0051322663384215945 0.0050334515252656 0.005131897315930826 0.005033951291554573 0.005131528293440057 0.0050344510578435465
          0.0053433882740331375 0.005553888389369238 0.005344486006502725 0.0055547088461802285 0.005345583738972313 0.00555552930299122
          0.005797848179453743 0.006333250513822414 0.006084221030063036 0.0057982380186859936 0.006332575579550637 0.006083645200637222
          0.005798627857918246 0.0063319006452788595 0.006083069371211407 0.006808129068154497 0.007234667642313748 0.0068066626727202985
          0.0072325179195371885 0.006805196277286098 0.0072303681967606295 0.005317289219634667 0.005393009830107378 0.0053154466783975245
          0.005391127688687139 0.00531360413716038 0.005389245547266901 0.006608333486490041 0.006355747067770191 0.006606673202726728
          0.006353927776195584 0.006605012918963414 0.0063521084846209774 0.005260280721432217 0.00525991575105652 0.005259550780680824
          0.006104502837798243 0.0059496581245952005 0.005857483856746658 0.0059522592525606734 0.006104079882006605 0.005948869303530746
          0.005856532055636138 0.005951895917059269 0.0061036569262149665 0.005948080482466292 0.0058555802545256184 0.005951532581557864
          0.005671454334705107 0.0057329128240847 0.005671184346631488 0.00573244802139342 0.005670914358557869 0.005731983218702139
          0.005161532342366218 0.005161108817124011 0.005160685291881805 0.006489849307448014 0.006488648143321982 0.006487446979195951
          0.007417710440080631 0.007415966518387769 0.007414222596694907 0.007000568611710316 0.0070031137247980844 0.007005658837885855
          0.007974365101323601 0.007972346257202318 0.007970327413081037 0.00765678709507916 0.007926022573635892 0.0076549202594644525
          0.007922668016705657 0.007653053423849745 0.00791931345977542 0.008124916097828505 0.00812252444020847 0.008120132782588434
          0.007967004410004417 0.007969680470203223 0.00797235653040203 0.005535158976300599 0.005533450321710232 0.005531741667119864
          0.01019785147764126 0.010197455943779979 0.010197060409918695 0.00868618972850518 0.008536283094901995 0.008684139215838405
          0.0085339363324812 0.008682088703171631 0.008531589570060404 0.010251960820196063 0.010251370839657508 0.010250780859118952
          0.008373325682822168 0.00837037153900973 0.008367417395197294 0.00820468705356088 0.008200828727246466 0.008196970400932055
          0.0076913893437842735 0.0076938280600935775 0.007696266776402883 0.00892211360265051 0.008923493175816016 0.008924872748981523
          0.008477108882890355 0.008479277737929402 0.008481446592968445 0.005496525785246958 0.005456622442229416 0.005496955078888428
          0.0054566907257120704 0.0054973843725299 0.005456759009194725 0.006747713058441599 0.006457075500383018 0.006746338247904302
          0.006456096443602107 0.006744963437367004 0.0064551173868211955 0.006429992400472428 0.0064294442108473755 0.006428896021222325
          0.005162278017922304 0.005163120000445918 0.005163961982969532 0.009939498354626975 0.00993881697087308 0.009938135587119189
          0.005597671136475728 0.005877704593821849 0.005598458139084036 0.0058776565486862485 0.005599245141692344 0.005877608503550648
          0.006177663528323895 0.00634438137423993 0.006088589570089881 0.006177845765879791 0.006344505882494421 0.006088815017252971
          0.006178028003435687 0.006344630390748912 0.00608904046441606 0.006009708883210738 0.006124252273460131 0.0060100150719072576
          0.0061244130708526115 0.006010321260603777 0.006124573868245094 0.006160421215693735 0.006160366304089838 0.006160311392485941
          0.006560310145875034 0.006559291620419272 0.00655827309496351 0.006316484454377056 0.006315417779525372 0.006314351104673687
          0.010040111793533313 0.01003896802279812 0.01003782425206293 0.005088040934223724 0.005087802552183164 0.005087564170142603
          0.005179641686920801 0.005830242535792774 0.005178665974415308 0.0058299921317663955 0.005177690261909813 0.005829741727740015
          0.01009868345208148 0.010099106548704755 0.010099529645328032 0.00819842458402522 0.0082824460562326 0.00878058767200883
          0.008196799332691043 0.008280961760580128 0.008779755786553704 0.008195174081356869 0.008279477464927652 0.008778923901098579
          0.00544704250482781 0.0058387974781825 0.005454442181748734 0.005841840732262153 0.0054618418586696565 0.005844883986341805
          0.010065596642694408 0.009987867005206003 0.01006554527842832 0.009987750241199585 0.010065493914162232 0.00998763347719317
          0.00634331164960786 0.0063452093846343895 0.006347107119660917 0.00974663367332701 0.009576228465572847 0.009290033115045993
          0.009747379264739335 0.00957727100038529 0.009291286778926119 0.00974812485615166 0.009578313535197733 0.009292540442806245
          0.010103483117617882 0.010104094057305895 0.01010470499699391 0.009830021874030058 0.009965292729813263 0.009825516271961323
          0.00995965845854559 0.009821010669892589 0.009954024187277918 0.010014761819532312 0.010065017132840411 0.010014742916036662
          0.01006460393256721 0.01001472401254101 0.01006419073229401 0.009496959010818961 0.009494488804902883 0.009492018598986804
          0.009916123623135138 0.009916294785033797 0.009916465946932457 0.006130360062002495 0.006133980148341284 0.006137600234680075
          0.006501795156665489 0.006501746490715048 0.006501697824764608 0.007186514186630759 0.007187425045348184 0.00718833590406561
          0.009915753911719517 0.00991621059464787 0.009916667277576221 0.007880751406327238 0.008068629629425016 0.007881630610555052
          0.008067731272559777 0.007882509814782866 0.008066832915694535 0.006876354212208317 0.006512781956407838 0.006879895857981799
          0.006517363619340591 0.006883437503755282 0.006521945282273342 0.006277456095260465 0.006280895810074172 0.006284335524887879
          0.005271836376830642 0.005299326049604502 0.005273765434817289 0.005301672807933262 0.005275694492803936 0.0053040195662620235
          0.009829096410716685 0.009828848880273003 0.009828601349829321 0.008594457271117066 0.009009202036133554 0.00859396129808165
          0.009008227589801944 0.008593465325046231 0.009007253143470336 0.009810089390171136 0.009717501761029694 0.009808400293955967
          0.009716678972896636 0.0098067111977408 0.009715856184763576 0.005352073419581859 0.00535688380648318 0.005361694193384503
          0.009151908040442214 0.009151062708358061 0.009150217376273908 0.007440746991435095 0.007442804120313774 0.007444861249192453
          0.00805592429428555 0.008056438893050376 0.0080569534918152 0.009990041532036543 0.00998507945290218 0.009980117373767819
          0.009914078235366011 0.009910969163075482 0.009907860090784953
        </DataArray>
        <DataArray type="Float64" Name="pe22" format="ascii" RangeMin="-0.005176858740989156" RangeMax="-0.0024217349182929504">
          -0.0037729136680238647 -0.004115207195327552 -0.0040779800003204626 -0.0037669651322706508 -0.0037735222891293494 -0.004116538543311951
          -0.004079114873992333 -0.003767508433868479 -0.0037741309102348334 -0.0041178698912963515 -0.004080249747664204 -0.0037680517354663073
          -0.0030659570924087736 -0.002795166452883498 -0.0028426709264020695 -0.0031495305935204223 -0.0030657663087952283 -0.0027946701947312875
          -0.002842381808268315 -0.003149079807768939 -0.0030655755251816816 -0.002794173936579077 -0.00284209269013456 -0.0031486290220174547
          -0.0025410007791498127 -0.002540570042386138 -0.0025401393056224634 -0.002530852551065702 -0.0025303452059612886 -0.0025298378608568746
          -0.003948036407736158 -0.003658807844082161 -0.003948265832191705 -0.003658625826954986 -0.003948495256647253 -0.0036584438098278107
          -0.004976942251170633 -0.005049122106803897 -0.004971830413867598 -0.004945340681610233 -0.00497808943536245 -0.005050083869987069
          -0.004972191015720327 -0.004945987029249698 -0.004979236619554267 -0.005051045633170241 -0.004972551617573056 -0.004946633376889162
          -0.0035220944044151805 -0.0037415131561080533 -0.0038965547652283 -0.0037029334600743122 -0.003523551994432571 -0.003741076917674484
          -0.0038967104890353845 -0.0037042980042570756 -0.0035250095844499623 -0.003740640679240915 -0.003896866212842469 -0.003705662548439839
          -0.0030142456766831137 -0.0031981544728526532 -0.003016127319071194 -0.0028733663284001634 -0.0030149575669196275 -0.003199326884178167
          -0.0030184776815180324 -0.002874862588558593 -0.003015669457156141 -0.0032004992955036817 -0.003020828043964871 -0.0028763588487170227
          -0.005129233096829449 -0.005110778474859985 -0.0050886004778971095 -0.00512894888842507 -0.005110424990587982 -0.005088624564360655
          -0.005128664680020691 -0.005110071506315978 -0.0050886486508242 -0.004594626548834201 -0.0047929923453316065 -0.004785336558769522
          -0.004513440090833541 -0.004594673275250953 -0.004793848840825566 -0.004786315376003028 -0.0045140697359096526 -0.0045947200016677025
          -0.004794705336319525 -0.004787294193236534 -0.004514699380985763 -0.004308968363966315 -0.004309497962384053 -0.0043100275608017906
          -0.004385322882489175 -0.004296675102628769 -0.004386828799458461 -0.004297536738810315 -0.004388334716427747 -0.004298398374991861
          -0.003654412866654481 -0.003915058515009919 -0.0035080033923975324 -0.003656060471091439 -0.003915394361072237 -0.0035099266222888706
          -0.0036577080755283973 -0.003915730207134555 -0.003511849852180208 -0.004727423119524386 -0.0045976871112681245 -0.004697549120325797
          -0.00483854749216912 -0.00472834840795444 -0.004599033624485126 -0.004698331220372958 -0.004839476571802703 -0.004729273696384492
          -0.004600380137702127 -0.004699113320420119 -0.004840405651436286 -0.004154443022290092 -0.003995566846238554 -0.004059201962552482
          -0.004156470559908569 -0.003996576189407736 -0.004060552559624069 -0.0041584980975270455 -0.003997585532576916 -0.004061903156695655
          -0.003859200363450764 -0.003776876390662923 -0.0034613737014431234 -0.003860344396952353 -0.0037784817536721032 -0.0034650141909399372
          -0.003861488430453941 -0.0037800871166812824 -0.00346865468043675 -0.004355339915132615 -0.004180403609751124 -0.004237992491151624
          -0.0044753519729289325 -0.004357377598446157 -0.0041822895359042225 -0.004239087123826198 -0.004476085979043238 -0.004359415281759699
          -0.00418417546205732 -0.004240181756500773 -0.004476819985157546 -0.004645029653080715 -0.004453719907256944 -0.004646570958687526
          -0.004454800300850286 -0.0046481122642943375 -0.004455880694443627 -0.005010041839039609 -0.004902433436786132 -0.004860131551982739
          -0.0050103743175557835 -0.004902450757062854 -0.004860004697989558 -0.005010706796071958 -0.004902468077339575 -0.0048598778439963766
          -0.004679372233006258 -0.004702012181329126 -0.004872283735478183 -0.004852839424873865 -0.004679491197734385 -0.00470313513832493
          -0.004873179715037183 -0.00485312902924834 -0.004679610162462513 -0.004704258095320735 -0.004874075694596182 -0.004853418633622818
          -0.0028432994550950594 -0.003041684547013853 -0.0028423543240519524 -0.0030417593051636385 -0.002841409193008847 -0.0030418340633134237
          -0.0032431806959177753 -0.003509995685809958 -0.0032456125177608964 -0.00351113050504898 -0.0032480443396040175 -0.003512265324288001
          -0.002444156740405333 -0.002496927099358147 -0.0024444186923231782 -0.0024971590119681132 -0.0024446806442410245 -0.0024973909245780785
          -0.003584185919423943 -0.003322981026642963 -0.003480889956906463 -0.0037562830183232865 -0.0035833948978485765 -0.0033222819918714125
          -0.003480129469049087 -0.0037556776283756 -0.0035826038762732096 -0.003321582957099862 -0.003479368981191712 -0.0037550722384279128
          -0.0051391577647280015 -0.005083921903195114 -0.005139876788329305 -0.005084539530501753 -0.005140595811930608 -0.005085157157808391
          -0.004996428835113427 -0.004878023740096663 -0.004997709520891805 -0.004878548124858002 -0.004998990206670182 -0.0048790725096193414
          -0.005125752611988688 -0.0050237298599614 -0.005127287858102118 -0.005025272426632161 -0.005128823104215547 -0.00502681499330292
          -0.003363295481058997 -0.0033632694679353627 -0.0033632434548117283 -0.004791077513869253 -0.0047915329451413 -0.004791988376413346
          -0.005016097526910981 -0.004952321532472256 -0.0048815060668511955 -0.004963939020304731 -0.00501692405754358 -0.004952989144261825
          -0.004881920484487804 -0.004964375687236107 -0.005017750588176179 -0.004953656756051392 -0.004882334902124412 -0.004964812354167482
          -0.004955276166872489 -0.004910908418274848 -0.004977718375143177 -0.004956362768557648 -0.004911836245123192 -0.00497904149036794
          -0.004957449370242808 -0.004912764071971535 -0.004980364605592702 -0.004909658290577685 -0.004806839413620088 -0.004911226922325593
          -0.004808536374471848 -0.0049127955540735 -0.004810233335323607 -0.004709488617107037 -0.004708972592610553 -0.004708456568114069
          -0.0026444148489289405 -0.0027630122481953267 -0.0028816099451106428 -0.002749723645863857 -0.002645336612237323 -0.0027634944184748407
          -0.0028823276855925455 -0.002750993025505938 -0.0026462583755457077 -0.0027639765887543548 -0.0028830454260744477 -0.002752262405148019
          -0.005053881738848884 -0.0050546142330850675 -0.005055346727321251 -0.004790459202738648 -0.004790339512885915 -0.004790219823033182
          -0.005043934667825597 -0.0050445863038243895 -0.00504523793982318 -0.0034144678485364343 -0.0031659904705838987 -0.003415299229892198
          -0.003167223550785451 -0.003416130611247961 -0.0031684566309870044 -0.004437661674757384 -0.0045144454511079225 -0.004438182499844886
          -0.0045142955999702755 -0.004438703324932385 -0.0045141457488326285 -0.005072662577613787 -0.004971244683765569 -0.00507441442793038
          -0.004973203733728739 -0.0050761662782469715 -0.004975162783691911 -0.004599634230217685 -0.004565338647887695 -0.004600853820507563
          -0.004566840529952614 -0.00460207341079744 -0.004568342412017534 -0.004766563432735472 -0.004766960893029419 -0.004767358353323368
          -0.004482048136838394 -0.004134896370252331 -0.004483442270696369 -0.004135460131580217 -0.004484836404554344 -0.0041360238929081024
          -0.00450322665964544 -0.004359529994740053 -0.004504999239729495 -0.004361614527987185 -0.004506771819813549 -0.004363699061234317
          -0.0050504066359727245 -0.005052110333682826 -0.005053814031392926 -0.005134756084210422 -0.005136104191109877 -0.00513745229800933
          -0.004327264236005403 -0.004282245514016972 -0.004329782680232035 -0.0042848898520234996 -0.0043323011244586675 -0.004287534190030028
          -0.0051226517306659615 -0.005124088869508265 -0.005125526008350567 -0.004663444853952963 -0.004663560781039008 -0.0046636767081250545
          -0.005173636856587927 -0.005152985739527274 -0.005175247798788541 -0.005154133002236195 -0.005176858740989156 -0.005155280264945116
          -0.004855321867864087 -0.004691782088871395 -0.004856146741027075 -0.0046926467962591645 -0.004856971614190065 -0.004693511503646934
          -0.003992455172408205 -0.004162333944473873 -0.004119272759981488 -0.003993213018684298 -0.004164380105557897 -0.004121058064675341
          -0.003993970864960391 -0.004166426266641923 -0.004122843369369194 -0.004390578918241534 -0.004247637941562504 -0.00437180293621285
          -0.004547937275477309 -0.0043916275504954794 -0.0042483473327551225 -0.0043731682351503915 -0.004549604076714741 -0.004392676182749423
          -0.004249056723947741 -0.0043745335340879335 -0.004551270877952174 -0.003155679378710474 -0.002900787772471098 -0.0027992388539726733
          -0.002997416211693984 -0.003155456543997568 -0.002900645345455485 -0.0027983598639436027 -0.0029968323550744625 -0.0031552337092846617
          -0.0029005029184398716 -0.002797480873914533 -0.0029962484984549414 -0.005076281854401021 -0.005077485982231408 -0.005078690110061795
          -0.004140235722018278 -0.0039974469025732245 -0.00414056504120046 -0.003997860298639059 -0.004140894360382642 -0.003998273694704893
          -0.005094767901748316 -0.005048740018674252 -0.00509561749690496 -0.005049960170597777 -0.0050964670920616035 -0.005051180322521301
          -0.0038255726711377684 -0.0036554523686414997 -0.0038256109401451762 -0.0036559906778979526 -0.003825649209152583 -0.0036565289871544043
          -0.0031727234404949805 -0.003377875787161255 -0.0031726979492496562 -0.0033778268538141054 -0.003172672458004333 -0.0033777779204669563
          -0.002954319143897842 -0.002813176197717499 -0.002953954356516502 -0.0028125058057061588 -0.002953589569135161 -0.002811835413694819
          -0.005067748659468738 -0.005069513446802836 -0.005071278234136936 -0.005103631445815905 -0.005104639465643229 -0.005105647485470551
          -0.003369555463997938 -0.00311380242647801 -0.003042282058241537 -0.003274242474747162 -0.0033691431211257104 -0.0031135719834746623
          -0.0030422997986344355 -0.0032737413636440066 -0.003368730778253483 -0.0031133415404713143 -0.003042317539027335 -0.0032732402525408513
          -0.005053689269685098 -0.005111942696852254 -0.005054835324652309 -0.005112955593119359 -0.005055981379619521 -0.0051139684893864645
          -0.002421969734551957 -0.0024257899861020206 -0.0024976392849564866 -0.002478633944105385 -0.0024218523264224537 -0.002425770948851085
          -0.0024979380881039463 -0.002478996572115026 -0.0024217349182929504 -0.002425751911600149 -0.002498236891251406 -0.0024793592001246673
          -0.002642676009648496 -0.0025034280448943103 -0.0026466221682027473 -0.0026419072896748134 -0.0025032410687780347 -0.0026462667575572734
          -0.0026411385697011312 -0.002503054092661759 -0.002645911346911799 -0.0034181601597644863 -0.0034187469789685723 -0.003419333798172658
          -0.00488523589589967 -0.004737322991611248 -0.00488625087821925 -0.00473861324469239 -0.004887265860538828 -0.00473990349777353
          -0.004525224382635123 -0.004226213758449305 -0.004525515771357153 -0.00422674164799887 -0.004525807160079182 -0.004227269537548435
          -0.0035439294980039934 -0.0035434848688218365 -0.003543040239639679 -0.00515370354917548 -0.00515546559208442 -0.005157227634993361
          -0.00385682302234486 -0.004115507636269907 -0.0038570527936786694 -0.004115270311048032 -0.0038572825650124787 -0.004115032985826158
          -0.0025640928682936826 -0.0025238075008973335 -0.002564582560836621 -0.002524504529840832 -0.0025650722533795594 -0.002525201558784331
          -0.002690833115911719 -0.002801362596681946 -0.0026923146454415265 -0.0028030200074764104 -0.0026937961749713335 -0.002804677418270874
          -0.0029277741036718525 -0.003175831991943974 -0.0030819446492416926 -0.002930245765573039 -0.003179103747203654 -0.003085354779188391
          -0.0029327174274742253 -0.0031823755024633334 -0.003088764909135089 -0.003384677572265555 -0.0035887686838271373 -0.003386316907243375
          -0.0035886107083812156 -0.0033879562422211946 -0.0035884527329352925 -0.0026420064535442288 -0.002675622118032486 -0.0026422163328772906
          -0.002675515912838674 -0.0026424262122103524 -0.0026754097076448612 -0.0033104128931551956 -0.0032224477500500002 -0.0033138716558857645
          -0.0032260853148136388 -0.0033173304186163346 -0.0032297228795772773 -0.002613512535008947 -0.002613006137809628 -0.0026124997406103087
          -0.00305806594047184 -0.0029786423317010244 -0.0029379190957347016 -0.0029858287488327587 -0.003060301231857887 -0.0029796027527987236
          -0.002938940070441257 -0.0029886368457528716 -0.003062536523243935 -0.0029805631738964227 -0.002939961045147812 -0.002991444942672984
          -0.002842706844397241 -0.0028686023057823465 -0.0028434570357126674 -0.0028691057901197243 -0.002844207227028094 -0.0028696092744571033
          -0.002564784149848216 -0.00256517049038418 -0.0025655568309201453 -0.0032808048284328926 -0.003285230697231151 -0.0032896565660294093
          -0.003665481473158687 -0.003665360524518528 -0.003665239575878368 -0.0034747978278609685 -0.003474559361632915 -0.003474320895404861
          -0.003935410807099329 -0.003936123261553612 -0.003936835716007895 -0.0037782535349434924 -0.003912072888449268 -0.0037787075503000664
          -0.003912738322676728 -0.0037791615656566396 -0.003913403756904187 -0.004002832124324794 -0.004004241137091458 -0.0040056501498581245
          -0.004013496779531452 -0.004013959610937266 -0.004014422442343081 -0.002734528026547655 -0.0027340675974274753 -0.002733607168307296
          -0.0051370058928338624 -0.005137381522880347 -0.0051377571529268315 -0.004284881395962209 -0.004218708619533968 -0.004286253663949588
          -0.004219845514646208 -0.0042876259319369675 -0.004220982409758449 -0.005142260847854017 -0.005142754411455647 -0.005143247975057277
          -0.004147702799759471 -0.004148044370915984 -0.0041483859420724965 -0.004034714580828267 -0.0040364770592328 -0.004038239537637332
          -0.0038350237896128 -0.0038350447223186182 -0.003835065655024437 -0.004501683649772168 -0.004502018638122633 -0.004502353626473098
          -0.004282512409651147 -0.004283139776145319 -0.004283767142639492 -0.002750262969397575 -0.0027342140672032746 -0.0027505400369956883
          -0.002734432004040509 -0.002750817104593801 -0.002734649940877743 -0.0033736257926927408 -0.0032580077886688956 -0.003377586768266237
          -0.0032625513272004475 -0.003381547743839733 -0.0032670948657319994 -0.0032137960411191017 -0.003215291944058223 -0.003216787846997345
          -0.0025919568798442984 -0.0025931314819060574 -0.002594306083967816 -0.00500764972104324 -0.005008876291948444 -0.0050101028628536486
          -0.0027946348651149058 -0.002933013754506252 -0.0027947436206882882 -0.002933633366885027 -0.002794852376261671 -0.002934252979263802
          -0.003086763043185562 -0.0031647405965259134 -0.0030291187441825436 -0.003091420878974357 -0.0031689603253344314 -0.0030322404920107185
          -0.003096078714763152 -0.003173180054142948 -0.0030353622398388933 -0.002999217960477642 -0.0030599340306783226 -0.0030029812116656195
          -0.0030632249584799007 -0.003006744462853597 -0.003066515886281479 -0.0030731595469310645 -0.003074253301863081 -0.003075347056795098
          -0.003275892310440223 -0.003279938149261049 -0.003283983988081875 -0.0031757733130781647 -0.0031805924756302304 -0.003185411638182296
          -0.005033469356353791 -0.005034483979412467 -0.0050354986024711435 -0.0025359526140648226 -0.002536291891859705 -0.002536631169654587
          -0.0025559515434632604 -0.0028750536257730747 -0.0025554268477797977 -0.002874563000306182 -0.002554902152096335 -0.0028740723748392886
          -0.005057146524085922 -0.005056415413684747 -0.005055684303283572 -0.004060382104979031 -0.004101763694396852 -0.0043255544348897385
          -0.004061700785666004 -0.004102467341595615 -0.004325509479923672 -0.004063019466352978 -0.004103170988794378 -0.0043254645249576045
          -0.00271698128380707 -0.002920662610322391 -0.00271824870406329 -0.002920378777050781 -0.00271951612431951 -0.00292009494377917
          -0.005071876811209901 -0.00500638503840135 -0.0050723423339875 -0.005006241459372908 -0.005072807856765098 -0.005006097880344466
          -0.0031951053942824935 -0.003194543519330984 -0.0031939816443794736 -0.004875892418164861 -0.004770288910446883 -0.004661349418325809
          -0.004876107940634332 -0.004770565817966168 -0.00466168281486497 -0.004876323463103803 -0.004770842725485453 -0.004662016211404131
          -0.005047121200776203 -0.005046667390760638 -0.005046213580745073 -0.004870003280092061 -0.004939393995288958 -0.00487175780262057
          -0.004941072190020188 -0.004873512325149079 -0.0049427503847514175 -0.004993961068498644 -0.005014413739785348 -0.004994651433264458
          -0.00501418884218126 -0.004995341798030272 -0.0050139639445771714 -0.004696107215769364 -0.004696645554662393 -0.004697183893555424
          -0.005009718413314441 -0.005010519504237285 -0.00501132059516013 -0.0030780300894318003 -0.0030778004792043354 -0.003077570868976871
          -0.0032110747430872024 -0.003210324607982231 -0.00320957447287726 -0.003568956277764909 -0.0035688201222605735 -0.003568683966756238
          -0.004936186181312414 -0.00493652519218411 -0.0049368642030558066 -0.003922589559340372 -0.0040019421476153 -0.003923567754681558
          -0.004003684114540482 -0.003924545950022745 -0.004005426081465663 -0.0034758126865828583 -0.003294905536987165 -0.003474719167175967
          -0.0032941365356118422 -0.003473625647769076 -0.0032933675342365193 -0.0031638772966990775 -0.0031636207112958536 -0.0031633641258926298
          -0.0026426581002032597 -0.0026549553030705145 -0.002643331420432319 -0.0026558485045088983 -0.0026440047406613774 -0.002656741705947282
          -0.004980201173026389 -0.004981111635837272 -0.004982022098648155 -0.0042996133229170255 -0.004480123318046256 -0.004299772680683742
          -0.004479900380849111 -0.004299932038450458 -0.0044796774436519655 -0.004937406195758487 -0.00493214269254167 -0.004938165974940879
          -0.004932551146372305 -0.0049389257541232745 -0.004932959600202941 -0.0026794279665827026 -0.0026804799503556973 -0.002681531934128692
          -0.004502371563943169 -0.004502039097950972 -0.004501706631958776 -0.00373923148488348 -0.0037389912936411423 -0.003738751102398805
          -0.004030487118402065 -0.004031201765656217 -0.004031916412910368 -0.00497283871237836 -0.004974270268051681 -0.004975701823725001
          -0.004955956504403433 -0.0049572645598236435 -0.004958572615243853
        </DataArray>
        <DataArray type="Float64" Name="pe33" format="ascii" RangeMin="-0.005231055831149293" RangeMax="-0.0024134191870798655">
          -0.0038053366967631896 -0.004185278321597749 -0.004101606608965049 -0.0037591412898604817 -0.003802119159735943 -0.0041787559911909255
          -0.004097317143346013 -0.0037574843927545174 -0.0037989016227086953 -0.004172233660784102 -0.004093027677726977 -0.0037558274956485532
          -0.0031444057134549785 -0.0028735034461003844 -0.0029257033685134853 -0.0032335727637024256 -0.0031442283253045786 -0.002872269792757779
          -0.0029249376204693108 -0.0032335350724940247 -0.0031440509371541787 -0.0028710361394151734 -0.002924171872425136 -0.003233497381285624
          -0.002606743448190323 -0.0026071230319204644 -0.0026075026156506063 -0.002580798601514112 -0.002581718141188439 -0.0025826376808627664
          -0.003944776968488303 -0.003606538490475387 -0.003943427202770551 -0.0036073649480304042 -0.003942077437052798 -0.0036081914055854205
          -0.005007161127667606 -0.00509192596654492 -0.005005952181285821 -0.004975662788680353 -0.005003242601207663 -0.00508860204261422
          -0.005003087443700999 -0.004972125872270674 -0.0049993240747477205 -0.00508527811868352 -0.005000222706116178 -0.004968588955860994
          -0.0035717294514031814 -0.0037945802155203096 -0.003908350580294994 -0.0036983212778008527 -0.0035681924998028514 -0.003792105738381314
          -0.00390637846728708 -0.0036956382651042886 -0.0035646555482025206 -0.003789631261242318 -0.0039044063542791655 -0.003692955252407725
          -0.0030514525400884944 -0.0032471062388779548 -0.003007288836872595 -0.0028602771646929785 -0.0030516111695095475 -0.003245073754252218
          -0.003005010000645124 -0.002859654492658014 -0.0030517697989306015 -0.003243041269626481 -0.003002731164417652 -0.002859031820623049
          -0.005088719256001518 -0.005041958772342916 -0.005073749520732673 -0.005087943612436678 -0.00504161682335521 -0.005074072216737262
          -0.005087167968871839 -0.005041274874367504 -0.005074394912741849 -0.004752880402402674 -0.004972344039251974 -0.004976363442554937
          -0.004682355996491535 -0.004751113905424758 -0.004968871077597679 -0.004971882227173225 -0.004679686459284043 -0.004749347408446842
          -0.004965398115943384 -0.004967401011791514 -0.00467701692207655 -0.004433625109378209 -0.004431868749273349 -0.004430112389168491
          -0.004409934935171952 -0.004296391746720363 -0.004403084707648142 -0.004291640498198891 -0.004396234480124333 -0.004286889249677421
          -0.003682983756446731 -0.003958055537811501 -0.0035435238216784456 -0.003678635872328409 -0.0039536713306700996 -0.00354004557924417
          -0.0036742879882100867 -0.003949287123528698 -0.003536567336809895 -0.00474541884017766 -0.004632080436472163 -0.004707943842612436
          -0.004833342057155568 -0.004740847310350607 -0.00462898883450328 -0.0047059884498452925 -0.004830188999219022 -0.004736275780523554
          -0.0046258972325343975 -0.0047040330570781485 -0.004827035941282477 -0.004201711355476178 -0.003982269514858775 -0.004132171653192844
          -0.004199265372442119 -0.0039803659757057614 -0.004128294857350619 -0.004196819389408058 -0.003978462436552749 -0.004124418061508393
          -0.0038078399994081473 -0.0037638213145584918 -0.003445191127494811 -0.003805614462118419 -0.003760082518682635 -0.0034403141919864605
          -0.003803388924828692 -0.003756343722806778 -0.0034354372564781104 -0.004432066971808121 -0.004295683757264319 -0.0043497026472887395
          -0.004543047581758799 -0.004429152294578227 -0.004290555020708723 -0.004345600369326605 -0.0045403714043086305 -0.004426237617348332
          -0.0042854262841531265 -0.004341498091364469 -0.004537695226858462 -0.004827092567597932 -0.004613393416065078 -0.004822361814758692
          -0.004608511623675311 -0.004817631061919453 -0.004603629831285543 -0.005043337310116542 -0.004892192036515981 -0.004851661813491522
          -0.005041340985988248 -0.004892570128930295 -0.004851068073648386 -0.005039344661859952 -0.004892948221344609 -0.004850474333805251
          -0.004657931582295985 -0.004717925310672868 -0.004891116478410905 -0.0048583319827680445 -0.004656553630954822 -0.004713628691297012
          -0.004886657962017503 -0.004855767912123356 -0.004655175679613661 -0.004709332071921156 -0.004882199445624101 -0.0048532038414786675
          -0.0028533425344509267 -0.00304506395116783 -0.002854194028604328 -0.003045298097043268 -0.0028550455227577287 -0.0030455322429187057
          -0.003262002231925883 -0.003527028889462378 -0.0032592927050641325 -0.0035248589320684316 -0.0032565831782023825 -0.003522688974674485
          -0.0024406403480914792 -0.0025138671178724687 -0.002442100705725896 -0.00251510489698794 -0.0024435610633603134 -0.0025163426761034106
          -0.003534234564560407 -0.003260117681719898 -0.0034116076547586584 -0.0037269602055744304 -0.0035393459721977964 -0.0032653441442427023
          -0.0034151457021297364 -0.0037295036120529547 -0.003544457379835185 -0.0032705706067655067 -0.0034186837495008143 -0.00373204701853148
          -0.005142839343829785 -0.005090334120638083 -0.0051410499473090055 -0.005089448935580469 -0.0051392605507882255 -0.005088563750522855
          -0.005123583428972751 -0.004988371971408822 -0.005118193360767046 -0.0049841835636483854 -0.005112803292561339 -0.0049799951558879485
          -0.0052118044185207575 -0.005115753687222761 -0.005206296256919116 -0.005109565949857205 -0.005200788095317474 -0.005103378212491648
          -0.003315915513805293 -0.0033167785445378435 -0.0033176415752703943 -0.004732952141667091 -0.00473307306826488 -0.004733193994862667
          -0.005026566143592591 -0.0049504885626250866 -0.004844562876038915 -0.004960584547464986 -0.005025714495382722 -0.004949710408538508
          -0.004844344471899817 -0.0049604917859501435 -0.0050248628471728524 -0.00494893225445193 -0.0048441260677607205 -0.004960399024435302
          -0.004958488297417422 -0.004911912277982178 -0.005010296507857551 -0.004954577851431927 -0.004909434070804925 -0.005007506493769759
          -0.004950667405446432 -0.00490695586362767 -0.005004716479681966 -0.005112511212826693 -0.0049971562450182635 -0.005105059531929743
          -0.004991310563090667 -0.0050976078510327925 -0.004985464881163071 -0.0046515677005259035 -0.004652756388224307 -0.004653945075922709
          -0.002640413773151401 -0.00278034963486265 -0.002887738083548947 -0.0027315540543093224 -0.0026402513929664768 -0.002780372944605807
          -0.002889622281296339 -0.0027320120283783793 -0.0026400890127815523 -0.002780396254348963 -0.0028915064790437303 -0.002732470002447436
          -0.00507672863397478 -0.005075344297911628 -0.005073959961848477 -0.004729268574772502 -0.004730362670863643 -0.004731456766954785
          -0.005056648516474282 -0.005056426887512117 -0.005056205258549952 -0.0034120515311591554 -0.003187300082618546 -0.003410909378638248
          -0.0031868513955593575 -0.0034097672261173403 -0.0031864027085001696 -0.004375708670065688 -0.004416472971719347 -0.004375400519063138
          -0.004418308816914202 -0.004375092368060588 -0.0044201446621090585 -0.0051948715721934265 -0.005093096190921096 -0.005188069958180451
          -0.0050879883730948336 -0.005181268344167475 -0.005082880555268571 -0.004616551502946469 -0.0045738932427919115 -0.004610146072111503
          -0.004567954067525617 -0.0046037406412765365 -0.004562014892259325 -0.004802973082098727 -0.004801259906064294 -0.00479954673002986
          -0.00446357761960384 -0.004110242649058174 -0.004459570201261123 -0.004108931965214417 -0.0044555627829184034 -0.004107621281370659
          -0.0045629177746260375 -0.0044368054624538775 -0.004556900190625679 -0.004428485616423543 -0.00455088260662532 -0.004420165770393208
          -0.0051359916582637945 -0.005130314748533502 -0.005124637838803209 -0.0051687935824266335 -0.005166205011034459 -0.0051636164396422855
          -0.004422638142258471 -0.004398708153213661 -0.0044177650122195 -0.004390648816242849 -0.004412891882180529 -0.004382589479272038
          -0.005184217963022166 -0.005180829979067684 -0.005177441995113203 -0.004568290957032214 -0.004569175291969864 -0.0045700596269075125
          -0.005231055831149293 -0.005179515248080634 -0.005226612788952645 -0.005177174581320307 -0.005222169746755998 -0.005174833914559979
          -0.004937895697622777 -0.0048260725187700675 -0.004935254479692697 -0.004822435135919204 -0.0049326132617626165 -0.004818797753068338
          -0.004005828949534969 -0.004229613826732748 -0.004223750920309837 -0.004002405160745236 -0.004225731271692371 -0.004217060918367261
          -0.003998981371955505 -0.004221848716651992 -0.004210370916424685 -0.004486674226408301 -0.0043355327416656955 -0.004514470359223682
          -0.004691696018704627 -0.0044814769621138685 -0.004328661428304741 -0.004507372409501979 -0.004685955946797982 -0.004476279697819434
          -0.004321790114943787 -0.004500274459780277 -0.004680215874891338 -0.003155933692680704 -0.0029161738300537954 -0.0028224147008620087
          -0.003010631415701533 -0.003158215300492765 -0.002916570813069202 -0.00282209951379079 -0.0030114151774060017 -0.003160496908304827
          -0.0029169677960846083 -0.002821784326719572 -0.0030121989391104715 -0.005199308105144889 -0.005192844274750913 -0.0051863804443569375
          -0.0042193154860223625 -0.004054181844561577 -0.004215102047633685 -0.004049892730655396 -0.004210888609245009 -0.004045603616749215
          -0.0050312035952009395 -0.004967287616267735 -0.005030074417270765 -0.004965548006152249 -0.005028945239340591 -0.004963808396036763
          -0.003919907240736416 -0.003723449289676362 -0.003916919432425365 -0.0037225713073065813 -0.003913931624114313 -0.003721693324936801
          -0.0032123008689727292 -0.003413500028594171 -0.003214346561236866 -0.003415407891497657 -0.0032163922535010034 -0.0034173157544011437
          -0.0030149506842085923 -0.0028554097657193587 -0.0030145216270895557 -0.002854721650543436 -0.0030140925699705195 -0.002854033535367515
          -0.005112988828297908 -0.00510971226630756 -0.005106435704317212 -0.005144831373138482 -0.005141928538550564 -0.005139025703962645
          -0.003432087687195451 -0.0031737561250088577 -0.0030692093191199165 -0.003309422688024875 -0.003431510655008134 -0.003174930673557237
          -0.0030716639886930884 -0.003311166507606273 -0.0034309336228208155 -0.003176105222105616 -0.00307411865826626 -0.003312910327187671
          -0.0050842008625001794 -0.005113394697312657 -0.005080626620883663 -0.005111834739907898 -0.005077052379267146 -0.005110274782503138
          -0.0024134191870798655 -0.0024159714897634983 -0.0024921922931366116 -0.002463393803308584 -0.0024136997937315155 -0.002416720868994961
          -0.0024921156580400335 -0.0024634630546916557 -0.0024139804003831646 -0.0024174702482264235 -0.002492039022943455 -0.0024635323060747277
          -0.0026772845860240702 -0.0025311583611388752 -0.002689561168165806 -0.0026774484620625694 -0.0025320979464670016 -0.0026889907950699045
          -0.002677612338101068 -0.002533037531795127 -0.002688420421974004 -0.003475776554204156 -0.003477981948918181 -0.003480187343632206
          -0.004894476760513673 -0.004765763477696109 -0.004889781926814705 -0.004760391980012069 -0.004885087093115739 -0.00475502048232803
          -0.004610379758287794 -0.004315368531835348 -0.0046077339855072124 -0.004312369885991972 -0.00460508821272663 -0.004309371240148598
          -0.0036048276594597235 -0.0036043222132581764 -0.0036038167670566284 -0.0051971721966961315 -0.00519326854180049 -0.005189364886904849
          -0.003887036624268662 -0.004169033782694311 -0.0038869909957345325 -0.004164826819564296 -0.0038869453672004013 -0.00416061985643428
          -0.0025681734701279105 -0.0025096440243682645 -0.002567314755094203 -0.002509446761713739 -0.0025664560400604957 -0.002509249499059214
          -0.0026525551581214188 -0.0027525257926872913 -0.0026521713610611996 -0.0027516888387038186 -0.0026517875640009805 -0.002750851884720345
          -0.0028700740757818905 -0.0031574185218784384 -0.003002276380821344 -0.002867992253112955 -0.0031534718323469814 -0.002998290421448831
          -0.002865910430444019 -0.0031495251428155257 -0.002994304462076318 -0.003423451495888941 -0.0036458989584866107 -0.003420345765476922
          -0.003643907211155973 -0.003417240035064903 -0.003641915463825336 -0.002675282766090437 -0.0027173877120748925 -0.0026732303455202326
          -0.0027156117758484664 -0.002671177924950028 -0.00271383583962204 -0.003297920593334845 -0.003133299317720191 -0.0032928015468409624
          -0.0031278424613819457 -0.00328768250034708 -0.0031223856050437 -0.002646768186423269 -0.002646909613246892 -0.002647051040070514
          -0.0030464368973264 -0.0029710157928941744 -0.0029195647610119535 -0.002966430503727912 -0.003043778650148716 -0.002969266550732022
          -0.0029175919851948803 -0.0029632590713063963 -0.003041120402971033 -0.002967517308569871 -0.0029156192093778067 -0.0029600876388848796
          -0.0028287474903078654 -0.0028643105183023525 -0.0028277273109188197 -0.0028633422312736943 -0.0028267071315297744 -0.0028623739442450355
          -0.0025967481925180027 -0.002595938326739831 -0.002595128460961659 -0.0032090444790151213 -0.0032034174460908314 -0.0031977904131665416
          -0.0037522289669219425 -0.003750605993869241 -0.0037489830208165386 -0.0035257707838493475 -0.003528554363165171 -0.0035313379424809933
          -0.004038954294224272 -0.004036222995648707 -0.004033491697073141 -0.003878533560135666 -0.004013949685186622 -0.0038762127091643847
          -0.004009929694028927 -0.003873891858193104 -0.004005909702871233 -0.00412208397350371 -0.004118283303117009 -0.00411448263273031
          -0.003953507630472965 -0.0039557208592659555 -0.003957934088058947 -0.002800630949752943 -0.002799382724282755 -0.0027981344988125675
          -0.0050608455848073965 -0.00506007442089963 -0.005059303256991861 -0.004401308332542972 -0.004317574475368029 -0.004397885551888819
          -0.004314090817834991 -0.004394462771234665 -0.004310607160301954 -0.005109699972342043 -0.005108616428201859 -0.005107532884061673
          -0.004225622883062697 -0.004222327168093747 -0.004219031453124795 -0.004169972472732612 -0.004164351668013668 -0.004158730863294722
          -0.003856365554171475 -0.003858783337774961 -0.0038612011213784462 -0.004420429952878342 -0.004421474537693384 -0.004422519122508424
          -0.004194596473239207 -0.00419613796178408 -0.004197679450328954 -0.0027462628158493813 -0.0027224083750261403 -0.00274641504189274
          -0.002722258721671561 -0.0027465672679360983 -0.0027221090683169817 -0.003374087265748857 -0.0031990677117141215 -0.0033687514796380633
          -0.0031935451164016586 -0.00336341569352727 -0.0031880225210891957 -0.0032161963593533255 -0.003214152266789153 -0.00321210817422498
          -0.002570321138078005 -0.00256998851853986 -0.0025696558990017156 -0.00493184863358373 -0.004929940678924636 -0.004928032724265541
          -0.00280303627136082 -0.002944690839315596 -0.0028037145183957466 -0.0029440231818012213 -0.002804392765430672 -0.002943355524286847
          -0.003090900485138334 -0.0031796407777140174 -0.0030594708259073385 -0.0030864248869054344 -0.00317554555715999 -0.003056574525242252
          -0.003081949288672535 -0.0031714503366059624 -0.0030536782245771657 -0.003010490922733095 -0.003064318242781808 -0.0030070338602416363
          -0.003061188112372711 -0.0030035767977501775 -0.0030580579819636136 -0.0030872616687626702 -0.0030861130022267567 -0.003084964335690843
          -0.0032844178354348107 -0.003279353471158223 -0.0032742891068816343 -0.003140711141298891 -0.0031348253038951408 -0.003128939466491391
          -0.005006642437179518 -0.005004484043385653 -0.005002325649591788 -0.0025520883201589012 -0.002551510660323459 -0.0025509330004880168
          -0.0026236901434575416 -0.0029551889100197003 -0.0026232391266355092 -0.0029554291314602132 -0.002622788109813477 -0.002955669352900727
          -0.005041536927995557 -0.005042691135020008 -0.005043845342044459 -0.004138042479046188 -0.004180682361835749 -0.004455033237119091
          -0.004135098547025038 -0.0041784944189845125 -0.0044542463066300315 -0.00413215461500389 -0.004176306476133276 -0.004453459376140972
          -0.0027300612210207397 -0.0029181348678601095 -0.002736193477685443 -0.002921461955211371 -0.0027423257343501457 -0.0029247890425626332
          -0.004993719831484505 -0.004981481966804651 -0.004993202944440819 -0.004981508781826677 -0.004992686057397133 -0.004981535596848703
          -0.0031482062553253656 -0.0031506658653034044 -0.0031531254752814432 -0.00487074125516215 -0.004805939555125963 -0.004628683696720186
          -0.004871271324105002 -0.004806705182419121 -0.004629603964061148 -0.004871801393047856 -0.004807470809712279 -0.0046305242314021115
          -0.005056361916841678 -0.0050574266665452585 -0.005058491416248839 -0.004960018593937994 -0.005025898734524303 -0.004953758469340752
          -0.005018586268525402 -0.00494749834474351 -0.0050112738025265 -0.005020800751033666 -0.005050603393055061 -0.005020091482772203
          -0.00505041509038595 -0.00501938221451074 -0.005050226787716841 -0.004800851795049596 -0.004797843250240488 -0.004794834705431378
          -0.004906405209820696 -0.00490577528079651 -0.004905145351772325 -0.0030523299725706927 -0.003056179669136948 -0.0030600293657032035
          -0.0032907204135782862 -0.0032914218827328175 -0.003292123351887348 -0.00361755790886585 -0.0036186049230876108 -0.0036196519373093705
          -0.004979567730407102 -0.004979685402463758 -0.004979803074520413 -0.003958161846986866 -0.004066687481809717 -0.003958062855873493
          -0.004064047158019294 -0.0039579638647601195 -0.004061406834228872 -0.003400541525625458 -0.003217876419420673 -0.003405176690805832
          -0.0032232270837287483 -0.003409811855986206 -0.0032285777480368233 -0.0031135787985613872 -0.0031172750987783176 -0.003120971398995248
          -0.0026291782766273805 -0.0026443707465339866 -0.00263043401438497 -0.0026458243034243635 -0.002631689752142559 -0.0026472778603147404
          -0.004848895237690294 -0.00484773724443573 -0.0048465792511811654 -0.0042948439482000415 -0.004529078718087299 -0.004294188617397906
          -0.004528327208952833 -0.004293533286595772 -0.004527575699818367 -0.004872683194412647 -0.004785359068488021 -0.004870234319015086
          -0.004784127826524329 -0.004867785443617526 -0.004782896584560635 -0.0026726454529991546 -0.0026764038561274827 -0.002680162259255811
          -0.004649536476499044 -0.004649023610407088 -0.004648510744315132 -0.0037015155065516156 -0.0037038128266726313 -0.0037061101467936474
          -0.004025437175883485 -0.004025237127394158 -0.004025037078904831 -0.005017202819658182 -0.005010809184850498 -0.005004415550042816
          -0.004958121730962575 -0.004953704603251837 -0.0049492874755411
        </DataArray>
        <DataArray type="Float64" Name="disp_x" format="ascii" RangeMin="0.00006361433013870158" RangeMax="0.00015241030960777595">
          0.00012441445037198468 0.00012323706790685296 0.0001281309448129961 0.00013029819719863906 0.00012441056934916797 0.0001232331200461689
          0.00012812429988202573 0.0001302926393474337 0.00012440016944024063 0.00012322030395242912 0.00012810378482011386 0.00013027596689159696
          0.00007397035160330554 0.00007022972975571859 0.00006858941109605098 0.00007228741210164749 0.00007397575106880023 0.00007023610971654292
          0.00006859678577761109 0.00007229308350619068 0.00007399198104631427 0.00007025629130579634 0.00006861945037940926 0.00007231121910294974
          0.00006543254550344601 0.00006544012080310665 0.00006546311976012102 0.00006721635550427581 0.00006722382825965044 0.00006724568671592704
          0.0001331951143653207 0.00013528126822315097 0.00013318739221473028 0.00013527472712483244 0.0001331632869405819 0.00013525543479338785
          0.00011678441750680236 0.00011487095889227612 0.00012055808643971618 0.00012084515787402036 0.00011678277816312311 0.00011486852792160373
          0.00012055453370514931 0.0001208420742594926 0.00011677799385877525 0.00011486302561433628 0.0001205440177816662 0.00012083257844387191
          0.00010418771218080036 0.00010298016736218822 0.00010676243277843621 0.00010809683202369301 0.00010418935072095917 0.00010298255451779611
          0.0001067639742416373 0.00010809831195336302 0.00010419623789823634 0.00010299051429640516 0.000106768583445725 0.00010810071437050679
          0.00009266485563609832 0.00009618725245453782 0.0000975753346971973 0.00009397357396751699 0.00009266916212103574 0.00009619126484529893
          0.00009757820318431661 0.0000939761884804543 0.00009268421509065855 0.0000962019143788494 0.00009758783121297428 0.00009398526116722176
          0.00011195827293100808 0.00011025107724958393 0.0001185972347026697 0.00011195744416943275 0.00011025035636494081 0.00011859595882956293
          0.00011195581178423886 0.00011025036747070642 0.00011859339757524232 0.00008628895245355333 0.00009123241855138482 0.00009316541703837472
          0.00008686793382502685 0.00008629485736832768 0.00009123769549440888 0.00009316994546430162 0.00008687382254199599 0.00008631399397519413
          0.00009125157677942752 0.00009318787434825488 0.00008688845282413539 0.00008071467064830672 0.00008072136594416431 0.00008074176700024163
          0.00012573719211156982 0.0001306854048065702 0.00012573249914570915 0.0001306784998269192 0.00012571866601556784 0.00013065845338768516
          0.00011709829555936035 0.0001184807820285528 0.00012153927687092495 0.00011709778686456554 0.00011847954825912537 0.00012153701967147476
          0.0001170942184550139 0.00011847489985588535 0.00012153053616881582 0.000118495044223423 0.00011405012477606053 0.0001097853163718265
          0.00011460717152759383 0.00011849425267978383 0.00011405099008985165 0.0001097857966460554 0.00011460710560284077 0.00011849260285482096
          0.00011405445045829259 0.00010978793533627004 0.00011460836102169373 0.0001100576255578858 0.00011036067740535804 0.00010581641532486175
          0.0001100586875943571 0.00011036219915276764 0.00010581800855921608 0.00011006119146909361 0.00011036656365248214 0.00010582199044205743
          0.00011047466563079591 0.00011306578589791652 0.00011027533722896827 0.00011047620276090818 0.00011306634968140592 0.00011027580941399604
          0.00011048018049734458 0.00011306916334587574 0.00011027794383975994 0.00010963243003023164 0.00010421214087016376 0.00010089064239760164
          0.00010491039457372272 0.00010963363578714522 0.00010421433867246036 0.0001008933618151244 0.00010491175004190593 0.00010963583876880592
          0.00010421881484341702 0.00010090294520526532 0.00010491523005069283 0.00009265421188828483 0.00008740205188779419 0.00009265870287183485
          0.00008740814109983295 0.00009267102054311942 0.00008742468254241906 0.00012017138936878374 0.000126300909944083 0.00012610255412593132
          0.0001201682787425165 0.00012629718403428232 0.00012609818294814754 0.00012015865689484432 0.00012628680514644773 0.0001260839770830968
          0.00013012697626818077 0.00012684860219023487 0.00012208754334216903 0.00012470627285938277 0.0001301215737894085 0.00012684376802664474
          0.00012208450982977557 0.00012470223524457325 0.00013010568782543668 0.00012683039167750017 0.00012207458938383575 0.00012469042688590672
          0.00014347761976419996 0.0001399825877841584 0.00014347392833074436 0.00013997889191442257 0.00014346271531504108 0.0001399666748256715
          0.00012619880121726135 0.0001277900612665844 0.0001261967891060228 0.00012778690474044303 0.00012618985412643673 0.0001277759153117745
          0.00007752664001701098 0.00007739703541236762 0.00007753004042554395 0.00007740124279769676 0.00007753835318587353 0.00007741328711638134
          0.00014289024401405458 0.00014409805261770783 0.0001400311068858368 0.00013814164500455887 0.00014288474397261165 0.00014409295369237717
          0.0001400249409482294 0.00013813325513479602 0.00014286786973865235 0.0001440774398420494 0.00014000619947406864 0.00013810693312131447
          0.00011247517866066974 0.00011910489464855767 0.00011247419576542169 0.00011910327895397812 0.00011247145698202461 0.00011909920515347227
          0.00009399803963884681 0.00008931433134792483 0.00009400221128163785 0.00008932009840237732 0.00009401487379044802 0.0000893364762315096
          0.00009748148064666304 0.00009181488304271527 0.0000974831023786196 0.00009181769354505012 0.00009748642631414117 0.00009182752112663078
          0.00013757309598873532 0.00013756748448864173 0.00013754988216085532 0.00013895630810783753 0.0001389534036497094 0.00013894730874966242
          0.00012561300203880573 0.0001321532457881761 0.00013247785265581668 0.00012605234870526465 0.00012561241851362652 0.00013215052535189495
          0.00013247696412168228 0.0001260505057191646 0.00012560798558522345 0.0001321453776287656 0.00013247200212046503 0.00012604385805210932
          0.00011561756936414015 0.00011172407735783597 0.00011008714497481626 0.00011561730317660734 0.00011172479747032048 0.00011008714115881599
          0.0001156162575019203 0.00011172618805219321 0.00011008700217490783 0.0000975990960243185 0.00009788696653371269 0.0000976020642219122
          0.00009788961357723124 0.00009761295938072962 0.00009789874423869535 0.00013196587180102983 0.00013196231018290845 0.00013194931208814376
          0.00008732272151701976 0.00008598899978799258 0.00008937340998120958 0.00009063182709753542 0.00008732385178650856 0.0000859909608820549
          0.00008937657933898094 0.00009063423736249938 0.00008732847045259568 0.00008599481669260652 0.00008938705226803685 0.00009064084639389975
          0.00011965156691141352 0.00011965034098434254 0.00011964306948453728 0.00013258848345499573 0.00013258687238731852 0.00013257880829483423
          0.00012552317802343955 0.00012552300765034252 0.00012552209938048543 0.00013261076803139035 0.00013612145105139215 0.00013260613608121459
          0.0001361167047714457 0.00013259238864821 0.00013610162064062124 0.00013553729616963098 0.00013771434000709018 0.0001355312236262277
          0.00013771106472277008 0.00013551116752093232 0.00013770036614348642 0.00010140482336292402 0.00010309374070310303 0.00010140545830806296
          0.00010309491540166373 0.00010140292731292621 0.00010309521358176831 0.00012241778393110912 0.00012712986508715176 0.00012241587178657206
          0.00012712524267909322 0.0001224083356958923 0.00012711166833678184 0.00010642729337549789 0.0001064284635928016 0.00010643117864745608
          0.0001317948831369624 0.0001357444657000526 0.00013178955022113872 0.00013573663653384355 0.00013177275932858265 0.00013570995610138724
          0.00011814379848531172 0.00012131413528916457 0.00011814426179762519 0.00012131257338160388 0.00011814450349824487 0.00012130584755860777
          0.00009349896877065948 0.00009350014594869732 0.00009350314093114595 0.00011296883977952831 0.00011296718427649405 0.00011296147552638095
          0.00011536708214762831 0.00011845938176389008 0.00011536838431178617 0.00011845962990951504 0.00011537258490077462 0.0001184592328621253
          0.0000993900656323644 0.00009939050043189786 0.00009938940237786571 0.0001386708248001936 0.00013866803202369464 0.00013865998644890047
          0.00010456421383480023 0.00010584472828538854 0.00010456381018137737 0.00010584520748733615 0.00010456061794870649 0.00010584368760976484
          0.00010436334962770351 0.00009856589989170151 0.00010436468226481868 0.00009856758446283155 0.0001043658428583704 0.0000985720368233614
          0.00011415718217228412 0.0001144534391201888 0.00011872913787306932 0.0001141582976037682 0.00011445476481979249 0.0001187289036246645
          0.00011415982473839985 0.00011445860807928539 0.00011872734476377237 0.00009221623976562023 0.00008725148074028776 0.00008764171078326768
          0.00009277719799092344 0.00009222018006271514 0.00008725800329732937 0.00008764905439483292 0.0000927807070019007 0.00009223140366741151
          0.00008727685717992847 0.00008766898116073405 0.00009279107867692955 0.00008393018768301642 0.00008363313650235342 0.00007879592174180424
          0.0000793759800659089 0.00008393476089416386 0.00008363598686873014 0.00007879991012765833 0.00007937992014641066 0.00008394766089265202
          0.00008364438621074795 0.00007881306013151021 0.00007939271328417527 0.00009833243126045101 0.00009833590334953855 0.00009834363226166174
          0.00009075696764975967 0.00008596470773433019 0.00009076210098277582 0.00008597273456538535 0.0000907759506246765 0.0000859958820456974
          0.00010141763524730476 0.00009944429515023705 0.0001014174393698222 0.00009944446184192903 0.00010141737664510198 0.00009944563368325132
          0.00008947249475115912 0.00008467385421871136 0.00008947872625197612 0.0000846818984573949 0.00008949610029393323 0.00008470715908782546
          0.0000794690487140255 0.0000841416691312014 0.00007947443732633567 0.00008414881812832002 0.0000794891902448502 0.00008416978095863333
          0.00007513487798034163 0.00007540310246915894 0.000075140186796704 0.00007540827878803996 0.0000751545948188179 0.00007542331710594651
          0.00010882067913834452 0.00010882049909030831 0.00010881740427903481 0.00011373457139995325 0.00011373360790621968 0.00011372907353206658
          0.00009364685371795445 0.00009153249400989831 0.00008855080310916288 0.00008850998450378236 0.0000936519631082614 0.00009153748740346506
          0.00008855514712038502 0.0000885158262211793 0.0000936675377266043 0.00009155317832998292 0.00008856706905589851 0.00008853323651426282
          0.00009454737133713633 0.0001002449502988662 0.00009454738602037748 0.00010024485568800241 0.00009454853781304657 0.00010024391611821107
          0.00007887550669516967 0.00007819038679885377 0.00008125499174962703 0.0000820476545403734 0.00007887598152696164 0.00007819169167572671
          0.00008125646860605589 0.0000820483459464401 0.00007887725932218091 0.00007819600396226248 0.00008126191451465722 0.00008204897116989132
          0.00007497265332636752 0.00007164702835635336 0.00007202780213707183 0.00007497839816455637 0.00007165261177857764 0.00007203423734896947
          0.00007499390357404751 0.00007166987597141886 0.00007205211523604145 0.00007908870958446754 0.00007909604790679687 0.00007911674974008193
          0.00011870745848864614 0.00012291767159769133 0.00011870728223144529 0.0001229157080968534 0.00011870371945080509 0.00012290673254477621
          0.0000994568812803162 0.00009604405083294932 0.00009945968016974226 0.00009604836085253728 0.00009946663351125595 0.00009606010639407181
          0.00008886692202856542 0.00008887403361734544 0.00008889470814537489 0.00010726820329056742 0.00010726813222880094 0.00010726417733806282
          0.00008224253843754936 0.00008420960445326346 0.00008225199782046214 0.00008421846268343533 0.00008228223298457828 0.00008424616687611394
          0.00008430861622416739 0.00008523565007073682 0.00008431085071210403 0.00008523674028568418 0.00008431585294089873 0.0000852383877396203
          0.00009174687558126697 0.0000951319518571726 0.00009174883200484365 0.00009513427472222837 0.00009175373118186419 0.000095139290659347
          0.00009860581053427209 0.00010128926225205293 0.00010218823138557721 0.00009860867081166662 0.00010129229522183018 0.00010219069126515656
          0.00009861433666443201 0.00010130150232629094 0.00010219711094263763 0.00010006770610788895 0.0000988113806109362 0.00010007155596599221
          0.00009881575399007431 0.00010008109073648882 0.00009882706938623128 0.000082953129246007 0.00008091597132924817 0.0000829559793739845
          0.00008091993549372578 0.00008296290368153737 0.00008093133489829264 0.0001053715804613511 0.00010591061632405349 0.00010537445910070805
          0.00010591215817365244 0.00010538028850134964 0.00010591716963501998 0.00007792030869945719 0.00007792529390378066 0.00007793979549489345
          0.00013171493724111822 0.00013570332887951735 0.00013586932170062062 0.0001322039455140817 0.00013171377938619633 0.00013570091450118216
          0.0001358674563042989 0.00013220301392428383 0.00013170848123473372 0.00013569483124882005 0.00013586320692750503 0.00013220263712648153
          0.00013947066589071046 0.0001393741707102704 0.00013946868402478496 0.00013937235851134978 0.00013946236110688054 0.00013936510453128745
          0.00007962186035313116 0.00007962605976784185 0.00007963974434653321 0.00010973006883302785 0.00010973090990623895 0.00010973087117583565
          0.00009359666490779529 0.0000936022201940812 0.00009361669405226215 0.000076166763194533 0.00007617359984643848 0.00007619004299113813
          0.00009429346387554045 0.00009429881827559614 0.0000943122390659602 0.00009807344989275892 0.00010200638158960594 0.00009807824484999955
          0.0001020099284950954 0.0000980917341175579 0.00010202024019574523 0.00009862398778509684 0.00009862868457045667 0.00009864258113308777
          0.00014149458714351608 0.00014148850786165277 0.00014146997698180283 0.00007150461221332613 0.00007151126956922256 0.00007153048007375066
          0.00010598832842347325 0.00010599020412792402 0.00010599024772289159 0.00008164342047392065 0.00008251216053650108 0.00008165053189755316
          0.00008251991039896119 0.0000816710534809915 0.00008254424706973204 0.00010597776252110307 0.00010597927258866354 0.00010597828052300956
          0.0000834634748556482 0.00008347316868482958 0.00008350337497566578 0.00010147687796934343 0.00010148118816795256 0.00010149165744440445
          0.00007982021287813507 0.00007982981186748405 0.00007985664861972625 0.00014468439772549163 0.00014468404312037984 0.0001446770938782097
          0.00014341784886811272 0.00014341591666017835 0.00014341065021415312 0.00014294575545500073 0.0001429730002853605 0.00014294307855665757
          0.00014297092045616476 0.0001429357889078235 0.00014296549699034758 0.00011521900456537851 0.00011355632865030945 0.0001152194674016952
          0.00011355671013694647 0.00011521955511737872 0.00011355821302410062 0.00013179827462638568 0.00013179508802441304 0.0001317864770241801
          0.00008845294386059279 0.00008845522768087545 0.00008845889670764664 0.00009548805417447573 0.00009548860317366877 0.00009549106696215267
          0.0001431877777496578 0.00013955184504093436 0.0001431836555188282 0.00013954861191846338 0.00014317377700200762 0.00013953917648527065
          0.0001211518576006886 0.00012198553608870996 0.00012484891573727648 0.00012115100090493515 0.00012198440034868541 0.00012484833691897318
          0.00012114934721619633 0.00012197801017626322 0.00012484749678456743 0.0001285328304855789 0.00012909127001629374 0.0001285317748601104
          0.00012908960767122682 0.00012852953357494972 0.00012908549817203818 0.00013587425731583454 0.00013587161984454331 0.00013586168405426544
          0.00011962650538600159 0.00011962513019925017 0.00011962142851906645 0.00011737803882867718 0.0001173781555656748 0.0001173765503000136
          0.00009511012853739317 0.00009511091757501527 0.0000951116263691259 0.00008029755669011648 0.00008030160072618511 0.00008031303460311688
          0.00006361433013870158 0.00006684401741315023 0.00006362221578317216 0.00006685120501547594 0.00006364360018664455 0.00006687238713720036
          0.00011795692032459201 0.00011795612089064226 0.00011795373215191844 0.000076032814500716 0.0000752968253553001 0.00007989103906630935
          0.00007604001552873608 0.0000753037702129511 0.00007989844731118995 0.0000760618130977752 0.00007532409791420353 0.0000799134988206362
          0.0001472351826688876 0.00014462314321304003 0.00014722401365710024 0.00014461820503198662 0.00014720535536314922 0.00014460507903950196
          0.00010680097296518309 0.00011210811695719582 0.00010680129481072803 0.00011210851252745923 0.00010680186874432307 0.0001121111995212112
          0.00014209177528597724 0.0001420868803257454 0.00014207089472870874 0.00013886036068216294 0.00014592681628698107 0.00014547215269860913
          0.00013885849843769805 0.00014592699813075155 0.00014547022057424637 0.00013885380908539556 0.00014592506727509398 0.0001454656976995816
          0.0001265908431308809 0.00012659284923576263 0.00012659712106441738 0.00008668712816509357 0.00008803908912382951 0.00008669243900560202
          0.00008804290651435486 0.00008670644406434506 0.00008805424353748565 0.00013204869879642563 0.0001329141799089318 0.00013204821037260977
          0.00013291539824498527 0.00013204575894231648 0.0001329154763564889 0.00008478521371082322 0.00008479110318262506 0.00008481170831354571
          0.00010223926263099191 0.00010223934359870008 0.00010224072100949104 0.00014608052086331546 0.00014607798302037063 0.00014606778808013936
          0.00007049048139277913 0.00007049807473667785 0.00007052124787462504 0.00007425775332566254 0.00007426543870714338 0.0000742880827908634
          0.0001383593064170673 0.00013835943895881405 0.00013835637797348404 0.00007819098567742364 0.00007699161970820334 0.00007819901201554907
          0.0000769995553757982 0.00007822335605004073 0.0000770240953116961 0.00014744675020049092 0.00014695172315667358 0.00014744405563433716
          0.00014694878216867154 0.00014743676456088346 0.00014693998740971932 0.0001494639625101296 0.00014946301274248514 0.00014946114438193489
          0.00014637256753571423 0.00014636276250028742 0.00014636843920430153 0.00014636058412690787 0.0001463629565510238 0.0001463540529137775
          0.00009630987265101371 0.00009631106444508334 0.00009631244184598203 0.00015096432064251982 0.00015241030960777595 0.0001509636256200377
          0.00015240959541275886 0.00015096169203016025 0.00015240661245804864 0.00009041374752654463 0.00009126148260327584 0.00009041448500280729
          0.00009126249456171089 0.00009041742707361898 0.00009126546821282412 0.00014649820362926181 0.00014649906864998107 0.00014649345637181396
          0.00008345699047150456 0.00008346349622025168 0.00008348383117272292 0.0001482698628190391 0.0001482680129879357 0.00014825912039096204
          0.0001493771301329894 0.00014937522799429257 0.0001493690249071497 0.00008913649343663375 0.00008913875454026413 0.00008914312453341553
          0.00008990467662422953 0.00008990540011490722 0.00008990716000851884
        </DataArray>
        <DataArray type="Float64" Name="disp_y" format="ascii" RangeMin="-0.00006592645298180685" RangeMax="-0.000018967630613249323">
          -0.000059678684909495005 -0.00005736924036582052 -0.00005564893679158921 -0.000057036252211771325 -0.0000596847456384499 -0.00005737460771859442
          -0.000055653243174378756 -0.00005704077572894833 -0.00005970246853427784 -0.00005739213267960145 -0.00005566865538924102 -0.00005705382036682338
          -0.000045217140601303174 -0.000043723329536289994 -0.000041987538702284816 -0.00004317039225448325 -0.00004521964029566949 -0.000043725173136905954
          -0.00004198935889994787 -0.00004317233682207014 -0.00004522767472425298 -0.000043730944347719594 -0.000041994635145964575 -0.0000431787469514232
          -0.000040893855214698446 -0.000040895771168075206 -0.00004090238039070842 -0.000042497991823517694 -0.000042499762522249865 -0.00004250479214402685
          -0.00005348058125137292 -0.000054692298019122195 -0.00005348404854560252 -0.00005469579367141657 -0.000053493897192417234 -0.00005470608720058309
          -0.00004446433832974565 -0.00004144252221417423 -0.00004074208577487127 -0.00004281419640620001 -0.000044465743548744414 -0.000041443229960288506
          -0.00004074245947572094 -0.00004281476022168856 -0.000044469881484634374 -0.000041445635730179525 -0.00004074441800731514 -0.00004281693641028941
          -0.00006145117201813339 -0.00005957342981455458 -0.00005983163842993287 -0.00006165955973809934 -0.00006145725814765382 -0.00005957891558686155
          -0.00005983741375585747 -0.00006166632787835506 -0.00006147423542766493 -0.000059596190307105534 -0.000059856613022837046 -0.0000616835725561176
          -0.00005859756730474459 -0.00005978791493406968 -0.00006149675296004345 -0.000060097467976897066 -0.000058602152839593824 -0.00005979324808236775
          -0.0000615035964915215 -0.00006010270934925997 -0.00005861603504157417 -0.000059808936408888514 -0.00006152522670218455 -0.00006011937668504618
          -0.00002799298349402157 -0.000025092872737892303 -0.000027650859440746067 -0.00002799177335670734 -0.000025091984917863315 -0.000027650637900182324
          -0.000027988002004959424 -0.000025089330568094002 -0.000027650993335385095 -0.0000375780752064325 -0.000038317896899753515 -0.000040707597589504826
          -0.000040505160016726336 -0.00003757998805967209 -0.00003831902513824368 -0.000040709490285226256 -0.0000405063417569516 -0.00003758402114760756
          -0.000038325671566839895 -0.00004071489128488616 -0.00004051074381962546 -0.00003786445245458883 -0.00003786599728593714 -0.00003786870804028865
          -0.0000540394392319823 -0.00005198356547243198 -0.00005404351022739152 -0.000051986613814217946 -0.00005405497213501466 -0.000051997312693399166
          -0.00006223891266560532 -0.000060207628552958625 -0.00006228696686673218 -0.0000622461684396834 -0.00006021389821022842 -0.00006229407537186519
          -0.0000622657406651387 -0.000060235451785729604 -0.00006231378725726505 -0.00005116245501791508 -0.00005310889401078235 -0.00005129758053088819
          -0.00004963832853352007 -0.00005116515115695732 -0.00005311179586981909 -0.000051300453344358486 -0.0000496408249714155 -0.00005117407695733351
          -0.00005312153433570213 -0.000051309680828006886 -0.000049648650868613315 -0.00005798063105217182 -0.00005990215225989613 -0.00005795037243552886
          -0.00005798588675160127 -0.0000599079119744042 -0.00005795627282276656 -0.000058001174140956784 -0.000059927275941922785 -0.000057974322679016425
          -0.00006120663188232313 -0.00006185663580157591 -0.00006357964691702694 -0.00006121341715321243 -0.00006186345607322243 -0.00006358748430378021
          -0.00006123234890819518 -0.00006188250890085349 -0.00006361083119905178 -0.00005538015610818011 -0.000056047357162866035 -0.00005414891038741947
          -0.00005282327260151519 -0.00005538446071963963 -0.00005605237511818441 -0.000054152828332513975 -0.00005282681617111314 -0.00005539638221511483
          -0.00005606551401589951 -0.00005416439021964432 -0.00005283674459516722 -0.000043680249814588505 -0.00004304735521389238 -0.00004368276512550952
          -0.000043049638771858474 -0.000043688234308531926 -0.0000430545553180859 -0.00003768965632453261 -0.000037902302026025416 -0.00004088981916884987
          -0.0000376904003742549 -0.0000379032738249427 -0.000040890520941057676 -0.000037691598891947206 -0.000037906259570170526 -0.00004089247594748869
          -0.00004446122749415449 -0.00004693233993454199 -0.00004577995339511767 -0.00004350158775659774 -0.00004446203692943819 -0.00004693282407651126
          -0.00004578119389270479 -0.00004350220642420441 -0.0000444646531662271 -0.00004693557694600629 -0.00004578442845213727 -0.00004350280053954918
          -0.000054693735592072354 -0.00005552314060299682 -0.000054692902969637204 -0.000055524616726153035 -0.0000546930264898076 -0.00005552861310563686
          -0.00006226292391729316 -0.00006005496757125934 -0.00006226971853288693 -0.00006005974358456741 -0.0000622887903754208 -0.00006007682626945999
          -0.000050795175105440744 -0.000050510311852436347 -0.00005079575778591833 -0.000050511367090155695 -0.00005079643185141898 -0.00005051404327459338
          -0.000049176051978857475 -0.000050461523044616486 -0.00005237165274200867 -0.0000511782752293897 -0.000049179643889040106 -0.00005046433355434756
          -0.00005237451554709492 -0.000051182186775887995 -0.00004919091242413259 -0.000050471696024343994 -0.00005238103751211832 -0.00005119380307371337
          -0.00003124313508571446 -0.00003108001203802724 -0.000031242321067968995 -0.00003107989774474794 -0.00003123894599707391 -0.00003107878066734859
          -0.00003671596541525826 -0.00003528234202131215 -0.00003671663223668974 -0.000035283952893236967 -0.00003671928949148639 -0.00003528859738501407
          -0.00003403834702965932 -0.00003286054375984971 -0.000034038538565884294 -0.000032861452885615446 -0.000034037578573256056 -0.00003286244594995037
          -0.000055386418172877715 -0.000055388317824475944 -0.000055394325242320996 -0.00003560732405742298 -0.00003560986581967005 -0.00003561662372555209
          -0.000031158653397693985 -0.000031647619085815195 -0.00003507326136823537 -0.00003450079171524276 -0.00003115936431932427 -0.00003164919572642172
          -0.000035075319688752655 -0.00003450218249990427 -0.00003116201771960682 -0.000031654426072219145 -0.00003508111045658453 -0.000034506209379176884
          -0.000046818775416152584 -0.00004778456290218376 -0.00004543331551316965 -0.000046821119661254346 -0.00004778734253909065 -0.000045435647020736286
          -0.00004682728597650044 -0.00004779503330862562 -0.00004544327956424693 -0.000042114772920221726 -0.00004417480999280561 -0.00004211650858214308
          -0.000044177543278961044 -0.00004212229243993565 -0.000044188736998234716 -0.00004166248421267421 -0.00004166419542184643 -0.0000416685867379737
          -0.00005688991433862711 -0.000055584345506582866 -0.000057193610183865816 -0.000058567864084159723 -0.000056893268786981095 -0.0000555871719570848
          -0.00005719719443273212 -0.0000585719623837953 -0.00005690344992973345 -0.00005559616933626214 -0.00005720761288082074 -0.00005858294110858761
          -0.000034347583052874734 -0.00003434794035012124 -0.000034348760736760814 -0.00003851152185253994 -0.0000385137938145775 -0.00003851979972323425
          -0.000027907300879473868 -0.000027907701710098887 -0.000027908298701931805 -0.000058227299789463744 -0.000057502556484646334 -0.00005823119744776595
          -0.00005750510486284912 -0.00005824093912309658 -0.00005751367823358653 -0.00004550475133765091 -0.000042453213254391625 -0.00004550654508990531
          -0.00004245547326486464 -0.00004551043225890998 -0.00004246283612336013 -0.000041111919916508874 -0.000043779108853311234 -0.00004111373622463731
          -0.000043782448089582544 -0.00004111813099906099 -0.00004379279950341451 -0.00005256868790077803 -0.00005049080729956344 -0.000052571762333064346
          -0.000050493386499366284 -0.00005257978797384683 -0.00005050116706714208 -0.00004898269641292165 -0.00004898648494073231 -0.000048996267067704055
          -0.00004816776162598871 -0.00004966376560917789 -0.00004816999476124941 -0.00004966698281697707 -0.00004817406160405326 -0.00004967696875873161
          -0.000054457633375179273 -0.00005575208411008406 -0.00005446127557306968 -0.000055756941050100285 -0.00005447098702543939 -0.000055769617346131695
          -0.000030185943636069742 -0.000030185132414696358 -0.000030182500403188643 -0.000034772767771303225 -0.000034772555308577 -0.000034771831509311644
          -0.000056255298059120736 -0.00005676600874688395 -0.0000562601696271199 -0.000056771386012438426 -0.000056273647099803525 -0.00005678520482344112
          -0.00003096115728214629 -0.00003096024451021401 -0.00003095620037210839 -0.00003910720773474747 -0.000039110235091046 -0.00003912055301715738
          -0.00003565429532669422 -0.00003142693034108292 -0.000035654149608233714 -0.00003142570036220738 -0.00003565319714933457 -0.00003142140044634448
          -0.000046483904306462634 -0.00004682098531580863 -0.000046487811289543335 -0.000046825006634898204 -0.0000464988707371373 -0.00004683659041361419
          -0.00006013583314650317 -0.00005819660763468154 -0.000058217979118493526 -0.000060142523680939556 -0.00005820275967399421 -0.000058224168658700175
          -0.000060161331641054634 -0.000058219265070253236 -0.00005824386424215325 -0.000048562639870702044 -0.000047222713877426 -0.000045342044548798495
          -0.000046268365741506 -0.00004856678120898714 -0.00004722658837282642 -0.00004534494614781342 -0.00004627165016886418 -0.00004858087328042498
          -0.00004723848794778957 -0.00004535337945785565 -0.000046280693272749366 -0.00005243524684081916 -0.000053519460377348155 -0.00005054300280186514
          -0.000050028560740264615 -0.0000524384307337402 -0.00005352190597227988 -0.00005054487995052232 -0.000050031015227884074 -0.0000524474280953823
          -0.00005352934867221971 -0.000050550910690011536 -0.00005003826765943311 -0.00003864588837123733 -0.000038647927083163985 -0.0000386512287540406
          -0.000050442366196091004 -0.00004863634115850995 -0.00005044717973940305 -0.00004864080530044999 -0.00005046099916593061 -0.00004865347170993566
          -0.000024681309203588226 -0.000022352526102677504 -0.000024679259592402104 -0.000022350726600353874 -0.000024674676639342817 -0.00002234572780343798
          -0.000051993228401649267 -0.00004990533914515045 -0.00005199820522003218 -0.0000499101576537038 -0.000052012545058818104 -0.00004992470666115581
          -0.00004894234110420504 -0.00005123157474190853 -0.00004894533137957639 -0.00005123623528526801 -0.00004895383087107126 -0.00005124884080580296
          -0.00004687207892394146 -0.00004787036480661497 -0.00004687481709210786 -0.000047872746544319485 -0.00004688244200063076 -0.000047880005393087265
          -0.00004260925066907963 -0.00004261133779087653 -0.00004261589566761578 -0.000038281529180013124 -0.000038282365901532425 -0.00003828427983460872
          -0.00005739259159847462 -0.000057331600405362354 -0.00005589058606493617 -0.00005476168985828148 -0.00005739734017351354 -0.0000573360852757473
          -0.00005589458180016447 -0.00005476641864320064 -0.0000574110608373249 -0.00005734830779512966 -0.000055906683127196374 -0.00005478038337188039
          -0.00002739024513515409 -0.0000279268365799817 -0.00002738883043859643 -0.000027925509478504562 -0.000027383379052638505 -0.00002792030893361372
          -0.000051959297882652445 -0.00005138391843820729 -0.00005334234634276096 -0.00005400953417906614 -0.0000519582132518666 -0.000051383540850150946
          -0.000053343542134568094 -0.000054009998140549486 -0.000051954912726365324 -0.00005138199637986831 -0.00005334686473670908 -0.00005401249295226631
          -0.0000482578647405117 -0.00004624116438638109 -0.000046006447200300194 -0.00004825995053099629 -0.00004624248859630297 -0.000046008377669853796
          -0.000048265989487488506 -0.000046247004891328966 -0.00004601481950673089 -0.00004709571710141035 -0.00004709891697979949 -0.000047107696756681154
          -0.000047812170635939456 -0.00004916382864597945 -0.00004781469388273434 -0.00004916602063496479 -0.00004782033695396212 -0.00004917162982861091
          -0.000050069651439265525 -0.00005225553313192883 -0.000050073810167531335 -0.00005225993222309384 -0.000050085328668203 -0.00005227237324300314
          -0.00005346038036855897 -0.00005346577813818887 -0.00005348136899533323 -0.000039486190376405484 -0.00003948729995935018 -0.0000394899874293294
          -0.00004667570556055575 -0.0000462321089140242 -0.000046679230910638055 -0.000046236207531373145 -0.000046687188568252174 -0.00004624783474494997
          -0.000055205161520999874 -0.000056032749018025685 -0.00005520830615604512 -0.000056035712188412487 -0.00005521775387755627 -0.00005604500987510712
          -0.00005976763817770596 -0.00006144822311813786 -0.000059772242637288824 -0.00006145459117530486 -0.00005978632256091622 -0.00006147271479031149
          -0.00006294149455247458 -0.00006258607889572281 -0.00006417823824352214 -0.00006295015151444677 -0.00006259381320686449 -0.00006418732102765212
          -0.00006297583306077116 -0.00006261684882494516 -0.00006421724208304484 -0.000060759034714003663 -0.000058808165005669274 -0.000060765455083900155
          -0.00005881379047770355 -0.000060782014185958894 -0.000058830668214273835 -0.000054054884673092325 -0.00005252107852902596 -0.0000540573675397251
          -0.00005252303887848395 -0.000054065126821403915 -0.00005252709092769791 -0.00006336148850712702 -0.00006510781008972787 -0.00006336995283255164
          -0.00006511800276098152 -0.00006339524739314945 -0.000065150816131645 -0.00005053433245559191 -0.00005053595267405432 -0.000050539387630625486
          -0.00006107352148851283 -0.000059521004249029244 -0.00006032694157831081 -0.00006182668597414362 -0.00006107808525807489 -0.00005952345006772233
          -0.0000603287061433636 -0.00006182993751653 -0.00006108951181183099 -0.000059530478898024034 -0.00006033568647665425 -0.00006184165541732235
          -0.00005874951459593886 -0.00005798886552666575 -0.00005875050039864608 -0.00005798976404431841 -0.000058753768864299266 -0.00005799181566903456
          -0.000051916636970793414 -0.000051918317337727466 -0.00005192265853648385 -0.0000656702809193794 -0.00006568073005606117 -0.00006571216417270874
          -0.00005543435444452656 -0.000055439527910492246 -0.00005545482317801437 -0.000044154129048578624 -0.00004415753233296522 -0.00004416676658675841
          -0.0000538333024588338 -0.00005383862495777413 -0.00005385332549293752 -0.00005691782974073454 -0.000057727584380466636 -0.0000569238283991607
          -0.000057733447074939906 -0.00005694082964902883 -0.00005775165585249819 -0.00005538960354276342 -0.000055395103326481825 -0.00005540968064831029
          -0.00004671814058995155 -0.00004672208438989706 -0.00004673422091815782 -0.00004513648622386241 -0.00004513896698631193 -0.00004514448579076222
          -0.00002605242522101388 -0.000026051532016709423 -0.00002604811371414561 -0.000040229870433105094 -0.00004260194306931617 -0.00004023199720163967
          -0.000042605068264226394 -0.00004023804503735691 -0.000042614344268992006 -0.00002821197576059345 -0.000028211017531019494 -0.0000282067558934892
          -0.00004475002259511079 -0.00004475446486260571 -0.000044764809378299666 -0.0000563751136504931 -0.00005638092303695891 -0.00005639583533533488
          -0.0000445539149674455 -0.000044557353148750206 -0.00004456800093813207 -0.00003930003967259777 -0.00003930372613193097 -0.00003931452838568481
          -0.000042751082515031745 -0.00004275536840128649 -0.00004276774895374767 -0.00005642418144998147 -0.0000571638273474102 -0.00005642512813190914
          -0.00005716355899871327 -0.00005642675049772322 -0.000057164521949540775 -0.00006411510917172956 -0.00006587604298128508 -0.00006412425499924295
          -0.00006588764435806471 -0.00006415266736542958 -0.00006592645298180685 -0.00006004547367519188 -0.000060049445882622755 -0.00006006246779179652
          -0.000057961393649408984 -0.00005796582613050529 -0.000057978320424725456 -0.00002206208334064281 -0.00002205995881449744 -0.000022053985433309155
          -0.000055505807848721184 -0.00005699637131519141 -0.00005550655101171509 -0.000056997536842962333 -0.00005551043969615587 -0.000057001206315138874
          -0.0000652084245958902 -0.00006401041101033821 -0.00006431520631895617 -0.00006521908474058999 -0.00006401908839625311 -0.00006432330293890027
          -0.00006525960956076473 -0.00006404771992913739 -0.0000643445195721514 -0.00006321176079123255 -0.00006219978288160712 -0.00006321820536986287
          -0.00006220586872893892 -0.0000632442406150918 -0.00006222355311418049 -0.000058482229331677434 -0.00005848490705195576 -0.000058493359789676354
          -0.00006407694323526439 -0.00006408665674213593 -0.00006411251358539852 -0.00006568223680151068 -0.00006569327401236877 -0.00006572664555520868
          -0.000024625547262350314 -0.000024624108007902674 -0.000024618697141171397 -0.000052531800043630224 -0.000052533714626930826 -0.00005253765944761285
          -0.00003920725342104871 -0.00004011116890768293 -0.00003920947994804472 -0.00004011298732708669 -0.000039215170741756654 -0.00004011784878460766
          -0.00002374114280290182 -0.000023740152643033643 -0.000023737897756120095 -0.00003777394636106898 -0.00003558697604813788 -0.000035634524524671294
          -0.00003777577919645466 -0.00003558890545727277 -0.00003563652394899849 -0.00003778310785458309 -0.000035592546343995734 -0.00003564159518430831
          -0.00005276301076622132 -0.000053037224676906495 -0.000052766731291081445 -0.000053039537735638154 -0.00005277079428399919 -0.000053043847696019906
          -0.000022644445628979845 -0.000020842376735459867 -0.000022643007214667347 -0.000020842052049268278 -0.000022638940176299314 -0.00002083969133352334
          -0.000053040005185744406 -0.00005304129257989543 -0.00005304589649687902 -0.00003205042769751919 -0.00003213737886056856 -0.00003580281907993967
          -0.00003205268852960157 -0.00003213948092005574 -0.00003580644550361508 -0.00003205931707469876 -0.000032145798689590415 -0.000035816555132654455
          -0.000024855409579014515 -0.000024854924595069377 -0.000024853885228903466 -0.00003196114329537119 -0.000029532182746675548 -0.00003196262931903945
          -0.000029532378866230168 -0.00003196755847614232 -0.00002953206096727449 -0.00002851390073789323 -0.00002581452377291543 -0.0000285146663457804
          -0.000025814504788544908 -0.000028516624625094265 -0.000025815114565752443 -0.000034170158661551 -0.000034171717038549096 -0.00003417999371645499
          -0.000020252816002251706 -0.000020250591502406562 -0.000020243346012512654 -0.0000509055305941798 -0.00005090900684456084 -0.000050917989660223015
          -0.00004106462196737576 -0.000041067012302945 -0.000041073425817963875 -0.0000418123523547805 -0.000041815891454020674 -0.0000418263715970582
          -0.0000287507718171078 -0.000028752253561717638 -0.00002875792231895004 -0.000042266066362098486 -0.00003998019955508526 -0.000042269652733715106
          -0.0000399833757813732 -0.00004228302838602216 -0.00003999226382104119 -0.00004770097575459011 -0.00004907366810126412 -0.000047706074352508356
          -0.00004907700030547582 -0.00004772185427193849 -0.00004908785177528052 -0.00004874826950882549 -0.000048751858603742976 -0.00004876293066366524
          -0.000055594597718507254 -0.00005488734965088064 -0.000055596323413831565 -0.00005488762566901202 -0.00005559779439793111 -0.000054887552145091094
          -0.000019656996926630884 -0.000019654648938241853 -0.00001964688773789345 -0.00003907187671248109 -0.000035562908442086634 -0.00003907560894669802
          -0.000035566509128120466 -0.000039085629001454826 -0.00003557868619579292 -0.000021670730058312765 -0.000018976117607367427 -0.00002166859542299343
          -0.00001897395129252846 -0.00002166224789573461 -0.000018967630613249323 -0.000054067049464072564 -0.00005406641433314656 -0.000054064773120731066
          -0.000035696624513139436 -0.000035698748478502934 -0.000035704106967178126 -0.00004531071988626417 -0.00004531708706255394 -0.00004533674313398418
          -0.000042370514644119485 -0.000042374896371906846 -0.00004238918830816607 -0.000026933276865721936 -0.00002693263864600094 -0.00002692911866009722
          -0.00002431200402508165 -0.000024310142106314403 -0.00002430445131859126
        </DataArray>
        <DataArray type="Float64" Name="disp_z" format="ascii" RangeMin="-0.0000017037910503401636" RangeMax="0">
          0 0 0 0 -6.317247996408848e-7 -6.940807213727222e-7
          -6.778694783526452e-7 -6.163907876345697e-7 -0.0000012626186449525208 -0.0000013858703897652873 -0.0000013548742264743478 -0.0000012322503570714414
          0 0 0 0 -5.30334147593909e-7 -4.905896954913327e-7
          -4.999189232699658e-7 -5.49604158203143e-7 -0.0000010605281695338513 -9.801183811239173e-7 -9.99326643863765e-7 -0.0000010985247010513466
          0 -4.4927790155276393e-7 -8.989212235517578e-7 0 -4.4398933792435686e-7 -8.887341073193362e-7
          0 0 -6.490106714007139e-7 -5.993353018909775e-7 -0.0000012970725713443614 -0.00000119925246010671
          0 0 0 0 -8.118350268428503e-7 -8.241341678831035e-7
          -8.103996559439505e-7 -8.006196168303933e-7 -0.0000016223674621054268 -0.0000016473848328130554 -0.0000016196929900054902 -0.0000015999213094652708
          0 0 0 0 -5.979670186003804e-7 -6.275831283155812e-7
          -6.419120473310442e-7 -6.084847974635234e-7 -0.0000011943178672066683 -0.0000012548129075984177 -0.0000012835449700139489 -0.0000012165004212148608
          0 0 0 0 -5.184632009653453e-7 -5.501346434586689e-7
          -5.115427809713061e-7 -4.867111196811094e-7 -0.0000010366460140078535 -0.0000010993127025816593 -0.0000010222982825171929 -9.73246513143658e-7
          0 0 0 -8.168891687078708e-7 -8.107780888985218e-7 -8.163867467868229e-7
          -0.0000016336523979911238 -0.0000016208538716693312 -0.0000016327607456163444 0 0 0
          0 -7.750583617372861e-7 -7.995868757058531e-7 -7.977210286411881e-7 -7.587581742617489e-7 -0.0000015501261331422008
          -0.0000015976021854314978 -0.0000015949359871023273 -0.00000151719370161982 0 -7.231478303842132e-7 -0.0000014460257343949212
          0 0 -7.272854746979724e-7 -7.08424328015465e-7 -0.000001452168531172168 -0.0000014149500315074654
          0 0 0 -6.117837200021723e-7 -6.508673294997777e-7 -5.859665430947063e-7
          -0.0000012217236944415694 -0.0000013007391388168822 -0.0000011710157841837896 0 0 0
          0 -7.745786603455247e-7 -7.508460256741348e-7 -7.623268428911755e-7 -7.845869825300917e-7 -0.0000015476910194834512
          -0.0000015011195660401662 -0.00000152442860065579 -0.0000015684032986371335 0 0 0
          -6.869202628795212e-7 -6.540991303228662e-7 -6.819602098103033e-7 -0.000001373427499018544 -0.0000013079803891671144 -0.0000013622591267912673
          0 0 0 -6.177081616513876e-7 -6.244428156452936e-7 -5.815475247169689e-7
          -0.0000012341560050110133 -0.0000012478547350363838 -0.000001161411325086745 0 0 0
          0 -7.216527418866155e-7 -7.076501713271469e-7 -7.134182594963332e-7 -7.430257271488401e-7 -0.000001442953724354189
          -0.000001413075118965267 -0.0000014251722672193612 -0.0000014852024479477006 0 0 -7.77243786176814e-7
          -7.555868757074414e-7 -0.000001553508387582178 -0.0000015096711761447793 0 0 0
          -8.145648579030535e-7 -7.875414164805123e-7 -7.817791097276775e-7 -0.0000016280443895874782 -0.0000015758885412695181 -0.0000015635818222790932
          0 0 0 0 -7.57910378588677e-7 -7.64857947847361e-7
          -7.940924774998242e-7 -7.854889662357356e-7 -0.0000015154423976147328 -0.0000015286500550416214 -0.0000015865855186949185 -0.0000015701905478688363
          0 0 -4.957289914096568e-7 -5.147637961072642e-7 -9.889137013071212e-7 -0.0000010300206545987905
          0 0 -5.464980040271811e-7 -5.989665147752146e-7 -0.0000010915080606959117 -0.000001197987387454817
          0 0 -4.2058172928609226e-7 -4.321676551698923e-7 -8.420296639665332e-7 -8.649685780434599e-7
          0 0 0 0 -5.719625706923529e-7 -5.4221616764774e-7
          -5.670226186226353e-7 -6.07305632557463e-7 -0.000001146066352891967 -0.0000010865237882446818 -0.0000011352096710030703 -0.000001216397395967269
          0 0 -8.290910030604949e-7 -8.223170069364279e-7 -0.0000016572776358652123 -0.0000016447378579148277
          0 0 -8.286173512449324e-7 -8.13059930657129e-7 -0.0000016555055680916495 -0.0000016251303634323079
          0 0 -8.453236341322837e-7 -8.301693619118789e-7 -0.0000016885167551024917 -0.0000016583811893246666
          0 -5.542509732662079e-7 -0.0000011087108752702135 0 -7.685662537924266e-7 -0.0000015365247230819022
          0 0 0 0 -8.121616303841941e-7 -8.007274960536228e-7
          -7.825240443909439e-7 -7.988773918563344e-7 -0.0000016238789790121696 -0.0000016008076793836572 -0.0000015648751404940037 -0.000001598135673415035
          0 0 0 -8.005621718453275e-7 -7.907474441013952e-7 -8.084260787414109e-7
          -0.0000015998378409326557 -0.000001581009980547825 -0.0000016160496670879834 0 0 -8.44014030913571e-7
          -8.091840599914415e-7 -0.0000016848394341621916 -0.0000016159946882269435 0 -7.492291596939528e-7 -0.0000014993292537113157
          0 0 0 0 -4.5422265366369207e-7 -4.72828452526782e-7
          -4.838421163902698e-7 -4.674168551471515e-7 -9.083870121637986e-7 -9.45638615200005e-7 -9.686231982681685e-7 -9.352700155531934e-7
          0 -8.191783138332394e-7 -0.0000016379433412547316 0 -7.647670881737934e-7 -0.000001529952763794374
          0 -8.186969193746807e-7 -0.0000016369368537644336 0 0 -5.739145317643908e-7
          -5.446748801512038e-7 -0.000001147107375703669 -0.0000010905454145572191 0 0 -7.092352052602743e-7
          -7.092207449138456e-7 -0.0000014180333335841765 -0.0000014198707629994053 0 0 -8.446699311499358e-7
          -8.272844156395351e-7 -0.0000016867217947561333 -0.0000016529814434041004 0 0 -7.549191780286552e-7
          -7.462275492519816e-7 -0.0000015078565332519772 -0.0000014904527429446663 0 -7.772686566361791e-7 -0.0000015542137583301055
          0 0 -7.348944844555937e-7 -6.827079388943143e-7 -0.0000014678176105920924 -0.0000013645554475251893
          0 0 -7.475805472680439e-7 -7.294579818286087e-7 -0.0000014931617605032864 -0.0000014552798449418992
          0 -8.331022649879779e-7 -0.0000016642571750386898 0 -8.362859905830596e-7 -0.0000016719799719992267
          0 0 -7.224341541916649e-7 -7.257382708469371e-7 -0.000001443577904333215 -0.0000014488506885364254
          0 -8.350788632195814e-7 -0.0000016695626779736981 0 -7.41674694718029e-7 -0.0000014833046887800162
          0 0 -8.472316367883093e-7 -8.325855950506363e-7 -0.0000016929926190763424 -0.0000016648650529637096
          0 0 -7.949927573110065e-7 -7.852498896783556e-7 -0.0000015895679204557303 -0.0000015699519451622763
          0 0 0 -6.616082147975379e-7 -6.909553917794365e-7 -7.011739049788744e-7
          -0.00000132205628207563 -0.0000013808648992095992 -0.0000013995485455714676 0 0 0
          0 -7.323080978877378e-7 -7.12691197146642e-7 -7.415134815618703e-7 -7.688494299060267e-7 -0.00000146327940966668
          -0.0000014224803517715595 -0.0000014798551717378321 -0.0000015355072778656717 0 0 0
          0 -5.290266162809527e-7 -4.971025842436098e-7 -4.807587497047372e-7 -5.10743626527277e-7 -0.000001059305299020138
          -9.941088023695546e-7 -9.609055090732135e-7 -0.00000102174393182772 0 -8.532265423229621e-7 -0.0000017037910503401636
          0 0 -6.905417643591603e-7 -6.737406353052221e-7 -0.00000137992537683508 -0.0000013451258485836203
          0 0 -8.100579025002306e-7 -8.037507264292091e-7 -0.0000016200606802697453 -0.0000016064989475527573
          0 0 -6.496688999786384e-7 -6.190908214093247e-7 -0.0000012976664213636034 -0.000001237892742418064
          0 0 -5.348643659090941e-7 -5.63332876674924e-7 -0.0000010705685856268663 -0.000001127967114350798
          0 0 -5.130392296230321e-7 -4.865052540935812e-7 -0.0000010258412727071166 -9.723290270012989e-7
          0 -8.236463566761035e-7 -0.0000016463873647289832 0 -8.304296643661278e-7 -0.0000016599491041427717
          0 0 0 0 -5.750278979139081e-7 -5.344830041855754e-7
          -5.151498491744525e-7 -5.484503817715947e-7 -0.0000011497140869203708 -0.0000010695170490521137 -0.000001031782776155757 -0.000001097726779168415
          0 0 -8.200240262738597e-7 -8.240215815879596e-7 -0.0000016392865313200748 -0.0000016478706388477194
          0 0 0 0 -4.211883473343839e-7 -4.1779965818445267e-7
          -4.3043276347367076e-7 -4.221393962708646e-7 -8.424898757046649e-7 -8.357858755270709e-7 -8.61162994994429e-7 -8.441293555058301e-7
          0 0 0 -4.597107298440674e-7 -4.3653758721576105e-7 -4.6352171112798607e-7
          -9.19561627990474e-7 -8.734927168891705e-7 -9.266894492622302e-7 0 -5.731214879251119e-7 -0.0000011476289147610636
          0 0 -7.957464787420858e-7 -7.775389911179691e-7 -0.00000158977521641144 -0.000001553185275076436
          0 0 -7.493656705570795e-7 -7.051123608932125e-7 -0.0000014980586919282446 -0.0000014096856285702808
          0 -6.0249553431129e-7 -0.0000012044188447999991 0 -8.32065964185041e-7 -0.0000016636671147301843
          0 0 -6.355241848222962e-7 -6.878797706133061e-7 -0.0000012715153743066934 -0.000001374470910668761
          0 0 -4.432649593489442e-7 -4.224816948824425e-7 -8.860685821014177e-7 -8.451514560288297e-7
          0 0 -4.3888272134765186e-7 -4.497757096195372e-7 -8.770332079015799e-7 -8.993557055047368e-7
          0 0 0 -4.597277163285952e-7 -5.363942122077555e-7 -4.7477532673987233e-7
          -9.186653630727404e-7 -0.0000010716045227064603 -9.481451233301818e-7 0 0 -5.694731695311833e-7
          -6.037582764463298e-7 -0.0000011376705697828823 -0.0000012070201552768976 0 0 -4.6505033391926224e-7
          -4.719930434462831e-7 -9.286493566582799e-7 -9.430906567666341e-7 0 0 -5.614160141843556e-7
          -4.891386748291793e-7 -0.000001121038014680344 -9.758629003567221e-7 0 -4.5343771006690985e-7 -9.069225757478091e-7
          0 0 0 0 -5.147424882560962e-7 -5.048492364911201e-7
          -4.862938447406948e-7 -4.894165607319595e-7 -0.0000010285089208026185 -0.0000010099580898589267 -9.716070594089304e-7 -9.777852025597277e-7
          0 0 -4.749334218732594e-7 -4.872207822665997e-7 -9.4929761820408e-7 -9.741105278185139e-7
          0 -4.488498568150908e-7 -8.972051789940759e-7 0 -4.992656251753762e-7 -9.970407423710976e-7
          0 -6.232765374757274e-7 -0.0000012459979311547254 0 -5.824338365155957e-7 -0.000001166207249813445
          0 -6.629983093156671e-7 -0.0000013254548106755698 0 0 -6.386227167278927e-7
          -6.633840171987776e-7 -0.0000012768256084212101 -0.0000013251919029637095 0 -6.759352946360751e-7 -0.000001350616021680508
          0 -6.398310578730875e-7 -0.0000012811366137965807 0 -4.819792698908406e-7 -9.631634146980867e-7
          0 -8.15239030635015e-7 -0.0000016303031211741088 0 0 -7.244962392444776e-7
          -7.073310270854392e-7 -0.0000014472148753289715 -0.0000014133274810251591 0 -8.231794929891731e-7 -0.0000016462320624671832
          0 -6.942184130397907e-7 -0.0000013873206649833991 0 -6.911462378448324e-7 -0.0000013805101261871012
          0 -6.195353037750537e-7 -0.0000012412482445055804 0 -7.16980049782528e-7 -0.0000014345133349720466
          0 -6.870526903697558e-7 -0.0000013743055937306118 0 0 -4.68529147298507e-7
          -4.606948880208836e-7 -9.373455778623367e-7 -9.212674826012108e-7 0 0 -5.735929081080322e-7
          -4.911276000198389e-7 -0.0000011455155641787265 -9.797203095420653e-7 0 -5.359243739367324e-7 -0.0000010706838318792537
          0 -4.2842587378160234e-7 -8.565525725174439e-7 0 -7.950882099074274e-7 -0.0000015898346832501347
          0 0 -4.77909487697945e-7 -4.954163675525442e-7 -9.562371789780982e-7 -9.897311386342952e-7
          0 0 0 -4.860666517473163e-7 -5.501432835314007e-7 -4.925282597967718e-7
          -9.671229374470406e-7 -0.0000011008673828445962 -9.85689303369613e-7 0 0 -4.857736753789601e-7
          -5.27511144959363e-7 -9.678185751378512e-7 -0.000001056030819680169 0 -5.203704736870108e-7 -0.0000010405784818770162
          0 -5.559863956959088e-7 -0.0000011097069533912723 0 -4.99026314437444e-7 -9.96726313463519e-7
          0 -8.076969424002139e-7 -0.0000016150665924340467 0 -4.399132144549504e-7 -8.795264419216051e-7
          0 0 -4.563663072319707e-7 -4.986008969627401e-7 -9.122572394459383e-7 -9.97394029947341e-7
          0 -8.135281765874375e-7 -0.000001628224772688448 0 0 0
          -6.782472664385857e-7 -6.93323573831411e-7 -7.2131840937225e-7 -0.000001355294990576105 -0.0000013856002424847777 -0.0000014435869468909161
          0 0 -4.541804258335215e-7 -4.95066179987989e-7 -9.179767113147795e-7 -9.8820152732568e-7
          0 0 -8.06563742193946e-7 -8.0317434020051e-7 -0.0000016133599625118507 -0.0000016056493749121436
          0 -5.246184228452168e-7 -0.0000010507805841057218 0 0 0
          -7.848005543426235e-7 -7.763391451462218e-7 -7.534170835060899e-7 -0.0000015703053186783523 -0.0000015532525188846238 -0.0000015073205639183784
          0 -8.145498788287689e-7 -0.0000016297302210353438 0 0 -8.004845749816505e-7
          -8.189819503739648e-7 -0.0000015980123827407293 -0.0000016353401523539973 0 0 -8.128619414272357e-7
          -8.10409640067042e-7 -0.0000016254961397912347 -0.000001620245455533332 0 -7.794130312653096e-7 -0.0000015585627887868224
          0 -7.934450355278889e-7 -0.0000015866280679943003 0 -5.058198404467495e-7 -0.0000010121997232072094
          0 -5.49936640353454e-7 -0.000001100297597792538 0 -6.009857836301422e-7 -0.0000012021938727508743
          0 -8.074356688868539e-7 -0.0000016146806492570158 0 0 -6.499230943918886e-7
          -6.681444167811681e-7 -0.0000013000161686709763 -0.0000013352655669347989 0 0 -5.59518201321815e-7
          -5.277443889315159e-7 -0.0000011210234244423405 -0.0000010573407999251244 0 -5.171062525386629e-7 -0.0000010359442776187026
          0 0 -4.4630173298906756e-7 -4.5249385265298833e-7 -8.928105279899434e-7 -9.056788952096797e-7
          0 -7.848956230046013e-7 -0.0000015692009790747723 0 0 -6.946997686490895e-7
          -7.409323766620684e-7 -0.00000138951739101271 -0.0000014816476100203595 0 0 -7.845959999511098e-7
          -7.75443561124145e-7 -0.0000015687915790546736 -0.0000015506040815998337 0 -4.540617606477511e-7 -9.082022255929645e-7
          0 -7.331765043662113e-7 -0.0000014655511029018799 0 -6.057945701072789e-7 -0.0000012122449324744659
          0 -6.724097097921742e-7 -0.0000013442534402876698 0 -8.096996479424717e-7 -0.0000016172596487590236
          0 -8.012642123240381e-7 -0.0000016015395042161403
        </DataArray>
      </PointData>
      <CellData>
        <DataArray type="Int32" Name="libmesh_elem_id" format="ascii" RangeMin="1380" RangeMax="3259">
          1380 1381 1412 1413 1414 1415
          1416 1417 1428 1429 1430 1431
          1438 1439 1440 1441 1464 1465
          1472 1473 1480 1481 1484 1485
          1488 1489 1490 1491 1492 1493
          1496 1497 1516 1517 1534 1535
          1538 1539 1544 1545 1548 1549
          1556 1557 1562 1563 1568 1569
          1574 1575 1576 1577 1604 1605
          1610 1611 1620 1621 1626 1627
          1632 1633 1640 1641 1642 1643
          1644 1645 1646 1647 1660 1661
          1664 1665 1666 1667 1668 1669
          1670 1671 1674 1675 1676 1677
          1688 1689 1690 1691 1692 1693
          1694 1695 1706 1707 1716 1717
          1720 1721 1724 1725 1732 1733
          1736 1737 1738 1739 1742 1743
          1744 1745 1756 1757 1758 1759
          1768 1769 1776 1777 1780 1781
          1784 1785 1786 1787 1788 1789
          1792 1793 1796 1797 1800 1801
          1806 1807 1808 1809 1812 1813
          1820 1821 1822 1823 1826 1827
          1842 1843 1844 1845 1860 1861
          1870 1871 1886 1887 1898 1899
          1912 1913 1934 1935 1938 1939
          1940 1941 1954 1955 1958 1959
          1962 1963 1964 1965 1966 1967
          1974 1975 1976 1977 1978 1979
          1980 1981 1984 1985 1990 1991
          1992 1993 1994 1995 2002 2003
          2012 2013 2016 2017 2022 2023
          2032 2033 2034 2035 2036 2037
          2042 2043 2056 2057 2066 2067
          2072 2073 2076 2077 2080 2081
          2086 2087 2090 2091 2094 2095
          2098 2099 2104 2105 2108 2109
          2114 2115 2118 2119 2122 2123
          2142 2143 2152 2153 2156 2157
          2168 2169 2172 2173 2174 2175
          2182 2183 2188 2189 2190 2191
          2192 2193 2194 2195 2198 2199
          2210 2211 2240 2241 2272 2273
          2280 2281 2300 2301 2322 2323
          2326 2327 2338 2339 2376 2377
          2378 2379 2380 2381 2384 2385
          2386 2387 2388 2389 2394 2395
          2428 2429 2438 2439 2446 2447
          2454 2455 2492 2493 2508 2509
          2514 2515 2516 2517 2528 2529
          2536 2537 2538 2539 2544 2545
          2548 2549 2552 2553 2576 2577
          2604 2605 2606 2607 2614 2615
          2618 2619 2626 2627 2630 2631
          2632 2633 2652 2653 2654 2655
          2674 2675 2676 2677 2686 2687
          2692 2693 2698 2699 2706 2707
          2712 2713 2718 2719 2728 2729
          2730 2731 2732 2733 2744 2745
          2752 2753 2758 2759 2770 2771
          2784 2785 2786 2787 2792 2793
          2812 2813 2816 2817 2818 2819
          2820 2821 2842 2843 2856 2857
          2866 2867 2882 2883 2894 2895
          2900 2901 2906 2907 2914 2915
          2942 2943 2970 2971 2976 2977
          2992 2993 3010 3011 3012 3013
          3016 3017 3046 3047 3056 3057
          3058 3059 3070 3071 3078 3079
          3084 3085 3094 3095 3098 3099
          3118 3119 3122 3123 3128 3129
          3134 3135 3152 3153 3180 3181
          3192 3193 3196 3197 3200 3201
          3202 3203 3214 3215 3244 3245
          3248 3249 3258 3259
        </DataArray>
        <DataArray type="Int32" Name="subdomain_id" format="ascii" RangeMin="107" RangeMax="107">
          107 107 107 107 107 107
          107 107 107 107 107 107
          107 107 107 107 107 107
          107 107 107 107 107 107
          107 107 107 107 107 107
          107 107 107 107 107 107
          107 107 107 107 107 107
          107 107 107 107 107 107
          107 107 107 107 107 107
          107 107 107 107 107 107
          107 107 107 107 107 107
          107 107 107 107 107 107
          107 107 107 107 107 107
          107 107 107 107 107 107
          107 107 107 107 107 107
          107 107 107 107 107 107
          107 107 107 107 107 107
          107 107 107 107 107 107
          107 107 107 107 107 107
          107 107 107 107 107 107
          107 107 107 107 107 107
          107 107 107 107 107 107
          107 107 107 107 107 107
          107 107 107 107 107 107
          107 107 107 107 107 107
          107 107 107 107 107 107
          107 107 107 107 107 107
          107 107 107 107 107 107
          107 107 107 107 107 107
          107 107 107 107 107 107
          107 107 107 107 107 107
          107 107 107 107 107 107
          107 107 107 107 107 107
          107 107 107 107 107 107
          107 107 107 107 107 107
          107 107 107 107 107 107
          107 107 107 107 107 107
          107 107 107 107 107 107
          107 107 107 107 107 107
          107 107 107 107 107 107
          107 107 107 107 107 107
          107 107 107 107 107 107
          107 107 107 107 107 107
          107 107 107 107 107 107
          107 107 107 107 107 107
          107 107 107 107 107 107
          107 107 107 107 107 107
          107 107 107 107 107 107
          107 107 107 107 107 107
          107 107 107 107 107 107
          107 107 107 107 107 107
          107 107 107 107 107 107
          107 107 107 107 107 107
          107 107 107 107 107 107
          107 107 107 107 107 107
          107 107 107 107 107 107
          107 107 107 107 107 107
          107 107 107 107 107 107
          107 107 107 107 107 107
          107 107 107 107 107 107
          107 107 107 107 107 107
          107 107 107 107 107 107
          107 107 107 107 107 107
          107 107 107 107 107 107
          107 107 107 107 107 107
          107 107 107 107 107 107
          107 107 107 107 107 107
          107 107 107 107 107 107
          107 107 107 107 107 107
          107 107 107 107 107 107
          107 107 107 107 107 107
          107 107 107 107 107 107
          107 107 107 107 107 107
          107 107 107 107 107 107
          107 107 107 107 107 107
          107 107 107 107
        </DataArray>
        <DataArray type="Int32" Name="processor_id" format="ascii" RangeMin="3" RangeMax="3">
          3 3 3 3 3 3
          3 3 3 3 3 3
          3 3 3 3 3 3
          3 3 3 3 3 3
          3 3 3 3 3 3
          3 3 3 3 3 3
          3 3 3 3 3 3
          3 3 3 3 3 3
          3 3 3 3 3 3
          3 3 3 3 3 3
          3 3 3 3 3 3
          3 3 3 3 3 3
          3 3 3 3 3 3
          3 3 3 3 3 3
          3 3 3 3 3 3
          3 3 3 3 3 3
          3 3 3 3 3 3
          3 3 3 3 3 3
          3 3 3 3 3 3
          3 3 3 3 3 3
          3 3 3 3 3 3
          3 3 3 3 3 3
          3 3 3 3 3 3
          3 3 3 3 3 3
          3 3 3 3 3 3
          3 3 3 3 3 3
          3 3 3 3 3 3
          3 3 3 3 3 3
          3 3 3 3 3 3
          3 3 3 3 3 3
          3 3 3 3 3 3
          3 3 3 3 3 3
          3 3 3 3 3 3
          3 3 3 3 3 3
          3 3 3 3 3 3
          3 3 3 3 3 3
          3 3 3 3 3 3
          3 3 3 3 3 3
          3 3 3 3 3 3
          3 3 3 3 3 3
          3 3 3 3 3 3
          3 3 3 3 3 3
          3 3 3 3 3 3
          3 3 3 3 3 3
          3 3 3 3 3 3
          3 3 3 3 3 3
          3 3 3 3 3 3
          3 3 3 3 3 3
          3 3 3 3 3 3
          3 3 3 3 3 3
          3 3 3 3 3 3
          3 3 3 3 3 3
          3 3 3 3 3 3
          3 3 3 3 3 3
          3 3 3 3 3 3
          3 3 3 3 3 3
          3 3 3 3 3 3
          3 3 3 3 3 3
          3 3 3 3 3 3
          3 3 3 3 3 3
          3 3 3 3 3 3
          3 3 3 3 3 3
          3 3 3 3 3 3
          3 3 3 3 3 3
          3 3 3 3 3 3
          3 3 3 3 3 3
          3 3 3 3 3 3
          3 3 3 3 3 3
          3 3 3 3 3 3
          3 3 3 3 3 3
          3 3 3 3 3 3
          3 3 3 3 3 3
          3 3 3 3 3 3
          3 3 3 3 3 3
          3 3 3 3 3 3
          3 3 3 3
        </DataArray>
      </CellData>
      <Points>
        <DataArray type="Float64" Name="Points" NumberOfComponents="3" format="ascii" RangeMin="0.013166738443807365" RangeMax="0.02374822585851783">
          0.016451229180203 0.011589607556601 0 0.016255198485848 0.011015934042219 0
          0.016728572005863 0.010757201031786 0 0.017039955631379 0.011194422572054 0
          0.016451229180203 0.011589607556601 0.00015 0.016255198485848 0.011015934042219 0.00015
          0.016728572005863 0.010757201031786 0.00015 0.017039955631379 0.011194422572054 0.00015
          0.016451229180203 0.011589607556601 0.0003 0.016255198485848 0.011015934042219 0.0003
          0.016728572005863 0.010757201031786 0.0003 0.017039955631379 0.011194422572054 0.0003
          0.011186406523754 0.0095188731742926 0 0.010689703280164 0.0094649590365737 0
          0.010634679710187 0.008964429555675 0 0.011131650337527 0.0089687060727404 0
          0.011186406523754 0.0095188731742926 0.00015 0.010689703280164 0.0094649590365737 0.00015
          0.010634679710187 0.008964429555675 0.00015 0.011131650337527 0.0089687060727404 0.00015
          0.011186406523754 0.0095188731742926 0.0003 0.010689703280164 0.0094649590365737 0.0003
          0.010634679710187 0.008964429555675 0.0003 0.011131650337527 0.0089687060727404 0.0003
          0.010158980545183 0.0089928081418126 0 0.010158980545183 0.0089928081418126 0.00015
          0.010158980545183 0.0089928081418126 0.0003 0.010234809282542 0.0094751596931164 0
          0.010234809282542 0.0094751596931164 0.00015 0.010234809282542 0.0094751596931164 0.0003
          0.017215305681839 0.010421173498473 0 0.017538322616078 0.010852535251392 0
          0.017215305681839 0.010421173498473 0.00015 0.017538322616078 0.010852535251392 0.00015
          0.017215305681839 0.010421173498473 0.0003 0.017538322616078 0.010852535251392 0.0003
          0.015522227276376 0.0083950727535023 0 0.015339273065407 0.0078314073000753 0
          0.015832583415208 0.0077039482324782 0 0.015871156677641 0.0080932538621961 0
          0.015522227276376 0.0083950727535023 0.00015 0.015339273065407 0.0078314073000753 0.00015
          0.015832583415208 0.0077039482324782 0.00015 0.015871156677641 0.0080932538621961 0.00015
          0.015522227276376 0.0083950727535023 0.0003 0.015339273065407 0.0078314073000753 0.0003
          0.015832583415208 0.0077039482324782 0.0003 0.015871156677641 0.0080932538621961 0.0003
          0.014182404182597 0.012030933394166 0 0.014112697634716 0.011586899500601 0
          0.01453762000082 0.011541498939039 0 0.014647727851392 0.011956202120878 0
          0.014182404182597 0.012030933394166 0.00015 0.014112697634716 0.011586899500601 0.00015
          0.01453762000082 0.011541498939039 0.00015 0.014647727851392 0.011956202120878 0.00015
          0.014182404182597 0.012030933394166 0.0003 0.014112697634716 0.011586899500601 0.0003
          0.01453762000082 0.011541498939039 0.0003 0.014647727851392 0.011956202120878 0.0003
          0.012718807262617 0.012100913225318 0 0.01318790653826 0.012081424726463 0
          0.013223560157694 0.012548837560718 0 0.012721969255655 0.012547975923311 0
          0.012718807262617 0.012100913225318 0.00015 0.01318790653826 0.012081424726463 0.00015
          0.013223560157694 0.012548837560718 0.00015 0.012721969255655 0.012547975923311 0.00015
          0.012718807262617 0.012100913225318 0.0003 0.01318790653826 0.012081424726463 0.0003
          0.013223560157694 0.012548837560718 0.0003 0.012721969255655 0.012547975923311 0.0003
          0.015037276113604 0.0053883886132418 0 0.014872829902632 0.0048660088618751 0
          0.015610482342583 0.0052949834846695 0 0.015037276113604 0.0053883886132418 0.00015
          0.014872829902632 0.0048660088618751 0.00015 0.015610482342583 0.0052949834846695 0.00015
          0.015037276113604 0.0053883886132418 0.0003 0.014872829902632 0.0048660088618751 0.0003
          0.015610482342583 0.0052949834846695 0.0003 0.012853333735139 0.0071862564407273 0
          0.013298874998351 0.0073010052974168 0 0.013468505581478 0.0077481198485017 0
          0.012879769579272 0.0077824950988095 0 0.012853333735139 0.0071862564407273 0.00015
          0.013298874998351 0.0073010052974168 0.00015 0.013468505581478 0.0077481198485017 0.00015
          0.012879769579272 0.0077824950988095 0.00015 0.012853333735139 0.0071862564407273 0.0003
          0.013298874998351 0.0073010052974168 0.0003 0.013468505581478 0.0077481198485017 0.0003
          0.012879769579272 0.0077824950988095 0.0003 0.012310751390795 0.0073009210446318 0
          0.012310751390795 0.0073009210446318 0.00015 0.012310751390795 0.0073009210446318 0.0003
          0.016440539131042 0.010340248821358 0 0.016895401758078 0.0099970418145034 0
          0.016440539131042 0.010340248821358 0.00015 0.016895401758078 0.0099970418145034 0.00015
          0.016440539131042 0.010340248821358 0.0003 0.016895401758078 0.0099970418145034 0.0003
          0.015674284513358 0.012057735082989 0 0.015799992883172 0.011590312491375 0
          0.01620648935985 0.012173309797103 0 0.015674284513358 0.012057735082989 0.00015
          0.015799992883172 0.011590312491375 0.00015 0.01620648935985 0.012173309797103 0.00015
          0.015674284513358 0.012057735082989 0.0003 0.015799992883172 0.011590312491375 0.0003
          0.01620648935985 0.012173309797103 0.0003 0.015719396244314 0.0096761034796614 0
          0.015317179218416 0.010039615829248 0 0.014916285335657 0.0096823062625427 0
          0.015356151892906 0.0093633130446295 0 0.015719396244314 0.0096761034796614 0.00015
          0.015317179218416 0.010039615829248 0.00015 0.014916285335657 0.0096823062625427 0.00015
          0.015356151892906 0.0093633130446295 0.00015 0.015719396244314 0.0096761034796614 0.0003
          0.015317179218416 0.010039615829248 0.0003 0.014916285335657 0.0096823062625427 0.0003
          0.015356151892906 0.0093633130446295 0.0003 0.014911939516014 0.011080222539295 0
          0.01492908374418 0.011511002202991 0 0.014470673144967 0.011122308960465 0
          0.014911939516014 0.011080222539295 0.00015 0.01492908374418 0.011511002202991 0.00015
          0.014470673144967 0.011122308960465 0.00015 0.014911939516014 0.011080222539295 0.0003
          0.01492908374418 0.011511002202991 0.0003 0.014470673144967 0.011122308960465 0.0003
          0.014927498433442 0.011816834084778 0 0.015214955739546 0.01195124117686 0
          0.014868481741766 0.012398226678167 0 0.014927498433442 0.011816834084778 0.00015
          0.015214955739546 0.01195124117686 0.00015 0.014868481741766 0.012398226678167 0.00015
          0.014927498433442 0.011816834084778 0.0003 0.015214955739546 0.01195124117686 0.0003
          0.014868481741766 0.012398226678167 0.0003 0.014887382940214 0.010512753679506 0
          0.01433465747601 0.010724165901292 0 0.014030150330029 0.010370439204794 0
          0.01444626395613 0.010022024912649 0 0.014887382940214 0.010512753679506 0.00015
          0.01433465747601 0.010724165901292 0.00015 0.014030150330029 0.010370439204794 0.00015
          0.01444626395613 0.010022024912649 0.00015 0.014887382940214 0.010512753679506 0.0003
          0.01433465747601 0.010724165901292 0.0003 0.014030150330029 0.010370439204794 0.0003
          0.01444626395613 0.010022024912649 0.0003 0.013388886812482 0.0083497293814167 0
          0.012899574253998 0.0083038014764745 0 0.013388886812482 0.0083497293814167 0.00015
          0.012899574253998 0.0083038014764745 0.00015 0.013388886812482 0.0083497293814167 0.0003
          0.012899574253998 0.0083038014764745 0.0003 0.015784016264429 0.0071345425111119 0
          0.016328429431772 0.0071626451349231 0 0.016328043288569 0.0077322573762078 0
          0.015784016264429 0.0071345425111119 0.00015 0.016328429431772 0.0071626451349231 0.00015
          0.016328043288569 0.0077322573762078 0.00015 0.015784016264429 0.0071345425111119 0.0003
          0.016328429431772 0.0071626451349231 0.0003 0.016328043288569 0.0077322573762078 0.0003
          0.016727166785252 0.0084386331054829 0 0.01644772366367 0.0089064975551763 0
          0.016002189190704 0.0086574712541786 0 0.016221340977963 0.0082297464535469 0
          0.016727166785252 0.0084386331054829 0.00015 0.01644772366367 0.0089064975551763 0.00015
          0.016002189190704 0.0086574712541786 0.00015 0.016221340977963 0.0082297464535469 0.00015
          0.016727166785252 0.0084386331054829 0.0003 0.01644772366367 0.0089064975551763 0.0003
          0.016002189190704 0.0086574712541786 0.0003 0.016221340977963 0.0082297464535469 0.0003
          0.018901908985383 0.011783468628847 0 0.018328257152057 0.011560564570719 0
          0.018901908985383 0.011783468628847 0.00015 0.018328257152057 0.011560564570719 0.00015
          0.018901908985383 0.011783468628847 0.0003 0.018328257152057 0.011560564570719 0.0003
          0.016817438697449 0.012401495631919 0 0.016895899239308 0.011880939878953 0
          0.016817438697449 0.012401495631919 0.00015 0.016895899239308 0.011880939878953 0.00015
          0.016817438697449 0.012401495631919 0.0003 0.016895899239308 0.011880939878953 0.0003
          0.010475172867508 0.012102844227475 0 0.010669582432454 0.011743114144408 0
          0.010475172867508 0.012102844227475 0.00015 0.010669582432454 0.011743114144408 0.00015
          0.010475172867508 0.012102844227475 0.0003 0.010669582432454 0.011743114144408 0.0003
          0.018198082784875 0.0097658337520035 0 0.018455934862008 0.010221918525687 0
          0.018019877493881 0.01050989807829 0 0.017698489924893 0.010066971919266 0
          0.018198082784875 0.0097658337520035 0.00015 0.018455934862008 0.010221918525687 0.00015
          0.018019877493881 0.01050989807829 0.00015 0.017698489924893 0.010066971919266 0.00015
          0.018198082784875 0.0097658337520035 0.0003 0.018455934862008 0.010221918525687 0.0003
          0.018019877493881 0.01050989807829 0.0003 0.017698489924893 0.010066971919266 0.0003
          0.015096658749896 0.0059763609132825 0 0.015666288430535 0.0059190759170471 0
          0.015096658749896 0.0059763609132825 0.00015 0.015666288430535 0.0059190759170471 0.00015
          0.015096658749896 0.0059763609132825 0.0003 0.015666288430535 0.0059190759170471 0.0003
          0.013546901289865 0.0069836782833127 0 0.013134929749538 0.0067248500217048 0
          0.013546901289865 0.0069836782833127 0.00015 0.013134929749538 0.0067248500217048 0.00015
          0.013546901289865 0.0069836782833127 0.0003 0.013134929749538 0.0067248500217048 0.0003
          0.013831418153218 0.0064982603089606 0 0.013338214474932 0.0062766362868091 0
          0.013831418153218 0.0064982603089606 0.00015 0.013338214474932 0.0062766362868091 0.00015
          0.013831418153218 0.0064982603089606 0.0003 0.013338214474932 0.0062766362868091 0.0003
          0.017908784385217 0.011229685010797 0 0.017908784385217 0.011229685010797 0.00015
          0.017908784385217 0.011229685010797 0.0003 0.017460830811305 0.0067242961174433 0
          0.017460830811305 0.0067242961174433 0.00015 0.017460830811305 0.0067242961174433 0.0003
          0.016232724398465 0.0059010997942707 0 0.016810957053741 0.0059693958220605 0
          0.016865945400018 0.0066157033945985 0 0.016287343165999 0.0065221003589061 0
          0.016232724398465 0.0059010997942707 0.00015 0.016810957053741 0.0059693958220605 0.00015
          0.016865945400018 0.0066157033945985 0.00015 0.016287343165999 0.0065221003589061 0.00015
          0.016232724398465 0.0059010997942707 0.0003 0.016810957053741 0.0059693958220605 0.0003
          0.016865945400018 0.0066157033945985 0.0003 0.016287343165999 0.0065221003589061 0.0003
          0.015434451036398 0.0088351663483508 0 0.015091649000167 0.0090065479673052 0
          0.0149386527618 0.008562942865766 0 0.015434451036398 0.0088351663483508 0.00015
          0.015091649000167 0.0090065479673052 0.00015 0.0149386527618 0.008562942865766 0.00015
          0.015434451036398 0.0088351663483508 0.0003 0.015091649000167 0.0090065479673052 0.0003
          0.0149386527618 0.008562942865766 0.0003 0.013851103268646 0.0079817773379183 0
          0.013864053371773 0.0083733293390323 0 0.013851103268646 0.0079817773379183 0.00015
          0.013864053371773 0.0083733293390323 0.00015 0.013851103268646 0.0079817773379183 0.0003
          0.013864053371773 0.0083733293390323 0.0003 0.016873832756735 0.0078915607150548 0
          0.016873832756735 0.0078915607150548 0.00015 0.016873832756735 0.0078915607150548 0.0003
          0.011740832768399 0.012550565772382 0 0.011781425344485 0.012080160842703 0
          0.012267797740114 0.012087686226532 0 0.012238354096222 0.012547223275944 0
          0.011740832768399 0.012550565772382 0.00015 0.011781425344485 0.012080160842703 0.00015
          0.012267797740114 0.012087686226532 0.00015 0.012238354096222 0.012547223275944 0.00015
          0.011740832768399 0.012550565772382 0.0003 0.011781425344485 0.012080160842703 0.0003
          0.012267797740114 0.012087686226532 0.0003 0.012238354096222 0.012547223275944 0.0003
          0.015724816214821 0.0065169349202822 0 0.015724816214821 0.0065169349202822 0.00015
          0.015724816214821 0.0065169349202822 0.0003 0.016904663245172 0.0072759580116152 0
          0.016904663245172 0.0072759580116152 0.00015 0.016904663245172 0.0072759580116152 0.0003
          0.016212759806586 0.0053000490100875 0 0.016212759806586 0.0053000490100875 0.00015
          0.016212759806586 0.0053000490100875 0.0003 0.017422284858474 0.011679101640391 0
          0.017908527792884 0.011814582379248 0 0.017422284858474 0.011679101640391 0.00015
          0.017908527792884 0.011814582379248 0.00015 0.017422284858474 0.011679101640391 0.0003
          0.017908527792884 0.011814582379248 0.0003 0.017261702763099 0.0086939606584207 0
          0.017434489396122 0.0080779876667089 0 0.017261702763099 0.0086939606584207 0.00015
          0.017434489396122 0.0080779876667089 0.00015 0.017261702763099 0.0086939606584207 0.0003
          0.017434489396122 0.0080779876667089 0.0003 0.014181033506022 0.0077713348891544 0
          0.014325604474543 0.0082610969383043 0 0.014181033506022 0.0077713348891544 0.00015
          0.014325604474543 0.0082610969383043 0.00015 0.014181033506022 0.0077713348891544 0.0003
          0.014325604474543 0.0082610969383043 0.0003 0.016099115219063 0.0099899847281115 0
          0.016520689982407 0.0096278486407962 0 0.016099115219063 0.0099899847281115 0.00015
          0.016520689982407 0.0096278486407962 0.00015 0.016099115219063 0.0099899847281115 0.0003
          0.016520689982407 0.0096278486407962 0.0003 0.014613026918956 0.0092413149543641 0
          0.014613026918956 0.0092413149543641 0.00015 0.014613026918956 0.0092413149543641 0.0003
          0.016937453954769 0.0092095292918499 0 0.017364558514239 0.0096012653805297 0
          0.016937453954769 0.0092095292918499 0.00015 0.017364558514239 0.0096012653805297 0.00015
          0.016937453954769 0.0092095292918499 0.0003 0.017364558514239 0.0096012653805297 0.0003
          0.015712843676617 0.010331364913168 0 0.016032046384524 0.010629553115583 0
          0.015712843676617 0.010331364913168 0.00015 0.016032046384524 0.010629553115583 0.00015
          0.015712843676617 0.010331364913168 0.0003 0.016032046384524 0.010629553115583 0.0003
          0.01346343572409 0.0057857389411653 0 0.01346343572409 0.0057857389411653 0.00015
          0.01346343572409 0.0057857389411653 0.0003 0.015150761096164 0.0066142159223768 0
          0.015150761096164 0.0066142159223768 0.00015 0.015150761096164 0.0066142159223768 0.0003
          0.015453261139866 0.010697023165802 0 0.015761290368715 0.010819971207646 0
          0.015453261139866 0.010697023165802 0.00015 0.015761290368715 0.010819971207646 0.00015
          0.015453261139866 0.010697023165802 0.0003 0.015761290368715 0.010819971207646 0.0003
          0.013975551316416 0.0059398855735222 0 0.013975551316416 0.0059398855735222 0.00015
          0.013975551316416 0.0059398855735222 0.0003 0.017479032913359 0.0074088673936633 0
          0.017479032913359 0.0074088673936633 0.00015 0.017479032913359 0.0074088673936633 0.0003
          0.014439802315681 0.0067889662935499 0 0.014530319307898 0.006021518089632 0
          0.014439802315681 0.0067889662935499 0.00015 0.014530319307898 0.006021518089632 0.00015
          0.014439802315681 0.0067889662935499 0.0003 0.014530319307898 0.006021518089632 0.0003
          0.014431521900925 0.0087663339265048 0 0.013899975831329 0.0088854517032459 0
          0.014431521900925 0.0087663339265048 0.00015 0.013899975831329 0.0088854517032459 0.00015
          0.014431521900925 0.0087663339265048 0.0003 0.013899975831329 0.0088854517032459 0.0003
          0.015334349753872 0.011547922560075 0 0.015363465895193 0.011114260619116 0
          0.015801980011793 0.011137474992711 0 0.015334349753872 0.011547922560075 0.00015
          0.015363465895193 0.011114260619116 0.00015 0.015801980011793 0.011137474992711 0.00015
          0.015334349753872 0.011547922560075 0.0003 0.015363465895193 0.011114260619116 0.0003
          0.015801980011793 0.011137474992711 0.0003 0.01326617738197 0.0093680808515997 0
          0.012793423392144 0.00921210926252 0 0.012882512800283 0.0087881474090036 0
          0.013365259810227 0.0088714473068585 0 0.01326617738197 0.0093680808515997 0.00015
          0.012793423392144 0.00921210926252 0.00015 0.012882512800283 0.0087881474090036 0.00015
          0.013365259810227 0.0088714473068585 0.00015 0.01326617738197 0.0093680808515997 0.0003
          0.012793423392144 0.00921210926252 0.0003 0.012882512800283 0.0087881474090036 0.0003
          0.013365259810227 0.0088714473068585 0.0003 0.011993243876189 0.010936510200926 0
          0.011726815341297 0.011491075647124 0 0.011222013645511 0.011097826594996 0
          0.011481744371717 0.010688234667639 0 0.011993243876189 0.010936510200926 0.00015
          0.011726815341297 0.011491075647124 0.00015 0.011222013645511 0.011097826594996 0.00015
          0.011481744371717 0.010688234667639 0.00015 0.011993243876189 0.010936510200926 0.0003
          0.011726815341297 0.011491075647124 0.0003 0.011222013645511 0.011097826594996 0.0003
          0.011481744371717 0.010688234667639 0.0003 0.013923252507151 0.0073329122207352 0
          0.013923252507151 0.0073329122207352 0.00015 0.013923252507151 0.0073329122207352 0.0003
          0.013063793506476 0.0098271989985527 0 0.012601634550352 0.009590277262082 0
          0.013063793506476 0.0098271989985527 0.00015 0.012601634550352 0.009590277262082 0.00015
          0.013063793506476 0.0098271989985527 0.0003 0.012601634550352 0.009590277262082 0.0003
          0.014102855237989 0.0047969187863067 0 0.013905759673286 0.0043612537888552 0
          0.014102855237989 0.0047969187863067 0.00015 0.013905759673286 0.0043612537888552 0.00015
          0.014102855237989 0.0047969187863067 0.0003 0.013905759673286 0.0043612537888552 0.0003
          0.012852488428802 0.010265076045094 0 0.012374691983482 0.010000797580735 0
          0.012852488428802 0.010265076045094 0.00015 0.012374691983482 0.010000797580735 0.00015
          0.012852488428802 0.010265076045094 0.0003 0.012374691983482 0.010000797580735 0.0003
          0.011668611956603 0.010219239111219 0 0.012182731119778 0.010462377133106 0
          0.011668611956603 0.010219239111219 0.00015 0.012182731119778 0.010462377133106 0.00015
          0.011668611956603 0.010219239111219 0.0003 0.012182731119778 0.010462377133106 0.0003
          0.011158560753842 0.010029990414111 0 0.011017968815575 0.010465683342369 0
          0.011158560753842 0.010029990414111 0.00015 0.011017968815575 0.010465683342369 0.00015
          0.011158560753842 0.010029990414111 0.0003 0.011017968815575 0.010465683342369 0.0003
          0.014820390261339 0.0080402105998384 0 0.014820390261339 0.0080402105998384 0.00015
          0.014820390261339 0.0080402105998384 0.0003 0.015228397699353 0.0072512250897894 0
          0.015228397699353 0.0072512250897894 0.00015 0.015228397699353 0.0072512250897894 0.0003
          0.0130361735465 0.011522072885309 0 0.012689359184487 0.011761634268536 0
          0.012340499111532 0.011632501505239 0 0.012497431968462 0.011183651982421 0
          0.0130361735465 0.011522072885309 0.00015 0.012689359184487 0.011761634268536 0.00015
          0.012340499111532 0.011632501505239 0.00015 0.012497431968462 0.011183651982421 0.00015
          0.0130361735465 0.011522072885309 0.0003 0.012689359184487 0.011761634268536 0.0003
          0.012340499111532 0.011632501505239 0.0003 0.012497431968462 0.011183651982421 0.0003
          0.013528941600065 0.0052742966774397 0 0.014027103455945 0.0053875982273864 0
          0.013528941600065 0.0052742966774397 0.00015 0.014027103455945 0.0053875982273864 0.00015
          0.013528941600065 0.0052742966774397 0.0003 0.014027103455945 0.0053875982273864 0.0003
          0.010128205128219 0.013 0 0.010310686327751 0.012539165738252 0
          0.010788384596096 0.012564579045747 0 0.01064102564104 0.013 0
          0.010128205128219 0.013 0.00015 0.010310686327751 0.012539165738252 0.00015
          0.010788384596096 0.012564579045747 0.00015 0.01064102564104 0.013 0.00015
          0.010128205128219 0.013 0.0003 0.010310686327751 0.012539165738252 0.0003
          0.010788384596096 0.012564579045747 0.0003 0.01064102564104 0.013 0.0003
          0.010783127360108 0.010836567412064 0 0.010385522435479 0.010608007769118 0
          0.010601303654319 0.010290632654442 0 0.010783127360108 0.010836567412064 0.00015
          0.010385522435479 0.010608007769118 0.00015 0.010601303654319 0.010290632654442 0.00015
          0.010783127360108 0.010836567412064 0.0003 0.010385522435479 0.010608007769118 0.0003
          0.010601303654319 0.010290632654442 0.0003 0.011818930007254 0.009602160287834 0
          0.011818930007254 0.009602160287834 0.00015 0.011818930007254 0.009602160287834 0.0003
          0.015715008716269 0.0090308288850156 0 0.01610853428864 0.0093166480881369 0
          0.015715008716269 0.0090308288850156 0.00015 0.01610853428864 0.0093166480881369 0.00015
          0.015715008716269 0.0090308288850156 0.0003 0.01610853428864 0.0093166480881369 0.0003
          0.013952831965685 0.0095243725467762 0 0.013572358856734 0.010071658883703 0
          0.013952831965685 0.0095243725467762 0.00015 0.013572358856734 0.010071658883703 0.00015
          0.013952831965685 0.0095243725467762 0.0003 0.013572358856734 0.010071658883703 0.0003
          0.012677817340078 0.010719835797972 0 0.012677817340078 0.010719835797972 0.00015
          0.012677817340078 0.010719835797972 0.0003 0.014678664229456 0.0074733115324236 0
          0.014678664229456 0.0074733115324236 0.00015 0.014678664229456 0.0074733115324236 0.0003
          0.012261506677236 0.0092701804285872 0 0.012499922412859 0.0090879994978671 0
          0.012261506677236 0.0092701804285872 0.00015 0.012499922412859 0.0090879994978671 0.00015
          0.012261506677236 0.0092701804285872 0.0003 0.012499922412859 0.0090879994978671 0.0003
          0.011270478587413 0.012561768236337 0 0.011153846153863 0.013 0
          0.011270478587413 0.012561768236337 0.00015 0.011153846153863 0.013 0.00015
          0.011270478587413 0.012561768236337 0.0003 0.011153846153863 0.013 0.0003
          0.012179487179506 0.013 0 0.012692307692328 0.013 0
          0.012179487179506 0.013 0.00015 0.012692307692328 0.013 0.00015
          0.012179487179506 0.013 0.0003 0.012692307692328 0.013 0.0003
          0.013205128205151 0.013 0 0.013721380024409 0.012538570920528 0
          0.013717948717973 0.013 0 0.013205128205151 0.013 0.00015
          0.013721380024409 0.012538570920528 0.00015 0.013717948717973 0.013 0.00015
          0.013205128205151 0.013 0.0003 0.013721380024409 0.012538570920528 0.0003
          0.013717948717973 0.013 0.0003 0.013680323008888 0.01206206640945 0
          0.0136362676363 0.011582155921186 0 0.013680323008888 0.01206206640945 0.00015
          0.0136362676363 0.011582155921186 0.00015 0.013680323008888 0.01206206640945 0.0003
          0.0136362676363 0.011582155921186 0.0003 0.011306940297591 0.012129646322267 0
          0.011212076662234 0.01173976422044 0 0.011306940297591 0.012129646322267 0.00015
          0.011212076662234 0.01173976422044 0.00015 0.011306940297591 0.012129646322267 0.0003
          0.011212076662234 0.01173976422044 0.0003 0.014247558447628 0.012512499343239 0
          0.014230769230793 0.013 0 0.014247558447628 0.012512499343239 0.00015
          0.014230769230793 0.013 0.00015 0.014247558447628 0.012512499343239 0.0003
          0.014230769230793 0.013 0.0003 0.010925822172272 0.011428925131881 0
          0.010925822172272 0.011428925131881 0.00015 0.010925822172272 0.011428925131881 0.0003
          0.017598702187272 0.012594388856786 0 0.018138509806267 0.012585421267124 0
          0.018333333333352 0.013 0 0.017820512820533 0.013 0
          0.017598702187272 0.012594388856786 0.00015 0.018138509806267 0.012585421267124 0.00015
          0.018333333333352 0.013 0.00015 0.017820512820533 0.013 0.00015
          0.017598702187272 0.012594388856786 0.0003 0.018138509806267 0.012585421267124 0.0003
          0.018333333333352 0.013 0.0003 0.017820512820533 0.013 0.0003
          0.01884615384617 0.013 0 0.018647619061649 0.012577247456601 0
          0.01884615384617 0.013 0.00015 0.018647619061649 0.012577247456601 0.00015
          0.01884615384617 0.013 0.0003 0.018647619061649 0.012577247456601 0.0003
          0.010939820280367 0.01187760398484 0 0.010939820280367 0.01187760398484 0.00015
          0.010939820280367 0.01187760398484 0.0003 0.014743589743616 0.013 0
          0.014743589743616 0.013 0.00015 0.014743589743616 0.013 0.0003
          0.013168261777023 0.010955167755454 0 0.013168261777023 0.010955167755454 0.00015
          0.013168261777023 0.010955167755454 0.0003 0.011620435633551 0.0089440866322713 0
          0.011620435633551 0.0089440866322713 0.00015 0.011620435633551 0.0089440866322713 0.0003
          0.01333281098878 0.010501143990949 0 0.01333281098878 0.010501143990949 0.00015
          0.01333281098878 0.010501143990949 0.0003 0.013640766026071 0.011115210745046 0
          0.014063261910082 0.011165191959691 0 0.013640766026071 0.011115210745046 0.00015
          0.014063261910082 0.011165191959691 0.00015 0.013640766026071 0.011115210745046 0.0003
          0.014063261910082 0.011165191959691 0.0003 0.013761635093034 0.010714997264381 0
          0.013761635093034 0.010714997264381 0.00015 0.013761635093034 0.010714997264381 0.0003
          0.01790845301636 0.0090613468730877 0 0.01790845301636 0.0090613468730877 0.00015
          0.01790845301636 0.0090613468730877 0.0003 0.010691300612525 0.0099168298135774 0
          0.010691300612525 0.0099168298135774 0.00015 0.010691300612525 0.0099168298135774 0.0003
          0.014509683505008 0.0050450954358061 0 0.014509683505008 0.0050450954358061 0.00015
          0.014509683505008 0.0050450954358061 0.0003 0.012373637985884 0.0077974643404521 0
          0.012419274731686 0.0083019280664676 0 0.012373637985884 0.0077974643404521 0.00015
          0.012419274731686 0.0083019280664676 0.00015 0.012373637985884 0.0077974643404521 0.0003
          0.012419274731686 0.0083019280664676 0.0003 0.014523119140279 0.0054383897453177 0
          0.014523119140279 0.0054383897453177 0.00015 0.014523119140279 0.0054383897453177 0.0003
          0.012468015808598 0.0087643938641043 0 0.012468015808598 0.0087643938641043 0.00015
          0.012468015808598 0.0087643938641043 0.0003 0.014041697947841 0.010862771985015 0
          0.014041697947841 0.010862771985015 0.00015 0.014041697947841 0.010862771985015 0.0003
          0.012067821946234 0.0088387705315247 0 0.012067821946234 0.0088387705315247 0.00015
          0.012067821946234 0.0088387705315247 0.0003 0.018063704813091 0.0075049932447581 0
          0.018063704813091 0.0075049932447581 0.00015 0.018063704813091 0.0075049932447581 0.0003
          0.01801805728244 0.008218173104411 0 0.01801805728244 0.008218173104411 0.00015
          0.01801805728244 0.008218173104411 0.0003 0.019162849649621 0.012571706415164 0
          0.019358974358988 0.013 0 0.019162849649621 0.012571706415164 0.00015
          0.019358974358988 0.013 0.00015 0.019162849649621 0.012571706415164 0.0003
          0.019358974358988 0.013 0.0003 0.015469042768348 0.012527612124711 0
          0.015256410256436 0.013 0 0.015469042768348 0.012527612124711 0.00015
          0.015256410256436 0.013 0.00015 0.015469042768348 0.012527612124711 0.0003
          0.015256410256436 0.013 0.0003 0.017482035345823 0.012218317378284 0
          0.017482035345823 0.012218317378284 0.00015 0.017482035345823 0.012218317378284 0.0003
          0.011666666666685 0.013 0 0.011666666666685 0.013 0.00015
          0.011666666666685 0.013 0.0003 0.013552812333296 0.0042895499786344 0
          0.013552812333296 0.0042895499786344 0.00015 0.013552812333296 0.0042895499786344 0.0003
          0.019003973493589 0.012129001566083 0 0.018491681451249 0.012137078785851 0
          0.019003973493589 0.012129001566083 0.00015 0.018491681451249 0.012137078785851 0.00015
          0.019003973493589 0.012129001566083 0.0003 0.018491681451249 0.012137078785851 0.0003
          0.016282051282076 0.013 0 0.016335894010033 0.012686725241599 0
          0.016794871794894 0.013 0 0.016282051282076 0.013 0.00015
          0.016335894010033 0.012686725241599 0.00015 0.016794871794894 0.013 0.00015
          0.016282051282076 0.013 0.0003 0.016335894010033 0.012686725241599 0.0003
          0.016794871794894 0.013 0.0003 0.017307692307713 0.013 0
          0.017281329535555 0.012689387511733 0 0.017307692307713 0.013 0.00015
          0.017281329535555 0.012689387511733 0.00015 0.017307692307713 0.013 0.0003
          0.017281329535555 0.012689387511733 0.0003 0.017996855365792 0.012159940978259 0
          0.017996855365792 0.012159940978259 0.00015 0.017996855365792 0.012159940978259 0.0003
          0.016023960213719 0.012601258532672 0 0.016023960213719 0.012601258532672 0.00015
          0.016023960213719 0.012601258532672 0.0003 0.015769230769256 0.013 0
          0.015769230769256 0.013 0.00015 0.015769230769256 0.013 0.0003
          0.013549428097692 0.0047645614477775 0 0.013549428097692 0.0047645614477775 0.00015
          0.013549428097692 0.0047645614477775 0.0003 0.010881954871342 0.01216105032025 0
          0.010881954871342 0.01216105032025 0.00015 0.010881954871342 0.01216105032025 0.0003
          0.010057653370411 0.0084974472595183 0 0.01054988842507 0.0084422245958245 0
          0.010057653370411 0.0084974472595183 0.00015 0.01054988842507 0.0084422245958245 0.00015
          0.010057653370411 0.0084974472595183 0.0003 0.01054988842507 0.0084422245958245 0.0003
          0.015535554193674 0.0045828394817383 0 0.015535554193674 0.0045828394817383 0.00015
          0.015535554193674 0.0045828394817383 0.0003 0.011832021157187 0.0073476785459853 0
          0.011779780861271 0.0068646395959748 0 0.012243708910156 0.0068324173193727 0
          0.011832021157187 0.0073476785459853 0.00015 0.011779780861271 0.0068646395959748 0.00015
          0.012243708910156 0.0068324173193727 0.00015 0.011832021157187 0.0073476785459853 0.0003
          0.011779780861271 0.0068646395959748 0.0003 0.012243708910156 0.0068324173193727 0.0003
          0.019357361519954 0.01157618305141 0 0.01884046117173 0.011223113854601 0
          0.019357361519954 0.01157618305141 0.00015 0.01884046117173 0.011223113854601 0.00015
          0.019357361519954 0.01157618305141 0.0003 0.01884046117173 0.011223113854601 0.0003
          0.014554004584986 0.0044253882271801 0 0.015005639561329 0.0040763460944633 0
          0.014554004584986 0.0044253882271801 0.00015 0.015005639561329 0.0040763460944633 0.00015
          0.014554004584986 0.0044253882271801 0.0003 0.015005639561329 0.0040763460944633 0.0003
          0.018384253973557 0.010894663204421 0 0.018384253973557 0.010894663204421 0.00015
          0.018384253973557 0.010894663204421 0.0003 0.017413401850906 0.0060417176080878 0
          0.018057579772584 0.0060827128421873 0 0.018070157245618 0.0068021820766994 0
          0.017413401850906 0.0060417176080878 0.00015 0.018057579772584 0.0060827128421873 0.00015
          0.018070157245618 0.0068021820766994 0.00015 0.017413401850906 0.0060417176080878 0.0003
          0.018057579772584 0.0060827128421873 0.0003 0.018070157245618 0.0068021820766994 0.0003
          0.016291762387835 0.0047307906783276 0 0.016291762387835 0.0047307906783276 0.00015
          0.016291762387835 0.0047307906783276 0.0003 0.012879713087233 0.0060908484912964 0
          0.012982043505355 0.0056371881930815 0 0.012879713087233 0.0060908484912964 0.00015
          0.012982043505355 0.0056371881930815 0.00015 0.012879713087233 0.0060908484912964 0.0003
          0.012982043505355 0.0056371881930815 0.0003 0.01678493258985 0.0053840721103251 0
          0.016848637368385 0.0048798435935376 0 0.01678493258985 0.0053840721103251 0.00015
          0.016848637368385 0.0048798435935376 0.00015 0.01678493258985 0.0053840721103251 0.0003
          0.016848637368385 0.0048798435935376 0.0003 0.012723582323863 0.006509831652106 0
          0.012723582323863 0.006509831652106 0.00015 0.012723582323863 0.006509831652106 0.0003
          0.014128459199836 0.0039835282877348 0 0.014128459199836 0.0039835282877348 0.00015
          0.014128459199836 0.0039835282877348 0.0003 0.018817000838468 0.010560792840001 0
          0.018817000838468 0.010560792840001 0.00015 0.018817000838468 0.010560792840001 0.0003
          0.011043213382792 0.0084269911709333 0 0.011043213382792 0.0084269911709333 0.00015
          0.011043213382792 0.0084269911709333 0.0003 0.011511795106494 0.0083968566041475 0
          0.011511795106494 0.0083968566041475 0.00015 0.011511795106494 0.0083968566041475 0.0003
          0.017341722495578 0.0054175123203669 0 0.017341722495578 0.0054175123203669 0.00015
          0.017341722495578 0.0054175123203669 0.0003 0.01196380743939 0.0083394019710021 0
          0.011894488312007 0.0078344841271679 0 0.01196380743939 0.0083394019710021 0.00015
          0.011894488312007 0.0078344841271679 0.00015 0.01196380743939 0.0083394019710021 0.0003
          0.011894488312007 0.0078344841271679 0.0003 0.018719100515555 0.0096191331103102 0
          0.018769006148643 0.010016813571171 0 0.018719100515555 0.0096191331103102 0.00015
          0.018769006148643 0.010016813571171 0.00015 0.018719100515555 0.0096191331103102 0.0003
          0.018769006148643 0.010016813571171 0.0003 0.019142781766586 0.010156284019367 0
          0.019142781766586 0.010156284019367 0.00015 0.019142781766586 0.010156284019367 0.0003
          0.019871794871807 0.013 0 0.019671681078705 0.012567114388191 0
          0.019871794871807 0.013 0.00015 0.019671681078705 0.012567114388191 0.00015
          0.019871794871807 0.013 0.0003 0.019671681078705 0.012567114388191 0.0003
          0.013590285783394 0.0038446716816234 0 0.013590285783394 0.0038446716816234 0.00015
          0.013590285783394 0.0038446716816234 0.0003 0.018696511924608 0.0075816988835645 0
          0.018734278863615 0.0068564365277259 0 0.018696511924608 0.0075816988835645 0.00015
          0.018734278863615 0.0068564365277259 0.00015 0.018696511924608 0.0075816988835645 0.0003
          0.018734278863615 0.0068564365277259 0.0003 0.013091675611077 0.0041736873632184 0
          0.013121586466294 0.0036708577033715 0 0.013091675611077 0.0041736873632184 0.00015
          0.013121586466294 0.0036708577033715 0.00015 0.013091675611077 0.0041736873632184 0.0003
          0.013121586466294 0.0036708577033715 0.0003 0.019497075330812 0.012129782091497 0
          0.019497075330812 0.012129782091497 0.00015 0.019497075330812 0.012129782091497 0.0003
          0.012592651705639 0.0068198098450163 0 0.012592651705639 0.0068198098450163 0.00015
          0.012592651705639 0.0068198098450163 0.0003 0.018655444813331 0.0089912542068827 0
          0.018655444813331 0.0089912542068827 0.00015 0.018655444813331 0.0089912542068827 0.0003
          0.018643245907353 0.0082916041839039 0 0.018643245907353 0.0082916041839039 0.00015
          0.018643245907353 0.0082916041839039 0.0003 0.013048655853798 0.0051555709380823 0
          0.013048655853798 0.0051555709380823 0.00015 0.013048655853798 0.0051555709380823 0.0003
          0.013084530633285 0.0046685927017207 0 0.013084530633285 0.0046685927017207 0.00015
          0.013084530633285 0.0046685927017207 0.0003
          <InformationKey name="L2_NORM_RANGE" location="vtkDataArray" length="2">
            <Value index="0">
              0.013166738444
            </Value>
            <Value index="1">
              0.023748225859
            </Value>
          </InformationKey>
        </DataArray>
      </Points>
      <Cells>
        <DataArray type="Int64" Name="connectivity" format="ascii" RangeMin="0" RangeMax="794">
          0 1 2 3 4 5
          6 7 4 5 6 7
          8 9 10 11 12 13
          14 15 16 17 18 19
          16 17 18 19 20 21
          22 23 666 667 14 24
          668 669 18 25 668 669
          18 25 670 671 22 26
          24 14 13 27 25 18
          17 28 25 18 17 28
          26 22 21 29 30 31
          3 2 32 33 7 6
          32 33 7 6 34 35
          11 10 36 37 38 39
          40 41 42 43 40 41
          42 43 44 45 46 47
          48 49 50 51 52 53
          54 55 52 53 54 55
          56 57 58 59 60 61
          62 63 64 65 66 67
          64 65 66 67 68 69
          70 71 72 73 672 74
          75 76 673 77 75 76
          673 77 78 79 674 80
          81 82 83 84 85 86
          87 88 85 86 87 88
          89 90 91 92 93 675
          676 677 94 678 679 680
          94 678 679 680 95 681
          682 683 2 96 97 30
          6 98 99 32 6 98
          99 32 10 100 101 34
          102 103 0 104 105 106
          4 107 105 106 4 107
          108 109 8 110 111 112
          113 114 115 116 117 118
          115 116 117 118 119 120
          121 122 123 124 50 125
          126 127 54 128 126 127
          54 128 129 130 58 131
          132 133 134 51 135 136
          137 55 135 136 137 55
          138 139 140 59 141 142
          143 144 145 146 147 148
          145 146 147 148 149 150
          151 152 112 141 144 113
          116 145 148 117 116 145
          148 117 120 149 152 121
          84 83 153 154 88 87
          155 156 88 87 155 156
          92 91 157 158 159 160
          161 38 162 163 164 42
          162 163 164 42 165 166
          167 46 168 169 170 171
          172 173 174 175 172 173
          174 175 176 177 178 179
          684 180 181 685 686 182
          183 687 686 182 183 687
          688 184 185 689 186 104
          0 187 188 107 4 189
          188 107 4 189 190 110
          8 191 690 691 672 73
          692 693 673 76 692 693
          673 76 694 695 674 79
          198 199 200 201 202 203
          204 205 202 203 204 205
          206 207 208 209 210 72
          74 211 212 75 77 213
          212 75 77 213 214 78
          80 215 216 82 81 217
          218 86 85 219 218 86
          85 219 220 90 89 221
          222 216 217 223 224 218
          219 225 224 218 219 225
          226 220 221 227 171 39
          38 161 175 43 42 164
          175 43 42 164 179 47
          46 167 228 696 685 181
          229 697 687 183 229 697
          687 183 230 698 689 185
          231 699 700 701 232 702
          703 704 232 702 703 704
          233 705 706 707 31 30
          201 200 33 32 205 204
          33 32 205 204 35 34
          209 208 234 235 236 237
          238 239 240 241 238 239
          240 241 242 243 244 245
          36 246 247 248 40 249
          250 251 40 249 250 251
          44 252 253 254 83 255
          256 153 87 257 258 155
          87 257 258 155 91 259
          260 157 235 699 231 236
          239 702 232 240 239 702
          232 240 243 705 233 244
          168 171 161 261 172 175
          164 262 172 175 164 262
          176 179 167 263 171 170
          36 39 175 174 40 43
          175 174 40 43 179 178
          44 47 264 265 266 267
          268 269 270 271 268 269
          270 271 272 273 274 275
          237 276 211 234 241 277
          213 238 241 277 213 238
          245 278 215 242 279 160
          237 236 280 163 241 240
          280 163 241 240 281 166
          245 244 234 211 74 282
          238 213 77 283 238 213
          77 283 242 215 80 284
          285 228 181 286 287 229
          183 288 287 229 183 288
          289 230 185 290 291 168
          261 292 293 172 262 294
          293 172 262 294 295 176
          263 296 297 298 256 255
          299 300 258 257 299 300
          258 257 301 302 260 259
          303 304 97 96 305 306
          99 98 305 306 99 98
          307 308 101 100 309 247
          114 113 310 250 118 117
          310 250 118 117 311 253
          122 121 304 312 313 97
          306 314 315 99 306 314
          315 99 308 316 317 101
          282 74 672 708 283 77
          673 709 283 77 673 709
          284 80 674 710 318 303
          96 319 320 305 98 321
          320 305 98 321 322 307
          100 323 285 187 0 3
          287 189 4 7 287 189
          4 7 289 191 8 11
          223 711 712 324 225 713
          714 325 225 713 714 325
          227 715 716 326 327 210
          211 276 328 212 213 277
          328 212 213 277 329 214
          215 278 717 282 708 718
          719 283 709 720 719 283
          709 720 721 284 710 722
          276 237 160 159 277 241
          163 162 277 241 163 162
          278 245 166 165 330 318
          319 331 332 320 321 333
          332 320 321 333 334 322
          323 335 324 336 222 223
          325 337 224 225 325 337
          224 225 326 338 226 227
          292 261 279 339 294 262
          280 340 294 262 280 340
          296 263 281 341 342 343
          210 327 344 345 212 328
          344 345 212 328 346 347
          214 329 696 228 31 200
          697 229 33 204 697 229
          33 204 698 230 35 208
          298 348 349 256 300 350
          351 258 300 350 351 258
          302 352 353 260 336 343
          342 222 337 345 344 224
          337 345 344 224 338 347
          346 226 96 2 1 319
          98 6 5 321 98 6
          5 321 100 10 9 323
          103 354 355 356 106 357
          358 359 106 357 358 359
          109 360 361 362 339 279
          236 231 340 280 240 232
          340 280 240 232 341 281
          244 233 363 364 365 366
          367 368 369 370 367 368
          369 370 371 372 373 374
          375 376 377 378 379 380
          381 382 379 380 381 382
          383 384 385 386 169 168
          291 312 173 172 293 314
          173 172 293 314 177 176
          295 316 216 222 342 387
          218 224 344 388 218 224
          344 388 220 226 346 389
          223 217 723 711 225 219
          724 713 225 219 724 713
          227 221 725 715 160 279
          261 161 163 280 262 164
          163 280 262 164 166 281
          263 167 356 355 330 331
          359 358 332 333 359 358
          332 333 362 361 334 335
          363 390 391 364 367 392
          393 368 367 392 393 368
          371 394 395 372 396 397
          726 690 398 399 727 692
          398 399 727 692 400 401
          728 694 390 402 403 391
          392 404 405 393 392 404
          405 393 394 406 407 395
          235 234 282 717 239 238
          283 719 239 238 283 719
          243 242 284 721 313 201
          30 97 315 205 32 99
          315 205 32 99 317 209
          34 101 248 247 309 348
          251 250 310 350 251 250
          310 350 254 253 311 352
          200 199 729 696 204 203
          730 697 204 203 730 697
          208 207 731 698 408 409
          375 378 410 411 379 382
          410 411 379 382 412 413
          383 386 153 256 349 366
          155 258 351 370 155 258
          351 370 157 260 353 374
          414 408 378 415 416 410
          382 417 416 410 382 417
          418 412 386 419 420 248
          348 298 421 251 350 300
          421 251 350 300 422 254
          352 302 423 327 276 159
          424 328 277 162 424 328
          277 162 425 329 278 165
          426 427 428 429 430 431
          432 433 430 431 432 433
          434 435 436 437 336 324
          438 439 337 325 440 441
          337 325 440 441 338 326
          442 443 667 732 15 14
          669 733 19 18 669 733
          19 18 671 734 23 22
          444 445 446 447 448 449
          450 451 448 449 450 451
          452 453 454 455 415 456
          457 458 417 459 460 461
          417 459 460 461 419 462
          463 464 12 465 408 414
          16 466 410 416 16 466
          410 416 20 467 412 418
          465 403 409 408 466 405
          411 410 466 405 411 410
          467 407 413 412 376 375
          429 428 380 379 433 432
          380 379 433 432 384 383
          437 436 114 468 469 111
          118 470 471 115 118 470
          471 115 122 472 473 119
          37 423 159 38 41 424
          162 42 41 424 162 42
          45 425 165 46 474 475
          390 363 476 477 392 367
          476 477 392 367 478 479
          394 371 429 375 409 480
          433 379 411 481 433 379
          411 481 437 383 413 482
          342 483 297 387 344 484
          299 388 344 484 299 388
          346 485 301 389 348 309
          474 349 350 310 476 351
          350 310 476 351 352 311
          478 353 480 409 403 402
          481 411 405 404 481 411
          405 404 482 413 407 406
          266 265 376 428 270 269
          380 432 270 269 380 432
          274 273 384 436 486 487
          364 391 488 489 368 393
          488 489 368 393 490 491
          372 395 447 446 492 493
          451 450 494 495 451 450
          494 495 455 454 496 497
          483 420 298 297 484 421
          300 299 484 421 300 299
          485 422 302 301 498 267
          63 499 500 271 67 501
          500 271 67 501 502 275
          71 503 378 377 456 415
          382 381 459 417 382 381
          459 417 386 385 462 419
          504 62 505 506 507 66
          508 509 507 66 508 509
          510 70 511 512 513 61
          426 514 515 65 430 516
          515 65 430 516 517 69
          434 518 499 63 62 504
          501 67 66 507 501 67
          66 507 503 71 70 510
          474 363 366 349 476 367
          370 351 476 367 370 351
          478 371 374 353 519 520
          376 265 521 522 380 269
          521 522 380 269 523 524
          384 273 506 505 525 526
          509 508 527 528 509 508
          527 528 512 511 529 530
          531 377 376 520 532 381
          380 522 532 381 380 522
          533 385 384 524 534 535
          536 537 538 539 540 541
          538 539 540 541 542 543
          544 545 546 536 535 547
          548 540 539 549 548 540
          539 549 550 544 543 551
          141 330 355 123 145 332
          358 126 145 332 358 126
          149 334 361 129 327 423
          483 342 328 424 484 344
          328 424 484 344 329 425
          485 346 193 531 520 552
          195 532 522 553 195 532
          522 553 197 533 524 554
          134 555 526 525 137 556
          528 527 137 556 528 527
          140 557 530 529 480 558
          426 429 481 559 430 433
          481 559 430 433 482 560
          434 437 391 403 465 486
          393 405 466 488 393 405
          466 488 395 407 467 490
          465 12 15 561 466 16
          19 562 466 16 19 562
          467 20 23 563 402 390
          475 564 404 392 477 565
          404 392 477 565 406 394
          479 566 567 568 49 514
          569 570 53 516 569 570
          53 516 571 572 57 518
          558 567 514 426 559 569
          516 430 559 569 516 430
          560 571 518 434 564 475
          143 573 565 477 147 574
          565 477 147 574 566 479
          151 575 561 15 732 735
          562 19 733 736 562 19
          733 736 563 23 734 737
          228 285 3 31 229 287
          7 33 229 287 7 33
          230 289 11 35 576 198
          201 313 577 202 205 315
          577 202 205 315 578 206
          209 317 356 331 319 1
          359 333 321 5 359 333
          321 5 362 335 323 9
          1 0 103 356 5 4
          106 359 5 4 106 359
          9 8 109 362 558 480
          402 564 559 481 404 565
          559 481 404 565 560 482
          406 566 699 235 717 738
          702 239 719 739 702 239
          719 739 705 243 721 740
          73 582 396 690 76 583
          398 692 76 583 398 692
          79 584 400 694 741 742
          585 586 743 744 587 588
          743 744 587 588 745 746
          589 590 72 210 343 591
          75 212 345 592 75 212
          345 592 78 214 347 593
          439 591 343 336 441 592
          345 337 441 592 345 337
          443 593 347 338 576 313
          312 291 577 315 314 293
          577 315 314 293 578 317
          316 295 469 169 312 304
          471 173 314 306 471 173
          314 306 473 177 316 308
          594 365 364 487 595 369
          368 489 595 369 368 489
          596 373 372 491 591 439
          396 582 592 441 398 583
          592 441 398 583 593 443
          400 584 564 573 567 558
          565 574 569 559 565 574
          569 559 566 575 571 560
          573 597 568 567 574 598
          570 569 574 598 570 569
          575 599 572 571 747 748
          199 198 749 750 203 202
          749 750 203 202 751 752
          207 206 420 483 423 37
          421 484 424 41 421 484
          424 41 422 485 425 45
          600 486 465 561 601 488
          466 562 601 488 466 562
          602 490 467 563 561 735
          741 600 562 736 743 601
          562 736 743 601 563 737
          745 602 37 36 248 420
          41 40 251 421 41 40
          251 421 45 44 254 422
          594 487 486 600 595 489
          488 601 595 489 488 601
          596 491 490 602 468 170
          169 469 470 174 173 471
          470 174 173 471 472 178
          177 473 264 492 519 265
          268 494 521 269 268 494
          521 269 272 496 523 273
          414 579 13 12 416 580
          17 16 416 580 17 16
          418 581 21 20 154 153
          366 365 156 155 370 369
          156 155 370 369 158 157
          374 373 339 231 701 603
          340 232 704 604 340 232
          704 604 341 233 707 605
          591 582 73 72 592 583
          76 75 592 583 76 75
          593 584 79 78 606 292
          339 603 607 294 340 604
          607 294 340 604 608 296
          341 605 547 609 610 546
          549 611 612 548 549 611
          612 548 551 613 614 550
          60 427 426 61 64 431
          430 65 64 431 430 65
          68 435 434 69 576 291
          292 606 577 293 294 607
          577 293 294 607 578 295
          296 608 615 616 555 134
          617 618 556 137 617 618
          556 137 619 620 557 140
          586 594 600 741 588 595
          601 743 588 595 601 743
          590 596 602 745 83 387
          297 255 87 388 299 257
          87 388 299 257 91 389
          301 259 144 143 475 474
          148 147 477 476 148 147
          477 476 152 151 479 478
          111 469 304 303 115 471
          306 305 115 471 306 305
          119 473 308 307 753 729
          199 748 754 730 203 750
          754 730 203 750 755 731
          207 752 505 62 61 513
          508 66 65 515 508 66
          65 515 511 70 69 517
          756 610 609 757 758 612
          611 759 758 612 611 759
          760 614 613 761 216 387
          83 82 218 388 87 86
          218 388 87 86 220 389
          91 90 285 621 186 187
          287 622 188 189 287 622
          188 189 289 623 190 191
          264 624 493 492 268 625
          495 494 268 625 495 494
          272 626 497 496 726 397
          627 762 727 399 628 763
          727 399 628 763 728 401
          629 764 630 631 181 180
          632 633 183 182 632 633
          183 182 634 635 185 184
          586 154 365 594 588 156
          369 595 588 156 369 595
          590 158 373 596 765 603
          701 766 767 604 704 768
          767 604 704 768 769 605
          707 770 636 637 186 638
          639 640 188 641 639 640
          188 641 642 643 190 644
          125 50 49 568 128 54
          53 570 128 54 53 570
          131 58 57 572 645 638
          186 646 647 641 188 648
          647 641 188 648 649 644
          190 650 534 646 186 621
          538 648 188 622 538 648
          188 622 542 650 190 623
          93 585 742 675 94 587
          744 678 94 587 744 678
          95 589 746 681 48 51
          134 525 52 55 137 527
          52 55 137 527 56 59
          140 529 627 771 772 762
          628 773 774 763 628 773
          774 763 629 775 776 764
          630 180 684 777 632 182
          686 778 632 182 686 778
          634 184 688 779 154 586
          585 84 156 588 587 88
          156 588 587 88 158 590
          589 92 651 286 181 631
          652 288 183 633 652 288
          183 633 653 290 185 635
          186 637 654 104 188 640
          655 107 188 640 655 107
          190 643 656 110 474 309
          113 144 476 310 117 148
          476 310 117 148 478 311
          121 152 63 267 266 60
          67 271 270 64 67 271
          270 64 71 275 274 68
          616 615 654 657 618 617
          655 658 618 617 655 658
          620 619 656 659 627 397
          396 660 628 399 398 661
          628 399 398 661 629 401
          400 662 579 414 415 458
          580 416 417 461 580 416
          417 461 581 418 419 464
          651 631 547 535 652 633
          549 539 652 633 549 539
          653 635 551 543 723 217
          81 780 724 219 85 781
          724 219 85 781 725 221
          89 782 663 446 445 192
          664 450 449 194 664 450
          449 194 665 454 453 196
          142 597 573 143 146 598
          574 147 146 598 574 147
          150 599 575 151 783 747
          198 576 784 749 202 577
          784 749 202 577 785 751
          206 578 48 513 514 49
          52 515 516 53 52 515
          516 53 56 517 518 57
          318 330 141 112 320 332
          145 116 320 332 145 116
          322 334 149 120 651 621
          285 286 652 622 287 288
          652 622 287 288 653 623
          289 290 60 266 428 427
          64 270 432 431 64 270
          432 431 68 274 436 435
          354 124 123 355 357 127
          126 358 357 127 126 358
          360 130 129 361 303 318
          112 111 305 320 116 115
          305 320 116 115 307 322
          120 119 630 777 757 609
          632 778 759 611 632 778
          759 611 634 779 761 613
          468 246 36 170 470 249
          40 174 470 249 40 174
          472 252 44 178 615 102
          104 654 617 105 107 655
          617 105 107 655 619 108
          110 656 786 783 576 606
          787 784 577 607 787 784
          577 607 788 785 578 608
          519 492 446 663 521 494
          450 664 521 494 450 664
          523 496 454 665 637 636
          657 654 640 639 658 655
          640 639 658 655 643 642
          659 656 663 192 193 552
          664 194 195 553 664 194
          195 553 665 196 197 554
          789 438 324 712 790 440
          325 714 790 440 325 714
          791 442 326 716 102 133
          354 103 105 136 357 106
          105 136 357 106 108 139
          360 109 646 534 537 645
          648 538 541 647 648 538
          541 647 650 542 545 649
          525 505 513 48 527 508
          515 52 527 508 515 52
          529 511 517 56 660 396
          439 438 661 398 441 440
          661 398 441 440 662 400
          443 442 765 786 606 603
          767 787 607 604 767 787
          607 604 769 788 608 605
          624 264 267 498 625 268
          271 500 625 268 271 500
          626 272 275 502 468 114
          247 246 470 118 250 249
          470 118 250 249 472 122
          253 252 535 534 621 651
          539 538 622 652 539 538
          622 652 543 542 623 653
          93 81 84 585 94 85
          88 587 94 85 88 587
          95 89 92 589 438 789
          792 660 440 790 793 661
          440 790 793 661 442 791
          794 662 124 132 51 50
          127 135 55 54 127 135
          55 54 130 138 59 58
          663 552 520 519 664 553
          522 521 664 553 522 521
          665 554 524 523 609 547
          631 630 611 549 633 632
          611 549 633 632 613 551
          635 634 125 142 141 123
          128 146 145 126 128 146
          145 126 131 150 149 129
          102 615 134 133 105 617
          137 136 105 617 137 136
          108 619 140 139 142 125
          568 597 146 128 570 598
          146 128 570 598 150 131
          572 599 124 354 133 132
          127 357 136 135 127 357
          136 135 130 360 139 138
          660 792 771 627 661 793
          773 628 661 793 773 628
          662 794 775 629 81 93
          677 780 85 94 680 781
          85 94 680 781 89 95
          683 782
        </DataArray>
        <DataArray type="Int64" Name="offsets" format="ascii" RangeMin="8" RangeMax="3632">
          8 16 24 32 40 48
          56 64 72 80 88 96
          104 112 120 128 136 144
          152 160 168 176 184 192
          200 208 216 224 232 240
          248 256 264 272 280 288
          296 304 312 320 328 336
          344 352 360 368 376 384
          392 400 408 416 424 432
          440 448 456 464 472 480
          488 496 504 512 520 528
          536 544 552 560 568 576
          584 592 600 608 616 624
          632 640 648 656 664 672
          680 688 696 704 712 720
          728 736 744 752 760 768
          776 784 792 800 808 816
          824 832 840 848 856 864
          872 880 888 896 904 912
          920 928 936 944 952 960
          968 976 984 992 1000 1008
          1016 1024 1032 1040 1048 1056
          1064 1072 1080 1088 1096 1104
          1112 1120 1128 1136 1144 1152
          1160 1168 1176 1184 1192 1200
          1208 1216 1224 1232 1240 1248
          1256 1264 1272 1280 1288 1296
          1304 1312 1320 1328 1336 1344
          1352 1360 1368 1376 1384 1392
          1400 1408 1416 1424 1432 1440
          1448 1456 1464 1472 1480 1488
          1496 1504 1512 1520 1528 1536
          1544 1552 1560 1568 1576 1584
          1592 1600 1608 1616 1624 1632
          1640 1648 1656 1664 1672 1680
          1688 1696 1704 1712 1720 1728
          1736 1744 1752 1760 1768 1776
          1784 1792 1800 1808 1816 1824
          1832 1840 1848 1856 1864 1872
          1880 1888 1896 1904 1912 1920
          1928 1936 1944 1952 1960 1968
          1976 1984 1992 2000 2008 2016
          2024 2032 2040 2048 2056 2064
          2072 2080 2088 2096 2104 2112
          2120 2128 2136 2144 2152 2160
          2168 2176 2184 2192 2200 2208
          2216 2224 2232 2240 2248 2256
          2264 2272 2280 2288 2296 2304
          2312 2320 2328 2336 2344 2352
          2360 2368 2376 2384 2392 2400
          2408 2416 2424 2432 2440 2448
          2456 2464 2472 2480 2488 2496
          2504 2512 2520 2528 2536 2544
          2552 2560 2568 2576 2584 2592
          2600 2608 2616 2624 2632 2640
          2648 2656 2664 2672 2680 2688
          2696 2704 2712 2720 2728 2736
          2744 2752 2760 2768 2776 2784
          2792 2800 2808 2816 2824 2832
          2840 2848 2856 2864 2872 2880
          2888 2896 2904 2912 2920 2928
          2936 2944 2952 2960 2968 2976
          2984 2992 3000 3008 3016 3024
          3032 3040 3048 3056 3064 3072
          3080 3088 3096 3104 3112 3120
          3128 3136 3144 3152 3160 3168
          3176 3184 3192 3200 3208 3216
          3224 3232 3240 3248 3256 3264
          3272 3280 3288 3296 3304 3312
          3320 3328 3336 3344 3352 3360
          3368 3376 3384 3392 3400 3408
          3416 3424 3432 3440 3448 3456
          3464 3472 3480 3488 3496 3504
          3512 3520 3528 3536 3544 3552
          3560 3568 3576 3584 3592 3600
          3608 3616 3624 3632
        </DataArray>
        <DataArray type="UInt8" Name="types" format="ascii" RangeMin="12" RangeMax="12">
          12 12 12 12 12 12
          12 12 12 12 12 12
          12 12 12 12 12 12
          12 12 12 12 12 12
          12 12 12 12 12 12
          12 12 12 12 12 12
          12 12 12 12 12 12
          12 12 12 12 12 12
          12 12 12 12 12 12
          12 12 12 12 12 12
          12 12 12 12 12 12
          12 12 12 12 12 12
          12 12 12 12 12 12
          12 12 12 12 12 12
          12 12 12 12 12 12
          12 12 12 12 12 12
          12 12 12 12 12 12
          12 12 12 12 12 12
          12 12 12 12 12 12
          12 12 12 12 12 12
          12 12 12 12 12 12
          12 12 12 12 12 12
          12 12 12 12 12 12
          12 12 12 12 12 12
          12 12 12 12 12 12
          12 12 12 12 12 12
          12 12 12 12 12 12
          12 12 12 12 12 12
          12 12 12 12 12 12
          12 12 12 12 12 12
          12 12 12 12 12 12
          12 12 12 12 12 12
          12 12 12 12 12 12
          12 12 12 12 12 12
          12 12 12 12 12 12
          12 12 12 12 12 12
          12 12 12 12 12 12
          12 12 12 12 12 12
          12 12 12 12 12 12
          12 12 12 12 12 12
          12 12 12 12 12 12
          12 12 12 12 12 12
          12 12 12 12 12 12
          12 12 12 12 12 12
          12 12 12 12 12 12
          12 12 12 12 12 12
          12 12 12 12 12 12
          12 12 12 12 12 12
          12 12 12 12 12 12
          12 12 12 12 12 12
          12 12 12 12 12 12
          12 12 12 12 12 12
          12 12 12 12 12 12
          12 12 12 12 12 12
          12 12 12 12 12 12
          12 12 12 12 12 12
          12 12 12 12 12 12
          12 12 12 12 12 12
          12 12 12 12 12 12
          12 12 12 12 12 12
          12 12 12 12 12 12
          12 12 12 12 12 12
          12 12 12 12 12 12
          12 12 12 12 12 12
          12 12 12 12 12 12
          12 12 12 12 12 12
          12 12 12 12 12 12
          12 12 12 12 12 12
          12 12 12 12 12 12
          12 12 12 12 12 12
          12 12 12 12 12 12
          12 12 12 12 12 12
          12 12 12 12 12 12
          12 12 12 12 12 12
          12 12 12 12 12 12
          12 12 12 12
        </DataArray>
      </Cells>
    </Piece>
  </UnstructuredGrid>
</VTKFile>
