<?xml version="1.0"?>
<VTKFile type="UnstructuredGrid" version="0.1" byte_order="LittleEndian" header_type="UInt32" compressor="vtkZLibDataCompressor">
  <UnstructuredGrid>
    <Piece NumberOfPoints="756" NumberOfCells="468">
      <PointData>
        <DataArray type="Int32" Name="libmesh_node_id" format="ascii" RangeMin="120" RangeMax="2168">
          120 121 122 123 124 125
          126 127 128 129 130 131
          132 133 134 135 136 137
          138 139 140 141 142 143
          144 145 146 147 148 149
          150 151 152 153 154 155
          156 157 158 159 160 161
          162 163 164 165 166 167
          168 169 170 171 172 173
          174 175 176 177 178 179
          240 241 242 243 244 245
          246 247 248 249 250 251
          252 253 254 255 256 257
          258 259 260 261 262 263
          264 265 266 267 268 269
          330 331 332 333 334 335
          336 337 338 339 340 341
          342 343 344 345 346 347
          348 349 350 351 352 353
          354 355 356 357 358 359
          420 421 422 423 424 425
          426 427 428 429 430 431
          432 433 434 435 436 437
          438 439 440 441 442 443
          444 445 446 447 448 449
          510 511 512 513 514 515
          516 517 518 519 520 521
          522 523 524 525 526 527
          528 529 530 531 532 533
          534 535 536 537 538 539
          600 601 602 603 604 605
          606 607 608 609 610 611
          612 613 614 615 616 617
          618 619 620 621 622 623
          624 625 626 627 628 629
          690 691 692 693 694 695
          696 697 698 699 700 701
          702 703 704 705 706 707
          708 709 710 711 712 713
          714 715 716 717 718 719
          780 781 782 783 784 785
          786 787 788 789 790 791
          792 793 794 795 796 797
          798 799 800 801 802 803
          804 805 806 807 808 809
          876 877 878 879 880 881
          882 883 884 885 886 887
          888 889 890 891 892 893
          894 895 896 897 898 899
          900 901 902 903 904 905
          906 907 908 909 910 911
          912 913 914 915 916 917
          918 919 920 921 922 923
          924 925 926 927 928 929
          930 931 932 933 934 935
          936 937 938 939 940 941
          942 943 944 945 946 947
          948 949 950 951 952 953
          954 955 956 957 958 959
          960 961 962 963 964 965
          966 967 968 969 970 971
          972 973 974 975 976 977
          978 979 980 981 982 983
          984 985 986 987 988 989
          990 991 992 993 994 995
          996 997 998 999 1000 1001
          1002 1003 1004 1005 1006 1007
          1008 1009 1010 1011 1012 1013
          1014 1015 1016 1017 1018 1019
          1020 1021 1022 1023 1024 1025
          1026 1027 1028 1029 1030 1031
          1032 1033 1034 1035 1036 1037
          1038 1039 1040 1041 1042 1043
          1044 1045 1046 1047 1048 1049
          1050 1051 1052 1053 1054 1055
          1056 1057 1058 1059 1060 1061
          1062 1063 1064 1065 1066 1067
          1068 1069 1070 1071 1072 1073
          1074 1075 1076 1077 1078 1079
          1080 1081 1082 1083 1084 1085
          1086 1087 1088 1089 1090 1091
          1092 1093 1094 1095 1096 1097
          1098 1099 1100 1101 1102 1103
          1104 1105 1106 1107 1108 1109
          1110 1111 1112 1113 1114 1115
          1116 1117 1118 1119 1120 1121
          1122 1123 1124 1125 1126 1127
          1128 1129 1130 1131 1132 1133
          1134 1135 1136 1137 1138 1139
          1140 1141 1142 1143 1144 1145
          1146 1147 1148 1149 1150 1151
          1152 1153 1154 1155 1156 1157
          1158 1159 1160 1161 1162 1163
          1164 1165 1166 1167 1168 1169
          1170 1171 1172 1173 1174 1175
          1176 1177 1178 1179 1180 1181
          1182 1183 1184 1185 1186 1187
          1188 1189 1190 1191 1192 1193
          1194 1195 1196 1197 1198 1199
          1200 1201 1202 1203 1204 1205
          1206 1207 1208 1209 1210 1211
          1212 1213 1214 1215 1216 1217
          1218 1219 1220 1221 1222 1223
          1224 1225 1226 1227 1228 1229
          1230 1231 1232 1233 1234 1235
          1236 1237 1238 1239 1240 1241
          1242 1243 1244 1245 1246 1247
          1248 1249 1250 1251 1252 1253
          1254 1255 1256 1257 1258 1259
          1260 1261 1262 1263 1264 1265
          1266 1267 1268 1269 1270 1271
          1893 1894 1895 1896 1897 1898
          1920 1921 1922 1923 1924 1925
          1947 1948 1949 1974 1975 1976
          2001 2002 2003 2028 2029 2030
          2055 2056 2057 2112 2113 2114
          2115 2116 2117 2124 2125 2126
          2127 2128 2129 2130 2131 2132
          2133 2134 2135 2148 2149 2150
          2151 2152 2153 2164 2166 2168
          1926 1899 1927 1900 1928 1901
          1950 1951 1952 1953 1954 1955
          1977 1978 1979 2004 2005 2006
          2031 2032 2033 2058 2059 2060
          2142 2144 2146 2163 2143 2096
          2165 2145 2100 2167 2147 2104
        </DataArray>
        <DataArray type="Float64" Name="resid_x" format="ascii" RangeMin="-19.738485108940072" RangeMax="0.8385911711287646">
          -0.0001307518659912077 -8.309867405157814 -0.000632075097643181 -16.649030271680488 -0.0003254379014006048 -8.329527700592006
          0.00004493133183292031 -8.320317748566467 0.17282389248359653 -16.809130540433067 0.04087052132085578 -8.421718799623132
          -0.000967265950052365 -8.408242110861895 0.8385911711287646 -17.441075250327156 0.5784074119648954 -8.858686027221097
          -0.0057727559040783305 -8.567028604183108 0.06658497361298643 -17.531702626434253 0.11688172985565615 -9.260125489049212
          -0.0008106846298918668 -8.768016360873663 0.0018149213405305176 -17.761526235821556 0.00024334991598351507 -9.53718787704684
          0.0005729435967012364 -8.985767866546153 0.0004777782059202096 -18.106818090666373 -0.0020526245911556273 -9.708648082396483
          -0.00006050138548818751 -9.19389333372221 -0.0003670551643262243 -18.42842178990817 -0.0012719660307860536 -9.687664044859616
          0.0001905956809773457 -9.44143736329558 0.000010784613972525392 -18.81636963823066 0.0006072144598237017 -9.459476060521762
          0.0016831145926978763 -9.944489500527936 0.0025633845007826395 -19.738485108940072 0.007488489483982175 -8.964397297740252
          0.005038774651000111 -6.199741347526258 0.00843745165424481 -12.230753941864855 0.013493936444903654 -4.8707604610567845
          -0.00015042371552365097 -0.0007451112969949492 -0.00006016061057056987 0.000005268327702978581 0.0011364884643620954 0.001979367356522488
          0.05171764330711959 0.02295284297386946 -0.46205800444262746 0.0031088747295875407 0.0017690033541075678 -0.13179132209030975
          -0.0016933876907119227 -0.0006994205287078614 -0.004566231045686209 0.0010285839254127183 0.0005886653642983575 -0.004209133365304929
          -0.0003561527697542033 -0.00042851072682292823 -0.002577721704230207 -0.0002898642160049647 -0.000476861799914019 0.0016192297159784985
          0.0016414079823174887 0.0026185637066342693 0.012964897992014723 0.005505123610092477 0.009012317677662196 0.02248959449048682
          0.0003973120351163928 0.0005834828680084669 0.0009116600525578278 0.0006568896200107588 -0.0011188902953120916 -0.000737567021773522
          -0.05694402983179092 -0.21734847354987608 0.004037328926170147 -0.012574288487300578 -0.05060135487122697 -0.0036943562598219515
          0.0007121036394543978 0.0009728900238936689 -0.005846920415145895 0.0006512444609043655 0.001094366517041756 -0.004837345232928669
          0.00010364296852571897 0.0005071009578889729 -0.002957999159652225 0.0002951723926196692 0.0005343540675557534 0.003006644420996629
          0.001529972908569377 0.0028471814083648184 0.017105231538578458 0.005725672367151109 0.009944918702583433 0.030669796845119512
          -0.0013657430902265233 0.018048069544215117 0.0022916519337208285 -0.007939234138561346 -0.001574825407528735 -0.002343714932445451
          0.002979646093490551 -0.00144665144124545 -0.003341457520884994 0.000822267866850801 0.0017630444325655859 -0.004256064388461489
          0.0010967524552123464 0.001460042243663473 -0.006377609741603507 0.0003636847872217075 0.0012491504741785064 -0.005419354948733357
          0.0003807029669031792 0.0006454104326190091 -0.0027638830998171215 0.00022599086485008968 0.0005230278426555657 0.004538797809641615
          0.00105847594163766 0.0018318880583949593 0.019183841809420787 0.0034822296254524154 0.006420728947487353 0.029539497129824843
          0.0009031879224332684 -0.01672641212710424 -0.005900815468998566 0.008313371767145306 0.002323165914014602 -0.0030108972292479663
          0.0009595619679494405 -0.00027712875406482596 -0.006059659144961316 0.0010255357408155419 0.001510312066336894 -0.006594338170719638
          0.00007216746438132304 0.000991595278263091 -0.0069829368726850305 0.0002644177655986013 0.0010027444338636116 -0.005798595530457362
          0.000405904704201987 0.0008037084411673945 -0.0018648384928745543 0.00013956991774399796 0.0006098425943594776 0.0064188996570653245
          0.0008111390345630909 0.0013717005496314272 0.02052696589435854 0.0008015514937416146 0.00199110949009218 0.02591967896951619
          0.0005196374061924303 -0.0004287988977731416 -0.0031720609010266188 -0.0010424866735307958 -0.0008406494759896077 -0.004985775224579214
          -0.0014881819804131169 -0.0013858632549315075 -0.006747964252111771 -0.0008746019333418786 -0.0008071676719874077 -0.008509045915281455
          -0.00024621225186205464 0.000597690731172662 -0.007500750679340307 -0.0004781209919428875 -0.0006391086244317279 -0.006373560266626832
          0.0005526289532440387 0.0012467043355037788 -0.00016456365116912508 0.00024497681555946116 0.0007249223815257722 0.008058388933663174
          0.000514019474634253 0.001419086650910728 0.021485718302491463 0.0002578885626958183 0.0007435799029592571 0.022014374160279737
          -0.00014709915363120274 0.00018557084434878135 -0.00504069500482629 0.00017465181459108692 0.0002609765534460351 -0.006616523216520953
          0.00039053537619704315 -0.00017668407215953863 -0.008883576197393772 -0.00013193126922228515 0.000004372936317942333 -0.008496309960450255
          -0.0008598673608579688 -0.0006011311878317827 -0.007965497689675693 -0.0007173144680985288 -0.0008815150349343881 -0.00531301316241839
          0.0002473901707249482 0.0008859397204359354 0.001337512126949214 0.0007248217466262474 0.0013452619491225448 0.009651191366939038
          0.0004900538906156271 0.0018434688536368427 0.021462961831183236 -0.00016273237028208154 0.0003038563982475928 0.018711977631545307
          -0.000755227697160521 -0.00051421306342192 -0.005398034608910862 -0.0008611525032069522 0.00001746648626976821 -0.0062391097376099935
          0.0002789500974005321 -0.00014502512730274475 -0.008809414149294703 -0.0003335038909497712 -0.00027103452211907353 -0.008654930350524559
          -0.0011256597536881685 -0.001491316977660695 -0.007947772033892075 -0.000014551949187868729 0.00010759436184315518 -0.0035588988906676278
          0.0000020016676893774843 0.00042495893669691753 0.002700757477872351 0.0012160190494059364 0.0027684738584792257 0.012111729625543077
          0.0004953304519323964 0.002558001590145409 0.02166252075010444 -0.001857276416445952 -0.0024733180893188322 0.015044755185022574
          0.00033859662547008895 -0.0006162680337808979 -0.007500959389562745 0.000949188203493101 -0.000422290112103596 -0.006346204470790262
          0.000168547745390768 0.00015254727724922645 -0.002817916630331041 0.0001415328044993558 0.0004279468625512095 0.0015086502429442206
          -0.0010398201494856707 -0.0011914285821399417 0.007077248889173937 -0.0013612223306180837 -0.0019298481091922781 0.015160293076788456
          -0.0017984039973049093 -0.0032736608839769588 0.023686034601782424 -0.0019982407959355797 -0.004281629381895247 0.01531374991484391
          -0.0017277061366629144 0.00021913195824585507 -0.003606268365960043 -0.003532409928446667 -0.0035185744207954506 -0.0030716941815098764
          -0.007243092338548321 -0.007005650136868519 -0.0009011110232490377 -0.0010607323837731608 -0.0034402375148280817 -0.003018411759447448
          -0.001630373569509569 -0.0029397880583121507 -0.00370272349414269 -0.005882112199956345 -0.002686513715027594 -0.0029904592529512927
          -0.003654539423315367 -0.0015253748855201914 -0.0027168699385688583 -0.0069085974981139275 -0.003147731416807998 -0.00594812532603204
          -0.001931676570611468 -0.0012351903029213587 -0.0034990933090843918 -0.00015440551450773832 0.0034988360283160214 -0.004722311795609446
          0.0005423500596391517 -0.000547388704321583 0.004196457517233743 -0.006200810860186867 0.0012988148757305529 0.007219338778875373
          0.01396491123699306 0.005902596495372947 0.005028760405608318 -0.003118810119685178 -0.001628534524816816 -0.0020686218965533243
          -0.0032860628009854786 -0.005778746433777182 -0.0070199847346218425 -0.0030848986845939397 -0.0034799082769998158 0.015257921273518438
          0.010713959944711582 0.008502987748777446 0.006206395668723663 0.0013506446518849469 0.0029519956641665956 -0.0006790312261182319
          -0.00011319770286388753 0.0010973576736776902 0.004561111778958793 -0.0003382904656898944 -0.0003211531115938637 0.012056549504497305
          0.013130267415565333 0.009172130372112286 0.009777773799698242 -0.0008471196211379262 0.0008578682870110654 -0.0016199392634346776
          -0.0008291797109770682 -0.003903825053410692 0.0005686148848872419 -0.002559663550771918 -0.0014000726548673015 0.005872924176765326
          0.009120684459123507 0.009038206593324771 0.008269243631628842 -0.0015549591948615937 -0.0026943399769168153 -0.0033896697856035107
          -0.005284556547807462 0.0034770893439941553 0.004387199807819098 0.0020674053154345895 -0.0007419106383734775 0.0021023088721966454
          -0.0003004339069299089 0.005828004588725788 0.010834404830872946 -0.0028141701549402112 -0.0005626347078938922 0.00045308939162844175
          -0.0008059258797210034 -0.0057999900517918465 -0.0016235075737396627 -0.0002437423781117519 -0.002492803066758198 -0.003833724927311627
          -0.0012005991241221675 -0.0010959163455560167 -0.0020644478039730796 -0.000159363976136917 0.002234010359719818 0.0010265584087012503
          -1.684119150920471 -0.00022771400177712398 0.0031272934065338376 0.0015555328296994464 -3.236572697133177 0.0008319932864148116
          0.005296652244938804 0.004311309282315712 -1.204806129969425 0.0022778611729115106 -0.0039047476149383087 0.002425650768743459
          -0.0041677862368795365 0.008952924851468702 0.014701287207036312 -0.0014774418337994977 -0.00008662356637623159 -0.001961053893054454
          -0.004671682820322376 -0.0036446823201730094 -0.0003664525586524192 -0.004401604636607992 -0.00972086265979788 -0.0012002706403004826
          0.0009801891348683034 -0.002136019927325039 -0.004837365850807407 0.005953518009663372 -0.006651791510120075 0.013540384119028637
          0.019800180556215297 0.005488519515903456 -0.01706357250319368 0.02122365426580808 0.0343524503598856 0.0018293963511054612
          -0.007349392691363921 0.013867396323975267 0.027132443206920542 0.0003370382806217936 -0.00006716820042349317 -0.002828172086886918
          -0.000982277267896875 0.00042685626454123937 0.00025515420755202814 -0.006349571440219859 -0.0022333527399429065 -0.0004058114202291352
          0.0014561281270751014 -0.0035762823602938365 -0.0013119256372275297 -0.0012054697636716405 -0.0007112581007976404 -0.0021363745342428686
          -0.0010959807993017323 0.0049981814777444455 0.009185964512917089 0.0018309316251385876 0.0020760502490744237 0.012348249167934755
          -0.006266927380343623 -0.004495642315461401 -0.012476518635717082 -0.006367344434426048 -0.006620624966375166 -0.005400735087055297
          -0.0014846627197840911 -0.0023735960674612366 -0.001364538387926717 -0.0048310296752489545 -0.0064867551056218 -0.003778725431655583
          -0.001207329310418448 -0.0012237322134844852 -0.0018522486833335572 -0.0009278150556302767 -0.002155586835683704 0.000783560962773544
          -0.0024401374438355883 -0.0002136260656198652 -0.001414057996907303 -0.0013994894024069726 -0.0028168404136833386 0.014961118811133933
          0.018092016134327815 0.0246383600795248 0.024024932672709193 -1.2806260471616395 0.0006725768987660974 -1.5327498628566714
          -2.5766704196134906 0.0013668938479058368 -2.939749063188902 -1.014591478389482 0.0028812980520943055 -1.1414101966552352
          -0.001599166646337337 -0.0019575625523878815 -0.0035428319828779836 -0.0036220621278669762 0.006280564892090432 0.007737568437852671
          -0.003276930327982208 -0.005649788516892851 -0.002104183975944196 -0.011162317124095433 0.0018862126078803554 -0.002116051894140436
          -0.00035254449796900955 -0.0020612259191999105 -0.001981491975772888 -0.003965604398278123 0.004504394726513428 0.006952039191286591
          -1.3395642884462005 0.0010554673456698582 0.002904982170810033 -1.5781084285093705 -2.6157337714449893 0.002324555508264603
          0.0054406054937220436 -3.0520715484989447 -1.2184653600680764 0.002685573747469472 0.004469122001274584 -1.3365629053887114
          -0.00026794891708337154 -0.0007660902889212728 -0.0010512295862662446 -0.00046153778358848374 -0.0010898860944046351 -0.0026158848621432584
          0.011783643825064805 0.013640357357901367 0.010005525728237985 -0.001007615769388879 -0.003769040045999983 -0.002137544319607221
          -0.007368578576093965 0.0010408933909220042 -0.003036925849091432 -0.0005949724956442193 -0.0010296273422645275 -0.0014902914312728832
          -0.0020469465633525807 0.015830560512216207 0.010986063480345365 -0.002316114951062662 -0.006850281000418679 -0.005506358940690958
          -0.012215737210879318 0.015714424731617355 0.01027822563961911 -0.003741866778245506 -0.0005864069583181308 -0.006975760955272081
          -0.001845214004602025 0.00299565915296518 0.00420519162012245 0.000030868041620168984 -0.0036300840408680923 -0.0005018770563971139
          -0.000253567266673603 -0.006799181020863533 -0.001022575033915167 -0.00014649769580826755 -0.0029641513894238065 -0.00039981003745077903
          -0.0002418589676651539 -0.0002343128622295243 -0.003577535479317717 -0.0010186187520455636 -0.000842415741135083 -0.00809736086755175
          0.003872752318041073 0.0028464192764257046 -0.00010040423851709335 -0.0003500225332429274 -0.00048114016031458595 -1.3680229975268032
          -0.0008409483351051183 -0.00014063607055453398 -2.6687498826809692 0.0011974824247469873 0.0013523410223302834 -1.0817313304386822
          -1.2751593731870303 -2.5293075106642555 -1.151918850969014 -0.0000226343325881867 -0.0003931633657284009 -0.004169832690174652
          -0.001704109689068861 -0.00025444725030743937 -0.0010248508296282627 -0.00857116494033476 -0.0035399234796747343 -0.0001588391024173949
          -0.00045282712321367824 -0.004379739430502433 -0.0017868090737559253 0.0009945573528008511 0.003596905354459279 0.0005042731967133118
          0.006729474402054488 0.004201294682927514 0.008638635567460057 -0.0026341140842367425 -0.0025864035372488783 -0.005057884330295727
          -0.0050550450617095274 -0.0022565783949541687 -0.0023307688489851708 0.0016488066410863533 0.0034131653458473465 0.003953272799099405
          0.0061694848591153095 0.005999623785833408 0.013890655899692059 0.019380975953762203 -0.01980148118286884 0.030526571680395964
          -0.026734597717540165 0.026663251927854237 0.013391825587748984 -0.0027516102604152395 -0.005230952191967564 -0.002462614294209922
          -0.0027954154568152756 -0.004957662941671992 0.0023746379321567535 -0.01867505553597315 0.007286774012089214 -0.030537726329655623
          0.00655617458180896 0.006503584857687206 0.009813440755546021 -0.004466548892344657 -0.008817435152041697 -0.0015192382092632517
          -0.005650178435284148 -0.01078218259602759 -0.00004187055891427538 -0.0019772942270277205 -0.003985858817628248 -0.0017521084309511416
          -0.003460324383686597 -0.00689135249408146 -0.0014232156546145625 -0.0024768855737250517 -0.0049449294726620074 -0.002454832496262105
          -0.0011561582951677418 -0.003469651847182509 -0.003668754204548652 0.016736656633779212 0.024041454361984238 0.018885655224148756
          -1.1646593462113122 -2.228646330085435 -0.9809269900703828 -1.5794961650021597 -3.073101176037749 -1.1331644948901678
          -0.004182565945257788 -0.00799895759282089 -0.0038247349848240936 -0.002466447159679577 -0.004527936134475552 -0.001942292395529642
          -0.0004501630172502047 -0.00025907019396465003 -0.00010508728523817013 -0.0022446419586872324 -0.003107111070791646 -0.000018865914450216792
          0.00024080803757620117 0.0008265258104023232 0.0034897856679370065 -0.002503973639646162 -0.003201555863642014 0.003332828316100489
          -0.0020540148794392366 -0.002205510727431026 0.006092840942756972 -0.0033089700804200817 -0.0042117115469268995 0.009451223480785309
          -0.0038877860254977747 -0.003742945010554166 0.01327111696020733 -0.005117728776206754 -0.004792793134873463 0.015679719050172736
          -0.006521848064508173 -0.009955465380157236 0.007357395923403898 -0.002181219946456814 -0.0019349285588630694 -0.002527536292055821
          -0.0028235405699350985 0.0013428748922694744 0.0018785244983860472 -0.00347461990742734 0.01718747044682889 -0.004591951424688823
          -0.0030115623433732974 -0.008155237635756901 -0.009716986245922765 -0.008556964327951722 -0.005032317281129517 -0.0033217010009117254
          -0.007402889737656793 -0.003937879666243482 -0.0013208161184632417 -0.004376669596858951 -0.00650947519354228 -0.0036066282379371706
          -0.004312085049298364 -0.006830343688486451 -0.000999470415225856 -0.016926042528758067 -0.02724774081035053 -0.013664463030482077
          -0.0005443398397630972 -0.0014482582119743626 -0.0024735094275563085 -0.0035843274492890487 0.004032052977311906 0.0011966521609227954
          -0.0032970857794740738 -0.004224002123118353 0.006650344477422188 0.00002094603644486881 -0.0002990962685167631 0.007031377077207246
          -0.0018753168929919184 -0.003974614626415018 0.008714349211766503 -0.0022920984617051943 -0.004905231214280548 0.009960861202790383
          -0.00400884087943254 -0.008474577073549483 0.007919304465384691 -0.005956157037255494 -0.011798943006841256 -0.00028894509440746674
          -0.006735357628346428 -0.011090008336154256 -0.00472682029764826 -0.00953411607332022 -0.03163250479298618 -0.0018564860512420012
          -0.017666998336729023 -0.02101426828637365 -0.005836235145740609 -0.010752994928849624 -0.008396721809937002 -0.00630478690782299
        </DataArray>
        <DataArray type="Float64" Name="resid_y" format="ascii" RangeMin="-0.052185647462298174" RangeMax="0.06895327101882263">
          0.00018353140720542283 0.00009366934902842183 0.00012090271444437084 0.0003177576900902229 -0.0001298689026199007 0.00014932859941214904
          0.00006943502663834047 -0.00006967192542765843 0.016511374943331783 0.06895327101882263 0.005390632279972704 0.01845272674441964
          -0.000029105315860086106 -0.00006540888421792401 -0.043369646856412765 -0.052185647462298174 -0.05178966332119672 -0.048197898391217256
          -0.001222321947508015 -0.003857569403268424 0.013477208667208251 -0.0026290968139111026 0.040562996059667844 0.007361057219623379
          0.0014162478274676593 -0.0004049866578055561 0.0019413980916266338 -0.0013090678348980367 0.0013715484284698154 0.0017895055777050195
          0.000271975298517968 0.0001818488898059356 0.0007261955791539876 0.00043143002112749906 -0.0017850075103976737 -0.0006414481106615244
          0.000279476747892915 0.00017504644679700032 0.0008304170334129668 0.0007297155087305218 -0.0034031880633310085 -0.0015446413475740384
          0.0004115202350155056 0.0004328826549140907 0.0013515175166242677 0.0012067129753701167 -0.005327633360163508 -0.0024640271065989316
          -0.0008869552273749193 -0.00043567977468506047 -0.0005207818457091395 0.0002136319725738467 -0.00943270872420432 -0.004625285531144607
          -0.0006042062163481021 -0.0008380165732112532 -0.0006987474984225805 -0.001081112198500933 -0.00910827107871967 -0.004236201758710756
          0.0001129492939772464 0.00015599607354879752 0.00007247815712746464 -0.00020523426554978214 0.0002520310413122173 0.00019131322472289158
          -0.011282425820275152 -0.036846186117323564 -0.012725860297033403 0.004950221440332726 0.041760674520830654 0.024380207317002356
          0.000780494617976718 0.0019934466095389014 0.0007891214731891028 0.0003693794728493738 0.0009669148915782133 -0.0013230576114481307
          0.0011092798819436478 0.0019849959953551766 -0.00241526834978234 0.0008866560780399491 0.0022921821033948797 -0.0039399694675386066
          -0.0004985031292983888 0.00006156104986165811 -0.007118548705430994 -0.00004584019991049626 0.0005047688818118345 -0.007420060980066132
          0.0002478539214678527 0.00036394472634806996 0.00019398959889126155 -0.00011997498144553087 0.0008540801120612979 0.00013830004483179892
          0.001138991590592664 0.01760096590409563 -0.0053190613184675994 0.002087942293968671 0.011843895214702402 -0.0021123033859871965
          0.00011242988605270066 0.0009122454386051998 0.000047320044031268216 0.00038297896986660973 0.0010821208443896058 -0.0009568062971734292
          0.00072316032055042 0.0014488319261989346 -0.001967538426622839 0.0006732041804344835 0.0015159952761661932 -0.0032475572576689538
          0.0011102090281112642 0.002594769184473378 -0.004316977939832767 0.0026149055718759917 0.0055056121873773844 -0.0033182930053192727
          0.0013773533047779715 0.0027229992066180597 0.0006713679074216161 -0.0007191919482005538 -0.0005983745325330685 0.0004970543530601751
          -0.0009062225222615516 -0.003408242580743945 -0.0016916839134182016 -0.00023569247339507576 -0.0005020675853671212 -0.0007339484240563576
          0.00022017756899080088 0.0005862814553567325 -0.00017950818767811794 0.0005270598200702858 0.0010991764612878208 -0.0005104581935592156
          0.0007531602854496944 0.0014560924971592226 -0.0011004568471092435 0.0007592655837130868 0.0015356827784399618 -0.00210952117050045
          0.0016340214189493607 0.003186451660431605 -0.0024109469673530004 0.004909210257843188 0.009209169041691778 0.0009338613489523473
          0.00019644262530574275 0.0018941045095254294 0.0005233035080723092 -0.0008278407791396658 0.00011626871591154803 0.00005818684870248503
          -0.0006461977767265314 -0.0007735276212230136 0.00009026955016802618 -0.0004183824528353995 0.00006224956680916244 0.00033314157132403877
          0.00040807328870212656 0.0006244629440360847 0.00014350706941824304 0.000595831801879193 0.0011003994327317412 -0.00005913544483238109
          0.0008838019364968974 0.001650323651087554 -0.00031772261802132107 0.0008628457685486146 0.0016021773860309119 -0.0011716613791157848
          0.001995931145392066 0.0036710579003988997 -0.0007010996711198925 0.003034840831142749 0.005739996680973414 0.0016629081952823088
          0.00011782040869273702 0.00029906852773198267 0.00022715414841978365 0.00023691642971913895 0.0003699766821831929 0.0002031851431427839
          -0.000023782275326220126 0.00004524809577630129 0.0003204914027493816 0.0001717473329609434 0.00026081138075578075 0.000502140712868953
          0.00031723276422430946 0.00035196107881114297 0.0002536293989223032 0.0006204183835422927 0.0010960506149433474 0.0004452650584595326
          0.0009875871224281074 0.0016393612216510645 0.0000362422936808493 0.0011053730312836074 0.0019496934481867678 -0.00042661677074057325
          0.002456831079558075 0.004367482252634253 0.0007546666986702755 0.002846120315665779 0.004995698025041129 0.002514984317563529
          0.00012477418240122717 0.00023601048491006527 0.00009677080461373277 -0.00008712321420561303 -0.000022106258737435158 0.0003264412568883407
          -0.00017534669498479177 -0.00006822779406849555 0.0006291855620761747 -0.00018072051150855653 -0.00022318194829506338 0.0005018338566575575
          0.0002218117829779695 0.00017596119418667247 0.00044270854068201304 0.0005636824268114016 0.0008055849043478447 0.0005126483521012623
          0.0010432708404274488 0.0015800850224916146 0.0001715765602982467 0.0016382293409187565 0.002725201648245912 0.000035029415569043376
          0.0030806636336412063 0.005243449846804915 0.0015130030473335943 0.0034710351478162704 0.006364747843488228 0.003551366658367916
          0.00032920166826982955 0.0007136654447028601 0.0005154799217618189 -0.00009774893580705157 0.00028417579332562504 0.0008364264489392204
          -0.00026608316110210417 -0.00018777165431904663 0.0007111133656871882 -0.000016371943000029893 -0.00047590242358118255 0.0005321845649649826
          0.00003840318512302737 -0.00014333118344574125 0.0007393664316261567 0.00032523476007517704 0.0001671291925567711 0.0003099683578572654
          0.0010575250272714665 0.0016057646958199633 0.000006767248955902305 0.0024005710378113 0.0040669453845947195 0.00016132813840965404
          0.003382460218687211 0.006048524778510117 0.001286007591270788 0.0011444703823809965 0.0021505127653763945 0.0010390639562263548
          0.000697507161615929 0.0011519562858854915 -0.0004459257419867635 0.000652199063395642 0.0008863058503614241 -0.0006765579161354118
          0.00014100076220757707 -0.0005668219095451565 -0.001211145562193483 0.00009468135402435074 -0.0007757980569444434 -0.0013113826462407413
          0.00024439893895036 -0.00014522296659576217 -0.00044902672305605074 0.0010449815412881258 0.0012353467520395678 0.0019279466530173206
          0.003383827467427658 0.0057881189659328425 0.0071905074164136384 0.003413987228347626 0.005806715004978202 0.006616985171511436
          -0.0004354035852642403 0.0008524422090430382 0.0007550790590619971 -0.0005232845347105386 0.00022849448397346817 0.001881917685433998
          0.0017803397020245831 -0.0006564731900710469 -0.00018599778360107663 -0.0034655597483896766 0.0010432204698453545 0.000397679783938093
          0.0012465207189238312 0.00041881613925637967 0.002139632281583592 0.0008935914104608381 0.0003366954259905047 0.00042478483136210166
          0.0012887256929944271 0.00027929242663854176 0.00029209632779190683 0.0027898202077131784 0.0005227132384681699 0.00032872480984638686
          0.002729652384046854 0.00008038227988262092 -0.00014980732371111527 -0.000406981533901285 -0.001292845143945398 0.008376384120100888
          -0.0013164362117992767 -0.0001423228805976784 -0.001483293224585236 0.013886338503810658 -0.0019448938149072004 -0.0013679181083828817
          -0.0019067015830220857 0.0040962768973617225 -0.0020802746708288855 0.000028852735263207308 -0.0007243157568186942 0.0016667943284786463
          0.002179129895923476 0.0002332490151514266 -0.002868203104535727 0.0083985888093763 0.003918820748077673 0.004676175116243186
          0.0035068270213390873 0.014681150058705461 0.004022295350507174 0.0014785399490191975 0.002797936876770324 0.001291282896676682
          0.0015368710122478507 0.003014260847142236 0.005669494492331506 0.00255122688766396 0.002833507240927541 0.0009560497142019342
          0.0029379177177561444 0.0007451302352675659 0.00023558040706765648 0.00034679132222692477 0.003186432425458796 0.0029572423798286396
          0.001558676175271112 -0.0005391498335471367 0.006064944951489237 0.00605837946137136 0.003324483844342807 0.0006653346275429239
          0.004047003233950686 0.004946094405748613 0.0041764632668540025 0.0006565746178192333 0.001973035789295946 0.0011835227587009278
          0.003461670489091656 0.0012798873746793504 0.0023494915465318567 -0.00015466093513984147 0.0022350554041818405 0.0001796727281444116
          0.0037401497834795294 0.000052438015893566114 0.0010920614079311386 -0.0014941102776497295 0.000790430014831825 0.0019773380388361517
          0.0015302320648741818 -0.0022236353125378583 0.0017174255091604723 0.0023736548823881376 -0.0013016308395548681 -0.0007548592144510091
          0.0007487855861391113 -0.00024311243258776094 -0.0038478166473123465 -0.0009716661786905679 -0.0020719649574985066 -0.002316847016960309
          -0.0015584724233862202 -0.0018207397677879422 -0.00285211891061099 -0.0037616739062717704 -0.0025359599936032318 -0.0023462593245792054
          -0.002391551026383998 -0.003327951947140164 -0.002021405985702787 -0.0021807943806664287 -0.005470492574756569 -0.002417832933881925
          -0.009074473689329732 -0.00021148406507404127 -0.003873238218837005 0.0007924411033727874 0.00040150653915755827 -0.0009234574895741199
          0.0012274530631588149 0.0018655497279220223 0.0015993472736913622 -0.0011850025479651638 0.002878045401829815 0.0015953770442346804
          0.001633102813427545 -0.00007666014780066677 0.0018279745143701676 -0.023262251226195074 -0.011787156386447117 -0.006626207793988148
          0.005490289441066318 -0.04181548525118006 -0.022219851609041497 -0.011209135998756253 0.013679259831754022 -0.014585539585502572
          -0.01032120152195426 -0.0020720456201584747 0.010178302855611158 0.00013737768189790028 0.00013871693229745852 0.0014370940273693948
          0.00018312074583606147 0.0001166133326788582 0.00042880952480892423 0.003710473917247315 -0.00010866704822312667 -0.00014794979862817192
          0.0008878150283228026 0.003076886799925904 -0.0008418429465711606 0.001418513902460422 0.0042136755415204345 0.0028547914385194384
          0.008142975394801757 0.0017297265301128573 0.0045823021518797 0.000280480841034908 0.0013942245902382466 -0.0014388057123682074
          0.0009763583665629572 -0.00044191816071931234 0.0023828778608048773 -0.0019067851988113227 0.0010891145050607731 0.0006068259289478961
          -0.0006412509439589487 -0.0005313023833021235 0.00015273001528850333 -0.002602839508593524 -0.003190365302831233 0.0013132490738291536
          0.003128383295127532 0.00012122538306158503 0.002558868157762184 0.0016344887814531 0.007152207927745846 0.010593691279250361
          0.004503941486523333 0.005201821043492205 0.015654071046019402 0.019884824674141433 0.010871340605245819 0.0042555483421586465
          0.014967509874570059 0.01699141239331925 0.0087833121225043 -0.00028212173691916087 -0.002046943462090639 -0.0019093086683860117
          0.00021581421343835894 -0.0030978192699962492 -0.0028556971710138046 0.00004510140463626078 -0.0027112223921931453 -0.0017541982783282131
          0.00023663641066042594 0.0029222012654429586 -0.00012943906725989412 0.0055293553496919 0.0015051372881970948 0.003925657647766867
          -0.0011587003231934012 -0.00007010027045029066 -0.0021626219279082814 -0.004343148260967447 0.002807801300509949 -0.0022088568794632613
          0.0038545367599238656 -0.0012079964465859239 0.005685103018441939 -0.0024622255072078714 0.003850255669281877 0.003973763999587321
          -0.004417804030301783 -0.001628603066263834 -0.002212027113184911 -0.0041978349685116816 -0.006280045064546422 -0.0020136491141033164
          -0.003408641685804348 -0.006455129638766516 -0.0015657319316286292 -0.0014069854726364711 -0.002712411883815158 -0.0020430659731909134
          0.002136040648734315 0.004938782711038314 0.002064098631099451 0.004167640647940521 0.008389795681783108 0.0035716882366338687
          0.0027588928378416144 0.004610800325621944 0.0018578108398646098 -0.0005588622166139978 0.002070583134495263 -0.001333252993639955
          0.004180596759138289 0.0012543423879305543 0.003588679102413339 0.00343024561054206 0.0028385307260179737 0.005895382342201216
          0.00531018822858681 0.003062485806842541 0.003456204389285733 0.006263354225474138 0.0004931706649660139 0.01069128540340114
          0.003353809443485775 0.008161151286856766 0.0060592157871620644 0.001922691732776094 0.0011069250556782206 0.003914553238770269
          0.0015212267129631196 0.004867082605688217 0.00263867574933202 -0.00021483126757821432 0.0015073043097483096 -0.00026806570047171324
          -0.000427467880996478 0.002857204669035711 -0.0005195466913815814 -0.00015804756915482844 0.0012152293489573404 -0.00017435884756161757
          0.0005932637550836728 0.001318940669023716 0.0004089458456241202 0.0018175822807545705 0.0028004312720675273 0.00035389428243204346
          0.002961626918286109 0.0030228353306303024 0.001860797781731427 -0.00004852798873364317 0.0013859863577387332 -0.0020142577976552598
          0.0006917001266765199 0.003277772832958964 -0.003071198705118919 -0.00005536437454198295 0.00023521987217692275 -0.0011811332376063105
          -0.002925322872658509 -0.004379792385129519 -0.0013484106699599074 0.000020350100402615617 -0.00007172792122091959 0.0013510819853553915
          -0.0002444991700204116 0.00018522755847690843 -0.000014854716534368206 0.0026319115486819686 -0.0005373990471230199 0.00006289395549631364
          0.00008247738193511295 0.0011887188219056738 -0.000247393373634993 -0.0015888860479515154 0.0023627187980306275 -0.002408785934810795
          0.004332144110988145 -0.0010782230995772454 -0.0004252455380880371 0.00034770638057131376 0.002445588215191632 0.0007219280122208946
          0.004714804336338913 0.0003297020959618993 0.0022907713630451326 -0.0005391798640546064 -0.006437575359486636 -0.0019498524152217755
          -0.010488533808685863 -0.003271670792936554 -0.004745182723327135 -0.011229340744429717 0.015693807685778993 -0.019591202381728068
          0.027678976929311983 -0.006720612727657754 0.0133635250988825 0.0013725204263464914 0.0024583091485982974 0.0010529978419943345
          0.004144485109449647 0.0079205260141324 0.005692056757691244 -0.007751359531240398 -0.0008791487203184123 -0.011680310529584514
          -0.00270801714861052 -0.00011548229325208936 -0.0011337956932895854 0.0023027174267008788 0.004381612939081764 0.002925208013006164
          -0.0020101352475128814 -0.0036271728742296866 -0.00040248116645874576 0.0008876120312600552 0.0016295166065834212 0.0007346002330423998
          0.0012494308779162633 0.002172959131085672 0.0028032728185461986 -0.0006141114804065206 -0.0013046525588978133 -0.0007396142758813451
          0.00001574601082265925 -0.0017432287359654824 -0.0025128738623277913 -0.002725396190852103 -0.006174050369108508 -0.0002973920201627678
          -0.00931764314802493 -0.016964624893110406 -0.007675760662648388 -0.000494375919517509 -0.0006747948090438938 -0.0008079781137189587
          -0.00032546896297468153 -0.001037897427104889 -0.0004577682406903885 0.001671066297197453 0.0028520672144364163 0.0006902606436467347
          0.0009680823373985348 0.002091187840817854 -0.0004018721224748889 0.0009238550822735919 0.0021478337354269295 0.001154441394246697
          0.0005123608171914706 -0.00016441811235999582 -0.0010007712028234639 0.0014363978304511305 0.003073692785111215 0.0018057790490321746
          0.0007655360518624699 -0.00006469044111903632 -0.00039784501661843663 0.0021333655208359836 0.0032365729340959604 0.002284475348160231
          0.00352338370509242 0.0058643230847281735 0.00527942899351086 0.0052582078094352 0.009901316909943558 0.009034787601839955
          0.0015355508523852146 0.0020934255904322407 0.002692895900398673 0.001854889521221259 -0.00006308141230515485 0.0037124936339555936
          -0.0006298882403543704 0.002975933528008158 0.0002760355135260628 -0.00006395402210573886 -0.005407605243039723 -0.00016224256032204565
          0.0003716883452047348 -0.0003329694097820579 0.0023077451089817957 0.00033975925589657674 0.0003054697429634712 0.00037216526029909547
          0.002328651190369735 0.0007668314767442785 0.000768066679522339 0.0020328528450419825 0.0024784291978039164 0.001309975815915354
          0.0021012806597328487 0.0024841612666520116 0.0015190251490693751 0.014691484849436443 0.009967840063353967 0.002189521267772332
          -0.00024391481487424926 0.0021677895689450055 -0.000446667150727241 0.005847041659860053 0.0009594138340922806 0.004011598752372003
          0.0026375453160836226 0.004571051658176062 0.0033897303039421844 0.0026530102109090237 0.0028917257591037915 0.0031437312921523963
          0.0029480898918845255 0.004492677029029668 0.0031722854210058937 0.005456250821307518 0.007482300741871173 0.005234068201518394
          0.004726099420943486 0.0052286671918597705 0.003996851979017446 0.0008595794830159598 -0.0028947646898118684 -0.0008252855474992771
          0.0017559106658862067 0.0006232500217797643 0.0019693116673080713 0.0027739758027011674 -0.005733837790281733 0.00003626777018395089
          0.00023019251454514666 -0.002118517270722599 0.00040625260967108723 -0.00013428981404944862 0.0004725550088591629 0.001594502085887961
        </DataArray>
        <DataArray type="Float64" Name="resid_z" format="ascii" RangeMin="0" RangeMax="0">
          0 0 0 0 0 0
          0 0 0 0 0 0
          0 0 0 0 0 0
          0 0 0 0 0 0
          0 0 0 0 0 0
          0 0 0 0 0 0
          0 0 0 0 0 0
          0 0 0 0 0 0
          0 0 0 0 0 0
          0 0 0 0 0 0
          0 0 0 0 0 0
          0 0 0 0 0 0
          0 0 0 0 0 0
          0 0 0 0 0 0
          0 0 0 0 0 0
          0 0 0 0 0 0
          0 0 0 0 0 0
          0 0 0 0 0 0
          0 0 0 0 0 0
          0 0 0 0 0 0
          0 0 0 0 0 0
          0 0 0 0 0 0
          0 0 0 0 0 0
          0 0 0 0 0 0
          0 0 0 0 0 0
          0 0 0 0 0 0
          0 0 0 0 0 0
          0 0 0 0 0 0
          0 0 0 0 0 0
          0 0 0 0 0 0
          0 0 0 0 0 0
          0 0 0 0 0 0
          0 0 0 0 0 0
          0 0 0 0 0 0
          0 0 0 0 0 0
          0 0 0 0 0 0
          0 0 0 0 0 0
          0 0 0 0 0 0
          0 0 0 0 0 0
          0 0 0 0 0 0
          0 0 0 0 0 0
          0 0 0 0 0 0
          0 0 0 0 0 0
          0 0 0 0 0 0
          0 0 0 0 0 0
          0 0 0 0 0 0
          0 0 0 0 0 0
          0 0 0 0 0 0
          0 0 0 0 0 0
          0 0 0 0 0 0
          0 0 0 0 0 0
          0 0 0 0 0 0
          0 0 0 0 0 0
          0 0 0 0 0 0
          0 0 0 0 0 0
          0 0 0 0 0 0
          0 0 0 0 0 0
          0 0 0 0 0 0
          0 0 0 0 0 0
          0 0 0 0 0 0
          0 0 0 0 0 0
          0 0 0 0 0 0
          0 0 0 0 0 0
          0 0 0 0 0 0
          0 0 0 0 0 0
          0 0 0 0 0 0
          0 0 0 0 0 0
          0 0 0 0 0 0
          0 0 0 0 0 0
          0 0 0 0 0 0
          0 0 0 0 0 0
          0 0 0 0 0 0
          0 0 0 0 0 0
          0 0 0 0 0 0
          0 0 0 0 0 0
          0 0 0 0 0 0
          0 0 0 0 0 0
          0 0 0 0 0 0
          0 0 0 0 0 0
          0 0 0 0 0 0
          0 0 0 0 0 0
          0 0 0 0 0 0
          0 0 0 0 0 0
          0 0 0 0 0 0
          0 0 0 0 0 0
          0 0 0 0 0 0
          0 0 0 0 0 0
          0 0 0 0 0 0
          0 0 0 0 0 0
          0 0 0 0 0 0
          0 0 0 0 0 0
          0 0 0 0 0 0
          0 0 0 0 0 0
          0 0 0 0 0 0
          0 0 0 0 0 0
          0 0 0 0 0 0
          0 0 0 0 0 0
          0 0 0 0 0 0
          0 0 0 0 0 0
          0 0 0 0 0 0
          0 0 0 0 0 0
          0 0 0 0 0 0
          0 0 0 0 0 0
          0 0 0 0 0 0
          0 0 0 0 0 0
          0 0 0 0 0 0
          0 0 0 0 0 0
          0 0 0 0 0 0
          0 0 0 0 0 0
          0 0 0 0 0 0
          0 0 0 0 0 0
          0 0 0 0 0 0
          0 0 0 0 0 0
          0 0 0 0 0 0
          0 0 0 0 0 0
          0 0 0 0 0 0
          0 0 0 0 0 0
          0 0 0 0 0 0
          0 0 0 0 0 0
          0 0 0 0 0 0
          0 0 0 0 0 0
          0 0 0 0 0 0
          0 0 0 0 0 0
          0 0 0 0 0 0
          0 0 0 0 0 0
          0 0 0 0 0 0
        </DataArray>
        <DataArray type="Float64" Name="stress_zz" format="ascii" RangeMin="-112880262.93990237" RangeMax="151793679.74932182">
          1615377.5218729912 1407931.3573569986 1009896.9073911266 841829.4049397402 404416.2929092621 275727.45252248197
          3112728.866786872 4229429.279079417 1372180.4133632444 1623230.0844949456 -368368.04006038257 -982969.1100895255
          2811503.999869873 6139639.379622196 746020.3487121463 2515662.9542519655 -1319463.30244558 -1108313.4711182641
          -1565123.0477278403 449190.0837368951 -1680942.7928006193 -255190.297270822 -1796762.5378733985 -959570.6782785393
          -4237084.902397436 -4640116.332544208 -3118258.2340047406 -3397136.6268156394 -1999431.565612046 -2154156.921087072
          -2938566.0571698467 -3438640.3642200883 -2093316.396244823 -2519018.744821923 -1248066.7353197995 -1599397.125423757
          -1143897.5374912773 -1595389.514474962 -664889.0609963961 -1085924.7484056752 -185880.58450151476 -576459.9823363883
          1369867.1512162755 278153.8440449626 1541460.4135370725 264384.06693400885 1713053.675857869 250614.28982305503
          4678292.023984853 4363636.297580747 3078086.387321605 2641057.475098916 1477880.7506583557 918478.652617085
          27870048.202802658 10856798.806180136 21615309.05949582 6209621.867395302 15360569.916188985 1562444.9286104674
          1957590.0134285605 1227180.3012007435 496770.5889729266 1211993.3688690332 496482.5932442841 -219028.18238046457
          -2251191.2896950827 -1876173.6764945213 -1501156.0632939602 -4111757.2409166046 -3073303.073995975 -2034848.9070753455
          -3057087.253481721 -2228416.4870894006 -1399745.7206970812 -1696072.250744696 -1049942.0254177998 -403811.8000909034
          359880.69458051794 770378.3329623666 1180875.9713442153 3091369.0165494997 3626508.3960643755 4161647.7755792504
          4706041.651568822 3552174.0758083216 2398306.5000478216 -931418.2128037307 -4105664.5069216387 -7279910.801039547
          1499027.2897214452 595161.9763641215 -308703.3369932019 -1237548.3906565893 -1421148.7590779173 -1604749.1274992453
          -4189701.863144883 -2984747.395577807 -1779792.9280107305 -3474066.0907485858 -2344212.717961424 -1214359.3451742616
          -1612415.6884492298 -1086815.8249089317 -561215.9613686333 -81203.57410193491 317517.17727654736 716237.9286550295
          2556751.154381763 2869714.791105953 3182678.4278301434 4185738.542117629 5029710.843935887 5873683.145754146
          928613.9164394778 551056.0792556107 173498.24207174336 -3141612.8008779334 -4385438.900449598 -5629265.000021264
          -1212804.7546693715 -1476724.9945526246 -1740645.2344358775 -4590418.27693188 -3656275.76023044 -2722133.243529001
          -4360411.696886139 -3183890.3004665296 -2007368.9040469206 -2014405.3047598975 -1399937.2247988796 -785469.1448378616
          -521947.90090495365 -150377.52310496545 221192.85469502272 1614442.0938516674 1778134.287464507 1941826.481077347
          4651570.1517951405 4808438.121306893 4965306.090818648 4735857.854043196 5712805.783460025 6689753.712876854
          -2412178.7586883125 -2436144.8232000093 -2460110.8877117075 -7734539.845849304 -9295483.912425898 -10856427.97900249
          -5861443.314617043 -4323779.860616811 -2786116.406616578 -7220983.479578396 -5069778.921816272 -2918574.364054145
          -4765147.831829917 -3230848.6345823673 -1696549.4373348192 -1958872.2528753746 -1138691.858553568 -318511.46423176164
          193849.66815412018 572658.5214815242 951467.374808928 3060755.1543771066 3021448.3869253434 2982141.6194735803
          6129499.625339234 6043755.065122592 5958010.504905948 5249704.558193984 5880097.491077571 6510490.423961159
          -2462009.5255515967 -2904575.0980926757 -3347140.6706337547 -17330412.153738223 -19443800.01239349 -21557187.87104875
          -10266750.648044277 -6914875.299941591 -3562999.951838904 -9356808.443887083 -6142873.155434835 -2928937.866982585
          -6012697.887207975 -3683102.2988429703 -1353506.7104779663 -2537085.7346635195 -1226683.1975999703 83719.33946357944
          639312.5634858055 1088404.2114242536 1537495.859362702 4009214.0308910506 3784137.924753976 3559061.8186169015
          7016624.163717707 6531427.951632395 6046231.739547083 6075976.788787357 5765382.878099353 5454788.967411348
          -1475465.3508162787 -2874833.4080197294 -4274201.465223179 -6533564.90938581 -10196132.775722582 -13858700.642059354
          -13204776.233701823 -9050488.20818338 -4896200.182664936 -10919116.477869056 -7264172.1061489815 -3609227.7344289077
          -6955890.540085163 -4379546.285794519 -1803202.0315038743 -2914912.1417707484 -1536822.5052013746 -158732.8686320007
          947249.9715740571 1291689.662210106 1636129.3528461545 4558916.904481823 4067306.90432698 3575696.904172138
          7420328.777859854 6407781.947878981 5395235.11789811 7496204.947128374 6006800.752455714 4517396.557783056
          2920171.4790727505 417051.3616743958 -2086068.7557239588 -405510.16085965594 -3331333.511985125 -6257156.863110592
          -10940131.574459461 -10725505.631282227 -10510879.688104993 -7446539.20342399 -8201278.019665305 -8956016.835906617
          -3696918.9987334027 -5226516.322197666 -6756113.64566193 -337463.8525836079 -2251438.446387495 -4165413.0401913817
          2864693.346472861 945676.3227020681 -973340.7010687243 5642822.792909233 4105721.3196179667 2568619.846326702
          6961446.964486582 6308076.697749308 5654706.431012034 7209006.200125711 7552870.372361687 7896734.544597662
          6277401.267928193 7764690.216063318 9251979.164198443 232770.5856336063 3875880.9245640025 7518991.263494398
          -367922.0938154644 -4288344.762155211 -8208767.430494957 1737073.4242369856 -1781214.1536830207 -5299501.731603027
          3769722.774626445 1040908.4482293923 -1687905.8781676607 5380881.7668493185 3859800.575179489 2338719.383509659
          5509169.824015207 5749340.150928746 5989510.477842287 4791865.638026922 6732072.918667344 8672280.199307768
          8718868.861146845 12879804.405823477 17040739.950500112 7468346.212385522 12487868.811344061 17507391.410302598
          8269332.800233742 -21130203.33916496 -11468107.991988994 5652396.1412952095 2591418.389543543 -21564256.41223803
          -11202251.690074686 2190358.0153550096 -3086496.021146655 -21998309.485311102 -10936395.388160374 -1271680.11058519
          25035306.039293706 17896271.11700631 15169072.50333513 12564682.775296876 5302838.967376552 7233094.433587444
          28019505.14977462 38209716.29691123 49135148.846180886 18718441.450344227 24954357.88052986 38399394.52730625
          9417377.750913844 11698999.464148482 27663640.20843163 25169739.243558213 12335618.285310209 67561578.59050956
          28791819.03994999 20655018.088135637 9972427.347729933 59085380.985521786 23491716.842448536 16140296.932713067
          7609236.410149652 50609183.38053401 18191614.644947074 -19843101.13644647 -42213284.71662025 -59299446.40507995
          -60689593.078518145 -5821398.229776624 -28575601.245971728 -39162602.1842305 -38743054.98577896 8200304.676893223
          -14937917.775323207 -19025757.96338105 -16796516.893039778 4723932.327671708 213806.49883856624 30738848.891667463
          7491593.476979603 5852210.697543489 -25159.051622772356 28474722.782169186 6826263.08535244 6980489.06741527
          -264124.60208411235 26210596.67267091 6160932.693725278 -18523727.69431085 18321676.572913278 -7995441.144119708
          -18285135.69802921 -13492678.410022328 24283460.52063908 -4734699.861167496 -13919490.079130337 -8461629.1257338
          30245244.46836488 -1473958.578215283 -9553844.460231464 4251835.409040292 1985870.020466859 9110649.145502184
          418683.62510695355 13969462.881964074 -1148502.7702529486 26234519.477759987 4155972.12134739 24887255.55079426
          251334.55866748653 23539991.623828534 -3653303.0040124175 -3356604.993909844 22552195.004759647 26652895.99846958
          -59159933.75912871 96980.39968971023 13793711.8002435 2079380.5661847654 -43596132.547591105 3550565.7932892637
          5035228.595727361 -22494134.866100043 -28032331.3360535 33556018.924376294 44517850.23152611 26023045.586939607
          12524576.660898367 24358364.528574504 37485754.62942598 20797682.356257033 6781196.156794117 15160710.132772712
          30453659.027325846 15572319.12557446 1037815.6526898643 -59501915.21604818 -30709285.138423525 -56362155.212252855
          -31835299.941827547 -53222395.20845755 -32961314.74523157 -11978790.662389515 -7125026.485379329 -204981.48418984958
          765399.4807060205 -12328230.118692696 -6019861.75254087 -405688.77455083036 -940285.342318964 -12677669.574995875
          -4914697.019702407 -606396.0649118116 -2645970.1653439486 84215789.17085837 151793679.74932182 33992929.38086388
          35395365.67257343 63211265.90313013 131338617.97124727 31566108.48318877 27391698.095916234 42206742.63540188
          110883556.19317272 29139287.585513655 19388030.51925903 64541708.38754192 54972987.06816262 54418841.720895514
          71201249.72944045 30001960.900529616 21047584.92419242 34607495.5826565 46375133.7510383 -4537786.586482686
          -12877817.219777772 14796149.44441749 21549017.77263616 17327066.357266717 -10787948.123963894 25404362.686011825
          -4873507.6095753275 33481659.014756933 1040932.9048132403 6367403.263647584 4743624.928973173 3119846.5942987604
          -22590324.86780762 -39261933.74182345 -13572738.280674998 -34277698.94265881 -4555151.693542376 -29293464.143494174
          -53372313.75588527 -61441261.97965201 -44224379.42885458 -38771433.28775855 -46838047.21954651 -40053601.557522595
          -24170552.819631822 -32234832.45944099 -35882823.68619059 -10482225.869788704 -4011187.4996666405 41267389.047823206
          27005145.274895992 -28417718.08868251 -25223771.598530408 37785714.61900177 20397893.75799417 -46353210.30757631
          -46436355.69739418 34304040.19018035 13790642.241092354 25891419.907384448 13148873.299821079 23574656.637478005
          20540661.645426378 7200000.287337089 16314391.516922964 15189903.383468311 1251127.2748530987 9054126.396367924
          7369131.427909771 -9383727.723682854 11852666.232931394 -12322729.16521976 16336201.03795302 -15261730.606756665
          -86646711.52847613 -64880921.805385716 -58277195.083991796 -53039095.69628355 -29907678.63950744 -41197269.58718139
          -43456534.32573057 -40033096.367776886 -21874353.751496438 -30896908.894545685 -292173.1772623056 -21760721.421314474
          59134747.133396894 70650540.71436255 57919057.78424373 43719676.756322876 56783391.04881587 65857548.021095954
          52134529.91128099 39947102.75139816 54432034.96423485 61064555.32782936 46350002.038318254 36174528.74647345
          -8286310.156291496 13625823.492612515 6946519.022919121 -5962980.822030211 9129488.00798919 2687985.8811463537
          -3639651.487768926 4633152.523365865 -1570547.260626413 -22427132.514733918 -20296574.498861145 -19834688.77673727
          -16241007.508559832 -17242245.03874062 -12185440.518258514 -2590467.1910375683 99352.85531053785 -427803.24951476714
          1093960.5880681975 1734860.6920080334 2088568.320825858 -24873479.78943867 -29578325.61389634 -20653190.76019874
          -40799387.09124321 -16432901.730958806 -52020448.568590075 -21178025.415252883 -16408785.942245007 -17853758.576597415
          -8726645.288802281 -14529491.737941945 -1044504.6353595541 45015683.73682225 28253944.779015232 32881385.472145766
          28301865.196795046 18175947.461948026 21032354.82893755 11588046.656767845 8097950.144880822 9183324.185729332
          -5102540.355071065 -6335316.371787482 7200340.509700691 -3593708.671348581 -2521796.1839631842 17763225.924406074
          -2084876.9876260972 1291724.003861114 28326111.339111447 6368493.59057387 6398120.127063046 -19194926.603350442
          4944289.426868882 9683915.015768055 -17140733.933188554 3520085.2631638935 12969709.904473063 -15086541.263026662
          11480829.080624793 15151783.62644112 18822738.172257446 15212075.700914036 13531343.462035611 7986524.932923925
          6343050.136177887 8757519.92899508 8179673.774931032 3961987.3691036636 1445745.4781450226 2302964.1570761222
          2828004.087826452 -62550.194716597674 -3451559.179887842 41895268.0088297 -6053675.675498426 39636032.59796469
          -8310957.098412737 37376797.18709969 -10568238.521327047 20896123.12067427 23880630.792087905 13430479.574128678
          14599957.525197614 5964836.027583087 5319284.258307325 49714848.80893948 -33399724.9429263 43086405.94643972
          -29308483.40392499 36457963.08393996 -25217241.864923686 86656079.0928612 -57375653.63959838 78186469.25632878
          -54028704.51818317 69716859.41979635 -50681755.39676795 11466177.563544296 7729160.540317017 3992143.517089739
          -2824192.2728845044 -673854.6642598817 1476482.944364741 35690465.29227817 57812110.99778896 45887133.01184557
          61353486.97658562 56083800.73141296 64894862.95538229 -6532682.124985506 3934991.5326728276 14402665.190331167
          -75173306.63786665 -50470530.844287984 -25767755.050709322 60436336.63632662 42187356.97603014 23938377.315733656
          -20843182.6449339 -15613999.924236616 -10384817.20353933 5695497.396201189 3071180.0945475684 446862.7928939482
          -112880262.93990237 -89538064.64641206 -66195866.35292176 59444076.18868806 54314749.64673377 49185423.10477946
          94346463.36015357 82213139.79924944 70079816.2383453 -5300895.124214943 -12108875.80676907 -18916856.4893232
          5354018.095312593 1682653.4749716856 -1988711.1453692212 54770678.02121363 19316383.029287662 -16137911.962638306
          2057892.4253181112 2094105.3582275072 2130318.291136903 4480125.519761679 5402292.189696083 6324458.859630486
          3090831.0757983797 3232470.202514275 3374109.3292301698 3948247.8394713528 4709730.56141866 5471213.283365968
          3658590.775314383 3865351.2117777825 4072111.6482411823 3124145.6680369647 3416937.54198572 3709729.415934475
          2211334.351000423 1826708.3824546756 1442082.4139089282 3941499.4653015584 3508831.9590660078 3076164.452830457
          5586457.540270046 5177887.208449376 4769316.876628706 -862607.9913096488 -5496163.074233178 -3728906.0091846227
          -7805313.867201938 -6595204.027059596 -10114464.660170697 -1680891.7032358919 -1731687.0016264424 3161561.7829328477
          -2776081.3314924664 -1927847.9636456592 -2012924.2601410672 3304487.9288512566 -3022756.468271234 -2174804.224055426
          -2294161.518655692 3447414.0747696655 -3269431.605050002 5249036.229601312 3922312.779053005 2595589.3285046984
          3298621.1890299544 3033856.515297855 2769091.841565754 1993457.2378937388 1269338.70481353 545220.1717333217
          3496608.677957641 5223552.618522779 3292683.842473173 4997924.891644576 3088759.0069887056 4772297.164766371
          2547991.619265028 2991392.979482025 3434794.3396990215 687683.6938389741 512985.4664117206 338287.23898446717
          -26463.998082253034 -60203.053343532025 -93942.1086048109 -3349548.3466436383 -4388908.704330919 -5428269.062018199
          -5313731.542677045 -6760380.433517836 -8207029.324358628 2699542.349365404 2566364.5058299936 2433186.662294584
          6207450.645263088 6368697.79547249 6529944.945681889 1942598.541091069 517542.7778434914 2490802.4679059056
          1773374.5735230835 124633.53757202346 2168125.221586979 1604150.6059550976 -268275.70269944426 1845447.975268051
        </DataArray>
        <DataArray type="Float64" Name="peeq" format="ascii" RangeMin="0" RangeMax="0.07413112624074658">
          0 0 0 0 0 0
          0 0 8.726440460731934e-7 0.0000017452880921463868 0.0000017452880921463868 0.0000034905761842927736
          0.0000026006167879407548 0 0.000012493411688594821 0.000007894565261227158 0.00002238620658924889 0.000015789130522454316
          0.00015904100961060895 0.00011990300201286375 0.00020577883215662501 0.00016165117399836537 0.0002525166547026411 0.000203399345983867
          0.00084928639404767 0.0007586618308979017 0.0009405981919849708 0.0008500227489757867 0.0010319099899222717 0.0009413836670536717
          0.002444037970089794 0.0023327350513751267 0.0025461988206277966 0.002440229635299236 0.002648359671165798 0.002547724219223345
          0.005256551079092793 0.005152959543101177 0.005315053169995912 0.005216819068817503 0.005373555260899031 0.005280678594533828
          0.009749633139397086 0.009698469640534318 0.009676736966984342 0.009624920956946172 0.009603840794571595 0.009551372273358026
          0.01728732867030133 0.017516692832618485 0.016942003866020634 0.017146066039398923 0.016596679061739932 0.016775439246179365
          0.02737965410353325 0.026760773153332626 0.026621726472291087 0.026036347160273678 0.02586379884104891 0.025311921167214722
          0 0 0 0 0.000001948355433722776 0.000003896710867445552
          0.00002926614152760499 0.000053151673687506124 0.00007703720584740724 0.0002995551558557918 0.00036244741722849915 0.00042533967860120653
          0.0011216050575402314 0.0012103739431399952 0.0012991428287397588 0.002769651575285805 0.0028569876562016742 0.0029443237371175436
          0.005558132585412533 0.005601052908263052 0.005643973231113572 0.009885636252023225 0.00981504290185364 0.009744449551684053
          0.016635657709513134 0.016356727824555734 0.016077797939598334 0.02428343354766613 0.023747004576790902 0.023210575605915672
          0 0.0000020825758286648067 0.000004165151657329613 0.000009024391966421123 0.000027285450547712244 0.00004554650912900336
          0.00013244439847649419 0.00018520946651794998 0.00023797453455940578 0.0005896708513218079 0.0006672496626306957 0.0007448284739395835
          0.0015716369890749282 0.001651788328954205 0.0017319396688334817 0.0032872787598808876 0.003352181496597575 0.0034170842333142624
          0.006023068097039195 0.006042450625633347 0.006061833154227498 0.010061394014618759 0.00999405241562444 0.00992671081663012
          0.0156496519899986 0.015463188426130467 0.015276724862262336 0.021486922567114417 0.02123039319938333 0.02097386383165224
          0.0000043730938608299964 0.000024493352961586537 0.00004461361206234308 0.0000749373759329342 0.00012616548649904203 0.00017739359706514982
          0.00037389544024671924 0.00045034021899156786 0.0005267849977364166 0.0010459839361103894 0.0011242776967747743 0.001202571457439159
          0.0021860805324658374 0.0022499685879965835 0.0023138566435273286 0.003961034350574872 0.003997062898035835 0.0040330914454968
          0.006588719612264577 0.006580938019748689 0.0065731564272328005 0.01020350997433233 0.010140013158780138 0.010076516343227947
          0.01448493858708131 0.014395213475128359 0.014305488363175408 0.01738322438717171 0.01736531989761064 0.017347415408049575
          0.000058472137909993286 0.00011088965563761403 0.00016330717336523478 0.0002725360631757226 0.0003483762973872233 0.00042421653159872396
          0.0007831018272959815 0.000862687608677262 0.0009422733900585425 0.0016583045687426716 0.0017230479990204416 0.0017877914292982113
          0.002943271336501144 0.002980607239176927 0.0030179431418527105 0.004739268727756094 0.004741425468428547 0.004743582209101002
          0.007172134916596141 0.007138968661889807 0.007105802407183471 0.010230315216540841 0.010175229699844501 0.01012014418314816
          0.013240572807661846 0.013234757002198155 0.013228941196734461 0.01457137474833869 0.014719622473477209 0.014867870198615732
          0.0002446697159906763 0.00030834821483621 0.00037202671368174377 0.0006494067125772953 0.0007171213275984651 0.000784835942619635
          0.001367393983024134 0.0014222770976965661 0.001477160212368998 0.00242220787280901 0.0024509170634387806 0.0024796262540685513
          0.003810758247911927 0.0038065408768220114 0.0038023235057320958 0.005556481638699597 0.005522264593955707 0.005488047549211819
          0.007683840615021943 0.00763436457750088 0.007584888539979817 0.010070193318531748 0.010037442822293928 0.010004692326056108
          0.011902465935878716 0.011975822371006237 0.01204917880613376 0.012147225295851417 0.012417302404349892 0.012687379512848363
          0.0006118659706745719 0.0006405118720047196 0.0006691577733348671 0.0012218833628407815 0.0012362746428333574 0.0012506659228259337
          0.002131031625122851 0.002121296301355286 0.002111560977587721 0.003320574565620035 0.003282503984625984 0.003244433403631933
          0.0047402106626531024 0.004678818278729204 0.004617425894805307 0.006338832607376309 0.006270799080445243 0.006202765553514178
          0.008043927856739672 0.007996796046593639 0.00794966423644761 0.00966633936965422 0.009682507297847726 0.009698675226041228
          0.010472392379834845 0.010633447887315343 0.010794503394795842 0.009931314409561558 0.010281326762083019 0.010631339114604482
          0.0011445227512437996 0.0011256642376972614 0.001106805724150723 0.001959678507623302 0.0019157079657817202 0.0018717374239401385
          0.0030281982375563623 0.0029574235871977377 0.0028866489368391136 0.0042900033198627514 0.004198077748434391 0.00410615217700603
          0.005652972475278674 0.005554742045108781 0.00545651161493889 0.0070050967892940135 0.0069254036037598304 0.0068457104182256465
          0.00819975501122729 0.008171449141287502 0.008143143271347714 0.009019158502862435 0.00908412236478686 0.00914908622671129
          0.008979720297619453 0.009186144366484884 0.009392568435350314 0.007984176417766463 0.008315229281484815 0.008646282145203165
          0.0039291179791457725 0.003861932051536984 0.0037947461239281957 0.005152922450230819 0.005074710449787374 0.004996498449343929
          0.0063562607094966046 0.006279951552826707 0.006203642396156809 0.007393259191677833 0.007337488596372583 0.007281718001067332
          0.00808374536982058 0.008071347697470747 0.008058950025120915 0.008202508843194161 0.008260039484928833 0.008317570126663506
          0.007477599221173761 0.007620237629727958 0.007762876038282153 0.006302597733724973 0.006510952366812572 0.006719306999900172
          0 0.00000978672237636336 0.00005702691342670755 0 0.00045888838057831454 0.0012760701076130225
          0.00014326486528175986 0 0.0009177767611566291 0.002542353492849682 0.00022950281713681215 0
          0 0 0.00012114051787522787 0 0.00024228103575045574 0
          0 0 0 0.00027851790898218026 0.00003733473050451098 0.00012099967038415829
          0.0005570358179643605 0.00007466946100902196 0.00024199934076831657 0.0369581817790429 0.033896710054791036 0.043106120444867294
          0.04325252999729221 0.03586807089570547 0.033196692387747966 0.04184207451308122 0.04177035090266298 0.03477796001236805
          0.03249667472070489 0.04057802858129517 0.04028817180803373 0.011944381789726191 0.007357450006428748 0.0060768881004271275
          0.007985102574498908 0.014732243355291597 0.009380269724971978 0.008481596780775704 0.01065140964766523 0.017520104920857003
          0.01140308944351521 0.010886305461124283 0.013317716720831551 0.02162422725960864 0.021636076788964582 0.026094065162151382
          0.025229290619578626 0.021556837152805763 0.021727832136419933 0.02584063001212065 0.024901822191034345 0.021489447046002884
          0.02181958748387529 0.025587194862089914 0.02457435376249006 0.01045327076486238 0.011439897070556319 0.00807916973995892
          0.0066537297001834405 0.011132071859281023 0.01197966567333624 0.008623298026137574 0.007294830601519475 0.011810872953699668
          0.01251943427611616 0.00916742631231623 0.007935931502855511 0.006689503630258708 0.008477650154401916 0.007056703513201169
          0.008930016997076889 0.007423903396143628 0.00938238383975186 0.029852852045563993 0.027326608382451618 0.02928249941664826
          0.027110514587425194 0.028712146787732522 0.02689442079239877 0.000007264178620147327 0 0
          0.00035593084216720513 0.0006385188627132532 0.00047844781729246906 0.0005565711305669099 0.0019607647814794908 0.001269773546806359
          0.0009568956345849381 0.0011131422611338198 0.0035655987207917766 0.033651541555349614 0.033151034619564056 0.03967702106865785
          0.03755587196996337 0.03261918549160517 0.03211398777568456 0.03824410048128621 0.03627706884903754 0.031586829427860716
          0.031076940931805054 0.03681117989391457 0.034998265728111703 0.03521401762431823 0.04684628368890901 0.0344944989898795
          0.04544593739108858 0.03377498035544078 0.04404559109326815 0.00017087847367059362 0.0003977698457069175 0.00004075192550636549
          0.0000036151224365374708 0.0002298003600590339 0.0004536457533154853 0.00004563353196898306 0.000005346762586302017 0.00028872224644747413
          0.0005095216609240533 0.00005051513843160063 0.000007078402736066563 0.0640900591638888 0.07413112624074658 0.06961788520270085
          0.05741878874530222 0.06238754328785498 0.07155019318663053 0.06705075658869067 0.05589870133820383 0.06068502741182116
          0.06896926013251448 0.06448362797468049 0.054378613931105456 0 0 0
          0 0.0007713887970630779 0.0007973612367663793 0.0005517357550557048 0.000511488572265624 0.0015427775941261558
          0.0015947224735327586 0.0011034715101114097 0.001022977144531248 0.01379780934448193 0.013922274022281063 0.014289085638991193
          0.014531942177482986 0.014780361933500456 0.015141610332684907 0.030171144545025154 0.02943440997826887 0.028697675411512597
          0.00012052585568332876 0.0002851541156584811 0.002172860333534968 0.003720794648803401 0.004225194811386607 0.007156435181948322
          0.0029642794693562936 0.002709241301672274 0.0004712553590725318 0.006432783302274371 0.005125282912081125 0.002256562581123208
          0.009901287135192451 0.007541324522489975 0.004041869803173885 0.018620791147360177 0.017042524707609315 0.030744207084066544
          0.027550446011488577 0.019554304517048315 0.018759977428039264 0.03181783026012984 0.027561186210989356 0.020487817886736454
          0.02047743014846921 0.03289145343619316 0.027571926410490128 0.042721606461861114 0.04521818882164728 0.04843597863727808
          0.041039341660160336 0.04344925441789145 0.046355092008368494 0.03935707685845956 0.04168032001413564 0.0442742053794589
          0.00588218944608643 0.010636535847897019 0.006277856821752087 0.011080725535704699 0.006673524197417744 0.011524915223512377
          0.005231406171800474 0.006229602442224236 0.006606551237556084 0.007979843734250336 0.007981696303311692 0.00973008502627644
          0.006206650208149978 0.0030216238061708954 0.007207997317603761 0.0037496647578407483 0.008209344427057544 0.004477705709510599
          0.06205810990987913 0.05992124342941774 0.06583879689226539 0.06723653712885275 0.05893303827379716 0.057100925118640365
          0.06292560804024827 0.064068528656349 0.05580796663771519 0.054280606807862994 0.06001241918823115 0.06090052018384526
          0.017427526183139357 0.017814364557452285 0.022376168065003154 0.017810409332767955 0.018454865093970575 0.022650113463537937
          0.01819329248239655 0.019095365630488862 0.022924058862072716 0.0007712065922918777 0.0003523558913566232 0.0010633987630514136
          0.0006330154071291183 0.0013555909338109494 0.0009136749229016134 0.016929041200800365 0.013354836284972284 0.017148181858650014
          0.013706056569570297 0.017367322516499667 0.014057276854168308 0.010988924881021335 0.013086907267618884 0.011851662497002327
          0.014303870099207184 0.012714400112983323 0.01552083293079548 0.00626732314852014 0.003398238055247027 0.0070538565760946415
          0.003887179999067702 0.007840390003669142 0.004376121942888376 0 0 0
          0.000005681076951731729 0 0 0.000011362153903463459 0 0
          0.003589360042320085 0.0018843676348514217 0.004082184103184615 0.003820000184743498 0.0020597271858574144 0.004466226653980161
          0.004050640327166911 0.002235086736863406 0.004850269204775707 0.05014658290336528 0.05512266647891678 0.05514627645378384
          0.04800047065773947 0.05258611835050938 0.05252522878677939 0.04585435841211365 0.05004957022210198 0.049904181119774946
          0.05783369110130769 0.055010325871853144 0.05218696064239859 0 0 0
          0 0 0 0 0 0
          0 0 0 0.04988389347865131 0.05542539057093009 0.04793840079023424
          0.053172551870813836 0.045992908101817165 0.05091971317069757 0 0 0
          0 0 0 0.07173836966180515 0.06023798630032105 0.0689598756767419
          0.057929579849813416 0.06618138169167864 0.05562117339930579 0.0407776654760841 0.04711625069636911 0.040105661982663375
          0.04723889509313219 0.03943365848924264 0.04736153948989527 0 0 0
          0.005058269675272481 0.0052977119092006185 0.005537154143128757 0.02407604187050679 0.015108907675568122 0.02694988333206491
          0.018186151282955896 0.02982372479362303 0.02126339489034367 0.005667170419648226 0.006188460394900353 0.006709750370152481
          0.002214147229789926 0.004515020093156031 0.006815892956522138 0 0.000005681076951731729 0.000011362153903463459
          0.0013091999988026435 0.0015539260574319001 0.0017986521160611563 0 0 0
          0.0026565678026439343 0.004577000212172481 0.006497432621701028 0.04196875430889784 0.043225418443133774 0.04448208257736971
          0.07392566940537079 0.07102931584824011 0.06813296229110943 0.033076296939460154 0.03211715827528755 0.031158019611114952
          0 0 0 0 0.0005198004495949076 0.0010396008991898152
          0.005786468288843377 0.005755945946259718 0.005725423603676059 0.006175223336117532 0.006170374477933567 0.006165525619749602
          0.006706441246761866 0.006677741948452609 0.006649042650143352 0.006705153662053159 0.00670139077501423 0.0066976278879753
          0.007367412687901288 0.007347265055369975 0.007327117422838659 0.007586357236218885 0.007582867275402883 0.007579377314586883
          0.007154203660042192 0.007177140261813618 0.0072000768635850435 0.005876970000358656 0.005927575564523798 0.005978181128688942
          0.003854187218445072 0.003925619228530899 0.003997051238616724 0.0036760838204889603 0.002309034645971688 0.003816224079559571
          0.0024119845691289664 0.003956364338630182 0.0025149344922862447 0.0007515664811716468 0.00019180774883923205 0.0002462998512762906
          0.0010636212543056328 0.0007612058120651478 0.00019331048907766707 0.0002557146576063504 0.0011092664188278143 0.0007708451429586488
          0.00019481322931610203 0.00026512946393641025 0.0011549115833499957 0 0 0
          0.0016371893755997222 0.0016641527115790178 0.001691116047558314 0.0000027022813904572927 0.0000021518170983920368 0.0000016013528063267812
          0.00631556464903064 0.006220107053627795 0.006313469055888556 0.0062158859563416595 0.006311373462746473 0.006211664859055523
          0.006911762887730825 0.006910116420441157 0.006908469953151487 0.006050437368107652 0.006051265614507688 0.006052093860907723
          0.006637092835783883 0.00663948006068449 0.006641867285585099 0.005731942089780034 0.00574146464623301 0.005750987202685984
          0.004157282671464951 0.004171497601389974 0.004185712531314997 0.0023471671774233527 0.0023559936288770154 0.0023648200803306784
          0.0009511917865868804 0.0009543054072506695 0.0009574190279144588 0 0.00018177392572949538 0.00015064442663495172
          0 0.00018197092361449337 0.0001512008654464961 0 0.00018216792149949136 0.00015175730425804045
        </DataArray>
        <DataArray type="Float64" Name="pe11" format="ascii" RangeMin="-0.001244968388591662" RangeMax="0.07256666482054833">
          0 0 0 0 0 0
          0 0 8.670319022840054e-7 0.0000017340638045680108 0.0000017340638045680108 0.0000034681276091360216
          0.0000025717795387688173 0 0.000012317848421269089 0.000007791714479373433 0.000022063917303769363 0.000015583428958746866
          0.0001564790749598343 0.00011800734211473618 0.00020141170137586743 0.00015809306162028417 0.0002463443277919006 0.00019817878112583212
          0.00083011508832935 0.0007412628201717124 0.0009138177117749221 0.0008249450884962766 0.0009975203352204944 0.0009086273568208408
          0.0023684736104941455 0.002258715052059619 0.00245428177167835 0.0023492377359299347 0.0025400899328625547 0.002439760419800251
          0.005047166321978525 0.004940562676650318 0.0050837826493166285 0.004981582533101527 0.005120398976654731 0.005022602389552737
          0.009277972950438716 0.009207867393569042 0.009187012589118887 0.009115035365736187 0.00909605222779906 0.00902220333790333
          0.016246317266264052 0.016396083017341925 0.01589315533993578 0.016017566493509147 0.015539993413607508 0.015639049969676376
          0.025615215620379744 0.024865411108048352 0.02485035396410529 0.02412176019808146 0.024085492307830837 0.023378109288114568
          0 0 0 0 0.0000019374794068513762 0.0000038749588137027525
          0.000028833112308199504 0.00005238168252565044 0.00007593025274310136 0.00029443925814715916 0.0003551607140902298 0.0004158821700333005
          0.0010968855425070095 0.0011783398325663844 0.0012597941226257588 0.002689543724973457 0.0027622367955928017 0.0028349298662121466
          0.005357628675471531 0.005381285022488329 0.005404941369505129 0.0094656081769232 0.009379734624750082 0.009293861072576962
          0.01578695743871121 0.015503606540187596 0.01522025564166398 0.02290300490425451 0.022389201367117223 0.02187539782997993
          0 0.000002077338413760438 0.000004154676827520876 0.000008947801532708321 0.00002708497114207023 0.00004522214075143214
          0.0001304530134655172 0.00018253777754523884 0.00023462254162496046 0.0005789684843630069 0.0006540369486719273 0.0007291054129808477
          0.0015372163859350895 0.001610687979837057 0.0016841595737390243 0.003200046104933353 0.0032527199207213727 0.003305393736509392
          0.0058366583312273726 0.0058403293975549855 0.005844000463882598 0.009713955282811014 0.009634641338944205 0.009555327395077395
          0.015025272218838797 0.014840589182499277 0.014655906146159754 0.020468589846644035 0.020252018084721234 0.02003544632279844
          0.000004354646849215383 0.00002440037811271669 0.000044446109376218 0.00007418470470888868 0.00012503058273835707 0.00017587646076782547
          0.0003680251565644189 0.00044341619856222664 0.0005188072405600344 0.0010257574436284898 0.001101418705319264 0.0011770799670100382
          0.002138042250515686 0.002196188774642821 0.0022543352987699564 0.0038654010696541827 0.0038918171943395797 0.003918233319024977
          0.00642057982593225 0.00640068521513793 0.006380790604343608 0.009936293186487649 0.009864334219776984 0.009792375253066319
          0.014071059787545553 0.013987708162735412 0.013904356537925266 0.01675564463071244 0.01677503899788632 0.016794433365060205
          0.000058134032493029774 0.00011027429631261921 0.00016241456013220868 0.0002693678499095744 0.0003445002708512303 0.00041963269179288635
          0.0007695623203551973 0.0008478594577916367 0.0009261565952280765 0.0016240593110393804 0.0016864030166946786 0.0017487467223499772
          0.0028787861605804343 0.0029116185430633885 0.002944450925546342 0.004636170822133356 0.004631153052129493 0.00462613528212563
          0.00702595219654098 0.006983805305482784 0.0069416584144245865 0.01003992704560636 0.009979517279355836 0.00991910751310531
          0.012991536079183741 0.012994435728738488 0.012997335378293236 0.01416922350578935 0.01434572595081587 0.01452222839584239
          0.0002425891476126159 0.0003058286546046026 0.00036906816159658926 0.0006399424737947592 0.0007070119494169666 0.0007740814250391738
          0.0013405103351389314 0.00139463198223257 0.001448753629326208 0.0023692083626945066 0.0023966541738327956 0.002424099984971084
          0.003728809044808497 0.0037218914542453273 0.003714973863682158 0.005449379855191925 0.005410193130885051 0.005371006406578178
          0.007563239297105927 0.007507174770725993 0.007451110244346059 0.009946709165942109 0.009910649451905753 0.0098745897378694
          0.011757232110598797 0.011838997553722128 0.011920762996845455 0.011861446459798437 0.012150891396274337 0.012440336332750237
          0.0006037592983096737 0.0006325999334804158 0.0006614405686511577 0.001198697976734464 0.0012139345357073366 0.0012291710946802092
          0.0020830327308162784 0.0020747536860908013 0.002066474641365324 0.0032445037345437836 0.0032077277043811962 0.0031709516742186084
          0.004642209094136344 0.004580614356802491 0.0045190196194686396 0.006233621934843692 0.006162606157831459 0.006091590380819227
          0.007951890023257913 0.007899501299835472 0.00784711257641303 0.009595455667327826 0.009608653884734175 0.009621852102140522
          0.01038008810449856 0.010547126866813443 0.010714165629128329 0.009694736628199484 0.010055790331138851 0.010416844034078217
          0.0011239690727674263 0.0011047742924179531 0.0010855795120684802 0.0019152252950862098 0.0018712784366628778 0.0018273315782395465
          0.002954104103844963 0.002883860803915288 0.0028136175039856137 0.00419111802408507 0.004099943515433478 0.004008769006781886
          0.005544772713031957 0.00544654722869413 0.005348321744356303 0.006909849870938407 0.006827984723301551 0.006746119575664694
          0.008137393846894277 0.008104254753669897 0.008071115660445516 0.008983249234603842 0.009043225198802383 0.009103201163000918
          0.008887959268050137 0.009095153739399002 0.009302348210747867 0.007702333581982251 0.00803686184096399 0.008371390099945728
          0.0038532330116109086 0.003784947572000674 0.0037166621323904397 0.0050659951332151796 0.004987000729598051 0.004908006325980922
          0.006275558414299461 0.006198604137135461 0.0061216498599714585 0.007336156570398311 0.007279253614928817 0.007222350659459325
          0.008054183040239854 0.008039749429008298 0.008025315817776746 0.008170280505015712 0.008225508326060666 0.008280736147105618
          0.007350540544336302 0.007492817981614464 0.007635095418892627 0.005968529938374744 0.006175943379685191 0.006383356820995634
          0 0.000009437159393964436 0.00005317168537824362 0 0.000004299254203641373 -0.0002557146832151049
          0.00010721869164646306 0 0.000008598508407282746 -0.0005208665258241743 0.0001612656979146825 0
          0 0 -0.00002209330900709963 0 -0.00004418661801419926 0
          0 0 0 0.00009231480036542623 -0.00000935466613790447 0.000012989042528661975
          0.00018462960073085247 -0.00001870933227580894 0.00002597808505732395 0.03528965821429089 0.031918387357089996 0.041247845415719395
          0.04167549942954141 0.03415777527296624 0.03130822217811492 0.039973802142043866 0.04013099100607584 0.033025892331641604
          0.030698056999139862 0.03869975886836832 0.038586482582610264 0.007883705919597077 0.004412385788326165 0.0006243451097741517
          0.0036618196824963678 0.009220380490462258 0.004846866474121444 0.0016390263276945603 0.005343068090238765 0.010557055061327437
          0.005281347159916722 0.002653707545614969 0.0070243164979811624 0.020640626769405614 0.02050543671982201 0.024571240548794313
          0.02388451379249905 0.020642993004747354 0.02069182431264359 0.024445655910409952 0.023638939112272966 0.020645359240089096
          0.020878211905465162 0.024320071272025588 0.02339336443204689 0.009577748223818327 0.010815919838659808 0.00741851125829347
          0.005834503868353919 0.010245695846651614 0.01136265302498888 0.00794413381303642 0.006430874873655755 0.010913643469484903
          0.011909386211317955 0.008469756367779371 0.007027245878957591 0.0062491092931021685 0.008088557801646443 0.006609226771966513
          0.008545797709632298 0.006969344250830856 0.009003037617618153 0.028135331017492517 0.025460593127114274 0.027691828456155004
          0.02545195878926731 0.027248325894817498 0.025443324451420342 0.0000021060818422283724 0 0
          0.000011248075846593246 0.000054483075507879314 0.00022489758233247935 0.00012103169426183067 -0.0005197205202924288 0.00010686006917353028
          0.0004497951646649587 0.00024206338852366134 -0.0010506891164314507 0.03172518230766787 0.03135029376020172 0.03826917994942799
          0.03599392185660328 0.030634341417402032 0.030291641527969308 0.03673735423150333 0.03461268964728239 0.02954350052713618
          0.02923298929573688 0.03520552851357868 0.033231457437961485 0.03242723447084545 0.04429786057382569 0.031930014377407334
          0.04308122881301107 0.031432794283969216 0.04186459705219645 0.0001582154879347505 0.00037885773196777987 0.0000382648634159192
          0.0000034204415813057665 0.0002003760494632437 0.00042264962908473036 0.00004229330848403123 0.000004899284472270786 0.00024253661099173684
          0.00046644152620168075 0.000046321753552143264 0.000006378127363235804 0.05473087857045286 0.07039006164404801 0.06687310494268588
          0.05149660274584271 0.05376381052332017 0.06791875435177536 0.06431716807832484 0.05050199321269797 0.05279674247618746
          0.0654474470595027 0.06176123121396379 0.04950738367955325 0 0 0
          0 -0.00021288897277127957 -0.00001830894461523251 0.000031567724576688855 -0.00016697752402818598 -0.00042577794554255914
          -0.00003661788923046502 0.00006313544915337771 -0.00033395504805637196 0.013184000380178784 0.01306849824605267 0.013712571064006212
          0.013706676524694204 0.014241141747833646 0.014344854803335735 0.02851766582784774 0.027828286203560548 0.02713890657927336
          0.0000170453087645514 0.00007571598555402236 -0.000041085754309121143 -0.0005846262015188198 -0.00009921681738279367 -0.001244968388591662
          -0.00020773351223824456 0.0010888877050905337 0.0003463194720764784 -0.0003795745193867902 0.0008277285727716389 0.00005152346521011356
          -0.0005514155265353357 0.0005665694404527441 -0.0002432725416562512 0.016655010177227772 0.013874972088340489 0.024326375886644023
          0.024499321971078042 0.01763156525013575 0.015000404634614942 0.025310542837426175 0.024857702987913042 0.01860812032304373
          0.016125837180889398 0.026294709788208324 0.02521608400474805 0.04160788565664032 0.044015335540162674 0.047513527252377764
          0.03978858994825865 0.04210131703887081 0.04525679653075041 0.037969294239876966 0.040187298537578936 0.04300006580912305
          0.005406537427413465 0.010177940310558176 0.0057790923366444116 0.01063608820867586 0.006151647245875357 0.011094236106793541
          -0.0007972756433026755 0.001303938125437724 0.0010661693428467751 0.0030211155869077737 0.0029296143289962253 0.004738293048377824
          0.004974032639876696 0.0024925061420877346 0.005767282990592632 0.003065002339101872 0.006560533341308568 0.0036374985361160087
          0.06122913022820517 0.05897507693348293 0.06471473087101237 0.06620531450245784 0.05793864006487244 0.056032670260103605
          0.06159654934185093 0.06285055251211613 0.05464814990153971 0.05309026358672428 0.05847836781268949 0.05949579052177441
          0.016492625427447727 0.01644608896098556 0.02088959879134208 0.016962620481060328 0.017190056512860926 0.021316973157259844
          0.017432615534672926 0.017934024064736293 0.02174434752317761 0.0006851275232702653 0.0003183222489977896 0.0009001727711633768
          0.0005084040045557317 0.0011152180190564884 0.0006984857601136738 0.01622870925039228 0.012828672554834525 0.016510921324817192
          0.013210175006313886 0.016793133399242096 0.01359167745779325 0.00971274710128047 0.011046692920816111 0.010516848813327206
          0.011979056357006903 0.01132095052537394 0.012911419793197699 0.0052769593165558305 0.0029366150711524924 0.005970090014258487
          0.0033446501280661217 0.006663220711961144 0.0037526851849797502 0 0 0
          0.0000024700703536168913 0 0 0.000004940140707233783 0 0
          0.003203054364159545 0.0016724119464997615 0.0036315244327539548 0.0034058865288893406 0.0018126574474606528 0.003962589365057107
          0.0036087186936191364 0.0019529029484215443 0.004293654297360259 0.04925064108395757 0.054434131676618744 0.05457942570531872
          0.04693989799015171 0.051722260252154276 0.0517455106941717 0.04462915489634586 0.04901038882768981 0.04891159568302467
          0.05714325567719662 0.05411286454400626 0.051082473410815885 0 0 0
          0 0 0 0 0 0
          0 0 0 0.04862976757375457 0.053935783395589174 0.04662689660048254
          0.0517061529693904 0.04462402562721051 0.049476522543191626 0 0 0
          0 0 0 0.07044630271258233 0.05826708359509215 0.06737216933780713
          0.056021624294294046 0.06429803596303191 0.05377616499349593 0.03612688267409844 0.0368095802925679 0.03600666636459418
          0.03730053364879775 0.03588645005508992 0.037791487005027595 0 0 0
          0.004594980609683787 0.004822366946873717 0.005049753284063647 0.014849284030029586 0.007584276897281243 0.01670171415134892
          0.009532627090003718 0.018554144272668254 0.011480977282726193 0.0050483887520709 0.00552462989911576 0.0060008710461606175
          -0.0005736132091106142 -0.0002967895286510152 -0.000019965848191415974 0 0.0000024700703536168913 0.000004940140707233783
          0.0011427073681270208 0.001329403200195211 0.0015160990322634013 0 0 0
          -0.0007221319321870714 -0.0007298171177543576 -0.0007375023033216437 0.028457260202049067 0.029620342287296028 0.03078342437254299
          0.07256666482054833 0.06942573863098711 0.06628481244142588 0.0310550330568848 0.03002595864023764 0.02899688422359048
          0 0 0 0 -0.00009182289748618716 -0.00018364579497237433
          0.005747588865848026 0.005716933714862069 0.005686278563876113 0.006167704535621 0.0061627189331796076 0.006157733330738215
          0.006678831874232974 0.006650050677225233 0.006621269480217493 0.006699256191243593 0.006695496541959399 0.006691736892675204
          0.007351589019813145 0.0073314723442332325 0.0073113556686533205 0.007566592314043845 0.007563483404543525 0.007560374495043204
          0.007092806729595788 0.007116626929072969 0.007140447128550148 0.00572757116029808 0.005778080779875797 0.005828590399453515
          0.0036491678423179173 0.003717088141262649 0.0037850084402073813 0.0033823109232898932 0.0021415615156052817 0.003513426689841033
          0.002232789970471009 0.003644542456392173 0.002324018425336736 0.000723858673716551 0.00018718499447069784 0.00023696370721493497
          0.0010015523272695556 0.0007311221361601775 0.00018817420539570792 0.00024446437255157223 0.001039118931994743 0.0007383855986038037
          0.00018916341632071803 0.00025196503788820943 0.0010766855367199306 0 0 0
          0.0015654644483848726 0.0015881155114743277 0.0016107665745637824 0.0000026537161498766043 0.000002111731414894104 0.000001569746679911604
          0.006300811104976245 0.006214837066630454 0.006298820901377672 0.006210575546406267 0.006296830697779098 0.006206314026182078
          0.006897024662284094 0.006895491844007855 0.006893959025731618 0.006017051095621326 0.006018041298841024 0.006019031502060722
          0.006595792873345548 0.006598200575156777 0.006600608276968005 0.0056479374179287615 0.005656770480022456 0.0056656035421161505
          0.004041654867201098 0.004053562595027789 0.004065470322854481 0.002265911661941899 0.0022722749610241274 0.0022786382601063557
          0.0009247071024052402 0.0009265384492398796 0.0009283697960745192 0 0.0001793815917988337 0.00014903614625835478
          0 0.00017935532015975338 0.00014944912529313734 0 0.00017932904852067304 0.0001498621043279199
        </DataArray>
        <DataArray type="Float64" Name="pe22" format="ascii" RangeMin="-0.03205886956123921" RangeMax="0.0007253401095107463">
          0 0 0 0 0 0
          0 0 -3.5175414464868637e-7 -7.035082892973727e-7 -7.035082892973727e-7 -0.0000014070165785947455
          -0.000001018606247283989 0 -0.000004521535583705539 -0.0000028593002742078507 -0.00000802446492012709 -0.000005718600548415701
          -0.000055855011200935605 -0.00004128005761683489 -0.00006679492980913123 -0.000051142589933110276 -0.00007773484841732684 -0.00006100512224938565
          -0.0002692058767317977 -0.0002362310887349763 -0.00027416122134322736 -0.00024185444481579033 -0.00027911656595465704 -0.0002474778008966043
          -0.0006827650479098288 -0.0006401809663320001 -0.0006608175220672469 -0.0006188684961649086 -0.0006388699962246652 -0.0005975560259978169
          -0.0012835826960376849 -0.0012286532713992348 -0.0012301355247977123 -0.0011742008215185741 -0.0011766883535577395 -0.0011197483716379134
          -0.002088290501739109 -0.0020023755070064336 -0.002006583023231137 -0.001915553609595996 -0.001924875544723164 -0.0018287317121855587
          -0.0030867073485621255 -0.0029288002172350312 -0.0029734932121626917 -0.002803299980826976 -0.0028602790757632575 -0.002677799744418921
          -0.004656907752996917 -0.00398203472243761 -0.004425059806016523 -0.003758297320573752 -0.0041932118590361275 -0.0035345599187098934
          0 0 0 0 -8.115456508578178e-7 -0.0000016230913017156356
          -0.00001151863340944014 -0.00001985550370304755 -0.00002819237399665496 -0.00010896187889756733 -0.00012355612153118616 -0.00013815036416480502
          -0.000369196713185719 -0.0003716717856821702 -0.0003741468581786214 -0.0008088051480688573 -0.000785557967360429 -0.0007623107866520006
          -0.001446716217601971 -0.0013964713454698932 -0.001346226473337815 -0.0023289560540735387 -0.002260587117273514 -0.0021922181804734896
          -0.003457345479669833 -0.003378482439976187 -0.003299619400282541 -0.0048215538428094725 -0.004706310648986391 -0.004591067455163309
          0 -9.262648628378027e-7 -0.0000018525297256756053 -0.000003908791955462824 -0.000011308068928289259 -0.000018707345901115692
          -0.00005329956938342671 -0.00007108460356891713 -0.00008886963775440756 -0.00022052708886952633 -0.0002364007700591195 -0.0002522744512487127
          -0.0005359375242134869 -0.0005341112538520049 -0.000532284983490523 -0.0010135553751484925 -0.000989542093103375 -0.0009655288110582574
          -0.00170693037953547 -0.0016622859407029972 -0.0016176415018705243 -0.002678075829851111 -0.0026279454860778603 -0.00257781514230461
          -0.0038618051482440367 -0.003831688572832931 -0.003801571997421826 -0.0052732744881739515 -0.00530601189313114 -0.005338749298088327
          -0.0000020038792540008724 -0.000010695836483881758 -0.000019387793713762642 -0.00003223302435604625 -0.000051939775657240726 -0.0000716465269584352
          -0.00015095830409045301 -0.00017381722144201606 -0.00019667613879357913 -0.00039448521498997404 -0.00040589606787463586 -0.0004173069207592977
          -0.0007643424821625383 -0.0007580441458200721 -0.0007517458094776058 -0.0012886565288292731 -0.0012652561586504417 -0.0012418557884716103
          -0.0020386532293084686 -0.002002011731316956 -0.0019653702333254424 -0.0030678979457667817 -0.003038576455764835 -0.0030092549657628883
          -0.004231150504666176 -0.004246302062655953 -0.00426145362064573 -0.005182168642797219 -0.005279813436989049 -0.00537745823118088
          -0.00002592133950345815 -0.00004726921680873919 -0.00006861709411402024 -0.00011427060724920349 -0.00014034149474368413 -0.00016641238223816482
          -0.00030951001624358513 -0.0003283454777732127 -0.0003471809393028403 -0.0006197385179952818 -0.0006244308459976635 -0.0006291231740000452
          -0.001046021509141958 -0.0010364157297181095 -0.0010268099502942607 -0.0016197985323466513 -0.0015987559712208096 -0.0015777134100949683
          -0.002407090611172205 -0.0023806151717357398 -0.002354139732299275 -0.003432679611947249 -0.0034234453863745892 -0.0034142111608019294
          -0.004506402421037885 -0.0045501641658094736 -0.004593925910581062 -0.005208235054329564 -0.005324403816619598 -0.0054405725789096315
          -0.00010265105098159315 -0.0001261995625548152 -0.00014974807412803726 -0.0002579966129679182 -0.00027760744639741754 -0.00029721827982691687
          -0.0005176084167916502 -0.0005267507454425865 -0.0005358930740935229 -0.0008867242480593532 -0.0008844234690188494 -0.0008821226899783457
          -0.001368918098303206 -0.0013575475662865855 -0.0013461770342699647 -0.0019858680014734047 -0.001969112386768864 -0.0019523567720643234
          -0.0027761526131518804 -0.0027610821628412927 -0.002746011712530705 -0.003725456175488075 -0.0037326010354187438 -0.0037397458953494127
          -0.00460888004437434 -0.0046674147999747695 -0.004725949555575198 -0.00507176763546648 -0.005188197185839399 -0.0053046267362123175
          -0.00023695473337761552 -0.0002469749378879836 -0.00025699514239835167 -0.0004500569734310222 -0.0004538858932234947 -0.0004577148130159672
          -0.0007629330496318103 -0.0007595590345792581 -0.0007561850195267056 -0.0011840345377629314 -0.0011752932718549908 -0.0011665520059470499
          -0.0017158690584896988 -0.0017045823718069546 -0.00169329568512421 -0.002361247433550515 -0.0023507183420566264 -0.0023401892505627376
          -0.0031146122434639266 -0.0031113519190027793 -0.0031080915945416324 -0.003917105526245679 -0.003936879015546222 -0.003956652504846765
          -0.004552154748633843 -0.004615651763409145 -0.004679148778184445 -0.004726703790281415 -0.004837208609323443 -0.004947713428365471
          -0.00040977295903666316 -0.00040217430163358333 -0.00039457564423050345 -0.0006743338646321372 -0.0006609667815868012 -0.0006475996985414653
          -0.0010346856284847146 -0.0010184180364355823 -0.0010021504443864498 -0.0015001176214268193 -0.0014847052365073636 -0.001469292851587908
          -0.0020678742861238485 -0.0020565923415977725 -0.002045310397071697 -0.002718986160540238 -0.0027149277360877825 -0.0027108693116353277
          -0.003400369859859076 -0.003409401049372843 -0.00341843223888661 -0.004001912809571302 -0.004034715406511255 -0.004067518003451208
          -0.0043461497271945326 -0.004412322008478829 -0.004478494289763126 -0.0042380591410567225 -0.004336021423900169 -0.004433983706743617
          -0.0014247497620867133 -0.0014084151246348956 -0.001392080487183078 -0.0019330673429193762 -0.0019208020489144206 -0.001908536754909465
          -0.002513273779690148 -0.0025079806411405594 -0.002502687502590971 -0.0031188224950333297 -0.003122872661232704 -0.0031269228274320793
          -0.003656296527968424 -0.0036742510041266377 -0.003692205480284852 -0.003972686455785605 -0.00400935878549492 -0.004046031115204235
          -0.0039219386753266035 -0.003974970781902333 -0.004028002888478062 -0.003589468843141448 -0.0036509929503547936 -0.0037125170575681384
          0 -0.000005388168300338191 -0.000029366002896123123 0 -0.00012038329347209405 -0.00006381996851049421
          -0.00003636436221438663 0 -0.0002407665869441881 -0.00012225176872065024 -0.000043362721532650145 0
          0 0 0.000013390322693979082 0 0.000026780645387958165 0
          0 0 0 -0.00009156704817838951 0.000009728087821913034 -0.000014427479055621533
          -0.000183134096356779 0.000019456175643826067 -0.000028854958111243065 -0.009514591922780147 -0.008663238916397814 -0.013103032462121363
          -0.01289260590026333 -0.00891729286551811 -0.008438417905360372 -0.012236219508511302 -0.01187195102980244 -0.008319993808256076
          -0.00821359689432293 -0.011369406554901242 -0.010851296159341548 -0.0016305806277917038 -0.0015873998584326541 -0.00036941121073220213
          -0.0008631230938047488 -0.00215183902325277 -0.0013234385273259842 -0.0004315963909185825 -0.0012286785793303933 -0.0026730974187138355
          -0.0010594771962193143 -0.0004937815711049628 -0.0015942340648560378 -0.0061079509463369385 -0.00628441229185322 -0.006385729123084247
          -0.006053138096663962 -0.006272537092992191 -0.006529208298744697 -0.00652706677127214 -0.0061244616356809336 -0.006437123239647444
          -0.006774004305636176 -0.006668404419460032 -0.006195785174697903 -0.004909989269456131 -0.0051086104260057615 -0.00403110106011467
          -0.0032439977412472435 -0.005137715290937724 -0.0053374815047610704 -0.004164546796245563 -0.0033694570206706485 -0.005365441312419316
          -0.00556635258351638 -0.004297992532376458 -0.0034949163000940545 -0.0037226439485722974 -0.004408829329190551 -0.0038204035052029905
          -0.004531190365932341 -0.003918163061833684 -0.00465355140267413 -0.007046295051442299 -0.00691343839178339 -0.007016474690504246
          -0.007118034975274212 -0.006986654329566195 -0.007322631558765035 -8.030256830894651e-7 0 0
          0.0000396324695625724 -0.0001306063848473889 -0.00023239207019201832 -0.0001057585718296505 -0.00003225336470309791 -0.0002604097440116883
          -0.00046478414038403663 -0.00021151714365930105 -0.00010413919896876822 -0.006397469277611441 -0.006816886728591504 -0.01073757513900546
          -0.009023854332413648 -0.0059399419576114144 -0.006392188852404611 -0.009840211041833483 -0.008282280875549662 -0.0054824146376113905
          -0.005967490976217719 -0.008942846944661503 -0.007540707418685677 -0.009491734605240651 -0.01647267869726325 -0.009286810220119584
          -0.015513791203707824 -0.009081885834998514 -0.014554903710152398 -0.00008773855332192175 -0.00021260281750859556 -0.000021152371789032158
          -0.0000018901305307261502 -0.00009335059491794644 -0.00021642758536875715 -0.00002197016273928617 -0.00000243660052735176 -0.00009896263651397112
          -0.00022025235322891876 -0.000022787953689540182 -0.00000298307052397737 -0.02384238766635397 -0.03205886956123921 -0.030251502952076
          -0.022025173372939653 -0.022862842628304344 -0.029736168697391284 -0.027948736758833713 -0.02118748284741299 -0.02188329759025472
          -0.027413467833543363 -0.025645970565591425 -0.020349792321886325 0 0 0
          0 0.0003026948607736028 0.00003918231429055674 -0.0000443018777224751 0.0002036287676478866 0.0006053897215472056
          0.00007836462858111348 -0.0000886037554449502 0.0004072575352957732 -0.005599422400302805 -0.005934037971827941 -0.005888886141886367
          -0.006240064827298426 -0.00617834988346993 -0.00654609168276891 -0.006692272088706219 -0.006494470819554404 -0.006296669550402589
          -0.000024098079598847172 -0.000056068149644263824 -0.0006093780386212031 -0.0003138540067979752 -0.0011946579976435587 -0.0005716398639516865
          -0.000007352621511061007 -0.0004956177790621506 -0.00015940057956182407 -0.00022181475013751564 0.000017824622813290928 0.00002590090833485551
          -0.00043627687876397026 0.0005312670246887324 0.0002112023962315351 -0.005482662218910664 -0.003921546861048689 -0.007262612797102562
          -0.006575237077208376 -0.00590778500360588 -0.004371004608756898 -0.008108089259837454 -0.006970917357561952 -0.006332907788301093
          -0.004820462356465107 -0.00895356572257235 -0.007366597637915528 -0.012711795436391712 -0.014179416816069018 -0.016634702521658624
          -0.011564657547373333 -0.012839432397442823 -0.014945973731971901 -0.010417519658354957 -0.011499447978816631 -0.013257244942285177
          -0.003193522462757733 -0.004909423456541894 -0.0032750324578131916 -0.005053890317578037 -0.0033565424528686507 -0.005198357178614179
          0.0003573138759296495 -0.0003440450459838685 -0.0009514464569331558 -0.0010850338923966004 -0.0022602067897959607 -0.0018260227388093324
          -0.00209988379975339 -0.001242317879030414 -0.002387651635445962 -0.0013698014340100088 -0.002675419471138534 -0.0014972849889896037
          -0.02527924822572071 -0.023928685738521784 -0.026949725651968428 -0.026753113839865353 -0.022485391052117953 -0.02145901946919744
          -0.02416735753753301 -0.02371513267750103 -0.019691533878515195 -0.0189893531998731 -0.0213849894230976 -0.020677151515136705
          -0.006129678327613762 -0.0059309487848808315 -0.00611690492205617 -0.006428368886846046 -0.006374643654434424 -0.006521221449299879
          -0.00672705944607833 -0.006818338523988016 -0.006925537976543588 -0.0003660586514015227 -0.00016030037154113357 -0.00040676461044899723
          -0.00019436386047381026 -0.0004474705694964716 -0.00022842734940648686 -0.005757772675129271 -0.005260645313595701 -0.005978594761934772
          -0.005447848246742516 -0.0061994168487402735 -0.005635051179889331 -0.0043815795149767765 -0.004214252133284331 -0.004692438401704695
          -0.004465736567589896 -0.005003297288432612 -0.00471722100189546 -0.0026790800025984864 -0.0017632000992582283 -0.0028141010468128377
          -0.0018362335421444932 -0.002949122091027189 -0.001909266985030758 0 0 0
          -0.0000021505289149741477 0 0 -0.000004301057829948295 0 0
          -0.0020111692920601913 -0.001027246495728854 -0.0022078679216891244 -0.002046240047804681 -0.0010474383295915042 -0.0022713066043894893
          -0.002081310803549171 -0.001067630163454155 -0.002334745287089854 -0.017907125999890652 -0.02157357189044525 -0.022087741954545385
          -0.016159086995573085 -0.0193859124051124 -0.019731098602746633 -0.014411047991255518 -0.017198252919779555 -0.017374455250947878
          -0.023434335798903888 -0.02088211047312007 -0.01832988514733625 0 0 0
          0 0 0 0 0 0
          0 0 0 -0.017515048458340038 -0.021471708882830953 -0.01602532990823216
          -0.019582718551367125 -0.014535611358124288 -0.017693728219903303 0 0 0
          0 0 0 -0.03051819735820369 -0.025185172597661572 -0.027673259554933927
          -0.02323418677292878 -0.024828321751664172 -0.021283200948195982 -0.012334802727760816 -0.014413389485023643 -0.012439642277985143
          -0.014895416137352256 -0.01254448182820947 -0.015377442789680867 0 0 0
          -0.002925702282346837 -0.0029777615441654542 -0.003029820805984072 -0.003169553658127208 -0.0003330902301468506 -0.004609492488830392
          -0.001481679790703162 -0.006049431319533575 -0.0026302693512594735 -0.0030023321357183445 -0.00310066018119567 -0.003198988226672996
          0.00036607154668243596 -0.0006500710846334138 -0.0016662137159492636 0 -0.0000021505289149741477 -0.000004301057829948295
          -0.0006658434930278255 -0.0006966348057217136 -0.0007274261184156017 0 0 0
          0.0007253401095107463 -0.0001427048843600747 -0.0010107498782308956 -0.009665999975809548 -0.010687453127503707 -0.011708906279197866
          -0.031087278157589063 -0.028129409230924135 -0.0251715403042592 -0.005858205764501294 -0.0054194950414481425 -0.004980784318394991
          0 0 0 0 0.00019813218625143236 0.0003962643725028647
          -0.002524486901204072 -0.0025260994826134687 -0.0025277120640228657 -0.003014108265373949 -0.0030219688684346773 -0.0030298294714954056
          -0.003050440353622219 -0.0030570706451422632 -0.003063700936662308 -0.003378279814398667 -0.003388990262949645 -0.0033997007115006226
          -0.003507693320331315 -0.003519808503080444 -0.0035319236858295734 -0.0037776115055930372 -0.0037967412671777 -0.003815871028762363
          -0.0037079793561033006 -0.0037329823571848613 -0.003757985358266422 -0.0031859761311490015 -0.003207480757209113 -0.003228985383269225
          -0.00220514717704342 -0.0022126832359353555 -0.0022202192948272905 -0.0021666843500027766 -0.0013175523371680975 -0.0021810841959484743
          -0.001322565204030992 -0.002195484041894172 -0.0013275780708938865 -0.0004080356815769619 -0.0001005591863564492 -0.0001341223377667779
          -0.0005952256491719627 -0.00040229531732194985 -0.00009836741571699294 -0.00013225915896532817 -0.0005939897543851437 -0.00039655495306693795
          -0.00009617564507753665 -0.00013039598016387845 -0.0005927538595983248 0 0 0
          -0.0009095482744560502 -0.0008999340133106246 -0.0008903197521651991 -0.0000014817526770914922 -0.000001174497266941513 -8.672418567915342e-7
          -0.003328452477658595 -0.0031970728081659834 -0.003336847639225376 -0.0032038440060062788 -0.003345242800792158 -0.003210615203846575
          -0.003585906634156438 -0.003598948474372913 -0.0036119903145893878 -0.0032578880927786164 -0.003267024777341555 -0.0032761614619044948
          -0.00352592665189421 -0.0035404132446097817 -0.0035548998373253534 -0.003091862929296346 -0.003104215810798605 -0.0031165686923008635
          -0.0022650689646724126 -0.002267715158008327 -0.0022703613513442417 -0.0012863508713989238 -0.0012786572738069592 -0.0012709636762149943
          -0.0005131267808191786 -0.000506053208672327 -0.0004989796365254758 0 -0.00009026730429889925 -0.00007408142623401629
          0 -0.00008877884636065927 -0.00007358198710134719 0 -0.0000872903884224193 -0.00007308254796867811
        </DataArray>
        <DataArray type="Float64" Name="pe33" format="ascii" RangeMin="-0.041479386662959125" RangeMax="0.001816608252547677">
          0 0 0 0 0 0
          0 0 -5.152777576353189e-7 -0.0000010305555152706378 -0.0000010305555152706378 -0.0000020611110305412757
          -0.0000015531732914848281 0 -0.000007796312837563549 -0.00000493241420516558 -0.000014039452383642271 -0.00000986482841033116
          -0.0001006240637588987 -0.00007672728449790128 -0.0001346167715667362 -0.00010695047168717386 -0.00016860947937457369 -0.00013717365887644644
          -0.0005609092115975521 -0.0005050317314367358 -0.0006396564904316946 -0.0005830906436804861 -0.0007184037692658371 -0.0006611495559242363
          -0.0016857085625843163 -0.0016185340857276182 -0.0017934642496111024 -0.001730369239765026 -0.0019012199366378886 -0.0018422043938024337
          -0.003763583625940839 -0.003711909405251082 -0.003853647124518915 -0.0038073817115829526 -0.00394371062309699 -0.003902854017914823
          -0.0071896824486996054 -0.007205491886562606 -0.007180429565887751 -0.007199481756140189 -0.007171176683075896 -0.007193471625717773
          -0.013159609917701924 -0.013467282800106891 -0.012919662127773086 -0.013214266512682173 -0.012679714337844247 -0.012961250225257454
          -0.020958307867382807 -0.020883376385610736 -0.02042529415808875 -0.020363462877507708 -0.019892280448794687 -0.019843549369404682
          0 0 0 0 -0.0000011259337559935583 -0.0000022518675119871165
          -0.000017314478898759357 -0.000032526178822602884 -0.000047737878746446405 -0.00018547737924959177 -0.00023160459255904355 -0.00027773180586849534
          -0.0007276888293212902 -0.0008066680468842137 -0.0008856472644471371 -0.0018807385769045995 -0.001976678828232372 -0.002072619079560145
          -0.003910912457869559 -0.0039848136770184355 -0.004058714896167312 -0.00713665212284966 -0.007119147507476566 -0.007101642892103471
          -0.012329611959041371 -0.012125124100211397 -0.011920636241381425 -0.01808145106144496 -0.017682890718130728 -0.017284330374816498
          0 -0.0000011510735509226356 -0.000002302147101845271 -0.000005039009577245496 -0.000015776902213780965 -0.000026514794850316436
          -0.00007715344408209048 -0.00011145317397632166 -0.00014575290387055286 -0.00035844139549348055 -0.0004176361786128077 -0.000476830961732135
          -0.0010012788617216027 -0.001076576725985052 -0.0011518745902485011 -0.0021864907297848603 -0.002263177827617997 -0.0023398649254511334
          -0.004129727951691902 -0.004178043456851988 -0.004226358962012072 -0.007035879452959904 -0.007006695852866343 -0.006977512252772782
          -0.011163467070594749 -0.011008900609666325 -0.0108543341487379 -0.015195315358469913 -0.014946006191589862 -0.014696697024709807
          -0.000002350767595214512 -0.000013704541628834934 -0.000025058315662455355 -0.00004195168035284242 -0.00007309080708111634 -0.00010422993380939028
          -0.00021706685247396585 -0.00026959897712021055 -0.00032213110176645526 -0.0006312722286385157 -0.000695522637444628 -0.0007597730462507403
          -0.0013736997683531475 -0.001438144628822749 -0.00150258948929235 -0.002576744540824909 -0.002626561035689137 -0.0026763775305533653
          -0.004381926596623779 -0.004398673483820972 -0.004415420371018164 -0.006868395240720863 -0.0068257577640121435 -0.006783120287303424
          -0.00983990928287935 -0.009741406100079422 -0.009642902917279494 -0.011573475987915067 -0.011495225560897073 -0.01141697513387908
          -0.00003221269298957163 -0.00006300507950388004 -0.00009379746601818846 -0.0001550972426603709 -0.00020415877610754622 -0.00025322030955472156
          -0.0004600523041116122 -0.000519513980018424 -0.0005789756559252359 -0.0010043207930440984 -0.0010619721706970153 -0.0011196235483499318
          -0.001832764651438476 -0.0018752028133452786 -0.0019176409752520813 -0.003016372289786705 -0.003032397080908683 -0.003048421872030661
          -0.004618861585368771 -0.00460319013374704 -0.00458751868212531 -0.006607247433659102 -0.006556071892981238 -0.006504896352303372
          -0.008485133658145821 -0.008444271562928976 -0.008403409467712127 -0.008960988451459682 -0.009021322134196142 -0.009081655816932604
          -0.00013993809663102275 -0.00017962909204978739 -0.000219320087468552 -0.00038194586082684103 -0.00042940450301954896 -0.00047686314521225683
          -0.0008229019183472814 -0.0008678812367899832 -0.0009128605552326851 -0.0014824841146351532 -0.0015122307048139455 -0.001541977294992738
          -0.0023598909465052907 -0.0023643438879587413 -0.0023687968294121924 -0.003463511853718519 -0.0034410807441161858 -0.003418649634513853
          -0.004787086683954043 -0.004746092607884697 -0.004705098531815351 -0.00622125299045402 -0.006178048416486997 -0.006134843842519974
          -0.007148352066224425 -0.0071715827537473225 -0.00719481344127022 -0.0067896788243319035 -0.006962694210434871 -0.007135709596537839
          -0.00036680456493205814 -0.0003856249955924321 -0.0004044454262528061 -0.0007486410033034417 -0.0007600486424838419 -0.0007714562816642419
          -0.0013200996811844681 -0.001315194651511543 -0.0013102896218386184 -0.0020604691967808517 -0.002032434432526205 -0.0020043996682715583
          -0.0029263400356466453 -0.002876031984995537 -0.0028257239343444296 -0.0038723745012931754 -0.0038118878157748313 -0.0037514011302564876
          -0.00483727777979398 -0.004788149380832687 -0.004739020981871394 -0.0056783501410821325 -0.005671774869187938 -0.005665199597293742
          -0.005827933355864691 -0.005931475103404273 -0.006035016850943855 -0.004968032837918041 -0.005218581721815373 -0.005469130605712705
          -0.0007141961137307629 -0.0007025999907843697 -0.0006910038678379766 -0.0012408914304540722 -0.0012103116550760767 -0.0011797318796980811
          -0.0019194184753602475 -0.0018654427674797054 -0.0018114670595991633 -0.0026910004026582494 -0.002615238278926114 -0.0025394761551939785
          -0.0034768984269081087 -0.0033899548870963566 -0.0033030113472846045 -0.004190863710398169 -0.004113056987213767 -0.004035250264029365
          -0.0047370239870351966 -0.004694853704297049 -0.004652683421558903 -0.004981336425032528 -0.005008509792291114 -0.0050356831595497
          -0.004541809540855589 -0.004682831730920156 -0.004823853920984723 -0.003464274440925517 -0.003700840417063805 -0.003937406393202093
          -0.0024284832495241942 -0.002376532447365778 -0.002324581645207361 -0.003132927790295803 -0.0030661986806836306 -0.0029994695710714578
          -0.0037622846346093124 -0.0036906234959948997 -0.0036189623573804875 -0.0042173340753649795 -0.004156380953696111 -0.004095427832027244
          -0.004397886512271426 -0.004365498424881657 -0.00433311033749189 -0.004197594049230098 -0.004216149540565737 -0.004234705031901375
          -0.0034286018690096905 -0.0035178471997121224 -0.0036070925304145544 -0.0023790610952332926 -0.0025249504293303913 -0.002670839763427489
          0 -0.000004048991093626243 -0.000023805682482120493 0 0.00011608403926721555 0.00031953465171633775
          -0.00007085432943207641 0 0.0002321680785344311 0.0006431182945263017 -0.00011790297638203232 0
          0 0 0.000008702986313120555 0 0.00001740597262624111 0
          0 0 0 -7.477521870382313e-7 -3.7342168400855163e-7 0.0000014384365269594465
          -0.0000014955043740764624 -7.468433680171033e-7 0.000002876873053918893 -0.025775066291510593 -0.02325514844069174 -0.028144812953597827
          -0.028782893529278042 -0.02524048240744792 -0.02286980427275359 -0.027737582633532116 -0.02825903997627337 -0.02470589852338525
          -0.02248446010481544 -0.0273303523134664 -0.0277351864232687 -0.0062531252918024745 -0.0028249859298930995 -0.00025493389904008743
          -0.0027986965886903576 -0.007068541467197268 -0.0035234279467831163 -0.0012074299367550263 -0.004114389510898721 -0.007883957642592063
          -0.004221869963673133 -0.0021599259744699657 -0.005430082433107086 -0.014532675823068344 -0.0142210244279682 -0.01818551142570946
          -0.017831375695834723 -0.014370455911754681 -0.014162616013897974 -0.017918589139136874 -0.017514477476591527 -0.014208236000441014
          -0.01410420759982775 -0.017651666852564283 -0.017197579257348328 -0.004667758954362099 -0.005707309412653956 -0.0033874101981787785
          -0.0025905061271066614 -0.005107980555713731 -0.006025171520227672 -0.0037795870167908244 -0.0030614178529850843 -0.005548202157065363
          -0.006343033627801389 -0.004171763835402871 -0.0035323295788635073 -0.0025264653445298607 -0.0036797284724558697 -0.0027888232667635095
          -0.004014607343699927 -0.0030511811889971574 -0.004349486214943984 -0.021089035966049764 -0.018547154735329856 -0.020675353765650047
          -0.01833392381399147 -0.020261671565250324 -0.018120692892653088 -0.000001303056159138902 0 0
          -0.00005088054540916456 0.00007612330933963369 0.000007494487859537083 -0.000015273122432180223 0.0005519738849959124 0.0001535496748384063
          0.00001498897571907417 -0.00003054624486436043 0.0011548283154009893 -0.02532771303005642 -0.024533407031610173 -0.027531604810422494
          -0.026970067524189626 -0.024694399459790614 -0.023899452675564647 -0.026897143189669855 -0.026330408771732722 -0.024061085889524804
          -0.023265498319519122 -0.02626268156891721 -0.025690750019275826 -0.02293549986560381 -0.02782518187656195 -0.022643204157285077
          -0.02756743760930192 -0.02235090844896635 -0.027309693342041884 -0.00007047693461282879 -0.0001662549144591842 -0.000017112491626887032
          -0.0000015303110505796156 -0.00010702545454529725 -0.0002062220437159731 -0.000020323145744745054 -0.0000024626839449190256 -0.0001435739744777657
          -0.00024618917297276205 -0.00002353379986260308 -0.0000033950568392584354 -0.03088849090409871 -0.0383311920828086 -0.03662160199060971
          -0.029471429372902924 -0.030900967895016965 -0.03818258565441107 -0.036368431319505415 -0.029314510365284707 -0.03091344488593522
          -0.038033979226013544 -0.03611526064840113 -0.029157591357666497 0 0 0
          0 -0.0000898058880023249 -0.0000208733696753252 0.00001273415314578571 -0.000036651243619701674 -0.0001796117760046498
          -0.0000417467393506504 0.00002546830629157141 -0.00007330248723940335 -0.007584577979875841 -0.007134460274224556 -0.007823684922119626
          -0.007466611697395476 -0.008062791864363412 -0.007798763120566394 -0.021825393739141264 -0.02133381538400579 -0.02084223702887032
          0.00000705277083429503 -0.000019647835909759323 0.0006504637929265276 0.0008984802083189588 0.0012938748150187604 0.001816608252547677
          0.00021508613375012075 -0.0005932699260289869 -0.0001869188925146543 0.0006013892695474262 -0.000845553195563572 -0.00007742437354010002
          0.0009876924053447318 -0.001097836465098157 0.00003207014543445425 -0.011172347958315992 -0.009953425227289384 -0.01706376308953929
          -0.017924084893868347 -0.011723780246527612 -0.010629400025852224 -0.017202453577573735 -0.01788678563034789 -0.01227521253473923
          -0.011305374824415062 -0.01734114406560817 -0.017849486366827438 -0.028896090220248603 -0.029835918724093635 -0.030878824730719134
          -0.02822393240088534 -0.02926188464142802 -0.03031082279877856 -0.027551774581522075 -0.028687850558762402 -0.02974282086683798
          -0.0022130149646557235 -0.005268516854016235 -0.002504059878831207 -0.005582197891097758 -0.002795104793006691 -0.005895878928179279
          0.00043996176737502274 -0.0009598930794537507 -0.00011472288590586936 -0.0019360816945089678 -0.0006694075391867615 -0.002912270309564185
          -0.002874148840123283 -0.0012501882630573172 -0.0033796313551466145 -0.0016952009050918559 -0.003885113870169946 -0.0021402135471263943
          -0.03594988200248447 -0.035046391194961155 -0.03776500521904396 -0.03945220066259253 -0.035453249012757815 -0.03457365079090827
          -0.03742919180432682 -0.03913541983463048 -0.03495661602303116 -0.03410091038685539 -0.03709337838960967 -0.038818639006668425
          -0.010362947099833642 -0.010515140176104186 -0.014772693869284785 -0.010534251594213753 -0.010815412858425529 -0.014795751707958266
          -0.010705556088593865 -0.01111568554074687 -0.01481880954663175 -0.00031906887186874256 -0.00015802187745665602 -0.0004934081607143795
          -0.00031404014408192133 -0.0006677474495600166 -0.0004700584107071866 -0.010470936575262785 -0.007568027241238701 -0.010532326562882097
          -0.007762326759571204 -0.010593716550501408 -0.007956626277903707 -0.005331167586303525 -0.0068324407875313825 -0.005824410411622196
          -0.0075133197894160135 -0.006317653236940865 -0.008194198791300645 -0.00259787931395733 -0.0011734149718942623 -0.0031559889674456273
          -0.0015084165859216249 -0.0037140986209339235 -0.0018434181999489878 0 0 0
          -3.195414386427428e-7 0 0 -6.390828772854856e-7 0 0
          -0.0011918850720993525 -0.0006451654507709074 -0.0014236565110648278 -0.0013596464810846582 -0.0007652191178691482 -0.001691282760667613
          -0.0015274078900699645 -0.0008852727849673891 -0.0019589090102703982 -0.03134351508406691 -0.032860559786173485 -0.03249168375077334
          -0.030780810994578675 -0.032336347847042035 -0.03201441209142512 -0.030218106905090455 -0.0318121359079106 -0.031537140432076914
          -0.03370891987829272 -0.03323075407088641 -0.0327525882634801 0 0 0
          0 0 0 0 0 0
          0 0 0 -0.031114719115414524 -0.03246407451275822 -0.030601566692250493
          -0.03212343441802389 -0.030088414269086476 -0.031782794323289565 0 0 0
          0 0 0 -0.03992810535437854 -0.03308191099743053 -0.039698909782893546
          -0.032787437521366175 -0.03946971421140854 -0.03249296404530181 -0.02379207994633709 -0.022396190807543542 -0.023567024086605888
          -0.022405117511422545 -0.023341968226874683 -0.02241404421530155 0 0 0
          -0.0016692783273369476 -0.0018446054027082598 -0.0020199324780795728 -0.01167973037190013 -0.007251186667134095 -0.012092221662497979
          -0.008050947299294302 -0.012504712953095824 -0.008850707931454508 -0.0020460566163525494 -0.0024239697179200786 -0.002801882819487607
          0.00020754166242937803 0.0009468606132861018 0.001686179564142826 0 -3.195414386427428e-7 -6.390828772854856e-7
          -0.00047686387509919504 -0.0006327683944734972 -0.0007886729138477993 0 0 0
          -0.0000032081773235157483 0.0008725220021148332 0.001748252181553182 -0.01879126022623881 -0.018932889159764602 -0.0190745180932904
          -0.041479386662959125 -0.04129632940009184 -0.04111327213722456 -0.025196827292383504 -0.024606463598789506 -0.024016099905195508
          0 0 0 0 -0.00010630928876524644 -0.0002126185775304929
          -0.003223101964643953 -0.0031908342322485997 -0.0031585664998532463 -0.00315359627024705 -0.0031407500647449293 -0.0031279038592428084
          -0.003628391520610753 -0.003592980032082969 -0.003557568543555185 -0.003320976376844923 -0.0033065062790097527 -0.0032920361811745805
          -0.003843895699481827 -0.003811663841152786 -0.0037794319828237458 -0.003788980808450806 -0.003766742137365822 -0.0037445034662808383
          -0.0033848273734924865 -0.0033836445718881045 -0.0033824617702837233 -0.0025415950291490775 -0.002570600022666683 -0.0025996050161842888
          -0.0014440206652744953 -0.001504404905327293 -0.0015647891453800904 -0.0012156265732871144 -0.0008240091784371841 -0.0013323424938925573
          -0.0009102247664400168 -0.0014490584144980004 -0.0009964403544428495 -0.000315822992139589 -0.00008662580811424862 -0.00010284136944815703
          -0.00040632667809759266 -0.0003288268188382274 -0.00008980678967871501 -0.00011220521358624403 -0.0004451291776095992 -0.0003418306455368658
          -0.0000929877712431814 -0.00012156905772433101 -0.0004839316771216056 0 0 0
          -0.000655916173928822 -0.0006881814981637026 -0.0007204468223985831 -0.0000011719634727851115 -9.372341479525907e-7 -7.0250482312007e-7
          -0.002972358627317648 -0.0030177642584644695 -0.0029619732621522935 -0.0030067315403999855 -0.002951587896986939 -0.0029956988223355024
          -0.003311118028127653 -0.0032965433696349406 -0.0032819687111422286 -0.0027591630028427085 -0.002751016521499468 -0.002742870040156226
          -0.003069866221451337 -0.0030577873305469936 -0.0030457084396426507 -0.0025560744886324155 -0.002552554669223851 -0.002549034849815287
          -0.0017765859025286853 -0.001785847437019462 -0.0017951089715102385 -0.0009795607905429755 -0.0009936176872171682 -0.0010076745838913611
          -0.0004115803215860614 -0.0004204852405675524 -0.00042939015954904334 0 -0.00008911428749993446 -0.0000749547200243385
          0 -0.0000905764737990941 -0.00007586713819179012 0 -0.00009203866009825373 -0.00007677955635924175
        </DataArray>
        <DataArray type="Float64" Name="disp_x" format="ascii" RangeMin="0" RangeMax="0.000024929975263256002">
          1.3903467086129438e-7 0 1.3943307024891743e-7 0 1.3987098679343566e-7 0
          1.3764842760751443e-7 0 1.3897227166527337e-7 0 1.3951513695652496e-7 0
          1.337264492536759e-7 0 1.4525777373214348e-7 0 1.4971526195061196e-7 0
          1.3928783469577063e-7 0 1.4093256922355135e-7 0 1.5916255136387153e-7 0
          1.9722209094226063e-7 0 2.083198532923633e-7 0 2.411663158233458e-7 0
          3.6030204856540083e-7 0 3.7118972840685745e-7 0 4.05974674296973e-7 0
          6.516056645236234e-7 0 6.58081611985148e-7 0 6.792245381273733e-7 0
          0.0000011167629516782125 0 0.000001108576806298788 0 0.0000010892957535885522 0
          0.0000018390924670444093 0 0.0000018046317351345443 0 0.0000016982053898896714 0
          0.0000032359561369178273 0 0.000003147033540915141 0 0.0000028503588584980087 0
          2.7792175675187187e-7 2.791303296798155e-7 2.798111730410352e-7 2.7473821062591876e-7 2.778227314313486e-7 2.8435061639506764e-7
          2.723026746697003e-7 2.7875958753080746e-7 2.828876230841618e-7 2.8402959799027935e-7 2.94681857180358e-7 3.344058381707246e-7
          4.176175762223558e-7 4.3793049867467816e-7 5.023911344687663e-7 7.461380979434523e-7 7.671988434279092e-7 8.334713534192197e-7
          0.0000013298733911872242 0.000001341207146125856 0.0000013791698522007891 0.000002252348466898061 0.0000022366890597058007 0.000002197386876825446
          0.0000036777449005181514 0.0000036103916465848667 0.0000034102506749347095 0.000006308350731422174 0.000006142734961959242 0.000005602611437907452
          4.162441370308563e-7 4.187173348185335e-7 4.229614219837538e-7 4.1202456449277216e-7 4.1715795356586364e-7 4.2719403690499227e-7
          4.0780604878460694e-7 4.1339432377754266e-7 4.4561051856618404e-7 4.534738824333872e-7 4.740484170451755e-7 5.418408219835951e-7
          6.801334805513221e-7 7.093250522838899e-7 8.020367652525512e-7 0.0000011822346547352564 0.00000121132918281893 0.0000013028664259117102
          0.000002058293047669954 0.000002071963457012795 0.000002118985614403186 0.0000034249450492356173 0.000003401725157655599 0.0000033405128905233177
          0.000005496508552231582 0.000005402088953180129 0.000005129804225787068 0.000009079790505263324 0.00000886246269566447 0.000008166332574172231
          5.543497855404943e-7 5.587624335531987e-7 5.688354166290216e-7 5.482649538802203e-7 5.558946122971227e-7 5.834911071132416e-7
          5.55642687983341e-7 5.735986101991153e-7 6.34721128661034e-7 6.656654802035943e-7 6.961385689479722e-7 7.921793264255439e-7
          0.0000010034386628538326 0.0000010406782202594233 0.0000011577925357261023 0.0000016899521781136768 0.000001724060193485947 0.000001831451394412813
          0.000002855415366979002 0.0000028682647559939134 0.000002914407508888639 0.000004641142619509484 0.000004609611358193944 0.000004524447914388182
          0.000007274089239527918 0.000007161485097269925 0.000006840120114233125 0.00001144578058304766 0.000011208377743222866 0.000010464314948016607
          6.916718925818392e-7 6.997114598200817e-7 7.279074566523456e-7 6.907395231056719e-7 7.087889038321497e-7 7.652482828829256e-7
          7.408133446687807e-7 7.705546728599355e-7 8.629480961868894e-7 9.371161014926185e-7 9.767668030120809e-7 0.0000010992392941676778
          0.000001405831345120245 0.0000014490355186347143 0.0000015836203991297012 0.000002286019698193629 0.000002321336371032792 0.000002433054231494676
          0.0000037306801194207764 0.000003739210004146131 0.0000037739714884131794 0.000005894742062833739 0.000005855278688223001 0.000005744899736935466
          0.000008976494790308118 0.000008853104850839328 0.00000850579824423057 0.000013445871777476643 0.00001321687788722817 0.000012506407976913827
          8.346492872532375e-7 8.533693484818836e-7 9.084372951193146e-7 8.633469405334766e-7 8.927005429894273e-7 9.814437128526428e-7
          9.813301598367862e-7 0.000001020812151645384 0.0000011420920499013181 0.0000012861935398644749 0.0000013320626609515329 0.0000014741948423030785
          0.000001903512998944078 0.0000019483932220237098 0.000002089294261352325 0.0000029806532348880375 0.000003012720485733833 0.0000031160260158078915
          0.000004682751729574301 0.000004684401735424116 0.000004698915898684216 0.0000071650521285867704 0.000007118899786694989 0.000006984942898509913
          0.000010572300858533578 0.000010448146075757812 0.00001009561333303519 0.000015096867045759992 0.00001489642317382466 0.000014274445710799293
          0.000001008178455458969 0.000001034128162181742 0.0000011149397312524007 0.0000010902390030382343 0.0000011254576310370897 0.0000012389714963309219
          0.0000012996632375027903 0.0000013418231147414302 0.0000014798028210857513 0.0000017321685734139985 0.0000017766422175983583 0.00000192286848502801
          0.000002508698580829399 0.0000025482569098539736 0.000002679174211939636 0.0000037760943444033037 0.000003800303454887564 0.000003882335595170898
          0.000005698517776331152 0.000005692949108747817 0.000005682679314604526 0.00000842146832955356 0.000008372967350773414 0.000008223269242774107
          0.000012023520163095299 0.000011912246112006983 0.000011578256948505885 0.0000164323350868204 0.000016278330535757075 0.000015779268020057827
          0.0000012370318356175147 0.000001259174532993116 0.0000013490744923212433 0.00000139768292921425 0.0000014258798747319352 0.0000015403101980134103
          0.0000017187517226084908 0.0000017506305290685357 0.000001877828814070914 0.000002290944763063133 0.0000023226372085131235 0.000002446109120351393
          0.000003226771207738846 0.000003252889515262519 0.000003352492745395276 0.000004664741796513059 0.000004677784875110785 0.000004727323188888948
          0.00000675606084942417 0.000006746104491416814 0.000006713804463109153 0.000009624859972988943 0.000009583745536736074 0.000009437326137600133
          0.000013296028646416825 0.000013213621748394762 0.000012932482177820752 0.000017503218604025203 0.000017406180755318596 0.0000170526567729981
          0.0000022417880425162737 0.0000022684011466583927 0.0000023528979915366326 0.0000029590599020747394 0.0000029833037381909345 0.0000030591565404729114
          0.0000040459599460706485 0.000004063786010673643 0.000004117670310181356 0.000005625819903067639 0.000005631809093279531 0.000005646793898167255
          0.00000782944602141451 0.000007816799388892601 0.000007773226297733245 0.000010751282254351755 0.000010714380060878769 0.00001059372895328124
          0.000014377391765441454 0.000014312280902287993 0.00001411104730988236 0.00001835458009746421 0.000018285048810725595 0.000018067401308022686
          0.000023449676224991972 0.000022968888193173108 0.000022967594686194595 0.00002345002034094327 0.00002344974822570206 0.000022949540134241492
          0.000022969022543682544 0.000023449403342720502 0.000023418996788620664 0.000023049929623507228 0.000022979269372249703 0.000023454883281171704
          0.00002390235663461054 0.000023932048472608777 0.0000238954681090802 0.000023931340418688933 0.000023925665517232607 0.00002394246710299207
          0.000023873265696708687 0.00002421997000779741 0.000024232537244571195 0.000023854841787909962 0.00002421452744921753 0.000024218020303838855
          0.000023891887684782487 0.000024233438173291545 0.00002425872588614348 0.000006282007128748025 0.00000952853536881534 0.000007650280232934442
          0.000005468217278237225 0.000006026200754499519 0.00000918152169852102 0.0000073244111149235115 0.0000052167605726521 0.000005265471453726167
          0.000008094134407274368 0.00000633307580178657 0.0000045024778550825725 0.000020773653297222515 0.00002119885636398362 0.00002210437647647838
          0.000021816556426407963 0.00002059508766396224 0.000021063527550349476 0.000022256757519919823 0.00002181701624928749 0.000019892753656342038
          0.000020378443553516372 0.0000226144573219457 0.00002176250026230182 0.00001194840031340893 0.000013216732473591887 0.000011061586808535809
          0.000009810610575534406 0.000011667610906551148 0.000012881832896961987 0.000010726451626202058 0.000009547882817280632 0.000010768151971701713
          0.000011843205394440185 0.000009697074994568397 0.000008700923686515767 0.000018606398293929252 0.000017360805091458926 0.00001880482056149361
          0.000019955700801473792 0.00001840991010416729 0.00001714051920151589 0.000018661114078836875 0.000019837209593636023 0.00001773892700053212
          0.0000164569377984548 0.000018189063390466465 0.000019369896616713398 0.000018745212071005394 0.000017854460381900915 0.00001865484399529446
          0.000017722998702349275 0.00001834655447903087 0.00001727745203407896 0.000009353986008890087 0.000012094697973118846 0.000009040280358490729
          0.000011725451100384525 0.000008068939908035579 0.000010564449822208792 0.000023642422565211322 0.00002400157571684074 0.000024083320415931993
          0.000023613862874762807 0.000023637008203888863 0.000023988313085474438 0.000024063733702007224 0.000023606642041095555 0.000023554554239080112
          0.00002393253932260853 0.00002398686001968066 0.000023509715684504998 0.000001802939667424164 0.000003984407659934529 0.000003017460803009096
          0 0.0000017564553989470913 0.000003862706306858741 0.0000028907097326944584 0 0.000001560899527796969
          0.0000034359326157264437 0.00000251398827541165 0 0.000011289740660942135 0.000009968453220405087 0.000010888788304094818
          0.000009580821701777136 0.000009590501142827094 0.000008274099922352343 0.000022867413559639567 0.000022645944325661525 0.000023295720867394656
          0.000023478687807262362 0.000022870624887499194 0.00002264421589671847 0.000023295139228984488 0.000023478661425783296 0.00002286056122833895
          0.000022631670926399016 0.000023294415620488462 0.000023481308723019236 0.00001434836284772085 0.000007717276468600022 0.000007486686722279846
          0.000012601646967314974 0.000014147603341229042 0.0000075855454692971545 0.000007317268968819802 0.000012274819235257467 0.00001258544145675176
          0.00000652505101724333 0.0000061588935750530434 0.00001046241648993051 0.000024566925202506674 0.00002433401649993044 0.00002427891358597634
          0.000024543807484594833 0.00002452381471461559 0.00002429971623356914 0.000024251901346719825 0.00002452739787918023 0.000024648607375306058
          0.000024334513746815358 0.00002432856699974691 0.000024479203085770755 0.00001643489251826458 0.000017073693735882427 0.000016181369584423188
          0.000016814625224310955 0.00001536775299292982 0.000015951481995781155 0.000007178638578239566 0.000006945195139622174 0.000006209044308264878
          0.000023216965822704026 0.000022763993919708976 0.000023207408202002148 0.000022766469754076202 0.000023091895763007192 0.00002318026244628553
          0.000022394906504884645 0.00002201529839317837 0.000022457259998401794 0.000022511433833610016 0.000021912926605332163 0.00002244142313186722
          0.00002317084706383968 0.000021587000057478953 0.000022341119599859257 0.000017317530961328843 0.000018826575840076545 0.000017270108685079043
          0.000014421224333727621 0.000016915720547006687 0.000018448210616554115 0.00001678818111095422 0.000013947450558073734 0.00001570000817897287
          0.00001731123370421527 0.000015295009156259306 0.000012489609393577179 0 0.0000029425168927589314 0
          0 0.0000028031444659808105 0 0 0.000002421282817576288 0
          0.0000197108969004686 0.000016953892759218323 0.00001962445021625876 0.00001675981684329936 0.000019327157979705228 0.000016174828221016605
          0.000022597571036931103 0.000022821867716447313 0.00002267602206876188 0.00002267217335435798 0.000022680227377653947 0.00002214920227366362
          0.000020752449087108515 0.00002161844158472409 0.00002061450010806423 0.000021545434114013787 0.00001998943635784827 0.000021249295358257464
          0 0.0000030576954452342375 0.0000037483417548822698 0 0 0.000002920045450075655
          0.0000036205591717441353 0 0 0.0000024155044107663307 0.0000029372448398735228 0
          0.000015404450091528176 0.000016538804375450084 0.000014354982463065707 0.000015094520583616796 0.00001621603249008764 0.000013985163120410582
          0.000014110410076530572 0.000015141021761126897 0.000012830235051400306 0.00002233539840637594 0.000022565308779989467 0.00002233330532965745
          0.000022566785196916154 0.00002227622140107157 0.000022529949218104428 0.000014284100489369678 0.000015628637265193557 0.000014007239433268554
          0.00001539256136549748 0.000013138922231574668 0.000014665936004010465 0.000019239048250856205 0.00001946284494185788 0.000019024041757310232
          0.000019172116336480985 0.00001821582595390911 0.000018197872518217143 0.000020359811567679334 0.0000212620855958422 0.00002022375249479126
          0.000021204500730160673 0.000019687308386507628 0.000020975112061031798 0.00002450458828721585 0.000024243967629502997 0.000024487744991995622
          0.000024492047069746323 0.000024240192352919906 0.00002448046683650077 0.000024495548542545224 0.00002425768527210727 0.000024490368263603752
          0.000020937305728712 0.000021944829323286075 0.000020780401198964832 0.000020894430918085665 0.000021929623963290954 0.00002071465895373717
          0.000020757857446193496 0.00002187598377258518 0.000020479497242963972 0.000002677307618464469 0.000002172249263504706 0
          0.000002555799108201857 0.000002074486487083558 0 0.0000021453499582741674 0.0000017241503046927307 0
          0 0 0 0.00002446798224591246 0.000024226117706730703 0.000024140342594132584
          0.00002446245130856974 0.00002446603967817524 0.000024225894583213553 0.00002414080905839562 0.00002446157881722848 0.000024476329860243437
          0.000024237886546128537 0.00002415172039666275 0.000024471491145864837 0.000005037994333259461 0.0000058793478356480714 0.000004812035361389827
          0.000005630593962788986 0.000004070265502696173 0.000004776571955802022 0.00002424640877698631 0.00002447537472971555 0.00002424513022148476
          0.000024471452654876476 0.00002425845399096535 0.000024482802992773695 0.000004057758242062151 0.000007998281064072092 0.000003965208775254714
          0.00000772418423988029 0.000003300629104512993 0.000006370603246752899 0.000013863754985312426 0.00001636979954195774 0.00001338993549108593
          0.000016039041853905148 0.000011715626707617058 0.000014376379279131997 0.000023930489496349974 0.00002393094666575235 0.00002394161891077568
          0.000019711119052966993 0.00001963835002394667 0.000019439916514118256 0.0000203601741570221 0.000021618281984465412 0.000020121789482633764
          0.000021585923575014055 0.000018911722936449097 0.000021059274465771067 0.000020093762566150398 0.00002000974343340246 0.000019659780965023884
          0.000022887988433671967 0.000022910763746080013 0.000023042795791846015 0.000024524607300221217 0.000024507850147332006 0.000024491007083628077
          0.00002205300125163127 0.000022040490504845592 0.000021962033408861222 0.00002390730825673991 0.000023909071355231956 0.000023916864715406134
          0.000022960943977520958 0.000023166864756563105 0.00002334341286059603 0.00001990994143061411 0.000019716975251451735 0.000018121368262083698
          0 0 0 0 0 0
          0.000024459938412766524 0.00002446009305132109 0.00002446933363340797 0.00002457731106915289 0.0000245139660061137 0.00002469174074571359
          0.000005991227823966172 0.000005993660849698167 0.000005984442779821827 0.000009278273300175956 0.000009271286727586786 0.000009260892142252563
          0.000007591816133097948 0.000007587964418986696 0.000007562007785996451 0.000011230326616323291 0.00001121804284791319 0.000011190567343890183
          0.00000959034727286566 0.00000957927782171857 0.00000953721708545379 0.000012022434184666333 0.000012003548422424903 0.000011947222202592647
          0.0000148679429175121 0.000014841404359271548 0.000014774601240538543 0.00001795806431245217 0.00001792853140271959 0.000017862900747240185
          0.000020929097642351157 0.000020916807136508584 0.00002088206226296303 0.00002088098175471712 0.000021704941765840037 0.000020851900151424777
          0.00002169980918672161 0.00002077157558199721 0.000021656104602546996 0.000022958938964526065 0.000023598994163709025 0.000023278079965266047
          0.000022524190828936427 0.00002295673591446584 0.000023599303384649745 0.000023277664520602567 0.00002252010716285381 0.00002294976320982868
          0.000023600982698085826 0.000023277831237593972 0.000022507128602242655 0.00002389944646636118 0.000023900712999662005 0.000023907378731755257
          0.00002221814598796125 0.000022214901307053356 0.000022194133807947803 0.000024614996011427613 0.000024616381502873762 0.00002462182827802341
          0.000014786081310192976 0.000012685928084810055 0.000014776281559665056 0.000012681274917531453 0.000014745928540763634 0.000012665914907605449
          0.000013448055357643378 0.000013431442707449068 0.000013388073353480878 0.00001698848536338749 0.00001697409342250423 0.000016929850659437584
          0.000015877604147235075 0.000015858712837214227 0.00001580263504554913 0.000018393874136987463 0.00001837490370884765 0.000018312796757077585
          0.000020765940943312197 0.000020753971415404736 0.000020699278431224914 0.000022552963002989397 0.00002254750949663732 0.000022525092823983985
          0.000023216391436884543 0.000023212830496219542 0.000023206227289394572 0.00002492515720395637 0.00002395171070691505 0.000024488063331210674
          0.00002492631134980746 0.000023952029896143822 0.00002448802069806519 0.000024929975263256002 0.000023952879405389933 0.000024488286106667996
        </DataArray>
        <DataArray type="Float64" Name="disp_y" format="ascii" RangeMin="-0.00001790656800818083" RangeMax="-0.0000027533110895508758">
          -0.0000027544156639308566 -0.000002753706416428731 -0.000002754147002380457 -0.000002753840324385397 -0.0000027535207236491155 -0.0000027533110895508758
          -0.000002882003093030155 -0.000002879979956200302 -0.0000028807834847745653 -0.0000028770522786345453 -0.0000028795279513601025 -0.000002876568894754301
          -0.0000029987737749771846 -0.000002994901663626207 -0.0000029957885466404885 -0.0000029940679318657266 -0.0000029908759749381325 -0.0000029904907356861026
          -0.000003099227498671177 -0.000003092405563862148 -0.0000030885900126438113 -0.0000030814906535711187 -0.0000030613249369194365 -0.0000030572627671524584
          -0.000003221195531348481 -0.0000032010919057170175 -0.0000032009778937754943 -0.00000318074470026692 -0.0000031382691238239682 -0.0000031181121435441797
          -0.0000034436563977637686 -0.0000034064075200570425 -0.000003407260186339711 -0.000003369774371197959 -0.000003287962067304831 -0.000003249843892428335
          -0.000003843899504364916 -0.0000037855658151849115 -0.0000037854206093921563 -0.0000037265616376357555 -0.0000035926127210460638 -0.000003531264546335498
          -0.000004506597110704245 -0.0000044195973859085616 -0.00000441887500261102 -0.000004330700933982277 -0.000004132748410949099 -0.0000040397188035058466
          -0.000005524780938648803 -0.000005388707914332907 -0.00000540743696423528 -0.000005265332638299171 -0.000004989464042011529 -0.00000483023988329687
          -0.000006953335958924148 -0.000006717538265386422 -0.000006796605969591426 -0.000006552777887209687 -0.000006198188683219364 -0.00000590134390741685
          -0.0000027565838779630327 -0.0000027559214949873063 -0.0000027550403974196957 -0.0000028879322107929707 -0.000002886439731647192 -0.0000028838495694243567
          -0.000003009203692875966 -0.0000030042893719322308 -0.0000029931001323666266 -0.000003123943839280774 -0.0000031124841544675035 -0.0000030825372228049895
          -0.0000032842397950220947 -0.000003264530215696395 -0.0000032002308724940278 -0.0000035569449763114323 -0.0000035211901958087474 -0.000003403879040242383
          -0.0000040194940159978465 -0.0000039628646626304014 -0.000003777401780540478 -0.000004768509220702242 -0.000004684361313518383 -0.0000044134734957650565
          -0.0000059213703628655555 -0.000005816811657931641 -0.000005443601070322126 -0.000007621086963310648 -0.000007485202093957508 -0.0000069997736522693785
          -0.0000027603577044312145 -0.0000027590693575694417 -0.000002757174711638558 -0.000002896960488806626 -0.000002893473940497057 -0.00000288628830666318
          -0.0000030270893449621863 -0.000003020095729937143 -0.000003003375400832144 -0.0000031751515580980063 -0.000003164431540346604 -0.000003129985796035171
          -0.000003397273303367311 -0.000003377235802778262 -0.000003310649982677504 -0.0000037502734123046613 -0.000003716005234366389 -0.0000036024041861952624
          -0.000004314018868041527 -0.000004260378791632552 -0.000004087316441863995 -0.0000052026264147199825 -0.0000051253476644281 -0.0000048797166129084485
          -0.000006546220543021244 -0.000006458440125184425 -0.000006146155147394902 -0.000008392000184370768 -0.000008300880869597724 -0.000007988008541944133
          -0.0000027660485451243234 -0.0000027632020278789177 -0.0000027578881656974677 -0.0000029090233096719468 -0.0000029036121227128004 -0.0000028915819726049914
          -0.000003060241298780963 -0.000003053367904148053 -0.0000030301495136877725 -0.0000032628585779194984 -0.0000032516854800671998 -0.000003210416962838105
          -0.0000035676596717397385 -0.0000035476474940992607 -0.000003478996473608392 -0.000004029286650388437 -0.000003997030364083718 -0.000003889552134167241
          -0.0000047288196571400205 -0.000004679865436234792 -0.000004524052221396746 -0.000005789038252608607 -0.000005720753723223856 -0.000005509142802111823
          -0.000007330571875200646 -0.000007263425251710175 -0.000007024523487906971 -0.000009339579297319473 -0.000009295318665384179 -0.000009152011298849599
          -0.0000027733368857653447 -0.00000276888303707199 -0.0000027591980381808293 -0.000002929769186147172 -0.0000029241311539107043 -0.000002906362935438375
          -0.0000031206421794544747 -0.0000031129183186487947 -0.0000030825120330765786 -0.0000033946362610552344 -0.0000033823707329204467 -0.0000033354083688250174
          -0.0000038025302233439492 -0.000003782834273220957 -0.000003713751148351114 -0.000004398052135174975 -0.00000436826593281934 -0.0000042696690237510285
          -0.000005259239957278483 -0.000005216074192595834 -0.000005081739867362619 -0.00000649925328224197 -0.0000064431071610645475 -0.000006273177157461012
          -0.000008207279152527284 -0.000008162312548631779 -0.000008001877368808571 -0.000010352846278026257 -0.000010332226104153008 -0.000010298800300337783
          -0.0000027861026514698207 -0.0000027811163807522445 -0.0000027659550202615195 -0.0000029702624399397674 -0.000002963752389161254 -0.0000029389117432907765
          -0.0000032169526537843283 -0.00000320776252927798 -0.0000031702905729300634 -0.0000035788476199105727 -0.000003565456022350203 -0.0000035139896232375554
          -0.000004107552311546157 -0.000004088198838512141 -0.00000402079734471729 -0.000004856085682991412 -0.000004828992857939796 -0.000004741950687363071
          -0.000005891726695396518 -0.000005855297414723524 -0.0000057461173815811495 -0.000007300064999926696 -0.00000725804514692834 -0.000007133740544374733
          -0.000009129851395594408 -0.000009102065441369102 -0.000009011371839076862 -0.000011274984143227631 -0.000011282279085536346 -0.000011333358562011655
          -0.0000028135448996841317 -0.000002807322614433554 -0.0000027852172351707373 -0.0000030395904596958167 -0.0000030311903722196713 -0.0000029985243895779204
          -0.0000033577369361240744 -0.000003346338543451063 -0.0000033021232028818377 -0.000003821969813042633 -0.000003806872914980334 -0.000003752408523104635
          -0.000004484197799329465 -0.000004464860419391013 -0.000004401070429632059 -0.000005395392178407116 -0.000005371134855580776 -0.000005297780286325399
          -0.000006605256076536588 -0.000006576429370038905 -0.000006494742578265511 -0.000008155832938595842 -0.00000812807733067029 -0.00000804895062160924
          -0.000010046199630418285 -0.000010035363035607062 -0.000010005742686916947 -0.00001213537183450886 -0.000012156036173298364 -0.00001225157013325657
          -0.0000028644955274458886 -0.000002855807907464287 -0.0000028254937477784544 -0.000003146920084469783 -0.0000031351170736219 -0.000003093757240624001
          -0.0000035500279085818404 -0.000003535011446977467 -0.000003484047411088395 -0.000004126792136753831 -0.000004109204089634444 -0.000004052268052775314
          -0.000004928004431927734 -0.0000049087582971262775 -0.000004849572861659871 -0.000005998506367766451 -0.000005978632074935735 -0.000005920554717971499
          -0.0000073691076697276615 -0.000007350681234072708 -0.0000072979800501398795 -0.000009032232997250484 -0.000009021449167253678 -0.00000898646758201591
          -0.000010924457401034623 -0.000010928672905345788 -0.000010947365183683432 -0.000012941485673027493 -0.000012963834209348885 -0.000013080780022871933
          -0.0000037961596726495015 -0.0000037785707561260613 -0.0000037218853252554 -0.00000449008594279099 -0.000004470841283761159 -0.0000044136085381964115
          -0.0000054270766972239764 -0.0000054080150371662336 -0.0000053566715691068375 -0.000006643072115086737 -0.000006626081282511083 -0.000006587347869522333
          -0.00000814902600559443 -0.000008136602162898962 -0.000008117175449870492 -0.000009902136498018074 -0.000009900811682888454 -0.000009913168619279165
          -0.000011771726361658815 -0.000011783048342092218 -0.000011847860549115894 -0.000013573674082793038 -0.00001360755419029597 -0.000013710150963327575
          -0.000013675580678223836 -0.000013679558806578756 -0.000014062185266491708 -0.000014171336368111951 -0.000013729037703588705 -0.000013737297694619385
          -0.000014105150135795395 -0.000014209297936636192 -0.000013839003783392406 -0.000013880045386736774 -0.000014231643538942043 -0.000014285860468867326
          -0.000013844213891075839 -0.000014229255393621858 -0.000013890687848528182 -0.000014259625239652522 -0.000013956781196975596 -0.000014329678401163624
          -0.000013427566699103255 -0.000013857451481892634 -0.000013528690557675187 -0.00001347845292253937 -0.00001390078913769226 -0.000013582170200710123
          -0.000013672063138002051 -0.000013972047038491913 -0.000013717459548126865 -0.000008385708124313573 -0.000009143899185004321 -0.000009248713978408099
          -0.000008912441921759065 -0.000008180633396514648 -0.000008989244404086258 -0.000009023722785821483 -0.000008647369906371554 -0.000007382159784285798
          -0.000008319436943214889 -0.000008068366911052637 -0.000007623181696928546 -0.00001187039941731634 -0.000012465417730873115 -0.0000124269091891105
          -0.000011904659209884679 -0.000011937912306948549 -0.00001270752767255386 -0.00001260539691462724 -0.000011964475499009168 -0.000012112583852649292
          -0.000013084089929684551 -0.00001255049073886297 -0.00001230910866863379 -0.000009420000327107405 -0.000009929336215042905 -0.000009178024436210975
          -0.000008773591959722918 -0.000009370112233789511 -0.000009903907039639298 -0.000009109986893971599 -0.000008680818778118222 -0.00000918948676533759
          -0.000009753150596351141 -0.000008796409651345352 -0.000008324391589941627 -0.000012499369055351678 -0.000012098425217657312 -0.00001298906390141075
          -0.00001322604302466402 -0.000012550942097174854 -0.000012124511982354696 -0.000013020640012827367 -0.000013275035217405917 -0.00001275817310170914
          -0.000012276814964605034 -0.000013197236127956519 -0.000013492975316624318 -0.00001352525347378201 -0.000012787707029101472 -0.000013558335791706437
          -0.000012812296968093463 -0.000013713180380399171 -0.00001295186246251545 -0.000008790242458583972 -0.000009495144967922095 -0.000008662552974416665
          -0.000009445832568122417 -0.00000814987818488405 -0.000009176188794247307 -0.000013014566782542055 -0.000013042854415776162 -0.00001261591394254382
          -0.000012424320511360369 -0.000013101592499419406 -0.000013105086255278123 -0.00001269514308235682 -0.000012508905666056084 -0.000013231603308411598
          -0.00001331129380620711 -0.000012965572130413389 -0.000013000664831257813 -0.000007121306397844963 -0.0000074678742937997235 -0.000007865036375808441
          -0.000007376084800178692 -0.000006949411749358218 -0.00000729035918993709 -0.000007654967809298678 -0.000007175390936822513 -0.0000062541305908516215
          -0.000006600261537157431 -0.000006800185962742886 -0.000006365274915727248 -0.000009842545064397973 -0.000010112484896612952 -0.000009706469786597583
          -0.000009873078101657603 -0.00000907172093459936 -0.000008853544940509099 -0.000014467875430348535 -0.000015004880264098857 -0.000015079869103084897
          -0.000014668442111847641 -0.000014503632755245752 -0.000015032351134159947 -0.000015103623196491058 -0.00001469484374522957 -0.00001460503683810523
          -0.000015109765287039918 -0.00001515973864755282 -0.000014759033013341498 -0.000014641210805106641 -0.00001583800531524778 -0.000014164910764751738
          -0.000012538587388597246 -0.000014144435799726522 -0.000015187919049290144 -0.000013575554979030967 -0.00001217822891436734 -0.000012534832134422692
          -0.000012241275938086693 -0.000011165723829115302 -0.000011031670554492812 -0.000012998569575389372 -0.000012961398730292787 -0.000013197786732093162
          -0.000013317925182936404 -0.000013062000778666585 -0.000013024801117095324 -0.000013245389012580515 -0.000013371197421290002 -0.000013254563701801131
          -0.000013317929928118562 -0.000013510775535890337 -0.000013577616213683831 -0.00001141258344644381 -0.000011592483370249692 -0.000011432120122307692
          -0.00001163058186322531 -0.000011535031841429989 -0.000011783179111794207 -0.000008068188825344537 -0.000007907598678658339 -0.000007332115868388447
          -0.000013153545221192085 -0.000013281631286575457 -0.000013255576726517315 -0.000013346065263653401 -0.000013405021486961856 -0.000013295239725568383
          -0.00001294741850504827 -0.000013060525877742045 -0.000013545894646865003 -0.000012836088872817917 -0.000013110150348564475 -0.000013579141031063174
          -0.000012770056049822372 -0.000013502144563040873 -0.000013859016405277838 -0.000011171546913902252 -0.000011483659399037658 -0.000010567384467245057
          -0.000010155180379494322 -0.000011271883451371264 -0.000011560697045493905 -0.000010620729958262353 -0.000010151847388115442 -0.000011415431175103873
          -0.000011726231408415788 -0.000010872238924754615 -0.000010025581271542978 -0.000008075285364745134 -0.000008717959324440146 -0.000008832163784640008
          -0.000007819462973837088 -0.00000842720685792584 -0.000008508832295298513 -0.000006831727251674254 -0.000007337499827273068 -0.00000731435032681785
          -0.000013776875717593862 -0.000012154066115452988 -0.00001381512393343939 -0.000012178059664535061 -0.000013994190695541318 -0.000012304240997165977
          -0.000012328403044997857 -0.0000117893534532271 -0.000012497837362542645 -0.000011769210561198247 -0.000012693354398494245 -0.000012506346952002108
          -0.000012794263105885621 -0.00001349496738011968 -0.000012870196132816987 -0.000013528883803168953 -0.00001319318047939991 -0.000013805538841786533
          -0.00001291616431572071 -0.00001169597067711917 -0.000013144085607591282 -0.000014426178775805282 -0.000012259254389038931 -0.000011157091481884346
          -0.000012533346042163699 -0.000013673127203634029 -0.000009685214873247717 -0.000009180590577827578 -0.000010077792649280187 -0.000010509290595972347
          -0.000010892702928564607 -0.000011116222719192808 -0.000010286748279290367 -0.000010906522608301839 -0.00001117119721950481 -0.00001027574917591863
          -0.000010922830013668081 -0.000011249998518509315 -0.000010135708228604435 -0.000014113968212482496 -0.00001391785668342318 -0.000014161083013974523
          -0.000013964635082342772 -0.000014324676273421098 -0.000014140939726812653 -0.000010473981492976982 -0.000011308603110158587 -0.000010457650262971963
          -0.000011305700604490292 -0.000010433169227352524 -0.000011372229780670688 -0.00001240887215149449 -0.000012028537891617917 -0.000012483453664079963
          -0.000012152292744056742 -0.0000127422665407627 -0.000012434199408023891 -0.000013072395236330685 -0.00001390664513735743 -0.00001312210443570241
          -0.000013949995258344132 -0.000013377660376303888 -0.000014143703630592856 -0.000013914069336566884 -0.00001413851258080049 -0.000014189842775012096
          -0.000013953512908856361 -0.000014170941859540955 -0.000014219793698692286 -0.000014020398443816475 -0.000014231607037271119 -0.000014278345757299439
          -0.000014557244448166937 -0.000014876363936660235 -0.00001404709802031598 -0.00001459097174681589 -0.000014909312543250848 -0.000014089317650734096
          -0.000014713921565061163 -0.000015022169861617815 -0.00001427203091971399 -0.000009403927697533179 -0.000010479705388412133 -0.000010131774813558926
          -0.000009037134291090618 -0.000010025891277899303 -0.000009694864006465954 -0.000007731858637894749 -0.000008383904738298708 -0.000008088608268827787
          -0.000011478651080538444 -0.000010929896090907156 -0.000008873919924794599 -0.000014698239243676631 -0.000014605500001612515 -0.000014833615769982069
          -0.000014936736567509981 -0.000014719360618487221 -0.000014628804651651986 -0.000014854324393266662 -0.000014954952848366925 -0.000014769688447469274
          -0.000014682476140972152 -0.000014904134187997445 -0.000014999778126667048 -0.000009856733878373758 -0.000010922117513068366 -0.000009488832907912765
          -0.000010492883070165364 -0.000008188732496498173 -0.000008987043047726862 -0.000014388106094656852 -0.000014449738096609206 -0.000014414408102763093
          -0.000014474399633019037 -0.000014472970999516696 -0.000014528868275565564 -0.000014174559527661195 -0.00001218519291481385 -0.000013514382158115437
          -0.00001170227281826156 -0.000010734786076752706 -0.00000996138922129056 -0.000010722024561451109 -0.00001171138833288837 -0.000010567810798913342
          -0.00001153828311210651 -0.0000099146893406542 -0.000011372808843840376 -0.000014585645567684732 -0.000014610906644656514 -0.000014666857313144332
          -0.000014116624033440373 -0.000014157851906259969 -0.000014267540529574312 -0.000010935980673395112 -0.000010916528210645282 -0.00001109261200452949
          -0.0000110971627502445 -0.000011818554948042156 -0.000012487020290379009 -0.000013528452121719612 -0.000013563275277824184 -0.00001374912672286654
          -0.000012607897979208463 -0.000012682570003859598 -0.000013159721526265976 -0.000013623002584217055 -0.000013672303158339517 -0.000013779459282144825
          -0.000014393291622843677 -0.000014436998674481755 -0.000014582736417784573 -0.000015138563169571957 -0.000015157326631033893 -0.00001520102457606122
          -0.00001202083524999761 -0.000012291414840853255 -0.000012890299398752544 -0.00001257590201035451 -0.000012388818111563822 -0.000012689241352588089
          -0.000015909061535451386 -0.000015081045384727232 -0.000011300578001574405 -0.000006965718562248041 -0.0000067884150859228895 -0.000006083474769516637
          -0.000015164756881097027 -0.000015180398444912818 -0.000015220322714588274 -0.000012681275457132907 -0.000012754738380694734 -0.000012961768761610622
          -0.0000061952467014714775 -0.000006183044760810359 -0.000006146343922728314 -0.00000817759167993221 -0.000008171481822393913 -0.000008153032594207618
          -0.000007522775360091567 -0.000007514690919698073 -0.000007489399900019238 -0.000009710956758772372 -0.000009708739312818027 -0.000009702194435040144
          -0.000009090691519627379 -0.00000908856667196224 -0.000009080330001079908 -0.000010844593242798302 -0.000010850156179335785 -0.000010864697695863781
          -0.00001266262961229294 -0.000012680686744564472 -0.000012726750799177398 -0.00001436045111345468 -0.000014385623356727544 -0.000014474674899748257
          -0.000015745240869624975 -0.000015771436102727947 -0.00001586863915607728 -0.000015037572324557826 -0.00001541905208219872 -0.000015067761645010297
          -0.000015442705918919418 -0.000015171934139001558 -0.00001553892504838135 -0.00001631048103193127 -0.000016434606454873294 -0.00001570564750842616
          -0.00001561651683475214 -0.000016327002361262788 -0.000016446645539088745 -0.000015723642513838752 -0.000015639830514832244 -0.000016373783341605354
          -0.00001648105617917062 -0.000015771916212938754 -0.000015712189013539996 -0.00001576714675410077 -0.000015781550916774565 -0.00001581809464343952
          -0.000016147521671582413 -0.000016170137333497113 -0.000016232040239397826 -0.000016684201709690778 -0.000016693943606862027 -0.00001671651229064456
          -0.00001180100144643622 -0.00001022542836879494 -0.000011804598169961708 -0.00001022480042569654 -0.00001181513732010253 -0.000010223040743209068
          -0.000011387454393243324 -0.000011390620475313589 -0.000011400400414802472 -0.00001340399525864331 -0.000013412547473529152 -0.000013437809877574189
          -0.00001311432261729858 -0.000013124129806972974 -0.000013154711448281123 -0.000014745597735738353 -0.000014763713278444203 -0.000014818107098448173
          -0.000016096007739343457 -0.00001611836536795628 -0.00001619330297963043 -0.00001697961011500962 -0.000016998278153100588 -0.00001705776448139051
          -0.000017083537029634662 -0.000017097999581189338 -0.00001713754724267127 -0.000017667672876715354 -0.00001716269960048284 -0.000017876776047525313
          -0.000017675221445713728 -0.000017172293819013496 -0.000017884158899356597 -0.000017698115388742475 -0.00001720183759095848 -0.00001790656800818083
        </DataArray>
        <DataArray type="Float64" Name="disp_z" format="ascii" RangeMin="-0.000013709928614476264" RangeMax="6.97618030056366e-7">
          0 0 -5.9455090633825815e-8 -5.9465754756436294e-8 -1.1937074162715265e-7 -1.2004357056680003e-7
          0 0 -5.893696525918566e-8 -6.048106769343912e-8 -1.217365572136603e-7 -1.2126451081885236e-7
          0 0 -6.198937343415635e-8 -5.410296475020153e-8 -1.2259198372939006e-7 -1.3680558480293997e-7
          0 0 -6.921005560479259e-8 -6.680767500933638e-8 -1.5171460165526203e-7 -1.4070261821702514e-7
          0 0 -1.3198940898072818e-7 -1.227170801419786e-7 -2.9368203395620796e-7 -2.765813163788494e-7
          0 0 -2.9358936441421737e-7 -2.831015588085095e-7 -6.266647607977307e-7 -6.067781547490388e-7
          0 0 -5.972421934217522e-7 -5.878516843797459e-7 -0.000001228973349021855 -0.0000012124566242829313
          0 0 -0.0000010896629040826732 -0.0000010892271398386575 -0.0000021866190580064576 -0.000002186866700017253
          0 0 -0.0000018724902455163629 -0.0000018928372771577825 -0.0000036890997372700436 -0.000003730823955797302
          0 0 -0.0000034347582091137176 -0.0000035970062582700795 -0.0000066957921487395625 -0.000006997519826094856
          0 -5.8484346664768226e-8 -1.1854125046295775e-7 0 -5.847746618471824e-8 -1.2039730825947237e-7
          0 -6.082086525892267e-8 -1.2359473859552125e-7 0 -8.091027764071133e-8 -1.818996952156535e-7
          0 -1.5832143402258835e-7 -3.452848847296987e-7 0 -3.2472713543301505e-7 -6.8480273567474e-7
          0 -6.232888918986465e-7 -0.0000012745395726880425 0 -0.000001092525281050038 -0.0000021895023584350457
          0 -0.000001801471142573909 -0.000003546590291884854 0 -0.000003040121742333237 -0.000005949311011657935
          0 -5.747986620188157e-8 -1.177463169631419e-7 0 -5.8463533184493523e-8 -1.212678495319123e-7
          0 -6.435487530546039e-8 -1.450209458564344e-7 0 -1.070881079475192e-7 -2.3823952442816747e-7
          0 -2.0083615018163677e-7 -4.2899431918124263e-7 0 -3.740910153578266e-7 -7.762110173118374e-7
          0 -6.625150191167833e-7 -0.0000013437697602076706 0 -0.0000010911294133383173 -0.0000021792514637959296
          0 -0.0000016997465509033006 -0.00000335294245992985 0 -0.0000025314580287424286 -0.000004980127438373858
          0 -5.714861311152818e-8 -1.1983813222454252e-7 0 -6.118917100461276e-8 -1.3555399009975575e-7
          0 -8.49574132538955e-8 -1.9309820571303835e-7 0 -1.491423383727528e-7 -3.227696934728572e-7
          0 -2.5913785594251704e-7 -5.420482566023829e-7 0 -4.37576487377571e-7 -8.931952204838507e-7
          0 -7.082767184624005e-7 -0.000001423596144764437 0 -0.0000010827744400616067 -0.0000021561442430325096
          0 -0.0000015641083854580394 -0.0000030860972083639307 0 -0.000001997448262972786 -0.000003971057806001266
          0 -6.047703736573888e-8 -1.3469757375178228e-7 0 -7.706660290580164e-8 -1.7507880491902752e-7
          0 -1.2316629812763103e-7 -2.7037964643509314e-7 0 -2.070556175566399e-7 -4.3632423624726225e-7
          0 -3.3177384340137173e-7 -6.796201011612898e-7 0 -5.095834935952331e-7 -0.0000010251891709029596
          0 -7.524483070882053e-7 -0.0000015000202044918833 0 -0.0000010605232055235806 -0.000002105677715487015
          0 -0.0000014004613723259085 -0.000002769385222237383 0 -0.000001519234055013856 -0.000003070974199276463
          0 -7.771948345176175e-8 -1.7273357832803232e-7 0 -1.1346577048501442e-7 -2.4677218410500727e-7
          0 -1.8076122111202566e-7 -3.8042029997368834e-7 0 -2.8236236359805523e-7 -5.774650750740072e-7
          0 -4.158121989275535e-7 -8.34567514637628e-7 0 -5.8351448377854e-7 -0.0000011596547664265748
          0 -7.864953196789441e-7 -0.000001558729374093919 0 -0.000001014383684988819 -0.0000020119001740895104
          0 -0.0000012199315779985975 -0.000002428898029412922 0 -0.0000011145818787575346 -0.000002291733304734042
          0 -1.1629372728059541e-7 -2.405218081324783e-7 0 -1.736664286862237e-7 -3.5344195849451803e-7
          0 -2.609452207620628e-7 -5.225246944179759e-7 0 -3.74692803235834e-7 -7.414757580496639e-7
          0 -5.070076863419298e-7 -9.97675752440345e-7 0 -6.520453658714384e-7 -0.000001283261898973451
          0 -8.015631211988438e-7 -0.0000015854667395671043 0 -9.391947481951975e-7 -0.000001870873329774445
          0 -0.0000010168150438628805 -0.0000020526922131803035 0 -7.842150946090241e-7 -0.0000016681633762527753
          0 -1.7593760994391126e-7 -3.400112867244398e-7 0 -2.5660111443357756e-7 -4.932025548025732e-7
          0 -3.606300839865943e-7 -6.923078286453632e-7 0 -4.787192315856325e-7 -9.214133394719192e-7
          0 -5.985449199340832e-7 -0.0000011593848980846903 0 -7.075122777449975e-7 -0.000001383940382094469
          0 -7.910566015581487e-7 -0.0000015688821871018225 0 -8.315850255456968e-7 -0.000001678040069628565
          0 -7.914481102942815e-7 -0.0000016451063949585137 0 -5.134222536629948e-7 -0.0000011414311144565861
          0 -4.5613977071589654e-7 -9.036294121317654e-7 0 -5.720106125112229e-7 -0.0000011292485310728132
          0 -6.720235217625904e-7 -0.0000013257297975235255 0 -7.384350454706108e-7 -0.00000145941521023481
          0 -7.53956115048579e-7 -0.0000014961184943422563 0 -7.066738095303331e-7 -0.000001409677997113552
          0 -5.769206628521554e-7 -0.0000011697872635317256 0 -3.2730378418519697e-7 -6.818518286063897e-7
          0 0 0 0 -8.081457607667092e-9 -4.25381825502969e-8
          -4.862020620336444e-8 -1.9281468465262545e-8 -4.7672357980552593e-8 -8.685285525320832e-8 -1.0972390448692365e-7 -5.091800568684375e-8
          0 0 7.2117747015270735e-9 7.766192106496726e-10 8.91528832634987e-9 -8.726548042931348e-9
          0 0 0 1.4774377305228849e-8 2.4481715855363194e-8 3.6978056426351354e-8
          2.533998466072775e-8 3.632964706807656e-8 3.773110545331462e-8 0 0 0
          0 -0.0000039343218964505745 -0.0000035139299054061026 -0.0000042964333709223975 -0.0000043964391300850915 -0.000007706258730976189
          -0.000006924887522881524 -0.00000852428858838476 -0.000008673359296975618 0 0 0
          0 -8.407083366611373e-7 -5.302518932090289e-7 3.751517249837367e-7 -5.876948296954498e-7 -0.000001837830970530168
          -0.0000010300810632876027 -1.0991253105633221e-7 -0.0000015621953321151457 0 0 0
          0 -0.000002212537736275498 -0.000002163760116628045 -0.0000027960740787165293 -0.0000027843377079876547 -0.000004358462784262453
          -0.000004307971019199229 -0.000005524429021097374 -0.0000054846639166086475 0 0 0
          0 -7.030854309897205e-7 -8.619768194776563e-7 -5.302880265158366e-7 -4.034749190842822e-7 -0.0000014917188236475072
          -0.000001793266158079625 -0.0000012268736250406493 -0.0000010095636992869775 0 0 -3.9630053349782127e-7
          -5.959083916452369e-7 -8.420691628152688e-7 -0.0000013234828595708565 0 0 -0.000003155964869417944
          -0.000002902929300733357 -0.000006144889464183132 -0.0000057730968867413035 0 0 0
          0 -3.7752825849398125e-10 2.6022117721709037e-8 1.702623407358585e-8 1.253330402713989e-8 -8.764172889331015e-8
          6.776206223031752e-8 4.214205450942935e-8 -9.042696793385188e-8 0 0 0
          0 -0.000003862244813566227 -0.000003723542417253665 -0.0000041989526986820505 -0.000004165626229557797 -0.000007550648958068384
          -0.000007227832293248104 -0.000008215106114178591 -0.000008178139223623258 0 0 -0.000003461678479689669
          -0.000004249800461208778 -0.000006770497476942968 -0.00000855462544633922 0 0 0
          0 -5.682832263812414e-8 -7.023865521673722e-8 -4.2668355243933795e-8 -2.736867896850188e-8 -1.2561441016941433e-7
          -1.4454250180790695e-7 -9.188642177465865e-8 -6.078580283026317e-8 0 0 0
          0 -0.000005012271495562486 -0.000006074038740264057 -0.000005399934889038511 -0.000004467430690059296 -0.000010258086332155421
          -0.000012214153357441585 -0.000010548417430250269 -0.000008937406479983346 0 0 0
          0 6.487375406461927e-8 3.0613031415170775e-8 4.661967522120982e-8 6.884297757680896e-8 -7.62467453041292e-8
          1.5615170122850865e-8 8.764854656672862e-8 1.3611571656490234e-7 0 0 -0.0000011843746209961862
          -0.000001150255013707133 -0.0000024305744663235835 -0.0000024376024069286787 0 -0.0000033348662591801035 -0.000006547039934469985
          0 0 -1.6021672798634518e-8 -4.833331265492264e-8 -9.91131128933442e-8 6.97618030056366e-7
          0 0 0 1.8555089922367897e-8 -1.7630234813943814e-7 -7.036944166111619e-8
          3.786810384870828e-7 -6.219444370627841e-7 -2.4462707393672893e-7 0 0 0
          0 -0.000001764450378360103 -0.000001496715524545544 -0.0000025691085891542246 -0.000002702357515710063 -0.0000037072362691707055
          -0.000003517242025176843 -0.0000051685179251403375 -0.000005368702954553755 0 0 0
          -0.000004358692375881632 -0.000004550591244714203 -0.000004669522404650982 -0.000008465260152201203 -0.000008998437279963569 -0.00000918021310467788
          0 0 -3.2164808879379573e-7 -8.366656541332199e-7 -7.426585510263702e-7 -0.000001782513083168615
          0 0 6.256850025694552e-8 -1.1887849592583798e-7 -2.54953933997455e-7 -7.543894720641e-7
          0 0 -4.3501870726352747e-7 -1.9821183709375526e-7 -9.63266450717645e-7 -5.403300043011554e-7
          0 0 0 0 -0.000005345455838684397 -0.000005193561575525885
          -0.000005717538036891326 -0.000006001009852659267 -0.00001052850153039969 -0.000010256762611980919 -0.000011375608368307925 -0.00001191476813995131
          0 0 0 -0.0000016220628138923649 -0.0000016240859431673119 -0.0000022155926104892654
          -0.0000032975092341166653 -0.000003331363373756438 -0.000004462224677454904 0 0 -8.408540292358934e-8
          -7.19080246091357e-8 -2.2308189577926695e-7 -1.9417186496457556e-7 0 0 -0.0000016197653776816445
          -0.0000011694738056169165 -0.000003260121218431565 -0.000002391808175825587 0 0 -7.837127728202596e-7
          -0.0000010284237524812652 -0.0000017280532770195618 -0.0000023458164528272954 0 0 -4.082206775204417e-7
          -1.911014117377554e-7 -0.0000010855309252538554 -4.6928049131634924e-7 0 0 0
          4.504642543763344e-8 1.8519756078241044e-8 3.236002623886343e-8 5.875295789030322e-8 2.4203180974285764e-8 4.443393885494119e-8
          0 0 0 -1.967995631240215e-7 -1.1386192353239605e-7 -2.0838117862933225e-7
          -4.613307628992033e-7 -2.606806327178057e-7 -4.778008327830105e-7 0 0 0
          -0.0000047162864839495115 -0.000004943715339098233 -0.0000048633595808470925 -0.000009262159185869195 -0.000009753136872345375 -0.000009628899255353673
          0 -0.000005016417206257268 -0.000009885464969985089 0 0 0
          0 1.5826844183951674e-8 5.1892328695554546e-9 -4.101074089628099e-9 8.7801940994699e-9 2.1719342093695867e-8
          3.767704794234747e-9 -1.351616978544708e-8 1.185383341287464e-8 0 0 -0.000004659835919714511
          -0.000004956052100321353 -0.000009084478097910746 -0.000009852293946861545 0 0 1.211635351107392e-8
          2.331262685815619e-8 1.4111224924571797e-8 3.229650002629488e-8 0 0 -0.000005962469287788508
          -0.00000504196375492799 -0.000012070396438886811 -0.000009993991900387783 0 0 -0.0000035521132888755836
          -0.0000036131489490577628 -0.000007002146655270652 -0.000007261183876534022 0 -7.506278595748934e-9 -2.0428940048215714e-8
          0 -2.806739899799115e-7 -6.127402157621554e-7 0 0 -0.0000016709073997092203
          -9.640229062690406e-7 -0.0000033467338340132533 -0.000002188628885591337 0 -3.2873523723375346e-7 -7.077999563022375e-7
          0 -9.247950285208175e-8 4.844460601973119e-7 0 6.223349584340562e-8 9.214058878588999e-8
          0 -1.074421431902901e-7 -2.77559048582487e-7 0 -1.990057943823899e-8 -4.684582827458381e-8
          0 -9.947403539376022e-8 3.751165002275233e-7 0 -0.0000028857880934367987 -0.000005902558995049406
          0 -0.000006873272196443597 -0.000013709928614476264 0 -0.000003879538845300128 -0.0000076235597975614676
          0 2.5285349026582066e-9 -1.0800774819569048e-9 0 5.5477924220497835e-8 -1.3164828860146937e-8
          0 -5.476509274256876e-7 -0.0000010815309049882922 0 -5.349771348914218e-7 -0.0000010696117387668673
          0 -6.073356654230237e-7 -0.000001200972415639822 0 -5.599097598370417e-7 -0.0000011183644931443814
          0 -6.398910753377016e-7 -0.0000012682966978361492 0 -6.340042043356608e-7 -0.0000012612282873779754
          0 -5.780605372771566e-7 -0.0000011546709653533855 0 -4.5386286208474826e-7 -9.242840407790899e-7
          0 -2.1681767379015636e-7 -4.5268343565305723e-7 0 0 -2.178642313970183e-7
          -1.5897742754586453e-7 -5.117643857237349e-7 -3.4550415669711146e-7 0 0 0
          0 -9.216184521954462e-8 -5.7723241813265364e-8 -5.4922788613773765e-8 -9.537846034640132e-8 -1.9510990757385612e-7
          -1.1272246705866347e-7 -1.1949140944170314e-7 -2.009418575708822e-7 0 -3.097133059706156e-8 -5.8368293012736114e-8
          0 -1.248599572119003e-7 -2.479559891924799e-7 0 -2.1391254425784756e-8 -4.7381308578642284e-8
          0 0 -5.081382458258623e-7 -5.165210408747437e-7 -0.0000010120716726041481 -0.000001028649372724846
          0 -5.590923082276086e-7 -0.0000011152947394776866 0 -4.736475835842296e-7 -9.437805970096231e-7
          0 -5.235439571895645e-7 -0.0000010428811058748448 0 -4.4432943075890246e-7 -8.83460787745738e-7
          0 -3.169275019317084e-7 -6.344761244723147e-7 0 -1.6413108883183448e-7 -3.292767095159444e-7
          0 -1.0780215176239169e-7 -2.2387619757108434e-7 0 0 0
          -2.9666746677867116e-8 -6.267159887315816e-8 -6.309358137861132e-8 -5.8356991992593116e-8 -1.246267877638695e-7 -1.2711633680851954e-7
        </DataArray>
      </PointData>
      <CellData>
        <DataArray type="Int32" Name="libmesh_elem_id" format="ascii" RangeMin="40" RangeMax="1373">
          40 41 42 43 44 45
          46 47 48 49 50 51
          52 53 54 55 56 57
          98 99 100 101 102 103
          104 105 106 107 108 109
          110 111 112 113 114 115
          156 157 158 159 160 161
          162 163 164 165 166 167
          168 169 170 171 172 173
          214 215 216 217 218 219
          220 221 222 223 224 225
          226 227 228 229 230 231
          272 273 274 275 276 277
          278 279 280 281 282 283
          284 285 286 287 288 289
          330 331 332 333 334 335
          336 337 338 339 340 341
          342 343 344 345 346 347
          388 389 390 391 392 393
          394 395 396 397 398 399
          400 401 402 403 404 405
          446 447 448 449 450 451
          452 453 454 455 456 457
          458 459 460 461 462 463
          508 509 510 511 512 513
          514 515 516 517 518 519
          520 521 522 523 524 525
          526 527 528 529 530 531
          532 533 534 535 536 537
          538 539 540 541 542 543
          544 545 546 547 548 549
          550 551 552 553 554 555
          556 557 558 559 560 561
          562 563 564 565 566 567
          568 569 570 571 572 573
          574 575 576 577 578 579
          580 581 582 583 584 585
          586 587 588 589 590 591
          592 593 594 595 596 597
          598 599 600 601 602 603
          604 605 606 607 608 609
          610 611 612 613 614 615
          616 617 618 619 620 621
          622 623 624 625 626 627
          628 629 630 631 632 633
          634 635 636 637 638 639
          640 641 642 643 644 645
          646 647 648 649 650 651
          652 653 654 655 656 657
          658 659 660 661 662 663
          664 665 666 667 668 669
          670 671 672 673 674 675
          676 677 678 679 680 681
          682 683 684 685 686 687
          688 689 690 691 692 693
          694 695 696 697 698 699
          700 701 702 703 704 705
          706 707 708 709 710 711
          712 713 714 715 716 717
          718 719 720 721 722 723
          724 725 726 727 728 729
          730 731 732 733 734 735
          736 737 738 739 740 741
          742 743 744 745 746 747
          748 749 750 751 752 753
          754 755 756 757 758 759
          760 761 762 763 764 765
          766 767 768 769 770 771
          1186 1187 1188 1189 1190 1191
          1204 1205 1206 1207 1208 1209
          1222 1223 1224 1225 1240 1241
          1242 1243 1258 1259 1260 1261
          1276 1277 1278 1279 1300 1301
          1304 1305 1306 1307 1314 1315
          1316 1317 1326 1327 1328 1329
          1330 1331 1338 1339 1344 1345
          1348 1349 1356 1357 1358 1359
          1360 1361 1366 1367 1372 1373
        </DataArray>
        <DataArray type="Int32" Name="subdomain_id" format="ascii" RangeMin="103" RangeMax="143">
          103 103 103 103 103 103
          103 103 103 103 103 103
          103 103 103 103 103 103
          103 103 103 103 103 103
          103 103 103 103 103 103
          103 103 103 103 103 103
          103 103 103 103 103 103
          103 103 103 103 103 103
          103 103 103 103 103 103
          103 103 103 103 103 103
          103 103 103 103 103 103
          103 103 103 103 103 103
          103 103 103 103 103 103
          103 103 103 103 103 103
          103 103 103 103 103 103
          103 103 103 103 103 103
          103 103 103 103 103 103
          103 103 103 103 103 103
          103 103 103 103 103 103
          103 103 103 103 103 103
          103 103 103 103 103 103
          103 103 103 103 103 103
          103 103 103 103 103 103
          103 103 103 103 103 103
          103 103 103 103 103 103
          103 103 103 103 103 103
          103 103 104 104 104 104
          104 104 104 104 104 104
          104 104 104 104 104 104
          104 104 104 104 104 104
          104 104 104 104 104 104
          104 104 104 104 104 104
          104 104 104 104 104 104
          104 104 104 104 104 104
          104 104 104 104 104 104
          104 104 104 104 104 104
          104 104 104 104 104 104
          104 104 104 104 104 104
          104 104 104 104 104 104
          104 104 104 104 104 104
          104 104 104 104 104 104
          104 104 104 104 104 104
          104 104 104 104 104 104
          104 104 104 104 104 104
          104 104 104 104 104 104
          104 104 104 104 104 104
          104 104 104 104 104 104
          104 104 104 104 104 104
          104 104 104 104 104 104
          104 104 104 104 104 104
          104 104 104 104 104 104
          104 104 104 104 104 104
          104 104 104 104 104 104
          104 104 104 104 104 104
          104 104 104 104 104 104
          104 104 104 104 104 104
          104 104 104 104 104 104
          104 104 104 104 104 104
          104 104 104 104 104 104
          141 141 141 141 141 141
          141 141 141 141 141 141
          141 141 141 141 141 141
          141 141 141 141 141 141
          141 141 141 141 141 141
          141 141 141 141 141 141
          141 141 141 141 141 141
          141 141 141 141 141 141
          141 141 141 141 141 141
          105 105 105 105 105 105
          105 105 105 105 105 105
          105 105 105 105 105 105
          105 105 105 105 105 105
          105 105 105 105 106 106
          106 106 106 106 106 106
          106 106 106 106 106 106
          106 106 106 106 106 106
          106 106 106 106 106 106
          143 143 143 143 143 143
        </DataArray>
        <DataArray type="Int32" Name="processor_id" format="ascii" RangeMin="5" RangeMax="5">
          5 5 5 5 5 5
          5 5 5 5 5 5
          5 5 5 5 5 5
          5 5 5 5 5 5
          5 5 5 5 5 5
          5 5 5 5 5 5
          5 5 5 5 5 5
          5 5 5 5 5 5
          5 5 5 5 5 5
          5 5 5 5 5 5
          5 5 5 5 5 5
          5 5 5 5 5 5
          5 5 5 5 5 5
          5 5 5 5 5 5
          5 5 5 5 5 5
          5 5 5 5 5 5
          5 5 5 5 5 5
          5 5 5 5 5 5
          5 5 5 5 5 5
          5 5 5 5 5 5
          5 5 5 5 5 5
          5 5 5 5 5 5
          5 5 5 5 5 5
          5 5 5 5 5 5
          5 5 5 5 5 5
          5 5 5 5 5 5
          5 5 5 5 5 5
          5 5 5 5 5 5
          5 5 5 5 5 5
          5 5 5 5 5 5
          5 5 5 5 5 5
          5 5 5 5 5 5
          5 5 5 5 5 5
          5 5 5 5 5 5
          5 5 5 5 5 5
          5 5 5 5 5 5
          5 5 5 5 5 5
          5 5 5 5 5 5
          5 5 5 5 5 5
          5 5 5 5 5 5
          5 5 5 5 5 5
          5 5 5 5 5 5
          5 5 5 5 5 5
          5 5 5 5 5 5
          5 5 5 5 5 5
          5 5 5 5 5 5
          5 5 5 5 5 5
          5 5 5 5 5 5
          5 5 5 5 5 5
          5 5 5 5 5 5
          5 5 5 5 5 5
          5 5 5 5 5 5
          5 5 5 5 5 5
          5 5 5 5 5 5
          5 5 5 5 5 5
          5 5 5 5 5 5
          5 5 5 5 5 5
          5 5 5 5 5 5
          5 5 5 5 5 5
          5 5 5 5 5 5
          5 5 5 5 5 5
          5 5 5 5 5 5
          5 5 5 5 5 5
          5 5 5 5 5 5
          5 5 5 5 5 5
          5 5 5 5 5 5
          5 5 5 5 5 5
          5 5 5 5 5 5
          5 5 5 5 5 5
          5 5 5 5 5 5
          5 5 5 5 5 5
          5 5 5 5 5 5
          5 5 5 5 5 5
          5 5 5 5 5 5
          5 5 5 5 5 5
          5 5 5 5 5 5
          5 5 5 5 5 5
          5 5 5 5 5 5
        </DataArray>
      </CellData>
      <Points>
        <DataArray type="Float64" Name="Points" NumberOfComponents="3" format="ascii" RangeMin="0.0082758620689774" RangeMax="0.013139935358843113">
          0.00011111111111123 0.0082758620689751 0 0 0.0082758620689774 0
          0.00011111111111123 0.0082758620689751 0.00015 0 0.0082758620689774 0.00015
          0.00011111111111123 0.0082758620689751 0.0003 0 0.0082758620689774 0.0003
          0.00011111111111125 0.0086896551724226 0 0 0.0086896551724246 0
          0.00011111111111125 0.0086896551724226 0.00015 0 0.0086896551724246 0.00015
          0.00011111111111125 0.0086896551724226 0.0003 0 0.0086896551724246 0.0003
          0.00011111111111126 0.0091034482758696 0 0 0.0091034482758716 0
          0.00011111111111126 0.0091034482758696 0.00015 0 0.0091034482758716 0.00015
          0.00011111111111126 0.0091034482758696 0.0003 0 0.0091034482758716 0.0003
          0.00011111111111128 0.0095172413793168 0 0 0.0095172413793185 0
          0.00011111111111128 0.0095172413793168 0.00015 0 0.0095172413793185 0.00015
          0.00011111111111128 0.0095172413793168 0.0003 0 0.0095172413793185 0.0003
          0.00011111111111129 0.0099310344827632 0 0 0.0099310344827645 0
          0.00011111111111129 0.0099310344827632 0.00015 0 0.0099310344827645 0.00015
          0.00011111111111129 0.0099310344827632 0.0003 0 0.0099310344827645 0.0003
          0.00011111111111131 0.01034482758621 0 0 0.01034482758621 0
          0.00011111111111131 0.01034482758621 0.00015 0 0.01034482758621 0.00015
          0.00011111111111131 0.01034482758621 0.0003 0 0.01034482758621 0.0003
          0.00011111111111132 0.010758620689657 0 0 0.010758620689657 0
          0.00011111111111132 0.010758620689657 0.00015 0 0.010758620689657 0.00015
          0.00011111111111132 0.010758620689657 0.0003 0 0.010758620689657 0.0003
          0.00011111111111134 0.011172413793104 0 0 0.011172413793104 0
          0.00011111111111134 0.011172413793104 0.00015 0 0.011172413793104 0.00015
          0.00011111111111134 0.011172413793104 0.0003 0 0.011172413793104 0.0003
          0.00011111111111135 0.011586206896551 0 0 0.011586206896551 0
          0.00011111111111135 0.011586206896551 0.00015 0 0.011586206896551 0.00015
          0.00011111111111135 0.011586206896551 0.0003 0 0.011586206896551 0.0003
          0.00011111111111137 0.012 0 0 0.012 0
          0.00011111111111137 0.012 0.00015 0 0.012 0.00015
          0.00011111111111137 0.012 0.0003 0 0.012 0.0003
          0.00022222222222243 0.0082758620689727 0 0.00022222222222243 0.0082758620689727 0.00015
          0.00022222222222243 0.0082758620689727 0.0003 0.00022222222222246 0.0086896551724206 0
          0.00022222222222246 0.0086896551724206 0.00015 0.00022222222222246 0.0086896551724206 0.0003
          0.00022222222222249 0.0091034482758676 0 0.00022222222222249 0.0091034482758676 0.00015
          0.00022222222222249 0.0091034482758676 0.0003 0.00022222222222253 0.0095172413793151 0
          0.00022222222222253 0.0095172413793151 0.00015 0.00022222222222253 0.0095172413793151 0.0003
          0.00022222222222256 0.0099310344827619 0 0.00022222222222256 0.0099310344827619 0.00015
          0.00022222222222256 0.0099310344827619 0.0003 0.0002222222222226 0.010344827586209 0
          0.0002222222222226 0.010344827586209 0.00015 0.0002222222222226 0.010344827586209 0.0003
          0.00022222222222263 0.010758620689656 0 0.00022222222222263 0.010758620689656 0.00015
          0.00022222222222263 0.010758620689656 0.0003 0.00022222222222266 0.011172413793103 0
          0.00022222222222266 0.011172413793103 0.00015 0.00022222222222266 0.011172413793103 0.0003
          0.0002222222222227 0.011586206896551 0 0.0002222222222227 0.011586206896551 0.00015
          0.0002222222222227 0.011586206896551 0.0003 0.00022222222222273 0.012 0
          0.00022222222222273 0.012 0.00015 0.00022222222222273 0.012 0.0003
          0.00033333333333363 0.0082758620689704 0 0.00033333333333363 0.0082758620689704 0.00015
          0.00033333333333363 0.0082758620689704 0.0003 0.00033333333333368 0.0086896551724185 0
          0.00033333333333368 0.0086896551724185 0.00015 0.00033333333333368 0.0086896551724185 0.0003
          0.00033333333333373 0.0091034482758657 0 0.00033333333333373 0.0091034482758657 0.00015
          0.00033333333333373 0.0091034482758657 0.0003 0.00033333333333379 0.0095172413793133 0
          0.00033333333333379 0.0095172413793133 0.00015 0.00033333333333379 0.0095172413793133 0.0003
          0.00033333333333384 0.0099310344827607 0 0.00033333333333384 0.0099310344827607 0.00015
          0.00033333333333384 0.0099310344827607 0.0003 0.00033333333333389 0.010344827586208 0
          0.00033333333333389 0.010344827586208 0.00015 0.00033333333333389 0.010344827586208 0.0003
          0.00033333333333394 0.010758620689656 0 0.00033333333333394 0.010758620689656 0.00015
          0.00033333333333394 0.010758620689656 0.0003 0.000333333333334 0.011172413793103 0
          0.000333333333334 0.011172413793103 0.00015 0.000333333333334 0.011172413793103 0.0003
          0.00033333333333405 0.011586206896551 0 0.00033333333333405 0.011586206896551 0.00015
          0.00033333333333405 0.011586206896551 0.0003 0.0003333333333341 0.012 0
          0.0003333333333341 0.012 0.00015 0.0003333333333341 0.012 0.0003
          0.00044444444444486 0.0082758620689681 0 0.00044444444444486 0.0082758620689681 0.00015
          0.00044444444444486 0.0082758620689681 0.0003 0.00044444444444493 0.0086896551724165 0
          0.00044444444444493 0.0086896551724165 0.00015 0.00044444444444493 0.0086896551724165 0.0003
          0.00044444444444501 0.0091034482758637 0 0.00044444444444501 0.0091034482758637 0.00015
          0.00044444444444501 0.0091034482758637 0.0003 0.00044444444444508 0.0095172413793116 0
          0.00044444444444508 0.0095172413793116 0.00015 0.00044444444444508 0.0095172413793116 0.0003
          0.00044444444444516 0.0099310344827594 0 0.00044444444444516 0.0099310344827594 0.00015
          0.00044444444444516 0.0099310344827594 0.0003 0.00044444444444523 0.010344827586207 0
          0.00044444444444523 0.010344827586207 0.00015 0.00044444444444523 0.010344827586207 0.0003
          0.00044444444444531 0.010758620689655 0 0.00044444444444531 0.010758620689655 0.00015
          0.00044444444444531 0.010758620689655 0.0003 0.00044444444444538 0.011172413793103 0
          0.00044444444444538 0.011172413793103 0.00015 0.00044444444444538 0.011172413793103 0.0003
          0.00044444444444546 0.011586206896551 0 0.00044444444444546 0.011586206896551 0.00015
          0.00044444444444546 0.011586206896551 0.0003 0.00044444444444553 0.012 0
          0.00044444444444553 0.012 0.00015 0.00044444444444553 0.012 0.0003
          0.00055555555555597 0.0082758620689657 0 0.00055555555555597 0.0082758620689657 0.00015
          0.00055555555555597 0.0082758620689657 0.0003 0.00055555555555605 0.0086896551724145 0
          0.00055555555555605 0.0086896551724145 0.00015 0.00055555555555605 0.0086896551724145 0.0003
          0.00055555555555613 0.0091034482758618 0 0.00055555555555613 0.0091034482758618 0.00015
          0.00055555555555613 0.0091034482758618 0.0003 0.00055555555555621 0.0095172413793099 0
          0.00055555555555621 0.0095172413793099 0.00015 0.00055555555555621 0.0095172413793099 0.0003
          0.00055555555555629 0.0099310344827581 0 0.00055555555555629 0.0099310344827581 0.00015
          0.00055555555555629 0.0099310344827581 0.0003 0.00055555555555636 0.010344827586206 0
          0.00055555555555636 0.010344827586206 0.00015 0.00055555555555636 0.010344827586206 0.0003
          0.00055555555555644 0.010758620689655 0 0.00055555555555644 0.010758620689655 0.00015
          0.00055555555555644 0.010758620689655 0.0003 0.00055555555555652 0.011172413793102 0
          0.00055555555555652 0.011172413793102 0.00015 0.00055555555555652 0.011172413793102 0.0003
          0.0005555555555566 0.011586206896551 0 0.0005555555555566 0.011586206896551 0.00015
          0.0005555555555566 0.011586206896551 0.0003 0.00055555555555667 0.012 0
          0.00055555555555667 0.012 0.00015 0.00055555555555667 0.012 0.0003
          0.00066666666666675 0.0082758620689634 0 0.00066666666666675 0.0082758620689634 0.00015
          0.00066666666666675 0.0082758620689634 0.0003 0.00066666666666679 0.0086896551724125 0
          0.00066666666666679 0.0086896551724125 0.00015 0.00066666666666679 0.0086896551724125 0.0003
          0.00066666666666684 0.0091034482758598 0 0.00066666666666684 0.0091034482758598 0.00015
          0.00066666666666684 0.0091034482758598 0.0003 0.00066666666666688 0.0095172413793081 0
          0.00066666666666688 0.0095172413793081 0.00015 0.00066666666666688 0.0095172413793081 0.0003
          0.00066666666666693 0.0099310344827568 0 0.00066666666666693 0.0099310344827568 0.00015
          0.00066666666666693 0.0099310344827568 0.0003 0.00066666666666697 0.010344827586205 0
          0.00066666666666697 0.010344827586205 0.00015 0.00066666666666697 0.010344827586205 0.0003
          0.00066666666666701 0.010758620689654 0 0.00066666666666701 0.010758620689654 0.00015
          0.00066666666666701 0.010758620689654 0.0003 0.00066666666666706 0.011172413793102 0
          0.00066666666666706 0.011172413793102 0.00015 0.00066666666666706 0.011172413793102 0.0003
          0.0006666666666671 0.01158620689655 0 0.0006666666666671 0.01158620689655 0.00015
          0.0006666666666671 0.01158620689655 0.0003 0.00066666666666715 0.012 0
          0.00066666666666715 0.012 0.00015 0.00066666666666715 0.012 0.0003
          0.00077777777777787 0.0082758620689611 0 0.00077777777777787 0.0082758620689611 0.00015
          0.00077777777777787 0.0082758620689611 0.0003 0.00077777777777791 0.0086896551724104 0
          0.00077777777777791 0.0086896551724104 0.00015 0.00077777777777791 0.0086896551724104 0.0003
          0.00077777777777794 0.0091034482758578 0 0.00077777777777794 0.0091034482758578 0.00015
          0.00077777777777794 0.0091034482758578 0.0003 0.00077777777777797 0.0095172413793064 0
          0.00077777777777797 0.0095172413793064 0.00015 0.00077777777777797 0.0095172413793064 0.0003
          0.000777777777778 0.0099310344827555 0 0.000777777777778 0.0099310344827555 0.00015
          0.000777777777778 0.0099310344827555 0.0003 0.00077777777777803 0.010344827586205 0
          0.00077777777777803 0.010344827586205 0.00015 0.00077777777777803 0.010344827586205 0.0003
          0.00077777777777806 0.010758620689654 0 0.00077777777777806 0.010758620689654 0.00015
          0.00077777777777806 0.010758620689654 0.0003 0.00077777777777809 0.011172413793101 0
          0.00077777777777809 0.011172413793101 0.00015 0.00077777777777809 0.011172413793101 0.0003
          0.00077777777777813 0.01158620689655 0 0.00077777777777813 0.01158620689655 0.00015
          0.00077777777777813 0.01158620689655 0.0003 0.00077777777777816 0.012 0
          0.00077777777777816 0.012 0.00015 0.00077777777777816 0.012 0.0003
          0.0008888888888888 0.0082758620689588 0 0.0008888888888888 0.0082758620689588 0.00015
          0.0008888888888888 0.0082758620689588 0.0003 0.00088888888888881 0.0086896551724084 0
          0.00088888888888881 0.0086896551724084 0.00015 0.00088888888888881 0.0086896551724084 0.0003
          0.00088888888888882 0.0091034482758559 0 0.00088888888888882 0.0091034482758559 0.00015
          0.00088888888888882 0.0091034482758559 0.0003 0.00088888888888883 0.0095172413793047 0
          0.00088888888888883 0.0095172413793047 0.00015 0.00088888888888883 0.0095172413793047 0.0003
          0.00088888888888884 0.0099310344827542 0 0.00088888888888884 0.0099310344827542 0.00015
          0.00088888888888884 0.0099310344827542 0.0003 0.00088888888888885 0.010344827586204 0
          0.00088888888888885 0.010344827586204 0.00015 0.00088888888888885 0.010344827586204 0.0003
          0.00088888888888885 0.010758620689653 0 0.00088888888888885 0.010758620689653 0.00015
          0.00088888888888885 0.010758620689653 0.0003 0.00088888888888886 0.011172413793101 0
          0.00088888888888886 0.011172413793101 0.00015 0.00088888888888886 0.011172413793101 0.0003
          0.00088888888888887 0.01158620689655 0 0.00088888888888887 0.01158620689655 0.00015
          0.00088888888888887 0.01158620689655 0.0003 0.00088888888888888 0.012 0
          0.00088888888888888 0.012 0.00015 0.00088888888888888 0.012 0.0003
          0.001 0.0091034482758539 0 0.001 0.0091034482758539 0.00015
          0.001 0.0091034482758539 0.0003 0.001 0.0095172413793029 0
          0.001 0.0095172413793029 0.00015 0.001 0.0095172413793029 0.0003
          0.001 0.0099310344827529 0 0.001 0.0099310344827529 0.00015
          0.001 0.0099310344827529 0.0003 0.001 0.010344827586203 0
          0.001 0.010344827586203 0.00015 0.001 0.010344827586203 0.0003
          0.001 0.010758620689653 0 0.001 0.010758620689653 0.00015
          0.001 0.010758620689653 0.0003 0.001 0.0111724137931 0
          0.001 0.0111724137931 0.00015 0.001 0.0111724137931 0.0003
          0.001 0.01158620689655 0 0.001 0.01158620689655 0.00015
          0.001 0.01158620689655 0.0003 0.001 0.012 0
          0.001 0.012 0.00015 0.001 0.012 0.0003
          0.00067947077571632 0.012798245728111 0 0.00068678568032061 0.012710429785181 0
          0.00076344362314339 0.012698069087358 0 0.00078000626700894 0.012788238676479 0
          0.00067947077571632 0.012798245728111 0.00015 0.00068678568032061 0.012710429785181 0.00015
          0.00076344362314339 0.012698069087358 0.00015 0.00078000626700894 0.012788238676479 0.00015
          0.00067947077571632 0.012798245728111 0.0003 0.00068678568032061 0.012710429785181 0.0003
          0.00076344362314339 0.012698069087358 0.0003 0.00078000626700894 0.012788238676479 0.0003
          0.0007101811699723 0.012881232243155 0 0.00078737528777453 0.012884598822829 0
          0.0007101811699723 0.012881232243155 0.00015 0.00078737528777453 0.012884598822829 0.00015
          0.0007101811699723 0.012881232243155 0.0003 0.00078737528777453 0.012884598822829 0.0003
          0.00063149088332091 0.012876508075697 0 0.00071156048039536 0.012943694476106 0
          0.00064992343237843 0.012944046337553 0 0.00063149088332091 0.012876508075697 0.00015
          0.00071156048039536 0.012943694476106 0.00015 0.00064992343237843 0.012944046337553 0.00015
          0.00063149088332091 0.012876508075697 0.0003 0.00071156048039536 0.012943694476106 0.0003
          0.00064992343237843 0.012944046337553 0.0003 0.00014271480927744 0.012184528409521 0
          0.00021074182908597 0.012239195039162 0 0.00014617236906556 0.012274772666576 0
          0.00010836971036758 0.0122326927564 0 0.00014271480927744 0.012184528409521 0.00015
          0.00021074182908597 0.012239195039162 0.00015 0.00014617236906556 0.012274772666576 0.00015
          0.00010836971036758 0.0122326927564 0.00015 0.00014271480927744 0.012184528409521 0.0003
          0.00021074182908597 0.012239195039162 0.0003 0.00014617236906556 0.012274772666576 0.0003
          0.00010836971036758 0.0122326927564 0.0003 0.00040316247653445 0.012523054457121 0
          0.00050524235438491 0.012516470580574 0 0.00047556583290331 0.012611926172403 0
          0.00040677839563254 0.01259579728731 0 0.00040316247653445 0.012523054457121 0.00015
          0.00050524235438491 0.012516470580574 0.00015 0.00047556583290331 0.012611926172403 0.00015
          0.00040677839563254 0.01259579728731 0.00015 0.00040316247653445 0.012523054457121 0.0003
          0.00050524235438491 0.012516470580574 0.0003 0.00047556583290331 0.012611926172403 0.0003
          0.00040677839563254 0.01259579728731 0.0003 0.00038389728538556 0.012111104172094 0
          0.00037958632650406 0.012195366170904 0 0.00029855370140418 0.012181148574691 0
          0.00029802321336891 0.012105931916082 0 0.00038389728538556 0.012111104172094 0.00015
          0.00037958632650406 0.012195366170904 0.00015 0.00029855370140418 0.012181148574691 0.00015
          0.00029802321336891 0.012105931916082 0.00015 0.00038389728538556 0.012111104172094 0.0003
          0.00037958632650406 0.012195366170904 0.0003 0.00029855370140418 0.012181148574691 0.0003
          0.00029802321336891 0.012105931916082 0.0003 0.00062435778703091 0.012280526392523 0
          0.00063694887874418 0.012191685157308 0 0.00075163746499696 0.012211869018538 0
          0.0007101306235237 0.012330652999586 0 0.00062435778703091 0.012280526392523 0.00015
          0.00063694887874418 0.012191685157308 0.00015 0.00075163746499696 0.012211869018538 0.00015
          0.0007101306235237 0.012330652999586 0.00015 0.00062435778703091 0.012280526392523 0.0003
          0.00063694887874418 0.012191685157308 0.0003 0.00075163746499696 0.012211869018538 0.0003
          0.0007101306235237 0.012330652999586 0.0003 0.00090036231429234 0.012108977226849 0
          0.00080269198720626 0.012096984730608 0 0.00090036231429234 0.012108977226849 0.00015
          0.00080269198720626 0.012096984730608 0.00015 0.00090036231429234 0.012108977226849 0.0003
          0.00080269198720626 0.012096984730608 0.0003 0.00023865656240352 0.012177237347116 0
          0.00029061852669854 0.01224857812735 0 0.00023865656240352 0.012177237347116 0.00015
          0.00029061852669854 0.01224857812735 0.00015 0.00023865656240352 0.012177237347116 0.0003
          0.00029061852669854 0.01224857812735 0.0003 0.00056164385173704 0.012835416164401 0
          0.00056508360468666 0.012898794448667 0 0.00049240387645224 0.012913175910861 0
          0.00046984631090009 0.012828989929731 0 0.00056164385173704 0.012835416164401 0.00015
          0.00056508360468666 0.012898794448667 0.00015 0.00049240387645224 0.012913175910861 0.00015
          0.00046984631090009 0.012828989929731 0.00015 0.00056164385173704 0.012835416164401 0.0003
          0.00056508360468666 0.012898794448667 0.0003 0.00049240387645224 0.012913175910861 0.0003
          0.00046984631090009 0.012828989929731 0.0003 0.000050495613361417 0.012066083920595 0
          0.00011131843390441 0.012086989142678 0 0.000069577205110887 0.012153607960951 0
          0 0.012111111111109 0 0.000050495613361417 0.012066083920595 0.00015
          0.00011131843390441 0.012086989142678 0.00015 0.000069577205110887 0.012153607960951 0.00015
          0 0.012111111111109 0.00015 0.000050495613361417 0.012066083920595 0.0003
          0.00011131843390441 0.012086989142678 0.0003 0.000069577205110887 0.012153607960951 0.0003
          0 0.012111111111109 0.0003 0.00022470825547396 0.012306913365418 0
          0.00017103954025546 0.012340304715306 0 0.00022470825547396 0.012306913365418 0.00015
          0.00017103954025546 0.012340304715306 0.00015 0.00022470825547396 0.012306913365418 0.0003
          0.00017103954025546 0.012340304715306 0.0003 0.00085640575367095 0.012657655614724 0
          0.001 0.012571428571438 0 0.001 0.012714285714292 0
          0.00089085524488654 0.012778191533234 0 0.00085640575367095 0.012657655614724 0.00015
          0.001 0.012571428571438 0.00015 0.001 0.012714285714292 0.00015
          0.00089085524488654 0.012778191533234 0.00015 0.00085640575367095 0.012657655614724 0.0003
          0.001 0.012571428571438 0.0003 0.001 0.012714285714292 0.0003
          0.00089085524488654 0.012778191533234 0.0003 0.00017101007138246 0.012530153689505 0
          0.000086824088695593 0.01250759612347 0 0.00010015626416536 0.012463076177022 0
          0.00018026894988108 0.012457509098897 0 0.00017101007138246 0.012530153689505 0.00015
          0.000086824088695593 0.01250759612347 0.00015 0.00010015626416536 0.012463076177022 0.00015
          0.00018026894988108 0.012457509098897 0.00015 0.00017101007138246 0.012530153689505 0.0003
          0.000086824088695593 0.01250759612347 0.0003 0.00010015626416536 0.012463076177022 0.0003
          0.00018026894988108 0.012457509098897 0.0003 0.00055555555555552 0.013 0
          0.00054972466987376 0.012958523613261 0 0.00059017772624368 0.012950117696029 0
          0.00061111111111072 0.013 0 0.00055555555555552 0.013 0.00015
          0.00054972466987376 0.012958523613261 0.00015 0.00059017772624368 0.012950117696029 0.00015
          0.00061111111111072 0.013 0.00015 0.00055555555555552 0.013 0.0003
          0.00054972466987376 0.012958523613261 0.0003 0.00059017772624368 0.012950117696029 0.0003
          0.00061111111111072 0.013 0.0003 0.00056012017374448 0.012193168747791 0
          0.00054338833040714 0.012250054231166 0 0.00056012017374448 0.012193168747791 0.00015
          0.00054338833040714 0.012250054231166 0.00015 0.00056012017374448 0.012193168747791 0.0003
          0.00054338833040714 0.012250054231166 0.0003 0.00020164702899907 0.012111009853496 0
          0.00020164702899907 0.012111009853496 0.00015 0.00020164702899907 0.012111009853496 0.0003
          0.00058698867508036 0.01276393301723 0 0.00061242021253103 0.012689969395149 0
          0.00058698867508036 0.01276393301723 0.00015 0.00061242021253103 0.012689969395149 0.00015
          0.00058698867508036 0.01276393301723 0.0003 0.00061242021253103 0.012689969395149 0.0003
          0.00054704952286259 0.01264760123259 0 0.00058547756026548 0.012574831423214 0
          0.00066845126455385 0.012625352450745 0 0.00054704952286259 0.01264760123259 0.00015
          0.00058547756026548 0.012574831423214 0.00015 0.00066845126455385 0.012625352450745 0.00015
          0.00054704952286259 0.01264760123259 0.0003 0.00058547756026548 0.012574831423214 0.0003
          0.00066845126455385 0.012625352450745 0.0003 0.00040316497174951 0.012375710115571 0
          0.00038996592658543 0.012448925709731 0 0.00030251984068288 0.012451026681152 0
          0.00030273327950676 0.012339921797294 0 0.00040316497174951 0.012375710115571 0.00015
          0.00038996592658543 0.012448925709731 0.00015 0.00030251984068288 0.012451026681152 0.00015
          0.00030273327950676 0.012339921797294 0.00015 0.00040316497174951 0.012375710115571 0.0003
          0.00038996592658543 0.012448925709731 0.0003 0.00030251984068288 0.012451026681152 0.0003
          0.00030273327950676 0.012339921797294 0.0003 0 0.012166666666663 0
          0.000060257043043922 0.012213388328671 0 0 0.012222222222217 0
          0 0.012166666666663 0.00015 0.000060257043043922 0.012213388328671 0.00015
          0 0.012222222222217 0.00015 0 0.012166666666663 0.0003
          0.000060257043043922 0.012213388328671 0.0003 0 0.012222222222217 0.0003
          0.00086766031505541 0.012218873949421 0 0.00070802748250363 0.01210226547145 0
          0.00086766031505541 0.012218873949421 0.00015 0.00070802748250363 0.01210226547145 0.00015
          0.00086766031505541 0.012218873949421 0.0003 0.00070802748250363 0.01210226547145 0.0003
          0.00045681564832724 0.012667985356076 0 0.00038302222240927 0.012678606196169 0
          0.00045681564832724 0.012667985356076 0.00015 0.00038302222240927 0.012678606196169 0.00015
          0.00045681564832724 0.012667985356076 0.0003 0.00038302222240927 0.012678606196169 0.0003
          0.00057343997443155 0.012462111372123 0 0.00067467937701806 0.012497336760124 0
          0.00057343997443155 0.012462111372123 0.00015 0.00067467937701806 0.012497336760124 0.00015
          0.00057343997443155 0.012462111372123 0.0003 0.00067467937701806 0.012497336760124 0.0003
          0 0.012388888888886 0 0.00004805763346656 0.012364070531781 0
          0.000052775834931525 0.012418323433379 0 0 0.012444444444443 0
          0 0.012388888888886 0.00015 0.00004805763346656 0.012364070531781 0.00015
          0.000052775834931525 0.012418323433379 0.00015 0 0.012444444444443 0.00015
          0 0.012388888888886 0.0003 0.00004805763346656 0.012364070531781 0.0003
          0.000052775834931525 0.012418323433379 0.0003 0 0.012444444444443 0.0003
          0.0004655657017567 0.012222981448331 0 0.0004403524252846 0.012306679111378 0
          0.00036518397892919 0.012268658791136 0 0.0004655657017567 0.012222981448331 0.00015
          0.0004403524252846 0.012306679111378 0.00015 0.00036518397892919 0.012268658791136 0.00015
          0.0004655657017567 0.012222981448331 0.0003 0.0004403524252846 0.012306679111378 0.0003
          0.00036518397892919 0.012268658791136 0.0003 0.00079059026611164 0.012574208252283 0
          0.00074033738884001 0.012629472897336 0 0.00079059026611164 0.012574208252283 0.00015
          0.00074033738884001 0.012629472897336 0.00015 0.00079059026611164 0.012574208252283 0.0003
          0.00074033738884001 0.012629472897336 0.0003 0.00049134001885305 0.012124425854677 0
          0.00060162315338905 0.012101782274206 0 0.00049134001885305 0.012124425854677 0.00015
          0.00060162315338905 0.012101782274206 0.00015 0.00049134001885305 0.012124425854677 0.0003
          0.00060162315338905 0.012101782274206 0.0003 0.00055165526617401 0.012365152711649 0
          0.00046621557592763 0.012427373679685 0 0.00055165526617401 0.012365152711649 0.00015
          0.00046621557592763 0.012427373679685 0.00015 0.00055165526617401 0.012365152711649 0.0003
          0.00046621557592763 0.012427373679685 0.0003 0.00065175768920993 0.012395993188634 0
          0.00078658012555766 0.01242031863996 0 0.00065175768920993 0.012395993188634 0.00015
          0.00078658012555766 0.01242031863996 0.00015 0.00065175768920993 0.012395993188634 0.0003
          0.00078658012555766 0.01242031863996 0.0003 0.00072222222222142 0.013 0
          0.00076767785213736 0.012949407633443 0 0.00077777777777722 0.013 0
          0.00072222222222142 0.013 0.00015 0.00076767785213736 0.012949407633443 0.00015
          0.00077777777777722 0.013 0.00015 0.00072222222222142 0.013 0.0003
          0.00076767785213736 0.012949407633443 0.0003 0.00077777777777722 0.013 0.0003
          0.001 0.01228571428572 0 0.001 0.012428571428581 0
          0.00085243404696798 0.012340254950119 0 0.001 0.01228571428572 0.00015
          0.001 0.012428571428581 0.00015 0.00085243404696798 0.012340254950119 0.00015
          0.001 0.01228571428572 0.0003 0.001 0.012428571428581 0.0003
          0.00085243404696798 0.012340254950119 0.0003 0.000047305708530005 0.012255757186949 0
          0.000035989657241992 0.012305788523607 0 0 0.012277777777773 0
          0.000047305708530005 0.012255757186949 0.00015 0.000035989657241992 0.012305788523607 0.00015
          0 0.012277777777773 0.00015 0.000047305708530005 0.012255757186949 0.0003
          0.000035989657241992 0.012305788523607 0.0003 0 0.012277777777773 0.0003
          0 0.01233333333333 0 0 0.01233333333333 0.00015
          0 0.01233333333333 0.0003 0.00088888888888861 0.013 0
          0.00086852226729803 0.012945143609779 0 0.00092105077811413 0.012923509600428 0
          0.0009444444444442 0.013 0 0.00088888888888861 0.013 0.00015
          0.00086852226729803 0.012945143609779 0.00015 0.00092105077811413 0.012923509600428 0.00015
          0.0009444444444442 0.013 0.00015 0.00088888888888861 0.013 0.0003
          0.00086852226729803 0.012945143609779 0.0003 0.00092105077811413 0.012923509600428 0.0003
          0.0009444444444442 0.013 0.0003 0.000088322519872331 0.012287262323421 0
          0.000098057359918883 0.01234321954228 0 0.000088322519872331 0.012287262323421 0.00015
          0.000098057359918883 0.01234321954228 0.00015 0.000088322519872331 0.012287262323421 0.0003
          0.000098057359918883 0.01234321954228 0.0003 0.00082037799021753 0.012949927278989 0
          0.00083333333333302 0.013 0 0.00082037799021753 0.012949927278989 0.00015
          0.00083333333333302 0.013 0.00015 0.00082037799021753 0.012949927278989 0.0003
          0.00083333333333302 0.013 0.0003 0.000055423585756317 0.01245648439217 0
          0.00011750487062481 0.01240389197138 0 0.000055423585756317 0.01245648439217 0.00015
          0.00011750487062481 0.01240389197138 0.00015 0.000055423585756317 0.01245648439217 0.0003
          0.00011750487062481 0.01240389197138 0.0003 0.00022703795328819 0.012397087263253 0
          0.00024412512388832 0.012487409031957 0 0.00022703795328819 0.012397087263253 0.00015
          0.00024412512388832 0.012487409031957 0.00015 0.00022703795328819 0.012397087263253 0.0003
          0.00024412512388832 0.012487409031957 0.0003 0.00086622784349606 0.012879340816766 0
          0.00086622784349606 0.012879340816766 0.00015 0.00086622784349606 0.012879340816766 0.0003
          0.001 0.01214285714286 0 0.001 0.01214285714286 0.00015
          0.001 0.01214285714286 0.0003 0.00032807036377433 0.012530514194312 0
          0.00032139380548758 0.012616977778981 0 0.00032807036377433 0.012530514194312 0.00015
          0.00032139380548758 0.012616977778981 0.00015 0.00032807036377433 0.012530514194312 0.0003
          0.00032139380548758 0.012616977778981 0.0003 0.00078653837511981 0.012300730611142 0
          0.00078653837511981 0.012300730611142 0.00015 0.00078653837511981 0.012300730611142 0.0003
          0.00050187285486533 0.012723776617989 0 0.00050187285486533 0.012723776617989 0.00015
          0.00050187285486533 0.012723776617989 0.0003 0.00066666666666612 0.013 0
          0.00066666666666612 0.013 0.00015 0.00066666666666612 0.013 0.0003
          0.00086640285866826 0.012499721374928 0 0.00086640285866826 0.012499721374928 0.00015
          0.00086640285866826 0.012499721374928 0.0003 0.001 0.012857142857146 0
          0.001 0.012857142857146 0.00015 0.001 0.012857142857146 0.0003
          0.00043301270230906 0.012750000000722 0 0.00043301270230906 0.012750000000722 0.00015
          0.00043301270230906 0.012750000000722 0.0003 0.00025000000019401 0.01256698729822 0
          0.00025000000019401 0.01256698729822 0.00015 0.00025000000019401 0.01256698729822 0.0003
          0 0.0125 0 0 0.0125 0.00015
          0 0.0125 0.0003 0 0.012055555555554 0
          0 0.012055555555554 0.00015 0 0.012055555555554 0.0003
          0.001 0.013 0 0.001 0.013 0.00015
          0.001 0.013 0.0003 0.0005 0.013 0
          0.0005 0.013 0.00015 0.0005 0.013 0.0003
          0.0014444444444451 0.0095172413793029 0 0.0014444444444451 0.0095172413793029 0.00015
          0.0014444444444451 0.0095172413793029 0.0003 0.0018888888888902 0.0095172413793029 0
          0.0018888888888902 0.0095172413793029 0.00015 0.0018888888888902 0.0095172413793029 0.0003
          0.0014444444444452 0.0099310344827529 0 0.0014444444444452 0.0099310344827529 0.00015
          0.0014444444444452 0.0099310344827529 0.0003 0.0018888888888903 0.0099310344827529 0
          0.0018888888888903 0.0099310344827529 0.00015 0.0018888888888903 0.0099310344827529 0.0003
          0.0014444444444452 0.010344827586203 0 0.0014444444444452 0.010344827586203 0.00015
          0.0014444444444452 0.010344827586203 0.0003 0.0014444444444453 0.010758620689653 0
          0.0014444444444453 0.010758620689653 0.00015 0.0014444444444453 0.010758620689653 0.0003
          0.0014444444444453 0.0111724137931 0 0.0014444444444453 0.0111724137931 0.00015
          0.0014444444444453 0.0111724137931 0.0003 0.0014444444444454 0.01158620689655 0
          0.0014444444444454 0.01158620689655 0.00015 0.0014444444444454 0.01158620689655 0.0003
          0.0014444444444455 0.012 0 0.0014444444444455 0.012 0.00015
          0.0014444444444455 0.012 0.0003 0.0011659770658264 0.012184916069452 0
          0.0011978981211319 0.012291694091132 0 0.0011659770658264 0.012184916069452 0.00015
          0.0011978981211319 0.012291694091132 0.00015 0.0011659770658264 0.012184916069452 0.0003
          0.0011978981211319 0.012291694091132 0.0003 0.0014134281085546 0.012468353283698 0
          0.001412897365997 0.01265802692797 0 0.0011710921098332 0.012660749606473 0
          0.0011928404820732 0.012464476127519 0 0.0014134281085546 0.012468353283698 0.00015
          0.001412897365997 0.01265802692797 0.00015 0.0011710921098332 0.012660749606473 0.00015
          0.0011928404820732 0.012464476127519 0.00015 0.0014134281085546 0.012468353283698 0.0003
          0.001412897365997 0.01265802692797 0.0003 0.0011710921098332 0.012660749606473 0.0003
          0.0011928404820732 0.012464476127519 0.0003 0.0011801499871676 0.012824831216028 0
          0.0011801499871676 0.012824831216028 0.00015 0.0011801499871676 0.012824831216028 0.0003
          0.0014335559245349 0.012265987585326 0 0.0014335559245349 0.012265987585326 0.00015
          0.0014335559245349 0.012265987585326 0.0003 0.0014444444444455 0.013 0
          0.0014444444444455 0.013 0.00015 0.0014444444444455 0.013 0.0003
          0.0023333333333355 0.0099310344827529 0 0.0023333333333353 0.0095172413793029 0
          0.0023333333333355 0.0099310344827529 0.00015 0.0023333333333353 0.0095172413793029 0.00015
          0.0023333333333355 0.0099310344827529 0.0003 0.0023333333333353 0.0095172413793029 0.0003
          0.0018888888888904 0.010344827586203 0 0.0018888888888904 0.010344827586203 0.00015
          0.0018888888888904 0.010344827586203 0.0003 0.0023333333333357 0.010344827586203 0
          0.0023333333333357 0.010344827586203 0.00015 0.0023333333333357 0.010344827586203 0.0003
          0.0018888888888905 0.010758620689653 0 0.0018888888888905 0.010758620689653 0.00015
          0.0018888888888905 0.010758620689653 0.0003 0.0018888888888907 0.0111724137931 0
          0.0018888888888907 0.0111724137931 0.00015 0.0018888888888907 0.0111724137931 0.0003
          0.0018888888888908 0.01158620689655 0 0.0018888888888908 0.01158620689655 0.00015
          0.0018888888888908 0.01158620689655 0.0003 0.0018888888888909 0.012 0
          0.0018888888888909 0.012 0.00015 0.0018888888888909 0.012 0.0003
          0.0017386847932316 0.012348636106575 0 0.0017386847932316 0.012348636106575 0.00015
          0.0017386847932316 0.012348636106575 0.0003 0.0018888888888909 0.013 0
          0.001702980389272 0.012655949584096 0 0.0020604062010233 0.012679406151259 0
          0.0018888888888909 0.013 0.00015 0.001702980389272 0.012655949584096 0.00015
          0.0020604062010233 0.012679406151259 0.00015 0.0018888888888909 0.013 0.0003
          0.001702980389272 0.012655949584096 0.0003 0.0020604062010233 0.012679406151259 0.0003
          <InformationKey name="L2_NORM_RANGE" location="vtkDataArray" length="2">
            <Value index="0">
              0.008275862069
            </Value>
            <Value index="1">
              0.013139935359
            </Value>
          </InformationKey>
        </DataArray>
      </Points>
      <Cells>
        <DataArray type="Int64" Name="connectivity" format="ascii" RangeMin="0" RangeMax="755">
          1 0 6 7 3 2
          8 9 3 2 8 9
          5 4 10 11 7 6
          12 13 9 8 14 15
          9 8 14 15 11 10
          16 17 13 12 18 19
          15 14 20 21 15 14
          20 21 17 16 22 23
          19 18 24 25 21 20
          26 27 21 20 26 27
          23 22 28 29 25 24
          30 31 27 26 32 33
          27 26 32 33 29 28
          34 35 31 30 36 37
          33 32 38 39 33 32
          38 39 35 34 40 41
          37 36 42 43 39 38
          44 45 39 38 44 45
          41 40 46 47 43 42
          48 49 45 44 50 51
          45 44 50 51 47 46
          52 53 49 48 54 55
          51 50 56 57 51 50
          56 57 53 52 58 59
          0 60 63 6 2 61
          64 8 2 61 64 8
          4 62 65 10 6 63
          66 12 8 64 67 14
          8 64 67 14 10 65
          68 16 12 66 69 18
          14 67 70 20 14 67
          70 20 16 68 71 22
          18 69 72 24 20 70
          73 26 20 70 73 26
          22 71 74 28 24 72
          75 30 26 73 76 32
          26 73 76 32 28 74
          77 34 30 75 78 36
          32 76 79 38 32 76
          79 38 34 77 80 40
          36 78 81 42 38 79
          82 44 38 79 82 44
          40 80 83 46 42 81
          84 48 44 82 85 50
          44 82 85 50 46 83
          86 52 48 84 87 54
          50 85 88 56 50 85
          88 56 52 86 89 58
          60 90 93 63 61 91
          94 64 61 91 94 64
          62 92 95 65 63 93
          96 66 64 94 97 67
          64 94 97 67 65 95
          98 68 66 96 99 69
          67 97 100 70 67 97
          100 70 68 98 101 71
          69 99 102 72 70 100
          103 73 70 100 103 73
          71 101 104 74 72 102
          105 75 73 103 106 76
          73 103 106 76 74 104
          107 77 75 105 108 78
          76 106 109 79 76 106
          109 79 77 107 110 80
          78 108 111 81 79 109
          112 82 79 109 112 82
          80 110 113 83 81 111
          114 84 82 112 115 85
          82 112 115 85 83 113
          116 86 84 114 117 87
          85 115 118 88 85 115
          118 88 86 116 119 89
          90 120 123 93 91 121
          124 94 91 121 124 94
          92 122 125 95 93 123
          126 96 94 124 127 97
          94 124 127 97 95 125
          128 98 96 126 129 99
          97 127 130 100 97 127
          130 100 98 128 131 101
          99 129 132 102 100 130
          133 103 100 130 133 103
          101 131 134 104 102 132
          135 105 103 133 136 106
          103 133 136 106 104 134
          137 107 105 135 138 108
          106 136 139 109 106 136
          139 109 107 137 140 110
          108 138 141 111 109 139
          142 112 109 139 142 112
          110 140 143 113 111 141
          144 114 112 142 145 115
          112 142 145 115 113 143
          146 116 114 144 147 117
          115 145 148 118 115 145
          148 118 116 146 149 119
          120 150 153 123 121 151
          154 124 121 151 154 124
          122 152 155 125 123 153
          156 126 124 154 157 127
          124 154 157 127 125 155
          158 128 126 156 159 129
          127 157 160 130 127 157
          160 130 128 158 161 131
          129 159 162 132 130 160
          163 133 130 160 163 133
          131 161 164 134 132 162
          165 135 133 163 166 136
          133 163 166 136 134 164
          167 137 135 165 168 138
          136 166 169 139 136 166
          169 139 137 167 170 140
          138 168 171 141 139 169
          172 142 139 169 172 142
          140 170 173 143 141 171
          174 144 142 172 175 145
          142 172 175 145 143 173
          176 146 144 174 177 147
          145 175 178 148 145 175
          178 148 146 176 179 149
          150 180 183 153 151 181
          184 154 151 181 184 154
          152 182 185 155 153 183
          186 156 154 184 187 157
          154 184 187 157 155 185
          188 158 156 186 189 159
          157 187 190 160 157 187
          190 160 158 188 191 161
          159 189 192 162 160 190
          193 163 160 190 193 163
          161 191 194 164 162 192
          195 165 163 193 196 166
          163 193 196 166 164 194
          197 167 165 195 198 168
          166 196 199 169 166 196
          199 169 167 197 200 170
          168 198 201 171 169 199
          202 172 169 199 202 172
          170 200 203 173 171 201
          204 174 172 202 205 175
          172 202 205 175 173 203
          206 176 174 204 207 177
          175 205 208 178 175 205
          208 178 176 206 209 179
          180 210 213 183 181 211
          214 184 181 211 214 184
          182 212 215 185 183 213
          216 186 184 214 217 187
          184 214 217 187 185 215
          218 188 186 216 219 189
          187 217 220 190 187 217
          220 190 188 218 221 191
          189 219 222 192 190 220
          223 193 190 220 223 193
          191 221 224 194 192 222
          225 195 193 223 226 196
          193 223 226 196 194 224
          227 197 195 225 228 198
          196 226 229 199 196 226
          229 199 197 227 230 200
          198 228 231 201 199 229
          232 202 199 229 232 202
          200 230 233 203 201 231
          234 204 202 232 235 205
          202 232 235 205 203 233
          236 206 204 234 237 207
          205 235 238 208 205 235
          238 208 206 236 239 209
          210 240 243 213 211 241
          244 214 211 241 244 214
          212 242 245 215 213 243
          246 216 214 244 247 217
          214 244 247 217 215 245
          248 218 216 246 249 219
          217 247 250 220 217 247
          250 220 218 248 251 221
          219 249 252 222 220 250
          253 223 220 250 253 223
          221 251 254 224 222 252
          255 225 223 253 256 226
          223 253 256 226 224 254
          257 227 225 255 258 228
          226 256 259 229 226 256
          259 229 227 257 260 230
          228 258 261 231 229 259
          262 232 229 259 262 232
          230 260 263 233 231 261
          264 234 232 262 265 235
          232 262 265 235 233 263
          266 236 234 264 267 237
          235 265 268 238 235 265
          268 238 236 266 269 239
          246 270 273 249 247 271
          274 250 247 271 274 250
          248 272 275 251 249 273
          276 252 250 274 277 253
          250 274 277 253 251 275
          278 254 252 276 279 255
          253 277 280 256 253 277
          280 256 254 278 281 257
          255 279 282 258 256 280
          283 259 256 280 283 259
          257 281 284 260 258 282
          285 261 259 283 286 262
          259 283 286 262 260 284
          287 263 261 285 288 264
          262 286 289 265 262 286
          289 265 263 287 290 266
          264 288 291 267 265 289
          292 268 265 289 292 268
          266 290 293 269 294 295
          296 297 298 299 300 301
          298 299 300 301 302 303
          304 305 306 294 297 307
          308 298 301 309 308 298
          301 309 310 302 305 311
          312 306 313 314 315 308
          316 317 315 308 316 317
          318 310 319 320 321 322
          323 324 325 326 327 328
          325 326 327 328 329 330
          331 332 333 334 335 336
          337 338 339 340 337 338
          339 340 341 342 343 344
          345 346 347 348 349 350
          351 352 349 350 351 352
          353 354 355 356 357 358
          359 360 361 362 363 364
          361 362 363 364 365 366
          367 368 267 369 370 237
          268 371 372 238 268 371
          372 238 269 373 374 239
          375 347 376 322 377 351
          378 326 377 351 378 326
          379 355 380 330 381 382
          383 384 385 386 387 388
          385 386 387 388 389 390
          391 392 393 394 395 396
          397 398 399 400 397 398
          399 400 401 402 403 404
          323 322 405 406 327 326
          407 408 327 326 407 408
          331 330 409 410 411 412
          413 414 415 416 417 418
          415 416 417 418 419 420
          421 422 423 424 425 426
          427 428 429 430 427 428
          429 430 431 432 433 434
          435 436 437 438 439 440
          441 442 439 440 441 442
          443 444 445 446 447 358
          357 448 449 362 361 450
          449 362 361 450 451 366
          365 452 54 87 453 394
          56 88 454 398 56 88
          454 398 58 89 455 402
          456 457 295 294 458 459
          299 298 458 459 299 298
          460 461 303 302 457 462
          463 464 459 465 466 467
          459 465 466 467 461 468
          469 470 456 294 312 381
          458 298 315 385 458 298
          315 385 460 302 318 389
          471 472 473 474 475 476
          477 478 475 476 477 478
          479 480 481 482 483 395
          484 485 486 399 487 488
          486 399 487 488 489 403
          490 491 370 492 359 493
          372 494 363 495 372 494
          363 495 374 496 367 497
          237 370 493 207 238 372
          495 208 238 372 495 208
          239 374 497 209 336 335
          498 499 340 339 500 501
          340 339 500 501 344 343
          502 503 463 334 504 505
          466 338 506 507 466 338
          506 507 469 342 508 509
          510 511 512 513 514 515
          516 517 514 515 516 517
          518 519 520 521 522 523
          524 346 525 526 527 350
          525 526 527 350 528 529
          530 354 531 532 464 505
          533 534 467 507 533 534
          467 507 535 536 470 509
          537 147 177 538 539 148
          178 540 539 148 178 540
          541 149 179 542 523 543
          544 471 526 545 546 475
          526 545 546 475 529 547
          548 479 549 360 550 505
          551 364 552 507 551 364
          552 507 553 368 554 509
          555 313 556 557 558 316
          559 560 558 316 559 560
          561 319 562 563 564 565
          566 492 567 568 569 494
          567 568 569 494 570 571
          572 496 573 574 575 485
          576 577 578 488 576 577
          578 488 579 580 581 491
          582 574 511 510 583 577
          515 514 583 577 515 514
          584 580 519 518 87 117
          348 453 88 118 352 454
          88 118 352 454 89 119
          356 455 504 334 544 543
          506 338 546 545 506 338
          546 545 508 342 548 547
          585 586 587 588 589 590
          591 592 589 590 591 592
          593 594 595 596 574 597
          598 511 577 599 600 515
          577 599 600 515 580 601
          602 519 375 322 321 453
          377 326 325 454 377 326
          325 454 379 330 329 455
          557 556 603 604 560 559
          605 606 560 559 605 606
          563 562 607 608 425 609
          512 610 429 611 516 612
          429 611 516 612 433 613
          520 614 207 493 538 177
          208 495 540 178 208 495
          540 178 209 497 542 179
          615 473 616 426 617 477
          618 430 617 477 618 430
          619 481 620 434 297 414
          621 307 301 418 622 309
          301 418 622 309 305 422
          623 311 492 369 624 564
          494 371 625 567 494 371
          625 567 496 373 626 570
          627 333 336 628 629 337
          340 630 629 337 340 630
          631 341 344 632 360 633
          566 550 364 634 569 552
          364 634 569 552 368 635
          572 554 457 456 636 462
          459 458 637 465 459 458
          637 465 461 460 638 468
          357 360 549 543 361 364
          551 545 361 364 551 545
          365 368 553 547 295 464
          532 296 299 467 534 300
          299 467 534 300 303 470
          536 304 639 314 313 555
          640 317 316 558 640 317
          316 558 641 320 319 561
          471 474 524 523 475 478
          527 526 475 478 527 526
          479 482 530 529 426 610
          406 615 430 612 408 617
          430 612 408 617 434 614
          410 619 504 543 549 505
          506 545 551 507 506 545
          551 507 508 547 553 509
          566 565 642 550 569 568
          643 552 569 568 643 552
          572 571 644 554 610 512
          511 598 612 516 515 600
          612 516 515 600 614 520
          519 602 621 414 645 587
          622 418 646 591 622 418
          646 591 623 422 647 595
          405 474 615 406 407 478
          617 408 407 478 617 408
          409 482 619 410 381 384
          636 456 385 388 637 458
          385 388 637 458 389 392
          638 460 648 499 498 636
          649 501 500 637 649 501
          500 637 650 503 502 638
          616 651 423 426 618 652
          427 430 618 652 427 430
          620 653 431 434 324 597
          573 484 328 599 576 487
          328 599 576 487 332 601
          579 490 642 412 411 531
          643 416 415 533 643 416
          415 533 644 420 419 535
          538 358 447 537 540 362
          449 539 540 362 449 539
          542 366 451 541 524 376
          347 346 527 378 351 350
          527 378 351 350 530 380
          355 354 627 651 616 473
          629 652 618 477 629 652
          618 477 631 653 620 481
          405 322 376 474 407 326
          378 478 407 326 378 478
          409 330 380 482 306 307
          556 313 308 309 559 316
          308 309 559 316 310 311
          562 319 345 117 147 537
          349 118 148 539 349 118
          148 539 353 119 149 541
          414 297 296 411 418 301
          300 415 418 301 300 415
          422 305 304 419 621 586
          603 307 622 590 605 309
          622 590 605 309 623 594
          607 311 544 334 333 472
          546 338 337 476 546 338
          337 476 548 342 341 480
          348 347 375 453 352 351
          377 454 352 351 377 454
          356 355 379 455 531 505
          550 642 533 507 552 643
          533 507 552 643 535 509
          554 644 321 324 484 395
          325 328 487 399 325 328
          487 399 329 332 490 403
          598 597 323 406 600 599
          327 408 600 599 327 408
          602 601 331 410 447 448
          522 537 449 450 525 539
          449 450 525 539 451 452
          528 541 513 512 609 654
          517 516 611 655 517 516
          611 655 521 520 613 656
          604 603 586 585 606 605
          590 589 606 605 590 589
          608 607 594 593 463 462
          335 334 466 465 339 338
          466 465 339 338 469 468
          343 342 438 437 314 639
          442 441 317 640 442 441
          317 640 446 445 320 641
          436 383 382 437 440 387
          386 441 440 387 386 441
          444 391 390 445 393 657
          55 54 397 658 57 56
          397 658 57 56 401 659
          59 58 312 314 437 382
          315 317 441 386 315 317
          441 386 318 320 445 390
          346 345 537 522 350 349
          539 525 350 349 539 525
          354 353 541 528 498 335
          462 636 500 339 465 637
          500 339 465 637 502 343
          468 638 369 267 291 624
          371 268 292 625 371 268
          292 625 373 269 293 626
          358 538 493 359 362 540
          495 363 362 540 495 363
          366 542 497 367 394 453
          321 395 398 454 325 399
          398 454 325 399 402 455
          329 403 587 645 660 588
          591 646 661 592 591 646
          661 592 595 647 662 596
          448 543 523 522 450 545
          526 525 450 545 526 525
          452 547 529 528 472 333
          627 473 476 337 629 477
          476 337 629 477 480 341
          631 481 436 435 663 383
          440 439 664 387 440 439
          664 387 444 443 665 391
          411 296 532 531 415 300
          534 533 415 300 534 533
          419 304 536 535 609 425
          424 654 611 429 428 655
          611 429 428 655 613 433
          432 656 492 566 633 359
          494 569 634 363 494 569
          634 363 496 572 635 367
          393 394 54 397 398 56
          397 398 56 401 402 58
          413 414 645 417 418 646
          417 418 646 421 422 647
          628 627 651 630 629 652
          630 629 652 632 631 653
          117 348 345 118 352 349
          118 352 349 119 356 353
          565 642 412 568 643 416
          568 643 416 571 644 420
          457 295 464 459 299 467
          459 299 467 461 303 470
          463 464 505 466 467 507
          466 467 507 469 470 509
          499 336 628 501 340 630
          501 340 630 503 344 632
          384 636 648 388 637 649
          388 637 649 392 638 650
          492 369 370 494 371 372
          494 371 372 496 373 374
          473 474 615 477 478 617
          477 478 617 481 482 619
          381 382 312 385 386 315
          385 386 315 389 390 318
          471 472 544 475 476 546
          475 476 546 479 480 548
          582 574 575 583 577 578
          583 577 578 584 580 581
          312 306 294 315 308 298
          315 308 298 318 310 302
          524 376 474 527 378 478
          527 378 478 530 380 482
          396 393 657 400 397 658
          400 397 658 404 401 659
          483 395 396 486 399 400
          486 399 400 489 403 404
          357 448 543 361 450 545
          361 450 545 365 452 547
          485 573 484 488 576 487
          488 576 487 491 579 490
          621 586 587 622 590 591
          622 590 591 623 594 595
          324 597 323 328 599 327
          328 599 327 332 601 331
          603 307 556 605 309 559
          605 309 559 607 311 562
          610 425 426 612 429 430
          612 429 430 614 433 434
          360 633 359 364 634 363
          364 634 363 368 635 367
          598 610 406 600 612 408
          600 612 408 602 614 410
          574 597 573 577 599 576
          577 599 576 580 601 579
          672 276 273 666 673 277
          274 667 673 277 274 667
          674 278 275 668 675 672
          666 669 676 673 667 670
          676 673 667 670 677 674
          668 671 720 675 669 721
          722 676 670 723 722 676
          670 723 724 677 671 725
          678 279 276 672 679 280
          277 673 679 280 277 673
          680 281 278 674 726 678
          672 675 727 679 673 676
          727 679 673 676 728 680
          674 677 729 726 675 720
          730 727 676 722 730 727
          676 722 731 728 677 724
          681 282 279 678 682 283
          280 679 682 283 280 679
          683 284 281 680 732 681
          678 726 733 682 679 727
          733 682 679 727 734 683
          680 728 684 285 282 681
          685 286 283 682 685 286
          283 682 686 287 284 683
          735 684 681 732 736 685
          682 733 736 685 682 733
          737 686 683 734 687 288
          285 684 688 289 286 685
          688 289 286 685 689 290
          287 686 738 687 684 735
          739 688 685 736 739 688
          685 736 740 689 686 737
          690 291 288 687 691 292
          289 688 691 292 289 688
          692 293 290 689 741 690
          687 738 742 691 688 739
          742 691 688 739 743 692
          689 740 693 694 564 624
          695 696 567 625 695 696
          567 625 697 698 570 626
          699 700 701 702 703 704
          705 706 703 704 705 706
          707 708 709 710 702 701
          412 565 706 705 416 568
          706 705 416 568 710 709
          420 571 413 701 711 645
          417 705 712 646 417 705
          712 646 421 709 713 647
          690 741 744 714 691 742
          745 715 691 742 745 715
          692 743 746 716 714 699
          702 694 715 703 706 696
          715 703 706 696 716 707
          710 698 694 702 565 564
          696 706 568 567 696 706
          568 567 698 710 571 570
          747 717 748 749 750 718
          751 752 750 718 751 752
          753 719 754 755 699 744
          748 700 703 745 751 704
          703 745 751 704 707 746
          754 708 711 701 700 717
          712 705 704 718 712 705
          704 718 713 709 708 719
          714 694 693 690 715 696
          695 691 715 696 695 691
          716 698 697 692 291 690
          693 624 292 691 695 625
          292 691 695 625 293 692
          697 626 711 717 660 645
          712 718 661 646 712 718
          661 646 713 719 662 647
          714 699 744 715 703 745
          715 703 745 716 707 746
          748 700 717 751 704 718
          751 704 718 754 708 719
          413 701 412 417 705 416
          417 705 416 421 709 420
        </DataArray>
        <DataArray type="Int64" Name="offsets" format="ascii" RangeMin="8" RangeMax="3624">
          8 16 24 32 40 48
          56 64 72 80 88 96
          104 112 120 128 136 144
          152 160 168 176 184 192
          200 208 216 224 232 240
          248 256 264 272 280 288
          296 304 312 320 328 336
          344 352 360 368 376 384
          392 400 408 416 424 432
          440 448 456 464 472 480
          488 496 504 512 520 528
          536 544 552 560 568 576
          584 592 600 608 616 624
          632 640 648 656 664 672
          680 688 696 704 712 720
          728 736 744 752 760 768
          776 784 792 800 808 816
          824 832 840 848 856 864
          872 880 888 896 904 912
          920 928 936 944 952 960
          968 976 984 992 1000 1008
          1016 1024 1032 1040 1048 1056
          1064 1072 1080 1088 1096 1104
          1112 1120 1128 1136 1144 1152
          1160 1168 1176 1184 1192 1200
          1208 1216 1224 1232 1240 1248
          1256 1264 1272 1280 1288 1296
          1304 1312 1320 1328 1336 1344
          1352 1360 1368 1376 1384 1392
          1400 1408 1416 1424 1432 1440
          1448 1456 1464 1472 1480 1488
          1496 1504 1512 1520 1528 1536
          1544 1552 1560 1568 1576 1584
          1592 1600 1608 1616 1624 1632
          1640 1648 1656 1664 1672 1680
          1688 1696 1704 1712 1720 1728
          1736 1744 1752 1760 1768 1776
          1784 1792 1800 1808 1816 1824
          1832 1840 1848 1856 1864 1872
          1880 1888 1896 1904 1912 1920
          1928 1936 1944 1952 1960 1968
          1976 1984 1992 2000 2008 2016
          2024 2032 2040 2048 2056 2064
          2072 2080 2088 2096 2104 2112
          2120 2128 2136 2144 2152 2160
          2168 2176 2184 2192 2200 2208
          2216 2224 2232 2240 2248 2256
          2264 2272 2280 2288 2296 2304
          2312 2320 2328 2336 2344 2352
          2360 2368 2376 2384 2392 2400
          2408 2416 2424 2432 2440 2448
          2456 2464 2472 2480 2488 2496
          2504 2512 2520 2528 2536 2544
          2552 2560 2568 2576 2584 2592
          2600 2608 2616 2624 2632 2640
          2648 2656 2664 2672 2680 2688
          2696 2704 2712 2720 2728 2736
          2744 2752 2760 2768 2776 2784
          2792 2800 2808 2816 2824 2832
          2838 2844 2850 2856 2862 2868
          2874 2880 2886 2892 2898 2904
          2910 2916 2922 2928 2934 2940
          2946 2952 2958 2964 2970 2976
          2982 2988 2994 3000 3006 3012
          3018 3024 3030 3036 3042 3048
          3054 3060 3066 3072 3078 3084
          3090 3096 3102 3108 3114 3120
          3126 3132 3138 3144 3150 3156
          3164 3172 3180 3188 3196 3204
          3212 3220 3228 3236 3244 3252
          3260 3268 3276 3284 3292 3300
          3308 3316 3324 3332 3340 3348
          3356 3364 3372 3380 3388 3396
          3404 3412 3420 3428 3436 3444
          3452 3460 3468 3476 3484 3492
          3500 3508 3516 3524 3532 3540
          3548 3556 3564 3572 3580 3588
          3594 3600 3606 3612 3618 3624
        </DataArray>
        <DataArray type="UInt8" Name="types" format="ascii" RangeMin="12" RangeMax="13">
          12 12 12 12 12 12
          12 12 12 12 12 12
          12 12 12 12 12 12
          12 12 12 12 12 12
          12 12 12 12 12 12
          12 12 12 12 12 12
          12 12 12 12 12 12
          12 12 12 12 12 12
          12 12 12 12 12 12
          12 12 12 12 12 12
          12 12 12 12 12 12
          12 12 12 12 12 12
          12 12 12 12 12 12
          12 12 12 12 12 12
          12 12 12 12 12 12
          12 12 12 12 12 12
          12 12 12 12 12 12
          12 12 12 12 12 12
          12 12 12 12 12 12
          12 12 12 12 12 12
          12 12 12 12 12 12
          12 12 12 12 12 12
          12 12 12 12 12 12
          12 12 12 12 12 12
          12 12 12 12 12 12
          12 12 12 12 12 12
          12 12 12 12 12 12
          12 12 12 12 12 12
          12 12 12 12 12 12
          12 12 12 12 12 12
          12 12 12 12 12 12
          12 12 12 12 12 12
          12 12 12 12 12 12
          12 12 12 12 12 12
          12 12 12 12 12 12
          12 12 12 12 12 12
          12 12 12 12 12 12
          12 12 12 12 12 12
          12 12 12 12 12 12
          12 12 12 12 12 12
          12 12 12 12 12 12
          12 12 12 12 12 12
          12 12 12 12 12 12
          12 12 12 12 12 12
          12 12 12 12 12 12
          12 12 12 12 12 12
          12 12 12 12 12 12
          12 12 12 12 12 12
          12 12 12 12 12 12
          12 12 12 12 12 12
          12 12 12 12 12 12
          12 12 12 12 12 12
          12 12 12 12 12 12
          12 12 12 12 12 12
          12 12 12 12 12 12
          12 12 12 12 12 12
          12 12 12 12 12 12
          12 12 12 12 12 12
          12 12 12 12 12 12
          13 13 13 13 13 13
          13 13 13 13 13 13
          13 13 13 13 13 13
          13 13 13 13 13 13
          13 13 13 13 13 13
          13 13 13 13 13 13
          13 13 13 13 13 13
          13 13 13 13 13 13
          13 13 13 13 13 13
          12 12 12 12 12 12
          12 12 12 12 12 12
          12 12 12 12 12 12
          12 12 12 12 12 12
          12 12 12 12 12 12
          12 12 12 12 12 12
          12 12 12 12 12 12
          12 12 12 12 12 12
          12 12 12 12 12 12
          13 13 13 13 13 13
        </DataArray>
      </Cells>
    </Piece>
  </UnstructuredGrid>
</VTKFile>
