<?xml version="1.0"?>
<VTKFile type="UnstructuredGrid" version="0.1" byte_order="LittleEndian" header_type="UInt32" compressor="vtkZLibDataCompressor">
  <UnstructuredGrid>
    <Piece NumberOfPoints="756" NumberOfCells="468">
      <PointData>
        <DataArray type="Int32" Name="libmesh_node_id" format="ascii" RangeMin="120" RangeMax="2168">
          120 121 122 123 124 125
          126 127 128 129 130 131
          132 133 134 135 136 137
          138 139 140 141 142 143
          144 145 146 147 148 149
          150 151 152 153 154 155
          156 157 158 159 160 161
          162 163 164 165 166 167
          168 169 170 171 172 173
          174 175 176 177 178 179
          240 241 242 243 244 245
          246 247 248 249 250 251
          252 253 254 255 256 257
          258 259 260 261 262 263
          264 265 266 267 268 269
          330 331 332 333 334 335
          336 337 338 339 340 341
          342 343 344 345 346 347
          348 349 350 351 352 353
          354 355 356 357 358 359
          420 421 422 423 424 425
          426 427 428 429 430 431
          432 433 434 435 436 437
          438 439 440 441 442 443
          444 445 446 447 448 449
          510 511 512 513 514 515
          516 517 518 519 520 521
          522 523 524 525 526 527
          528 529 530 531 532 533
          534 535 536 537 538 539
          600 601 602 603 604 605
          606 607 608 609 610 611
          612 613 614 615 616 617
          618 619 620 621 622 623
          624 625 626 627 628 629
          690 691 692 693 694 695
          696 697 698 699 700 701
          702 703 704 705 706 707
          708 709 710 711 712 713
          714 715 716 717 718 719
          780 781 782 783 784 785
          786 787 788 789 790 791
          792 793 794 795 796 797
          798 799 800 801 802 803
          804 805 806 807 808 809
          876 877 878 879 880 881
          882 883 884 885 886 887
          888 889 890 891 892 893
          894 895 896 897 898 899
          900 901 902 903 904 905
          906 907 908 909 910 911
          912 913 914 915 916 917
          918 919 920 921 922 923
          924 925 926 927 928 929
          930 931 932 933 934 935
          936 937 938 939 940 941
          942 943 944 945 946 947
          948 949 950 951 952 953
          954 955 956 957 958 959
          960 961 962 963 964 965
          966 967 968 969 970 971
          972 973 974 975 976 977
          978 979 980 981 982 983
          984 985 986 987 988 989
          990 991 992 993 994 995
          996 997 998 999 1000 1001
          1002 1003 1004 1005 1006 1007
          1008 1009 1010 1011 1012 1013
          1014 1015 1016 1017 1018 1019
          1020 1021 1022 1023 1024 1025
          1026 1027 1028 1029 1030 1031
          1032 1033 1034 1035 1036 1037
          1038 1039 1040 1041 1042 1043
          1044 1045 1046 1047 1048 1049
          1050 1051 1052 1053 1054 1055
          1056 1057 1058 1059 1060 1061
          1062 1063 1064 1065 1066 1067
          1068 1069 1070 1071 1072 1073
          1074 1075 1076 1077 1078 1079
          1080 1081 1082 1083 1084 1085
          1086 1087 1088 1089 1090 1091
          1092 1093 1094 1095 1096 1097
          1098 1099 1100 1101 1102 1103
          1104 1105 1106 1107 1108 1109
          1110 1111 1112 1113 1114 1115
          1116 1117 1118 1119 1120 1121
          1122 1123 1124 1125 1126 1127
          1128 1129 1130 1131 1132 1133
          1134 1135 1136 1137 1138 1139
          1140 1141 1142 1143 1144 1145
          1146 1147 1148 1149 1150 1151
          1152 1153 1154 1155 1156 1157
          1158 1159 1160 1161 1162 1163
          1164 1165 1166 1167 1168 1169
          1170 1171 1172 1173 1174 1175
          1176 1177 1178 1179 1180 1181
          1182 1183 1184 1185 1186 1187
          1188 1189 1190 1191 1192 1193
          1194 1195 1196 1197 1198 1199
          1200 1201 1202 1203 1204 1205
          1206 1207 1208 1209 1210 1211
          1212 1213 1214 1215 1216 1217
          1218 1219 1220 1221 1222 1223
          1224 1225 1226 1227 1228 1229
          1230 1231 1232 1233 1234 1235
          1236 1237 1238 1239 1240 1241
          1242 1243 1244 1245 1246 1247
          1248 1249 1250 1251 1252 1253
          1254 1255 1256 1257 1258 1259
          1260 1261 1262 1263 1264 1265
          1266 1267 1268 1269 1270 1271
          1893 1894 1895 1896 1897 1898
          1920 1921 1922 1923 1924 1925
          1947 1948 1949 1974 1975 1976
          2001 2002 2003 2028 2029 2030
          2055 2056 2057 2112 2113 2114
          2115 2116 2117 2124 2125 2126
          2127 2128 2129 2130 2131 2132
          2133 2134 2135 2148 2149 2150
          2151 2152 2153 2164 2166 2168
          1926 1899 1927 1900 1928 1901
          1950 1951 1952 1953 1954 1955
          1977 1978 1979 2004 2005 2006
          2031 2032 2033 2058 2059 2060
          2142 2144 2146 2163 2143 2096
          2165 2145 2100 2167 2147 2104
        </DataArray>
        <DataArray type="Float64" Name="resid_x" format="ascii" RangeMin="-19.60823237109838" RangeMax="1.0155012933444123">
          -0.00013475447987421063 -8.350766811042892 -0.0001378928175386207 -16.719796055991665 -0.000034955955289461826 -8.36134671340354
          0.000013580177276040217 -8.31204908433995 -0.000011263905044245348 -16.69916356314004 -0.000014740745836405722 -8.386613808390221
          0.00007210328819340361 -8.331399384215562 -0.00016875635423652113 -16.88547400834181 -0.0010024234833423407 -8.60783745209837
          0.005130188145852976 -8.683345739741506 -0.002462101089458102 -17.6085453057638 -0.004867938267903327 -9.128385933932924
          0.00043191129687070173 -8.8273976745382 -0.0028587150821222096 -17.84725767553912 -0.003348874412602676 -9.481711816493373
          0.0002861764648400822 -8.94268536295651 0.00044466639395057683 -18.04312985632378 -0.0018499166412428991 -9.675428711186814
          0.00003657260870237877 -9.14541711249204 0.00021928483307664948 -18.354178502093433 -0.001387040506538817 -9.689262905204162
          0.00024075753432750702 -9.3897548863795 0.0002697029854497046 -18.72578970809019 0.0006088408178328564 -9.493529903861344
          0.0008461277857625404 -9.87414106858855 0.001433679014535727 -19.60823237109838 0.006628902214528942 -9.008736240223206
          0.003568774322794177 -6.157370052423132 0.0061943332674008755 -12.148123729583284 0.01214256168673633 -4.896462814224138
          -0.00023611681124791062 -0.00047936467001097327 -0.00039392863146403556 -0.00010099135282626293 -0.00010150344905746067 0.0008724067713803407
          -0.0005824659328492743 0.052359168389074284 0.03616175197885063 0.23150285387239755 1.0155012933444123 0.05318106440193393
          0.06278250087699355 0.2252184442228975 -0.0033034239590152836 0.00009580232934958133 0.00048046138311530484 -0.003856846534019631
          0.0003189884515926167 0.0003907314848650145 -0.0024701237710278434 -0.000014216110790776781 0.00029604729095211724 0.001590553990739707
          0.00005410418797424654 0.0006669754105708137 0.011587779865231962 0.00311926842400978 0.0058003892380174005 0.020272639644109747
          0.00003706702884720414 0.00004099169246796208 -0.0000065650418452634085 0.0028390973549496934 0.0009804846325556227 -0.0015406431667814857
          0.010225011245126758 -0.05521263173304902 -0.039676473041721394 -0.2470466170574408 -0.9976367092845857 -0.05654240160568058
          -0.06530915803158344 -0.21758568256259814 -0.005560902330604023 0.00036663606988796005 0.0006454145732668337 -0.004993502337228506
          0.0003630217460441898 0.0007469957259695903 -0.002964547925258465 0.00007616477379990272 0.00040696236352832926 0.0023261329825716714
          0.0010781827227059892 0.001997538795947662 0.015112943182248095 0.0036669130000295327 0.006741391586422535 0.027079718277364904
          -0.000050534211538888485 0.0005873394611084493 -0.00006968423460129713 -0.003111027975035263 -0.001312472170664769 -0.0016378958812994782
          -0.010813221560127317 -0.003548901860891185 -0.0034006702448552417 0.0031598869376194827 0.0026830539692381805 -0.003210833133634239
          0.0003062246155707271 0.0002681181362493845 -0.005738996637143501 0.0003779350928052594 0.0006338117701272239 -0.005766118624369376
          0.00002569922196649088 0.0005586529089569581 -0.002988987867734494 0.000014743580582177174 0.0002637359529407135 0.0034478930152141984
          0.0006191745131740589 0.0012080665838567484 0.0170931475341618 0.0023363895324064465 0.004273091968556075 0.026181272806613975
          -0.00007414508002767661 -0.0008100957073553516 -0.0019308838879004142 -0.00011306490256401958 0.0001774750362484312 -0.0027659142761082833
          0.00015720689700149393 0.00010246261479363028 -0.005079196384043527 0.0005032217051876842 -0.0020764478695296518 -0.0075012773018734435
          0.000055148481629352375 0.00029445655383586455 -0.006677616550974541 -0.00006466421463802163 0.0003724981718997711 -0.005995791868891764
          0.00006758496255798718 0.0004453001050750416 -0.002490325006982097 -0.0000918480640788033 0.00024344077326166058 0.0049207909227435565
          0.00021807814971275263 0.0006383329142192196 0.017969589552580878 0.0004423900622028132 0.0011590981866074213 0.023016891967122977
          -0.0004111055086735149 -0.00032827097855836485 -0.0026375088749546194 0.000552560918848144 0.0005578150885128252 -0.004143248760555274
          0.0003765609104817713 0.0013639481128002728 -0.005656673299680115 -0.00007732293360618314 -0.00021342592390638515 -0.007887959638735786
          0.0003167867439088923 0.0006184277835012963 -0.007403666885222648 0.000046085509165294525 0.00046614034438441365 -0.0055578434653078546
          -0.00006155298728582892 0.0002721332381900865 -0.0013343548636113312 -0.000222451674712687 0.00018224019065282704 0.006465815459035795
          0.000126511064205026 0.0007444696790148697 0.018537954118844624 0.00027806005828956426 0.0007408930741394926 0.019717056079990858
          -0.00015025668523449554 -0.00034672016797365757 -0.0039822056487022195 -0.0006454353126610357 -0.0004231103311100881 -0.005578052164393554
          -0.0008877013055403893 -0.0003072505440764317 -0.007117135111982975 0.0009672291488334039 0.0005049440996085508 -0.008226438678936354
          -0.0005528671516099593 -0.0004484698453097735 -0.0072988119369838955 -0.00003829637221297588 -0.000050392343648120175 -0.00507052872459024
          -0.00018346651233436262 0.00021398617064338765 0.00021781834161860303 0.00020933454226312875 0.0009287956330421565 0.008212705595132874
          0.00022533308273509078 0.0012443403549609044 0.01856248477427691 -0.0001301237934933086 0.00032298333098979004 0.016517136153183287
          0.00014967741967097936 0.0006731497702983091 -0.004717679376053496 -0.00018743849427238501 -0.0000518780776204153 -0.0066526866730729495
          -0.0003692352907780361 -0.0005837632454319674 -0.007899720410060596 -0.0006270937171608537 -0.0008590084308357504 -0.007913994814409797
          -0.00038452803548416625 -0.0004100203226826693 -0.006558075431399857 -0.0005835050415390342 -0.000601299792954535 -0.003693865288460607
          -0.00006346969203985253 0.00029564022525541134 0.001904878568634416 0.0007636666104779977 0.0021945453837757256 0.010401971100303165
          0.0003597853238304083 0.00223171516438736 0.019122669147572324 -0.0014471575521368685 -0.0018943073556285661 0.013300482144126713
          -0.00004554400445844209 -0.00017968233868792538 -0.006983504866414414 -0.00001575929957731148 -0.0004416428263773753 -0.005506982052699172
          0.00045550533779081803 0.00017995797903225252 -0.002931918891981411 -0.00025050879353472055 0.000020135327316594953 0.0010267142245319327
          -0.0009190939880507898 -0.0009483152386584592 0.005804049085777585 -0.0014197355872189732 -0.0018136398838377588 0.012718708454590555
          -0.0016405951424767196 -0.0025212223498920494 0.020719358545996158 -0.0015383703450195796 -0.0031956187275006265 0.013678011562082037
          -0.0014930736884217269 -0.0003244792513936723 -0.0029844770213029656 -0.0025036344920395526 -0.003050539686338047 -0.00244727199653183
          -0.0069096937982371515 -0.005110463477035948 -0.0007933219247834994 -0.001460433701969771 -0.0021180976079187286 -0.0021929122397156
          -0.0013951325627991895 -0.002145823791708504 -0.0031706265420446134 -0.004398238107098562 -0.0023321456567032134 -0.0022968771786926467
          -0.003128596748024466 -0.0012755046384857992 -0.002113017301468692 -0.005864097784367875 -0.002621674837271196 -0.004696510344918241
          -0.0015851140709782774 -0.001007618301525997 -0.0028089024018176645 0.00012202329602972739 0.00303245284600262 -0.004433267719276324
          0.00009806612702326079 0.0003979547544633588 0.0037099294110357617 -0.005815800275102423 0.000325340884262032 0.007117838989057712
          0.01308139206591541 0.005286444327701312 0.0038593195354983956 -0.0026450209742917563 -0.0015085493848985276 -0.002109538115122489
          -0.003238856248728189 -0.004702667079435674 -0.006235717843471322 -0.003242371969951363 -0.0027838110675741656 0.013841653545276777
          0.009751410982354325 0.008000784663779847 0.005906447959930811 0.000762077768935443 0.0023116916228989037 -0.0011621906643876079
          -0.0009593017918432256 0.00018033176267651108 0.0033298845749729633 -0.0014793695210630897 -0.0017647713625945638 0.010490393440934609
          0.011557789978430932 0.007851190899398675 0.008291879413807823 -0.0008203572876851473 0.0006983725603660895 -0.001494350834337299
          -0.001048395805187674 -0.0036972137544849515 0.0002070235076221394 -0.002682366364447575 -0.002465240280913994 0.0050332638186418865
          0.007884843305833722 0.0075900493309685735 0.006413218138089372 -0.0012834814729292265 -0.002168191742591974 -0.002879413312490975
          -0.00407245744283391 0.0030434843371047737 0.004265356911225648 0.0012513534076238342 -0.0009658211342499223 0.0010094193709692112
          -0.0012193243253876274 0.005100500166084543 0.009623336719768893 -0.002638414013298101 -0.000561215196456773 0.0004865959190495789
          -0.0007742790836524627 -0.005275595535139635 -0.001537220249701085 -0.00002342512281287845 -0.002100209168273165 -0.0033781326209567086
          -0.0011144971261260045 -0.0008585522059562228 -0.0017791880170024976 0.00014975845446918434 0.0014944993546601726 0.0005048325767507134
          -1.6560255350539645 0.000236206111846049 0.0020813726603785554 0.0011464239053675662 -3.189768502893111 0.001069726973010221
          0.004823533159002413 0.0039595552627207375 -1.1956711135268043 0.0013456677236224346 -0.0034696640757795882 0.000351090122856057
          -0.004009822919533584 0.0077272839480319044 0.013820165031666096 -0.000993371494396822 -0.00005811624368856627 -0.0018988639056708445
          -0.003815518459120648 -0.0014779099439776733 -0.0007296081939849319 -0.004620084293778415 -0.008633800879308984 -0.0006514958474361787
          0.0007811163068697224 -0.0022276412157992698 -0.004209249362469025 0.005507282961907056 -0.00634177268648739 0.013108457776624782
          0.017147694806694258 0.005226960247672774 -0.016052796081344578 0.020266861225215593 0.02792009731938283 0.002216316056867118
          -0.006715578143378198 0.012873122540483006 0.024199911334579882 0.0002709919054720445 -0.00002115610617241942 -0.0019050341576009044
          -0.0005703616328048416 0.00031911439432574795 0.0002700061844035499 -0.00446647025029271 -0.0014330961378663173 -0.0004068847433678219
          0.0013396231203666592 -0.0025290760843990623 -0.0008749363646443596 -0.0012454182644925371 -0.0011651571675252992 -0.002430440081875096
          -0.002071817862854597 0.0041482432024018134 0.007722353052174946 0.0015320179056430572 0.0022234189443921526 0.011914651515471997
          -0.005470562905427662 -0.003929643141833972 -0.01101211632500576 -0.0067249219601852595 -0.006176183399773216 -0.005305033344250365
          -0.0012458177186499553 -0.0019190057763236457 -0.0011516206015663721 -0.003479424040832013 -0.005607272518394324 -0.003551498456105584
          -0.0015498649856489077 -0.0014510437649852825 -0.0027380697713719204 -0.0006477460389930356 -0.0020441400029699575 0.000343173609602454
          -0.002175850076001934 -0.000122099760861194 -0.002044561015500261 -0.0015385371418832339 -0.003123315900787099 0.013642219349066953
          0.015865110735777482 0.02277244898316133 0.02220673663718105 -1.292534317243543 0.0007348486408921828 -1.5252186364237155
          -2.595521958657585 0.0015573883988069803 -2.930944048044218 -1.0233503495930327 0.0026605571218416557 -1.1397288107797858
          -0.0012463967149880725 -0.0016709004255194282 -0.0026741545456122305 -0.0031394807924587376 0.0057427303980941286 0.006935475161472082
          -0.003104149777370724 -0.0045066055641757585 -0.001734468129969191 -0.008896258256333223 0.0017412971630949015 -0.0016677961220912252
          -0.0004007709714497487 -0.0017463968072838065 -0.0017708336199398766 -0.0034799660877078624 0.003935492528494677 0.005875691549187295
          -1.3327844409726468 0.0010518173264654207 0.0023643012227252333 -1.5630295324127197 -2.6040175954272846 0.001234798328086928
          0.003715481461642925 -3.0204440616819954 -1.2061507794111375 0.0019176305296814133 0.0035269136215944907 -1.3214699733260566
          -0.001047774500777643 -0.0006216357942951944 -0.0012610458624155996 -0.0019186351645829047 -0.0010078526268404442 -0.003453064545846596
          0.010077816673068063 0.012455783156329003 0.008556224338120866 -0.0012817221343508628 -0.003537083496351956 -0.0028802724970963534
          -0.0065205022332399665 0.0006168184399147902 -0.0027146408997651417 -0.0014788632575517546 -0.0010064617274518906 -0.003241606571726674
          -0.002218540489289156 0.013466752204759347 0.009532261983796309 -0.0021724159382543635 -0.006159465768850292 -0.004956581367638532
          -0.011459353501356018 0.014119721063671598 0.008693432048224703 -0.003355503293814066 -0.0004894507449321184 -0.006283211426457269
          -0.0016181331205259442 0.0024743079011624314 0.0036019584957809325 0.000012143316334339849 -0.0030124390405346993 -0.0005212929513661105
          -0.0002267813541264388 -0.005627240431053487 -0.00102685089365738 -0.00011672809003450413 -0.0024825339535873327 -0.00042905976834350934
          -0.00011216365056054833 -0.00007972050713667134 -0.0028362686225854583 -0.000723772000319034 -0.0005032268469635226 -0.0064368282469098315
          0.0034185943539593033 0.002542458148850346 0.00013765350418581956 -0.0009651776240319765 -0.0002091498472491793 -1.3751837001509473
          -0.0017019400200299906 -0.00016071751603546902 -2.683402101600353 0.0006513281667723247 0.0011871831638655128 -1.0848224573422312
          -1.2741758038455686 -2.5264180308400657 -1.1431841588493994 -0.000023988111951792415 -0.00038137449681945046 -0.003116403800908607
          -0.0013396378076139218 -0.00023408615831552702 -0.0009653335153308948 -0.006468891599407889 -0.002778976367794287 -0.0001412095670426279
          -0.0004231043242103674 -0.0033128839592034 -0.0014034218768812987 -0.0002522147349299786 0.0023476366302841306 -0.001718711005212814
          0.003533156021901268 0.002531246566255585 0.0065181825589446865 -0.00238468535648427 -0.0022551719965964653 -0.004587482988942668
          -0.004440979733862885 -0.002082532181018837 -0.0020760052705182663 0.0016360701445630732 0.001955675691223527 0.003403363503638346
          0.0024053352285389185 0.005240645678724565 0.010725559891881453 0.015468493776223724 -0.01766929518031457 0.02421664094940601
          -0.02460299456698123 0.025146034965044528 0.012099753970117755 -0.0022469030325041398 -0.004179402088851321 -0.0019161408818040848
          -0.002272407590363734 -0.0040341052917495235 0.0022909947870808356 -0.015595962339970959 0.005209973394497358 -0.025342710193763995
          0.004172667217091586 0.005712555577314871 0.0075414610151177675 -0.0036196623088752267 -0.007104105899944035 -0.0009455134492868389
          -0.004900960185083597 -0.00926187457097638 -0.00016979979646858379 -0.0013193449031009552 -0.0027313142336997318 -0.0011883069676998544
          -0.0030026941179954747 -0.005854509176644207 -0.0012307580518453598 -0.001966537402687929 -0.00405933735583297 -0.002040066531496132
          -0.0007953876974125806 -0.0025846210388714708 -0.0030447888160458625 0.013776487841967056 0.01973432290865018 0.0166777504287825
          -1.137896630461085 -2.1818151668807557 -0.9616008866935475 -1.5543287753851414 -3.031220495975989 -1.1294248210617777
          -0.003565860186952763 -0.006891230853364072 -0.003301108793855617 -0.00202366217167422 -0.003693102578787022 -0.0015647643682185908
          -0.0005556798055423862 -0.000014530439793158934 -0.0008387304358397074 -0.00326255630774952 -0.005110982301398614 -0.001253703019481911
          -0.000139816641479662 0.00011304239555265383 0.0024549664820074923 -0.0030230660529690923 -0.004448654846052946 0.002345365181825265
          -0.0015652270624464393 -0.0013290450843461699 0.005770688486027353 -0.003255492062155696 -0.003984368363983748 0.008812362303386223
          -0.004074792679180206 -0.003915774769377656 0.011778235108884871 -0.005369039116114749 -0.005311412099655577 0.013817313100271456
          -0.0063389556357316135 -0.009611185246733323 0.006293467021438293 -0.001859768545831919 -0.0014807882189988575 -0.002093022908383535
          -0.002312418712808989 0.0013046119660087285 0.001576333925319251 -0.0031906016296590345 -0.006330940352355263 -0.004028522381633648
          -0.002169484635466068 -0.006543131096831245 -0.012833053070180345 -0.007678113492882499 -0.003591653595061528 -0.0029548880150572776
          -0.006596347716980588 -0.0036386547678011194 -0.0009095734558042246 -0.0036439814429320427 -0.00544194771804235 -0.003041567806723211
          -0.004180987493245025 -0.0065617224059328905 -0.0013507927141862552 -0.010879090159620797 -0.021011236394498367 -0.011101409851147104
          -0.0006903214747531194 -0.0021777021439781663 -0.0030757469758526668 -0.0059216053157093995 0.00280777789058817 -0.0008094766477526605
          -0.0030019794054680915 -0.003060346751681209 0.006658799187090558 0.0000025111478842987367 -0.0003232424831640657 0.0063624845698617705
          -0.0016981442772223687 -0.003494856732494611 0.00830570497312344 -0.0024883297357796152 -0.0049468843374640414 0.009434939785531782
          -0.004156379277977962 -0.008331270931206447 0.007289767384508927 -0.005687239409184031 -0.011088110073158575 -0.0003169177309283455
          -0.00740488410295459 -0.011178469875700259 -0.004670447099913488 -0.008085216612858215 -0.009288607064475318 -0.0020559133318593936
          -0.014931338567585328 -0.014714853007267159 -0.005957625533159039 -0.00884734874305515 -0.0075946768492412 -0.005618912310609403
        </DataArray>
        <DataArray type="Float64" Name="resid_y" format="ascii" RangeMin="-0.042322784864188105" RangeMax="0.09934589816160554">
          0.00017110555550245432 0.00012221288936187236 0.0003258081474695751 0.00037585065304540644 0.00027997356947018215 0.00036072780952524364
          0.00005745941391972764 0.0003230712466252561 0.00009462253827212386 0.000940179458151752 0.00004486765190671316 0.0006103126031174189
          0.0002678678618621283 0.0002405534394142872 -0.000061489257922126 0.0004577036551790259 -0.00019783089253440356 0.00028384901984485067
          0.0006070299550443997 0.003137338234141751 -0.0013863731692815573 0.0014669055210370652 -0.0000994381274577738 -0.00038088409986419824
          0.0013679715510206691 -0.0009221733231995211 0.0011060546971903007 0.003424960205171468 -0.0006873728663177592 -0.0012449525056944521
          0.0007626670650426881 -0.00016949506953806148 0.0014050794891159457 0.00048767249499132026 -0.0014371754911747803 -0.0009250467901934512
          0.00043561606451336665 0.0002395612692822069 0.0011593548941591925 0.0007722790926722456 -0.0029154996759057084 -0.0014313949429310413
          0.00018037385089647584 0.00017869652677271475 0.0008633895320446783 0.0007294574883097149 -0.004933447152724368 -0.0024325688431535153
          -0.0007990763505641429 -0.0005948158901564193 -0.0003697809104072358 -0.00039173955813348593 -0.008552407304136367 -0.004590416262111874
          -0.0009714785263403303 -0.001018968582727764 -0.0009415273163032034 -0.001395923153666545 -0.008429496393058789 -0.004227743163933262
          0.00034347954096494715 0.00043623756384769674 0.0003231742159316431 0.00020543602644115463 0.00026283604133284927 0.000027348180894282148
          0.0002924243954432193 -0.018899358829452692 -0.007959119728408945 -0.014741167840758074 -0.02190843684573386 -0.0040143533515233365
          0.0076932782225463126 0.024228882805045343 -0.00011157902131087027 0.0003728318589707458 0.0009849532000904826 -0.0010004694916576073
          0.0005838685941544353 0.0012785718022600978 -0.0023374248866826486 0.0008099434921656767 0.0016917075544511384 -0.003811879949125019
          -0.0005180615653369025 -0.0001643742539692572 -0.006628183894573703 -0.00004474489565117756 0.0005556207346335551 -0.006441184425707944
          0.0004072532365420739 0.00035462559539739535 0.00028735088632408923 -0.001580347488831249 -0.0007966480705337321 -0.00023234813838485247
          -0.0011979215579518143 -0.003238325274838569 -0.0015922825786716943 -0.042322784864188105 -0.03855709384747519 0.005236809731868658
          0.020287966105805008 0.09934589816160554 -0.00041914305496185134 0.00033461085549624237 0.0008019889111044176 -0.0006613925084478223
          0.0005534606688955557 0.0011934109427472195 -0.0016874081210951908 0.0005490122213822612 0.0012467395608918852 -0.0028562385466916473
          0.0010075786723723335 0.00237701510917232 -0.0039090942896362335 0.002134433706955541 0.004677694420840817 -0.002907749805161508
          0.00034158061300607057 0.0006439001264267885 0.0003767421821218031 0.00014471427791190594 0.00009280199534969155 0.00005466299689217691
          0.005613631164276739 0.0014930365459247183 0.000005605488072324416 0.001188037468295891 0.00024035879685067353 0.00031461246657124575
          0.0002601830125626009 -0.000013898099206849368 -0.0002353251368940601 0.0005241099264793603 0.0009131736247994515 -0.00023841926415243964
          0.0006354474628159079 0.0012991685494515293 -0.0009675131180100494 0.0006091912312163883 0.0012874294740807257 -0.0017810617915654803
          0.0015292810225412956 0.0030610840268275596 -0.0020470684805681816 0.004301695220869761 0.00817617888882538 0.0008508818516278494
          0.00028208335823312614 0.0007696382853649986 0.00029287673172984086 0.0001014054180424051 0.00020070534180667218 0.00014466186238126788
          -0.000382336454882809 0.0003067221728165481 0.0006095531900023321 0.00027064302524592784 0.00025544494991622604 0.00047309072367783533
          0.0001981081832148207 0.0003441066637369372 0.00009011284192550484 0.00039381575354682785 0.0008407497615916526 0.00006789418121781743
          0.0006893251416469903 0.0012211158494648544 -0.0004004521405109318 0.000816284404400125 0.0014319873197509436 -0.000924796906129538
          0.0017952451382677315 0.0034341173509771505 -0.00042053960200630347 0.0027441083029896285 0.005414908511226474 0.0017337513763938106
          0.00039164997877258467 0.0006007118696237379 0.00022479037637235244 0.000044190039016803184 0.00019734735814674192 0.00008490118968851323
          -0.00026139048432502476 -0.000030781140639049576 0.0002999023345439736 0.00017139131713378442 0.0000042349054397636254 0.00031282980944489017
          0.0002894090036500985 0.00023896052630664744 0.00036026027858955187 0.00044981899924384505 0.0007386178566962665 0.0003049749470744774
          0.0007376497117602687 0.0011497887650244176 0.00003000548325138297 0.0010533084221684696 0.0016264338023118108 -0.0003015158675898355
          0.002155521633505436 0.003903243976754789 0.0008396257756411452 0.002614877758783607 0.0047186704993116 0.0024957743313178127
          0.00033635833241843494 0.0006354499627547749 0.00032391428693878677 0.00026209165166234116 0.00019263213995278708 0.000014915151691420603
          -0.000024314453474671982 -0.000010741604717076636 0.0005063253999839923 -0.00010827073169105556 -0.00008953457912023663 0.0006885777907135737
          0.0002725978544773494 0.0002284264672495033 0.0006477219055807046 0.00035400445012336024 0.00048239335362486313 0.0004373345783467014
          0.0009230361516230495 0.0013397331751694302 0.00023677738181600988 0.0014675024604326181 0.002163459203707918 0.00009537669841427898
          0.0027533417986914943 0.004693769033961931 0.0015201081930453775 0.0031508312733537214 0.005801419351499998 0.0033197272974275216
          0.0004347483467047053 0.0008944365261042142 0.0005743758315135961 0.00018134510045242358 0.0006761988636954097 0.0009165875233367871
          -0.0002287514654905065 -0.00015106560544131398 0.0007999828083460336 0.000005045004595201352 -0.00040145293636729626 0.0006836040706808544
          0.000011456059890196935 -0.0002579413562460997 0.0006697783372275334 0.00029601008415605645 0.00010545565224694825 0.0003284439463271116
          0.0009608565129733404 0.0012394820630020967 0.00005299937680076916 0.0021292579857484784 0.0033195738512993567 0.00021060809823866822
          0.0030882899209527803 0.005495956214359332 0.0013786576595976596 0.0011685993753456914 0.0021059331269111248 0.0010572150020217719
          0.00035012268515544065 0.00041554127840570665 -0.0003931925361492228 0.0006134522633656214 0.0007030489207013879 -0.0005463674475092439
          0.00033674757809576406 -0.00004515861381859665 -0.0006121460310147819 0.0003471951343612667 -0.0003168863700760971 -0.0008034264371660216
          0.00045368181722358486 -0.00030863568146501097 -0.00012983144614306386 0.0010998811132532649 0.0008319832586386466 0.001706067099263242
          0.0030277929333100695 0.005063069703860057 0.006295398359524085 0.0030831501351301638 0.0052378095332952235 0.005743362653700346
          -0.000354162488928943 0.0008813817629991583 0.00013597586636435177 -0.0004095980651172282 0.00022349457984438895 0.0026868623053195595
          0.00023914209372013356 -0.0006197416185998728 -0.00024092217065819696 -0.004491729606819747 0.0005898773705038385 0.00028807878071766824
          0.001190223101459921 0.0003893523209674314 0.0019207596627323215 0.0007874973131348356 0.0002791756524265915 0.0003712386859415148
          0.0011443621845726396 0.00028527948428949505 0.00024385922213034442 0.002354717559163798 0.0004653632732228158 0.00022333352336756374
          0.002342154968302054 0.00006766812578259951 -0.00017321480280171886 -0.0003956252860362053 -0.0008788002268260708 0.007385957578173619
          -0.0018327406097477517 -0.00012226993098585215 -0.00038818436071372253 0.012292081023333595 -0.002898947529106355 -0.001371883582966138
          -0.0012142225069839974 0.003637217724260816 -0.0022136423579660613 0.000005694034889591748 -0.00019047206983391352 0.00112712311664373
          0.0016134331048113376 0.0002013217437430992 -0.0015526173210893557 0.007469324998072346 0.00275355481938222 0.004149041717855351
          0.003925211332575174 0.013931500794002516 0.003094580536384242 0.0014390291643444075 0.002364788188558009 0.0013142868605572344
          0.0011010185870401895 0.002883600811282361 0.004760591791833746 0.002630085888091216 0.0019291367637341572 0.0011415685636970707
          0.002645380076012338 0.0008061986510798924 0.000007710789998907619 0.0002253136589667748 0.0025831130487479204 0.002712668681631919
          0.0010404050030902168 -0.0007234947891139876 0.004732774449909161 0.005440763821942335 0.0019235197904521883 0.0004598567890208849
          0.003250115301372647 0.004414514220781145 0.0030353274895240367 0.0007160820337292484 0.0018321460589017513 0.0012794495018457752
          0.0033595205852212373 0.0012038319141526588 0.0022941868661171816 -0.000027104395948898685 0.0018612780673656903 0.0005157394721275049
          0.003260320694718599 0.000143798573466844 0.0010854235319314176 -0.0013612338763474424 0.0003540860322918671 0.0016156064777029938
          0.0012090779536103047 -0.0021213609192672622 0.0008117293754333205 0.0017747187885560761 -0.0016577546935154508 -0.0008294554499903573
          0.0002627584057056931 -0.00039463512986569194 -0.003670075934942285 -0.0007498096898539289 -0.0019208676063484642 -0.0021859142354010495
          -0.0013749705662415845 -0.001434353927084962 -0.0028657276419061795 -0.0038381782025436392 -0.0022884670401767115 -0.0020586847275084284
          -0.002438589849904249 -0.0031894410540284773 -0.0018311500674103587 -0.002049331010772648 -0.0049433966579697786 -0.0021279323366429903
          -0.007088219070610274 -0.00007925731030078431 -0.0013437219756476937 0.000472460323316215 0.0006809222842130806 -0.000646645762289122
          0.0008033351228923236 0.00132623925331804 0.0012798795795652199 -0.0007067813290868308 0.0023375535910125367 0.0014286531985457929
          0.0014446480224902247 0.0000615316276789124 0.0014334251691035804 -0.020111188288602477 -0.010187049999859088 -0.006145478444329167
          0.0031190093155635083 -0.036141181499492525 -0.018907926667014796 -0.0103556168005135 0.007511073264965973 -0.012353213804626284
          -0.00841435333095042 -0.0016760165513364789 0.00621215837892769 0.00011135932026773432 0.00010283770808052622 0.0009171722487909227
          0.00011874076975939944 0.000047611751874579444 0.00035740406637993667 0.0025613621363588766 -0.00017210343447154886 -0.00018244226091998494
          0.0008015991436606806 0.0023170562530859078 -0.000787391902791805 0.0010962293146579982 0.003589658165265127 0.0021310272436479705
          0.007042151530011538 0.0013760758699919995 0.0040821791462093415 0.00006916600122355843 0.0009714263581102056 -0.0014222653637645521
          0.00017125080865082465 -0.00005949026688023551 0.0005736988464716264 -0.0010487023369062098 0.00034247298929346304 0.0006665320641319195
          -0.0005696087980789355 -0.0005657499231315755 -0.0013326307392586278 -0.0024063135393972146 -0.0035215431691801302 -0.001464044314694421
          0.002691505406668411 -0.000330232149431009 0.0018674251005915132 0.0017826311299210182 0.005702174325273035 0.00916653225547348
          0.003728501894870895 0.005180403562044689 0.012519699928812356 0.017520676002219515 0.009234872400885677 0.004212274357752788
          0.01247048720464361 0.014508760090772288 0.007710813334897371 -0.00047015954073190147 -0.0018106785059257557 -0.0018368398305280698
          -0.0005259461272052457 -0.0030523429784657663 -0.0030622046390880314 -0.0003006913023456126 -0.002414785479463291 -0.001728025408444283
          0.0002627422951475625 0.0027227138419754215 0.00012351444336770184 0.0052136408360107245 0.00142812359706318 0.0037718462740066183
          -0.0015173388795320375 -0.0004151584952557519 -0.00255453159847685 -0.004667112844720114 0.0025374167445527673 -0.0023370239173889917
          0.0030578268417302823 -0.0010866109134920476 0.004336718706456022 -0.0018314532658155191 0.003232386453976388 0.0033907087355112345
          -0.003849929090596515 -0.0008501423295366739 -0.001001579538977726 -0.0033114414596047415 -0.005323536890619068 -0.0007169680554988955
          -0.0018978200192768524 -0.0048846073417912195 -0.0015121731754796086 -0.000807816319521662 -0.002215617159582184 -0.001853620738482449
          0.0015220893515180307 0.004061848790425204 0.0012523757218010495 0.0032217485707140003 0.007117334186058755 0.00227461281297299
          0.0024640745086795812 0.004216143560167779 0.0014157693067759075 -0.0010457131995331437 0.0005468305198255696 -0.0015834935713545384
          0.001255457666969162 0.0008176841970664248 0.002811747207734916 0.0029104667836133413 0.0024502130003877798 0.005105091505712256
          0.0046062266375679894 0.0029071715777814477 0.0032075256509765393 0.005125879674332368 0.00008645506753893195 0.008606870196496808
          0.001976765910547365 0.0069595653280289105 0.004985667231158064 0.0014118403592251472 0.0008137763394883146 0.0027764101933264174
          0.000994635098559793 0.0037680060489564127 0.002103443381523018 -0.00019877219509478045 0.001254383519733622 -0.00023925561872123122
          -0.00041545372772775185 0.0023218866233870976 -0.00045950664858396793 -0.0001659012871505017 0.0009833367947435223 -0.00014865364214962633
          0.00044902910830585396 0.0012462266434016822 0.0006101917138328639 0.0014870297821790723 0.0027630564289831128 0.0008717007336666027
          0.00239523111771911 0.002738009596174429 0.0018369525013206545 -0.0001864699746202958 0.002120567872072293 -0.0019403925217474603
          -0.00010151684559195351 0.003423581905517087 -0.003248831008957287 -0.0004479950033182689 0.00002782228003271603 -0.001368476280299963
          -0.001987810845919029 -0.0030777201031788673 -0.0011043322349402567 0.000016069524543430025 -0.00009964914688335991 0.0009695079246583929
          -0.00024813018707811954 0.00014682636068749817 -0.00008439523917862929 0.001877307513890307 -0.0005420096328802235 0.00004757701965367109
          0.00005248873496101203 0.000819593589699269 -0.00026199885706628886 -0.0020869013932772115 0.0015307509961000054 -0.0033329115848468177
          0.0025053384253955757 -0.0016037007257766675 -0.001030066360794557 0.00024879884998996876 0.0019669899449368863 0.0004922416779467378
          0.0038564620568174116 0.0002348434706244268 0.0018902332952109857 2.5482722892933296e-7 -0.00651945448575908 -0.0008228941469171636
          -0.011239607684447095 -0.0023463674371397847 -0.004262626006873438 -0.010475503916018036 0.013520742796141128 -0.018493873793621607
          0.023442586634516427 -0.006350546674084856 0.011138300807343848 0.0008013728704367798 0.0014654318920448509 0.0005724003853858428
          0.003785469627417992 0.007196780556675941 0.005050332063604834 -0.006655886037502889 -0.001263873502825752 -0.010119742168090362
          -0.0032243736542602597 -0.00037878927655476957 -0.0018705611153709278 0.0021082051913670907 0.004066375247621712 0.0026490773143010293
          -0.0023848895504490347 -0.00395778717385762 -0.0009902164372879718 0.0005119472986174073 0.0009278830907030189 0.00040474387615155316
          0.0008707576476259526 0.0015024477398017932 0.002285004146010239 -0.0005059242353734686 -0.0011092554602557952 -0.000647203706415328
          -0.00011929781607356027 -0.001646717937289141 -0.002421902217222105 -0.003105810070152648 -0.006740021872989943 -0.0005500816367992045
          -0.007853059974787455 -0.013839213052041475 -0.006199396352655973 -0.0005655712438224492 -0.0010797488026319246 -0.001125618425539359
          -0.00028322089050625276 -0.0009114684555513869 -0.00039564447056086166 0.0012480644067049589 0.0021481830472673286 0.0004600065768697384
          0.0017016176841812003 0.0027385197782585635 0.0003651144382039728 0.0009541341484411159 0.00134314526883475 0.001012417819952316
          0.0007629769163454668 0.0005766441470030359 -0.000057548893599268514 0.0020199926052451023 0.004065733942871741 0.0022200480499799946
          0.0014680471751697122 0.000841077219675912 0.00032807218197561383 0.0024298082897181716 0.0031451255197429973 0.0023947450810516413
          0.003356516593635006 0.005251929467624872 0.004846985276497295 0.004604110011104057 0.008295113136303489 0.007577777305737943
          0.0008379037884317375 0.000858499676820057 0.0015620618544465725 0.0016132516093282367 -0.00016979336283384772 0.0032257549729225454
          -0.0008170503239438576 0.002528084171417505 8.650246433594688e-7 -0.0005579984285570272 0.0008525490562104054 0.000008865163147298016
          0.0004454512587097892 -0.0002633012045598071 0.0022531126546025404 0.0004578122642046045 0.0009623731493805798 0.000514246656554862
          0.001483449620025723 0.0007276499076080412 0.0010836386278079146 0.0016738782016397225 0.0020974989430100344 0.0011619771550628322
          0.002365614069967062 0.002527987780415193 0.0012275291437324198 0.0022162611443858893 0.004051092930545591 0.0018827219883504054
          -0.0003792566595196556 0.001596293704045959 -0.0007612597163806356 0.004671035926422873 0.0008535052285033456 0.003274360137504151
          0.003455788104613222 0.006002816557965529 0.004237039956993094 0.003051247746711505 0.0034354768920682455 0.0036351253608980505
          0.0032902676801561115 0.005029046688349359 0.003799718540871244 0.005375332932685439 0.006829315921442536 0.005169308723774413
          0.004178560395708741 0.004130938305823673 0.0035149663123363872 0.0008437383955850475 -0.002898395090893402 -0.0008900406815928186
          0.0017750129431669537 0.0010234837637530525 0.001714928251151715 0.0018020476710980948 0.0010852290149470306 0.00003275507957212209
          -0.0003483199400473591 0.0016600196268992604 0.0003021301812811128 -0.00009835112997430562 0.001346729845290981 0.0014338733270532478
        </DataArray>
        <DataArray type="Float64" Name="resid_z" format="ascii" RangeMin="0" RangeMax="0">
          0 0 0 0 0 0
          0 0 0 0 0 0
          0 0 0 0 0 0
          0 0 0 0 0 0
          0 0 0 0 0 0
          0 0 0 0 0 0
          0 0 0 0 0 0
          0 0 0 0 0 0
          0 0 0 0 0 0
          0 0 0 0 0 0
          0 0 0 0 0 0
          0 0 0 0 0 0
          0 0 0 0 0 0
          0 0 0 0 0 0
          0 0 0 0 0 0
          0 0 0 0 0 0
          0 0 0 0 0 0
          0 0 0 0 0 0
          0 0 0 0 0 0
          0 0 0 0 0 0
          0 0 0 0 0 0
          0 0 0 0 0 0
          0 0 0 0 0 0
          0 0 0 0 0 0
          0 0 0 0 0 0
          0 0 0 0 0 0
          0 0 0 0 0 0
          0 0 0 0 0 0
          0 0 0 0 0 0
          0 0 0 0 0 0
          0 0 0 0 0 0
          0 0 0 0 0 0
          0 0 0 0 0 0
          0 0 0 0 0 0
          0 0 0 0 0 0
          0 0 0 0 0 0
          0 0 0 0 0 0
          0 0 0 0 0 0
          0 0 0 0 0 0
          0 0 0 0 0 0
          0 0 0 0 0 0
          0 0 0 0 0 0
          0 0 0 0 0 0
          0 0 0 0 0 0
          0 0 0 0 0 0
          0 0 0 0 0 0
          0 0 0 0 0 0
          0 0 0 0 0 0
          0 0 0 0 0 0
          0 0 0 0 0 0
          0 0 0 0 0 0
          0 0 0 0 0 0
          0 0 0 0 0 0
          0 0 0 0 0 0
          0 0 0 0 0 0
          0 0 0 0 0 0
          0 0 0 0 0 0
          0 0 0 0 0 0
          0 0 0 0 0 0
          0 0 0 0 0 0
          0 0 0 0 0 0
          0 0 0 0 0 0
          0 0 0 0 0 0
          0 0 0 0 0 0
          0 0 0 0 0 0
          0 0 0 0 0 0
          0 0 0 0 0 0
          0 0 0 0 0 0
          0 0 0 0 0 0
          0 0 0 0 0 0
          0 0 0 0 0 0
          0 0 0 0 0 0
          0 0 0 0 0 0
          0 0 0 0 0 0
          0 0 0 0 0 0
          0 0 0 0 0 0
          0 0 0 0 0 0
          0 0 0 0 0 0
          0 0 0 0 0 0
          0 0 0 0 0 0
          0 0 0 0 0 0
          0 0 0 0 0 0
          0 0 0 0 0 0
          0 0 0 0 0 0
          0 0 0 0 0 0
          0 0 0 0 0 0
          0 0 0 0 0 0
          0 0 0 0 0 0
          0 0 0 0 0 0
          0 0 0 0 0 0
          0 0 0 0 0 0
          0 0 0 0 0 0
          0 0 0 0 0 0
          0 0 0 0 0 0
          0 0 0 0 0 0
          0 0 0 0 0 0
          0 0 0 0 0 0
          0 0 0 0 0 0
          0 0 0 0 0 0
          0 0 0 0 0 0
          0 0 0 0 0 0
          0 0 0 0 0 0
          0 0 0 0 0 0
          0 0 0 0 0 0
          0 0 0 0 0 0
          0 0 0 0 0 0
          0 0 0 0 0 0
          0 0 0 0 0 0
          0 0 0 0 0 0
          0 0 0 0 0 0
          0 0 0 0 0 0
          0 0 0 0 0 0
          0 0 0 0 0 0
          0 0 0 0 0 0
          0 0 0 0 0 0
          0 0 0 0 0 0
          0 0 0 0 0 0
          0 0 0 0 0 0
          0 0 0 0 0 0
          0 0 0 0 0 0
          0 0 0 0 0 0
          0 0 0 0 0 0
          0 0 0 0 0 0
          0 0 0 0 0 0
          0 0 0 0 0 0
          0 0 0 0 0 0
        </DataArray>
        <DataArray type="Float64" Name="stress_zz" format="ascii" RangeMin="-110382908.99048547" RangeMax="142722777.22939765">
          1247206.1763286677 1000007.3403371641 770575.887110763 619490.2982764128 293945.5978928585 238973.25621566136
          2529127.516913437 2832179.8478105916 1751764.920792582 1760447.5513544856 974402.3246717275 688715.2548983797
          4354554.007399446 5298509.769520971 2877569.5470074895 3413363.20868891 1400585.0866155326 1528216.6478568497
          2328396.9052242334 2559909.138442 1096853.1626388703 1510488.7032615375 -134690.57994649286 461068.2680810746
          -2376300.213612112 -2790115.2082383023 -2047967.4339778172 -2241809.580350516 -1719634.6543435217 -1693503.9524627293
          -3390120.425309363 -3895229.0780627225 -2444755.2335234135 -2874537.2573186643 -1499390.0417374652 -1853845.4365746062
          -1719551.2015091865 -2323995.5843261294 -1133437.747299813 -1666683.1147710446 -547324.2930904392 -1009370.6452159598
          699869.7310528103 -363646.62272944127 1109334.5822692637 -100144.86346408312 1518799.4334857168 163356.89580127498
          3969024.472119474 3707215.654179498 2558690.1713610697 2154561.2652925653 1148355.8706026662 601906.8764056326
          25309880.021791324 10303500.987303568 19225380.72046741 5611760.727252925 13140881.419143498 920020.4672022832
          1764156.908958877 1128598.0808276874 493039.2526964973 1373365.4640792664 962933.1024509792 552500.7408226917
          -683560.8320046184 -853131.1439420556 -1022701.4558794932 -2863388.277760603 -2767050.6672811424 -2670713.0568016823
          -3288417.808723426 -2608346.511041377 -1928275.2133593275 -1909855.6912622037 -1243771.8364384526 -577687.9816147012
          39437.65906768761 480905.26637499593 922372.8736823043 2500948.6338163577 3188359.122118132 3875769.6104199067
          3979758.4905638676 3015612.8532502176 2051467.2159365672 -818182.4030546893 -4046176.0741338884 -7274169.745213086
          1885099.4072213136 1053151.0952318837 221202.78324245356 -587661.6816771999 -720098.5643416131 -852535.4470060263
          -3961886.692888007 -3151359.146872652 -2340831.6008572974 -4009087.249510097 -3308871.8430866012 -2608656.436663106
          -2142078.722714169 -1633920.0453683008 -1125761.3680224328 -51530.70876105968 284260.5525139301 620051.81378892
          2401353.158447262 2681490.597036163 2961628.0356250633 3857300.7631121483 4750910.837592555 5644520.912072964
          614479.1429919796 381142.1436504672 147805.1443089547 -3214629.7453380735 -4412494.039011363 -5610358.332684651
          106789.58745721553 -461850.8521690541 -1030491.2917953236 -3996060.8293987946 -3110528.847732643 -2224996.8660664926
          -4425339.40943616 -3051067.01872254 -1676794.6280089205 -727271.2144638251 -613212.2196823282 -499153.2249008312
          485801.25482438965 385261.1809015124 284721.106978635 1623796.0367592885 1730431.5687031713 1837067.1006470541
          4554844.052572398 4644256.0497935 4733668.0470146015 4671030.682212146 5595807.091949707 6520583.501687268
          -2313150.2118041674 -2232751.1749087707 -2152352.138013374 -8003646.09039419 -9404243.456309848 -10804840.822225504
          -4548870.409449698 -3496672.083143924 -2444473.7568381494 -7538710.9656857 -5268912.975237868 -2999114.984790037
          -5701747.326940884 -3765811.6937327622 -1829876.060524641 -1654669.0007338552 -920408.0496422173 -186147.0985505793
          673186.7422391955 859491.158186061 1045795.5741329265 3017190.790003387 2942336.4223106755 2867482.0546179647
          6015454.7915975535 5862530.5816478105 5709606.3716980675 5287643.929010511 5806432.912216564 6325221.895422618
          -2191750.412860127 -2570655.699969702 -2949560.9870792767 -16190581.277102487 -18113028.351442643 -20035475.425782796
          -9873620.42845317 -6637901.155961748 -3402181.883470327 -9726758.965715034 -6403505.344655694 -3080251.7235963563
          -6354229.047959596 -3937660.849574401 -1521092.6511892052 -2518996.547988362 -1190085.020717176 138826.5065540106
          725836.4591886085 1158597.2706883678 1591358.0821881273 3922607.814085751 3691850.5746131414 3461093.3351405323
          6859392.234418406 6326444.979219263 5793497.724020122 6089446.016231121 5661820.516854275 5234195.017477429
          -1003906.4107177532 -2377759.0617729155 -3751611.7128280774 -5843339.173824616 -9251977.935270723 -12660616.696716825
          -13004248.90407744 -8856157.295536878 -4708065.686996315 -10983379.840179008 -7348793.138413119 -3714206.436647231
          -7113854.625129488 -4496392.44534515 -1878930.2655608112 -3036195.251654536 -1590477.692411055 -144760.1331675739
          863586.3952333643 1244962.2524024153 1626338.1095714662 4450123.777897532 3972804.610641579 3495485.4433856257
          7247608.529207371 6206237.901526859 5164867.273846347 7386489.347141894 5807146.429091569 4227803.5110412445
          3323472.1960542155 805944.2360015175 -1711583.7240511803 321232.60902260896 -2559464.162847074 -5440160.934716757
          -10913979.512533233 -10514722.671169376 -10115465.82980552 -7655057.081796506 -8243668.284230854 -8832279.486665202
          -3886130.868897164 -5260229.785992159 -6634328.703087155 -511711.5558139067 -2300696.3085611975 -4089681.0613084887
          2730948.363467747 871782.1660965845 -987384.0312745778 5575857.436368076 4007931.1100646877 2440004.783761299
          6922305.579013851 6147686.350643108 5373067.122272365 7084613.357405605 7201315.480775487 7318017.60414537
          6462258.683946423 7648411.817161172 8834564.95037592 1339652.6984618127 4533302.550053149 7726952.401644486
          -500187.1242515076 -4221748.144513295 -7943309.164775081 1585011.396075213 -1782948.5730566094 -5150908.542188431
          3644616.642107933 999124.9683878154 -1646366.7053323023 5347071.179505616 3802419.164329872 2257767.1491541276
          5538839.625617635 5649397.8328785235 5759956.0401394125 4762100.687688122 6459584.692167197 8157068.696646271
          8359069.86441618 12138523.707209665 15917977.550003149 7677975.535546192 12327848.229536569 16977720.923526946
          10820934.54444916 -14313942.9596823 -7697803.531782855 7537854.95697039 4917910.06959824 -16533534.828101778
          -8916912.929292185 3820762.576194679 -985114.405252682 -18753126.69652126 -10136022.326801514 103670.19541896787
          24492126.92158928 17085884.570182167 14769469.918988787 11981459.757380798 5046812.916388294 6877034.944579432
          27850244.028125644 35324400.101660766 45752571.92542718 18691995.588363938 22990440.306595426 36123940.505112134
          9533747.14860224 10656480.51153008 26495309.084797084 24797404.938340984 12245522.008824376 63897890.06238283
          29094163.336984053 20210359.796960775 9866897.766539058 55643393.438030645 23611003.416233756 15623314.655580562
          7488273.524253741 47388896.813678466 18127843.495483465 -20651267.924358327 -42836806.85137768 -60035560.149161436
          -63318743.572282456 -4826072.864800846 -28644383.99545316 -40077959.82643425 -41559593.43792012 10999122.194756635
          -14451961.139528641 -20120359.50370706 -19800443.303557783 3704566.4925851123 -393137.4171423428 27138080.85226339
          6578592.144431128 4899121.402524782 -359705.62955720327 25166434.254398968 5942576.895847758 6093676.312464454
          -326273.84197206795 23194787.656534553 5306561.64726439 -16888891.177532643 16684227.596639706 -7585254.102990049
          -17624223.55365721 -11940260.797062416 22421745.360394433 -4526898.115318874 -13387028.190033805 -6991630.416592187
          28159263.124149162 -1468542.127647701 -9149832.826410396 5063638.609838315 2937382.469420075 9381043.792882185
          1360331.9450191734 13698448.975926053 -216718.57938172854 23907656.62768874 4001453.2757845484 22554294.7617667
          461417.79482606845 21200932.895844653 -3078617.6861324115 -1656593.5102443788 21383690.877286308 23883568.201080263
          -56304686.99780045 1500453.2607269355 12858839.72653528 49936.589956092335 -40980383.68447327 4657500.031698249
          4333988.57578425 -23783695.021168083 -25656080.37114607 31226814.84920138 40934739.65001653 26317646.7851908
          13791192.42485311 22548198.106698893 34129736.81971501 20929191.02869476 8091099.360901964 13869581.364196401
          27324733.989413492 15540735.272198718 2391006.296950822 -51724476.109207034 -24928433.985352725 -49480110.263400435
          -26793941.2392264 -47235744.41759383 -28659448.49310006 -9620387.824925799 -6491300.252718153 54057.61704423791
          2259785.632915533 -10525754.148178624 -5687306.368362526 -300899.6173575538 369739.4104652998 -11431120.471431449
          -4883312.484006896 -655856.8517593456 -1520306.8119849344 80415052.26971951 142722777.22939765 32342581.40654973
          35048840.91798674 60184996.876076385 123462156.69680527 29999634.15527442 26972340.189606685 39954941.48243326
          104201536.16421288 27656686.90399911 18895839.461226627 58284079.74507171 49656965.22049936 50132175.452678174
          65440848.28025514 25670233.355342418 17308538.474432178 31676800.59105948 42492005.877120286 -6943613.034386877
          -15039888.271635009 13221425.729440786 19543163.47398543 14974279.98991043 -9754858.878802935 22624416.976156536
          -4165512.6203655982 30274553.96240264 1423833.638071739 6409587.759990343 4575380.967791033 2741174.175591723
          -18428585.654337693 -32753359.450434126 -10552931.690613193 -29748362.720748622 -2677277.7268886985 -26743365.991063114
          -50495562.41245219 -59289008.50615086 -38734645.84640397 -38104013.03186387 -45222162.050921656 -36285719.86195938
          -25712463.651275553 -31155315.595692445 -33836793.8775148 -9698739.339900874 -5048974.781335115 38452641.868450835
          25398618.01507002 -26080271.646962214 -23580747.37409693 35142197.449635886 18904363.437225495 -42461803.954023555
          -42112519.966858745 31831753.03082093 12410108.85938097 27249104.905344173 15050165.638559433 24641684.449058443
          21568114.468010437 8821944.741444167 17126338.170088425 15887124.030676704 2593723.844328899 9610991.89111841
          7022865.271192131 -8422441.969658827 11061732.512797223 -11145167.23435273 15100599.754402315 -13867892.499046631
          -87261787.47769867 -71691513.87903482 -59829528.65107471 -60744507.93496069 -32397269.82445075 -49797501.99088655
          -43184952.72719353 -38810528.80169805 -21735691.331415173 -29711808.729720008 -286429.9356368209 -20613088.657741975
          56874869.90045029 67277609.43028982 54616164.51926096 40866195.55979945 54391273.5658977 62344743.92530952
          48749543.44023523 37088673.42184211 51907677.23134513 57411878.42032921 42882922.361209504 33311151.283884782
          -8055798.129849507 11677144.971383628 5791318.7570569785 -5747541.4294041395 7762355.49542127 1972328.809036744
          -3439284.7289587706 3847566.0194589132 -1846661.1389834927 -21121680.059545778 -16890860.773266334 -19078268.298833862
          -14793146.009102166 -17034856.538121946 -12695431.244937995 -3352274.270748665 -345987.3388478337 -1196227.598248748
          652033.128795566 959819.0742511697 1650053.5964389648 -23865251.069438655 -29156341.28513956 -19362544.6154075
          -38495474.736102596 -14859838.161376355 -47834608.18706563 -20920315.821313556 -16068727.793302746 -17263455.494038507
          -8778838.485295275 -13606595.16676346 -1488949.177287804 41081760.2104456 25649793.538654767 29475506.902034707
          25671565.75494108 16417485.47792527 18752958.626890585 10261371.299436565 7185177.417195775 8030410.351746464
          -4583173.370180689 -6006257.260555146 5919396.207006803 -3326707.2605095333 -2613315.180185573 15540569.546446461
          -2070241.1508383784 779626.9001840014 25161742.885886118 9095349.693431817 8986716.758554596 -13937020.749059405
          7038385.233970658 11463935.448329445 -12837712.919818668 4981420.774509499 13941154.138104293 -11738405.090577928
          13707683.533371106 16730434.83660889 19753186.13984668 13073065.369933067 11883519.112889666 6986983.503937936
          5026236.22643948 7387344.602522251 7112284.157120425 3349458.8853477044 725050.8305105001 1701623.835111435
          2341049.2013511853 -288065.7332425276 -3576134.5654184795 41153862.09947049 -3534013.0058714002 38515108.58629202
          -6255112.253675038 35876355.073113546 -8976211.501478681 18690069.891002584 21057012.39190869 11962487.514781276
          12740739.915774137 5234905.138559969 4424467.439639587 47409364.06861472 -29157031.084820647 41035402.98542936
          -25804864.388430953 34661441.902243994 -22452697.69204127 82878065.11244604 -48876141.471071966 73924459.83115324
          -46935975.775342874 64970854.54986044 -44995810.079613775 10850966.239470614 7260024.391140475 3669082.5428103376
          -1966222.2790850291 -39730.432078009355 1886761.4149290102 32396711.157289945 46732527.52283498 42641161.092207074
          49087663.11056753 52885611.027124204 51442798.698300086 -6837093.00860965 2706426.5860454426 12249946.180700535
          -72421048.44253632 -49467934.10561994 -26514819.76870355 55735186.3832667 39032447.99832462 22329709.61338254
          -19534175.321709093 -14730702.779766716 -9927230.237824341 5339979.393844946 2890826.2744294307 441673.155013915
          -110382908.99048547 -87695674.29783094 -65008439.60517641 55767441.30255277 49746417.61556935 43725393.92858594
          88331418.25259888 77113390.68055268 65895363.108506456 -3312670.809687171 -9900773.873571396 -16488876.937455622
          4343640.483939743 1097967.7668712165 -2147704.9501973097 48597526.974234894 14929498.180892555 -18738530.612449784
          2005359.8650389586 2040933.42560375 2076506.9861685412 4350427.5587102445 5198830.65200048 6047233.745290715
          3019779.718324438 3169795.722307557 3319811.726290676 3823285.976505271 4534045.032548311 5244804.08859135
          3626936.2043724544 3839725.8772409093 4052515.550109365 3156603.603284173 3447672.9623688124 3738742.3214534526
          2187216.49416242 1835066.3393775295 1482916.1845926396 3695353.1735581066 3316348.732200922 2937344.2908437382
          5165963.6675191475 4831736.877474418 4497510.0874296855 -377063.4821215053 -4772534.885979334 -3037618.5981799737
          -6910700.645761907 -5698173.714238442 -9048866.405544482 -1923861.4310948497 -1694003.690772309 2100766.403680385
          -2770089.8425083095 -2089451.769900181 -1916188.4085076656 2215151.3894903148 -2967937.7365721925 -2255042.108705512
          -2138373.1262430223 2329536.375300245 -3165785.6306360755 5051382.656865492 3872170.8193834745 2692958.981901457
          2715239.4061456416 2513862.785242727 2312486.164339813 2009295.113352179 1406157.2560844356 803019.3988166926
          3280413.9873408154 4967484.1751417965 3070981.192223853 4736835.313982692 2861548.3971068906 4506186.452823586
          2478736.227752542 2899729.730291617 3320723.232830692 569358.1949654459 390347.98086336296 211337.76676128
          63960.62123029446 42465.923244200414 20971.225258106482 -3030955.2681707963 -3956523.4282718897 -4882091.588372983
          -4767574.36703193 -6038849.06863527 -7310123.770238611 2414957.1620353456 2320254.7743916535 2225552.386747961
          5265061.613567836 5414441.148297337 5563820.683026838 2206685.591389293 276563.87097661756 2187136.021786809
          2081390.553045515 -57310.87271326431 1903647.9262527116 1956095.5147017376 -391185.6164031462 1620159.8307186137
        </DataArray>
        <DataArray type="Float64" Name="peeq" format="ascii" RangeMin="0" RangeMax="0.06690671747248103">
          0 0 0 0 0 0
          0 0 0 0 0 0
          0 0 0.0000029689651504178145 0 0.000005937930300835629 0
          0.00008902325595380727 0.00006649512942478535 0.00012163199869174438 0.000091434244306973 0.00015424074142968147 0.00011637335918916065
          0.0006024651131417285 0.0005308860245851967 0.0006811224133465488 0.0006058938469306225 0.0007597797135513692 0.0006809016692760484
          0.0019300708748997012 0.0018242522852691422 0.0020281277072519335 0.0019267617017596952 0.002126184539604166 0.002029271118250248
          0.004373360170953651 0.004267666513754565 0.004440051448432649 0.004340407628106791 0.004506742725911645 0.0044131487424590166
          0.008366529198475801 0.00830407231980159 0.008316762175836555 0.008254956032133583 0.008266995153197313 0.008205839744465575
          0.015166114873396194 0.015357706890774696 0.014859379433566296 0.015027604887858962 0.014552643993736398 0.014697502884943226
          0.024303810908015762 0.023727565914718092 0.02360209804379424 0.023053448475168197 0.022900385179572724 0.022379331035618302
          0 0 0 0 1.2728356991591397e-7 2.5456713983182795e-7
          0.000007907023683279287 0.000022095197349857347 0.000036283371016435414 0.00017174455669443693 0.00022742856218550323 0.0002831125676765695
          0.0008234806079190289 0.0009100445289999061 0.0009966084500807834 0.0022408156284245734 0.002325448673860841 0.0024100817192971085
          0.00467976051462401 0.004729267094832177 0.004778773675040345 0.008535666109453508 0.008484476359760783 0.008433286610068062
          0.014621591785715735 0.014375742689470686 0.014129893593225638 0.021540244392889422 0.021050621818468996 0.020560999244048566
          0 4.039359998460943e-7 8.078719996921886e-7 0.000004423426610487792 0.0000128451587891522 0.000021266890967816607
          0.00007683072353671194 0.00011240528533356533 0.0001479798471304187 0.0004033388522552318 0.00047506929558721226 0.0005467997389191925
          0.0012267153871078676 0.0013083170820749187 0.00138991877704197 0.002734456984203985 0.002797758165905523 0.0028610593476070603
          0.0051504974890656235 0.005174500753430953 0.005198504017796283 0.008763340501699579 0.008709903916039811 0.008656467330380046
          0.013797440245988547 0.013635156370509788 0.013472872495031027 0.01906305162207355 0.018835805293441317 0.018608558964809084
          2.0389084580899442e-7 0.000010144539986318104 0.000020085189126827218 0.00003928147280891694 0.00007515746246770622 0.00011103345212649551
          0.00026107916713531985 0.00032288917976023657 0.00038469919238515323 0.0008156846672714311 0.0008846236020938389 0.0009535625369162465
          0.0018041695970622777 0.0018644241828856027 0.0019246787687089274 0.0033758354995318514 0.0034111711576567468 0.003446506815781642
          0.005722594092361958 0.005717282459223668 0.005711970826085377 0.008972243951472166 0.008916312431465966 0.008860380911459768
          0.012822905130139265 0.012746321493253845 0.012669737856368428 0.015424989543465394 0.015419805335530301 0.015414621127595209
          0.000025199884482167243 0.00006147087203178805 0.00009774185958140886 0.0001716716101631082 0.0002378559222383126 0.000304040234313517
          0.000592799252938707 0.0006670143387726769 0.0007412294246066469 0.0013655113865653303 0.001422421058114833 0.001479330729664335
          0.0025082372504173214 0.002540977596156744 0.002573717941896167 0.004117066391459606 0.004118984911071053 0.0041209034306825005
          0.00631381732510598 0.006280900623837377 0.006247983922568772 0.009076475634979816 0.009022507000547198 0.008968538366114581
          0.011773495274096928 0.011769434435817884 0.011765373597538842 0.012942457577287035 0.013086768910612213 0.01323108024393739
          0.00014919327803123388 0.00020380413348195918 0.0002584149889326845 0.0004710464768473157 0.0005368332021685666 0.0006026199274898176
          0.001096600971625711 0.0011512638746098672 0.0012059267775940236 0.00205078000609054 0.0020771767914569295 0.002103573576823319
          0.003309621833388088 0.003304013077161318 0.0032984043209345476 0.004895572692783119 0.004861363790445332 0.004827154888107544
          0.006836373236946288 0.006784783784913018 0.006733194332879747 0.009000954117554617 0.008963127374003994 0.008925300630453369
          0.010628036676205637 0.010691644148596387 0.010755251620987135 0.010801543767275079 0.011051498295570047 0.011301452823865011
          0.0004400917939155327 0.0004705095073776746 0.0005009272208398165 0.000960429004272313 0.0009790800800416346 0.0009977311558109561
          0.0017712427868510506 0.001766770280141935 0.001762297773432819 0.0028604535309597365 0.002826841847736706 0.002793230164513675
          0.004167148045577196 0.004108588910034136 0.004050029774491076 0.005640376859665083 0.005572509763719722 0.0055046426677743615
          0.007212148722479415 0.00716027948992029 0.007108410257361168 0.008688339884803475 0.00869347706618616 0.008698614247568848
          0.009383509377892056 0.009524063622778366 0.009664617867664675 0.008840831362606097 0.009157485133600884 0.009474138904595671
          0.0008897851670051448 0.0008783882123034719 0.0008669912576017991 0.0016054571743518257 0.0015700634122937452 0.0015346696502356644
          0.002572533398543818 0.002510977808820987 0.002449422219098156 0.0037385776882566182 0.0036550967262516535 0.0035716157642466887
          0.005009264589959754 0.004916303323641751 0.004823342057323748 0.006273731751891007 0.006194327088276297 0.006114922424661586
          0.007389381895498964 0.007354967919186042 0.007320553942873121 0.008138115329614382 0.008189007984678757 0.008239900639743133
          0.00806530070298804 0.008247159735881072 0.008429018768774105 0.007104009024791802 0.007401006119369209 0.007698003213946613
          0.0033949953061137086 0.003335621749040306 0.0032762481919669036 0.004532154553520295 0.004461089035724706 0.004390023517929117
          0.005662788067265239 0.005591175817100042 0.0055195635669348445 0.006643816789295579 0.006588855889038836 0.006533894988782093
          0.007298853106937411 0.007282427542375955 0.007266001977814499 0.0074078345692416255 0.00745529908219317 0.007502763595144712
          0.006712990147854114 0.006838481842195517 0.006963973536536919 0.005588764728131385 0.0057737314884388725 0.005958698248746362
          0 0.000002444391623571537 0.000019991257283508228 0 0.00044701739409653743 0.0012132622005234415
          0.00008721599673381155 0 0.0008940347881930749 0.0024240800094233114 0.00015444073618411485 0
          0 0 0.00012114051787522787 0 0.00024228103575045574 0
          0 0 0 0.00027794948952868483 0.00003733473050451098 0.00012099967038415829
          0.0005558989790573697 0.00007466946100902196 0.00024199934076831657 0.03301307414363315 0.030256261335080265 0.03857058640515221
          0.03868927817599792 0.032000648294072793 0.029611923347005065 0.03740345687868906 0.03731398623409307 0.030988222444512433
          0.02896758535892986 0.03623632735222591 0.03593869429218823 0.010388632933706454 0.0063739575635072526 0.005520186852723415
          0.007158717595397998 0.013005672280706681 0.008294879992100216 0.007902656311882408 0.009736357010142131 0.015622711627706905
          0.010215802420693176 0.0102851257710414 0.012313996424886266 0.019207320296874945 0.019202713905070206 0.02322294878007078
          0.022438313858757886 0.01915544097717682 0.019298789458406396 0.0229942831657533 0.022140237552914062 0.019103561657478698
          0.019394865011742587 0.02276561755143583 0.02184216124707024 0.009162312158733065 0.010085313689857246 0.0070670373894596685
          0.005732815609707054 0.009787669445572156 0.010587114008594968 0.007561670899392664 0.006312891267588031 0.010413026732411249
          0.011088914327332687 0.008056304409325662 0.006892966925469006 0.005888204924020727 0.007491732802611796 0.00621758890887334
          0.007901451059448984 0.006546972893725954 0.008311169316286173 0.026629888118173833 0.024296048766240058 0.026102558108693535
          0.024108762088032514 0.025575228099213244 0.02392147540982497 0.000007264178620147327 0 0
          0.00035593084216720513 0.0006241114455791662 0.00047844781729246906 0.0005565711305669099 0.001910665528185697 0.0012409587125381853
          0.0009568956345849381 0.0011131422611338198 0.003465400214204189 0.02994102461957716 0.029525331819519766 0.03540184340919042
          0.03344004910416847 0.02897468273814292 0.028563195416331014 0.03407641727733481 0.032248407576787354 0.028008340856708683
          0.027601059013142262 0.03275099114547922 0.031056766049406246 0.03138574576607123 0.04189015210407447 0.030743152842188284
          0.040624949048203594 0.030100559918305337 0.03935974599233271 0.00010253939244540967 0.00028379182204199213 0.000010047716497150522
          0 0.00014640888789325333 0.00032535141982011366 0.000011942382138290092 1.1588752194355298e-7 0.00019027838334109698
          0.0003669110175982353 0.000013837047779429662 2.3177504388710596e-7 0.05733808253136069 0.06685628346117731 0.06283034622048306
          0.05135001377792825 0.055759492070579425 0.06443627182638355 0.06042934954853443 0.04996763407741459 0.054180901609798146
          0.06201626019158979 0.05802835287658582 0.04858525437690093 0 0 0
          0 0.0007713887970630779 0.0007973612367663793 0.0005517357550557048 0.000511488572265624 0.0015427775941261558
          0.0015947224735327586 0.0011034715101114097 0.001022977144531248 0.012194796263932293 0.012270996584447132 0.012658018796105508
          0.012843149822805537 0.01312124132827872 0.01341530306116394 0.026888180242645644 0.026206539543444075 0.025524898844242506
          0.00011971590879007096 0.00022828978107791747 0.0020971598849603263 0.0035455086177687625 0.004074603861130582 0.006862727454459608
          0.002686089491336194 0.0022863007050860336 0.00031750190723739093 0.006053511811323794 0.004618011471929583 0.0020214263516365283
          0.009420934131311395 0.0069497222387731325 0.003725350796035666 0.01628601236979295 0.014758886820938072 0.027017010029065192
          0.024387578577990513 0.01715660732681558 0.016337793385897546 0.02806681150150736 0.02442504146270666 0.018027202283838206
          0.017916699950857023 0.029116612973949525 0.024462504347422795 0.03813056355718978 0.040450790049618844 0.043420172197513235
          0.036577801695148536 0.03881356369107253 0.04149101442430864 0.0350250398331073 0.03717633733252621 0.03956185665110406
          0.005126725000038702 0.009406393069204027 0.005480742741271362 0.009815677551628748 0.005834760482504021 0.010224962034053472
          0.004842568737543776 0.005696822986427032 0.006210129616789479 0.0074084373584585505 0.007577690496035183 0.009120051730490072
          0.005269291692535435 0.002483670993752445 0.0061678694974810315 0.003142597776727629 0.007066447302426629 0.003801524559702813
          0.05613379520902751 0.05414707260269738 0.05959527011534036 0.06091402983722996 0.0532086365809511 0.05150908409525956
          0.05686493877585645 0.057940402062197416 0.050283477952874696 0.04887109558782173 0.05413460743637255 0.05496677428716487
          0.015412235755801158 0.015681985781097654 0.019804641103979184 0.015780220904991846 0.016286566812411914 0.020069823503361003
          0.016148206054182532 0.01689114784372617 0.020335005902742825 0.0005624089331739965 0.00022334118576034043 0.000817916274181145
          0.0004627729320779091 0.0010734236151882938 0.0007022046783954778 0.015011873031698344 0.011831176666710597 0.015226728922078455
          0.01216307857724484 0.015441584812458567 0.012494980487779079 0.009575105272496743 0.011311188466501873 0.010363043278735102
          0.012405734622239602 0.011150981284973464 0.013500280777977327 0.005348857429877201 0.0028332834153657525 0.006058386495474573
          0.003270278961441772 0.006767915561071944 0.003707274507517791 0 0 0
          0.000005681076951731729 0 0 0.000011362153903463459 0 0
          0.003076949034001476 0.001561775054008029 0.0034732246830160617 0.003278252820717754 0.0017113835173389897 0.0038139983774036056
          0.0034795566074340314 0.0018609919806699508 0.004154772071791149 0.0450029444646625 0.049644172214465335 0.049628675176191114
          0.043008633397554424 0.047278426414957844 0.04718777197101376 0.04101432233044635 0.04491268061545034 0.044746868765836396
          0.052159314812465996 0.049521644560134206 0.046883974307802403 0 0 0
          0 0 0 0 0 0
          0 0 0 0.044763541943912646 0.04987556623443295 0.04295936415701587
          0.047789832923330486 0.041155186370119105 0.045704099612228016 0 0 0
          0 0 0 0.06491181932271804 0.05424340727089534 0.0623042588744071
          0.052111252706623534 0.059696698426096144 0.04997909814235172 0.03621902686557111 0.04166530730569117 0.0356570895460229
          0.041846622423021784 0.03509515222647471 0.04202793754035239 0 0 0
          0.004417506911954088 0.004629045933222696 0.004840584954491304 0.021108353354318952 0.01338705472504878 0.023800923636115696
          0.01625539173934699 0.026493493917912444 0.019123728753645198 0.004875291952157124 0.00534338032182666 0.005811468691496193
          0.0020884941054468338 0.0043070344651334755 0.006525574824820116 0 0.000005681076951731729 0.000011362153903463459
          0.0010414142981289823 0.0012515526539384695 0.0014616910097479572 0 0 0
          0.002526450295556701 0.004380177010758641 0.0062339037259605806 0.03708647891435329 0.03828562599044973 0.039484773066546186
          0.06690671747248103 0.06418568552346632 0.06146465357445161 0.029409577093961924 0.02850568202500638 0.027601786956050835
          0 0 0 0 0.0005198004495949076 0.0010396008991898152
          0.0051343300672964005 0.005106770503006583 0.005079210938716763 0.005511057340845997 0.005506201519472108 0.005501345698098218
          0.005995781681653073 0.005969214941126106 0.0059426482005991415 0.0059967017884604325 0.005992938454894539 0.005989175121328647
          0.006620170015661694 0.006600725701038895 0.006581281386416098 0.006831042439046291 0.006826322084593071 0.006821601730139853
          0.00642904403558742 0.006448232295958698 0.006467420556329974 0.005239016035818304 0.005283052857538837 0.005327089679259371
          0.0033726542280194437 0.0034342682649439182 0.0034958823018683928 0.003181030777187939 0.001958070108794541 0.0033018994668716725
          0.0020454023974267876 0.003422768156555406 0.002132734686059034 0.0005997700187146259 0.0001355714115927354 0.00017162524780311222
          0.0008634755564295588 0.0006072683667059496 0.00013719249622301237 0.00017851688281833982 0.00090070452026099 0.0006147667146972732
          0.00013881358085328935 0.00018540851783356745 0.0009379334840924212 0 0 0
          0.0013787714967745035 0.0014007982228144385 0.001422824948854373 0 0 0
          0.005627339854718728 0.0055563247299630445 0.005625056493344191 0.005551860531839593 0.005622773131969653 0.00554739633371614
          0.00618338664785902 0.0061816639823988806 0.006179941316938742 0.0053642840407488075 0.005364988561918768 0.005365693083088727
          0.00592476380910315 0.005926816636517444 0.0059288694639317375 0.005087231847220599 0.005095800029975452 0.005104368212730306
          0.00364958248545383 0.0036622204214441095 0.0036748583574343885 0.0020223497058970957 0.002029845123505618 0.00203734054111414
          0.0007831647735762467 0.000785518911938694 0.0007878730503011412 0 0.00013053536552795766 0.00010555977150672458
          0 0.00013110824905044743 0.00010588589165343069 0 0.00013168113257293717 0.0001062120118001368
        </DataArray>
        <DataArray type="Float64" Name="pe11" format="ascii" RangeMin="-0.0014197027490779825" RangeMax="0.06569349643564243">
          0 0 0 0 0 0
          0 0 0 0 0 0
          0 0 0.000002932741717466133 0 0.000005865483434932266 0
          0.00008767557388821923 0.00006553427739618236 0.00011921875391862547 0.00008957061470148967 0.0001507619339490317 0.00011360695200679699
          0.0005895767834428599 0.0005194213561615693 0.0006626129029342439 0.0005888561339614183 0.0007356490224256279 0.0006582909117612674
          0.0018734399389595897 0.0017693604948807744 0.001957726610852048 0.0018576014439991646 0.0020420132827445063 0.0019458423931175551
          0.004206419194654794 0.004099002181918748 0.00425264915516327 0.004150323703913232 0.004298879115671745 0.004201645225907716
          0.007973374405387796 0.007895237900206544 0.007905162186096175 0.007826437452762285 0.00783694996680455 0.007757637005318023
          0.014267470240779987 0.01438835487933325 0.013953387569177892 0.014050928106551218 0.013639304897575793 0.013713501333769185
          0.02275360628427383 0.02205957117933334 0.02205290404458809 0.0213745294039739 0.021352201804902347 0.020689487628614462
          0 0 0 0 1.2662565618604238e-7 2.5325131237208475e-7
          0.000007818347273004538 0.000021825448730191346 0.00003583255018737816 0.00016890136407949483 0.00022306834545743811 0.00027723532683538143
          0.000806047516872107 0.0008869649004179855 0.0009678822839638641 0.002179104327962508 0.002251382750445516 0.0023236611729285247
          0.0045180602135453515 0.004549733757706095 0.00458140730186684 0.00818520429313221 0.00811849560386201 0.00805178691459181
          0.013894064710924723 0.013643716975221463 0.013393369239518203 0.020344333288640538 0.019878013837262697 0.019411694385884852
          0 4.0285784922233607e-7 8.057156984446721e-7 0.00000439158970788506 0.000012760335189889123 0.000021129080671893184
          0.00007581935427949299 0.00011096277289847811 0.00014610619151746325 0.0003963413361996637 0.0004661617273284038 0.000535982118457144
          0.0012008145452842719 0.0012770989588829066 0.0013533833724815414 0.002664877294972403 0.002717889661359953 0.0027709020277475035
          0.0049975676339002175 0.0050072960556243945 0.005017024477348574 0.00847288331061603 0.008407534278898147 0.008342185247180263
          0.013268621552161915 0.013107238168877645 0.012945854785593378 0.01819881356207026 0.018009084747207072 0.01781935593234388
          2.0326236598261593e-7 0.000010107242365325834 0.000020011222364669052 0.00003894438715156764 0.00007455924721599053 0.00011017410728041344
          0.00025727868807461074 0.0003183363543448039 0.0003793940206149971 0.0008006922472733292 0.0008676437013573577 0.0009345951554413862
          0.0017659138545634482 0.0018216129428707628 0.0018773120311780765 0.0032969946418664776 0.0033243349940604906 0.0033516753462545035
          0.005581911216981372 0.005565921386410006 0.00554993155583864 0.008748087186646457 0.008684069147071153 0.008620051107495849
          0.012477167060447797 0.012405764225605857 0.012334361390763915 0.014898734463017453 0.014927473841226772 0.014956213219436097
          0.000025071061159396216 0.00006115902274083016 0.00009724698432226412 0.0001699248344203735 0.00023551338933692004 0.0003011019442534666
          0.0005832389299229952 0.000656422191920608 0.0007296054539182212 0.0013385808759538817 0.0013937077575843333 0.0014488346392147846
          0.0024549620721568037 0.002484205738064274 0.0025134494039717424 0.004029771297352232 0.004025860969606938 0.0040219506418616435
          0.006189184579546499 0.00614867683458428 0.006108169089622059 0.00891593806308472 0.008857262311337105 0.008798586559589492
          0.01156761401312132 0.011571183687376285 0.01157475336163125 0.012604079774851139 0.01277395938829009 0.012943839001729044
          0.00014807738269123524 0.00020232966771560664 0.000256581952739978 0.00046493163203623446 0.0005300932044107344 0.0005952547767852343
          0.001076501739769232 0.0011305000116142692 0.0011844982834593066 0.0020077439636545587 0.0020332832100694856 0.002058822456484413
          0.0032403070740057677 0.003232757010044743 0.003225206946083718 0.004803103518515603 0.004765033534056388 0.004726963549597172
          0.006731910946608785 0.0066750195183894545 0.006618128090170122 0.008896174216598883 0.008855814722521291 0.0088154552284437
          0.010507803950178956 0.010579102003827815 0.010650400057476675 0.010556129286450517 0.01082349229417967 0.011090855301908823
          0.00043493478416524174 0.0004653858282360374 0.000495836872306833 0.0009438867922901347 0.0009630936443704901 0.0009823004964508457
          0.001733717174217962 0.0017304811368654032 0.0017272450995128447 0.002797281664962433 0.002765041490526675 0.0027328013160909164
          0.004082929589331803 0.0040246435860744785 0.003966357582817155 0.005548326185186933 0.005478369243712656 0.005408412302238379
          0.00713146378772078 0.007075506228980833 0.007019548670240886 0.008627733571765321 0.008630780858059121 0.008633828144352923
          0.009304954889184116 0.009451288045418466 0.009597621201652818 0.008632053907882095 0.008958775119637922 0.00928549633139375
          0.0008755215164419608 0.0008638191230947801 0.0008521167297475995 0.0015719164335928546 0.0015365446404012723 0.0015011728472096896
          0.002512863605165949 0.0024518480054598344 0.0023908324057537187 0.003655228584266434 0.003572608032206427 0.003489987480146419
          0.0049153855233328445 0.004822775704683592 0.004730165886034341 0.006189734830220509 0.006108840347224222 0.006027945864227937
          0.007334255754646888 0.0072960256625321206 0.007257795570417353 0.008107022501717662 0.00815401162149995 0.008201000741282237
          0.007984887961333674 0.008167838282799662 0.008350788604265651 0.006857073170175077 0.007156965471071495 0.00745685777196791
          0.0033324239103492085 0.0032721774534112376 0.0032119309964732667 0.004458040855863333 0.004386358695818642 0.004314676535773951
          0.0055923631522375545 0.005520303656386122 0.005448244160534689 0.006593247179349449 0.006537467628274392 0.006481688077199333
          0.007272514021730789 0.007254503970326722 0.007236493918922654 0.007379184528800787 0.007424846763226408 0.007470508997652029
          0.006601713737188472 0.006726862019574512 0.006852010301960551 0.005301666669112311 0.005485097314784191 0.005668527960456074
          0 0.000002361955621528391 0.00001868124867821 0 -8.22221693792371e-7 -0.0002953216503791924
          0.00006238539366060222 0 -0.000001644443387584742 -0.0005930052563799132 0.00010608953864299447 0
          0 0 -0.000022190788249529464 0 -0.00004438157649905893 0
          0 0 0 0.00009191060387975805 -0.00000937721582340312 0.000012931308144849002
          0.00018382120775951613 -0.00001875443164680624 0.000025862616289698003 0.03152765500606084 0.028507640923323474 0.036910915834246286
          0.03726778195605679 0.030487924898203244 0.02795226214139949 0.03574649992963347 0.03585040096847921 0.029448194790345647
          0.027396883359475505 0.03458208402502066 0.03443301998090163 0.006735820717142569 0.0036654247495446777 0.00019708919039940578
          0.0030727796623086934 0.007985286922653576 0.004034781827932329 0.0012352415671824611 0.004774635721493467 0.009234753128164585
          0.004404138906319981 0.0022733939439655163 0.006476491780678239 0.01837244394498827 0.0182342202411271 0.021906640958962793
          0.021286096331570914 0.01838582464076515 0.018416572215765384 0.021797050399678882 0.021065742316898395 0.018399205336542032
          0.018598924190403668 0.021687459840394975 0.02084538830222588 0.008400780313502705 0.00954359401278116 0.006493988895824013
          0.0050382405231824915 0.009015221789858089 0.010051321613804124 0.006971602315950251 0.005577510617896661 0.009629663266213473
          0.010559049214827084 0.007449215736076488 0.006116780712610831 0.00550882386591714 0.0071477157528967925 0.005831189302846598
          0.0075614689999303365 0.006153554739776055 0.00797522224696388 0.025130660191493376 0.02266625290498789 0.024723041808244303
          0.022666830108886638 0.024315423424995226 0.022667407312785385 0.000002108388570132847 0 0
          0.000011075254358052007 0.000050644571715460176 0.0002247685967151973 0.0001208232207352147 -0.0005347454771246102 0.0000991807548607875
          0.00044953719343039466 0.0002416464414704294 -0.0010805662086072723 0.028225010044252527 0.027926785347109472 0.03413103557408367
          0.03203175084220251 0.027218553985752625 0.026956493633086293 0.03272800635541889 0.03076163425379241 0.02621209792725273
          0.02598620191906311 0.031324977136754105 0.02949151766538231 0.028911930473508412 0.039598813718435266 0.02847553668743263
          0.038510101549938384 0.02803914290135685 0.0374213893814415 0.00009544314449314294 0.00027192786623530033 0.000009449189768990615
          0 0.00012832776397413972 0.00030524419237538025 0.000011103625768288123 1.0288320343940871e-7 0.00016121238345513647
          0.0003385605185154602 0.000012758061767585628 2.0576640687881742e-7 0.049002355389677246 0.06348936611312339 0.06034517331544439
          0.046041679502680816 0.04811732902759998 0.061183469630664546 0.05796851919449692 0.045154330864762594 0.047232302665522724
          0.058877573148205686 0.05559186507354944 0.04426698222684437 0 0 0
          0 -0.00021297248787398076 -0.000018452922913524865 0.000031467743924636074 -0.00016697466359092555 -0.00042594497574796153
          -0.00003690584582704973 0.00006293548784927215 -0.0003339493271818511 0.011661902810261407 0.011526594357014315 0.01215895833267124
          0.012123871572232514 0.012656013855081074 0.012721148787450716 0.02544212383024962 0.02480983733718376 0.024177550844117903
          0.0000165435505943699 0.000028486541283114614 -0.0000685933146292898 -0.0006956081038974342 -0.0001537301798529495 -0.0014197027490779825
          -0.00043812393489599586 0.0007448514861622942 0.00021393305528922147 -0.0006505382066581962 0.00042894339222730987 -0.00013159774374508438
          -0.0008629524784203963 0.00011303529829232556 -0.0004771285427793903 0.014594557483593345 0.012036775353776421 0.021360199143952735
          0.021706351861131443 0.015491709296065241 0.013055361323622443 0.022299741796146716 0.02204368668931872 0.01638886110853714
          0.014073947293468468 0.023239284448340693 0.022381021517505994 0.03711383341109463 0.03935486114591724 0.042581471111456236
          0.03544954513342134 0.03760023125891068 0.040504036148976894 0.033785256855748055 0.03584560137190414 0.03842660118649755
          0.004723447613244653 0.009004437232343931 0.0050565662753233025 0.009425922647213827 0.005389684937401953 0.009847408062083727
          -0.001093930104875989 0.0009405337004970639 0.000829543627193478 0.0027241571237653518 0.0027530173592629453 0.004507780547033639
          0.0042434933759899025 0.0020574167382089673 0.004968718152330881 0.0025859761814496693 0.0056939429286718595 0.003114535624690371
          0.05539985566005709 0.05329175828604271 0.058581716050465686 0.0600077662770348 0.05233080663610773 0.05055172605044803
          0.05567361262172692 0.056869773831500964 0.049261757612158355 0.04781169381485336 0.05276550919298814 0.05373178138596714
          0.014607136451521532 0.014506565878154661 0.01852291341817694 0.015051492501050881 0.015198657496246673 0.01892277797521767
          0.015495848550580229 0.015890749114338687 0.019322642532258398 0.0005039423827416303 0.00020313479673995713 0.00069752676824664
          0.0003713575530588179 0.0008911111537516496 0.0005395803093776785 0.014413948494357431 0.01137873398900552 0.01468573009660951
          0.011737934813839144 0.014957511698861583 0.012097135638672771 0.008486183226714746 0.009589043522147492 0.009224569001424257
          0.010427371310297025 0.009962954776133771 0.011265699098446559 0.0045198706340295195 0.0024678647802777354 0.0051482379575794775
          0.0028350768861203244 0.005776605281129436 0.003202288991962914 0 0 0
          0.0000024668629426594957 0 0 0.000004933725885318991 0 0
          0.002762549517481994 0.001397750851040685 0.0031089689499886916 0.0029393759771651575 0.0015182245898883989 0.003403758967579885
          0.0031162024368483225 0.0016386983287361126 0.003698548985171078 0.0441871447369548 0.04902131557059687 0.04911858940711501
          0.042057272180768906 0.046507079091559 0.046495627799682554 0.03992739962458301 0.04399284261252112 0.04387266619225011
          0.05153888219468501 0.04872533976483895 0.04591179733499289 0 0 0
          0 0 0 0 0 0
          0 0 0 0.04362968882783115 0.048524643870649815 0.04178508330217463
          0.046469064725877474 0.039940477776518116 0.044413485581105125 0 0 0
          0 0 0 0.0637472954585353 0.05243863566987759 0.06087906684052106
          0.05037747240145126 0.0580108382225068 0.048316309133024926 0.032064307078579254 0.03253028616154819 0.03199736732370635
          0.033048806178362956 0.03193042756883344 0.033567326195177716 0 0 0
          0.004027405986196712 0.004227315687576708 0.004427225388956702 0.012900279656554152 0.006600629074903258 0.014664391693372521
          0.008492826960984851 0.016428503730190887 0.010385024847066444 0.004350566565628837 0.004778898154129688 0.0052072297426305385
          -0.0006746037775116791 -0.0004080961231097493 -0.00014158846870781944 0 0.0000024668629426594957 0.000004933725885318991
          0.0009180507837091415 0.0010809752023689437 0.0012438996210287461 0 0 0
          -0.0008242323857119094 -0.0008373495984827287 -0.0008504668112535481 0.025095157641177136 0.026223766281302793 0.027352374921428443
          0.06569349643564243 0.06275638466724408 0.05981927289884573 0.027610668498774006 0.02665500665313994 0.02569934480750588
          0 0 0 0 -0.0000919956485661104 -0.0001839912971322208
          0.005100746535306651 0.005073067724917207 0.005045388914527762 0.005504506026658983 0.005499534393554241 0.005494562760449498
          0.005971549493145485 0.005944928021794884 0.005918306550444282 0.0059914960959568 0.005987754726008907 0.005984013356061016
          0.006606028149415976 0.006586651348815468 0.006567274548214959 0.00681323167213849 0.006808889162495475 0.00680454665285246
          0.006374629690022154 0.006394570861093244 0.006414512032164336 0.005110150034033339 0.005153884931292494 0.00519761982855165
          0.003201680647102415 0.00325999484740339 0.0033183090477043632 0.002939586391328511 0.0018265822700679049 0.0030522475565485842
          0.0019040540793413229 0.003164908721768658 0.0019815258886147413 0.0005791520129652132 0.00013241962767572454 0.00016590337061656658
          0.0008172526201565744 0.0005848471082492927 0.00013367022151410574 0.00017156279419427428 0.0008481442501094913 0.0005905422035333723
          0.00013492081535248688 0.00017722221777198194 0.000879035880062408 0 0 0
          0.0013240542434500594 0.0013425966098864531 0.001361138976322847 0 0 0
          0.005614347140599923 0.005551726326594439 0.005612185458270873 0.005547242807806282 0.005610023775941823 0.005542759289018125
          0.006170216198447908 0.00616862925269842 0.00616704230694893 0.005335012554900363 0.00533589811522887 0.005336783675557379
          0.005888182154789601 0.00589028321642078 0.005892384278051959 0.005014254450231615 0.005022188092892583 0.005030121735553552
          0.003552112153519758 0.0035626650146061275 0.003573217875692497 0.0019561641200625778 0.001961507256345177 0.0019668503926277762
          0.000762816737587669 0.0007641411720244706 0.0007654656064612723 0 0.00012886548746628314 0.00010441177001750378
          0 0.00012927130551250736 0.0001046344684243 0 0.0001296771235587316 0.00010485716683109625
        </DataArray>
        <DataArray type="Float64" Name="pe22" format="ascii" RangeMin="-0.029141444731620447" RangeMax="0.0007606683846036516">
          0 0 0 0 0 0
          0 0 0 0 0 0
          0 0 -0.0000010965706481881494 0 -0.0000021931412963762987 0
          -0.00003168393087576758 -0.00002333648080741484 -0.000040149869599344245 -0.000029542035147230435 -0.00004861580832292091 -0.00003574758948704603
          -0.0001939185423428776 -0.00016815048764455437 -0.00020185002563437388 -0.00017550380656015393 -0.00020978150892587017 -0.00018285712547575346
          -0.0005510634122443892 -0.0005118252348890156 -0.0005367717635159549 -0.0004982576213442262 -0.0005224801147875206 -0.0004846900077994368
          -0.0010940899149278643 -0.0010427824941516273 -0.0010481342486172275 -0.0009961841985065788 -0.0010021785823065908 -0.0009495859028615302
          -0.0018308424879651813 -0.001750904291276812 -0.0017556647630981139 -0.0016711458085429635 -0.0016804870382310464 -0.0015913873258091148
          -0.0027535506250752073 -0.002607702297863458 -0.00265151180956936 -0.0024944525969325766 -0.0025494729940635126 -0.0023812028960016954
          -0.004175041676536709 -0.003566557626594486 -0.0039776205349704935 -0.0033731388717269982 -0.0037801993934042794 -0.00317972011685951
          0 0 0 0 -5.2767833843263925e-8 -1.0553566768652785e-7
          -0.0000031688007014824746 -0.000008332420452467653 -0.000013496040203452828 -0.00006271014713722099 -0.00007805450596675567 -0.00009339886479629035
          -0.0002742524952270728 -0.00028327762825946796 -0.00029230276129186313 -0.0006678919318944094 -0.0006516856078867575 -0.0006354792838791055
          -0.001246183929121643 -0.0012024879939335326 -0.0011587920587454218 -0.0020552720161773905 -0.00199218716234588 -0.0019291023085143697
          -0.003099439167410709 -0.003028630430427658 -0.002957821693444607 -0.004350495543280352 -0.00425507194108938 -0.004159648338898407
          0 -1.7780293172256837e-7 -3.5560586344513675e-7 -0.0000019041365804713739 -0.000005320257420445876 -0.00000873637826042038
          -0.00003118450907688503 -0.000043510720097901245 -0.000055836931118917475 -0.00015188140527463525 -0.00016968264449307923 -0.00018748388371152316
          -0.0004231602568771111 -0.00042840444438946643 -0.0004336486319018218 -0.0008580368525953322 -0.0008398451902571546 -0.000821653527918977
          -0.0014887302835773098 -0.0014493593431344088 -0.0014099884026915078 -0.0023817678716261076 -0.0023354104048449054 -0.0022890529380637033
          -0.0034823118455844463 -0.0034556180023541075 -0.0034289241591237687 -0.004789057810143245 -0.004824891298316346 -0.004860724786489445
          -9.25075268487642e-8 -0.000004381520354054747 -0.00000867053318126073 -0.00001682063572729183 -0.00003089228066361418 -0.00004496392559993653
          -0.00010554835706397859 -0.00012520469309034308 -0.00014486102911670762 -0.00030983544822877566 -0.00032206239240159366 -0.0003342893365744117
          -0.0006377882455958579 -0.0006351632969869097 -0.0006325383483779612 -0.001113463623805511 -0.0010943477137666322 -0.0010752318037277535
          -0.0017985633185961924 -0.0017657784064061986 -0.0017329934942162044 -0.002747157648891082 -0.002719974837828172 -0.0026927920267652604
          -0.0038302127581729285 -0.003844515214643153 -0.003858817671113378 -0.004715992503241052 -0.004807737133179686 -0.004899481763118323
          -0.000011070690225236106 -0.000026069988789438156 -0.00004106928735364021 -0.00007200603773681568 -0.0000960339534561757 -0.00012006186917553569
          -0.0002351538849333848 -0.00025526726170688467 -0.0002753806384803846 -0.0005139078550676606 -0.0005192953203557164 -0.0005246827856437721
          -0.0008993309303738535 -0.0008911487392592363 -0.0008829665481446191 -0.0014212009088738326 -0.001402729946525187 -0.0013842589841765415
          -0.002143484768589624 -0.0021194295881463406 -0.002095374407703058 -0.0030896524486255317 -0.003081041060644887 -0.003072429672664243
          -0.004083874473076448 -0.004124173730967256 -0.004164472988858065 -0.004727428300772828 -0.0048345222687885565 -0.004941616236804286
          -0.00006260117273771143 -0.0000836691877193849 -0.00010473720270105838 -0.00018836124245496876 -0.00020942819427879038 -0.000230495146102612
          -0.0004182154541645168 -0.00042961681071759165 -0.00044101816727066645 -0.0007559227178056413 -0.0007544104183729715 -0.0007528981189403017
          -0.001196603168912107 -0.0011856304085142882 -0.0011746576481164695 -0.0017612939471636922 -0.0017455286578464638 -0.0017297633685292354
          -0.0024893094263861723 -0.0024753043253114854 -0.0024612992242367985 -0.0033647669416314017 -0.003371343052284828 -0.003377919162938256
          -0.004175014689983964 -0.004228672958628024 -0.004282331227272085 -0.004584707406565388 -0.004691108575953949 -0.00479750974534251
          -0.00017215316456501909 -0.0001834125243792615 -0.0001946718841935039 -0.00035793563915362573 -0.0003636499653119394 -0.00036936429147025305
          -0.0006398668406195714 -0.0006379598999993996 -0.0006360529593792278 -0.001026126817793802 -0.001017767020476833 -0.001009407223159864
          -0.001514923566123105 -0.00150331317347503 -0.0014917027808269549 -0.0021093436498781193 -0.0020985683301395696 -0.0020877930104010204
          -0.0028059885543620685 -0.0028026110245326797 -0.002799233494703291 -0.003544738108734268 -0.0035630692412154615 -0.0035814003736966554
          -0.004116924121113104 -0.004175188954370972 -0.00423345378762884 -0.004251644348136019 -0.004351877997260963 -0.0044521116463859065
          -0.00032416468879310507 -0.0003190512661513788 -0.0003139378435096526 -0.0005605471825050084 -0.0005489973870399025 -0.0005374475915747967
          -0.0008873543112569232 -0.0008719613545535937 -0.0008565683978502645 -0.0013141852865070896 -0.0012987422603484462 -0.0012832992341898026
          -0.0018376316704109591 -0.0018255881072357805 -0.0018135445440606024 -0.0024401136304465403 -0.0024350070666353425 -0.0024299005028241448
          -0.0030718335552237476 -0.0030796491495586765 -0.0030874647438936054 -0.003623727279474672 -0.0036541213328780543 -0.003684515386281436
          -0.003920012177992849 -0.003980931864077262 -0.004041851550161676 -0.003786372351407533 -0.0038750200692826723 -0.003963667787157813
          -0.0012400744079862293 -0.0012242640463910495 -0.0012084536847958693 -0.0017065270534471885 -0.001694021210160144 -0.0016815153668730996
          -0.0022426407180012715 -0.0022365256315843756 -0.00223041054516748 -0.002804600570766673 -0.00280741613673076 -0.0028102317026948475
          -0.003303309129438632 -0.0033194709633769573 -0.003335632797315283 -0.003590817104344721 -0.0036245520828804044 -0.003658287061416088
          -0.003521620861900185 -0.003570094779648513 -0.0036185686973968416 -0.0031819239929000314 -0.003237239073781215 -0.003292554154662398
          0 -0.0000014190069223451691 -0.000010327464794657374 0 -0.00012217860702450257 -0.000058392286813659404
          -0.00001866737102118049 0 -0.00024435721404900514 -0.00011536556670497367 -0.000027007277247703603 0
          0 0 0.000013486408109389915 0 0.00002697281621877983 0
          0 0 0 -0.00009149629547999034 0.000009749017739383914 -0.000014375563619242195
          -0.00018299259095998067 0.000019498035478767827 -0.000028751127238484387 -0.008508773583459896 -0.007788706515950742 -0.01174236138583119
          -0.011503361478989104 -0.007991721743239833 -0.0076066223427925985 -0.010984207154994523 -0.010606995567034327 -0.007474669903019769
          -0.007424538169634459 -0.010226052924157854 -0.009710629655079548 -0.001349965971826484 -0.001338866372267575 -0.0002682780087120488
          -0.0008211615290171378 -0.0017795261472927054 -0.0010319419317043142 -0.0003363556447325577 -0.0011506395948478443 -0.0022090863227589267
          -0.0007250174911410534 -0.00040443328075306657 -0.001480117660678551 -0.005549463125421934 -0.005701491311101444 -0.005792528197607322
          -0.005497294568551533 -0.005704954120063426 -0.005927782991136103 -0.00593269492801961 -0.0055718714178261235 -0.005860445114704918
          -0.006154074671170762 -0.006072861658431896 -0.005646448267100714 -0.004361139639441426 -0.00456769799848898 -0.00355516946167677
          -0.0028158983610342123 -0.004562267702411427 -0.004772398118456549 -0.0036751203423007264 -0.0029297129798441903 -0.004763395765381428
          -0.004977098238424117 -0.0037950712229246827 -0.003043527598654169 -0.003287736204131871 -0.00392664334760102 -0.003375485802177061
          -0.004036979749627233 -0.0034632354002222506 -0.0041473161516534475 -0.006371589189937423 -0.006239721183519496 -0.006359991241373004
          -0.0064396565832851175 -0.006348393292808585 -0.006639591983050738 -8.050546439953298e-7 0 0
          0.00003981507568813227 -0.00013554268609388195 -0.000232280083963919 -0.00010559044593899226 -0.0000490254774631384 -0.0002702803175437686
          -0.000464560167927838 -0.00021118089187798457 -0.00013786603061440906 -0.005685752943978123 -0.006077294716804287 -0.009530294667898067
          -0.00798152482205673 -0.0052944489166171435 -0.005716940354857199 -0.008748967602699397 -0.007340949068222119 -0.004903144889256165
          -0.0053565859929101105 -0.007967640537500726 -0.006700373314387509 -0.008508375001482897 -0.0147483126152261 -0.008351316781180671
          -0.013916057446278746 -0.008194258560878444 -0.013083802277331389 -0.00005282393120141694 -0.00015145247489462102 -0.0000051405205493219175
          0 -0.00005944680808635759 -0.0001554521242315969 -0.0000056970267379227684 -4.6202787130864594e-8 -0.00006606968497129824
          -0.00015945177356857274 -0.00000625353292652362 -9.240557426172919e-8 -0.021524294726924083 -0.029141444731620447 -0.02751504104396546
          -0.019786386964302644 -0.020638393165943385 -0.02700109964876579 -0.0253975049808675 -0.019049677582069123 -0.019752491604962685
          -0.024860754565911133 -0.02327996891776954 -0.01831296819983561 0 0 0
          0 0.0003027148612417012 0.000039261527675134526 -0.00004424224950900115 0.00020358723342824933 0.0006054297224834024
          0.00007852305535026905 -0.0000884844990180023 0.00040717446685649867 -0.0050358513603827116 -0.005316355275791289 -0.005294366431097171
          -0.005587320705259656 -0.005552881501811632 -0.005858286134728026 -0.00602851482427718 -0.005866575089862921 -0.005704635355448663
          -0.000023820349884813382 -0.000029474226185551692 -0.0006305475238591769 -0.00030291595013527965 -0.0012372746978335405 -0.0005763576740850074
          0.0000957798504261863 -0.00034288742879401467 -0.00009564519500882168 -0.00015268565972623984 0.0001719494996168077 0.00008504965923500955
          -0.00040115116987866597 0.0006867864280276303 0.00026574451347884077 -0.004895086404808349 -0.0034078967414452863 -0.006343318527661493
          -0.005890710763020041 -0.005264275784717716 -0.003784261681158933 -0.007120446672798686 -0.006250348991667174 -0.0056334651646270835
          -0.00416062662087258 -0.00789757481793588 -0.00660998722031431 -0.011264336353742913 -0.012625196386064205 -0.014879818951941353
          -0.010260705838293206 -0.011441264717986462 -0.013369344905632014 -0.009257075322843497 -0.010257333049908716 -0.011858870859322681
          -0.002793647785809394 -0.004400021825109523 -0.0028676925510275697 -0.004531319879813691 -0.0029417373162457456 -0.00466261793451786
          0.0004271646619740336 -0.0003386720864971921 -0.0009371555518394896 -0.0011073359864129898 -0.0023014757656530127 -0.0018759998863287876
          -0.001800265293691732 -0.0010255447461024725 -0.0020592130248199207 -0.0011541488664927285 -0.0023181607559481098 -0.001282752986882985
          -0.02300281443751724 -0.02174255440177882 -0.024615390236125047 -0.02449991520858577 -0.020441022605725806 -0.019482636842742675
          -0.02205245675136781 -0.02169271622658875 -0.017879230773934367 -0.017222719283706535 -0.01948952326661057 -0.01888551724459173
          -0.005533069556628664 -0.005337326898580928 -0.005529355523503502 -0.005800156575364144 -0.005730730994871554 -0.005895138984149511
          -0.006067243594099623 -0.006124135091162178 -0.006260922444795523 -0.0002680116915594208 -0.00010060057110215642 -0.00031449367454919786
          -0.00013988339595706343 -0.0003609756575389749 -0.00017916622081197043 -0.0052188053281016136 -0.0047508807336068375 -0.005419987132967692
          -0.004920841046648332 -0.00562116893783377 -0.005090801359689827 -0.0038906038418816662 -0.003718184496035206 -0.004165034718673744
          -0.0039229117467917286 -0.004439465595465822 -0.004127638997548252 -0.002308570593699311 -0.0014765980315211977 -0.002431725645425331
          -0.0015500352142353091 -0.0025548806971513517 -0.0016234723969494208 0 0 0
          -0.0000021471162344580208 0 0 -0.0000042942324689160415 0 0
          -0.0017243301211708366 -0.0008517140490216178 -0.0018820838607962128 -0.0017569624524621777 -0.00087201072579112 -0.001941793095912564
          -0.0017895947837535192 -0.0008923074025606225 -0.002001502331028915 -0.016045207554466392 -0.019452976879782837 -0.01988858813507643
          -0.014477588734274495 -0.01747000610656992 -0.017755059363550457 -0.012909969914082596 -0.015487035333357001 -0.015621530592024487
          -0.021169614076736832 -0.0188522745607735 -0.01653493504481017 0 0 0
          0 0 0 0 0 0
          0 0 0 -0.015711067975412184 -0.01939416225200808 -0.014379828048115629
          -0.017687982680322376 -0.013048588120819072 -0.015981803108636672 0 0 0
          0 0 0 -0.027862421496617846 -0.022785990384299674 -0.025238125827040808
          -0.021020646149536876 -0.022613830157463766 -0.01925530191477408 -0.010936293553186208 -0.012731326719729577 -0.011068378849374644
          -0.013217009824957772 -0.01120046414556308 -0.013702692930185965 0 0 0
          -0.0025561583652153014 -0.0026029721779219123 -0.002649785990628524 -0.0026260895344463937 -0.0002659178642048521 -0.003948681222116963
          -0.001319263764535562 -0.005271272909787532 -0.002372609664866272 -0.002590152413604999 -0.0026792689243046474 -0.002768385435004297
          0.0004066214190175709 -0.0006606525943708811 -0.0017279266077593332 0 -0.0000021471162344580208 -0.0000042942324689160415
          -0.000531681752050637 -0.0005646656186496047 -0.0005976494852485725 0 0 0
          0.0007606683846036516 -0.00015096479146776883 -0.0010625979675391892 -0.00848926127587755 -0.009450283229625073 -0.010411305183372598
          -0.02840808419992035 -0.02567402915123351 -0.02293997410254666 -0.005206954314260864 -0.004829792291365679 -0.004452630268470495
          0 0 0 0 0.00019825525562690372 0.00039651051125380745
          -0.0022410270585223446 -0.0022419613460588914 -0.0022428956335954382 -0.002684486015382116 -0.0026914993348945665 -0.0026985126544070174
          -0.002725971827174708 -0.0027316859782482274 -0.002737400129321748 -0.003014884440565595 -0.003024608540835096 -0.003034332641104598
          -0.0031493588947003217 -0.0031603060568364478 -0.0031712532189725733 -0.0033987776684245613 -0.003416182644033685 -0.0034335876196428085
          -0.0033297635722612583 -0.003352354569060535 -0.0033749455658598116 -0.0028356264691928616 -0.0028548392177089443 -0.002874051966225027
          -0.001924813364794812 -0.0019316653674113428 -0.0019385173700278736 -0.0018721098955987653 -0.0011148636101073923 -0.0018853838254452367
          -0.001120178569889027 -0.001898657755291708 -0.0011254935296706613 -0.00032443264576668425 -0.00007055443541924522 -0.00009312945664045093
          -0.0004816817904006423 -0.0003200604201140354 -0.00006933057539584074 -0.00009222558559010538 -0.00048156215266004 -0.00031568819446138645
          -0.00006810671537243628 -0.00009132171453975986 -0.0004814425149194377 0 0 0
          -0.0007627979860757876 -0.000754851052518056 -0.0007469041189603246 0 0 0
          -0.002957439431882032 -0.002848202137930359 -0.0029649477034206844 -0.002854252457326503 -0.002972455974959337 -0.0028603027767226466
          -0.0032013584772391437 -0.0032132154395891044 -0.0032250724019390656 -0.002880097120545877 -0.002888183227612916 -0.0028962693346799556
          -0.003141496727963258 -0.0031544561020448903 -0.0031674154761265226 -0.0027392352348702097 -0.0027500127711138035 -0.0027607903073573977
          -0.0019837760767450544 -0.0019859972352555297 -0.0019882183937660054 -0.0011041547574949487 -0.0010975576967428282 -0.0010909606359907078
          -0.00042105907410680126 -0.0004152621084139316 -0.000409465142721062 0 -0.0000643530100939098 -0.00005161672786057935
          0 -0.00006353064132381291 -0.0000512296194070012 0 -0.00006270827255371604 -0.00005084251095342306
        </DataArray>
        <DataArray type="Float64" Name="pe33" format="ascii" RangeMin="-0.037285412235721946" RangeMax="0.001996060423167319">
          0 0 0 0 0 0
          0 0 0 0 0 0
          0 0 -0.000001836171069277984 0 -0.000003672342138555968 0
          -0.00005599164301245163 -0.0000421977965887675 -0.0000790688843192812 -0.00006002857955425921 -0.00010214612562611079 -0.00007785936251975093
          -0.00039565824109998217 -0.0003512708685170147 -0.0004607628772998699 -0.00041335232740126427 -0.0005258675134997575 -0.00047543378628551374
          -0.0013223765267151998 -0.0012575352599917583 -0.0014209548473360924 -0.0013593438226549381 -0.0015195331679569851 -0.0014611523853181178
          -0.003112329279726929 -0.0030562196877671204 -0.0032045149065460417 -0.0031541395054066525 -0.0032967005333651538 -0.003252059323046185
          -0.006142531917422615 -0.0061443336089297305 -0.006149497422998059 -0.006155291644219319 -0.006156462928573504 -0.006166249679508908
          -0.01151391961570478 -0.011780652581469788 -0.01130187575960853 -0.011556475509618643 -0.011089831903512279 -0.011332298437767493
          -0.01857856460773711 -0.018493013552738854 -0.018075283509617575 -0.018001390532246905 -0.01757200241149805 -0.01750976751175496
          0 0 0 0 -7.385782234277845e-8 -1.477156446855569e-7
          -0.000004649546571522061 -0.000013493028277723692 -0.000022336509983925327 -0.00010619121694227377 -0.0001450138394906824 -0.000183836462039091
          -0.0005317950216450341 -0.0006036872721585174 -0.0006755795226720008 -0.0015112123960680979 -0.0015996971425587582 -0.0016881818890494183
          -0.0032718762844237076 -0.0033472457637725617 -0.003422615243121417 -0.006129932276954818 -0.006126308441516128 -0.00612268460607744
          -0.010794625543514007 -0.010615086544793796 -0.010435547546073584 -0.015993837745360104 -0.015622941896173212 -0.01525204604698632
          0 -2.250549174997676e-7 -4.501098349995352e-7 -0.000002487453127413685 -0.000007440077769443239 -0.000012392702411472793
          -0.00004463484520260796 -0.00006745205280057688 -0.00009026926039854576 -0.00024445993092502835 -0.00029647908283532453 -0.00034849823474562066
          -0.0007776542884071609 -0.00084869451449344 -0.0009197347405797193 -0.0018068404423770698 -0.0018780444711027978 -0.0019492484998285256
          -0.003508837350322906 -0.0035579367124899852 -0.0036070360746570653 -0.00609111543898992 -0.006072123874053237 -0.006053132309116555
          -0.00978630970657745 -0.009651620166523515 -0.009516930626469581 -0.013409755751926844 -0.013184193448890491 -0.012958631145854138
          -1.1075483913385172e-7 -0.0000057257220112710865 -0.000011340689183408321 -0.000022123751424275814 -0.00004366696655237635 -0.00006521018168047689
          -0.00015173033101063217 -0.00019313166125446078 -0.00023453299149828945 -0.0004908567990445535 -0.0005455813089557639 -0.0006003058188669744
          -0.0011281256089675906 -0.0011864496458838527 -0.001244773682800115 -0.002183531018060966 -0.0022299872802938577 -0.0022764435425267496
          -0.0037833478983851786 -0.0038001429800038067 -0.0038169380616224348 -0.006000929537755372 -0.005964094309242977 -0.0059272590807305835
          -0.008646954302274839 -0.008561249010962666 -0.008475543719650494 -0.010182741959776247 -0.01011973670804689 -0.010056731456317532
          -0.000014000370934160108 -0.00003508903395139201 -0.0000561776969686239 -0.00009791879668355781 -0.00013947943588074434 -0.0001810400750779309
          -0.0003480850449896103 -0.00040115493021372335 -0.00045422481543783643 -0.0008246730208862209 -0.0008744124372286168 -0.0009241518535710127
          -0.0015556311417829502 -0.0015930569988050368 -0.0016304828558271235 -0.002608570388478399 -0.00262313102308175 -0.002637691657685101
          -0.004045699810956873 -0.004029247246437937 -0.0040127946819190005 -0.0058262856144591785 -0.005776221250692209 -0.005726156886925241
          -0.007483739540044838 -0.0074470099564089886 -0.007410280372773141 -0.007876651474078213 -0.007939437119501408 -0.008002222764924606
          -0.0000854762099535238 -0.00011866047999622169 -0.00015184475003891958 -0.00027657038958126565 -0.00032066501013194393 -0.0003647596306826222
          -0.0006582862856047151 -0.0007008832008966776 -0.00074348011618864 -0.0012518212458489176 -0.0012788727916965142 -0.0013059243375441107
          -0.0020437039050936606 -0.0020471266015304546 -0.002050549297967248 -0.00304180957135191 -0.003019504876209923 -0.002997200181067936
          -0.00424260152022261 -0.004199715193077966 -0.004156828865933321 -0.00553140727496747 -0.005484471670236452 -0.005437536065505433
          -0.006332789260194962 -0.006350429045199758 -0.006368068830204554 -0.0059714218798850765 -0.006132383718225654 -0.006293345556566233
          -0.0002627816196002227 -0.0002819733038567759 -0.00030116498811332904 -0.0005859511531365088 -0.0005994436790585507 -0.0006129362049805925
          -0.0010938503335983904 -0.0010925212368660035 -0.001091192140133617 -0.0017711548471686313 -0.0017472744700498422 -0.0017233940929310527
          -0.0025680060232086974 -0.002521330412599448 -0.0024746548019901993 -0.0034389825353088126 -0.003379800913573085 -0.0033206192918373567
          -0.004325475233358708 -0.00427289520444815 -0.004220315175537591 -0.0050829954630310405 -0.005067711616843648 -0.005052427770656256
          -0.005188030768070987 -0.005276099091047469 -0.005364167414023952 -0.004380409559746048 -0.004606897122376927 -0.0048333846850078035
          -0.0005513568276488555 -0.0005447678569434012 -0.0005381788862379468 -0.001011369251087846 -0.0009875472533613693 -0.0009637252556348926
          -0.0016255092939090254 -0.00157988665090624 -0.001534264007903454 -0.0023410432977593438 -0.0022738657718579802 -0.002206688245956617
          -0.0030777538529218845 -0.002997187597447811 -0.002916621341973737 -0.003749621199773967 -0.003673833280588879 -0.00359804536140379
          -0.004262422199423135 -0.00421637651297344 -0.004170330826523743 -0.004483295222242978 -0.004499890288621884 -0.004516485355000789
          -0.004064875783340808 -0.004186906418722381 -0.004308937054103955 -0.0030707008187675325 -0.0032819454017888063 -0.0034931899848100797
          -0.0020923495023629783 -0.0020479134070201877 -0.0020034773116773966 -0.002751513802416144 -0.0026923374856584973 -0.0026331611689008505
          -0.003349722434236282 -0.003283778024801746 -0.0032178336153672084 -0.003788646608582775 -0.0037300514915436294 -0.0036714563745044843
          -0.003969204892292154 -0.00393503300694976 -0.0039008611216073677 -0.003788367424456059 -0.0038002946803459966 -0.003812221936235934
          -0.0030800928752882806 -0.003156767239925991 -0.003233441604563701 -0.0021197426762122745 -0.002247858241002972 -0.002375973805793669
          0 -9.429486991832221e-7 -0.000008353783883552623 0 0.00012300082871705788 0.00035371393718359057
          -0.00004371802263942174 0 0.00024600165743411575 0.0007083708230663642 -0.00007908226139529086 0
          0 0 0.000008704380140139547 0 0.000017408760280279095 0
          0 0 0 -4.143083997692432e-7 -3.718019159807868e-7 0.0000014442554743930757
          -8.286167995384878e-7 -7.436038319615736e-7 0.0000028885109487861515 -0.0230188814226008 -0.020718934407372293 -0.025168554448414898
          -0.025764420477067645 -0.022496203154963205 -0.020345639798605923 -0.0247622927746385 -0.02524340540144485 -0.021973524887325607
          -0.019972345189839556 -0.02435603110086211 -0.02472239032582206 -0.005385854745313269 -0.0023265583772766954 0.00007118881831450478
          -0.0022516181332902963 -0.006205760775348842 -0.003002839896215687 -0.0008988859224289536 -0.0036239961266359816 -0.0070256668053844135
          -0.0036791214151546785 -0.0018689606631724122 -0.0049963741199816674 -0.01282298081956601 -0.012532728930025074 -0.016114112761354864
          -0.015788801763019014 -0.01268087052070125 -0.012488789224628384 -0.015864355471658344 -0.015493870899071767 -0.01253876022183649
          -0.012444849519231693 -0.015614598181961824 -0.015198940035124519 -0.004039640674061186 -0.004975896014292096 -0.0029388194341472213
          -0.002222342162148267 -0.0044529540874465095 -0.005278923495347441 -0.0032964819736494935 -0.0026477976380524498 -0.004866267500831833
          -0.005581950976402786 -0.0036541445131517657 -0.0030732531139566334 -0.0022210876617852595 -0.0032210724052957507 -0.002455703500669525
          -0.0035244892503030747 -0.0026903193395537896 -0.0038279060953103983 -0.018759071001555504 -0.016426531721467377 -0.018363050566870587
          -0.016227173525599912 -0.017967030132185667 -0.016027815329732444 -0.0000013033339261375119 0 0
          -0.00005089033004618322 0.00008489811437854587 0.000007511487248719809 -0.000015232774796222471 0.0005837709545881344 0.0001710995626832293
          0.000015022974497439616 -0.000030465549592444942 0.0012184322392224522 -0.0225392571002744 -0.021849490630305144 -0.024600740906185577
          -0.024050226020145782 -0.021924105069135485 -0.02123955327822905 -0.0239790387527195 -0.023420685185570295 -0.021308953037996573
          -0.020629615926152957 -0.02335733659925342 -0.02279114435099482 -0.02040355547202452 -0.024850501103208692 -0.020124219906249304
          -0.024594044103658324 -0.01984488434047409 -0.02433758710410796 -0.00004261921329172603 -0.00012047539134067932 -0.0000043086692196686954
          0 -0.00006888095588778213 -0.0001497920681437834 -0.000005406599030365351 -5.6680416308544095e-8 -0.00009514269848383821
          -0.00017910874494688741 -0.000006504528841062005 -1.1336083261708819e-7 -0.027478060662752966 -0.03434792138150275 -0.03283013227147876
          -0.02625529253837803 -0.02747893586165723 -0.03418236998192475 -0.03257101421364318 -0.026104653282692975 -0.0274798110605615
          -0.034016818582346744 -0.0323118961558076 -0.02595401402700792 0 0 0
          0 -0.00008974237336772212 -0.00002080860476161063 0.000012774505584364532 -0.00003661256983732484 -0.00017948474673544425
          -0.00004161720952322127 0.000025549011168729057 -0.00007322513967464969 -0.006626051449878563 -0.006210239081222861 -0.006864591901573856
          -0.006536550866972569 -0.007103132353269151 -0.006862862652722276 -0.019413609005972186 -0.018943262247320493 -0.018472915488668796
          0.000007276799290442749 9.876849024363198e-7 0.0006991408384846704 0.0009985240540348775 0.0013910048776788978 0.001996060423167319
          0.0003423440844706247 -0.00040196405736888345 -0.00011828786028039977 0.0008032238664075564 -0.0006008928918227603 0.000046548084514943955
          0.0012641036483444883 -0.0007998217262766372 0.00021138402931028777 -0.009699471078783915 -0.008628878612328826 -0.015016880616289158
          -0.015815641098110098 -0.010227433511345327 -0.009271099642457916 -0.01517929512333358 -0.01579333769764838 -0.010755395943906738
          -0.009913320672587005 -0.015341709630377998 -0.015771034297186664 -0.025849497057351713 -0.026729664759853024 -0.027701652159514877
          -0.025188839295128166 -0.026158966540924262 -0.027134691243344927 -0.024528181532904623 -0.025588268321995504 -0.02656773032717497
          -0.0019297998274352517 -0.004604415407234361 -0.0021888737242957224 -0.0048946027674000745 -0.002447947621156194 -0.005184790127565788
          0.0006667654429039523 -0.000601861613999768 0.00010761192465376093 -0.0016168211373501573 -0.0004515415935964303 -0.0026317806607005466
          -0.002443228082298149 -0.0010318719921064915 -0.0029095051275109113 -0.0014318273149569345 -0.003375782172723673 -0.0018317826378073776
          -0.03239704122253986 -0.031549203884263896 -0.03396632581434066 -0.03550785106844907 -0.03188978403038512 -0.031069089207707394
          -0.03362115587036775 -0.03517705760492715 -0.03138252683823038 -0.030588974531150885 -0.033275985926394844 -0.03484626414140522
          -0.009074066894892555 -0.009169238979573203 -0.012993557894672325 -0.009251335925686225 -0.009467926501374171 -0.013027638991066482
          -0.009428604956479895 -0.009766614023175139 -0.013061720087460638 -0.00023593069118220953 -0.00010253422563780071 -0.000383033093697442
          -0.0002314741571017543 -0.0005301354962126745 -0.000360414088565708 -0.0091951431662556 -0.006627853255398562 -0.009265742963641502
          -0.00681709376719065 -0.009336342761027405 -0.007006334278982737 -0.004595579384832919 -0.005870859026111909 -0.005059534282750212
          -0.006504459563504345 -0.005523489180667506 -0.007138060100896785 -0.0022113000403301965 -0.0009912667487565357 -0.0027165123121541263
          -0.0012850416718850123 -0.003221724583978056 -0.0015788165950134884 0 0 0
          -3.1974670820147347e-7 0 0 -6.394934164029469e-7 0 0
          -0.0010382193963111561 -0.0005460368020190671 -0.0012268850891924768 -0.0011824135247029792 -0.0006462138640972783 -0.001461965871667317
          -0.0013266076530948018 -0.0007463909261754896 -0.001697046654142157 -0.028141937182488405 -0.02956833869081401 -0.029230001272038578
          -0.027579683446494464 -0.029037072984989237 -0.02874056843613216 -0.027017429710500515 -0.028505807279164463 -0.02825113560022574
          -0.03036926811794817 -0.02987306520406567 -0.029376862290183173 0 0 0
          0 0 0 0 0 0
          0 0 0 -0.027918620852418953 -0.02913048161864174 -0.027405255254059124
          -0.028781082045555708 -0.026891889655699285 -0.028431682472469674 0 0 0
          0 0 0 -0.03588487396191737 -0.029652645285577862 -0.03564094101350003
          -0.02935682625191526 -0.03539700806508269 -0.029061007218252645 -0.02112801352539251 -0.019798959441817917 -0.02092898847432857
          -0.019831796353382888 -0.02072996342326463 -0.01986463326494785 0 0 0
          -0.0014712476209814093 -0.0016243435096547924 -0.0017774393983281751 -0.010274190122105604 -0.006334711210698112 -0.010715710471235793
          -0.0071735631964432245 -0.011157230820365982 -0.008012415182188337 -0.001760414152023834 -0.002099629229825031 -0.0024388443076262274
          0.00026798235849530787 0.0010687487174823036 0.0018695150764692994 0 -3.1974670820147347e-7 -6.394934164029469e-7
          -0.00038636903165850455 -0.000516309583719339 -0.0006462501357801735 0 0 0
          0.00006356400110841663 0.0009883143899508985 0.0019130647787933804 -0.0166058963652989 -0.01677348305165083 -0.016941069738002763
          -0.037285412235721946 -0.03708235551603863 -0.03687929879635533 -0.022403714184513146 -0.02182521436177427 -0.0212467145390354
          0 0 0 0 -0.00010625960706079458 -0.00021251921412158916
          -0.0028597194767843066 -0.0028311063788583144 -0.0028024932809323235 -0.002820020011276866 -0.002808035058659673 -0.00279605010604248
          -0.0032455776659707754 -0.003213242043546655 -0.0031809064211225343 -0.0029766116553912023 -0.0029631461851738093 -0.0029496807149564166
          -0.0034566692547156525 -0.003426345291979018 -0.0033960213292423833 -0.003414454003713927 -0.0033927065184617875 -0.003370959033209648
          -0.0030448661177608933 -0.0030422162920327074 -0.003039566466304521 -0.0022745235648404753 -0.002299045713583548 -0.002323567862326621
          -0.0012768672823076025 -0.0013283294799920462 -0.0013797916776764894 -0.0010674764957297445 -0.0007117186599605123 -0.0011668637311033469
          -0.0007838755094522957 -0.0012662509664769493 -0.0008560323589440794 -0.0002547193671985289 -0.00006186519225647931 -0.00007277391397611566
          -0.000335570829755932 -0.0002647866881352573 -0.00006433964611826496 -0.00007933720860416888 -0.0003665820974494511 -0.00027485400907198583
          -0.0000668140999800506 -0.0000859005032322221 -0.0003975933651429702 0 0 0
          -0.0005612562573742716 -0.000587745557368397 -0.0006142348573625224 0 0 0
          -0.0026569077087178895 -0.002703524188664079 -0.002647237754850187 -0.0026929903504797773 -0.0026375678009824847 -0.0026824565122954766
          -0.002968857721208763 -0.002955413813109313 -0.002941969905009863 -0.002454915434354485 -0.002447714887615954 -0.0024405143408774226
          -0.0027466854268263408 -0.002735827114375888 -0.0027249688019254353 -0.002275019215361406 -0.0022721753217787794 -0.0022693314281961533
          -0.001568336076774704 -0.0015766677793505976 -0.0015849994819264915 -0.0008520093625676291 -0.0008639495596023488 -0.0008758897566370685
          -0.0003417576634808677 -0.000348879063610539 -0.0003560004637402103 0 -0.00006451247737237333 -0.00005279504215692442
          0 -0.00006574066418869444 -0.00005340484901729879 0 -0.00006696885100501555 -0.00005401465587767318
        </DataArray>
        <DataArray type="Float64" Name="disp_x" format="ascii" RangeMin="0" RangeMax="0.000022293602021026754">
          1.3964485068825216e-7 0 1.399889238547817e-7 0 1.4002975972952607e-7 0
          1.3779430069213172e-7 0 1.3863560012368796e-7 0 1.3956610238527221e-7 0
          1.3273351278812067e-7 0 1.3665886954622413e-7 0 1.4262876294625845e-7 0
          1.4061236862483185e-7 0 1.4165092786213534e-7 0 1.4783600937815988e-7 0
          1.7576267809013686e-7 0 1.8413115854671507e-7 0 2.123969782757285e-7 0
          3.075793557413374e-7 0 3.1863972620482073e-7 0 3.531118334582501e-7 0
          5.606934091930445e-7 0 5.681157609143257e-7 0 5.922619439295164e-7 0
          9.721920130262124e-7 0 9.668813874358304e-7 0 9.557721904001516e-7 0
          0.0000016240349911198653 0 0.0000015938211509890951 0 0.000001501420432326391 0
          0.0000028930610471756633 0 0.0000028107606509608844 0 0.0000025364626574429497 0
          2.7895891354866197e-7 2.7995587842125193e-7 2.806561379481476e-7 2.754694096764917e-7 2.7754678401497695e-7 2.8055965440282757e-7
          2.662370947379591e-7 2.726737870594539e-7 2.872155150002502e-7 2.806173571175305e-7 2.869779614460587e-7 3.0907083010825186e-7
          3.6884282480099013e-7 3.863422616031154e-7 4.441306312090367e-7 6.408236652421122e-7 6.616426438349444e-7 7.268451820021809e-7
          0.0000011477246591348563 0.0000011609976085781885 0.000001204804424607533 0.0000019651108358171717 0.0000019547510398280813 0.000001930804628192541
          0.0000032518678859639265 0.0000031928260438584944 0.0000030189451757631298 0.000005639594999523715 0.0000054870016638587296 0.000004989731351220296
          4.17779223113649e-7 4.1980846388360845e-7 4.226271106642583e-7 4.1243178198457617e-7 4.166430928533492e-7 4.2442604638066005e-7
          4.0361674355816565e-7 4.105626364980609e-7 4.309246750709094e-7 4.184434010971492e-7 4.379814192259633e-7 5.051191110378243e-7
          5.994297613328602e-7 6.265457699062906e-7 7.11084732829375e-7 0.0000010224112650721425 0.0000010507737978112345 0.0000011406236033619102
          0.0000017845903239438007 0.000001801089291418162 0.0000018562688427524134 0.0000029984069557051514 0.000002982308834266978 0.0000029419651062578205
          0.000004869219852551642 0.000004786452477385957 0.000004549844748548462 0.000008117975035081376 0.000007918625948171467 0.000007281245041634933
          5.558149861671053e-7 5.598062359204858e-7 5.670240364578588e-7 5.495201459975813e-7 5.552662151846746e-7 5.740696202027218e-7
          5.514813649007862e-7 5.613077986548782e-7 6.065645841568024e-7 6.073372339512336e-7 6.382878055126658e-7 7.304387783818865e-7
          8.856220591063262e-7 9.205513042397996e-7 0.0000010299813896917587 0.000001471641952368825 0.0000015050405161936093 0.0000016102878673365543
          0.0000024898931321577223 0.0000025061621156833 0.000002562088983681918 0.0000040802532777087814 0.000004057024342427296 0.000003996181337447352
          0.000006458405876031435 0.000006359589668908263 0.000006079983344113103 0.000010236467672589162 0.000010019838562400094 0.000009343277773505415
          6.936143550689868e-7 6.997028006927883e-7 7.186813348778532e-7 6.875824140591244e-7 7.008127388639697e-7 7.446823451005554e-7
          7.179585111142444e-7 7.414104766382042e-7 8.174660391174489e-7 8.552613355298407e-7 8.923308272646979e-7 0.0000010051979956775058
          0.0000012449493171935043 0.0000012857829573996134 0.0000014123813501704236 0.0000020040295691485435 0.0000020388816173123512 0.000002148838946239285
          0.000003273214825654763 0.0000032854869088382175 0.0000033308220443811156 0.000005205695686519145 0.000005174916098992966 0.000005090221171614559
          0.000007988767553740447 0.00000788020677211821 0.000007577097092127599 0.000012029485836480058 0.000011822068095198098 0.00001118118851420733
          8.319175118603761e-7 8.455267102035386e-7 8.880944898474895e-7 8.458413580528432e-7 8.705106394940299e-7 9.446543534975321e-7
          9.319735720006874e-7 9.663567579245756e-7 0.0000010721577531732217 0.0000011719519042887486 0.0000012136019883500488 0.0000013427105839123106
          0.0000016928977774807467 0.0000017352595075492518 0.0000018678583348399024 0.0000026295641663867684 0.0000026615206515606535 0.000002763850476123221
          0.0000041333698419073945 0.0000041387646219612625 0.00000416393612608469 0.000006355302085207533 0.000006317485239829233 0.000006208670554061899
          0.000009430532391102195 0.000009320853422437398 0.000009011439655143606 0.000013511674769214303 0.000013331824093855385 0.000012775380309981173
          9.910900085214944e-7 0.0000010127298117740305 0.0000010797619452317558 0.0000010497655514674378 0.0000010805964900446014 0.0000011791548351731363
          0.0000012153906829737968 0.0000012533708319817174 0.000001377111243308262 0.0000015743429981740657 0.0000016147390031607308 0.0000017479058983444276
          0.0000022402990871769356 0.000002277544466999822 0.0000024007922994817962 0.000003350800371721042 0.0000033751148910831126 0.0000034570194453402652
          0.000005057725827372819 0.000005055534340789525 0.000005055305356079356 0.000007499467817644418 0.000007458267028256131 0.000007331459845715208
          0.000010747286376953636 0.000010648659797447665 0.000010353493605779029 0.00001471388190305274 0.00001457698159373723 0.000014133586531403148
          0.0000011970128757681006 0.0000012161897490028423 0.0000012936765490562993 0.00000132394836218956 0.0000013488879057596894 0.0000014505663961366925
          0.0000015897847267530128 0.0000016186474018805212 0.0000017344613833636017 0.0000020781854386630084 0.0000021069573290993964 0.0000022202443162368962
          0.0000028919678597326123 0.0000029163728534136687 0.000003010182691752649 0.0000041606560251478884 0.000004173857417122221 0.000004223968030785269
          0.000006024978999254851 0.000006017653061127426 0.000005993954324939581 0.000008600383379830943 0.000008564828277630764 0.000008437333453553692
          0.000011905867582890112 0.000011833121762598775 0.000011583396646740791 0.000015680610671331864 0.000015595728820594684 0.00001528363838973772
          0.0000020578364288854828 0.000002082164926667528 0.000002159318934333171 0.0000026808934173011873 0.0000027031957999038556 0.0000027728640436002383
          0.0000036366250403706737 0.0000036533240258428745 0.0000037037346677371684 0.000005039053822528497 0.000005045348727460548 0.000005061236882504989
          0.000007009570694985446 0.000006999129931000711 0.0000069621635185848526 0.000009634221140509358 0.0000096017746820064 0.000009495272905694025
          0.000012894272850175293 0.0000128367110926463 0.000012658380935811859 0.000016451832732265842 0.000016391313538862014 0.000016201741261725832
          0.000020929212162339755 0.00002049742957258551 0.00002049727539475402 0.000020931639038616003 0.000020928479097211648 0.000020476137083504902
          0.00002049983678804393 0.000020930571970121962 0.000020898172859740772 0.000020578051351142307 0.000020510002531387533 0.000020937070984935462
          0.000021336798052928934 0.000021364161181125684 0.000021329840143229727 0.000021363487237599187 0.00002136035294345325 0.000021374778665010484
          0.000021310953951326418 0.000021621819799856 0.000021633637995260034 0.000021292409495809453 0.000021616657534624945 0.000021619456323744034
          0.00002132969512695815 0.00002163562167475433 0.000021660136586510164 0.0000056196385534779925 0.00000854474112387188 0.000006872391767355751
          0.000004902350859157812 0.000005386970325268267 0.000008226200134052814 0.000006572248552930488 0.000004672442681727651 0.000004692276703573523
          0.000007230830560061075 0.000005663254363059594 0.000004019288410299311 0.000018575305658331803 0.00001894123167196841 0.000019740311853715893
          0.000019506816622615605 0.000018412939844650926 0.0000188179660716886 0.000019910647910208138 0.000019516782902065125 0.000017802689253501174
          0.00001819050287799748 0.00002031312286644402 0.000019491626890384344 0.00001069155381088306 0.00001184192510009976 0.000009908487876891878
          0.000008776359584461352 0.00001043460950865881 0.000011536503833777419 0.000009602148321072201 0.000008535251188005112 0.000009613970895442807
          0.000010590383162017787 0.000008662321179934834 0.000007759745941465941 0.000016656418230964544 0.000015545620902638536 0.000016834186366859172
          0.000017854185888115876 0.00001648150938491499 0.00001534877638107259 0.000016707946126883237 0.000017749878708815928 0.000015883120920278592
          0.00001473761745102037 0.000016291439673152514 0.00001733839280281942 0.000016789069753195348 0.000015989421080611442 0.000016710509110489827
          0.000015873625880774168 0.000016440731720392118 0.000015480174401233897 0.000008376659786632314 0.000010845740189139013 0.000008089448710567697
          0.000010506534139215723 0.000007201833322716746 0.000009444870695494353 0.000021103305277162928 0.00002142685013043016 0.000021500312081178842
          0.000021077960062666453 0.00002109801793773854 0.000021413728349799424 0.00002148093729669813 0.000021071914954268273 0.00002101440636259628
          0.000021357201186872875 0.00002140313383619061 0.000020967824565891397 0.0000016083521794140623 0.000003557155404949661 0.0000026940291126520406
          0 0.0000015646999475218942 0.000003445168777082406 0.0000025788676161621126 0 0.0000013840972094193151
          0.0000030534743972906346 0.0000022355940438253107 0 0.00001014317381181756 0.000008972226412490354 0.000009775188652555382
          0.00000861372914955251 0.000008589708737680572 0.000007418188976578174 0.00002041168177050668 0.00002022645733100583 0.000020802427543097644
          0.0000209607722147456 0.000020414763900277305 0.000020225284257053436 0.00002080203275358735 0.000020961037829213586 0.000020408152368962908
          0.0000202154692349123 0.000020801756964049242 0.00002096408871600997 0.000012905262908080219 0.000006964784237159785 0.000006770927888669177
          0.000011379941598342945 0.000012713978200581233 0.000006841662286407878 0.0000066116420261126885 0.000011074477679789142 0.000011268036587533477
          0.000005857904601328037 0.000005540206189089336 0.000009405516106945637 0.000021935870141947552 0.000021726076132100324 0.00002167613729869843
          0.000021913909416772477 0.000021893818817114618 0.00002169241605889201 0.000021649583345776956 0.000021898417641487538 0.000022019431998376176
          0.000021727229287144054 0.00002172624130407138 0.00002185087695333921 0.000014717089514363744 0.00001529123337547597 0.000014488413806592402
          0.00001505746828768276 0.00001375561379745341 0.00001427904651595089 0.000006416191478513486 0.000006202804108456491 0.000005529417459919524
          0.000020719274201328627 0.000020308708644239747 0.000020708215573151356 0.000020309188337437017 0.000020591550734245897 0.000020746502420777492
          0.0000199702373705302 0.000019650697196059636 0.0000200358471934579 0.00002010046410630546 0.000019559856039097864 0.000020022539959486183
          0.000020806432499974908 0.000019265114449424265 0.00001994115706635523 0.000015521078894384856 0.000016866257931638878 0.000015504819295085153
          0.000012947468266506386 0.000015156801868693096 0.000016524634890751225 0.000015060962889076596 0.000012515170721895794 0.000014055743041864518
          0.000015506384410189956 0.000013721355145204453 0.000011193665145547554 0 0.000002636822086983111 0
          0 0.000002509710578005474 0 0 0.0000021606272984208054 0
          0.000017643245634907183 0.00001518115495536638 0.000017568440210623252 0.000015008125503383191 0.000017310189587521435 0.000014487612380269605
          0.00002018040373188329 0.000020420172081823303 0.000020272734105490577 0.000020274720645225337 0.000020299148454483536 0.000019758398011221823
          0.00001854921506648326 0.0000193042313078544 0.000018427958126987663 0.00001924148204322822 0.000017864170780398944 0.00001898070746750985
          0 0.0000027640823976464127 0.000003397779416568237 0 0 0.00000263619424956168
          0.0000032783229901915906 0 0 0.000002169009605979698 0.0000026439625295768 0
          0.00001380130755917545 0.000014819357246785023 0.000012868692090333234 0.000013519599819899527 0.000014525778865462969 0.000012530130748829776
          0.000012626938991777754 0.000013551119925865021 0.000011478071014194167 0.000019934506407401116 0.000020136961584155846 0.000019934750863800213
          0.000020139485526400865 0.000019892675901559045 0.000020114102654943083 0.000012787153357632204 0.000013993347764535239 0.000012535389951899023
          0.000013780396935540284 0.00001174920512358952 0.000013128005302031502 0.000017221098810814687 0.000017415928706164606 0.00001703073734036914
          0.000017157384320220568 0.00001630870142700522 0.000016281568155196205 0.000018207330414890988 0.000018997450383580583 0.000018087607877002334
          0.000018948457807583556 0.00001761175669690343 0.000018751074342757394 0.00002187713517269188 0.000021643314570421404 0.000021861475526348736
          0.000021865274686512114 0.000021639823642867844 0.000021854784483820855 0.000021869230688375375 0.00002165733738675481 0.000021865050011757405
          0.000018731904748222414 0.000019609038283989404 0.000018581780845974465 0.000018695512877980008 0.000019596764240343115 0.000018525237336246277
          0.000018579699768441024 0.0000195531160974273 0.000018323260607570253 0.000002408760339148711 0.000001957013460063455 0
          0.0000022963608458618106 0.000001866835301227741 0 0.000001918893987101785 0.0000015442895921439426 0
          0 0 0 0.000021843857007799905 0.000021628167521288078 0.00002155256599334746
          0.00002183941199395494 0.000021842345592810637 0.000021628166939228693 0.00002155319898977648 0.000021838896590560543 0.000021852687391005983
          0.000021640004479871656 0.000021563964457605156 0.00002184869030016414 0.000004534436046295409 0.0000053050999340024405 0.000004325518083639949
          0.000005073706842785945 0.000003643419248165585 0.000004285407473486919 0.000021645808655574083 0.000021850223473376637 0.000021644792577249655
          0.0000218468025263698 0.000021658033303098884 0.00002185836957686406 0.0000036748823686773013 0.000007240031434006339 0.0000035874492814350616
          0.000006984438690101872 0.000002970393256716561 0.00000573136640336939 0.000012465576311937085 0.000014721241743028243 0.000012028509573161611
          0.000014410710865777271 0.000010515229020090925 0.00001289206362973314 0.00002136427979511353 0.000021364788158808052 0.000021375561370138974
          0.000017654794764964822 0.000017592109655174515 0.000017420899774944116 0.000018227438029713843 0.000019324672034326842 0.000018005188533444286
          0.000019305126451391847 0.000016928705282932226 0.000018782117315171006 0.000017975336589127172 0.000017902452151362998 0.00001759738025767833
          0.00002041694466441796 0.000020441973665898422 0.00002058866957953574 0.000021895922764379806 0.000021879957019513433 0.00002186366199637723
          0.000019691757215614794 0.000019682634815640907 0.00001961910822869462 0.00002134784423842333 0.000021349691346271313 0.000021357411855348842
          0.00002047300091511369 0.00002068899783767549 0.0000208689076933227 0.000017841154311667046 0.000017655050870016583 0.0000161899367599341
          0 0 0 0 0 0
          0.000021838007957538657 0.000021838410564353914 0.0000218474390785252 0.000021945365886924844 0.00002188336382562094 0.000022061878799834113
          0.00000542651985539785 0.000005429066175473684 0.000005422061359537765 0.00000841799932740516 0.000008412042692498142 0.000008403761795966956
          0.0000068656606407842285 0.000006862214336371185 0.000006838869013301284 0.000010183748185852532 0.000010172610897852805 0.00001014783574036092
          0.00000866588574462174 0.000008655589886294165 0.000008616621351406488 0.00001085565903291834 0.000010838150712785983 0.000010785743105572069
          0.000013410175696631652 0.000013385815267129615 0.000013324095247547645 0.000016167149734008036 0.000016140705368508558 0.000016081081053406893
          0.00001878434149497417 0.00001877369780147654 0.000018743308714239996 0.000018701248762570055 0.000019422778804866227 0.000018676899246809657
          0.000019418852696044198 0.0000186082649628775 0.000019382065575228646 0.000020539516263578773 0.00002109918411421868 0.000020796183290749666
          0.00002013621619254276 0.00002053738881063015 0.00002109990056546878 0.00002079536183101534 0.000020132927368780014 0.000020531432875833943
          0.000021101422073611762 0.000020795681185096187 0.000020122064624293338 0.000021348391849822158 0.000021349792373456865 0.00002135623553059023
          0.000019899004835184906 0.000019896088358698935 0.00001987805438233252 0.000021990507474849494 0.00002199179338810325 0.00002199696502751308
          0.000013423032460966374 0.000011526114407204753 0.000013413960184437172 0.000011521914613096473 0.000013385637681665562 0.000011507850683798111
          0.000012189223950258247 0.00001217378203121905 0.000012133473590714722 0.00001540789937875745 0.00001539445819192404 0.000015352938005125536
          0.0000143776951916777 0.000014359910534654827 0.000014307253994438024 0.00001662621791095341 0.000016608402525039004 0.000016550127162813265
          0.000018716249814962958 0.00001870500893340942 0.000018654418210462352 0.0000202611378141804 0.000020255947405180137 0.000020235455554347953
          0.000020804570204424492 0.000020801488391895935 0.000020795622900998532 0.000022289069850547983 0.000021433941443098456 0.00002193891936706063
          0.00002229018396117507 0.000021434005673106646 0.00002193890112403522 0.000022293602021026754 0.00002143504928547341 0.00002193912934034756
        </DataArray>
        <DataArray type="Float64" Name="disp_y" format="ascii" RangeMin="-0.000016224343425793658" RangeMax="-0.0000026904713514393266">
          -0.000002691250713876401 -0.0000026908081866886395 -0.0000026910767401688084 -0.000002690676982321141 -0.0000026908579402429683 -0.0000026904713514393266
          -0.0000028145717705401995 -0.0000028132353500312108 -0.0000028138224740233943 -0.0000028125807086940227 -0.0000028126234013021803 -0.000002811644609393809
          -0.000002924897725894619 -0.000002921514827673041 -0.000002922624910264452 -0.0000029198991209582733 -0.000002919496726958419 -0.0000029177907480519745
          -0.000003021505920487856 -0.000003014826912897904 -0.000003013177138124532 -0.000003007133502468537 -0.0000029942453462628526 -0.0000029902380737298245
          -0.000003126856377325417 -0.0000031113610345376777 -0.0000031093858348003618 -0.0000030937892414464124 -0.0000030571308186887163 -0.00000304260739714296
          -0.000003310729127398944 -0.0000032793004319114613 -0.000003279411587268693 -0.0000032476886080352844 -0.000003177447161519211 -0.0000031452203207225335
          -0.000003652752120017875 -0.0000036012055246542305 -0.0000036014051045670134 -0.000003549472416847676 -0.000003431844682917734 -0.0000033778991811235107
          -0.000004231163407934078 -0.000004153160495582791 -0.000004152120779931925 -0.0000040730347568348536 -0.000003894704745552032 -0.0000038111742959532306
          -0.000005132453849590291 -0.000005008046253802748 -0.000005026402954402989 -0.000004896804853800102 -0.000004644270373058456 -0.000004499147262126471
          -0.000006412143781307824 -0.000006195883515033557 -0.0000062713393261762575 -0.000006048105031268898 -0.0000057315035208193444 -0.000005460778825695773
          -0.0000026927362258375276 -0.0000026923834489815375 -0.000002691758746715747 -0.0000028183121057071594 -0.0000028169733175397806 -0.0000028157958935275995
          -0.000002935160072403845 -0.0000029312792454666506 -0.0000029232141049406662 -0.0000030426146092132184 -0.000003032852014318687 -0.0000030082867491316693
          -0.0000031743677256363333 -0.0000031579734932579033 -0.000003105030432332789 -0.0000034077341907604354 -0.000003376929111316128 -0.0000032757277116721834
          -0.0000038076868435538793 -0.0000037578352271333364 -0.000003594427478048016 -0.000004466385197567513 -0.000004390609276669468 -0.000004146957126121418
          -0.00000549399424810246 -0.000005399256176285142 -0.00000505857109704912 -0.000007024485784766102 -0.000006903090198782192 -0.000006467005373730494
          -0.0000026954592229264473 -0.000002694567562796678 -0.0000026932732627178425 -0.0000028245391524314082 -0.0000028220630252455613 -0.00000281782070078704
          -0.0000029492919985298397 -0.00000294372028697708 -0.0000029298299022012005 -0.0000030797717234189706 -0.000003070230902886478 -0.000003042081796161043
          -0.000003266743905118537 -0.000003250401064873595 -0.000003194237519428817 -0.0000035742965457739407 -0.0000035445109127360563 -0.000003445610736117572
          -0.000004067980356501009 -0.000004020715752607375 -0.000003867664428142019 -0.000004856408873315596 -0.000004786800958635163 -0.000004566025157600463
          -0.000006064571656718195 -0.000005985016031897243 -0.000005701190778763245 -0.00000774169419810626 -0.000007659887550847798 -0.000007380146504073655
          -0.0000026997685265275977 -0.00000269760337690557 -0.000002694018287561669 -0.0000028339338283699336 -0.0000028299115721255263 -0.000002819575881912668
          -0.0000029733139959083798 -0.000002965924490913268 -0.0000029470555830963763 -0.0000031476569358682707 -0.0000031384060677665703 -0.0000031037998771495764
          -0.0000034118469087946495 -0.0000033946033967435447 -0.0000033343535290543445 -0.0000038161950200721555 -0.0000037880454695324725 -0.0000036937001218281443
          -0.00000443576964835133 -0.000004392534167349575 -0.000004254042582216556 -0.00000538467461946763 -0.0000053232680113960925 -0.000005133406023294473
          -0.000006779832610078878 -0.000006718889828010101 -0.000006503158346669947 -0.000008614256923395843 -0.000008574810564429463 -0.000008449107150032506
          -0.0000027054458357703734 -0.0000027015942410170794 -0.0000026936474881163178 -0.000002849561676655804 -0.000002843780626182279 -0.0000028284474204991455
          -0.00000301673960416932 -0.000003010235446143487 -0.0000029841486790622574 -0.000003254665385262746 -0.0000032443460785256742 -0.0000032033495986698557
          -0.000003612637173950713 -0.0000035951082314053806 -0.000003533714841451731 -0.0000041385666618585515 -0.000004112404244621638 -0.000004024790278626682
          -0.000004907812507369151 -0.000004869563893730093 -0.000004749601908900169 -0.000006025838095509351 -0.000005975461011662395 -0.000005823376027934276
          -0.000007578204450385173 -0.000007537532242314946 -0.000007394430630868472 -0.000009536200724162113 -0.00000951850095154622 -0.000009492918602706124
          -0.0000027140085821915046 -0.0000027092333486094996 -0.0000026965428986361513 -0.0000028785267191962445 -0.0000028725265889981266 -0.0000028510764565861123
          -0.0000030927619511439604 -0.0000030848284337297407 -0.000003051588555830309 -0.0000034084966562453954 -0.0000033967446141524857 -0.0000033504046725677714
          -0.000003875313655927041 -0.000003857997885946341 -0.0000037973899496495063 -0.000004541508887808405 -0.000004517464154086413 -0.000004439240736667642
          -0.0000054727098182419244 -0.0000054402711432583004 -0.000005342306805525597 -0.00000674921553994832 -0.000006711710400614828 -0.000006601038335138513
          -0.000008416301355831664 -0.000008391491051906836 -0.000008312753044216019 -0.000010373395347436655 -0.000010380436054040472 -0.000010430686508077948
          -0.0000027330506710864266 -0.0000027276200863090075 -0.0000027088937126507115 -0.000002931885218974619 -0.000002924471140483355 -0.0000028958611111913678
          -0.00000320822335603014 -0.0000031980301005744023 -0.0000031579179533763995 -0.0000036150885959411296 -0.000003601492351653692 -0.0000035514737178566875
          -0.000004202593865301513 -0.0000041851589014289596 -0.000004127024882568611 -0.0000050184098729071 -0.000004996602051173889 -0.000004929931172409065
          -0.0000061116005206970025 -0.000006085750532792208 -0.0000060121611454534114 -0.0000075221326960151275 -0.00000749755570578755 -0.000007427823555263656
          -0.000009246189068787088 -0.00000923686449988067 -0.000009213964033752259 -0.000011149101064444041 -0.000011168438473037755 -0.000011258346200581032
          -0.0000027718001833937397 -0.000002764366600834548 -0.0000027382399260720555 -0.000003018267874526228 -0.0000030078312453904987 -0.0000029710886025737612
          -0.000003369613275995502 -0.0000033559912813395346 -0.0000033092457374132845 -0.000003877609760701543 -0.000003861447980328627 -0.000003808525116798019
          -0.0000045914178312851305 -0.000004573752224157334 -0.0000045189851094458455 -0.0000055541044595355545 -0.000005535894035728485 -0.0000054823979574561225
          -0.00000679655879723905 -0.000006779835923883637 -0.000006732142450215936 -0.000008312739694604331 -0.000008303429410295221 -0.000008273496497926404
          -0.00001003915593824697 -0.000010043585832304312 -0.00001006426497860132 -0.000011868557933971148 -0.000011889527651376999 -0.000011998021374418658
          -0.000003579536738656962 -0.0000035634903421403806 -0.000003511056365464447 -0.000004193629255491495 -0.000004175813525511879 -0.00000412205632121442
          -0.00000503158357041631 -0.000005013858235720607 -0.000004965403854038392 -0.000006128601106672327 -0.000006112846123181467 -0.0000060763628055640905
          -0.000007496446838264854 -0.0000074850987526584566 -0.000007467356899731993 -0.00000909537087688125 -0.000009094679326668357 -0.000009107302421034175
          -0.000010800793765576544 -0.000010812006057046474 -0.000010873840601325764 -0.000012433073345582049 -0.000012464135142186929 -0.000012559256682426988
          -0.000012523745953952727 -0.000012525761771858764 -0.000012867848896610005 -0.000012967267408436683 -0.000012573771184135038 -0.000012581775311063162
          -0.000012905628340351249 -0.000013001563037389291 -0.00001267115388156269 -0.000012708498725426041 -0.000013020578056737706 -0.000013069081443589904
          -0.000012675317022633483 -0.000013020156014520185 -0.00001271802730172212 -0.000013047334488971435 -0.000012774989241672654 -0.000013110086310303012
          -0.000012301086902734872 -0.000012687203846224674 -0.000012391626224767571 -0.000012347599275802985 -0.000012726910316144039 -0.000012440887668819966
          -0.000012529461206704507 -0.000012789780828155994 -0.000012566344383142344 -0.00000769550949143524 -0.000008398614040937642 -0.000008470330911922232
          -0.000008156883700579092 -0.000007515516788188534 -0.000008262871587099787 -0.000008274091350477784 -0.000007924175017616082 -0.000006806940460682959
          -0.00000767138858306685 -0.000007428089289421557 -0.000007014727641603959 -0.000010891022839460633 -0.000011444389280649957 -0.000011405771554977208
          -0.0000109280152323585 -0.000010961870051518955 -0.000011673264767648434 -0.000011577708795730064 -0.000010982140493181177 -0.000011084667730542353
          -0.000011996501612371425 -0.000011446195199403545 -0.00001126493545339102 -0.000008685897400990985 -0.000009148651745393385 -0.000008451777171949045
          -0.000008083190511635134 -0.000008641916308037748 -0.000009127471620110574 -0.000008393153348742862 -0.000008000703566150758 -0.0000084856163508359
          -0.000008999636466879913 -0.000008117191867095097 -0.000007684152293396882 -0.000011480622911379218 -0.00001112020841766165 -0.00001192238433086138
          -0.00001213230575176911 -0.000011527687425039296 -0.000011144279234444583 -0.00001195091640812039 -0.000012176031628508741 -0.000011718218412488769
          -0.000011286372213495172 -0.00001211265475660993 -0.000012372254523349003 -0.000012392851188928584 -0.000011737938074511195 -0.000012423191575771903
          -0.0000117606149570541 -0.00001256461489988243 -0.000011889245376123428 -0.000008086965099137165 -0.00000873769455082124 -0.000007974872653587809
          -0.000008698152078260838 -0.000007521550119469925 -0.00000846474543203765 -0.000011927582014722036 -0.000011953677858620693 -0.000011568284827593941
          -0.000011391745567368843 -0.00001200933227456878 -0.000012010429953962307 -0.000011641292418370812 -0.000011471252590595283 -0.000012122726538140448
          -0.000012203633555198294 -0.00001189699760243411 -0.000011941569895711285 -0.000006558430339321132 -0.000006871566268838585 -0.000007217133481818383
          -0.0000067812608774022585 -0.000006404871895929914 -0.0000067136819600633805 -0.000007031658613181061 -0.0000066031322724749726 -0.00000578084316034407
          -0.0000060965862444415564 -0.000006270273214532915 -0.00000587871924900455 -0.000009028588887725173 -0.00000925660050349776 -0.000008911901739716112
          -0.00000904849538195597 -0.00000835684589636967 -0.00000814844049317064 -0.00001322960872401114 -0.000013706616857912405 -0.000013773234682763962
          -0.000013410753014055358 -0.000013262379653340991 -0.000013731642526580211 -0.00001379447079034518 -0.000013434358540534919 -0.000013351348513612105
          -0.000013800830918560066 -0.000013844305947524671 -0.000013491318358600218 -0.000013333638923905114 -0.000014444490565358566 -0.000012915252982838799
          -0.000011418277294812239 -0.000012889087192410267 -0.000013858694025506725 -0.000012386486217798972 -0.000011100075003524098 -0.000011478648415945587
          -0.000011186589225299567 -0.00001021902569945627 -0.000010115754074702805 -0.00001191343363684636 -0.000011880187955997623 -0.000012093790699649723
          -0.000012201681577682806 -0.00001197173310103419 -0.000011938147428856537 -0.00001213644872231158 -0.000012250497922170805 -0.000012152653072269555
          -0.000012219151936926759 -0.000012390628599713406 -0.000012446691709848102 -0.000010503327531660108 -0.000010666658278128754 -0.00001052170558212661
          -0.000010701348416868729 -0.000010619884168311848 -0.000010843267132485875 -0.000007425175901861217 -0.000007282986943623253 -0.000006771038949408186
          -0.000012052667364409665 -0.000012167497458599252 -0.000012151470573239591 -0.000012229612706811996 -0.000012280601286760143 -0.000012148604073009809
          -0.000011877374976089318 -0.000011974375137902885 -0.000012405283421101052 -0.000011753405848070883 -0.000012017951588308858 -0.000012436371225258027
          -0.000011635337782503861 -0.000012369650705942987 -0.000012695325688922137 -0.000010277015091075926 -0.000010550379766738319 -0.00000970433884987041
          -0.000009336622621275868 -0.000010369584377297903 -0.000010625690431815687 -0.00000976092591574097 -0.0000093406572829549 -0.000010499366772046655
          -0.00001076270861701084 -0.000009994080910569382 -0.000009238455280379972 -0.00000739987508895952 -0.00000797706580863289 -0.000008069807124247432
          -0.0000071740592219561366 -0.00000772030438050776 -0.000007784480218494151 -0.0000062945084965115765 -0.0000067506461094985 -0.000006722921275891838
          -0.000012620085954890428 -0.000011170924416809608 -0.000012654850869660026 -0.000011192792215593023 -0.0000128167138609732 -0.00001131072961320112
          -0.000011310901322348612 -0.000010833993604205377 -0.000011480398835157871 -0.00001079852083292012 -0.000011611073331048158 -0.000011474754985414919
          -0.000011744310907812634 -0.00001236264791931137 -0.000011811251947422722 -0.000012394417693452083 -0.000012097795852988164 -0.000012641893259773093
          -0.00001176403502788046 -0.000010661798403590182 -0.000011986437658666092 -0.000013149258964259612 -0.000011176848239801776 -0.000010179511800782441
          -0.000011437250119376629 -0.000012473687469271091 -0.000008855647451135442 -0.000008405573645029971 -0.000009219468052272637 -0.000009603306926789676
          -0.000010028398120709727 -0.000010231955363294076 -0.000009471566325726203 -0.000010042190965505163 -0.000010283241839835799 -0.000009464982995805357
          -0.000010064247841016804 -0.000010359418242953212 -0.000009347779445687713 -0.00001291324972677783 -0.000012737013771756388 -0.000012956674449815122
          -0.000012780580364754584 -0.000013102927315773598 -0.000012939629039174906 -0.000009650851962519303 -0.000010405847637942463 -0.000009636795498642547
          -0.000010404067634148013 -0.000009621173274543683 -0.000010469590775523944 -0.000011400997806786924 -0.000011055933700138704 -0.000011468678398207372
          -0.00001117217889391888 -0.00001170266470740777 -0.000011427761098705655 -0.000011992472855358842 -0.000012732467770784563 -0.000012037260292712757
          -0.000012771574807964566 -0.000012265909208391306 -0.000012943493042538157 -0.000012737820610682672 -0.000012939041711952635 -0.000012984885683537112
          -0.000012773906506048665 -0.000012968307737579789 -0.000013011892550856957 -0.000012832929431520487 -0.000013021715957866889 -0.000013063536161550887
          -0.000013311611672318 -0.000013592610883605458 -0.000012858476971817667 -0.000013342130144790339 -0.00001362273756885454 -0.000012896775548944938
          -0.00001345285969184366 -0.000013723924489138657 -0.000013060175463364306 -0.000008588927336696232 -0.000009558500384908792 -0.00000924214735478696
          -0.00000826414433183418 -0.000009154060133102136 -0.000008853438607760707 -0.000007102240015408622 -0.000007686224243393908 -0.000007418367658195077
          -0.000010458252178764785 -0.000009968568631818088 -0.000008123924693717838 -0.00001343838267225501 -0.000013355789305297398 -0.0000135587343791307
          -0.000013650405768345486 -0.000013457209176279362 -0.000013376549322293435 -0.000013577152206931206 -0.000013666633537133347 -0.00001350213768593931
          -0.000013424450558269217 -0.000013621650552660411 -0.000013706724296194378 -0.00000899547880383216 -0.000009956151485466748 -0.000008671011874130479
          -0.000009575679564829933 -0.000007516842236101408 -0.00000823872036849406 -0.000013162049137000758 -0.000013216967194250208 -0.00001318553056479016
          -0.000013239018616592317 -0.000013237704030198562 -0.00001328741620868562 -0.000012928638766312028 -0.000011106131354823482 -0.00001233438420105834
          -0.000010676518328897333 -0.000009817161832098162 -0.000009129097445123588 -0.000009817111501730786 -0.000010693560556315676 -0.00000968660511499153
          -0.000010544682208136192 -0.000009122908313343792 -0.000010440610951177016 -0.000013337801525769169 -0.000013360329425647658 -0.00001341011661530648
          -0.000012920494282201347 -0.000012957832367049975 -0.000013057853800000556 -0.000010020956195648572 -0.000009979376925120907 -0.00001017327059866132
          -0.000010160745426911989 -0.000010826733976063664 -0.00001142796861789814 -0.00001240147732711265 -0.000012432813941662466 -0.000012600257621409727
          -0.000011556410522285873 -0.000011625016729385643 -0.000012067328987706243 -0.000012476339464511709 -0.000012521788250134867 -0.000012619957892577089
          -0.000013162540884721674 -0.000013202439243629423 -0.0000133322961018223 -0.000013828212518648037 -0.000013844877488792689 -0.000013883958441750992
          -0.00001101338359321705 -0.000011285130710943037 -0.000011832270655715758 -0.00001145888783982912 -0.000011295695362376401 -0.000011639021866785326
          -0.00001451946952502529 -0.00001377316906243333 -0.000010324646427697415 -0.000006418497088514932 -0.000006260124187093861 -0.00000562722602070662
          -0.000013852742037875389 -0.000013866725663009434 -0.000013902493178489073 -0.000011627658032875335 -0.000011695206307459888 -0.000011889446178063389
          -0.000005704077086125233 -0.000005692521787893004 -0.000005657810218428147 -0.0000074841406422507445 -0.000007478452814596151 -0.0000074612507376719245
          -0.0000068996866050517 -0.000006891895769113826 -0.000006867594843320432 -0.000008867969495023728 -0.000008865891607067368 -0.000008859729084490336
          -0.000008318869660777908 -0.000008316712812294182 -0.000008308459722858384 -0.00000991190809806309 -0.00000991701460923764 -0.000009930395668061735
          -0.000011565015676553292 -0.000011581730928631524 -0.000011624547407841523 -0.000013104177229018252 -0.000013127435164672973 -0.000013209588483694096
          -0.000014347143091827014 -0.00001437108671747879 -0.000014459213967800378 -0.000013731657010520932 -0.000014068935086453698 -0.0000137592191343036
          -0.00001409064715073781 -0.000013853184568621613 -0.000014176904849740192 -0.000014851417482095801 -0.000014963414613447317 -0.000014326092327531621
          -0.000014245090841668179 -0.000014866239033629399 -0.000014974361969302899 -0.000014342372993150671 -0.000014266134270593383 -0.000014908175749360876
          -0.000015005143349671964 -0.00001438541566767444 -0.000014330375368357838 -0.000014382405419287667 -0.000014395334754411692 -0.000014427947328076469
          -0.000014704105020564761 -0.000014724449272090425 -0.000014780101844414454 -0.000015192215293251454 -0.000015200693293514388 -0.000015220805409255551
          -0.000010751557276826059 -0.000009330327806435681 -0.000010755026627162792 -0.000009329859856114228 -0.000010765283849968733 -0.000009328630135611247
          -0.000010382110187975206 -0.000010385049546833168 -0.000010394065681380115 -0.00001219273722174463 -0.000012200762836318697 -0.00001222460337479403
          -0.000011940976343146432 -0.000011950095899062902 -0.000011978435598598739 -0.00001341023941909705 -0.0000134267765450573 -0.000013476807749941196
          -0.000014620909114255799 -0.00001464115545484965 -0.000014708767482910863 -0.000015407751588891404 -0.000015424495888472155 -0.000015477712056621403
          -0.000015514930691916744 -0.00001552787374913821 -0.00001556325451729811 -0.000016033850590580857 -0.000015591716382887446 -0.000016197817847512326
          -0.00001604062092912289 -0.00001560037407872489 -0.000016204390999078197 -0.000016061047291794925 -0.000015626761569565863 -0.000016224343425793658
        </DataArray>
        <DataArray type="Float64" Name="disp_z" format="ascii" RangeMin="-0.000012356154899758695" RangeMax="7.443712973661879e-7">
          0 0 -6.048424564211228e-8 -6.0741065954602e-8 -1.216377856176153e-7 -1.2192256091533786e-7
          0 0 -6.040100572540413e-8 -6.071704168296293e-8 -1.223429013633499e-7 -1.226256594899155e-7
          0 0 -5.881969998338717e-8 -5.898004869383439e-8 -1.237742851097129e-7 -1.236345779364379e-7
          0 0 -6.526128702943907e-8 -6.532920065815071e-8 -1.386177704478282e-7 -1.3634048388924898e-7
          0 0 -1.0958893803550852e-7 -1.0267672461262086e-7 -2.443523644843318e-7 -2.2946834251078903e-7
          0 0 -2.419625459822392e-7 -2.31514482374429e-7 -5.203541954327995e-7 -5.008983438531435e-7
          0 0 -5.026511365670882e-7 -4.928885172948655e-7 -0.0000010403949353913692 -0.0000010230430422963358
          0 0 -9.370014759518044e-7 -9.345352805167849e-7 -0.0000018867952939504142 -0.0000018834387887762406
          0 0 -0.0000016425579853552188 -0.0000016591377342204859 -0.0000032370492270942066 -0.0000032710755510250847
          0 0 -0.0000030614565637924454 -0.0000032070701205502913 -0.000005959412059671195 -0.000006228941090766141
          0 -5.983047405138411e-8 -1.2078277118897233e-7 0 -5.931336308397215e-8 -1.2185569807789267e-7
          0 -6.199659727022551e-8 -1.2410156431200915e-7 0 -6.387932565340683e-8 -1.5236638104891762e-7
          0 -1.3162929701059536e-7 -2.894167000131198e-7 0 -2.7220766705003263e-7 -5.77007870320679e-7
          0 -5.300905117471492e-7 -0.000001088655562453615 0 -9.45236463273066e-7 -0.0000018993243262620177
          0 -0.0000015844668482582875 -0.000003119970766692394 0 -0.000002704621208036964 -0.0000052872143299027564
          0 -5.879055263519021e-8 -1.1985724603719023e-7 0 -5.891113311737158e-8 -1.2158976858702078e-7
          0 -6.72195677595035e-8 -1.3785019495370872e-7 0 -8.43450978753918e-8 -1.977589657219665e-7
          0 -1.6942543944867346e-7 -3.649071203865613e-7 0 -3.197272395073158e-7 -6.654450562468114e-7
          0 -5.7146369309102e-7 -0.0000011619791000091315 0 -9.528141745869724e-7 -0.000001905664835395193
          0 -0.0000014995914781477442 -0.0000029582514936226876 0 -0.000002246224509597781 -0.000004417742989176758
          0 -5.812689905779871e-8 -1.2001658436453072e-7 0 -6.016017767141902e-8 -1.2923492760457356e-7
          0 -7.812827755357083e-8 -1.7429598439096445e-7 0 -1.2873777507256674e-7 -2.7842524153806374e-7
          0 -2.2326022608250834e-7 -4.690716633191117e-7 0 -3.805352983927225e-7 -7.78077256825028e-7
          0 -6.201303469118225e-7 -0.0000012473181332102473 0 -9.553474689733169e-7 -0.0000019026887206189443
          0 -0.0000013858279789156994 -0.0000027336525185848056 0 -0.000001768240242536853 -0.0000035174524170923387
          0 -5.932998075840352e-8 -1.2795168402156072e-7 0 -6.987302557774831e-8 -1.57886851888752e-7
          0 -1.0625128162548116e-7 -2.3628132189906096e-7 0 -1.8264972756729801e-7 -3.830573306441114e-7
          0 -2.9106651323899117e-7 -5.970847126042075e-7 0 -4.4958923449790245e-7 -9.050460326767882e-7
          0 -6.677952986235359e-7 -0.0000013304002513661568 0 -9.449826735053565e-7 -0.0000018744457040621754
          0 -0.000001247222824961094 -0.0000024647974098408546 0 -0.0000013426536526994227 -0.000002718347061655439
          0 -7.02202994606204e-8 -1.5547475445587426e-7 0 -9.844437960740029e-8 -2.1563849961601903e-7
          0 -1.5567529313052757e-7 -3.302532849290269e-7 0 -2.497313656501451e-7 -5.10468840373545e-7
          0 -3.6931645511194857e-7 -7.412678417998532e-7 0 -5.208738714292218e-7 -0.0000010347032826070366
          0 -7.057496667143625e-7 -0.0000013965585253732365 0 -9.1166518723341e-7 -0.0000018049511280163014
          0 -0.0000010917488357631287 -0.000002171620424522692 0 -9.849853788928157e-7 -0.0000020292076195402425
          0 -1.0073341912422059e-7 -2.0998133226430852e-7 0 -1.4966317228690316e-7 -3.058122771144205e-7
          0 -2.2679785305121972e-7 -4.555365833496768e-7 0 -3.32309372729103e-7 -6.579091830905957e-7
          0 -4.5398514335910953e-7 -8.926896708060132e-7 0 -5.873124124629247e-7 -0.0000011542899793129838
          0 -7.252745747746149e-7 -0.0000014316910445393102 0 -8.498164477163053e-7 -0.0000016892977108554148
          0 -9.142200312313052e-7 -0.0000018437079391508821 0 -6.943312923113973e-7 -0.0000014793963599928005
          0 -1.5111246721161822e-7 -2.93077714501036e-7 0 -2.2186067653403905e-7 -4.2698246519758555e-7
          0 -3.1617621830289375e-7 -6.069060656655968e-7 0 -4.262727109342853e-7 -8.201374840514743e-7
          0 -5.388954969235269e-7 -0.0000010423122766111766 0 -6.413314872071677e-7 -0.0000012521312796562486
          0 -7.199399054904051e-7 -0.0000014249473983297382 0 -7.563118470113809e-7 -0.000001523262795151867
          0 -7.150693529035106e-7 -0.000001485541730534921 0 -4.5741232794711194e-7 -0.0000010182205260249063
          0 -4.0134570610541507e-7 -7.96202467113993e-7 0 -5.105024991056338e-7 -0.0000010084911928222047
          0 -6.064654610673977e-7 -0.0000011963062077577845 0 -6.714843370268677e-7 -0.0000013262790862189543
          0 -6.8855846351492e-7 -0.0000013650165717150884 0 -6.456434800402741e-7 -0.000001286112721225617
          0 -5.254855793894668e-7 -0.0000010640043993336192 0 -2.956478511227793e-7 -6.141404333357728e-7
          0 0 0 0 -5.466538924360989e-9 -3.705432868674636e-8
          -4.228946967911043e-8 -1.7097900074978314e-8 -4.287543625540062e-8 -7.546296342422411e-8 -9.689101892042862e-8 -4.619509940860632e-8
          0 0 6.907215580480747e-9 4.87053789455401e-10 9.040927449895726e-9 -8.573714309257606e-9
          0 0 0 1.4670405090557968e-8 2.2411990346994477e-8 3.450727753815543e-8
          2.5968053122900492e-8 3.343915155556267e-8 3.428515794464722e-8 0 0 0
          0 -0.0000035284683609413286 -0.0000031465967258926494 -0.000003851438107742379 -0.000003945771666726345 -0.000006897737708648015
          -0.00000618996470071427 -0.000007627740711062207 -0.00000776964794345495 0 0 0
          0 -7.356848833807543e-7 -4.72708674716683e-7 4.33632225733626e-7 -5.083794375004096e-7 -0.0000016123702034318657
          -9.089449983633806e-7 -2.866993183190429e-8 -0.0000014388555939940606 0 0 0
          0 -0.0000019641756885479965 -0.000001918979976309568 -0.000002487773541286855 -0.0000024749715469083085 -0.000003868387053636307
          -0.000003821326963589075 -0.0000049111923185241406 -0.000004870295086722946 0 0 0
          0 -6.156565191172735e-7 -7.58404343704376e-7 -4.640287957024749e-7 -3.4927231179555396e-7 -0.0000013136327586573652
          -0.00000158527471105333 -0.0000010790400519324792 -8.82444644836496e-7 0 0 -3.5351547766795436e-7
          -5.260587051145591e-7 -7.524165994384859e-7 -0.0000011726013954429882 0 0 -0.000002823049486222587
          -0.0000025800207601613668 -0.000005489119063367223 -0.000005127922457579037 0 0 0
          0 1.1225080344519634e-9 2.474188727136207e-8 1.447620263447566e-8 1.4227512194727875e-8 -8.390035023606954e-8
          6.638916887925714e-8 3.837960318161283e-8 -8.945456315379685e-8 0 0 0
          0 -0.000003449926892904939 -0.0000033326869815676798 -0.000003765785119963098 -0.0000037252659757328564 -0.0000067281698422104605
          -0.000006456249517147399 -0.000007350639798492778 -0.000007297025459712834 0 0 -0.0000030955354746782633
          -0.0000037987575984857248 -0.000006046010904876681 -0.000007642379614561867 0 0 0
          0 -5.145679141361659e-8 -6.462270292423987e-8 -3.944634464703346e-8 -2.5357397355196527e-8 -1.1243551854714337e-7
          -1.3141670780127248e-7 -8.456558918831108e-8 -5.6770755490763025e-8 0 0 0
          0 -0.000004450983930525284 -0.000005465979619246837 -0.000004865374597790892 -0.0000039916322960019984 -0.000009103034230968226
          -0.00001097646049681656 -0.00000949560573076779 -0.00000798051692529512 0 0 0
          0 5.879863342854263e-8 2.6728263540931966e-8 4.3459525374425e-8 6.352088181766258e-8 -8.480729650452119e-8
          1.015219957345315e-8 8.32476883934461e-8 1.2847597615418412e-7 0 0 -0.00000104209006866577
          -0.0000010077831865022227 -0.0000021472394343065498 -0.000002149196703448232 0 -0.0000029794279934576778 -0.000005837316020962126
          0 0 -1.1152456088713801e-8 -4.46883825622642e-8 -8.576853688029675e-8 7.443712973661879e-7
          0 0 0 3.328634190195836e-8 -1.4993338801818053e-7 -5.8812583651300966e-8
          4.489581653867287e-7 -5.471257660027769e-7 -2.1163719272191389e-7 0 0 0
          0 -0.0000015345505353863704 -0.000001288204417430847 -0.0000022547114026597165 -0.0000023937954345847386 -0.0000032427216543381837
          -0.0000030645332559353197 -0.0000045547859102551525 -0.0000047544013716525175 0 0 0
          -0.000003915478112080738 -0.000004086630798945481 -0.000004203740921750784 -0.000007587664499253354 -0.000008064905779596966 -0.000008249286530694808
          0 0 -2.8488783714684226e-7 -7.369132283310839e-7 -6.577264538409502e-7 -0.0000015752513687349169
          0 0 9.595275140374312e-8 -7.587385554331634e-8 -1.943458929190158e-7 -6.874397439141357e-7
          0 0 -3.7615565085251515e-7 -1.7173739791361607e-7 -8.48987370805341e-7 -4.711264047523509e-7
          0 0 0 0 -0.00000483810677315004 -0.000004694512992433345
          -0.000005159467662774766 -0.000005418610868884144 -0.00000950674581044802 -0.000009254333118192037 -0.000010255604978723594 -0.000010741945181106784
          0 0 0 -0.0000014286059370011609 -0.0000014212726359223719 -0.0000019576802469143886
          -0.0000029107443652808675 -0.000002932412601657243 -0.000003945432119460607 0 0 -7.472323171436414e-8
          -6.295518648782946e-8 -1.9476473841915554e-7 -1.6961751646610828e-7 0 0 -0.0000014319018790640265
          -0.0000010323332636055368 -0.000002886288295121853 -0.000002116789263856616 0 0 -6.801477791404537e-7
          -8.861260066759462e-7 -0.0000015119139963080846 -0.000002030760772095069 0 0 -3.522590663674788e-7
          -1.682807931304719e-7 -9.431080281873304e-7 -4.135509694782088e-7 0 0 0
          4.106459242165237e-8 1.6590789377329407e-8 2.890010730887089e-8 5.292160611715603e-8 2.1497299657502006e-8 3.935536444496097e-8
          0 0 0 -1.7637069604969134e-7 -1.0366014175667647e-7 -1.859947128766639e-7
          -4.1127806206071884e-7 -2.3496247408081897e-7 -4.2501670038259284e-7 0 0 0
          -0.000004248610350432694 -0.000004462015526569102 -0.000004387375220252605 -0.000008328420932681271 -0.000008786273023716005 -0.00000867170983738271
          0 -0.00000453670431871543 -0.00000891983531825639 0 0 0
          0 1.3327541159178678e-8 3.925674203493233e-9 -4.685876563735046e-9 6.7716873737650344e-9 1.8034745977569655e-8
          2.048288990958333e-9 -1.3995117917517288e-8 8.797438973512238e-9 0 0 -0.000004200818307505607
          -0.000004461080894080345 -0.000008173619046243809 -0.000008856065223057142 0 0 1.0441202791365095e-8
          2.034002022423212e-8 1.1779845047151231e-8 2.7940836525613506e-8 0 0 -0.000005372800643770352
          -0.000004537892346164132 -0.000010859231230502131 -0.00000898374696711468 0 0 -0.000003168948858538607
          -0.000003196071688665269 -0.000006246091429099605 -0.000006420690732944671 0 -7.490759651983893e-9 -1.983284700144245e-8
          0 -2.517119106128174e-7 -5.495332548874802e-7 0 0 -0.000001499711874633512
          -8.561563729560318e-7 -0.000003015903475548074 -0.0000019631543136314943 0 -2.889108463787495e-7 -6.258375595260498e-7
          0 -8.769570117798394e-8 5.322038501708358e-7 0 5.763044642452663e-8 8.544160178513797e-8
          0 -9.66590059769824e-8 -2.4476957215372803e-7 0 -1.9148979735689105e-8 -4.4672857994123696e-8
          0 -9.27620642389991e-8 4.076502992789034e-7 0 -0.000002540245121845837 -0.000005207890990922714
          0 -0.000006199782132206171 -0.000012356154899758695 0 -0.0000034618648050854203 -0.000006782917473616656
          0 1.0095003070785056e-9 -3.197236297142452e-9 0 4.9318734660666986e-8 -2.204053146128777e-8
          0 -4.940773151679645e-7 -9.75573203446218e-7 0 -4.855728969251e-7 -9.707047021228456e-7
          0 -5.509384714666737e-7 -0.0000010891615638605953 0 -5.087689819107291e-7 -0.0000010161507148884633
          0 -5.828399331533707e-7 -0.000001154733506333149 0 -5.784148892155018e-7 -0.0000011501013229243382
          0 -5.266262289825416e-7 -0.0000010514417757849402 0 -4.1108227861761e-7 -8.37154548298755e-7
          0 -1.9666836163758823e-7 -4.097831856817232e-7 0 0 -1.951849601955859e-7
          -1.43405054351697e-7 -4.5653442533827646e-7 -3.0979885176720046e-7 0 0 0
          0 -8.421990783156929e-8 -5.352645520312038e-8 -5.0671344631783725e-8 -8.718408779883125e-8 -1.7751054049259646e-7
          -1.0488792863035044e-7 -1.0987645131243794e-7 -1.8248171642049848e-7 0 -2.9327912417942075e-8 -5.550186273147499e-8
          0 -1.1450174537246621e-7 -2.2740377961431322e-7 0 -2.141544652832983e-8 -4.6799929918075946e-8
          0 0 -4.60809998338849e-7 -4.6951395868015786e-7 -9.175916622060161e-7 -9.347632903168493e-7
          0 -5.080034025457595e-7 -0.0000010133630916311087 0 -4.277870312043789e-7 -8.523561768430062e-7
          0 -4.749440434769811e-7 -9.46115185763022e-7 0 -4.014083599067096e-7 -7.984441069976764e-7
          0 -2.847400291279428e-7 -5.701320246243913e-7 0 -1.493485074045407e-7 -2.9945090997474764e-7
          0 -9.857444918427892e-8 -2.0443711196087468e-7 0 0 0
          -2.898208124837236e-8 -5.824118081686269e-8 -5.893837995354825e-8 -5.706353029204423e-8 -1.1579001897718434e-7 -1.1889361285916568e-7
        </DataArray>
      </PointData>
      <CellData>
        <DataArray type="Int32" Name="libmesh_elem_id" format="ascii" RangeMin="40" RangeMax="1373">
          40 41 42 43 44 45
          46 47 48 49 50 51
          52 53 54 55 56 57
          98 99 100 101 102 103
          104 105 106 107 108 109
          110 111 112 113 114 115
          156 157 158 159 160 161
          162 163 164 165 166 167
          168 169 170 171 172 173
          214 215 216 217 218 219
          220 221 222 223 224 225
          226 227 228 229 230 231
          272 273 274 275 276 277
          278 279 280 281 282 283
          284 285 286 287 288 289
          330 331 332 333 334 335
          336 337 338 339 340 341
          342 343 344 345 346 347
          388 389 390 391 392 393
          394 395 396 397 398 399
          400 401 402 403 404 405
          446 447 448 449 450 451
          452 453 454 455 456 457
          458 459 460 461 462 463
          508 509 510 511 512 513
          514 515 516 517 518 519
          520 521 522 523 524 525
          526 527 528 529 530 531
          532 533 534 535 536 537
          538 539 540 541 542 543
          544 545 546 547 548 549
          550 551 552 553 554 555
          556 557 558 559 560 561
          562 563 564 565 566 567
          568 569 570 571 572 573
          574 575 576 577 578 579
          580 581 582 583 584 585
          586 587 588 589 590 591
          592 593 594 595 596 597
          598 599 600 601 602 603
          604 605 606 607 608 609
          610 611 612 613 614 615
          616 617 618 619 620 621
          622 623 624 625 626 627
          628 629 630 631 632 633
          634 635 636 637 638 639
          640 641 642 643 644 645
          646 647 648 649 650 651
          652 653 654 655 656 657
          658 659 660 661 662 663
          664 665 666 667 668 669
          670 671 672 673 674 675
          676 677 678 679 680 681
          682 683 684 685 686 687
          688 689 690 691 692 693
          694 695 696 697 698 699
          700 701 702 703 704 705
          706 707 708 709 710 711
          712 713 714 715 716 717
          718 719 720 721 722 723
          724 725 726 727 728 729
          730 731 732 733 734 735
          736 737 738 739 740 741
          742 743 744 745 746 747
          748 749 750 751 752 753
          754 755 756 757 758 759
          760 761 762 763 764 765
          766 767 768 769 770 771
          1186 1187 1188 1189 1190 1191
          1204 1205 1206 1207 1208 1209
          1222 1223 1224 1225 1240 1241
          1242 1243 1258 1259 1260 1261
          1276 1277 1278 1279 1300 1301
          1304 1305 1306 1307 1314 1315
          1316 1317 1326 1327 1328 1329
          1330 1331 1338 1339 1344 1345
          1348 1349 1356 1357 1358 1359
          1360 1361 1366 1367 1372 1373
        </DataArray>
        <DataArray type="Int32" Name="subdomain_id" format="ascii" RangeMin="103" RangeMax="143">
          103 103 103 103 103 103
          103 103 103 103 103 103
          103 103 103 103 103 103
          103 103 103 103 103 103
          103 103 103 103 103 103
          103 103 103 103 103 103
          103 103 103 103 103 103
          103 103 103 103 103 103
          103 103 103 103 103 103
          103 103 103 103 103 103
          103 103 103 103 103 103
          103 103 103 103 103 103
          103 103 103 103 103 103
          103 103 103 103 103 103
          103 103 103 103 103 103
          103 103 103 103 103 103
          103 103 103 103 103 103
          103 103 103 103 103 103
          103 103 103 103 103 103
          103 103 103 103 103 103
          103 103 103 103 103 103
          103 103 103 103 103 103
          103 103 103 103 103 103
          103 103 103 103 103 103
          103 103 103 103 103 103
          103 103 103 103 103 103
          103 103 104 104 104 104
          104 104 104 104 104 104
          104 104 104 104 104 104
          104 104 104 104 104 104
          104 104 104 104 104 104
          104 104 104 104 104 104
          104 104 104 104 104 104
          104 104 104 104 104 104
          104 104 104 104 104 104
          104 104 104 104 104 104
          104 104 104 104 104 104
          104 104 104 104 104 104
          104 104 104 104 104 104
          104 104 104 104 104 104
          104 104 104 104 104 104
          104 104 104 104 104 104
          104 104 104 104 104 104
          104 104 104 104 104 104
          104 104 104 104 104 104
          104 104 104 104 104 104
          104 104 104 104 104 104
          104 104 104 104 104 104
          104 104 104 104 104 104
          104 104 104 104 104 104
          104 104 104 104 104 104
          104 104 104 104 104 104
          104 104 104 104 104 104
          104 104 104 104 104 104
          104 104 104 104 104 104
          104 104 104 104 104 104
          104 104 104 104 104 104
          104 104 104 104 104 104
          104 104 104 104 104 104
          141 141 141 141 141 141
          141 141 141 141 141 141
          141 141 141 141 141 141
          141 141 141 141 141 141
          141 141 141 141 141 141
          141 141 141 141 141 141
          141 141 141 141 141 141
          141 141 141 141 141 141
          141 141 141 141 141 141
          105 105 105 105 105 105
          105 105 105 105 105 105
          105 105 105 105 105 105
          105 105 105 105 105 105
          105 105 105 105 106 106
          106 106 106 106 106 106
          106 106 106 106 106 106
          106 106 106 106 106 106
          106 106 106 106 106 106
          143 143 143 143 143 143
        </DataArray>
        <DataArray type="Int32" Name="processor_id" format="ascii" RangeMin="5" RangeMax="5">
          5 5 5 5 5 5
          5 5 5 5 5 5
          5 5 5 5 5 5
          5 5 5 5 5 5
          5 5 5 5 5 5
          5 5 5 5 5 5
          5 5 5 5 5 5
          5 5 5 5 5 5
          5 5 5 5 5 5
          5 5 5 5 5 5
          5 5 5 5 5 5
          5 5 5 5 5 5
          5 5 5 5 5 5
          5 5 5 5 5 5
          5 5 5 5 5 5
          5 5 5 5 5 5
          5 5 5 5 5 5
          5 5 5 5 5 5
          5 5 5 5 5 5
          5 5 5 5 5 5
          5 5 5 5 5 5
          5 5 5 5 5 5
          5 5 5 5 5 5
          5 5 5 5 5 5
          5 5 5 5 5 5
          5 5 5 5 5 5
          5 5 5 5 5 5
          5 5 5 5 5 5
          5 5 5 5 5 5
          5 5 5 5 5 5
          5 5 5 5 5 5
          5 5 5 5 5 5
          5 5 5 5 5 5
          5 5 5 5 5 5
          5 5 5 5 5 5
          5 5 5 5 5 5
          5 5 5 5 5 5
          5 5 5 5 5 5
          5 5 5 5 5 5
          5 5 5 5 5 5
          5 5 5 5 5 5
          5 5 5 5 5 5
          5 5 5 5 5 5
          5 5 5 5 5 5
          5 5 5 5 5 5
          5 5 5 5 5 5
          5 5 5 5 5 5
          5 5 5 5 5 5
          5 5 5 5 5 5
          5 5 5 5 5 5
          5 5 5 5 5 5
          5 5 5 5 5 5
          5 5 5 5 5 5
          5 5 5 5 5 5
          5 5 5 5 5 5
          5 5 5 5 5 5
          5 5 5 5 5 5
          5 5 5 5 5 5
          5 5 5 5 5 5
          5 5 5 5 5 5
          5 5 5 5 5 5
          5 5 5 5 5 5
          5 5 5 5 5 5
          5 5 5 5 5 5
          5 5 5 5 5 5
          5 5 5 5 5 5
          5 5 5 5 5 5
          5 5 5 5 5 5
          5 5 5 5 5 5
          5 5 5 5 5 5
          5 5 5 5 5 5
          5 5 5 5 5 5
          5 5 5 5 5 5
          5 5 5 5 5 5
          5 5 5 5 5 5
          5 5 5 5 5 5
          5 5 5 5 5 5
          5 5 5 5 5 5
        </DataArray>
      </CellData>
      <Points>
        <DataArray type="Float64" Name="Points" NumberOfComponents="3" format="ascii" RangeMin="0.0082758620689774" RangeMax="0.013139935358843113">
          0.00011111111111123 0.0082758620689751 0 0 0.0082758620689774 0
          0.00011111111111123 0.0082758620689751 0.00015 0 0.0082758620689774 0.00015
          0.00011111111111123 0.0082758620689751 0.0003 0 0.0082758620689774 0.0003
          0.00011111111111125 0.0086896551724226 0 0 0.0086896551724246 0
          0.00011111111111125 0.0086896551724226 0.00015 0 0.0086896551724246 0.00015
          0.00011111111111125 0.0086896551724226 0.0003 0 0.0086896551724246 0.0003
          0.00011111111111126 0.0091034482758696 0 0 0.0091034482758716 0
          0.00011111111111126 0.0091034482758696 0.00015 0 0.0091034482758716 0.00015
          0.00011111111111126 0.0091034482758696 0.0003 0 0.0091034482758716 0.0003
          0.00011111111111128 0.0095172413793168 0 0 0.0095172413793185 0
          0.00011111111111128 0.0095172413793168 0.00015 0 0.0095172413793185 0.00015
          0.00011111111111128 0.0095172413793168 0.0003 0 0.0095172413793185 0.0003
          0.00011111111111129 0.0099310344827632 0 0 0.0099310344827645 0
          0.00011111111111129 0.0099310344827632 0.00015 0 0.0099310344827645 0.00015
          0.00011111111111129 0.0099310344827632 0.0003 0 0.0099310344827645 0.0003
          0.00011111111111131 0.01034482758621 0 0 0.01034482758621 0
          0.00011111111111131 0.01034482758621 0.00015 0 0.01034482758621 0.00015
          0.00011111111111131 0.01034482758621 0.0003 0 0.01034482758621 0.0003
          0.00011111111111132 0.010758620689657 0 0 0.010758620689657 0
          0.00011111111111132 0.010758620689657 0.00015 0 0.010758620689657 0.00015
          0.00011111111111132 0.010758620689657 0.0003 0 0.010758620689657 0.0003
          0.00011111111111134 0.011172413793104 0 0 0.011172413793104 0
          0.00011111111111134 0.011172413793104 0.00015 0 0.011172413793104 0.00015
          0.00011111111111134 0.011172413793104 0.0003 0 0.011172413793104 0.0003
          0.00011111111111135 0.011586206896551 0 0 0.011586206896551 0
          0.00011111111111135 0.011586206896551 0.00015 0 0.011586206896551 0.00015
          0.00011111111111135 0.011586206896551 0.0003 0 0.011586206896551 0.0003
          0.00011111111111137 0.012 0 0 0.012 0
          0.00011111111111137 0.012 0.00015 0 0.012 0.00015
          0.00011111111111137 0.012 0.0003 0 0.012 0.0003
          0.00022222222222243 0.0082758620689727 0 0.00022222222222243 0.0082758620689727 0.00015
          0.00022222222222243 0.0082758620689727 0.0003 0.00022222222222246 0.0086896551724206 0
          0.00022222222222246 0.0086896551724206 0.00015 0.00022222222222246 0.0086896551724206 0.0003
          0.00022222222222249 0.0091034482758676 0 0.00022222222222249 0.0091034482758676 0.00015
          0.00022222222222249 0.0091034482758676 0.0003 0.00022222222222253 0.0095172413793151 0
          0.00022222222222253 0.0095172413793151 0.00015 0.00022222222222253 0.0095172413793151 0.0003
          0.00022222222222256 0.0099310344827619 0 0.00022222222222256 0.0099310344827619 0.00015
          0.00022222222222256 0.0099310344827619 0.0003 0.0002222222222226 0.010344827586209 0
          0.0002222222222226 0.010344827586209 0.00015 0.0002222222222226 0.010344827586209 0.0003
          0.00022222222222263 0.010758620689656 0 0.00022222222222263 0.010758620689656 0.00015
          0.00022222222222263 0.010758620689656 0.0003 0.00022222222222266 0.011172413793103 0
          0.00022222222222266 0.011172413793103 0.00015 0.00022222222222266 0.011172413793103 0.0003
          0.0002222222222227 0.011586206896551 0 0.0002222222222227 0.011586206896551 0.00015
          0.0002222222222227 0.011586206896551 0.0003 0.00022222222222273 0.012 0
          0.00022222222222273 0.012 0.00015 0.00022222222222273 0.012 0.0003
          0.00033333333333363 0.0082758620689704 0 0.00033333333333363 0.0082758620689704 0.00015
          0.00033333333333363 0.0082758620689704 0.0003 0.00033333333333368 0.0086896551724185 0
          0.00033333333333368 0.0086896551724185 0.00015 0.00033333333333368 0.0086896551724185 0.0003
          0.00033333333333373 0.0091034482758657 0 0.00033333333333373 0.0091034482758657 0.00015
          0.00033333333333373 0.0091034482758657 0.0003 0.00033333333333379 0.0095172413793133 0
          0.00033333333333379 0.0095172413793133 0.00015 0.00033333333333379 0.0095172413793133 0.0003
          0.00033333333333384 0.0099310344827607 0 0.00033333333333384 0.0099310344827607 0.00015
          0.00033333333333384 0.0099310344827607 0.0003 0.00033333333333389 0.010344827586208 0
          0.00033333333333389 0.010344827586208 0.00015 0.00033333333333389 0.010344827586208 0.0003
          0.00033333333333394 0.010758620689656 0 0.00033333333333394 0.010758620689656 0.00015
          0.00033333333333394 0.010758620689656 0.0003 0.000333333333334 0.011172413793103 0
          0.000333333333334 0.011172413793103 0.00015 0.000333333333334 0.011172413793103 0.0003
          0.00033333333333405 0.011586206896551 0 0.00033333333333405 0.011586206896551 0.00015
          0.00033333333333405 0.011586206896551 0.0003 0.0003333333333341 0.012 0
          0.0003333333333341 0.012 0.00015 0.0003333333333341 0.012 0.0003
          0.00044444444444486 0.0082758620689681 0 0.00044444444444486 0.0082758620689681 0.00015
          0.00044444444444486 0.0082758620689681 0.0003 0.00044444444444493 0.0086896551724165 0
          0.00044444444444493 0.0086896551724165 0.00015 0.00044444444444493 0.0086896551724165 0.0003
          0.00044444444444501 0.0091034482758637 0 0.00044444444444501 0.0091034482758637 0.00015
          0.00044444444444501 0.0091034482758637 0.0003 0.00044444444444508 0.0095172413793116 0
          0.00044444444444508 0.0095172413793116 0.00015 0.00044444444444508 0.0095172413793116 0.0003
          0.00044444444444516 0.0099310344827594 0 0.00044444444444516 0.0099310344827594 0.00015
          0.00044444444444516 0.0099310344827594 0.0003 0.00044444444444523 0.010344827586207 0
          0.00044444444444523 0.010344827586207 0.00015 0.00044444444444523 0.010344827586207 0.0003
          0.00044444444444531 0.010758620689655 0 0.00044444444444531 0.010758620689655 0.00015
          0.00044444444444531 0.010758620689655 0.0003 0.00044444444444538 0.011172413793103 0
          0.00044444444444538 0.011172413793103 0.00015 0.00044444444444538 0.011172413793103 0.0003
          0.00044444444444546 0.011586206896551 0 0.00044444444444546 0.011586206896551 0.00015
          0.00044444444444546 0.011586206896551 0.0003 0.00044444444444553 0.012 0
          0.00044444444444553 0.012 0.00015 0.00044444444444553 0.012 0.0003
          0.00055555555555597 0.0082758620689657 0 0.00055555555555597 0.0082758620689657 0.00015
          0.00055555555555597 0.0082758620689657 0.0003 0.00055555555555605 0.0086896551724145 0
          0.00055555555555605 0.0086896551724145 0.00015 0.00055555555555605 0.0086896551724145 0.0003
          0.00055555555555613 0.0091034482758618 0 0.00055555555555613 0.0091034482758618 0.00015
          0.00055555555555613 0.0091034482758618 0.0003 0.00055555555555621 0.0095172413793099 0
          0.00055555555555621 0.0095172413793099 0.00015 0.00055555555555621 0.0095172413793099 0.0003
          0.00055555555555629 0.0099310344827581 0 0.00055555555555629 0.0099310344827581 0.00015
          0.00055555555555629 0.0099310344827581 0.0003 0.00055555555555636 0.010344827586206 0
          0.00055555555555636 0.010344827586206 0.00015 0.00055555555555636 0.010344827586206 0.0003
          0.00055555555555644 0.010758620689655 0 0.00055555555555644 0.010758620689655 0.00015
          0.00055555555555644 0.010758620689655 0.0003 0.00055555555555652 0.011172413793102 0
          0.00055555555555652 0.011172413793102 0.00015 0.00055555555555652 0.011172413793102 0.0003
          0.0005555555555566 0.011586206896551 0 0.0005555555555566 0.011586206896551 0.00015
          0.0005555555555566 0.011586206896551 0.0003 0.00055555555555667 0.012 0
          0.00055555555555667 0.012 0.00015 0.00055555555555667 0.012 0.0003
          0.00066666666666675 0.0082758620689634 0 0.00066666666666675 0.0082758620689634 0.00015
          0.00066666666666675 0.0082758620689634 0.0003 0.00066666666666679 0.0086896551724125 0
          0.00066666666666679 0.0086896551724125 0.00015 0.00066666666666679 0.0086896551724125 0.0003
          0.00066666666666684 0.0091034482758598 0 0.00066666666666684 0.0091034482758598 0.00015
          0.00066666666666684 0.0091034482758598 0.0003 0.00066666666666688 0.0095172413793081 0
          0.00066666666666688 0.0095172413793081 0.00015 0.00066666666666688 0.0095172413793081 0.0003
          0.00066666666666693 0.0099310344827568 0 0.00066666666666693 0.0099310344827568 0.00015
          0.00066666666666693 0.0099310344827568 0.0003 0.00066666666666697 0.010344827586205 0
          0.00066666666666697 0.010344827586205 0.00015 0.00066666666666697 0.010344827586205 0.0003
          0.00066666666666701 0.010758620689654 0 0.00066666666666701 0.010758620689654 0.00015
          0.00066666666666701 0.010758620689654 0.0003 0.00066666666666706 0.011172413793102 0
          0.00066666666666706 0.011172413793102 0.00015 0.00066666666666706 0.011172413793102 0.0003
          0.0006666666666671 0.01158620689655 0 0.0006666666666671 0.01158620689655 0.00015
          0.0006666666666671 0.01158620689655 0.0003 0.00066666666666715 0.012 0
          0.00066666666666715 0.012 0.00015 0.00066666666666715 0.012 0.0003
          0.00077777777777787 0.0082758620689611 0 0.00077777777777787 0.0082758620689611 0.00015
          0.00077777777777787 0.0082758620689611 0.0003 0.00077777777777791 0.0086896551724104 0
          0.00077777777777791 0.0086896551724104 0.00015 0.00077777777777791 0.0086896551724104 0.0003
          0.00077777777777794 0.0091034482758578 0 0.00077777777777794 0.0091034482758578 0.00015
          0.00077777777777794 0.0091034482758578 0.0003 0.00077777777777797 0.0095172413793064 0
          0.00077777777777797 0.0095172413793064 0.00015 0.00077777777777797 0.0095172413793064 0.0003
          0.000777777777778 0.0099310344827555 0 0.000777777777778 0.0099310344827555 0.00015
          0.000777777777778 0.0099310344827555 0.0003 0.00077777777777803 0.010344827586205 0
          0.00077777777777803 0.010344827586205 0.00015 0.00077777777777803 0.010344827586205 0.0003
          0.00077777777777806 0.010758620689654 0 0.00077777777777806 0.010758620689654 0.00015
          0.00077777777777806 0.010758620689654 0.0003 0.00077777777777809 0.011172413793101 0
          0.00077777777777809 0.011172413793101 0.00015 0.00077777777777809 0.011172413793101 0.0003
          0.00077777777777813 0.01158620689655 0 0.00077777777777813 0.01158620689655 0.00015
          0.00077777777777813 0.01158620689655 0.0003 0.00077777777777816 0.012 0
          0.00077777777777816 0.012 0.00015 0.00077777777777816 0.012 0.0003
          0.0008888888888888 0.0082758620689588 0 0.0008888888888888 0.0082758620689588 0.00015
          0.0008888888888888 0.0082758620689588 0.0003 0.00088888888888881 0.0086896551724084 0
          0.00088888888888881 0.0086896551724084 0.00015 0.00088888888888881 0.0086896551724084 0.0003
          0.00088888888888882 0.0091034482758559 0 0.00088888888888882 0.0091034482758559 0.00015
          0.00088888888888882 0.0091034482758559 0.0003 0.00088888888888883 0.0095172413793047 0
          0.00088888888888883 0.0095172413793047 0.00015 0.00088888888888883 0.0095172413793047 0.0003
          0.00088888888888884 0.0099310344827542 0 0.00088888888888884 0.0099310344827542 0.00015
          0.00088888888888884 0.0099310344827542 0.0003 0.00088888888888885 0.010344827586204 0
          0.00088888888888885 0.010344827586204 0.00015 0.00088888888888885 0.010344827586204 0.0003
          0.00088888888888885 0.010758620689653 0 0.00088888888888885 0.010758620689653 0.00015
          0.00088888888888885 0.010758620689653 0.0003 0.00088888888888886 0.011172413793101 0
          0.00088888888888886 0.011172413793101 0.00015 0.00088888888888886 0.011172413793101 0.0003
          0.00088888888888887 0.01158620689655 0 0.00088888888888887 0.01158620689655 0.00015
          0.00088888888888887 0.01158620689655 0.0003 0.00088888888888888 0.012 0
          0.00088888888888888 0.012 0.00015 0.00088888888888888 0.012 0.0003
          0.001 0.0091034482758539 0 0.001 0.0091034482758539 0.00015
          0.001 0.0091034482758539 0.0003 0.001 0.0095172413793029 0
          0.001 0.0095172413793029 0.00015 0.001 0.0095172413793029 0.0003
          0.001 0.0099310344827529 0 0.001 0.0099310344827529 0.00015
          0.001 0.0099310344827529 0.0003 0.001 0.010344827586203 0
          0.001 0.010344827586203 0.00015 0.001 0.010344827586203 0.0003
          0.001 0.010758620689653 0 0.001 0.010758620689653 0.00015
          0.001 0.010758620689653 0.0003 0.001 0.0111724137931 0
          0.001 0.0111724137931 0.00015 0.001 0.0111724137931 0.0003
          0.001 0.01158620689655 0 0.001 0.01158620689655 0.00015
          0.001 0.01158620689655 0.0003 0.001 0.012 0
          0.001 0.012 0.00015 0.001 0.012 0.0003
          0.00067947077571632 0.012798245728111 0 0.00068678568032061 0.012710429785181 0
          0.00076344362314339 0.012698069087358 0 0.00078000626700894 0.012788238676479 0
          0.00067947077571632 0.012798245728111 0.00015 0.00068678568032061 0.012710429785181 0.00015
          0.00076344362314339 0.012698069087358 0.00015 0.00078000626700894 0.012788238676479 0.00015
          0.00067947077571632 0.012798245728111 0.0003 0.00068678568032061 0.012710429785181 0.0003
          0.00076344362314339 0.012698069087358 0.0003 0.00078000626700894 0.012788238676479 0.0003
          0.0007101811699723 0.012881232243155 0 0.00078737528777453 0.012884598822829 0
          0.0007101811699723 0.012881232243155 0.00015 0.00078737528777453 0.012884598822829 0.00015
          0.0007101811699723 0.012881232243155 0.0003 0.00078737528777453 0.012884598822829 0.0003
          0.00063149088332091 0.012876508075697 0 0.00071156048039536 0.012943694476106 0
          0.00064992343237843 0.012944046337553 0 0.00063149088332091 0.012876508075697 0.00015
          0.00071156048039536 0.012943694476106 0.00015 0.00064992343237843 0.012944046337553 0.00015
          0.00063149088332091 0.012876508075697 0.0003 0.00071156048039536 0.012943694476106 0.0003
          0.00064992343237843 0.012944046337553 0.0003 0.00014271480927744 0.012184528409521 0
          0.00021074182908597 0.012239195039162 0 0.00014617236906556 0.012274772666576 0
          0.00010836971036758 0.0122326927564 0 0.00014271480927744 0.012184528409521 0.00015
          0.00021074182908597 0.012239195039162 0.00015 0.00014617236906556 0.012274772666576 0.00015
          0.00010836971036758 0.0122326927564 0.00015 0.00014271480927744 0.012184528409521 0.0003
          0.00021074182908597 0.012239195039162 0.0003 0.00014617236906556 0.012274772666576 0.0003
          0.00010836971036758 0.0122326927564 0.0003 0.00040316247653445 0.012523054457121 0
          0.00050524235438491 0.012516470580574 0 0.00047556583290331 0.012611926172403 0
          0.00040677839563254 0.01259579728731 0 0.00040316247653445 0.012523054457121 0.00015
          0.00050524235438491 0.012516470580574 0.00015 0.00047556583290331 0.012611926172403 0.00015
          0.00040677839563254 0.01259579728731 0.00015 0.00040316247653445 0.012523054457121 0.0003
          0.00050524235438491 0.012516470580574 0.0003 0.00047556583290331 0.012611926172403 0.0003
          0.00040677839563254 0.01259579728731 0.0003 0.00038389728538556 0.012111104172094 0
          0.00037958632650406 0.012195366170904 0 0.00029855370140418 0.012181148574691 0
          0.00029802321336891 0.012105931916082 0 0.00038389728538556 0.012111104172094 0.00015
          0.00037958632650406 0.012195366170904 0.00015 0.00029855370140418 0.012181148574691 0.00015
          0.00029802321336891 0.012105931916082 0.00015 0.00038389728538556 0.012111104172094 0.0003
          0.00037958632650406 0.012195366170904 0.0003 0.00029855370140418 0.012181148574691 0.0003
          0.00029802321336891 0.012105931916082 0.0003 0.00062435778703091 0.012280526392523 0
          0.00063694887874418 0.012191685157308 0 0.00075163746499696 0.012211869018538 0
          0.0007101306235237 0.012330652999586 0 0.00062435778703091 0.012280526392523 0.00015
          0.00063694887874418 0.012191685157308 0.00015 0.00075163746499696 0.012211869018538 0.00015
          0.0007101306235237 0.012330652999586 0.00015 0.00062435778703091 0.012280526392523 0.0003
          0.00063694887874418 0.012191685157308 0.0003 0.00075163746499696 0.012211869018538 0.0003
          0.0007101306235237 0.012330652999586 0.0003 0.00090036231429234 0.012108977226849 0
          0.00080269198720626 0.012096984730608 0 0.00090036231429234 0.012108977226849 0.00015
          0.00080269198720626 0.012096984730608 0.00015 0.00090036231429234 0.012108977226849 0.0003
          0.00080269198720626 0.012096984730608 0.0003 0.00023865656240352 0.012177237347116 0
          0.00029061852669854 0.01224857812735 0 0.00023865656240352 0.012177237347116 0.00015
          0.00029061852669854 0.01224857812735 0.00015 0.00023865656240352 0.012177237347116 0.0003
          0.00029061852669854 0.01224857812735 0.0003 0.00056164385173704 0.012835416164401 0
          0.00056508360468666 0.012898794448667 0 0.00049240387645224 0.012913175910861 0
          0.00046984631090009 0.012828989929731 0 0.00056164385173704 0.012835416164401 0.00015
          0.00056508360468666 0.012898794448667 0.00015 0.00049240387645224 0.012913175910861 0.00015
          0.00046984631090009 0.012828989929731 0.00015 0.00056164385173704 0.012835416164401 0.0003
          0.00056508360468666 0.012898794448667 0.0003 0.00049240387645224 0.012913175910861 0.0003
          0.00046984631090009 0.012828989929731 0.0003 0.000050495613361417 0.012066083920595 0
          0.00011131843390441 0.012086989142678 0 0.000069577205110887 0.012153607960951 0
          0 0.012111111111109 0 0.000050495613361417 0.012066083920595 0.00015
          0.00011131843390441 0.012086989142678 0.00015 0.000069577205110887 0.012153607960951 0.00015
          0 0.012111111111109 0.00015 0.000050495613361417 0.012066083920595 0.0003
          0.00011131843390441 0.012086989142678 0.0003 0.000069577205110887 0.012153607960951 0.0003
          0 0.012111111111109 0.0003 0.00022470825547396 0.012306913365418 0
          0.00017103954025546 0.012340304715306 0 0.00022470825547396 0.012306913365418 0.00015
          0.00017103954025546 0.012340304715306 0.00015 0.00022470825547396 0.012306913365418 0.0003
          0.00017103954025546 0.012340304715306 0.0003 0.00085640575367095 0.012657655614724 0
          0.001 0.012571428571438 0 0.001 0.012714285714292 0
          0.00089085524488654 0.012778191533234 0 0.00085640575367095 0.012657655614724 0.00015
          0.001 0.012571428571438 0.00015 0.001 0.012714285714292 0.00015
          0.00089085524488654 0.012778191533234 0.00015 0.00085640575367095 0.012657655614724 0.0003
          0.001 0.012571428571438 0.0003 0.001 0.012714285714292 0.0003
          0.00089085524488654 0.012778191533234 0.0003 0.00017101007138246 0.012530153689505 0
          0.000086824088695593 0.01250759612347 0 0.00010015626416536 0.012463076177022 0
          0.00018026894988108 0.012457509098897 0 0.00017101007138246 0.012530153689505 0.00015
          0.000086824088695593 0.01250759612347 0.00015 0.00010015626416536 0.012463076177022 0.00015
          0.00018026894988108 0.012457509098897 0.00015 0.00017101007138246 0.012530153689505 0.0003
          0.000086824088695593 0.01250759612347 0.0003 0.00010015626416536 0.012463076177022 0.0003
          0.00018026894988108 0.012457509098897 0.0003 0.00055555555555552 0.013 0
          0.00054972466987376 0.012958523613261 0 0.00059017772624368 0.012950117696029 0
          0.00061111111111072 0.013 0 0.00055555555555552 0.013 0.00015
          0.00054972466987376 0.012958523613261 0.00015 0.00059017772624368 0.012950117696029 0.00015
          0.00061111111111072 0.013 0.00015 0.00055555555555552 0.013 0.0003
          0.00054972466987376 0.012958523613261 0.0003 0.00059017772624368 0.012950117696029 0.0003
          0.00061111111111072 0.013 0.0003 0.00056012017374448 0.012193168747791 0
          0.00054338833040714 0.012250054231166 0 0.00056012017374448 0.012193168747791 0.00015
          0.00054338833040714 0.012250054231166 0.00015 0.00056012017374448 0.012193168747791 0.0003
          0.00054338833040714 0.012250054231166 0.0003 0.00020164702899907 0.012111009853496 0
          0.00020164702899907 0.012111009853496 0.00015 0.00020164702899907 0.012111009853496 0.0003
          0.00058698867508036 0.01276393301723 0 0.00061242021253103 0.012689969395149 0
          0.00058698867508036 0.01276393301723 0.00015 0.00061242021253103 0.012689969395149 0.00015
          0.00058698867508036 0.01276393301723 0.0003 0.00061242021253103 0.012689969395149 0.0003
          0.00054704952286259 0.01264760123259 0 0.00058547756026548 0.012574831423214 0
          0.00066845126455385 0.012625352450745 0 0.00054704952286259 0.01264760123259 0.00015
          0.00058547756026548 0.012574831423214 0.00015 0.00066845126455385 0.012625352450745 0.00015
          0.00054704952286259 0.01264760123259 0.0003 0.00058547756026548 0.012574831423214 0.0003
          0.00066845126455385 0.012625352450745 0.0003 0.00040316497174951 0.012375710115571 0
          0.00038996592658543 0.012448925709731 0 0.00030251984068288 0.012451026681152 0
          0.00030273327950676 0.012339921797294 0 0.00040316497174951 0.012375710115571 0.00015
          0.00038996592658543 0.012448925709731 0.00015 0.00030251984068288 0.012451026681152 0.00015
          0.00030273327950676 0.012339921797294 0.00015 0.00040316497174951 0.012375710115571 0.0003
          0.00038996592658543 0.012448925709731 0.0003 0.00030251984068288 0.012451026681152 0.0003
          0.00030273327950676 0.012339921797294 0.0003 0 0.012166666666663 0
          0.000060257043043922 0.012213388328671 0 0 0.012222222222217 0
          0 0.012166666666663 0.00015 0.000060257043043922 0.012213388328671 0.00015
          0 0.012222222222217 0.00015 0 0.012166666666663 0.0003
          0.000060257043043922 0.012213388328671 0.0003 0 0.012222222222217 0.0003
          0.00086766031505541 0.012218873949421 0 0.00070802748250363 0.01210226547145 0
          0.00086766031505541 0.012218873949421 0.00015 0.00070802748250363 0.01210226547145 0.00015
          0.00086766031505541 0.012218873949421 0.0003 0.00070802748250363 0.01210226547145 0.0003
          0.00045681564832724 0.012667985356076 0 0.00038302222240927 0.012678606196169 0
          0.00045681564832724 0.012667985356076 0.00015 0.00038302222240927 0.012678606196169 0.00015
          0.00045681564832724 0.012667985356076 0.0003 0.00038302222240927 0.012678606196169 0.0003
          0.00057343997443155 0.012462111372123 0 0.00067467937701806 0.012497336760124 0
          0.00057343997443155 0.012462111372123 0.00015 0.00067467937701806 0.012497336760124 0.00015
          0.00057343997443155 0.012462111372123 0.0003 0.00067467937701806 0.012497336760124 0.0003
          0 0.012388888888886 0 0.00004805763346656 0.012364070531781 0
          0.000052775834931525 0.012418323433379 0 0 0.012444444444443 0
          0 0.012388888888886 0.00015 0.00004805763346656 0.012364070531781 0.00015
          0.000052775834931525 0.012418323433379 0.00015 0 0.012444444444443 0.00015
          0 0.012388888888886 0.0003 0.00004805763346656 0.012364070531781 0.0003
          0.000052775834931525 0.012418323433379 0.0003 0 0.012444444444443 0.0003
          0.0004655657017567 0.012222981448331 0 0.0004403524252846 0.012306679111378 0
          0.00036518397892919 0.012268658791136 0 0.0004655657017567 0.012222981448331 0.00015
          0.0004403524252846 0.012306679111378 0.00015 0.00036518397892919 0.012268658791136 0.00015
          0.0004655657017567 0.012222981448331 0.0003 0.0004403524252846 0.012306679111378 0.0003
          0.00036518397892919 0.012268658791136 0.0003 0.00079059026611164 0.012574208252283 0
          0.00074033738884001 0.012629472897336 0 0.00079059026611164 0.012574208252283 0.00015
          0.00074033738884001 0.012629472897336 0.00015 0.00079059026611164 0.012574208252283 0.0003
          0.00074033738884001 0.012629472897336 0.0003 0.00049134001885305 0.012124425854677 0
          0.00060162315338905 0.012101782274206 0 0.00049134001885305 0.012124425854677 0.00015
          0.00060162315338905 0.012101782274206 0.00015 0.00049134001885305 0.012124425854677 0.0003
          0.00060162315338905 0.012101782274206 0.0003 0.00055165526617401 0.012365152711649 0
          0.00046621557592763 0.012427373679685 0 0.00055165526617401 0.012365152711649 0.00015
          0.00046621557592763 0.012427373679685 0.00015 0.00055165526617401 0.012365152711649 0.0003
          0.00046621557592763 0.012427373679685 0.0003 0.00065175768920993 0.012395993188634 0
          0.00078658012555766 0.01242031863996 0 0.00065175768920993 0.012395993188634 0.00015
          0.00078658012555766 0.01242031863996 0.00015 0.00065175768920993 0.012395993188634 0.0003
          0.00078658012555766 0.01242031863996 0.0003 0.00072222222222142 0.013 0
          0.00076767785213736 0.012949407633443 0 0.00077777777777722 0.013 0
          0.00072222222222142 0.013 0.00015 0.00076767785213736 0.012949407633443 0.00015
          0.00077777777777722 0.013 0.00015 0.00072222222222142 0.013 0.0003
          0.00076767785213736 0.012949407633443 0.0003 0.00077777777777722 0.013 0.0003
          0.001 0.01228571428572 0 0.001 0.012428571428581 0
          0.00085243404696798 0.012340254950119 0 0.001 0.01228571428572 0.00015
          0.001 0.012428571428581 0.00015 0.00085243404696798 0.012340254950119 0.00015
          0.001 0.01228571428572 0.0003 0.001 0.012428571428581 0.0003
          0.00085243404696798 0.012340254950119 0.0003 0.000047305708530005 0.012255757186949 0
          0.000035989657241992 0.012305788523607 0 0 0.012277777777773 0
          0.000047305708530005 0.012255757186949 0.00015 0.000035989657241992 0.012305788523607 0.00015
          0 0.012277777777773 0.00015 0.000047305708530005 0.012255757186949 0.0003
          0.000035989657241992 0.012305788523607 0.0003 0 0.012277777777773 0.0003
          0 0.01233333333333 0 0 0.01233333333333 0.00015
          0 0.01233333333333 0.0003 0.00088888888888861 0.013 0
          0.00086852226729803 0.012945143609779 0 0.00092105077811413 0.012923509600428 0
          0.0009444444444442 0.013 0 0.00088888888888861 0.013 0.00015
          0.00086852226729803 0.012945143609779 0.00015 0.00092105077811413 0.012923509600428 0.00015
          0.0009444444444442 0.013 0.00015 0.00088888888888861 0.013 0.0003
          0.00086852226729803 0.012945143609779 0.0003 0.00092105077811413 0.012923509600428 0.0003
          0.0009444444444442 0.013 0.0003 0.000088322519872331 0.012287262323421 0
          0.000098057359918883 0.01234321954228 0 0.000088322519872331 0.012287262323421 0.00015
          0.000098057359918883 0.01234321954228 0.00015 0.000088322519872331 0.012287262323421 0.0003
          0.000098057359918883 0.01234321954228 0.0003 0.00082037799021753 0.012949927278989 0
          0.00083333333333302 0.013 0 0.00082037799021753 0.012949927278989 0.00015
          0.00083333333333302 0.013 0.00015 0.00082037799021753 0.012949927278989 0.0003
          0.00083333333333302 0.013 0.0003 0.000055423585756317 0.01245648439217 0
          0.00011750487062481 0.01240389197138 0 0.000055423585756317 0.01245648439217 0.00015
          0.00011750487062481 0.01240389197138 0.00015 0.000055423585756317 0.01245648439217 0.0003
          0.00011750487062481 0.01240389197138 0.0003 0.00022703795328819 0.012397087263253 0
          0.00024412512388832 0.012487409031957 0 0.00022703795328819 0.012397087263253 0.00015
          0.00024412512388832 0.012487409031957 0.00015 0.00022703795328819 0.012397087263253 0.0003
          0.00024412512388832 0.012487409031957 0.0003 0.00086622784349606 0.012879340816766 0
          0.00086622784349606 0.012879340816766 0.00015 0.00086622784349606 0.012879340816766 0.0003
          0.001 0.01214285714286 0 0.001 0.01214285714286 0.00015
          0.001 0.01214285714286 0.0003 0.00032807036377433 0.012530514194312 0
          0.00032139380548758 0.012616977778981 0 0.00032807036377433 0.012530514194312 0.00015
          0.00032139380548758 0.012616977778981 0.00015 0.00032807036377433 0.012530514194312 0.0003
          0.00032139380548758 0.012616977778981 0.0003 0.00078653837511981 0.012300730611142 0
          0.00078653837511981 0.012300730611142 0.00015 0.00078653837511981 0.012300730611142 0.0003
          0.00050187285486533 0.012723776617989 0 0.00050187285486533 0.012723776617989 0.00015
          0.00050187285486533 0.012723776617989 0.0003 0.00066666666666612 0.013 0
          0.00066666666666612 0.013 0.00015 0.00066666666666612 0.013 0.0003
          0.00086640285866826 0.012499721374928 0 0.00086640285866826 0.012499721374928 0.00015
          0.00086640285866826 0.012499721374928 0.0003 0.001 0.012857142857146 0
          0.001 0.012857142857146 0.00015 0.001 0.012857142857146 0.0003
          0.00043301270230906 0.012750000000722 0 0.00043301270230906 0.012750000000722 0.00015
          0.00043301270230906 0.012750000000722 0.0003 0.00025000000019401 0.01256698729822 0
          0.00025000000019401 0.01256698729822 0.00015 0.00025000000019401 0.01256698729822 0.0003
          0 0.0125 0 0 0.0125 0.00015
          0 0.0125 0.0003 0 0.012055555555554 0
          0 0.012055555555554 0.00015 0 0.012055555555554 0.0003
          0.001 0.013 0 0.001 0.013 0.00015
          0.001 0.013 0.0003 0.0005 0.013 0
          0.0005 0.013 0.00015 0.0005 0.013 0.0003
          0.0014444444444451 0.0095172413793029 0 0.0014444444444451 0.0095172413793029 0.00015
          0.0014444444444451 0.0095172413793029 0.0003 0.0018888888888902 0.0095172413793029 0
          0.0018888888888902 0.0095172413793029 0.00015 0.0018888888888902 0.0095172413793029 0.0003
          0.0014444444444452 0.0099310344827529 0 0.0014444444444452 0.0099310344827529 0.00015
          0.0014444444444452 0.0099310344827529 0.0003 0.0018888888888903 0.0099310344827529 0
          0.0018888888888903 0.0099310344827529 0.00015 0.0018888888888903 0.0099310344827529 0.0003
          0.0014444444444452 0.010344827586203 0 0.0014444444444452 0.010344827586203 0.00015
          0.0014444444444452 0.010344827586203 0.0003 0.0014444444444453 0.010758620689653 0
          0.0014444444444453 0.010758620689653 0.00015 0.0014444444444453 0.010758620689653 0.0003
          0.0014444444444453 0.0111724137931 0 0.0014444444444453 0.0111724137931 0.00015
          0.0014444444444453 0.0111724137931 0.0003 0.0014444444444454 0.01158620689655 0
          0.0014444444444454 0.01158620689655 0.00015 0.0014444444444454 0.01158620689655 0.0003
          0.0014444444444455 0.012 0 0.0014444444444455 0.012 0.00015
          0.0014444444444455 0.012 0.0003 0.0011659770658264 0.012184916069452 0
          0.0011978981211319 0.012291694091132 0 0.0011659770658264 0.012184916069452 0.00015
          0.0011978981211319 0.012291694091132 0.00015 0.0011659770658264 0.012184916069452 0.0003
          0.0011978981211319 0.012291694091132 0.0003 0.0014134281085546 0.012468353283698 0
          0.001412897365997 0.01265802692797 0 0.0011710921098332 0.012660749606473 0
          0.0011928404820732 0.012464476127519 0 0.0014134281085546 0.012468353283698 0.00015
          0.001412897365997 0.01265802692797 0.00015 0.0011710921098332 0.012660749606473 0.00015
          0.0011928404820732 0.012464476127519 0.00015 0.0014134281085546 0.012468353283698 0.0003
          0.001412897365997 0.01265802692797 0.0003 0.0011710921098332 0.012660749606473 0.0003
          0.0011928404820732 0.012464476127519 0.0003 0.0011801499871676 0.012824831216028 0
          0.0011801499871676 0.012824831216028 0.00015 0.0011801499871676 0.012824831216028 0.0003
          0.0014335559245349 0.012265987585326 0 0.0014335559245349 0.012265987585326 0.00015
          0.0014335559245349 0.012265987585326 0.0003 0.0014444444444455 0.013 0
          0.0014444444444455 0.013 0.00015 0.0014444444444455 0.013 0.0003
          0.0023333333333355 0.0099310344827529 0 0.0023333333333353 0.0095172413793029 0
          0.0023333333333355 0.0099310344827529 0.00015 0.0023333333333353 0.0095172413793029 0.00015
          0.0023333333333355 0.0099310344827529 0.0003 0.0023333333333353 0.0095172413793029 0.0003
          0.0018888888888904 0.010344827586203 0 0.0018888888888904 0.010344827586203 0.00015
          0.0018888888888904 0.010344827586203 0.0003 0.0023333333333357 0.010344827586203 0
          0.0023333333333357 0.010344827586203 0.00015 0.0023333333333357 0.010344827586203 0.0003
          0.0018888888888905 0.010758620689653 0 0.0018888888888905 0.010758620689653 0.00015
          0.0018888888888905 0.010758620689653 0.0003 0.0018888888888907 0.0111724137931 0
          0.0018888888888907 0.0111724137931 0.00015 0.0018888888888907 0.0111724137931 0.0003
          0.0018888888888908 0.01158620689655 0 0.0018888888888908 0.01158620689655 0.00015
          0.0018888888888908 0.01158620689655 0.0003 0.0018888888888909 0.012 0
          0.0018888888888909 0.012 0.00015 0.0018888888888909 0.012 0.0003
          0.0017386847932316 0.012348636106575 0 0.0017386847932316 0.012348636106575 0.00015
          0.0017386847932316 0.012348636106575 0.0003 0.0018888888888909 0.013 0
          0.001702980389272 0.012655949584096 0 0.0020604062010233 0.012679406151259 0
          0.0018888888888909 0.013 0.00015 0.001702980389272 0.012655949584096 0.00015
          0.0020604062010233 0.012679406151259 0.00015 0.0018888888888909 0.013 0.0003
          0.001702980389272 0.012655949584096 0.0003 0.0020604062010233 0.012679406151259 0.0003
          <InformationKey name="L2_NORM_RANGE" location="vtkDataArray" length="2">
            <Value index="0">
              0.008275862069
            </Value>
            <Value index="1">
              0.013139935359
            </Value>
          </InformationKey>
        </DataArray>
      </Points>
      <Cells>
        <DataArray type="Int64" Name="connectivity" format="ascii" RangeMin="0" RangeMax="755">
          1 0 6 7 3 2
          8 9 3 2 8 9
          5 4 10 11 7 6
          12 13 9 8 14 15
          9 8 14 15 11 10
          16 17 13 12 18 19
          15 14 20 21 15 14
          20 21 17 16 22 23
          19 18 24 25 21 20
          26 27 21 20 26 27
          23 22 28 29 25 24
          30 31 27 26 32 33
          27 26 32 33 29 28
          34 35 31 30 36 37
          33 32 38 39 33 32
          38 39 35 34 40 41
          37 36 42 43 39 38
          44 45 39 38 44 45
          41 40 46 47 43 42
          48 49 45 44 50 51
          45 44 50 51 47 46
          52 53 49 48 54 55
          51 50 56 57 51 50
          56 57 53 52 58 59
          0 60 63 6 2 61
          64 8 2 61 64 8
          4 62 65 10 6 63
          66 12 8 64 67 14
          8 64 67 14 10 65
          68 16 12 66 69 18
          14 67 70 20 14 67
          70 20 16 68 71 22
          18 69 72 24 20 70
          73 26 20 70 73 26
          22 71 74 28 24 72
          75 30 26 73 76 32
          26 73 76 32 28 74
          77 34 30 75 78 36
          32 76 79 38 32 76
          79 38 34 77 80 40
          36 78 81 42 38 79
          82 44 38 79 82 44
          40 80 83 46 42 81
          84 48 44 82 85 50
          44 82 85 50 46 83
          86 52 48 84 87 54
          50 85 88 56 50 85
          88 56 52 86 89 58
          60 90 93 63 61 91
          94 64 61 91 94 64
          62 92 95 65 63 93
          96 66 64 94 97 67
          64 94 97 67 65 95
          98 68 66 96 99 69
          67 97 100 70 67 97
          100 70 68 98 101 71
          69 99 102 72 70 100
          103 73 70 100 103 73
          71 101 104 74 72 102
          105 75 73 103 106 76
          73 103 106 76 74 104
          107 77 75 105 108 78
          76 106 109 79 76 106
          109 79 77 107 110 80
          78 108 111 81 79 109
          112 82 79 109 112 82
          80 110 113 83 81 111
          114 84 82 112 115 85
          82 112 115 85 83 113
          116 86 84 114 117 87
          85 115 118 88 85 115
          118 88 86 116 119 89
          90 120 123 93 91 121
          124 94 91 121 124 94
          92 122 125 95 93 123
          126 96 94 124 127 97
          94 124 127 97 95 125
          128 98 96 126 129 99
          97 127 130 100 97 127
          130 100 98 128 131 101
          99 129 132 102 100 130
          133 103 100 130 133 103
          101 131 134 104 102 132
          135 105 103 133 136 106
          103 133 136 106 104 134
          137 107 105 135 138 108
          106 136 139 109 106 136
          139 109 107 137 140 110
          108 138 141 111 109 139
          142 112 109 139 142 112
          110 140 143 113 111 141
          144 114 112 142 145 115
          112 142 145 115 113 143
          146 116 114 144 147 117
          115 145 148 118 115 145
          148 118 116 146 149 119
          120 150 153 123 121 151
          154 124 121 151 154 124
          122 152 155 125 123 153
          156 126 124 154 157 127
          124 154 157 127 125 155
          158 128 126 156 159 129
          127 157 160 130 127 157
          160 130 128 158 161 131
          129 159 162 132 130 160
          163 133 130 160 163 133
          131 161 164 134 132 162
          165 135 133 163 166 136
          133 163 166 136 134 164
          167 137 135 165 168 138
          136 166 169 139 136 166
          169 139 137 167 170 140
          138 168 171 141 139 169
          172 142 139 169 172 142
          140 170 173 143 141 171
          174 144 142 172 175 145
          142 172 175 145 143 173
          176 146 144 174 177 147
          145 175 178 148 145 175
          178 148 146 176 179 149
          150 180 183 153 151 181
          184 154 151 181 184 154
          152 182 185 155 153 183
          186 156 154 184 187 157
          154 184 187 157 155 185
          188 158 156 186 189 159
          157 187 190 160 157 187
          190 160 158 188 191 161
          159 189 192 162 160 190
          193 163 160 190 193 163
          161 191 194 164 162 192
          195 165 163 193 196 166
          163 193 196 166 164 194
          197 167 165 195 198 168
          166 196 199 169 166 196
          199 169 167 197 200 170
          168 198 201 171 169 199
          202 172 169 199 202 172
          170 200 203 173 171 201
          204 174 172 202 205 175
          172 202 205 175 173 203
          206 176 174 204 207 177
          175 205 208 178 175 205
          208 178 176 206 209 179
          180 210 213 183 181 211
          214 184 181 211 214 184
          182 212 215 185 183 213
          216 186 184 214 217 187
          184 214 217 187 185 215
          218 188 186 216 219 189
          187 217 220 190 187 217
          220 190 188 218 221 191
          189 219 222 192 190 220
          223 193 190 220 223 193
          191 221 224 194 192 222
          225 195 193 223 226 196
          193 223 226 196 194 224
          227 197 195 225 228 198
          196 226 229 199 196 226
          229 199 197 227 230 200
          198 228 231 201 199 229
          232 202 199 229 232 202
          200 230 233 203 201 231
          234 204 202 232 235 205
          202 232 235 205 203 233
          236 206 204 234 237 207
          205 235 238 208 205 235
          238 208 206 236 239 209
          210 240 243 213 211 241
          244 214 211 241 244 214
          212 242 245 215 213 243
          246 216 214 244 247 217
          214 244 247 217 215 245
          248 218 216 246 249 219
          217 247 250 220 217 247
          250 220 218 248 251 221
          219 249 252 222 220 250
          253 223 220 250 253 223
          221 251 254 224 222 252
          255 225 223 253 256 226
          223 253 256 226 224 254
          257 227 225 255 258 228
          226 256 259 229 226 256
          259 229 227 257 260 230
          228 258 261 231 229 259
          262 232 229 259 262 232
          230 260 263 233 231 261
          264 234 232 262 265 235
          232 262 265 235 233 263
          266 236 234 264 267 237
          235 265 268 238 235 265
          268 238 236 266 269 239
          246 270 273 249 247 271
          274 250 247 271 274 250
          248 272 275 251 249 273
          276 252 250 274 277 253
          250 274 277 253 251 275
          278 254 252 276 279 255
          253 277 280 256 253 277
          280 256 254 278 281 257
          255 279 282 258 256 280
          283 259 256 280 283 259
          257 281 284 260 258 282
          285 261 259 283 286 262
          259 283 286 262 260 284
          287 263 261 285 288 264
          262 286 289 265 262 286
          289 265 263 287 290 266
          264 288 291 267 265 289
          292 268 265 289 292 268
          266 290 293 269 294 295
          296 297 298 299 300 301
          298 299 300 301 302 303
          304 305 306 294 297 307
          308 298 301 309 308 298
          301 309 310 302 305 311
          312 306 313 314 315 308
          316 317 315 308 316 317
          318 310 319 320 321 322
          323 324 325 326 327 328
          325 326 327 328 329 330
          331 332 333 334 335 336
          337 338 339 340 337 338
          339 340 341 342 343 344
          345 346 347 348 349 350
          351 352 349 350 351 352
          353 354 355 356 357 358
          359 360 361 362 363 364
          361 362 363 364 365 366
          367 368 267 369 370 237
          268 371 372 238 268 371
          372 238 269 373 374 239
          375 347 376 322 377 351
          378 326 377 351 378 326
          379 355 380 330 381 382
          383 384 385 386 387 388
          385 386 387 388 389 390
          391 392 393 394 395 396
          397 398 399 400 397 398
          399 400 401 402 403 404
          323 322 405 406 327 326
          407 408 327 326 407 408
          331 330 409 410 411 412
          413 414 415 416 417 418
          415 416 417 418 419 420
          421 422 423 424 425 426
          427 428 429 430 427 428
          429 430 431 432 433 434
          435 436 437 438 439 440
          441 442 439 440 441 442
          443 444 445 446 447 358
          357 448 449 362 361 450
          449 362 361 450 451 366
          365 452 54 87 453 394
          56 88 454 398 56 88
          454 398 58 89 455 402
          456 457 295 294 458 459
          299 298 458 459 299 298
          460 461 303 302 457 462
          463 464 459 465 466 467
          459 465 466 467 461 468
          469 470 456 294 312 381
          458 298 315 385 458 298
          315 385 460 302 318 389
          471 472 473 474 475 476
          477 478 475 476 477 478
          479 480 481 482 483 395
          484 485 486 399 487 488
          486 399 487 488 489 403
          490 491 370 492 359 493
          372 494 363 495 372 494
          363 495 374 496 367 497
          237 370 493 207 238 372
          495 208 238 372 495 208
          239 374 497 209 336 335
          498 499 340 339 500 501
          340 339 500 501 344 343
          502 503 463 334 504 505
          466 338 506 507 466 338
          506 507 469 342 508 509
          510 511 512 513 514 515
          516 517 514 515 516 517
          518 519 520 521 522 523
          524 346 525 526 527 350
          525 526 527 350 528 529
          530 354 531 532 464 505
          533 534 467 507 533 534
          467 507 535 536 470 509
          537 147 177 538 539 148
          178 540 539 148 178 540
          541 149 179 542 523 543
          544 471 526 545 546 475
          526 545 546 475 529 547
          548 479 549 360 550 505
          551 364 552 507 551 364
          552 507 553 368 554 509
          555 313 556 557 558 316
          559 560 558 316 559 560
          561 319 562 563 564 565
          566 492 567 568 569 494
          567 568 569 494 570 571
          572 496 573 574 575 485
          576 577 578 488 576 577
          578 488 579 580 581 491
          582 574 511 510 583 577
          515 514 583 577 515 514
          584 580 519 518 87 117
          348 453 88 118 352 454
          88 118 352 454 89 119
          356 455 504 334 544 543
          506 338 546 545 506 338
          546 545 508 342 548 547
          585 586 587 588 589 590
          591 592 589 590 591 592
          593 594 595 596 574 597
          598 511 577 599 600 515
          577 599 600 515 580 601
          602 519 375 322 321 453
          377 326 325 454 377 326
          325 454 379 330 329 455
          557 556 603 604 560 559
          605 606 560 559 605 606
          563 562 607 608 425 609
          512 610 429 611 516 612
          429 611 516 612 433 613
          520 614 207 493 538 177
          208 495 540 178 208 495
          540 178 209 497 542 179
          615 473 616 426 617 477
          618 430 617 477 618 430
          619 481 620 434 297 414
          621 307 301 418 622 309
          301 418 622 309 305 422
          623 311 492 369 624 564
          494 371 625 567 494 371
          625 567 496 373 626 570
          627 333 336 628 629 337
          340 630 629 337 340 630
          631 341 344 632 360 633
          566 550 364 634 569 552
          364 634 569 552 368 635
          572 554 457 456 636 462
          459 458 637 465 459 458
          637 465 461 460 638 468
          357 360 549 543 361 364
          551 545 361 364 551 545
          365 368 553 547 295 464
          532 296 299 467 534 300
          299 467 534 300 303 470
          536 304 639 314 313 555
          640 317 316 558 640 317
          316 558 641 320 319 561
          471 474 524 523 475 478
          527 526 475 478 527 526
          479 482 530 529 426 610
          406 615 430 612 408 617
          430 612 408 617 434 614
          410 619 504 543 549 505
          506 545 551 507 506 545
          551 507 508 547 553 509
          566 565 642 550 569 568
          643 552 569 568 643 552
          572 571 644 554 610 512
          511 598 612 516 515 600
          612 516 515 600 614 520
          519 602 621 414 645 587
          622 418 646 591 622 418
          646 591 623 422 647 595
          405 474 615 406 407 478
          617 408 407 478 617 408
          409 482 619 410 381 384
          636 456 385 388 637 458
          385 388 637 458 389 392
          638 460 648 499 498 636
          649 501 500 637 649 501
          500 637 650 503 502 638
          616 651 423 426 618 652
          427 430 618 652 427 430
          620 653 431 434 324 597
          573 484 328 599 576 487
          328 599 576 487 332 601
          579 490 642 412 411 531
          643 416 415 533 643 416
          415 533 644 420 419 535
          538 358 447 537 540 362
          449 539 540 362 449 539
          542 366 451 541 524 376
          347 346 527 378 351 350
          527 378 351 350 530 380
          355 354 627 651 616 473
          629 652 618 477 629 652
          618 477 631 653 620 481
          405 322 376 474 407 326
          378 478 407 326 378 478
          409 330 380 482 306 307
          556 313 308 309 559 316
          308 309 559 316 310 311
          562 319 345 117 147 537
          349 118 148 539 349 118
          148 539 353 119 149 541
          414 297 296 411 418 301
          300 415 418 301 300 415
          422 305 304 419 621 586
          603 307 622 590 605 309
          622 590 605 309 623 594
          607 311 544 334 333 472
          546 338 337 476 546 338
          337 476 548 342 341 480
          348 347 375 453 352 351
          377 454 352 351 377 454
          356 355 379 455 531 505
          550 642 533 507 552 643
          533 507 552 643 535 509
          554 644 321 324 484 395
          325 328 487 399 325 328
          487 399 329 332 490 403
          598 597 323 406 600 599
          327 408 600 599 327 408
          602 601 331 410 447 448
          522 537 449 450 525 539
          449 450 525 539 451 452
          528 541 513 512 609 654
          517 516 611 655 517 516
          611 655 521 520 613 656
          604 603 586 585 606 605
          590 589 606 605 590 589
          608 607 594 593 463 462
          335 334 466 465 339 338
          466 465 339 338 469 468
          343 342 438 437 314 639
          442 441 317 640 442 441
          317 640 446 445 320 641
          436 383 382 437 440 387
          386 441 440 387 386 441
          444 391 390 445 393 657
          55 54 397 658 57 56
          397 658 57 56 401 659
          59 58 312 314 437 382
          315 317 441 386 315 317
          441 386 318 320 445 390
          346 345 537 522 350 349
          539 525 350 349 539 525
          354 353 541 528 498 335
          462 636 500 339 465 637
          500 339 465 637 502 343
          468 638 369 267 291 624
          371 268 292 625 371 268
          292 625 373 269 293 626
          358 538 493 359 362 540
          495 363 362 540 495 363
          366 542 497 367 394 453
          321 395 398 454 325 399
          398 454 325 399 402 455
          329 403 587 645 660 588
          591 646 661 592 591 646
          661 592 595 647 662 596
          448 543 523 522 450 545
          526 525 450 545 526 525
          452 547 529 528 472 333
          627 473 476 337 629 477
          476 337 629 477 480 341
          631 481 436 435 663 383
          440 439 664 387 440 439
          664 387 444 443 665 391
          411 296 532 531 415 300
          534 533 415 300 534 533
          419 304 536 535 609 425
          424 654 611 429 428 655
          611 429 428 655 613 433
          432 656 492 566 633 359
          494 569 634 363 494 569
          634 363 496 572 635 367
          393 394 54 397 398 56
          397 398 56 401 402 58
          413 414 645 417 418 646
          417 418 646 421 422 647
          628 627 651 630 629 652
          630 629 652 632 631 653
          117 348 345 118 352 349
          118 352 349 119 356 353
          565 642 412 568 643 416
          568 643 416 571 644 420
          457 295 464 459 299 467
          459 299 467 461 303 470
          463 464 505 466 467 507
          466 467 507 469 470 509
          499 336 628 501 340 630
          501 340 630 503 344 632
          384 636 648 388 637 649
          388 637 649 392 638 650
          492 369 370 494 371 372
          494 371 372 496 373 374
          473 474 615 477 478 617
          477 478 617 481 482 619
          381 382 312 385 386 315
          385 386 315 389 390 318
          471 472 544 475 476 546
          475 476 546 479 480 548
          582 574 575 583 577 578
          583 577 578 584 580 581
          312 306 294 315 308 298
          315 308 298 318 310 302
          524 376 474 527 378 478
          527 378 478 530 380 482
          396 393 657 400 397 658
          400 397 658 404 401 659
          483 395 396 486 399 400
          486 399 400 489 403 404
          357 448 543 361 450 545
          361 450 545 365 452 547
          485 573 484 488 576 487
          488 576 487 491 579 490
          621 586 587 622 590 591
          622 590 591 623 594 595
          324 597 323 328 599 327
          328 599 327 332 601 331
          603 307 556 605 309 559
          605 309 559 607 311 562
          610 425 426 612 429 430
          612 429 430 614 433 434
          360 633 359 364 634 363
          364 634 363 368 635 367
          598 610 406 600 612 408
          600 612 408 602 614 410
          574 597 573 577 599 576
          577 599 576 580 601 579
          672 276 273 666 673 277
          274 667 673 277 274 667
          674 278 275 668 675 672
          666 669 676 673 667 670
          676 673 667 670 677 674
          668 671 720 675 669 721
          722 676 670 723 722 676
          670 723 724 677 671 725
          678 279 276 672 679 280
          277 673 679 280 277 673
          680 281 278 674 726 678
          672 675 727 679 673 676
          727 679 673 676 728 680
          674 677 729 726 675 720
          730 727 676 722 730 727
          676 722 731 728 677 724
          681 282 279 678 682 283
          280 679 682 283 280 679
          683 284 281 680 732 681
          678 726 733 682 679 727
          733 682 679 727 734 683
          680 728 684 285 282 681
          685 286 283 682 685 286
          283 682 686 287 284 683
          735 684 681 732 736 685
          682 733 736 685 682 733
          737 686 683 734 687 288
          285 684 688 289 286 685
          688 289 286 685 689 290
          287 686 738 687 684 735
          739 688 685 736 739 688
          685 736 740 689 686 737
          690 291 288 687 691 292
          289 688 691 292 289 688
          692 293 290 689 741 690
          687 738 742 691 688 739
          742 691 688 739 743 692
          689 740 693 694 564 624
          695 696 567 625 695 696
          567 625 697 698 570 626
          699 700 701 702 703 704
          705 706 703 704 705 706
          707 708 709 710 702 701
          412 565 706 705 416 568
          706 705 416 568 710 709
          420 571 413 701 711 645
          417 705 712 646 417 705
          712 646 421 709 713 647
          690 741 744 714 691 742
          745 715 691 742 745 715
          692 743 746 716 714 699
          702 694 715 703 706 696
          715 703 706 696 716 707
          710 698 694 702 565 564
          696 706 568 567 696 706
          568 567 698 710 571 570
          747 717 748 749 750 718
          751 752 750 718 751 752
          753 719 754 755 699 744
          748 700 703 745 751 704
          703 745 751 704 707 746
          754 708 711 701 700 717
          712 705 704 718 712 705
          704 718 713 709 708 719
          714 694 693 690 715 696
          695 691 715 696 695 691
          716 698 697 692 291 690
          693 624 292 691 695 625
          292 691 695 625 293 692
          697 626 711 717 660 645
          712 718 661 646 712 718
          661 646 713 719 662 647
          714 699 744 715 703 745
          715 703 745 716 707 746
          748 700 717 751 704 718
          751 704 718 754 708 719
          413 701 412 417 705 416
          417 705 416 421 709 420
        </DataArray>
        <DataArray type="Int64" Name="offsets" format="ascii" RangeMin="8" RangeMax="3624">
          8 16 24 32 40 48
          56 64 72 80 88 96
          104 112 120 128 136 144
          152 160 168 176 184 192
          200 208 216 224 232 240
          248 256 264 272 280 288
          296 304 312 320 328 336
          344 352 360 368 376 384
          392 400 408 416 424 432
          440 448 456 464 472 480
          488 496 504 512 520 528
          536 544 552 560 568 576
          584 592 600 608 616 624
          632 640 648 656 664 672
          680 688 696 704 712 720
          728 736 744 752 760 768
          776 784 792 800 808 816
          824 832 840 848 856 864
          872 880 888 896 904 912
          920 928 936 944 952 960
          968 976 984 992 1000 1008
          1016 1024 1032 1040 1048 1056
          1064 1072 1080 1088 1096 1104
          1112 1120 1128 1136 1144 1152
          1160 1168 1176 1184 1192 1200
          1208 1216 1224 1232 1240 1248
          1256 1264 1272 1280 1288 1296
          1304 1312 1320 1328 1336 1344
          1352 1360 1368 1376 1384 1392
          1400 1408 1416 1424 1432 1440
          1448 1456 1464 1472 1480 1488
          1496 1504 1512 1520 1528 1536
          1544 1552 1560 1568 1576 1584
          1592 1600 1608 1616 1624 1632
          1640 1648 1656 1664 1672 1680
          1688 1696 1704 1712 1720 1728
          1736 1744 1752 1760 1768 1776
          1784 1792 1800 1808 1816 1824
          1832 1840 1848 1856 1864 1872
          1880 1888 1896 1904 1912 1920
          1928 1936 1944 1952 1960 1968
          1976 1984 1992 2000 2008 2016
          2024 2032 2040 2048 2056 2064
          2072 2080 2088 2096 2104 2112
          2120 2128 2136 2144 2152 2160
          2168 2176 2184 2192 2200 2208
          2216 2224 2232 2240 2248 2256
          2264 2272 2280 2288 2296 2304
          2312 2320 2328 2336 2344 2352
          2360 2368 2376 2384 2392 2400
          2408 2416 2424 2432 2440 2448
          2456 2464 2472 2480 2488 2496
          2504 2512 2520 2528 2536 2544
          2552 2560 2568 2576 2584 2592
          2600 2608 2616 2624 2632 2640
          2648 2656 2664 2672 2680 2688
          2696 2704 2712 2720 2728 2736
          2744 2752 2760 2768 2776 2784
          2792 2800 2808 2816 2824 2832
          2838 2844 2850 2856 2862 2868
          2874 2880 2886 2892 2898 2904
          2910 2916 2922 2928 2934 2940
          2946 2952 2958 2964 2970 2976
          2982 2988 2994 3000 3006 3012
          3018 3024 3030 3036 3042 3048
          3054 3060 3066 3072 3078 3084
          3090 3096 3102 3108 3114 3120
          3126 3132 3138 3144 3150 3156
          3164 3172 3180 3188 3196 3204
          3212 3220 3228 3236 3244 3252
          3260 3268 3276 3284 3292 3300
          3308 3316 3324 3332 3340 3348
          3356 3364 3372 3380 3388 3396
          3404 3412 3420 3428 3436 3444
          3452 3460 3468 3476 3484 3492
          3500 3508 3516 3524 3532 3540
          3548 3556 3564 3572 3580 3588
          3594 3600 3606 3612 3618 3624
        </DataArray>
        <DataArray type="UInt8" Name="types" format="ascii" RangeMin="12" RangeMax="13">
          12 12 12 12 12 12
          12 12 12 12 12 12
          12 12 12 12 12 12
          12 12 12 12 12 12
          12 12 12 12 12 12
          12 12 12 12 12 12
          12 12 12 12 12 12
          12 12 12 12 12 12
          12 12 12 12 12 12
          12 12 12 12 12 12
          12 12 12 12 12 12
          12 12 12 12 12 12
          12 12 12 12 12 12
          12 12 12 12 12 12
          12 12 12 12 12 12
          12 12 12 12 12 12
          12 12 12 12 12 12
          12 12 12 12 12 12
          12 12 12 12 12 12
          12 12 12 12 12 12
          12 12 12 12 12 12
          12 12 12 12 12 12
          12 12 12 12 12 12
          12 12 12 12 12 12
          12 12 12 12 12 12
          12 12 12 12 12 12
          12 12 12 12 12 12
          12 12 12 12 12 12
          12 12 12 12 12 12
          12 12 12 12 12 12
          12 12 12 12 12 12
          12 12 12 12 12 12
          12 12 12 12 12 12
          12 12 12 12 12 12
          12 12 12 12 12 12
          12 12 12 12 12 12
          12 12 12 12 12 12
          12 12 12 12 12 12
          12 12 12 12 12 12
          12 12 12 12 12 12
          12 12 12 12 12 12
          12 12 12 12 12 12
          12 12 12 12 12 12
          12 12 12 12 12 12
          12 12 12 12 12 12
          12 12 12 12 12 12
          12 12 12 12 12 12
          12 12 12 12 12 12
          12 12 12 12 12 12
          12 12 12 12 12 12
          12 12 12 12 12 12
          12 12 12 12 12 12
          12 12 12 12 12 12
          12 12 12 12 12 12
          12 12 12 12 12 12
          12 12 12 12 12 12
          12 12 12 12 12 12
          12 12 12 12 12 12
          12 12 12 12 12 12
          13 13 13 13 13 13
          13 13 13 13 13 13
          13 13 13 13 13 13
          13 13 13 13 13 13
          13 13 13 13 13 13
          13 13 13 13 13 13
          13 13 13 13 13 13
          13 13 13 13 13 13
          13 13 13 13 13 13
          12 12 12 12 12 12
          12 12 12 12 12 12
          12 12 12 12 12 12
          12 12 12 12 12 12
          12 12 12 12 12 12
          12 12 12 12 12 12
          12 12 12 12 12 12
          12 12 12 12 12 12
          12 12 12 12 12 12
          13 13 13 13 13 13
        </DataArray>
      </Cells>
    </Piece>
  </UnstructuredGrid>
</VTKFile>
