<?xml version="1.0"?>
<VTKFile type="UnstructuredGrid" version="0.1" byte_order="LittleEndian" header_type="UInt32" compressor="vtkZLibDataCompressor">
  <UnstructuredGrid>
    <Piece NumberOfPoints="756" NumberOfCells="468">
      <PointData>
        <DataArray type="Int32" Name="libmesh_node_id" format="ascii" RangeMin="120" RangeMax="2168">
          120 121 122 123 124 125
          126 127 128 129 130 131
          132 133 134 135 136 137
          138 139 140 141 142 143
          144 145 146 147 148 149
          150 151 152 153 154 155
          156 157 158 159 160 161
          162 163 164 165 166 167
          168 169 170 171 172 173
          174 175 176 177 178 179
          240 241 242 243 244 245
          246 247 248 249 250 251
          252 253 254 255 256 257
          258 259 260 261 262 263
          264 265 266 267 268 269
          330 331 332 333 334 335
          336 337 338 339 340 341
          342 343 344 345 346 347
          348 349 350 351 352 353
          354 355 356 357 358 359
          420 421 422 423 424 425
          426 427 428 429 430 431
          432 433 434 435 436 437
          438 439 440 441 442 443
          444 445 446 447 448 449
          510 511 512 513 514 515
          516 517 518 519 520 521
          522 523 524 525 526 527
          528 529 530 531 532 533
          534 535 536 537 538 539
          600 601 602 603 604 605
          606 607 608 609 610 611
          612 613 614 615 616 617
          618 619 620 621 622 623
          624 625 626 627 628 629
          690 691 692 693 694 695
          696 697 698 699 700 701
          702 703 704 705 706 707
          708 709 710 711 712 713
          714 715 716 717 718 719
          780 781 782 783 784 785
          786 787 788 789 790 791
          792 793 794 795 796 797
          798 799 800 801 802 803
          804 805 806 807 808 809
          876 877 878 879 880 881
          882 883 884 885 886 887
          888 889 890 891 892 893
          894 895 896 897 898 899
          900 901 902 903 904 905
          906 907 908 909 910 911
          912 913 914 915 916 917
          918 919 920 921 922 923
          924 925 926 927 928 929
          930 931 932 933 934 935
          936 937 938 939 940 941
          942 943 944 945 946 947
          948 949 950 951 952 953
          954 955 956 957 958 959
          960 961 962 963 964 965
          966 967 968 969 970 971
          972 973 974 975 976 977
          978 979 980 981 982 983
          984 985 986 987 988 989
          990 991 992 993 994 995
          996 997 998 999 1000 1001
          1002 1003 1004 1005 1006 1007
          1008 1009 1010 1011 1012 1013
          1014 1015 1016 1017 1018 1019
          1020 1021 1022 1023 1024 1025
          1026 1027 1028 1029 1030 1031
          1032 1033 1034 1035 1036 1037
          1038 1039 1040 1041 1042 1043
          1044 1045 1046 1047 1048 1049
          1050 1051 1052 1053 1054 1055
          1056 1057 1058 1059 1060 1061
          1062 1063 1064 1065 1066 1067
          1068 1069 1070 1071 1072 1073
          1074 1075 1076 1077 1078 1079
          1080 1081 1082 1083 1084 1085
          1086 1087 1088 1089 1090 1091
          1092 1093 1094 1095 1096 1097
          1098 1099 1100 1101 1102 1103
          1104 1105 1106 1107 1108 1109
          1110 1111 1112 1113 1114 1115
          1116 1117 1118 1119 1120 1121
          1122 1123 1124 1125 1126 1127
          1128 1129 1130 1131 1132 1133
          1134 1135 1136 1137 1138 1139
          1140 1141 1142 1143 1144 1145
          1146 1147 1148 1149 1150 1151
          1152 1153 1154 1155 1156 1157
          1158 1159 1160 1161 1162 1163
          1164 1165 1166 1167 1168 1169
          1170 1171 1172 1173 1174 1175
          1176 1177 1178 1179 1180 1181
          1182 1183 1184 1185 1186 1187
          1188 1189 1190 1191 1192 1193
          1194 1195 1196 1197 1198 1199
          1200 1201 1202 1203 1204 1205
          1206 1207 1208 1209 1210 1211
          1212 1213 1214 1215 1216 1217
          1218 1219 1220 1221 1222 1223
          1224 1225 1226 1227 1228 1229
          1230 1231 1232 1233 1234 1235
          1236 1237 1238 1239 1240 1241
          1242 1243 1244 1245 1246 1247
          1248 1249 1250 1251 1252 1253
          1254 1255 1256 1257 1258 1259
          1260 1261 1262 1263 1264 1265
          1266 1267 1268 1269 1270 1271
          1893 1894 1895 1896 1897 1898
          1920 1921 1922 1923 1924 1925
          1947 1948 1949 1974 1975 1976
          2001 2002 2003 2028 2029 2030
          2055 2056 2057 2112 2113 2114
          2115 2116 2117 2124 2125 2126
          2127 2128 2129 2130 2131 2132
          2133 2134 2135 2148 2149 2150
          2151 2152 2153 2164 2166 2168
          1926 1899 1927 1900 1928 1901
          1950 1951 1952 1953 1954 1955
          1977 1978 1979 2004 2005 2006
          2031 2032 2033 2058 2059 2060
          2142 2144 2146 2163 2143 2096
          2165 2145 2100 2167 2147 2104
        </DataArray>
        <DataArray type="Float64" Name="resid_x" format="ascii" RangeMin="-20.2623205361372" RangeMax="0.9914489155736881">
          0.0013452245923550876 -8.194901189884824 0.012578659716885987 -16.479822468109845 0.010206226697794918 -8.40532865189996
          0.07757205030394942 -8.344415234760008 0.08489227013766332 -16.790096069594345 0.006075491076511952 -8.663337810115827
          0.033066408653780854 -8.37557778601061 0.036771657890584564 -16.95020999796661 -0.0026168076965502607 -8.986198231531723
          0.00449575967763316 -8.497739580171242 -0.00008458318983972646 -17.22743573091969 -0.006530990173713391 -9.36699002986507
          0.0023554614180678612 -8.740077489052108 0.0033970496626150037 -17.63264881423499 -0.008673665925630125 -9.64081395703358
          0.00008736460305946991 -8.993172840618891 0.002632415020922707 -18.049421157666377 -0.003866901942692458 -9.706803680897625
          -0.0004063598355950049 -9.261138161394355 -0.00044441954370544323 -18.516397534249062 -0.0010096615346890658 -9.55570906750777
          0.00034885381740235033 -9.612918718848626 0.0010546333931928942 -19.141429757258948 0.0036887552694682135 -9.230766849232204
          0.0037664281917217934 -10.219479151746345 0.0076519688259573115 -20.2623205361372 0.01400579344749353 -8.795197406255319
          0.012422432026791164 -6.341209587096514 0.022818306842843306 -12.520814623333846 0.023413980333821555 -4.823126574748469
          -0.011418283418385577 -0.011119418093486821 0.0027127448609061133 -0.013411846898505608 0.05962470651205898 0.0809662289857398
          0.00027359200645982185 0.028018565454271283 0.027119119125667446 0.0027670536312847105 0.00269989447339114 -0.007043018046641869
          0.0030275149080356556 0.0010628413235549417 -0.01053462826311069 0.002182519060169419 0.0036008671895650934 -0.0041834178507969
          0.0009722644226579646 0.0018582403222566768 0.0006253850620332457 0.0026625315049972897 0.004567016524513079 0.008577713035391898
          0.007725706913350727 0.013964926687220824 0.026243078951588394 0.014445656399696194 0.026467810347135412 0.038729516447839396
          -0.013390643004837166 -0.01598293240959503 -0.001502890134180035 0.00008542251599319428 -0.008680783141293169 -0.011529825997047105
          0.0016151936128796507 0.002842032667458305 -0.003827441944770804 -0.0007548464864290949 -0.0013618426081150048 -0.0072183534562677565
          0.0018915813870608034 -0.0009096858572084088 -0.01026459595719409 0.0027316569786002276 0.002496275458756081 -0.005577365240812426
          0.0011463275913872195 0.0018870652790852205 0.0010710109802198886 0.002244326014571918 0.004205448097271081 0.011739820989270289
          0.0092393512631892 0.016923826471635373 0.03472265082188697 0.016779912043479242 0.0308275851251556 0.05059412046633083
          0.014987517251571436 0.007940667352684727 -0.026309822729737142 0.00647695034299689 0.04492778953392751 0.00735408848628083
          0.07320257240778183 0.22315625083192003 0.02795035186124384 -0.0012760832797376054 -0.00389213680829803 -0.005625288190718614
          0.000661445105799352 -0.001035455672548924 -0.00761108564706614 0.002307471639075409 0.0032109486529545705 -0.004577500338021956
          0.001958683460604682 0.0031376041131601085 0.0024881467721487027 0.002437883588584988 0.004773743128471786 0.01494815424619933
          0.00887907296828594 0.016436649881486076 0.03846133555071285 0.016276545322942315 0.03035017486235314 0.05174610466489682
          -0.07772142692807904 -0.14591137014068334 0.05106836677034021 0.0719063803773059 0.0654075524546176 -0.11310815202553215
          0.07919573520906331 -0.006186842293613104 -0.03157252625944018 -0.003656963653263734 -0.0063708383634168975 -0.007049030756757446
          0.0011385398958525528 0.0027673077423964187 -0.005855009674313294 0.0020856389512440288 0.0036289749087883294 -0.0036429953710142016
          0.0019595008181365614 0.003804795704700048 0.004423282443011267 0.002464604624813127 0.004727415560517478 0.017397104651578843
          0.007138746127308693 0.013296923276366002 0.03897037893525912 0.009114463086967506 0.01725955910867305 0.04392010295583337
          -0.13280434554992393 -0.13234445355847768 0.1478093538526002 -0.29785651845264205 -0.4446411598847346 -0.017922727680407924
          -0.17919164770720908 -0.24415876189080787 0.014852943135117869 0.0022313375445706107 -0.008255301806519011 -0.0036176350883687647
          0.003402181634180934 0.00673958339010472 -0.005136861873969778 0.0024510328515283675 0.004058897218849111 -0.0027112487604097346
          0.0014674744775078352 0.0032948351488730765 0.005923358628242337 0.0023684012399884935 0.004720894002930187 0.019066834274657385
          0.006018421169776467 0.011494820598181299 0.03843244455169881 0.004467135139029188 0.008182407239718748 0.03602183144629101
          -0.027476891486042376 -0.08013219908037694 0.00698691952751318 -0.20296822171982498 0.23136426619688955 0.019222540991189696
          -0.07549091273302011 -0.06037164173241827 0.020173193809991385 0.012240692716156687 0.00023377576877336992 -0.0040026624477107475
          0.00368777913169005 0.005450625540643017 -0.0065397649103822175 0.001497280213118124 0.0040928670571203085 -0.0018640270096326184
          0.0012669116291865734 0.002628002037096344 0.006687206143576319 0.0029529016767524396 0.0057169834560504285 0.019581281559309716
          0.005490208390124707 0.011362381961608659 0.03587464412685115 0.003366207936606913 0.007997720730720914 0.030967169046539067
          0.07498390205749494 0.10876725773544926 -0.16145638313424548 -0.1246732701755473 0.9914489155736881 -0.12277342120269275
          -0.039884614685239406 0.04635432453529731 -0.03633557003679311 0.006857826311116533 0.0003203715538724339 -0.008455132654839215
          0.0018612819569523431 0.003907357916869358 -0.007212104304869182 0.0009710581294815057 0.0010553343360442113 -0.0010229254173714786
          0.0010699947525552034 0.0016753912954978745 0.006912295877226526 0.005188926422337481 0.009265701064538057 0.020098546037852216
          0.0048333288392701235 0.011176689659633254 0.03387735032539663 -0.003126435557120333 -0.0038390787461231035 0.02274566721303395
          0.03881267319389714 -0.27016977874446724 -0.13857723999217253 -0.0039841138891762995 -0.006190335046822426 -0.018027793558792027
          0.0038367838240480623 0.001622242529067286 -0.001230501391726424 0.0022842211156324232 0.0032049147708401726 0.0036820265964117027
          0.00035359247987631903 -0.00037334568817648517 0.013348041796554355 0.0019273866412063967 0.0014060778949467334 0.030859480334086697
          0.0004124873277842056 -0.0030704825060485774 0.0494625719576085 -0.0037423012362007846 -0.010831577564164752 0.03387339669710876
          -0.0025862195602620805 0.00519914646404962 -0.0018596539505654763 -0.0062231782019121495 -0.0050791958330070885 0.0038960779531423406
          0.0020090988645593277 -0.004567684669468386 -0.0013554037627196737 0.00010564085213810026 0.0006445023529602634 -0.0006153752070897633
          -0.0023081329624987934 -0.004514760120156249 -0.004742782998213624 -0.008779573705259202 -0.003612011433144574 -0.0044569324070740865
          -0.0018653787562745439 -0.001987011269202553 -0.0026193706133852412 -0.0036514906796181745 -0.0038309254571997067 -0.006004209213486159
          0.00004446237337210612 -0.0012873551707122746 -0.003986590851644295 -0.0024129720319453485 0.0037878251415439657 -0.009071540704898129
          0.001065743550679621 -0.004168868396557723 0.0019273310095566654 -0.01305851354945986 0.0017977654394132347 0.008003275009577537
          0.018305437386082035 0.00583840143184855 0.007045657547348233 -0.010303096294379421 -0.0016498856101786474 -0.0017087891519169673
          -0.003572249080449119 -0.017578071991453448 -0.006359681096231196 -0.0030491664841769683 -0.008388759639044785 0.020098668858113733
          0.017248705338726245 0.01036297317564494 0.003192049059930979 -0.0004681665284980152 0.006452820789600411 0.00025660833728213817
          -0.0024604443525959585 -0.0030718909663780547 0.01081559278684674 0.003047008683564556 -0.0042289713309600074 0.014835111246718213
          0.02151252737498255 0.01419526630343515 0.011484229454124417 -0.003042715447366451 0.002755694328124614 0.0028465444959536734
          -0.0027731308087395323 -0.009314363134479087 0.0038135199905856565 0.008143694887257136 -0.005099529307686812 0.0063192087380146145
          0.015036928000019323 0.02052789559246765 0.009657928210138 -0.003467260933509797 0.0013359501741054824 -0.007258783240301714
          0.0027981759352360136 0.005445560683503992 0.01168201001779412 0.004610436330921397 -0.002699789462937141 0.005812062710098598
          -0.005432486040110485 0.009901469675728247 0.011357656199903476 -0.004193184130845855 -0.0017311125941964073 0.0020947598915704163
          -0.003111417752125728 -0.009051432984853086 -0.004176764870277416 0.002692134122110213 -0.007739363463730359 -0.0062327488446285995
          -0.0026117706915241012 -0.0002704834747610796 -0.004360952837315302 0.0008404193627541412 0.0026721637150730615 -0.001613408831814267
          -1.8145977634984949 0.0017989460446854455 0.003180229293249015 -0.0022105594547076057 -3.4625008520644625 0.0012669853993627633
          0.006203644412195675 0.0041206396347411856 -1.2845925540413723 0.005623962098763258 -0.007808237689389652 0.006189487518209358
          -0.00882114022987629 0.014614593962475997 0.018547230639847145 0.0013122829222561583 0.0008583690128678434 0.009542869894160921
          -0.004203407375136026 0.003650767346057404 0.0016980743449459546 0.005674827529408566 -0.007760960755306856 0.0033594801859508916
          0.00285906872406394 -0.0035511509249413487 -0.00043573543332597886 0.0025136253281354826 -0.022682296179502348 0.027553346307806315
          0.04236760882557694 -0.0020105156550151992 -0.04853434776352605 0.04197838946367666 0.06887714170827897 -0.007282851003780566
          -0.02294924885652405 0.022978832670602634 0.038072676970300146 -0.00006440697316685388 -0.0007152349719553169 -0.0014638383681050415
          -0.00016270855625324931 -0.00019000850056025143 -0.0006226951216664681 -0.0034401136305351604 -0.0006487331293983933 -0.0009116104207298331
          0.001797957369453096 -0.0013238256555676287 -0.00040875623551952026 -0.0006365701024757531 0.0028665048321735442 -0.0009780922142426096
          0.006191297592232803 0.007147310580817523 0.01595453618518583 0.002858314434101339 0.0038768051670292625 0.018736048339637934
          -0.005246659514633045 -0.0016431232324029543 -0.008724295298110363 -0.003953791984387611 -0.004266739773259642 -0.0035987236035772974
          -0.0022120813323728283 -0.004211535453731541 0.0003720610522950363 -0.007117802111429317 -0.00962904015940691 -0.0008376171420166889
          0.0016273243729620912 -0.00047892738358046305 0.0018875389501469275 -0.003484065690118998 -0.002177059417789548 -0.0004169797563329247
          -0.008182067107982194 -0.0031271284570063562 -0.0008585394228947385 -0.011367564224432858 -0.011037315941828107 0.019742114751196915
          0.0282384783474338 0.039506094687220106 0.03835036542631318 -1.1924142276360734 0.0024950696602394906 -1.5380442603062778
          -2.434690137556436 0.004972184011201364 -2.9331600257413757 -0.9846810024439898 0.006072141038329204 -1.160643823832775
          -0.0034601866893329176 0.000411651321962192 -0.007084887850170541 0.0014655983417901641 0.010713399100942152 0.015709824645350645
          -0.0008704337393054262 -0.010773969219510016 0.001388887006267825 -0.018717410252280964 0.004195420624186097 -0.002967017382456527
          0.003147322852604259 -0.004195456731826724 0.0038169989596413822 -0.008001061852446867 0.009492068242381912 0.010638660008189596
          -1.364438047812914 0.0021342886040971454 0.00472555120338445 -1.649830566796608 -2.6598535588104797 0.00263238661565679
          0.007278343163267351 -3.199020739860457 -1.2957370232081253 0.0035643004962530034 0.003511635866308066 -1.4266617919519646
          0.000133040942805418 0.0033510674284946695 -0.001726407396674512 0.0013052805915547694 0.005395062793198013 -0.0057920115150528195
          0.01897053892722822 0.02132426460518766 0.013211218750519782 -0.00222210393684269 -0.001992906398473049 -0.005234120224862027
          -0.0037596124651949614 0.0018802106252931439 -0.00007066819836265559 0.0011867832509462328 0.0031597205153184316 0.00002232994997297677
          0.005014102446922131 0.022471381541846136 0.02038308571133629 0.002001920085281314 -0.007358538378552215 0.004192857828282587
          -0.010867526568799954 0.027209934128957638 0.01486266316910484 -0.002304389726636158 -0.0010671143444928033 -0.00153532137808976
          -0.003626509877853068 0.008661981703071753 0.0066128160626715005 -0.00010689926919976722 -0.0019257988618963974 -0.00030705717706197566
          -0.00043002940847328835 -0.0034358646755026654 -0.0006453477484467535 -0.00011867752964887096 -0.0012612234284287496 -0.0002539198282906635
          -0.0015124242929176468 -0.0032854019531435297 -0.0041342531966835905 -0.0037598980770541246 -0.006527014965341943 -0.0089519544993647
          0.008896846698527305 0.005405004523103496 0.0040460150599083144 -0.0026448816106835193 -0.0011257360138564598 -1.3057137095105869
          -0.005051755449779427 -0.0011709989450868208 -2.550068692870392 -0.000041154051005243275 0.0015234093529877812 -1.0782982918861108
          -1.2573399735680235 -2.5091995885341007 -1.2094060727272598 -0.00002599863166466085 -0.000891258509783388 -0.0034565609247356466
          -0.0028293445419005324 -0.00014236891920279063 -0.0018826175960043254 -0.006864258192363443 -0.005674184279341635 -0.00004279462631210512
          -0.0008604995309318478 -0.003532554232074908 -0.0029281757995031927 0.0024440693882752385 0.010892711821452794 0.0021736125112286064
          0.017339866467846243 0.006659797741548679 0.014051330195132161 -0.001772074475286524 0.0009441143323875509 -0.0036843850079993218
          0.0017115408029601056 -0.001960636791531814 0.0008348305158778907 0.005369014726630983 -0.000817038945582646 0.011523984866426862
          -0.003686119851440642 0.008073217172651193 0.0115158968570103 0.04469681844462059 -0.03735140112334023 0.06709479866700274
          -0.05517224782635588 0.04562752889132993 0.015054795151017153 -0.0034767873578396696 -0.0069120340680251385 -0.0034648106723675354
          -0.0010641198073196856 -0.002446793747041154 0.010742325916461404 -0.05222683997844946 0.027212103829578727 -0.08812600310125052
          0.03751320239089384 0.003964737783725192 0.03606779264590676 -0.0014480078543853692 -0.0037505381055052966 0.0028810552019287172
          -0.007533024292834034 -0.011779529913653886 0.0011424595862056033 -0.00031345698217392914 -0.0005806168254461758 0.00006931834549823296
          -0.0035397884691660275 -0.008177863186742185 -0.0001410468499316586 -0.0030974260058285186 -0.013313906795000552 -0.009823109655643814
          -0.0019367276175070933 -0.00765552114091278 -0.00880648191745162 0.04245803061670905 0.0686117804472619 0.039340361516641886
          -1.3268563708511243 -2.5173153028461464 -1.116790008386675 -1.7075252155880916 -3.2859943772429765 -1.1871771237833026
          -0.008682101856962582 -0.016642862125845342 -0.008153963773115197 0.00017669085785976257 0.00036118152748565446 0.0000629434354212019
          0.0034735110993535656 0.0037223345696144605 0.0027503340652037522 -0.0003364162103878243 -0.0005162037661619046 0.004477673384301717
          0.005378343453322998 0.005595050473887753 0.0077763193866209335 -0.00169684768789935 -0.0038346113799976322 0.005605558154762491
          -0.002014080880696767 -0.004486728409514917 0.008137071538864227 0.004892247008037032 0.009645977301593334 0.023453086786823896
          0.0048270804508696585 0.012447762096442716 0.033565075699381275 0.0012398687719894497 0.007632532779121348 0.03981500298957741
          -0.011133468814612524 -0.018625765375266612 0.017463758250934047 -0.001848637694281896 -0.0008095734286817646 -0.004471392633466298
          -0.0018464416578509724 0.0033840870892514197 0.005388551128538699 -0.00649257232020848 -0.00521854471003369 -0.007291650907150338
          -0.004372417562171771 -0.012859328217488144 -0.009544993617065956 -0.008335285697921746 -0.008558536805924333 -0.005016968421509643
          -0.003599298830919917 -0.0012699667766662426 -0.0009792321718040675 -0.010558885377087823 -0.01435559807012432 -0.0042131702990262365
          -0.0031202549979447713 -0.005707187762120203 0.0016641375122452562 0.0177780033305715 0.03552373158429484 0.016342973148315176
          -0.00408958678421989 -0.0019156675074336604 -0.0061394252834254814 -0.006160323510894017 0.008527591704584836 0.00344990463440098
          0.0023352795300741747 0.003811247612901525 0.014279804168484844 0.001787131869597225 0.0020749905809704927 0.011273409557030156
          0.008517445457954409 0.01609592096431456 0.02258724159185732 0.005117017897317666 0.008931127887453982 0.020771487643800768
          0.0006397627400680506 -0.0006254525405573474 0.016814589013107728 -0.008549190049406796 -0.019804527745264977 -0.0016819135226144866
          -0.011097678317641524 -0.019504871662405776 -0.007704735919700667 -0.04661641497591207 -0.00023991511496657125 -0.013800130261334864
          -0.0921755578048753 0.0012562207597230923 -0.030157572442356617 -0.049207576813071974 0.00022468149280285843 -0.019975955102162768
        </DataArray>
        <DataArray type="Float64" Name="resid_y" format="ascii" RangeMin="-0.18557533467356746" RangeMax="0.5027985036721254">
          -0.014716500265129565 -0.01032041777384992 -0.030768625459792698 -0.019410006029248042 -0.015796158021423236 -0.009245017206454556
          0.009096315018504636 0.012056560297909994 0.028831391614703602 0.01939044957814068 0.018629321706351447 0.006351914835614744
          0.007142547490455439 -0.0024541542878236886 0.008770090602551371 -0.005282509576006247 0.0019591155152174355 -0.002566406263462384
          -0.002136051886554219 -0.00007482528964158908 -0.002752470536899837 -0.0017633555797089417 -0.0021869499863177433 -0.003264049134940772
          0.000165437105885069 -0.0000933395709104834 0.0010911501401074941 -0.0021382227617778027 -0.0031699708846327224 -0.006505956470291119
          0.0009274863215710805 -0.002046325755748757 0.0026640625314328092 -0.005704459722421451 -0.003516192569704979 -0.006469718117292744
          0.0007405007532920171 -0.0020218282344575123 0.0030188834117665375 -0.0053877993476385 -0.004376338275320191 -0.00658009583514324
          0.00006271900434179356 -0.002066849780276492 0.0021730908736114496 -0.0050097230707358276 -0.007232123446343608 -0.007779325196901388
          -0.0011379638212267174 -0.0025265976702228965 0.0011387806251171861 -0.004625271483462812 -0.009849739256150514 -0.008773337115209778
          0.00010330698298632868 -0.0013825282389313687 0.003117821247290764 -0.0014098406290434795 -0.010695573819686055 -0.005619162484827744
          -0.0112189765657712 -0.02385200511804675 -0.013515266378555886 -0.0059520026756741395 -0.0028168226058984253 0.0017846553161292716
          0.01498916150852643 0.021175137606939974 0.0028086935122249163 -0.006393520995702 -0.008224765041415151 -0.00467318538633818
          -0.004117005385588901 -0.007135521499963909 -0.005419346714611917 -0.0030955713308734034 -0.003605096524988999 -0.006809855387831021
          -0.0031996518648788053 -0.0034701053058258102 -0.0077427711498727625 -0.0031235319008064977 -0.0031304138190008657 -0.009376108885180146
          -0.004037098763912617 -0.003973722298287297 -0.009801363543121833 0.002417222221678096 0.007048680124576295 -0.007407887383999889
          -0.015229971626882971 -0.027952497287955715 -0.015729644555436212 -0.004640794448339952 -0.006475316684115606 -0.0029298764666090132
          0.015889449998611277 0.031320583164435256 0.009454274431270768 -0.0007582339306843955 0.0017452595349053829 -0.0012600400148009838
          -0.002004723484343496 -0.0014026048504634236 -0.0026203198573633846 -0.000537411811407873 0.0027434688695190113 -0.0021916143859086468
          0.000012474286839592175 0.002986547536374451 -0.004002652937112883 0.0000918337888899945 0.0029733568109197583 -0.005586847419411678
          -0.000007669100150847763 0.0031574500501651004 -0.005249020455189282 0.001991106403588405 0.007175767312868453 -0.005607669266678772
          -0.017623520800284176 -0.041233523494571184 -0.030481369411565595 -0.007446730735299861 -0.0204203678055343 -0.004484792917947927
          0.007313163475559908 0.017894724378616694 0.005786524132575133 -0.0017881137714668947 -0.004396500109600486 -0.00536086073680149
          -0.002111735590801897 -0.00037937237886793984 -0.0016791615825505757 0.0007366869561468148 0.004808693893595534 -0.0002539738090941712
          0.0004977038289830649 0.003687729069685175 -0.0026512707231095 0.0005255233774469903 0.003566321718907195 -0.003958729296605068
          0.0010454588921574026 0.00465129734750952 -0.0037374076235112963 0.005985565375568713 0.012979920310173698 -0.0012521767889310809
          -0.021214743622479437 -0.013981048114635991 0.004278355165591441 -0.021925204366665785 -0.015502916013321807 -0.0020717331909699543
          0.015826446817200884 0.058091862213542775 0.014531634159626432 -0.0063757063257510425 -0.014108819983624815 -0.00734194016823491
          -0.0018070808851127218 0.0004583783981211495 -0.000955078976293211 0.0013477801506758258 0.005654704150444084 0.0008130525893933899
          0.0008629500387418443 0.004054637295475366 -0.001437309513771301 0.0012556611789982242 0.004542238811185373 -0.002476023387003201
          0.0022440102434884424 0.006557937598107799 -0.0021655701954689938 0.0028371708294544495 0.0062359353770370385 -0.0013517079060377801
          0.05166461517997034 0.047597124628407095 -0.01786079246043737 0.007324797587673848 0.008835311384072647 -0.05997420697355851
          0.03871842949168462 0.05833986160994585 0.004115970705887664 -0.007422378649978703 -0.0029226018842624657 -0.001989474930102486
          -0.0008812579083278885 0.0019113323942856995 0.0009835299697118632 0.0015187199710457594 0.004879259775990803 0.0006158675070592791
          0.0016190686980145502 0.004463356054414058 -0.0008115405307688311 0.0018609396803794809 0.005417295774560682 -0.0014510836436316885
          0.0029530775683470623 0.007470898548992251 -0.0013523035413742085 0.004950799755404023 0.010174529426601797 0.002643427871762638
          -0.18557533467356746 -0.013484729502664217 -0.022667599139005234 -0.061173659901428895 -0.022430194050592853 -0.04118538739596111
          0.06490329462230582 0.053736933131919365 0.027333343456249132 0.007679004559573363 0.002295972105852556 -0.006272875467542904
          -0.00007855220816128418 0.0035890436280529223 0.0017821982395408442 -0.00055466333531674 0.001698701168073327 0.00010252980326844185
          0.0015033812556394036 0.004305677385554937 -0.0007895336762527988 0.0024850934730351153 0.006325329240137331 -0.001242452854772258
          0.0038259644726017054 0.008536759798997526 -0.00159338034804489 0.003788052489244742 0.0072902002018670475 0.0012435934492242007
          0.21106810372054124 0.030707529024084468 0.00809426407936431 0.39629267863178963 0.5027985036721254 0.009163814046145191
          0.014387257452369129 0.11438922398552798 -0.017854547749502125 -0.004520044419220479 -0.0018341348182977831 -0.006380165357648182
          -0.0017073324718152594 0.0010627708481713589 0.001965138478860512 0.00009177485388112139 0.0025710215867099026 -0.0005061315257580412
          -0.0005573118271921668 0.0012184663885545371 -0.0023690325417437263 0.002920578013511685 0.0072954766679871885 -0.0020577720073377825
          0.004761171969029934 0.010450778782246033 -0.0021823421471688087 0.0031429681061889703 0.006226980120347503 0.00010443965539308486
          -0.13700383549919581 -0.17944341544010023 -0.08755334641469781 -0.018568155656349283 -0.022031986392498037 -0.013514350856461688
          -0.004984692115190037 -0.008772412645835836 -0.009509333381491292 -0.0036622190294178236 -0.002685051058412269 -0.00683562160716078
          0.0007326704787798954 0.0034901313976218595 -0.003887840255874686 -0.0009444358805479336 0.002228149636029131 -0.000715211200047916
          0.0011532106186888935 0.0052874022324786996 0.004135576498387472 0.0022468425386970026 0.005452464533485912 0.007074002004467839
          -0.00014039827214054265 -0.0022479735875992127 -0.003804692233371487 -0.0013671928040270287 -0.0008721006910891484 -0.006105450972792914
          -0.004559784074783302 -0.000561301326004543 -0.0002786835388459974 -0.007578145378249926 -0.0006616504630582165 0.0006601661652247542
          -0.0036604109093793386 -0.0018118817428926925 -0.00715584196504182 -0.003237132417252646 -0.003824379918906301 -0.0009766163470920214
          -0.002502872694300738 -0.0010103633659997312 -0.0014428030854397277 -0.004377150363682594 -0.0024407500424423814 -0.0031990068627307244
          0.0006118560429976064 -0.0014626553926007507 -0.0017594635574874062 0.0010845338349380063 -0.0008304708564541574 0.017799654395336012
          -0.0052780428536362 0.0033850926822129868 0.0010472438703117426 0.02859878839563823 -0.009102955736584761 -0.0007419721406503044
          -0.002652580506637192 0.008036028292152123 -0.006838893538055446 0.0007181794201784886 -0.003843660831208462 -0.0007664955041409363
          -0.0007708825238594841 -0.0008897963263982955 -0.013242463115810565 0.0018109281393777488 -0.0027466449477220652 -0.0027187624399924726
          -0.006009539867356972 0.01058962084125592 0.0008061725166920719 -0.0013242681240653864 0.0054297347571685695 0.0017419045389179821
          -0.0024808416831189756 -0.0036036971146244934 0.011100046118048379 0.004064986789869218 -0.005477187833187153 -0.0049080234802301725
          0.005597713980697305 0.001356464275729441 -0.006220910469648747 -0.0012930120853358873 -0.0009357518484026661 0.005881490232262976
          -0.003738268357543484 -0.004761854618725581 -0.0022850463187957804 0.01171994310784652 -0.0065865359176747185 -0.0018829009153081278
          -0.0009980430298562881 0.006738398022542183 -0.0005132198373992702 0.0007097579765422135 -0.0032742040921816817 0.0013628743651812603
          -0.007374418296953261 0.0004915397287788281 -0.005397012149261582 -0.0032688329170199037 -0.0003404941048608112 -0.0048913742339622215
          -0.0010273242846694508 -0.0024621604743332026 -0.0017756323195745188 -0.0041743982745059945 -0.004648392923300049 0.0013462194557074952
          0.0008178829718591407 -0.007738830619442472 -0.009538022585809519 -0.00029680497354925284 -0.005157486437902314 -0.0024641602362935333
          -0.0049168140860125775 -0.0030492234448557254 -0.008567224997412415 -0.003406103580396831 -0.008952934230348819 -0.005500018731917484
          -0.003076078851855596 -0.006313651187572404 -0.01545949167656302 -0.008855775237015447 -0.004651409513311833 -0.005632126985843866
          -0.009461973902694654 -0.006803500762083736 -0.004130242819557359 -0.005387688363641674 -0.007186852136480959 -0.007473394650703402
          -0.010819188876407815 -0.0036165392770155513 -0.005040305572163839 -0.0016569771434971625 0.0025742531937403418 -0.0051946373276988145
          -0.004053639676866935 -0.008452893691096974 0.003617718284357572 -0.016080819660465928 -0.008162733646680659 -0.0032693152670975056
          0.003383570815073622 -0.009554804165253505 -0.00006762029362716859 -0.05772690968822425 -0.025482863564421088 -0.011407155090392584
          0.018784751133433836 -0.1081773195649105 -0.05118191020454965 -0.019335427898219765 0.04326082277447898 -0.04298896352419801
          -0.02619281776144744 -0.0019508066088795017 0.02555005727980132 -0.00021291560573351298 -0.0009691814995306854 -0.0017336857120751857
          0.0000024704152457068196 -0.0005574770080045977 -0.0013980293174638801 -0.0024194544847582038 -0.0006249259744157271 -0.000292376527337046
          0.0005228865284406525 0.0003507488405428 -0.0014739979331478015 -0.0003787266722077298 0.0031247626602348977 -0.0007644678299191798
          0.0059132493084125826 -0.00022283208931472842 0.00205969948142376 -0.005623485968519859 -0.00890380644151667 -0.009638442356993182
          -0.006270092010062789 -0.0010813867747864192 -0.009988786101089109 -0.002599524717846302 -0.004687464595864041 0.001508610164591473
          -0.001832284814963503 -0.006651360434139886 -0.0035227490754830386 -0.0068985544191066395 -0.016128402020065713 -0.005355878193051433
          0.0033333296450225314 -0.005727133161430142 0.0015051353063130213 0.001611795357818413 0.004909018889451222 0.019769235509709215
          0.004993977520849666 0.005330914601285153 0.013086920747656605 0.03721385109502395 0.014533629651806074 0.006346005945335048
          0.01640486025727325 0.03510174010391354 0.013462947272380371 -0.001463917566080053 -0.004112021487206796 -0.002907535388390857
          -0.0021948466687082835 -0.006483954322986513 -0.004146355271702595 -0.002099616844361933 -0.006098768984571762 -0.0031987993799415144
          0.0019563276498007556 0.0008595843961477501 0.0016032893383799499 0.0026150753110846248 0.001664193573917283 0.0008235761778460082
          -0.0026938679871447713 0.0029480759201528928 -0.006969370187030033 -0.0012828882011888254 -0.0006938213687874839 0.0007684862869428155
          0.006384514611734504 -0.0030831385251666177 0.01054544760032683 -0.005780237266084454 0.003775114995881901 0.004880299287000702
          -0.0033693036019531233 -0.0033762334247008363 -0.004768691058092189 -0.003658472548413609 -0.0027572115539411662 -0.0036273560166567853
          -0.007846753789738203 -0.004641385057344773 -0.0002459981146827675 -0.002529963562125065 -0.004897136248699807 -0.0014261213556810044
          0.0036106934780208433 0.000989465866729211 -0.006393176409924012 0.00813874433704656 0.00040326014505520646 -0.012815610273340633
          0.004306474810413477 0.001686806673633301 -0.006447056271137036 -0.004360342284829122 -0.006888495035429987 -0.008130745725728361
          -0.013114116067930282 0.0008998852000283719 -0.003816702130939209 -0.005196629918854279 -0.005225816710991538 -0.009864275497340147
          -0.009795706059628762 -0.007198246318975032 -0.00676052753208406 0.006989478976665964 -0.007353696884860261 0.012797152749626672
          -0.008294541886326043 0.007530075380121237 -0.0006800476580955672 -0.0036341682629137395 0.0007944565641362367 -0.005689573130850334
          0.0004447408384538054 0.0007382872907796267 0.003169624836329432 -0.00046421567619646387 -0.0012487466773792328 -0.0002381382900750583
          -0.0011846192013111115 -0.00283074410733437 -0.0005076047683420029 -0.0006170863689716147 -0.0017572331097917768 -0.00019764047935266066
          0.00438015141724879 -0.0042741332703726265 -0.0017783019746459017 0.0075434943993256676 -0.009731875814753321 -0.005704118043234341
          0.007962933328952482 -0.0019723546210015375 -0.0011767344501014687 -0.00015835179402223787 -0.0006083230063859968 -0.0019416129515362618
          0.0001148790528852639 -0.0010278489305860505 -0.002956019501569117 -0.0026371758483483554 -0.004451851531741019 -0.0020582584505710114
          -0.0033774515262661453 -0.004974726542283766 -0.002694137007567963 0.00004017145239239815 -0.00032170650222127645 -0.0003998817703177379
          -0.001132744148458719 -0.00031751802704498705 -0.0007959861010842784 -0.0006640222994359901 -0.002462710762989158 -0.0003606711292298559
          -0.0002981930216776202 0.00009154462117310497 -0.001404952922980894 -0.005061885676090595 0.0014383348047887212 -0.0075243328384173355
          0.0038121630580125743 -0.004535594643025394 -0.0032100666477694606 -0.0003628273838697377 -0.0025645283061694734 -0.0007935158306091039
          -0.005091305382100227 -0.0004506640020835867 -0.0026880515959100994 -0.0021716718458907325 -0.014154966443022499 -0.005980585106864167
          -0.024080112476079885 -0.007796315985048985 -0.01271960741009126 -0.02661614902611975 0.02684934221670765 -0.04972500320766965
          0.04465014611174245 -0.01889150581714394 0.01893736813429603 -0.0042681092985535594 -0.008016679910423386 -0.0035345748761905042
          -0.0006320999343270017 -0.00008215765271368802 0.004365379058689722 -0.019735815890079333 -0.005233007184388128 -0.029330314888960096
          -0.008832861197911546 -0.0025716269786030255 0.0020501044440587313 -0.004008059677858805 -0.008365748895479294 -0.004969833311226912
          -0.009268327959884581 -0.019954541093719243 -0.0049450458808857345 -0.0007833013045728677 -0.0017634259091458913 -0.0009918178165461491
          -0.007513345050475184 -0.01466432170257903 -0.003491850034728017 -0.0008014501385064654 0.0005094563469421089 0.0014410735465036906
          -0.00005462468565831102 -0.003789185001467729 -0.005043772730892571 -0.008155554196971004 -0.017442613864479206 -0.008826127935633421
          -0.01814898629642298 -0.03533929421003771 -0.019035446529195494 -0.0054325826122208765 -0.010175292207511372 -0.005565063660670156
          -0.0028742659699801665 -0.0054910563267289575 -0.003030755896058515 -0.0003571806573278158 -0.0009168294025998789 -0.001280293711149818
          -0.015681331834036194 -0.03335901357691795 -0.01951775961322344 -0.006802599660580916 -0.012535462221203941 -0.007017690818507116
          -0.006282771654809255 -0.014231467618520902 -0.015975034479180916 -0.00849837737678727 -0.01619944989257227 -0.008676758292584297
          -0.0050941151590569445 -0.006044541105817036 -0.009455659126430649 -0.005031033961817144 -0.003771051040313611 -0.004792173433388558
          -0.0012741425675637519 0.0030860985813498942 0.002606710307307525 -0.0007105506301974263 0.005414695806872816 0.004010780256624269
          -0.004085542020541011 -0.003668851082039848 -0.0034449514587872043 -0.0031020954965421677 -0.0018789114280153285 -0.004844826829311977
          -0.0038011437214438004 -0.00010650358384811653 -0.000907962724341127 -0.0030572941809093868 -0.0042814700574715925 -0.007423117668549917
          -0.006128094936233314 -0.007455445162319552 -0.009727941837847531 -0.008370257687385418 -0.013034099604601723 -0.0030791747391959445
          -0.005970808503967362 -0.001944154612525728 -0.006573729857026311 0.0030544522645279126 0.0050588698521187025 0.0008595154014543471
          -0.007836021820006783 -0.011987323528891342 -0.005451222614558243 -0.01341441137692767 -0.023856127358410348 -0.012131159064366945
          0.002609528791131868 0.00016234139275045356 0.004352563950723712 -0.0008150722112776343 0.00019100528906745157 -0.001322989355771631
          -0.006468834174117921 -0.015556815860953366 -0.011115287479143365 -0.004209428832842255 -0.005306136267832828 -0.004445741081887888
          -0.0028374355539684815 -0.0031763752687724023 -0.0024517318352980932 -0.0007595067492043306 -0.00019416245631354023 -0.0016860696435977984
          -0.000925870409899332 0.00005252819044887502 -0.003767369309040536 -0.003552105601472899 -0.006879972264342449 -0.010849561770172711
          -0.005948633754239152 -0.009734200207016652 -0.005856764938285464 0.04690294032337716 -0.019463339729355184 -0.025006594234374235
          0.09320581281539098 -0.03646850032835623 -0.048921949757086525 0.043849285647465264 -0.018580299958680872 -0.02573000683579041
        </DataArray>
        <DataArray type="Float64" Name="resid_z" format="ascii" RangeMin="0" RangeMax="0">
          0 0 0 0 0 0
          0 0 0 0 0 0
          0 0 0 0 0 0
          0 0 0 0 0 0
          0 0 0 0 0 0
          0 0 0 0 0 0
          0 0 0 0 0 0
          0 0 0 0 0 0
          0 0 0 0 0 0
          0 0 0 0 0 0
          0 0 0 0 0 0
          0 0 0 0 0 0
          0 0 0 0 0 0
          0 0 0 0 0 0
          0 0 0 0 0 0
          0 0 0 0 0 0
          0 0 0 0 0 0
          0 0 0 0 0 0
          0 0 0 0 0 0
          0 0 0 0 0 0
          0 0 0 0 0 0
          0 0 0 0 0 0
          0 0 0 0 0 0
          0 0 0 0 0 0
          0 0 0 0 0 0
          0 0 0 0 0 0
          0 0 0 0 0 0
          0 0 0 0 0 0
          0 0 0 0 0 0
          0 0 0 0 0 0
          0 0 0 0 0 0
          0 0 0 0 0 0
          0 0 0 0 0 0
          0 0 0 0 0 0
          0 0 0 0 0 0
          0 0 0 0 0 0
          0 0 0 0 0 0
          0 0 0 0 0 0
          0 0 0 0 0 0
          0 0 0 0 0 0
          0 0 0 0 0 0
          0 0 0 0 0 0
          0 0 0 0 0 0
          0 0 0 0 0 0
          0 0 0 0 0 0
          0 0 0 0 0 0
          0 0 0 0 0 0
          0 0 0 0 0 0
          0 0 0 0 0 0
          0 0 0 0 0 0
          0 0 0 0 0 0
          0 0 0 0 0 0
          0 0 0 0 0 0
          0 0 0 0 0 0
          0 0 0 0 0 0
          0 0 0 0 0 0
          0 0 0 0 0 0
          0 0 0 0 0 0
          0 0 0 0 0 0
          0 0 0 0 0 0
          0 0 0 0 0 0
          0 0 0 0 0 0
          0 0 0 0 0 0
          0 0 0 0 0 0
          0 0 0 0 0 0
          0 0 0 0 0 0
          0 0 0 0 0 0
          0 0 0 0 0 0
          0 0 0 0 0 0
          0 0 0 0 0 0
          0 0 0 0 0 0
          0 0 0 0 0 0
          0 0 0 0 0 0
          0 0 0 0 0 0
          0 0 0 0 0 0
          0 0 0 0 0 0
          0 0 0 0 0 0
          0 0 0 0 0 0
          0 0 0 0 0 0
          0 0 0 0 0 0
          0 0 0 0 0 0
          0 0 0 0 0 0
          0 0 0 0 0 0
          0 0 0 0 0 0
          0 0 0 0 0 0
          0 0 0 0 0 0
          0 0 0 0 0 0
          0 0 0 0 0 0
          0 0 0 0 0 0
          0 0 0 0 0 0
          0 0 0 0 0 0
          0 0 0 0 0 0
          0 0 0 0 0 0
          0 0 0 0 0 0
          0 0 0 0 0 0
          0 0 0 0 0 0
          0 0 0 0 0 0
          0 0 0 0 0 0
          0 0 0 0 0 0
          0 0 0 0 0 0
          0 0 0 0 0 0
          0 0 0 0 0 0
          0 0 0 0 0 0
          0 0 0 0 0 0
          0 0 0 0 0 0
          0 0 0 0 0 0
          0 0 0 0 0 0
          0 0 0 0 0 0
          0 0 0 0 0 0
          0 0 0 0 0 0
          0 0 0 0 0 0
          0 0 0 0 0 0
          0 0 0 0 0 0
          0 0 0 0 0 0
          0 0 0 0 0 0
          0 0 0 0 0 0
          0 0 0 0 0 0
          0 0 0 0 0 0
          0 0 0 0 0 0
          0 0 0 0 0 0
          0 0 0 0 0 0
          0 0 0 0 0 0
          0 0 0 0 0 0
          0 0 0 0 0 0
          0 0 0 0 0 0
          0 0 0 0 0 0
        </DataArray>
        <DataArray type="Float64" Name="stress_zz" format="ascii" RangeMin="-110674893.42921014" RangeMax="200752396.02477324">
          2839959.4804201545 3313073.655242563 2126974.027432331 2427235.927383437 1413988.5744445072 1541398.19952431
          2723272.275635288 3682923.6077720067 1868189.4249622817 2361302.633096521 1013106.5742892746 1039681.658421036
          -510919.4241787662 9169.354050762951 -864173.8653866745 -630406.9544917294 -1217428.3065945827 -1269983.2630342217
          -3270568.116990098 -3391929.1420122986 -2767103.6547407475 -2879893.8015250163 -2263639.1924913963 -2367858.4610377336
          -3481102.4831619784 -3757027.2270729775 -2571515.1949499296 -2792215.7433289494 -1661927.9067378815 -1827404.2595849207
          -2150597.0495973863 -2474531.1228212197 -1343266.0931442485 -1604598.1731242428 -535935.1366911109 -734665.2234272661
          482939.23147704307 23820.775657739257 677534.983758934 196387.18787966383 872130.7360408249 368953.6001015884
          4242416.22311231 2820986.4575639036 3198963.607142721 1413609.5061283687 2155510.991173131 6232.554692833626
          7957110.89506428 7246937.746192946 5833474.6272146655 5188375.639655691 3709838.359365051 3129813.533118436
          41206805.37491794 13297011.902873442 34710298.674803294 9667865.699312558 28213791.97468865 6038719.495751677
          1939938.665042437 1475740.9150140253 1011543.1649856134 1194484.3668809526 890347.2533379996 586210.1397950465
          -1156592.4791245537 -1208928.6847523008 -1261264.8903800477 -2894138.144558074 -2431049.9720669803 -1967961.7995758858
          -2782056.5788603956 -2007955.5040249552 -1233854.4291895148 -1145344.1023969217 -509204.2782571714 126935.54588257885
          1962782.966578783 2218187.4015061636 2473591.836433544 5975518.715084388 5649479.640034738 5323440.564985089
          8372894.77231607 6550296.293961015 4727697.815605959 -2078182.2436130946 -4223173.888456199 -6368165.533299306
          776752.1578404134 630118.7734205121 483485.38900061086 -160131.71920906176 131742.8267394325 423617.37268792675
          -1423899.5000529296 -1125628.9996685705 -827358.4992842113 -2355807.915712874 -1902897.3852545256 -1449986.854796177
          -1841950.2830249155 -1239829.7452689062 -637709.2075128972 548107.9885816094 946956.4221497017 1345804.855717794
          3977051.093826126 4295432.69524572 4613814.296665315 6148911.77503609 6538416.819721285 6927921.8644064795
          2980501.1903120885 1992771.8744206447 1005042.5585292006 -2702526.4441322987 -3618891.2109664157 -4535255.977800533
          -1558300.1151860296 -901023.8278797818 -243747.54057353365 -2427993.3454999113 -1234700.3010763251 -41407.25665273896
          -2704576.5732698254 -1750199.1054041185 -795821.6375384119 -2173342.712473267 -1577045.9524558317 -980749.1924383966
          -595400.3727248044 -197954.1729145035 199492.0268957975 2446024.5608954285 2584004.522575093 2721984.484254758
          5830970.543649177 6146023.910427217 6461077.277205259 5662820.992562445 6609320.692902683 7555820.393242921
          -1913843.4310680614 -2564604.5745944483 -3215365.718120836 -4736480.338186034 -6809368.473817265 -8882256.609448494
          -4789035.421071678 -2566188.057521224 -343340.69397076836 -5707616.413746829 -3062735.2832811265 -417854.1528154233
          -4897852.331179202 -2904412.8934281343 -910973.4556770675 -2121830.435423523 -1250417.8032689341 -379005.1711143452
          742291.9385295722 922836.1870880021 1103380.4356464318 3991944.1710091704 3886936.165464807 3781928.159920443
          7137984.505258264 7288825.968653788 7439667.432049312 5688002.206336895 6600616.253013239 7513230.2996895835
          -2594016.0172969475 -3618693.894542562 -4643371.771788176 -21913450.388511486 -25067386.164098345 -28221321.939685196
          -6364524.298328617 -3136796.189741252 90931.91884611262 -4777213.72584406 -1976208.6467159607 824796.4324121381
          -3960168.2682229327 -1829383.126382853 301402.015457227 -1591327.9215951154 -557678.112318774 475971.69695756753
          1650892.123808607 1721150.5097838377 1791408.8957590684 4952077.424564875 4604683.238027583 4257289.051490293
          7991453.469997365 7724208.27962686 7456963.089256356 6307926.666896808 6437693.033367276 6567459.3998377435
          -2933657.483298725 -4738015.773775833 -6542374.064252939 -8227935.716988353 -13576062.023719825 -18924188.330451295
          -6825631.917099664 -4073979.955160659 -1322327.9932216536 -1709140.340456992 -532628.2225716487 643883.8953136947
          -1718022.8672275841 -474878.1453795 768266.5764685839 -1142450.7532222609 -163350.3332729477 815750.0866763652
          2067072.5432558472 2052743.151595408 2038413.759934969 5382766.788166449 4752395.656901993 4122024.525637538
          8329705.871575248 7478953.495084234 6628201.118593219 8057050.479244049 7014086.623770944 5971122.768297842
          1122222.7433976294 -1402567.2522198786 -3927357.247837386 -2718067.3807171006 -6060443.522104656 -9402819.663492214
          -4017757.4850250822 -6335737.879952561 -8653718.27488004 1598983.1514311756 -2588789.8073413614 -6776562.766113898
          1328784.798735166 -1691088.5569304097 -4710961.912595985 1107839.0367242796 -794812.7400152686 -2697464.516754817
          3513767.322756647 1755179.681469217 -3407.9598182133923 6013312.188626568 4833455.937821779 3653599.687016992
          7129902.735013436 7102138.2311258465 7074373.7272382565 7892438.624905235 9296605.926408399 10700773.227911562
          5032835.848754489 7950079.220485058 10867322.592215626 -6414032.134759951 -448933.3768348271 5516165.381090297
          3115669.825399746 -1857111.8289264634 -6829893.483252673 2980657.0852362704 -531743.29929092 -4044143.6838181103
          4321212.387306169 1826225.729213454 -668760.9288792616 5586485.976180334 4519726.961371593 3452967.946562853
          5230552.435287586 6205857.634720861 7181162.834154136 4575703.051866028 7738330.431514213 10900957.811162397
          9430548.989823792 15561149.510634476 21691750.03144516 3950164.1640937123 10925053.810654351 17899943.457214992
          -11778960.239070127 -49029378.1892048 -36080563.34917082 -13103245.530103412 -14363715.29666906 -44740839.08617468
          -28511471.03449921 -13850297.747491352 -16948470.354267992 -40452299.98314458 -20942378.7198276 -14597349.964879295
          23105497.033067875 19491782.019428037 14047219.703144424 13825448.919997817 4988942.373220972 8159115.820567595
          22720537.35642465 52222346.73301328 64917859.52921958 14753832.03053681 34592383.088475704 49069598.45188951
          6787126.704648966 16962419.44393813 33221337.374559425 25771662.468672823 12892541.347816499 87463534.86100852
          25521509.609003644 21885635.904727634 10193462.695977736 77668801.08796144 21335743.088455357 17999609.340782445
          7494384.044138977 67874067.31491432 17149976.567907073 -14951275.848584028 -37998348.288411096 -46272580.82755314
          -43979643.299776636 -8616243.62773516 -26980660.712190676 -25731510.185344014 -20279922.06873821 -2281211.4068862945
          -15962973.135970255 -5190439.543134902 3419799.1623002104 10590468.441929959 3808091.3108981866 51529256.9521091
          12568385.185966056 11510892.175351975 1846228.5683475984 47433131.24751756 12005704.455777224 12431315.908773992
          -115634.17420299351 43337005.54292604 11443023.725588394 -25645585.761949353 30437506.66087641 -9143488.68291096
          -21489192.186579984 -21425310.800186634 36571844.035766155 -5160443.993256141 -16841262.602099396 -17205035.83842392
          42706181.410655916 -1177399.3036013232 -12193333.017618801 -1257826.245607376 -2351640.3873892985 6387474.299874932
          -4154476.0707770055 14032774.845357237 -5957311.7541647125 39838091.68116919 5334298.379833104 38344402.1487908
          -863924.8241554378 36850712.61641241 -7062148.028143984 -21157036.277663082 22946490.105589557 36888516.46588254
          -81184154.70723537 -12539106.40583921 14636491.901281212 9687621.30020129 -60868959.39186112 -3921176.5340153445
          6326493.69697287 -17513273.865479957 -40553764.07648688 45508905.29761051 63087720.66385807 22197729.805594064
          4260507.28751976 34061820.21278701 55445255.96162026 18550366.60756375 -1199023.662888359 22614735.127963513
          47802791.25938244 14903003.409533432 -6658554.613296479 -101038292.45101023 -61885833.39693918 -93976011.00828813
          -59324377.241359904 -86913729.56556602 -56762921.085780635 -25637695.193626255 -10576525.80829404 -3417765.6025481457
          -5316514.04884175 -22089959.47662397 -7246841.340857585 -2736158.4949664013 -6068804.801764369 -18542223.759621684
          -3917156.8734211326 -2054551.3873846568 -6821095.554686989 102717048.71796194 200752396.02477324 41637272.65895642
          36575493.81613891 77868388.39078148 174198671.99623924 38927521.395045206 28490176.864496518 53019728.06360102
          147644947.96770525 36217770.13113399 20404859.912854128 96628551.65256003 81070076.56079899 74808811.8979138
          100954065.20160607 52520576.921632074 39734866.992599286 48741457.28070002 66639582.36144178 8412602.190704133
          -1600342.575600398 22674102.663486242 32325099.521277517 34318802.51373296 -14686216.669418734 43962942.121117465
          -7568564.7947328435 53607081.72850198 -450912.92004695535 5791607.746002162 5567552.99781072 5343498.24961928
          -45942033.93672642 -61912286.57487528 -30543046.161057655 -54541715.16410596 -15144058.385388887 -47171143.75333665
          -56226143.09440714 -66849763.12036461 -58754027.05769001 -38839178.71682282 -54114911.81592148 -53211965.71276626
          -21452214.339238495 -41380060.51147834 -47669904.36784253 -15361888.904481292 -3338347.994793946 56356414.112734795
          36386305.51649883 -41165254.859923676 -37754998.06244181 52606238.91442576 29114343.23748286 -66968620.81536606
          -72171648.13008967 48856063.71611674 21842380.9584669 15699392.675701179 298591.2395700272 15036022.916367153
          12750416.448354485 -3556638.276233213 10114637.783255711 9801440.22100779 -7411867.792036453 5193252.65014427
          8048692.979901144 -12593570.084381215 14805821.70441865 -17185246.12746604 21562950.428936154 -21776922.170550868
          -65138318.051768094 -19018251.58523194 -37048047.114888564 -6866792.8101188885 -8957776.178009028 5284665.964994158
          -46526353.91260453 -44252423.31249785 -24508935.437834114 -36517392.57841582 -2491516.9630636997 -28782361.844333798
          65371897.40186158 84689889.15739818 73630704.13102345 58011982.37336798 64868992.02526643 81674623.08079733
          69458833.26036692 55576032.12726118 64366086.648671284 78659357.00419648 65286962.38971038 53140081.88115439
          -8697753.012264304 25111236.35877045 13859340.443069953 -6208935.992159461 17828473.415372126 7064324.874289997
          -3720118.972054617 10545710.471973803 269309.3055100404 -31187261.64495071 -33117099.805476416 -25824347.359805223
          -21358962.259074412 -20461433.074659728 -9600824.712672409 3733221.2042965936 5370082.1573384 5897134.703578889
          5964923.965579912 8061048.20286118 6559765.773821425 -29497598.01400463 -34099730.18045272 -27162562.661792953
          -54872660.55237338 -24827527.309581265 -75645590.92429402 -21205308.973648462 -19461827.827835687 -20662315.543935448
          -9653632.50004817 -20119322.11422243 154562.82773934677 65884066.611711875 41823740.704406634 51819860.26518278
          42343738.756929606 27429086.881966073 33797543.62690102 18803410.902147345 13034433.059525512 15775226.988619272
          -10316371.300780745 -10005504.881295513 12309530.499380335 -7119804.668055158 -3449484.4275192865 27936505.752767283
          -3923238.035329568 3106536.026256939 43563481.00615424 -11598341.097881977 -12087506.381032532 -51431998.58834922
          -9022935.89775409 -3603285.593984163 -43140108.539446965 -6447530.697626198 4880935.193064205 -34848218.49054471
          -5789222.314487487 2121296.616974529 10031815.548436552 28920955.212475985 23652546.300674245 15425339.642074408
          16826524.072303545 17543073.911774352 14826579.36992601 8809264.87803047 7903299.59988936 6165192.611072719
          6000612.439177774 2193190.1139865294 -1019924.8725248245 43921940.341478765 -20994533.531034216 44027583.43186954
          -20047358.466613237 44133226.52226029 -19100183.402192257 33015768.862807505 40336046.805249624 21515937.624899283
          25460050.77070397 10016106.38699106 10584054.736158313 61349589.70200928 -58206768.68349912 53935004.04401764
          -49986779.47411738 46520418.386025995 -41766790.264735654 108197813.97763994 -102081429.57567333 101957985.61814901
          -91963916.15080161 95718157.25865814 -81846402.7259299 14354700.433645766 9986600.831949985 5618501.230254201
          -9554136.86082404 -6077544.930126744 -2600952.9994294494 51490413.07162724 113437860.84973629 62057022.14319146
          119796355.4344542 72623631.21475571 126154850.01917212 -4965955.480196796 10675011.36106702 26315978.202330828
          -79873381.44607368 -50861776.12769715 -21850170.809320617 84636361.8755477 58532964.68772952 32429567.499911338
          -28287904.664505072 -20420584.25303649 -12553263.841567911 6044488.820790106 2334667.4612757466 -1375153.8982386128
          -110674893.42921014 -88822610.35152066 -66970327.27383117 75036894.22005984 74656181.76709843 74275469.31413703
          128037486.86255115 111324067.59282112 94610648.32309109 -16296297.546369454 -23881956.99541208 -31467616.444454707
          11598347.160422958 5686311.69133351 -225723.77775593987 85887611.73451096 41779118.089915685 -2329375.554679583
          3034339.6773715443 3026847.2476020553 3019354.817832566 5012096.653432245 6182890.8935641665 7353685.133696087
          3846596.2664149115 3916342.2081701304 3986088.149925348 4561358.349910296 5458731.675216058 6356105.000521819
          4069759.0275077177 4213816.164103665 4357873.300699613 2943487.6041459795 3220538.19667584 3497588.789205699
          1714605.7777121922 1273523.0315055049 832440.2852988173 3680286.0969954953 3121273.9367268407 2562261.776458186
          6023278.377850148 5419859.3389543295 4816440.30005851 -5301670.7842947915 -10861132.879569449 -8800483.012401858
          -13596755.104513945 -12299295.240508927 -16332377.32945844 176550.07400007453 4504039.473026618 1640519.3175955259
          -4830094.585072525 -894481.2962945557 3138750.1726657157 2513107.147328344 -5108844.785263056 -1965512.666589186
          1773460.8723048137 3385694.9770611636 -5387594.985453585 2534999.9402788524 1240277.535440673 -54444.86939750643
          6150766.143052388 5932368.877860428 5713971.612668469 6703282.593601737 5381757.480665717 4060232.3677296974
          3959844.7435967145 5720138.033362323 3862447.3243513335 5582794.529531291 3765049.905105952 5445451.025700258
          2824901.1923880624 3267409.7409221884 3709918.289456315 646540.9689745388 563385.3972276832 480229.82548082736
          -512484.681882508 -707466.0559167056 -902447.4299509033 -4869959.660926596 -6554971.131642313 -8239982.60235803
          -8414821.3298436 -10941673.584844599 -13468525.839845598 3111889.6129942834 2729102.5089723933 2346315.4049505037
          10353111.966405261 10473467.802116849 10593823.637828436 1904547.6590388506 6828204.697607651 345860.75399772055
          1974358.911803049 5465680.453253368 90601.4518930586 2044170.164567247 4103156.2088990854 -164657.85021160357
        </DataArray>
        <DataArray type="Float64" Name="peeq" format="ascii" RangeMin="0" RangeMax="0.11557869144774291">
          0.00037981604494725674 0.00036252453373317975 0.00040790264026881976 0.00038715739209397584 0.00043598923559038283 0.0004117902504547719
          0.0004122422003379637 0.00038069362588155924 0.0004611722035521628 0.0004238944255853643 0.0005101022067663618 0.0004670952252891693
          0.0006888542966779154 0.0006224479188726844 0.0007678390594935375 0.000697325683157614 0.0008468238223091594 0.0007722034474425437
          0.0014615692559707717 0.0013509723435302734 0.0015770155825443112 0.0014661363345942952 0.0016924619091178506 0.001581300325658317
          0.0031516341064102976 0.00301309536522284 0.003287927426090031 0.0031528804644853437 0.003424220745769764 0.003292665563747847
          0.006231789568951555 0.006096574300910033 0.006337724490603532 0.006208251665563167 0.006443659412255508 0.0063199290302163
          0.011140717343220068 0.011051951497561488 0.011139276090538733 0.011053154355158685 0.011137834837857397 0.011054357212755881
          0.01841950354923843 0.01843997239894395 0.018219382070547248 0.01823336092015438 0.01801926059185607 0.01802674944136481
          0.030010333708715323 0.03044537538807291 0.029479411339425388 0.029883035430693212 0.028948488970135453 0.029320695473313514
          0.045395711325356816 0.04453278304752316 0.04438741299769576 0.043599598606710956 0.04337911467003471 0.04266641416589875
          0.0004399759988663697 0.0004773987072888082 0.0005148214157112468 0.0005244208807255236 0.0005842136590695347 0.0006440064374135461
          0.0008997881445980095 0.0009867337150558121 0.0010736792855136146 0.0017937593882946536 0.001909106614073733 0.002024453839852812
          0.0035624067618713305 0.0036877636272935306 0.003813120492715731 0.006628983659998925 0.006718333327109041 0.006807682994219158
          0.01139966972128386 0.011390381959324533 0.011381094197365205 0.018345668201899652 0.018164777431275873 0.017983886660652093
          0.028771730041844572 0.02832574231567119 0.02787975458949781 0.040485587139773335 0.03972066189736758 0.038955736654961826
          0.0005605120123418931 0.0006139507118667225 0.0006673894113915519 0.0007455799025599335 0.000819865221852659 0.0008941505411453845
          0.0012753746775443137 0.0013717538088205898 0.001468132940096866 0.002349065844233837 0.002461257949123127 0.002573450054012417
          0.004230684063044265 0.004336603999201219 0.004442523935358173 0.007261681829840912 0.0073254667514802045 0.007389251673119495
          0.01179630443224926 0.0117754159153232 0.011754527398397139 0.018190331173512212 0.018038806105500436 0.01788728103748866
          0.026879652581021433 0.026561168890600964 0.026242685200180492 0.03595920155481186 0.035547327947579886 0.03513545434034791
          0.0007669850469724058 0.0008425460391289646 0.0009181070312855235 0.0011030980828111545 0.0011970936053975415 0.0012910891279839286
          0.0018331590955212524 0.0019392474507270172 0.0020453358059327816 0.0031258424165180746 0.0032273369522337106 0.0033288314879493463
          0.00512967408295761 0.005206155651861022 0.005282637220764434 0.008081490891402232 0.008113327093426858 0.008145163295451485
          0.01226906582821255 0.012236351637815047 0.012203637447417542 0.01789974635073416 0.01778431679418773 0.017668887237641297
          0.024611575868984062 0.024439172116525205 0.02426676836406635 0.029193759352205213 0.029092871053785014 0.028991982755364812
          0.0011022400060889058 0.0011935078372815881 0.0012847756684742707 0.0016441653421771256 0.0017501260231260818 0.001856086704075038
          0.0026078777528145097 0.002711190524187936 0.0028145032955613617 0.004119171501696545 0.004193982906032383 0.004268794310368222
          0.0062151202908803755 0.006250828719448015 0.006286537148015654 0.009019333645809332 0.009016153489118415 0.009012973332427496
          0.012734709456276194 0.012694198185921471 0.01265368691556675 0.017415515204158478 0.017344362278007716 0.017273209351856954
          0.022193974602146505 0.02216099682397918 0.022128019045811857 0.024436562594565493 0.024581587418265126 0.024726612241964756
          0.0016239359232044436 0.0017012648128290745 0.001778593702453705 0.0024346643461521907 0.0025110186018801844 0.002587372857608178
          0.0036430826646447877 0.00370086800259062 0.003758653340536451 0.005314078823637145 0.0053341921102635645 0.005354305396889984
          0.007425960589008327 0.007409420629571914 0.007392880670135502 0.009991808048555484 0.00995497874973298 0.009918149450910477
          0.013101372767932745 0.013063543455612597 0.013025714143292452 0.016688737381675957 0.016677542331641343 0.01666634728160674
          0.019661322754343766 0.01977033632825788 0.019879349902171994 0.02028434684791922 0.020637862250953848 0.020991377653988477
          0.0023880669171018366 0.002405022698505935 0.002421978479910034 0.003483639860233899 0.0034776009804012614 0.003471562100568624
          0.00491919399916552 0.004880350210602806 0.004841506422040093 0.00667066125592119 0.0066050093541103715 0.006539357452299553
          0.008690574515885155 0.008613187738407897 0.008535800960930637 0.010909155349528962 0.010846245940752763 0.010783336531976566
          0.013284776892901322 0.013269672214734879 0.013254567536568434 0.015670660815498016 0.01574600706200451 0.015821353308511
          0.017057354713977475 0.017318835711856776 0.017580316709736074 0.016466302211890525 0.016981239167989385 0.017496176124088245
          0.003420266820797888 0.003367453652852328 0.0033146404849067686 0.004766123256679476 0.0046831030572332885 0.0046000828577871
          0.006358636637959218 0.006242189235606386 0.0061257418332535535 0.008102698034183758 0.007974892222225867 0.007847086410267975
          0.009917472424181535 0.009804351740225174 0.009691231056268812 0.01167946903002054 0.011610905504652509 0.01154234197928448
          0.01323168652432953 0.01324685991105988 0.013262033297790226 0.014370146210245235 0.014516272406760617 0.014662398603275997
          0.014452258756537939 0.014790472661778086 0.015128686567018232 0.013199888225456287 0.013711708472558119 0.014223528719659952
          0.007670663310115658 0.007563113630081639 0.00745556395004762 0.009288504208674678 0.009179149553597703 0.009069794898520729
          0.010816243407630136 0.010725257941728647 0.010634272475827154 0.012091478570618064 0.012041496649536233 0.0119915147284544
          0.012898573490040869 0.012917748796864708 0.012936924103688545 0.012986378492929362 0.0131074248903441 0.013228471287758836
          0.0120247806833317 0.012268409793080057 0.012512038902828412 0.010527076450471684 0.010870573802758448 0.011214071155045212
          0.00003459854142893705 0.00041312557805412564 0.0004217647645640148 0.00002524059915338057 0.0005704306345022441 0.0019576145787995863
          0.0006240871808956586 0.000028193492270826196 0.001106262727575551 0.003502103579545047 0.0008264095972273026 0.00003114638538827182
          0 0 0.00012114051787522787 0 0.00024228103575045574 0
          0 0 0 0.0002832558927539223 0.00003733473050451098 0.00012099967038415829
          0.0005665117855078447 0.00007466946100902196 0.00024199934076831657 0.059823405101133126 0.055079978464765464 0.06930133886445909
          0.06959348671018371 0.05835463513290703 0.05410840554683877 0.06757219394879588 0.06760500583648174 0.05688586516468094
          0.05313683262891209 0.06584304903313266 0.06561652496277978 0.02175309782686042 0.013611595147729893 0.009739137943271798
          0.01345889832813916 0.02539300465177164 0.016224891517398133 0.012364591288245366 0.01658229302820644 0.02903291147668286
          0.018838187887066378 0.014990044633218937 0.019705687728273722 0.036068036863207226 0.036176929008655476 0.04304195824872001
          0.041746810689464994 0.035917215856762844 0.03624643777298301 0.04266927734804251 0.041275528757432275 0.03576639485031847
          0.03631594653731055 0.04229659644736501 0.04080424682539954 0.018270248426500962 0.01960116818116269 0.014185772629327945
          0.012311294071237435 0.019215759158855084 0.020322228506899166 0.014986555790685242 0.013268726573714034 0.0201612698912092
          0.02104328883263564 0.01578733895204253 0.014226159076190634 0.011416776731905883 0.01434074654803737 0.011988494798692786
          0.01501388255053082 0.012560212865479687 0.01568701855302427 0.048677251609119065 0.04520508514960518 0.047907301225009864
          0.04484528975616396 0.04713735084090068 0.04448549436272273 0.000007264178620147327 0 0
          0.0003933232497825175 0.0007393440630155389 0.00047844781729246906 0.0005565711305669099 0.002321475060528635 0.0014714239474109307
          0.0009568956345849381 0.0011131422611338198 0.004249626871274752 0.055303074940972995 0.054278078785515584 0.06447731143367147
          0.06154961926102028 0.053988218165381595 0.05288926395460617 0.06252153382926057 0.05987871848628975 0.05267336138979019
          0.05150044912369675 0.06056575622484968 0.0582078177115592 0.05750030905106931 0.07545613566658427 0.05638370130581113
          0.07337016045044348 0.055267093560552975 0.0712841852343027 0.0007209240749439546 0.0011890013604978294 0.00031897988217797504
          0.00012112248729972822 0.0009006628726875544 0.0013475061961835334 0.0003468475955235265 0.00013648787508168043 0.001080401670431154
          0.0015060110318692375 0.00037471530886907796 0.00015185326286363266 0.10288486623562632 0.11557869144774291 0.1082738803289893
          0.09237740307262252 0.10066775804654679 0.11230945624477143 0.10492956933741124 0.0902027215892456 0.09845064985746728
          0.10904022104179995 0.10158525834583318 0.08802804010586865 0 0 0
          0 0.0007713887970630779 0.0007973612367663793 0.0005517357550557048 0.000511488572265624 0.0015427775941261558
          0.0015947224735327586 0.0011034715101114097 0.001022977144531248 0.02345377565596836 0.02390574270550455 0.024076195719514804
          0.0247004387728765 0.02469861578306125 0.02549513484024845 0.04935363539933653 0.04835410014841335 0.04735456489749017
          0.00029172593411974163 0.0010914001858177847 0.0027660202899986272 0.0051290925293928525 0.005240314645877513 0.009166784872967921
          0.004998778663136318 0.005601045625854667 0.0018527718525826772 0.009002949482600057 0.008454360453336404 0.004042329550787413
          0.013007120302063795 0.01130767528081814 0.006231887248992148 0.03280117051673449 0.031078147081387904 0.05312475150512891
          0.04623226333639042 0.034067880835662395 0.033535170033550374 0.05418519684522669 0.046109641026211345 0.0353345911545903
          0.03599219298571284 0.055245642185324476 0.04598701871603227 0.06930196904049939 0.07269146203106933 0.07716226931721086
          0.0669949670126205 0.07028352380620981 0.07433392348086203 0.06468796498474161 0.06787558558135029 0.0715055776445132
          0.010383475676782581 0.0180395351611393 0.011007318172072336 0.01865074302537318 0.011631160667362089 0.019261950889607055
          0.008002452306127377 0.01000922231015461 0.009500947177726836 0.012013755131399642 0.010999442049326298 0.01401828795264467
          0.012163153120137346 0.006526770683228507 0.013712052404664332 0.007616791460911833 0.015260951689191315 0.008706812238595159
          0.0955748646943756 0.09263846602003688 0.10127520377037781 0.10311953045121335 0.09142273636290729 0.0888857996455098
          0.09741302818426138 0.09893590310081751 0.08727060803143899 0.08513313327098272 0.09355085259814497 0.09475227575042168
          0.029587461713524714 0.030723236171676705 0.03776059573837304 0.030040626291976097 0.03155618430192372 0.03809006896686979
          0.030493790870427473 0.03238913243217073 0.03841954219536654 0.0021609832493249157 0.0013681123620204224 0.002687692381050239
          0.0018881172015501966 0.003214401512775562 0.002408122041079971 0.028464193640026125 0.02254286040957193 0.028691288841629192
          0.022972907537678507 0.028918384043232263 0.023402954665785076 0.01966988720390291 0.02406742684715943 0.020927453707775767
          0.025982359830100776 0.02218502021164862 0.027897292813042124 0.011983097304977841 0.006961402696233446 0.013168785150958519
          0.0077309679714032626 0.014354472996939191 0.008500533246573079 0 0 0
          0.000005681076951731729 0 0 0.000011362153903463459 0 0
          0.0067087654186990505 0.0039003256609396408 0.007814555280779328 0.007112298608549726 0.00423479823023872 0.008437361610563522
          0.007515831798400403 0.004569270799537799 0.009060167940347717 0.07954778304059462 0.08622580455460435 0.086456561537923
          0.07666233666136064 0.08283163554809538 0.08292504956062544 0.07377689028212664 0.07943746654158639 0.07939353758332787
          0.08997415723624147 0.08621199894702947 0.08244984065781744 0 0 0
          0 0 0 0 0 0
          0 0 0 0.0792234228979635 0.0871142940150532 0.0765969601369749
          0.08401783259591895 0.0739704973759863 0.08092137117678469 0 0 0
          0 0 0 0.1105730368237765 0.09447239613412983 0.10694973120170519
          0.09126786515074138 0.10332642557963385 0.08806333416735293 0.06730908803995633 0.0793598156055835 0.0660734280550783
          0.07900365412773667 0.06483776807020028 0.07864749264988984 0 0 0
          0.008874848518358399 0.009276150305824073 0.009677452093289744 0.042170549602826166 0.0256520429263196 0.045728655630694864
          0.02968402571320752 0.04928676165856357 0.03371600850009545 0.010502161779527385 0.011309487830237075 0.01211681388094677
          0.003274281644859827 0.006033288641605234 0.008792295638350642 0 0.000005681076951731729 0.000011362153903463459
          0.0030400260475260564 0.0034975263024637432 0.003955026557401429 0.000005208605458384305 0.0000069160926361012955 0.000008623579813818287
          0.0038168768961184016 0.006102139871624178 0.008387402847129955 0.07080045841580931 0.07216884743806408 0.07353723646031886
          0.1138657994832462 0.11011564799939716 0.10636549651554811 0.054506073060079444 0.05333060225205744 0.05215513144403545
          0 0 0 0 0.0005198004495949076 0.0010396008991898152
          0.0099845787217937 0.009937915457596496 0.00989125219339929 0.010293360432134467 0.01028798478396296 0.010282609135791453
          0.011162987178314902 0.01112443773169039 0.01108588828506588 0.011033668216423757 0.011029436168673317 0.011025204120922876
          0.011973762163519482 0.011953024605154391 0.011932287046789305 0.012189037431828488 0.012197289235539576 0.012205541039250666
          0.011544399843222777 0.011594779644073705 0.011645159444924632 0.009754842748035777 0.009849882803159309 0.009944922858282846
          0.006849228792198357 0.006984355676558115 0.007119482560917874 0.00671979495178052 0.004550993368754965 0.006980160016694694
          0.004753417532652582 0.0072405250816088675 0.0049558416965501985 0.0018212661950687899 0.0007958494005597692 0.0007570454251196084
          0.0023726247119476513 0.0018475364335140178 0.0007991954291323791 0.0007888159789319428 0.0024769965426465115 0.0018738066719592458
          0.0008025414577049889 0.0008205865327442772 0.0025813683733453712 0.0000780034212023092 0.00008017029951016667 0.00008233717781802413
          0.0033776913981749604 0.00343913278032733 0.003500574162479699 0.00025392508128583636 0.000252174726665186 0.00025042437204453565
          0.010426425809149797 0.010197993995726169 0.010426778790648773 0.010197086161943425 0.010427131772147748 0.010196178328160683
          0.011326756908746405 0.011325699071556191 0.011324641234365978 0.010159784250286266 0.010162278448240102 0.010164772646193936
          0.01096550448182325 0.010970721901816626 0.010975939321810003 0.009721099034472366 0.00973750911271944 0.009753919190966513
          0.007430436127913409 0.0074556367418572005 0.007480837355800993 0.0045856237094799805 0.004604563384727693 0.004623503059975406
          0.0021895796493696072 0.002199798559522617 0.0022100174696756264 0.0002557986283453122 0.0007682429508136738 0.0007030763957526429
          0.00026277183225037053 0.0007700730620574777 0.0007111006990243423 0.0002697450361554288 0.0007719031733012813 0.0007191250022960419
        </DataArray>
        <DataArray type="Float64" Name="pe11" format="ascii" RangeMin="-0.0008283132186390819" RangeMax="0.1116126795611286">
          0.00037951200795314664 0.00036227961679618354 0.00040766979876000697 0.0003869741809831419 0.0004358275895668672 0.00041166874517010023
          0.00041175755229892286 0.00038050477597766606 0.00046044353072934415 0.0004234776252923435 0.0005091295091597654 0.000466450474607021
          0.000685931796163556 0.0006207544545651787 0.0007626714688398798 0.0006934506771729604 0.0008394111415162039 0.000766146899780742
          0.0014438346476186407 0.0013360425094003565 0.00155054615773155 0.0014424110039777914 0.0016572576678444586 0.0015487794985552263
          0.0030789452428296093 0.0029436115866246088 0.0031957877746702245 0.0030634376695450037 0.0033126303065108397 0.0031832637524653986
          0.006018599626113394 0.005883019369649412 0.006097594314628529 0.0059669196020406615 0.006176589003143666 0.0060508198344319105
          0.01065303394434898 0.010553347176741588 0.010627439926654804 0.010529816232012571 0.010601845908960626 0.010506285287283557
          0.01746482070189008 0.017448109779070953 0.017249975416210386 0.017225547698180455 0.017035130130530696 0.017002985617289954
          0.028127265028296194 0.02843423425785105 0.027578480542651607 0.02785313132873624 0.027029696057007016 0.02727202839962143
          0.04237248071127282 0.04130501261250282 0.04129201035931583 0.04028542182578709 0.04021154000735883 0.03926583103907137
          0.00043943373489155964 0.00047694437367994103 0.0005144550124683225 0.0005227595450887673 0.0005822418995810785 0.0006417242540733898
          0.0008925915773691926 0.0009771419600283653 0.001061692342687538 0.0017671618636174095 0.0018740158822246717 0.0019808699008319335
          0.0034799696043687936 0.0035872987107596977 0.0036946278171506013 0.0064165663574559054 0.006481228768177907 0.00654589117889991
          0.010943704092200803 0.010911838737439393 0.010879973382677979 0.017492576699209447 0.017299163940548454 0.017105751181887466
          0.027194459576911724 0.026738540246798642 0.026282620916685557 0.03800162881565042 0.037244886428030095 0.03648814404040978
          0.0005592860885700387 0.0006127691211844271 0.0006662521537988156 0.0007409615140895553 0.0008147330322063905 0.0008885045503232258
          0.0012595416425405486 0.0013532936939446322 0.0014470457453487156 0.0023067968983515093 0.0024109548365635063 0.002515112774775503
          0.004131946691834532 0.004221883410030908 0.004311820128227284 0.007049772702354198 0.007091905995516226 0.007134039288678253
          0.011388806798443714 0.011347378059309014 0.011305949320174315 0.017480851142908593 0.017318434594211504 0.017156018045514414
          0.025662349638981133 0.025346339875800386 0.025030330112619646 0.03398656735938947 0.03361741583354212 0.03324826430769477
          0.0007639092849206907 0.0008392658778853507 0.0009146224708500108 0.0010922419858790848 0.0011852442736964533 0.0012782465615138218
          0.0018030107409551508 0.0019060689812349621 0.0020091272215147734 0.0030611125961043043 0.003155152039951167 0.00324919148379803
          0.005009185514454502 0.005071972105100732 0.0051347586957469615 0.00786997751345963 0.007883329915358466 0.007896682317257304
          0.011919522755715853 0.011868227131002535 0.011816931506289218 0.01735216942980973 0.017227164535970417 0.017102159642131107
          0.023757834223184705 0.023595412475037325 0.02343299072688994 0.02792153309524935 0.027867547759367946 0.027813562423486544
          0.0010944994734588354 0.0011850894307082445 0.0012756793879576535 0.0016213201727566652 0.0017257025049052322 0.0018300848370537992
          0.0025561373219377265 0.0026561805999290645 0.002756223877920403 0.004025853786786611 0.004094139479069297 0.004162425171351985
          0.006069873376101042 0.006094332123636848 0.006118790871172654 0.008809611883211575 0.008790905640651927 0.00877219939809228
          0.012446444163029717 0.012389194218340355 0.012331944273650993 0.017026669489779697 0.016946901620026728 0.016867133750273752
          0.021656160629542086 0.021635855384399938 0.021615550139257783 0.023622399607042537 0.02380411284922161 0.023985826091400674
          0.0016050453474315291 0.0016818458345343905 0.0017586463216372518 0.00238991610688853 0.002465376726344476 0.002540837345800422
          0.00356026429563546 0.0036160569826293506 0.003671849669623242 0.005187057230773058 0.005202717563282307 0.005218377895791557
          0.007256419622901941 0.007231527751579817 0.007206635880257696 0.009787808507912691 0.009738223711813938 0.009688638915715185
          0.012874838701625016 0.012822010569924944 0.012769182438224872 0.0164394456081648 0.016419640714591444 0.016399835821018085
          0.01934642276692248 0.01946598901231061 0.01958555525769874 0.019746497724384325 0.020126328816123973 0.020506159907863617
          0.002345606119114017 0.0023640067685638186 0.0023824074180136203 0.003403157281619132 0.003399086479533098 0.0033950156774470636
          0.004794581754158156 0.004757172525187645 0.004719763296217133 0.006506413788871394 0.006439836155464164 0.006373258522056933
          0.008501178885809774 0.008418834558783058 0.00833649023175634 0.01071817367129813 0.010645101315184397 0.01057202895907066
          0.013118531783936817 0.013089566420584538 0.013060601057232259 0.015531256447889549 0.015596571554468917 0.015661886661048292
          0.0168774757007993 0.017142839517761597 0.0174082033347239 0.016077298616452178 0.01660348825531496 0.017129677894177745
          0.0033391800556797323 0.0032848964759679645 0.003230612896256197 0.004637349978349084 0.004552933231473644 0.004468516484598204
          0.006186222891324726 0.006068782254079965 0.005951341616835203 0.007903548466349022 0.007774055214441843 0.007644561962534665
          0.009717942481389633 0.009600797560518652 0.009483652639647669 0.011511941708277944 0.01143517087109245 0.011358400033906955
          0.013121879366064862 0.01312404958420461 0.013126219802344357 0.014303421306939401 0.014435259823882867 0.014567098340826331
          0.014296482876414648 0.014629572039019066 0.014962661201623486 0.01273143380204 0.013246055346550118 0.013760676891060232
          0.007506888013302397 0.007396467051786643 0.007286046090270891 0.009120800439998656 0.009009019803592587 0.008897239167186518
          0.010671169526831194 0.0105774016946221 0.010483633862413005 0.011992853567992116 0.011938748434274803 0.011884643300557492
          0.012848822808238004 0.01286189339509174 0.01287496398194547 0.012935577543792385 0.013049396897104156 0.013163216250415935
          0.011809386169643494 0.012050741292491913 0.012292096415340334 0.00992565421300393 0.010271696259228679 0.010617738305453426
          0.0000301613146994934 0.00037453279207452935 0.00038727803501151253 0.000023584009278442763 0.00006423532486659188 0.00022237975670439213
          0.00048785682779867363 0.000024504221056047187 0.00009830933503369036 0.00007022672133425486 0.0005884356205858349 0.00002542443283365161
          0 0 -0.0000215357380563323 0 -0.0000430714761126646 0
          0 0 0 0.00009533644908154917 -0.00000922548675551809 0.000013320046414827724
          0.00019067289816309833 -0.00001845097351103618 0.000026640092829655447 0.05707652382999666 0.05175890535860591 0.0662592204200091
          0.06710124394984769 0.05546929152190821 0.0508568819083892 0.06442124630083705 0.06491098809118907 0.05386205921381976
          0.04995485845817248 0.06258327218166498 0.06272073223253047 0.015081178544632893 0.009166754520826095 0.0034316258801498365
          0.007547322654390108 0.016866634608612888 0.009955668649771047 0.004354702209128505 0.00914471502294262 0.01865209067259288
          0.010744582778715999 0.005277778538107172 0.010742107391495129 0.034179663997606066 0.034088305539299577 0.040298730285357395
          0.03923884887093047 0.03410646124848689 0.03428251455324839 0.04007979337502031 0.03885324667936108 0.0340332584993677
          0.03447672356719721 0.03986085646468322 0.038467644487791705 0.016747238983543713 0.01849986900856791 0.013039846939216462
          0.010763853476520856 0.01767825686617508 0.01922831322664368 0.013806904830986132 0.01165267950192317 0.018609274748806443
          0.019956757444719454 0.014573962722755806 0.012541505527325487 0.01064245954210201 0.013721640996336949 0.01120422769016281
          0.014398329240220536 0.011765995838223612 0.015075017484104123 0.045672698058102264 0.041969438027293554 0.0450486171433303
          0.04190517838647533 0.044424536228558326 0.04184091874565712 0.0000020924125041765955 0 0
          0.00003785645723709421 0.00008391786285739407 0.0002256359521615405 0.00012223160637051328 -0.0003952283807009938 0.00016574331321061157
          0.000451271904323081 0.00024446321274102656 -0.0008283132186390819 0.05213456380786034 0.051291854544076004 0.062264878707922286
          0.05907411291854899 0.050632111897788684 0.04978453886162329 0.060072562081666614 0.05713953270907798 0.04912965998771701
          0.04827722317917057 0.05788024545541095 0.05520495249960696 0.05292738030163891 0.0714043149845062 0.052080836867220474
          0.06951954006556679 0.051234293432802024 0.06763476514662739 0.0006482259878583721 0.0010993818238990666 0.0002956772863169627
          0.00011245975471067249 0.0007589490943200434 0.0012130509414180974 0.000315266589597658 0.0001220412688313305 0.000869672200781715
          0.0013267200589371284 0.0003348558928783533 0.00013162278295198853 0.08764791091757908 0.10966738978072375 0.1039826685766784
          0.08285001805165479 0.08629295881246699 0.10640254700755418 0.100529161281082 0.08134334318082025 0.08493800670735488
          0.10313770423438462 0.09707565398548557 0.07983666830998568 0 0 0
          0 -0.00021240329756969746 -0.000017479244386910363 0.00003214194112040974 -0.00016699161508920406 -0.0004248065951393949
          -0.000034958488773820726 0.00006428388224081948 -0.0003339832301784081 0.02236106578592359 0.022417270537879765 0.023028288315011452
          0.023245127825906646 0.023695510844099304 0.02407298511393353 0.04646935811189752 0.04548975155411025 0.044510144996322984
          0.0001493885766814503 0.000729214569579465 0.00021587908849950534 0.0003294139917342059 0.00028236960031756045 -0.00007038658611105316
          0.0014353584078319053 0.003396590171780049 0.0014910530099288741 0.001430213341387561 0.0033972097120374997 0.001398196763081918
          0.0014250682749432169 0.0033978292522949503 0.0013053405162349618 0.02919979065276697 0.02516655686097656 0.04196414632040144
          0.04107685424504205 0.030604471081600488 0.0268540044855586 0.04318247434087735 0.04155430649191094 0.03200915151043401
          0.028541452110140638 0.044400802361353256 0.042031758738779824 0.06760926183325927 0.07086008072697482 0.07573448901139244
          0.0649996012012711 0.06813138556135878 0.07256145896404335 0.06238994056928294 0.06540269039574273 0.06938842891669426
          0.0094906288349168 0.017260453977630034 0.01007646383318046 0.01789117091877855 0.010662298831444117 0.018521887859927064
          0.0013225571699778153 0.003926146886235102 0.0028279338319861483 0.005279250873817041 0.0043333104939944815 0.00663235486139898
          0.00963694831650582 0.005297666464441442 0.010755783642401373 0.006086145819709434 0.011874618968296927 0.006874625174977428
          0.09416174504855657 0.09113150536935036 0.09944641552131872 0.10129481088127673 0.08971857727810098 0.08714082424112136
          0.09521818056680956 0.09679478511410025 0.0852754095076454 0.08315014311289239 0.09098994561230038 0.0922947593469238
          0.027885161417516905 0.02821672215183064 0.0350754487984621 0.028474846116103274 0.029229558856114078 0.03565222226964418
          0.02906453081468964 0.030242395560397515 0.03622899574082626 0.001835941263696274 0.001193170100673259 0.0021867004905095177
          0.001487216370788532 0.0025374597173227625 0.0017812626409038055 0.02713744619657375 0.021564526578672173 0.02745081253778106
          0.022034629337360064 0.027764178878988365 0.022504732096047947 0.01726868946889003 0.020069799843016226 0.018393577690384116
          0.02148744278689545 0.0195184659118782 0.022905085730774672 0.010018472703990033 0.005860285217630809 0.011044991781583734
          0.006491473388627215 0.012071510859177433 0.007122661559623621 0 0 0
          0.0000024883913515617974 0 0 0.000004976782703123595 0 0
          0.005852719070388812 0.0033396662812916257 0.0068083662020545915 0.006212100834210166 0.003604968911522277 0.007339916101585061
          0.00657148259803152 0.003870271541752928 0.007871466001115528 0.07816998027030873 0.08513148060549709 0.08553314607879525
          0.0749370977892918 0.08140471831484716 0.08160777222937839 0.07170421530827488 0.07767795602419723 0.0776823983799615
          0.08885556857600296 0.08470247617564403 0.08054938377528506 0 0 0
          0 0 0 0 0 0
          0 0 0 0.0772503724367929 0.08478691717544175 0.07445293168076814
          0.08166911547003045 0.07165549092474337 0.07855131376461912 0 0 0
          0 0 0 0.10848340446748173 0.09148679294726576 0.10433972810208798
          0.08829285845654142 0.10019605173669428 0.08509892396581711 0.05977686863217793 0.06181112719382046 0.05940486140668568
          0.062160661606579744 0.05903285418119343 0.06251019601933903 0 0 0
          0.007978201411356878 0.008367228838223604 0.00875625626509033 0.026699314317377796 0.013819401651685834 0.028873278748947927
          0.01593171501856925 0.031047243180518058 0.018044028385452663 0.00934726093122844 0.010068502590801559 0.010789744250374681
          0.00026123780380908114 0.0005396492300808424 0.0008180606563526038 0 0.0000024883913515617974 0.000004976782703123595
          0.0025379441438454654 0.0028727076712405613 0.0032074711986356573 0.000005045679551499888 0.000006634910085847621 0.000008224140620195351
          0.00017746120237286796 0.00013630248035449954 0.0000951437583361311 0.04827915837290556 0.049486231385388914 0.050693304397872264
          0.1116126795611286 0.1074272374915845 0.10324179542204043 0.05116604522498577 0.04979473347032976 0.04842342171567376
          0 0 0 0 -0.00009082336496098681 -0.00018164672992197363
          0.009912146317582797 0.009865229571535974 0.009818312825489148 0.010279061284950637 0.0102734531448762 0.01026784500480176
          0.011113922957188827 0.011074936931052517 0.011035950904916209 0.011023107520403952 0.01101873267827546 0.01101435783614697
          0.01194762024920551 0.011926431296261433 0.011905242343317359 0.01216002837973613 0.0121683725803189 0.012176716780901669
          0.011447741734761385 0.011499525117021347 0.011551308499281305 0.009486018118763897 0.009582683116141947 0.009679348113519998
          0.0064233291671420695 0.0065550478483321906 0.006686766529522309 0.0060867159117677745 0.004115726451307844 0.006335328534571346
          0.004296612030856845 0.006583941157374917 0.004477497610405847 0.0017308640928420888 0.0007761465665526583 0.0007195768643872474
          0.0021798366982125634 0.0017501812197497416 0.0007776763838061706 0.0007439806731468953 0.0022648407600841334 0.0017694983466573938
          0.0007792062010596829 0.0007683844819065432 0.0023498448219557034 0.00007699983813916271 0.00007890462584929699 0.00008080941355943125
          0.0031631070353788327 0.003215147449665401 0.003267187863951969 0.000248447141547569 0.0002465140551554842 0.0002445809687633994
          0.01040155022991473 0.010188378759976515 0.010401862543021442 0.010187307414269962 0.010402174856128155 0.010186236068563408
          0.011303381877013732 0.01130220527058319 0.01130102866415265 0.010103360889347587 0.010105763232716487 0.010108165576085387
          0.010899055192174892 0.010903947328243756 0.01090883946431262 0.009575103657302055 0.00959038100244315 0.009605658347584247
          0.007200437268734622 0.007222427079219539 0.007244416889704457 0.00439447289438564 0.004409813129479623 0.004425153364573605
          0.00210914077858852 0.0021164976929784647 0.0021238546073684096 0.00024950543862191897 0.0007549726787621644 0.000693573152818936
          0.0002561063089645703 0.0007559901921146508 0.0007010237521070117 0.0002627071793072217 0.0007570077054671372 0.0007084743513950874
        </DataArray>
        <DataArray type="Float64" Name="pe22" format="ascii" RangeMin="-0.048327873499064936" RangeMax="0.0006051942935822069">
          -0.00020024089336722007 -0.00019170935019567425 -0.00021075979172238883 -0.00020103196121289667 -0.00022127869007755756 -0.00021035457223011906
          -0.00020759905437332755 -0.0001933256167530298 -0.00022279635142370458 -0.00020664547810344408 -0.00023799364847408165 -0.00021996533945385833
          -0.00031054453848628367 -0.00028330160793419747 -0.0003246599013164166 -0.00029701360764573033 -0.0003387752641465495 -0.00031072560735726326
          -0.0005559215035912354 -0.0005139822819864319 -0.0005555216827795533 -0.0005145875498102266 -0.0005551218619678714 -0.0005151928176340212
          -0.0009950301896273599 -0.0009426915632269977 -0.0009658704861961903 -0.0009139200076258558 -0.0009367107827650205 -0.000885148452024714
          -0.0016548761282861972 -0.0015930914930365999 -0.0015956981887024042 -0.0015332433502514065 -0.0015365202491186111 -0.0014733952074662128
          -0.002555127869901527 -0.0024783090452291648 -0.0024734825552835357 -0.0023950780891236496 -0.0023918372406655443 -0.0023118471330181344
          -0.0037263651070868244 -0.003609284241513096 -0.0036136147469842633 -0.003488693294367775 -0.0035008643868817014 -0.003368102347222454
          -0.005114512183172742 -0.004889944375328529 -0.004929008269733236 -0.004686165335554507 -0.0047435043562937314 -0.004482386295780485
          -0.007480973209979843 -0.006424735980755274 -0.007036615714241535 -0.006016117289754264 -0.006592258218503228 -0.0056074985987532525
          -0.0002293618567235351 -0.0002426617182729683 -0.00025596157982240143 -0.0002577322347326706 -0.0002750720120056758 -0.00029241178927868117
          -0.0003958677981484147 -0.00040925894932563255 -0.00042265010050285035 -0.0006807642191695237 -0.0006777359280384188 -0.000674707636907314
          -0.0011504199062489751 -0.0011204356096968708 -0.0010904513131447665 -0.001837738455721011 -0.0017807762339648136 -0.0017238140122086158
          -0.0027841784006122326 -0.002707520462837058 -0.0026308625250618836 -0.004050592739858711 -0.003956977827761093 -0.003863362915663476
          -0.005614570336774183 -0.005481054219436192 -0.005347538102098203 -0.0075766191322923825 -0.007330469232993484 -0.007084319333694586
          -0.00028537469326624175 -0.0003025098047364928 -0.00031964491620674383 -0.0003528860415067438 -0.0003710192347332448 -0.0003891524279597457
          -0.0005431044977549036 -0.0005540795954141123 -0.0005650546930733211 -0.0008862041194048127 -0.0008797882288433152 -0.0008733723382818178
          -0.001403997986094335 -0.0013736345363324722 -0.0013432710865706095 -0.002133993545814432 -0.0020812788524757105 -0.0020285641591369884
          -0.0031489047271585405 -0.0030806499289589458 -0.0030123951307593506 -0.00451503862164308 -0.004446139739041658 -0.004377240856440236
          -0.0061160605384580555 -0.006058340609947472 -0.006000620681436891 -0.008076991031368625 -0.008073399449366303 -0.008069807867363981
          -0.00037483394275011255 -0.0003957472549995458 -0.000416660567248979 -0.0004967072469490015 -0.0005152580108015506 -0.0005338087746540996
          -0.0007510596516725536 -0.0007595600775532236 -0.0007680605034338934 -0.0011672518599740048 -0.0011578403401890467 -0.0011484288204040884
          -0.0017473708161260797 -0.001717938648600789 -0.0016885064810754982 -0.002529135185707637 -0.0024829662460718123 -0.002436797306435987
          -0.003608059063174929 -0.0035514616316835827 -0.0034948642001922355 -0.005032629191577134 -0.004991462194525474 -0.0049502951974738155
          -0.006582574097096715 -0.0065956629122046456 -0.006608751727312576 -0.00786485405114856 -0.007980446293850143 -0.008096038536551723
          -0.0005053623121045959 -0.0005260622390517519 -0.0005467621659989079 -0.0006948313329787113 -0.0007114875284661265 -0.0007281437239535415
          -0.0010218877187584167 -0.0010276605275057458 -0.0010334333362530747 -0.001516913745603134 -0.0015056028577388684 -0.0014942919698746027
          -0.0021665292376680393 -0.0021399255387214923 -0.002113321839774945 -0.002999953962634734 -0.0029625083619550957 -0.0029250627612754567
          -0.0041106337966549545 -0.004068702423345369 -0.004026771050035784 -0.005519696403572721 -0.005504843028008742 -0.00548998965244476
          -0.006971507888850065 -0.007029211008544379 -0.007086914128238692 -0.007965636767715261 -0.00812225720376274 -0.008278877639810221
          -0.0006814258977740101 -0.0006953321833726112 -0.0007092384689712123 -0.0009532364578069846 -0.000961320901952969 -0.0009694053460989538
          -0.0013585021785195003 -0.0013576717322584147 -0.0013568412859973288 -0.0019244724980374346 -0.0019122227369771472 -0.0018999729759168597
          -0.0026406125197577486 -0.002619291179654995 -0.0025979698395522414 -0.003515915364091757 -0.0034890792908493515 -0.0034622432176069466
          -0.0046104850105094155 -0.004584904318217609 -0.004559323625925803 -0.005913618387139257 -0.0059198339463461015 -0.005926049505552944
          -0.007139554776085445 -0.007220879046235221 -0.007302203316384997 -0.007865413559838469 -0.008032242968869925 -0.008199072377901384
          -0.0009025359140885829 -0.0009058767775404291 -0.0009092176409922754 -0.0012568946445275298 -0.0012542816588634377 -0.0012516686731993453
          -0.001742469658125964 -0.0017337676331891005 -0.0017250656082522372 -0.002371708992913951 -0.00235990526034736 -0.0023481015277807687
          -0.0031432508304287763 -0.0031295578820247933 -0.003115864933620811 -0.004043138456967832 -0.004028608913721777 -0.004014079370475722
          -0.005069985304604456 -0.005061282159549426 -0.005052579014494397 -0.006175480517894565 -0.006197612299259529 -0.0062197440806244925
          -0.007103252560995796 -0.007191284491342013 -0.007279316421688229 -0.007462186415563831 -0.007627489791316733 -0.007792793167069635
          -0.0011737313503528781 -0.0011609024983280185 -0.0011480736463031589 -0.001601321963995579 -0.0015859368990385882 -0.001570551834081597
          -0.002155998328179913 -0.0021393397346272237 -0.002122681141074534 -0.0028384834585189677 -0.002825577209238177 -0.002812670959957386
          -0.003646424633867115 -0.00363872057178406 -0.003631016509701004 -0.004545691630354038 -0.004543543836310386 -0.004541396042266734
          -0.005465370410768952 -0.005475447801773832 -0.005485525192778711 -0.006297416593344058 -0.006337277101374715 -0.006377137609405371
          -0.006866759986752628 -0.006956799543237805 -0.0070468390997229825 -0.006876750822657589 -0.0070245771526212825 -0.0071724034825849745
          -0.002758631401905412 -0.0027436552341440425 -0.002728679066382673 -0.0034875213388966906 -0.0034794157468441486 -0.003471310154791607
          -0.004299991627048424 -0.004299970453484656 -0.004299949279920888 -0.005131629055349046 -0.0051409002749781005 -0.005150171494607155
          -0.005856260090256051 -0.005880993781573395 -0.00590572747289074 -0.006296265130881808 -0.0063451242091291885 -0.00639398328737657
          -0.006320291205110707 -0.006395330749025625 -0.006470370292940542 -0.0060169874517337135 -0.006112795118438535 -0.006208602785143355
          -0.000014845259507208685 -0.00020938274445393075 -0.0002055434180411724 -0.000011475292691410033 -0.00011985370131719329 -0.00020799188655894793
          -0.00018392821252730278 -0.000009486572280984942 -0.00022486214312717788 -0.00020660102866396502 -0.00016231300701343316 -0.000007497851870559851
          0 0 0.000012841246730492197 0 0.000025682493460984394 0
          0 0 0 -0.00009160370544108124 0.00000960893557387636 -0.000014722101391734964
          -0.00018320741088216248 0.00001921787114775272 -0.000029444202783469932 -0.015233481758799575 -0.013609830136154188 -0.02076020053785831
          -0.0207801690157965 -0.014191839225074523 -0.013136393387136212 -0.019312341070262702 -0.019094305766269172 -0.013150196691349467
          -0.012662956638118238 -0.017864481602667095 -0.017408442516741843 -0.0033492671740579768 -0.003110520176658898 -0.0010774301606946424
          -0.0012759205899542953 -0.004392646447183247 -0.003118753875240379 -0.001099507099223493 -0.0018476548494225388 -0.0054360257203085165
          -0.00312698757382186 -0.0011215840377523435 -0.0024193891088907823 -0.009349512705804815 -0.009672983447819713 -0.009779967535311514
          -0.009241514139376125 -0.0095426050842817 -0.010002805725097591 -0.009901710759620975 -0.0092715663496332 -0.009735697462758583
          -0.010332628002375471 -0.010023453983930435 -0.009301618559890274 -0.008110593094092271 -0.008239447956495189 -0.006826107385356622
          -0.005807620161243597 -0.008506065255215804 -0.008609064519939699 -0.007045347140600991 -0.006019393139396751 -0.008901537416339334
          -0.008978681083384208 -0.007264586895845358 -0.006231166117549904 -0.0062622793147382606 -0.007186713887679925 -0.006417397824147941
          -0.007377618392163899 -0.006572516333557623 -0.007568522896647873 -0.010859093789813827 -0.010792210775859236 -0.010714709978057234
          -0.010992540288102941 -0.010570326166300636 -0.011192869800346648 -7.908521131010919e-7 0 0
          0.00002096424543088696 -0.00009904383312577032 -0.0002330248909355564 -0.00010670815013256133 0.00006681495246953732 -0.00019729681413843954
          -0.00046604978187111273 -0.00021341630026512265 0.00011266565950818768 -0.010526610125189576 -0.011113776385710171 -0.017698120327314215
          -0.015059953369252846 -0.009685255990476252 -0.010310594797244488 -0.01615636227135331 -0.0137494394293003 -0.008843901855762929
          -0.00950741320877881 -0.014614604215392396 -0.012438925489347752 -0.015093009536458835 -0.026224143100271803 -0.014594690029500985
          -0.024589832154349327 -0.014096370522543136 -0.022955521208426848 -0.00036594264659503393 -0.0006440938043541989 -0.0001731964549485359
          -0.00006503875115330894 -0.00035836587957846337 -0.0006394896355923689 -0.00017125017833117352 -0.0000631675613816838 -0.0003507891125618928
          -0.0006348854668305388 -0.0001693039017138112 -0.00006129637161005866 -0.03679382986263545 -0.048327873499064936 -0.04550535720657748
          -0.034623698171619595 -0.03539806229205914 -0.04511857330281153 -0.04226017092932892 -0.033305858903639976 -0.034002294721482834
          -0.04190927310655813 -0.039014984652080344 -0.03198801963566036 0 0 0
          0 0.00030259714679110346 0.000038750642681927614 -0.00004462781100891038 0.00020387763468161395 0.0006051942935822069
          0.00007750128536385523 -0.00008925562201782077 0.0004077552693632279 -0.008856783921210578 -0.009534380540032392 -0.009320317759742057
          -0.010046141203134787 -0.009783851598273536 -0.010557901866237182 -0.010490253021144088 -0.010076397961297702 -0.009662542901451318
          -0.00009389584033136573 -0.0004190965428911907 -0.0005186453697300004 -0.0004947487522732196 -0.0009433948991286351 -0.0005704009616552485
          -0.0007266257520223896 -0.0015068795996559055 -0.0007209606918265599 -0.0006931757650356163 -0.0009724207399483449 -0.0004313758857090919
          -0.0006597257780488431 -0.0004379618802407844 -0.00014179107959162398 -0.008830005565276935 -0.006901851783580243 -0.0126528767929701
          -0.01055293331077739 -0.009624446277891606 -0.007820271313885952 -0.013901632881986198 -0.01114380262723498 -0.010418886990506271
          -0.008738690844191661 -0.015150388971002293 -0.01173467194369257 -0.02105165760312716 -0.023053730009090348 -0.026557427356155332
          -0.01911710578559562 -0.020874815265694464 -0.023916681957061148 -0.017182553968064073 -0.018695900522298584 -0.02127593655796696
          -0.005542265843739186 -0.007842465495803136 -0.005669171588058581 -0.008058548987606405 -0.005796077332377975 -0.008274632479409674
          -0.00025025855842527044 -0.0006527828052129739 -0.0011816112730358745 -0.0012128973272206335 -0.002112963987646479 -0.0017730118492282933
          -0.003949366601162749 -0.002608429214393245 -0.00442031692617677 -0.0027232219463084934 -0.004891267251190791 -0.002838014678223742
          -0.037915415372751456 -0.03605504866364119 -0.03987353751664524 -0.039204811120149494 -0.033892398905732105 -0.03247855924081967
          -0.0359334121481294 -0.034953796898419154 -0.02986938243871276 -0.028902069817998133 -0.03199328677961357 -0.030702782676688807
          -0.009618795126071973 -0.00937882883393572 -0.009536347536372933 -0.010095257118009508 -0.01012632150214091 -0.010150895790867974
          -0.010571719109947041 -0.010873814170346099 -0.010765444045363011 -0.0009933326207709453 -0.0006086347656691104 -0.0009878142296871396
          -0.000576324285775967 -0.000982295838603334 -0.0005440138058828237 -0.008874130896771611 -0.008183264787446472 -0.009193694373856254
          -0.008460544946939359 -0.009513257850940895 -0.008737825106432244 -0.007250082188909009 -0.007038333607314989 -0.007791869566328207
          -0.007618465000319829 -0.008333656943747405 -0.008198596393324669 -0.0048937890014814685 -0.003539345393070069 -0.005127688449346353
          -0.0036134142580788275 -0.005361587897211238 -0.003687483123087587 0 0 0
          -0.0000021700918438452092 0 0 -0.0000043401836876904184 0 0
          -0.0037602252634079576 -0.002125475559544396 -0.004189803862906655 -0.0038075257551028695 -0.0021412275777471543 -0.004278746689816487
          -0.003854826246797781 -0.002156979595949913 -0.004367689516726318 -0.02840378181717731 -0.033417270408468314 -0.03436711468070056
          -0.025699194957854807 -0.030144256051332818 -0.03082136814805552 -0.022994608098532293 -0.026871241694197318 -0.02727562161541048
          -0.036072708288963834 -0.03226282852297237 -0.028452948756980897 0 0 0
          0 0 0 0 0 0
          0 0 0 -0.027672964673419138 -0.03306391706247025 -0.02535272282787505
          -0.030218069757834365 -0.023032480982330964 -0.027372222453198487 0 0 0
          0 0 0 -0.04530930296731748 -0.03860897495914381 -0.04131617409463316
          -0.03568307447632196 -0.03732304522194883 -0.032757173993500116 -0.020363418501892057 -0.02404369438162672 -0.0203410117520412
          -0.02456561709764128 -0.020318605002190345 -0.025087539813655833 0 0 0
          -0.00513699829346571 -0.005219497493959461 -0.005301996694453212 -0.006454109568763564 -0.0008743765309978616 -0.008479384707637413
          -0.002487917422285504 -0.010504659846511263 -0.004101458313573146 -0.005494200742758311 -0.005658212064709965 -0.00582222338666162
          0.000011303026595185262 -0.0006440663649200978 -0.001299435756435381 0 -0.0000021700918438452092 -0.0000043401836876904184
          -0.0015201931161056338 -0.0015297385812763438 -0.0015392840464470536 -0.000002637836483216487 -0.000003121941150601866 -0.0000036060458179872452
          0.00035266736940183684 -0.0001735547087254078 -0.0006997767868526524 -0.016457088725858934 -0.01777830837736183 -0.01909952802886473
          -0.046005082297508784 -0.041893188312903375 -0.037781294328297965 -0.009625516335951786 -0.008832508345508472 -0.00803950035506516
          0 0 0 0 0.000197439024218979 0.000394878048437958
          -0.00437361252238965 -0.00437938189367259 -0.00438515126495553 -0.00507509681311152 -0.005087223721107951 -0.005099350629104382
          -0.005111056844943432 -0.005122393110682796 -0.005133729376422158 -0.005615171850440895 -0.005630653503668802 -0.005646135156896709
          -0.005744868952484932 -0.005762527631154258 -0.005780186309823584 -0.006117281769388976 -0.006144796379981698 -0.006172310990574422
          -0.006031515918777677 -0.00606893004403904 -0.0061063441693004015 -0.0053520945455604665 -0.005386285219542435 -0.005420475893524403
          -0.0039807441650862125 -0.00399198104705213 -0.004003217929018048 -0.003997024976797944 -0.0026278942700544918 -0.004017266868438418
          -0.0026280848974860995 -0.0040375087600788935 -0.0026282755249177076 -0.0010113923543032767 -0.0004334910050663659 -0.0004232547360260505
          -0.0013523609419774604 -0.0009952861762904548 -0.0004237701609974052 -0.0004155513453558713 -0.0013417826429513186 -0.000979179998277633
          -0.00041404931692844436 -0.00040784795468569196 -0.0013312043439251777 -0.00004108195095904101 -0.000040627597085638306 -0.00004017324321223559
          -0.0019249650339757517 -0.0019036112480766104 -0.0018822574621774688 -0.00013782108982037395 -0.00013513908643743162 -0.00013245708305448928
          -0.005560523599000691 -0.005305624157875043 -0.00557359276896067 -0.005316343609771839 -0.005586661938920648 -0.005327063061668637
          -0.005934874639352682 -0.005953670803742397 -0.005972466968132114 -0.005534443952569558 -0.005549247753988227 -0.005564051555406896
          -0.00588357697847393 -0.005906061601414587 -0.005928546224355243 -0.0053003385547869325 -0.005321863658607256 -0.00534338876242758
          -0.004113645329952833 -0.004119209558987386 -0.0041247737880219385 -0.002580297746036277 -0.0025654477117537764 -0.002550597677471275
          -0.0012113181507508008 -0.001195397171369508 -0.001179476191988215 -0.00011351548475726048 -0.00039662128066451333 -0.0003471371238330122
          -0.00011633015495791539 -0.0003911792995277474 -0.00034802483846063556 -0.00011914482515857032 -0.0003857373183909815 -0.00034891255308825873
        </DataArray>
        <DataArray type="Float64" Name="pe33" format="ascii" RangeMin="-0.06560759726361967" RangeMax="0.0007156475591316641">
          -0.00017927111458592652 -0.00017057026660050924 -0.00019691000703761806 -0.00018594221977024516 -0.00021454889948930957 -0.0002013141729399811
          -0.00020415849792559528 -0.0001871791592246363 -0.0002376471793056395 -0.0002168321471888994 -0.0002711358606856837 -0.00024648513515316254
          -0.00037538725767727213 -0.00033745284663098116 -0.0004380115675234631 -0.0003964370695272298 -0.0005006358773696542 -0.00045542129242347846
          -0.0008879131440274053 -0.0008220602274139242 -0.000995024474951996 -0.0009278234541675643 -0.0011021358058765868 -0.0010335866809212044
          -0.002083915053202249 -0.0020009200233976105 -0.0022299172884740334 -0.002149517661919147 -0.002375919523745818 -0.002298115300440684
          -0.004363723497827196 -0.004289927876612812 -0.004501896125926125 -0.0044336762517892545 -0.004640068754025052 -0.0045774246269656964
          -0.008097906074447454 -0.00807503813151242 -0.008153957371371267 -0.008134738142888922 -0.008210008668295082 -0.008194438154265422
          -0.013738455594803254 -0.013838825537557855 -0.013636360669226126 -0.013736854403812677 -0.013534265743648997 -0.013634883270067498
          -0.023012752845123448 -0.023544289882522516 -0.022649472272918365 -0.02316696599318173 -0.022286191700713283 -0.022789642103840938
          -0.03489150750129296 -0.034880276631747545 -0.034255394645074266 -0.03426930453603283 -0.03361928178885558 -0.033658332440318114
          -0.0002100718781680245 -0.00023428265540697274 -0.000258493432645921 -0.00026502731035609687 -0.0003071698875754027 -0.0003493124647947084
          -0.0004967237792207779 -0.0005678830107027327 -0.0006390422421846875 -0.0010863976444478855 -0.0011962799541862525 -0.0013061622639246194
          -0.0023295496981198174 -0.0024668631010628258 -0.002604176504005834 -0.004578827901734894 -0.004700452534213093 -0.004822077166691292
          -0.008159525691588568 -0.008204318274602333 -0.008249110857616097 -0.013441983959350728 -0.013342186112787357 -0.013242388266223988
          -0.02157988924013753 -0.021257486027362438 -0.020935082814587343 -0.030425009683357956 -0.029914417195036506 -0.02940382470671506
          -0.0002739113953037968 -0.0003102593164479343 -0.00034660723759207164 -0.0003880754725828114 -0.0004437137974731457 -0.0004993521223634799
          -0.0007164371447856452 -0.0007992140985305198 -0.0008819910522753947 -0.0014205927789466958 -0.001531166607720191 -0.001641740436493686
          -0.002727948705740196 -0.002848248873698435 -0.0029685490416566747 -0.004915779156539763 -0.005010627143040514 -0.005105475129541263
          -0.008239902071285169 -0.008266728130350067 -0.008293554189414966 -0.012965812521265507 -0.012872294855169839 -0.012778777189074175
          -0.01954628910052305 -0.01928799926585289 -0.019029709431182724 -0.025909576328020666 -0.025544016384175576 -0.025178456440330482
          -0.0003890753421705779 -0.00044351862288580484 -0.0004979619036010317 -0.0005955347389300833 -0.0006699862628949027 -0.000744437786859722
          -0.0010519510892825973 -0.0011465089036817382 -0.0012410667180808796 -0.001893860736130299 -0.00199731169976212 -0.0021007626633939413
          -0.003261814698328421 -0.003354033456499942 -0.0034462522146714632 -0.005340842327751992 -0.005400363669286653 -0.005459885010821315
          -0.00831146369254092 -0.008316765499318951 -0.008322067306096984 -0.012319540238232587 -0.012235702341444936 -0.012151864444657287
          -0.01717526012608796 -0.016999749562832636 -0.01682423899957732 -0.02005667904410062 -0.0198871014655176 -0.019717523886934575
          -0.0005891371613542392 -0.0006590271916564924 -0.0007289172219587456 -0.0009264888397779535 -0.0010142149764391054 -0.0011019411131002576
          -0.00153424960317931 -0.001628520072423319 -0.0017227905416673283 -0.0025089400411834766 -0.0025885366213304287 -0.0026681332014773813
          -0.0039033441384330033 -0.0039544065849153555 -0.004005469031397708 -0.005809657920576841 -0.005828397278696831 -0.0058471366368168225
          -0.008335810366374758 -0.008320491794994984 -0.00830517322361521 -0.011506973086206964 -0.011442058592017978 -0.011377144097828988
          -0.01468465274069199 -0.014606644375855519 -0.014528636011019048 -0.01565676283932717 -0.015681855645458737 -0.015706948451590298
          -0.0009236194496575188 -0.000986513651161779 -0.0010494078526660394 -0.0014366796490815452 -0.0015040558243915067 -0.0015714319997014677
          -0.0022017621171159596 -0.0022583852503709366 -0.0023150083836259126 -0.0032625847327356237 -0.0032904948263051603 -0.003318404919874697
          -0.004615807103144191 -0.004612236571924822 -0.004608666040705453 -0.006271893143820933 -0.006249144420964586 -0.006226395698108239
          -0.008264353691115596 -0.008237106251707331 -0.008209858812299067 -0.01052582722102553 -0.010499806768245329 -0.010473786315465129
          -0.012206867990837002 -0.012245109966075349 -0.012283351941313699 -0.011881084164545802 -0.012094085847253976 -0.012307087529962148
          -0.001443070205025434 -0.0014581299910233895 -0.0014731897770213448 -0.0021462626370916016 -0.00214480482066966 -0.0021433470042477184
          -0.003052112096032192 -0.003023404891998543 -0.0029946976879648957 -0.004134704795957443 -0.0040799308951168034 -0.004025156994276164
          -0.005357928055380998 -0.005289276676758263 -0.005220625298135529 -0.006675035214330298 -0.006616492401462618 -0.00655794958859494
          -0.008048546479332359 -0.008028284261035107 -0.008008022042737855 -0.009355775929994967 -0.009398959255209375 -0.009442142580423784
          -0.009774223139803478 -0.009951555026419558 -0.010128886913035639 -0.008615112200888321 -0.008975998463998193 -0.009336884727108063
          -0.0021654487053268533 -0.002123993977639946 -0.002082539249953038 -0.0030360280143535046 -0.002966996332435056 -0.0028979646505166074
          -0.004030224563144813 -0.003929442519452741 -0.00382866047576067 -0.005065065007830051 -0.004948478005203665 -0.004831891002577278
          -0.006071517847522518 -0.00596207698873459 -0.005852636129946662 -0.006966250077923904 -0.006891627034782062 -0.006817003991640218
          -0.007656508955295905 -0.007648601782430771 -0.007640694609565639 -0.008006004713595331 -0.00809798272250814 -0.008189960731420946
          -0.0074297228896620035 -0.007672772495781243 -0.007915822101900482 -0.005854682979382401 -0.00622147819392882 -0.006588273408475237
          -0.004748256611396984 -0.0046528118176426 -0.004557367023888217 -0.005633279101101965 -0.005529604056748436 -0.005425929012394909
          -0.0063711778997827696 -0.006277431241137442 -0.006183684582492114 -0.006861224512643068 -0.006797848159296701 -0.006734471805950335
          -0.00699256271798195 -0.006980899613518337 -0.006969236509054726 -0.006639312412910567 -0.006704272687974961 -0.006769232963039357
          -0.0054890949645327765 -0.005655410543466279 -0.0058217261223997814 -0.003908666761270212 -0.004158901140790139 -0.004409135520310066
          -0.00001531605519228472 -0.00016515004762059858 -0.00018173461697034007 -0.00001210871658703273 0.000055618376449364237 -0.000014387870154705783
          -0.00030392861527137093 -0.000015017648775062246 0.0001265528080910132 0.000136374307311187 -0.00042612261357240173 -0.000017926580963091763
          0 0 0.000008694491325840103 0 0.000017388982651680207 0
          0 0 0 -0.000003732743640469426 -3.834488183582584e-7 0.0000014020549769071266
          -0.000007465487280938849 -7.668976367165168e-7 0.000002804109953814253 -0.04184304207119692 -0.03814907522245128 -0.045499019882150576
          -0.04632107493405113 -0.04127745229683347 -0.03772048852125201 -0.045108905230573884 -0.04581668232491987 -0.04071186252247001
          -0.03729190182005274 -0.04471879057899719 -0.0453122897157886 -0.011731911370571946 -0.006056234344166783 -0.002354195719453332
          -0.006271402064434552 -0.012473988161417324 -0.006836914774518319 -0.0032551951098840582 -0.007297060173510425 -0.013216064952262702
          -0.007617595204869851 -0.004156194500314785 -0.008322718282586298 -0.02483015129180091 -0.02441532209147927 -0.03051876275004527
          -0.029997334731553985 -0.024563856164204697 -0.024279708828149883 -0.03017808261539839 -0.029581680329727373 -0.024297561036608482
          -0.024144095564820497 -0.02983740248075151 -0.029166025927900754 -0.00863664588945134 -0.010260421052072628 -0.00621373955385982
          -0.004956233315277244 -0.009172191610959113 -0.010619248706703843 -0.0067615576903851116 -0.005633286362526398 -0.009707737332466883
          -0.010978076361335055 -0.0073093758269104055 -0.006310339409775552 -0.004380180227363741 -0.006534927108657001 -0.004786829866014858
          -0.007020710848056604 -0.005193479504665974 -0.007506494587456209 -0.034813604268287994 -0.031177227251433286 -0.03433390716527234
          -0.03091263809837076 -0.0338542100622567 -0.03064804894530823 -0.000001301560391075499 0 0
          -0.000058820702667980065 0.000015125970268500452 0.000007388938774014066 -0.000015523456237951888 0.000328413428231842 0.000031553500928076404
          0.000014777877548028135 -0.000031046912475903776 0.0007156475591316641 -0.041607953682670756 -0.04017807815836579 -0.04456675838060804
          -0.044014159549296134 -0.040946855907312424 -0.03947394406437876 -0.043916199810313326 -0.043390093279777685 -0.04028575813195409
          -0.03876980997039172 -0.043265641240018596 -0.04276602701025923 -0.03783437076517907 -0.0451801718842339 -0.03748614683771679
          -0.044929707911216116 -0.037137922910254514 -0.044679243938198346 -0.00028228334126333837 -0.00045528801954486744 -0.0001224808313684269
          -0.00004742100355736355 -0.00040058321474158013 -0.0005735613058257287 -0.00014401641126648453 -0.000058873707449646726 -0.000518883088219822
          -0.0006918345921065899 -0.00016555199116454215 -0.0000703264113419299 -0.05085408105494149 -0.061339516281658554 -0.058477311370100725
          -0.048226319880034146 -0.05089489652040825 -0.06128397370477005 -0.058268990351767566 -0.04803748427717961 -0.05093571198587501
          -0.06122843112788156 -0.0580606693334344 -0.047848648674325055 0 0 0
          0 -0.00009019384922140779 -0.000021271398295018254 0.000012485869888500028 -0.00003688601959241112 -0.00018038769844281558
          -0.000042542796590036494 0.000024971739777000063 -0.00007377203918482224 -0.013504281864712869 -0.012882889997847194 -0.013707970555269166
          -0.013198986622771547 -0.013911659245825459 -0.013515083247695906 -0.03597910509075318 -0.0354133535928122 -0.03484760209487121
          -0.000055492736350085293 -0.00031011802668827476 0.0003027662812266985 0.00016533476054117737 0.0006610252988034824 0.0006407875477706295
          -0.0007087326558087 -0.0018897105721247466 -0.0007700923181023141 -0.000737037576328824 -0.0024247889720677963 -0.0009668208773679568
          -0.0007653424968489482 -0.0029598673720108463 -0.0011635494366335993 -0.020369785087488892 -0.018264705077393813 -0.029311269527428956
          -0.030523920934263326 -0.020980024803706594 -0.01903373317166671 -0.02928084145887585 -0.03041050386467274 -0.02159026451992429
          -0.01980276126593961 -0.02925041339032274 -0.030297086795082143 -0.046557604230132096 -0.047806350717884444 -0.0491770616552371
          -0.04588249541567552 -0.047256570295664345 -0.04864477700698225 -0.045207386601218924 -0.04670678987344424 -0.04811249235872739
          -0.003948362991177604 -0.00941798848182685 -0.004407292245121866 -0.00983262193117208 -0.004866221499066127 -0.010247255380517309
          -0.0010722986115505476 -0.0032733640810220233 -0.001646322558942523 -0.0040663535465942 -0.0022203465063344984 -0.004859343012166378
          -0.005687581715343047 -0.0026892372500481932 -0.006335466716224546 -0.0033629238734009348 -0.006983351717106047 -0.004036610496753677
          -0.056246329675805104 -0.055076456705709154 -0.059572878004673493 -0.06208999976112727 -0.05582617837237225 -0.05466226500030384
          -0.05928476841868917 -0.06184098821569672 -0.055406027068939386 -0.05424807329489853 -0.05899665883270484 -0.061591976670266155
          -0.018266366291444604 -0.01883789331789437 -0.025539101262088026 -0.01837958899809323 -0.019103237353972177 -0.025501326478774494
          -0.018492811704741857 -0.019368581390049988 -0.025463551695460964 -0.0008426086429253287 -0.0005845353350041486 -0.0011988862608223784
          -0.0009108920850125651 -0.0015551638787194284 -0.0012372488350209817 -0.018263315299801908 -0.013381261791225577 -0.01825711816392448
          -0.013574084390420535 -0.018250921028047054 -0.013766906989615494 -0.010018607279980848 -0.013031466235700824 -0.010601708124055585
          -0.013868977786574603 -0.011184808968130323 -0.01470648933744838 -0.005124683702508552 -0.002320939824560738 -0.005917303332237358
          -0.0028780591305483834 -0.006709922961966166 -0.0034351784365360296 0 0 0
          -3.1829950771658616e-7 0 0 -6.365990154331723e-7 0 0
          -0.0020924938069808545 -0.0012141907217472297 -0.0026185623391479333 -0.002404575079107296 -0.0014637413337751225 -0.0030611694117685696
          -0.002716656351233738 -0.0017132919458030151 -0.003503776484389206 -0.0497661984531314 -0.051714210197028765 -0.0511660313980947
          -0.049237902831437044 -0.05126046226351451 -0.05078640408132293 -0.048709607209742684 -0.050806714330000266 -0.05040677676455116
          -0.05278286028703914 -0.05243964765267189 -0.05209643501830463 0 0 0
          0 0 0 0 0 0
          0 0 0 -0.04957740776337373 -0.051723000112971484 -0.04910020885289319
          -0.051451045712196684 -0.04862300994241265 -0.05117909131142189 0 0 0
          0 0 0 -0.06317410150016414 -0.05287781798812189 -0.06302355400747546
          -0.05260978398022037 -0.06287300651478676 -0.05234174997231884 -0.03941345013028515 -0.03776743281219151 -0.03906384965464123
          -0.037595044508914516 -0.038714249178997295 -0.03742265620563752 0 0 0
          -0.002841203117891165 -0.0031477313442641406 -0.0034542595706371156 -0.020245204748611512 -0.012945025120687148 -0.020393894041289412
          -0.013443797596277151 -0.02054258333396732 -0.013942570071867152 -0.003853060188470123 -0.004410290526091584 -0.004967520863713046
          -0.0002725408304030667 0.00010441713484092823 0.0004813751000849232 0 -3.1829950771658616e-7 -6.365990154331723e-7
          -0.0010177510277398312 -0.0013429690899642178 -0.0016681871521886042 -0.0000024078430682834007 -0.000003512968935245753 -0.000004618094802208105
          -0.000530128571774546 0.000037252228371308804 0.0006046330285171637 -0.03182206964704412 -0.031707923007998136 -0.031593776368952164
          -0.06560759726361967 -0.06553404917871038 -0.06546050109380108 -0.041540528889033985 -0.0409622251248213 -0.04038392136060861
          0 0 0 0 -0.00010661565925799332 -0.00021323131851598665
          -0.005538533795193146 -0.005485847677863381 -0.005433161560533617 -0.005203964471839112 -0.005186229423768244 -0.005168494375697377
          -0.006002866112245391 -0.0059525438203697194 -0.005902221528494048 -0.005407935669963051 -0.005388079174606653 -0.005368222679250257
          -0.006202751296720574 -0.0061639036651071726 -0.0061250560334937705 -0.006042746610347151 -0.0060235762003371975 -0.006004405790327243
          -0.005416225815983706 -0.005430595072982303 -0.0054449643299809 -0.004133923573203429 -0.00419639789659951 -0.004258872219995592
          -0.0024425850020558556 -0.0025630668012800576 -0.0026835486005042605 -0.002089690934969829 -0.0014878321812533523 -0.0023180616661329263
          -0.0016685271333707454 -0.002546432397296024 -0.0018492220854881385 -0.0007194717385388121 -0.0003426555614862922 -0.0002963221283611969
          -0.000827475756235103 -0.0007548950434592863 -0.0003539062228087654 -0.0003284293277910241 -0.0009230581171328142 -0.0007903183483797608
          -0.00036515688413123843 -0.0003605365272208513 -0.0010186404780305254 -0.00003591788718012169 -0.00003827702876365867 -0.000040636170347195654
          -0.0012381420014030808 -0.0013115362015887907 -0.0013849304017745005 -0.00011062605172719503 -0.00011137496871805259 -0.00011212388570891016
          -0.004841026630914037 -0.004882754602101469 -0.004828269774060772 -0.004870963804498118 -0.004815512917207505 -0.004859173006894768
          -0.005368507237661047 -0.00534853446684079 -0.005328561696020535 -0.004568916936778029 -0.004556515478728259 -0.00454411402067849
          -0.005015478213700958 -0.004997885726829167 -0.004980293239957374 -0.0042747651025151195 -0.004268517343835892 -0.004262269585156665
          -0.003086791938781787 -0.0031032175202321518 -0.0031196431016825175 -0.0018141751483493611 -0.0018443654177258456 -0.0018745556871023299
          -0.0008978226278377183 -0.0009211005216089564 -0.0009443784153801944 -0.00013598995386465847 -0.0003583513980976509 -0.0003464360289859236
          -0.00013977615400665485 -0.0003648108925869032 -0.00035299891364637604 -0.0001435623541486513 -0.0003712703870761554 -0.00035956179830682846
        </DataArray>
        <DataArray type="Float64" Name="disp_x" format="ascii" RangeMin="0" RangeMax="0.0000406461053084542">
          1.768071119540492e-7 0 1.800317234222202e-7 0 1.8906978098565066e-7 0
          1.7873814380680406e-7 0 1.834061915260415e-7 0 1.9711337619174233e-7 0
          1.9705448785326534e-7 0 2.0523273551849813e-7 0 2.3096924259731603e-7 0
          2.6235870490557233e-7 0 2.7425680156605974e-7 0 3.139553451557543e-7 0
          4.2877124539493675e-7 0 4.432636055786355e-7 0 4.892366206779802e-7 0
          7.483393047943143e-7 0 7.595488309640408e-7 0 7.945316183877302e-7 0
          0.0000012670819105614195 0 0.0000012664432546431308 0 0.0000012666913448406188 0
          0.0000020333554402225783 0 0.0000020093584898698857 0 0.0000019450317823679154 0
          0.0000031424259020258285 0 0.0000030868971995651808 0 0.000002909150388694248 0
          0.000005246949671195387 0 0.000005127524645896017 0 0.000004723868141764028 0
          3.5801933736279994e-7 3.646359326418768e-7 3.845172500583161e-7 3.5974190825863664e-7 3.72210810510707e-7 4.0607301712983725e-7
          4.0769012831670976e-7 4.2488199161598565e-7 4.789680882860613e-7 5.492504465510188e-7 5.735911297261651e-7 6.529504490973752e-7
          8.895578301028315e-7 9.178118836678793e-7 0.0000010074029442906591 0.0000015297925068443691 0.0000015507504773727994 0.0000016167226791244024
          0.000002559672975881134 0.000002557279881187861 0.0000025548059452858312 0.000004072692530504619 0.000004027389163126793 0.000003902538752688484
          0.0000062601043548952 0.000006150827904452005 0.000005815792463239168 0.000010241377247756551 0.000010013683943337165 0.000009264705727854786
          5.47550725114929e-7 5.595419807307158e-7 5.95689474331828e-7 5.564909551135131e-7 5.761631349853653e-7 6.343738733833207e-7
          6.480379554827069e-7 6.754687600009224e-7 7.612623586923034e-7 8.850518851825887e-7 9.222617935252774e-7 0.0000010415728808460919
          0.0000014136296614487731 0.0000014540977277560958 0.0000015815943865964183 0.0000023750662580598333 0.0000024031087165872574 0.000002492204701662486
          0.000003900582435215521 0.000003894789639961513 0.000003884830517892806 0.000006125019783546903 0.000006061174382802101 0.000005881729889959942
          0.000009303868220286974 0.000009149709333467521 0.000008690725230108238 0.000014759220997823483 0.000014452839306608697 0.000013463354595266324
          7.525055945433842e-7 7.72561085127357e-7 8.319444544415184e-7 7.808320022331677e-7 8.100058251508307e-7 9.002975162413972e-7
          9.358872417022568e-7 9.759099310132757e-7 0.0000010973467727072872 0.0000012952692401666543 0.0000013449769791677598 0.0000015023122195889526
          0.000002030070738795207 0.0000020800201577931576 0.00000223624388952806 0.0000033102269335896174 0.0000033417436230359613 0.000003443231097520891
          0.000005307374031123891 0.000005296338790230479 0.0000052731572881522515 0.000008185682609511454 0.000008106033541368967 0.000007879928758572056
          0.000012229761996100139 0.000012045119783025476 0.0000115001568230625 0.00001861665515394972 0.0000182734579307607 0.000017182248383995527
          9.82515984422606e-7 0.0000010142950923851539 0.0000011068679040064724 0.000001050989186197848 0.0000010926790870280575 0.0000012198223361330152
          0.0000012913077231749775 0.0000013428854228786924 0.000001508745393190888 0.000001806658162324539 0.0000018672821571154032 0.000002054351955105593
          0.000002763813098301259 0.0000028186936478685227 0.000002991328909369588 0.000004355306609313353 0.000004386209969630653 0.000004487456303006491
          0.000006786194179195391 0.000006768147084369451 0.000006726389626321805 0.000010240591737745368 0.000010149967237834516 0.000009887214116974605
          0.000014982035894391251 0.000014779167021199853 0.000014188490803333903 0.00002187280703800232 0.000021531028934659713 0.000020450556829747336
          0.000001256699185712231 0.0000012999490389063494 0.0000014268423343287757 0.0000013908119717375546 0.0000014455980876513685 0.0000016148460423210224
          0.0000017424055437876614 0.0000018079193377281591 0.0000020112217154755404 0.0000024450550212804593 0.0000025094613322305444 0.0000027132475879769984
          0.0000036338298588026327 0.000003688039104698119 0.000003861034448777974 0.000005521154883574416 0.000005547112461559447 0.000005635210875358431
          0.000008332529449623875 0.000008307215348905265 0.000008243608122031256 0.000012261073532144873 0.000012165031869451307 0.000011878578563879626
          0.00001751667741410675 0.000017312519649398733 0.00001671556274588426 0.000024551468280464887 0.00002423961121148698 0.000023255577596114295
          0.0000015989653471073826 0.0000016430583125032908 0.0000018030575953911295 0.0000018396834292588525 0.00000190583226691861 0.000002085064291466128
          0.000002331692557648234 0.0000023962687786871503 0.0000026133924079092004 0.0000032306077844293435 0.0000032902154294162733 0.0000034889508372950854
          0.00000465212939889361 0.000004698198999088135 0.000004852394224950487 0.000006808196041499713 0.000006825747288487179 0.0000068892018146079385
          0.000009929745454301848 0.000009899549368851852 0.000009815422340104736 0.000014209956940876968 0.000014116789262662984 0.000013825440324152518
          0.00001978421058429156 0.000019600524131436757 0.000019040107726894602 0.000026694962992789296 0.000026444560295545396 0.000025626050029817845
          0.000002045221318530168 0.0000020803809990160994 0.000002241774062996819 0.0000024203001772180725 0.0000024817698873914337 0.0000026438127561804495
          0.000003087235774843325 0.000003132545999546229 0.0000033217155326091483 0.000004179694025219051 0.000004223652664649191 0.00000438594490352862
          0.000005821309272622465 0.000005851991563610931 0.000005966078008297513 0.000008205747197602309 0.000008213296975897559 0.000008244124484455756
          0.000011552417710543986 0.000011522769294208274 0.000011427268379449341 0.00001603989172613635 0.000015963104721561405 0.000015696763876974367
          0.000021743931647179787 0.0000216030115059712 0.000021132798387296935 0.000028391712023514557 0.00002822136339954275 0.000027619670033455295
          0.000004007243226731775 0.000004044448985669482 0.000004165139654710826 0.000005290200523423775 0.000005322582238291092 0.0000054249855957673865
          0.000007127408026754669 0.000007147610269186537 0.000007210231261105214 0.000009690217665537972 0.000009690867916124995 0.000009690316789955098
          0.000013173137609999246 0.000013144043159550566 0.000013051344829028578 0.000017724696444362997 0.00001765861598484812 0.00001744475815747765
          0.00002337727521320384 0.000023264937718757156 0.000022919527582283313 0.00002971700951645993 0.00002959108102808694 0.000029196870882407885
          0.000038426900908667364 0.00003766809003076263 0.000037657596440485775 0.00003841993406221652 0.00003843512759820188 0.00003766103369747355
          0.00003766118441101416 0.000038421836720372144 0.000038401842646975946 0.00003774244159242481 0.000037654604021186484 0.000038420215864164286
          0.00003914207160974069 0.00003918783881835237 0.00003913610857750573 0.000039187308791084875 0.00003916394957270077 0.00003919672305274097
          0.00003909227525178108 0.00003964760930226066 0.00003966348867253137 0.00003907615983114352 0.00003964090041091726 0.00003964757560344544
          0.0000391117801899999 0.000039658950934004255 0.00003968803462981272 0.000010162629508862842 0.000015263919909819332 0.000012161985677674687
          0.000008761139720251085 0.000009784265708784038 0.00001476897699860352 0.000011705735280714135 0.000008401110063707956 0.000008669469190434952
          0.000013191918980364685 0.000010275888427189078 0.000007359434985446988 0.00003370934641491686 0.00003451985781401454 0.000036087183730206866
          0.00003545616163565212 0.00003345744692591161 0.00003431986524830683 0.000036138580131042094 0.00003539180593444671 0.00003222496329032248
          0.00003331025811860822 0.00003623323266800251 0.00003511844670264178 0.000019376767565676646 0.000021298249694586335 0.000017821077655201033
          0.000015908361728385175 0.000018972887223984002 0.000020806099763881262 0.000017335765676517902 0.000015536286097952842 0.000017658117069121222
          0.000019269992522833433 0.00001582909411898433 0.00001431709648862601 0.000030137320900517272 0.000028116538269033803 0.00003049788548509303
          0.00003239272036869096 0.000029821762955163997 0.000027765494698716225 0.000030252840305741088 0.00003219359551594998 0.000028745507107523074
          0.000026676135733115865 0.000029457910652920635 0.000031406398283076736 0.000030387493547511012 0.00002895727664131006 0.000030225003832938994
          0.000028734991884433356 0.000029683065228465963 0.00002798426911225356 0.000015076226642399864 0.000019398707318984107 0.000014626496599000257
          0.00001887316943382478 0.000013210207032379358 0.000017182374405666978 0.0000387242782260716 0.000039290910751388895 0.00003942163253111234
          0.000038670678302602245 0.00003872208946125105 0.00003927902320269235 0.000039401609747884865 0.0000386659115934327 0.00003864752022676986
          0.00003922772254935718 0.0000393307131300231 0.00003861039116503557 0.000002953182151137425 0.000006503209225132437 0.000004918318224034118
          0 0.000002895020226819065 0.000006334200882136349 0.000004731647851611724 0 0.000002625108134414007
          0.000005727382695727175 0.000004176891493702142 0 0.000017954154437357266 0.00001573658349723142 0.00001738038386603594
          0.00001520506714449937 0.00001546618002066937 0.000013294278558597018 0.00003745909251327192 0.000037026041315077 0.00003812504404152769
          0.00003844767542203361 0.000037463118449304784 0.000037021329428809945 0.000038124832169594386 0.00003844732672624464 0.00003742900644085887
          0.00003698467388877695 0.000038120956046157525 0.00003844519465434927 0.000022755186179849212 0.000012093990384639532 0.000011654643834955834
          0.000019701094098432744 0.00002252864994741676 0.000011921293977363423 0.000011411223658523916 0.000019235305419030796 0.00002039753743969916
          0.000010482291260784153 0.00000978590659142496 0.000016657663320116014 0.00004018279425699113 0.00003981652411434382 0.000039731928429262184
          0.00004015294806857163 0.00004013422466717302 0.00003977923272551515 0.00003970288098353243 0.000040131727593103604 0.000040254133480393017
          0.00003981397374791108 0.00003977944857190214 0.00004007939861653081 0.000026602067435438747 0.000027601079497161392 0.00002621384414771083
          0.000027206178276544477 0.000024956989025151388 0.000025881264690306824 0.000011666921658497761 0.000011331922047045193 0.000010266457669339289
          0.00003805928666889939 0.00003734549658140041 0.000038062238260664205 0.000037358798260617625 0.00003795185654085616 0.000037634619446610616
          0.00003676352618592972 0.000036019895847571264 0.00003684010456257481 0.000036800454223812446 0.00003584688504292811 0.00003679193646158573
          0.000037206154172542757 0.00003533991548344185 0.00003657253079543581 0.000027839003103651785 0.00003030997142179267 0.00002755884370701166
          0.00002300693500630155 0.000027241346308873375 0.00002974020177327413 0.00002689365015980732 0.00002231064659474177 0.000025409316024810105
          0.000027949274509003947 0.00002456033901635815 0.000020097063702266258 0 0.000004721341803806478 0
          0 0.000004519997533614714 0 0 0.000003963560921777643 0
          0.00003198627271273958 0.000027497036545643208 0.0000318286257919656 0.00002718624522353145 0.00003129455490472749 0.00002623366379931655
          0.00003691106899663947 0.000037016021918129 0.00003691890857004451 0.00003686283178942811 0.00003681432907864387 0.00003633067294579455
          0.00003376630330838728 0.000035331493687551896 0.00003352926370164935 0.00003519093732005419 0.00003256049293957105 0.0000346776981319851
          0 0.000004748427710073894 0.00000577227449582048 0 0 0.0000045551858746842275
          0.000005587329959506587 0 0 0.000003852612363074488 0.00000464540805069867 0
          0.00002485340169413372 0.0000266474243864055 0.000023070506787908823 0.00002439240929271646 0.000026169436375818814 0.000022534440696645844
          0.000022915157913569424 0.000024556606793452873 0.000020826930181933716 0.000036604432685279604 0.00003700664628670025 0.00003657854056587598
          0.000036991628757877414 0.00003641252754639982 0.000036865004739884856 0.000023152154454858464 0.000025337071906014944 0.00002274356299076765
          0.00002497674319326519 0.00002143194502381983 0.000023840300556368024 0.000031137105388536104 0.00003149544239815155 0.000030782339550455106
          0.00003103298160698671 0.000029501838491773817 0.000029526947319180082 0.000033087518022125016 0.00003469365354958774 0.00003285500952097449
          0.00003458094013999896 0.00003197567630235736 0.000034154511865826314 0.00004010026234565923 0.00003968708512682037 0.000040077713918530605
          0.000040084038486626325 0.000039681808015279816 0.000040067109944406655 0.000040084288028219627 0.00003969859111559605 0.00004007420449406515
          0.00003402717827448638 0.0000358229024292772 0.00003382383303538049 0.00003394292216064544 0.00003578656293770259 0.00003370155635937577
          0.00003367309233401609 0.000035662580955971974 0.000033261966074080215 0.0000042278786369355324 0.000003414042757535084 0
          0.000004055596695711679 0.000003272531110775989 0 0.0000034712238434705366 0.0000027747485410259744 0
          0 0 0 0.000040048739502037466 0.000039656429189883775 0.00003951283161581181
          0.00004003964534732877 0.00004004425542632475 0.000039654971373206064 0.00003951262187945442 0.000040037018449638 0.00004005368925900938
          0.00003966742784311561 0.0000395240500831073 0.00004004764192658042 0.000007945790898392589 0.00000918909684474868 0.0000076270324569775234
          0.000008847880697947387 0.00000656884204011105 0.000007644472907960675 0.000039690692085208324 0.00004006035004210095 0.00003968784936307737
          0.000040053453068184184 0.00003970111872872162 0.00004006283191150592 0.000006286876274396814 0.000012372834995489485 0.000006154062559676767
          0.000011978364039367307 0.000005235364051216022 0.000010090654489312735 0.000021979791472731847 0.000025985812781747982 0.00002132306418766681
          0.000025555536014371606 0.000018761692878807398 0.00002313336215156417 0.000039177993085248985 0.00003917815894875793 0.0000391875466443336
          0.00003193570936387937 0.00003179987852499759 0.0000314306007060594 0.00003287066463905487 0.0000351231031830666 0.00003257708817926213
          0.00003502696211164654 0.00003063273109922041 0.00003441238367166231 0.00003265602419163288 0.00003250516572379834 0.00003188805840241206
          0.000037571105053254585 0.000037572470211226244 0.00003763339792488718 0.00004012687928968384 0.000040105946255649245 0.00004008541163905654
          0.000036082885757923704 0.000036043391277293606 0.00003585869514145225 0.00003911313119899384 0.000039115373124954254 0.000039123255544270326
          0.000037737370833816774 0.00003788578518577722 0.00003805244978744319 0.00003201850928308193 0.000031833037011825664 0.000029569533363164965
          0 0 0 0 0 0
          0.000040035286441519354 0.00004003484729546998 0.000040046761758313806 0.00004019827893960347 0.00004012791347225444 0.00004030156678632404
          0.000010202473954174653 0.000010203159677816273 0.00001017922458576739 0.00001536235500888366 0.000015347668133679046 0.000015318157619084995
          0.000012686736036768913 0.00001267968713031652 0.00001263759317824081 0.00001831116276981518 0.000018291391630527736 0.00001824375047766302
          0.000015757744585497224 0.000015741270748318202 0.000015680210492023773 0.000019486546739961494 0.000019458734982127547 0.000019378701118174737
          0.000023887430484468185 0.000023847520017437382 0.000023750553871790423 0.000028781816015360424 0.000028733516255371698 0.000028633143499972154
          0.00003373527564444028 0.00003371216178700321 0.000033651865750049904 0.00003384165890793511 0.000035277985483504535 0.00003378081253923977
          0.000035263347717775394 0.00003362497437887345 0.00003517312111690163 0.000037378759416590255 0.00003845891511590427 0.000038015413515179144
          0.00003672723078744517 0.000037376645729035654 0.000038460843490231195 0.00003801660171088781 0.00003671790961205487 0.00003736686932717304
          0.00003846760134840474 0.000038022199347233344 0.00003669241538788826 0.000039052817124164994 0.000039055482651292025 0.00003906758236348308
          0.00003604947171453289 0.000036044840946027375 0.00003600837225927201 0.000040233904651133693 0.000040236060324717985 0.000040245225985642815
          0.000023778214248226506 0.00002059712760314938 0.00002376273714909492 0.000020587658005578574 0.000023717135725572495 0.000020559658935635254
          0.00002166174436197462 0.000021638043028017244 0.000021574223541789514 0.00002713532022670299 0.000027114661880732488 0.000027053065506142035
          0.00002537065635004729 0.000025345791816626666 0.00002526980341706926 0.000029306974908102184 0.000029282669413901517 0.000029202117165151637
          0.00003320140813057863 0.00003318736841534805 0.00003311644905169792 0.000036350326720099674 0.00003634595013572266 0.00003631902454201872
          0.0000376485660869408 0.000037643861459603446 0.000037636973806942504 0.000040637783794550494 0.0000389987308810798 0.00003974549137029115
          0.00004064032705489092 0.00003899895176411913 0.00003974767455000308 0.0000406461053084542 0.00003899781897748676 0.00003975481273021093
        </DataArray>
        <DataArray type="Float64" Name="disp_y" format="ascii" RangeMin="-0.000029303740957890995" RangeMax="-0.000003872796943942125">
          -0.000003876981408310621 -0.000003875492920549423 -0.0000038752467299211926 -0.0000038741097607870034 -0.000003873144235545153 -0.000003872796943942125
          -0.000004127154047458002 -0.000004121226553922539 -0.000004121721980213906 -0.000004116422714149536 -0.000004109241351167503 -0.000004105403668973988
          -0.000004377645678926917 -0.00000436638965281888 -0.00000436621527758115 -0.0000043548845447794535 -0.000004335190100355086 -0.000004325069537881278
          -0.000004661370006031767 -0.000004636277586954958 -0.000004638981413241179 -0.0000046140379363404765 -0.000004571061245778373 -0.000004547352513029715
          -0.00000504098839802357 -0.000004996374547776615 -0.00000500066718299012 -0.000004955816125498155 -0.000004869739569408948 -0.0000048246169362139546
          -0.000005607629508341126 -0.000005538138864585933 -0.0000055415405527857534 -0.00000547133004058373 -0.000005323993840950018 -0.000005251198202105212
          -0.000006462086105365433 -0.000006362455846895074 -0.000006365054636159904 -0.0000062647118474206025 -0.00000604617551266789 -0.00000594117050913362
          -0.000007717771601058155 -0.000007579545166876558 -0.000007585033233127537 -0.000007445184293521395 -0.000007149620115089953 -0.000007003557317186038
          -0.000009494279059763698 -0.000009294258166363117 -0.00000931267063908661 -0.000009101099129765887 -0.000008700443658734743 -0.00000846168216422769
          -0.000011835599632911942 -0.000011487694922180621 -0.000011585866252513192 -0.000011223556382498978 -0.000010640937817540591 -0.000010190956802007287
          -0.0000038818417618760125 -0.000003879151702297993 -0.000003874799441999047 -0.000004144617748254054 -0.000004138438265229833 -0.000004122955362311946
          -0.000004415137296619928 -0.000004403382990982924 -0.000004368509163088439 -0.000004739111460746457 -0.000004716469743308824 -0.000004645704045563606
          -0.000005177352604658831 -0.000005137864794565318 -0.000005008427853351702 -0.000005817754340512588 -0.000005753802332710396 -0.000005543867789962029
          -0.000006761969243736685 -0.000006667899438719537 -0.000006362864856468584 -0.000008132431353690662 -0.000008004997808554165 -0.0000075913268334843985
          -0.000010090715028894616 -0.00000993030750446395 -0.000009380716050056812 -0.000012818757371184436 -0.000012595114308664971 -0.000011813453763667696
          -0.000003891503623101664 -0.000003887608642130604 -0.000003879357408384536 -0.000004176683047428441 -0.000004169541568070598 -0.0000041495003422209
          -0.000004486278838485797 -0.000004473551603369501 -0.000004432356505994848 -0.000004876683642875005 -0.000004854126544058581 -0.000004779515866096419
          -0.000005411961884033768 -0.000005373624328893736 -0.000005246990094795012 -0.000006171733573780153 -0.000006111336452243563 -0.000005913700906996606
          -0.000007259514242667193 -0.0000071706855776864816 -0.000006888876449670734 -0.000008822605773764827 -0.000008705296735290553 -0.000008327182411512236
          -0.000011016477934792629 -0.000010881949545373014 -0.00001041448900460244 -0.000013876390098486793 -0.000013728902266483408 -0.000013214238284097942
          -0.000003909371932719666 -0.000003903967718562373 -0.0000038900608474865884 -0.0000042303993090744806 -0.000004222235075735077 -0.000004195378517315143
          -0.000004600014812820101 -0.000004586289680370217 -0.000004537816950232025 -0.000005084868803277984 -0.000005062409150912123 -0.000004984119533041564
          -0.000005752905700516731 -0.000005716350451635967 -0.000005594084708462515 -0.000006673380380248188 -0.000006617668648419913 -0.000006437091574443439
          -0.000007951731910835137 -0.000007871046259174517 -0.00000762051298870822 -0.00000974591034520743 -0.00000964109558886008 -0.000009311117100376719
          -0.000012189743920416362 -0.000012088044669529354 -0.000011722226326914742 -0.00001523325633916245 -0.000015157950915622224 -0.000014902131418270149
          -0.000003941409193088671 -0.000003934292441637338 -0.000003912145723409647 -0.000004314821548212204 -0.000004304791145244142 -0.00000426945366385608
          -0.000004766555643906237 -0.000004751798940749925 -0.00000469783358057047 -0.000005374632808379182 -0.000005352766883194846 -0.0000052720108834256886
          -0.0000062063654380557955 -0.000006171737865078923 -0.0000060566721192247205 -0.0000073226756332779964 -0.000007272523241324475 -0.000007113156603560341
          -0.000008824444734310675 -0.000008753860695109973 -0.00000854049313102751 -0.000010854202174678801 -0.00001076700641497954 -0.000010498230952774681
          -0.000013514094756715786 -0.000013444973331773922 -0.000013187651537246524 -0.00001676942347954408 -0.000016728490002039222 -0.000016639275942961665
          -0.000003996544291918524 -0.000003988321553790975 -0.0000039579950775895145 -0.000004439033445976306 -0.000004427295857198085 -0.000004384828237148293
          -0.00000499901731622143 -0.000004984503220455576 -0.000004924997531184726 -0.000005756515803989411 -0.000005733945737861525 -0.000005652631614532587
          -0.000006774356800923211 -0.000006741909478646693 -0.0000066366945125252755 -0.000008111963575666749 -0.000008067748572675264 -0.000007932546540289032
          -0.000009851104605901462 -0.000009792420056539428 -0.000009621050726435229 -0.000012101351759622181 -0.000012034482161026453 -0.00001183325421246837
          -0.000014920242929874084 -0.000014875929570497853 -0.000014716613512485343 -0.00001816954269188059 -0.000018176718080758748 -0.00001822542166815872
          -0.0000040936267506701444 -0.000004077201476486909 -0.000004038824548258548 -0.000004618419885133127 -0.000004604586652892872 -0.00000455197669480109
          -0.000005309443153240601 -0.000005293563103515466 -0.000005226677378065566 -0.0000062346275385431024 -0.000006210517543456798 -0.0000061309129398886405
          -0.000007451938874637861 -0.000007421740450732917 -0.000007328336076300878 -0.000009022217444858154 -0.000008984480496072368 -0.00000887528515282104
          -0.000010998060671865358 -0.000010952694756257397 -0.000010825868242640331 -0.000013432277946013564 -0.000013386910641455005 -0.000013254039285345488
          -0.000016332317327499552 -0.00001631335358369699 -0.000016243813520295227 -0.00001951743630482546 -0.000019543863259997166 -0.00001966574938289743
          -0.000004226492531286481 -0.00000421867885398248 -0.000004165022723109185 -0.000004858248132870762 -0.000004844158306202335 -0.000004787477446992899
          -0.000005709957790938407 -0.000005684118747617947 -0.000005612399297111341 -0.000006805155035826941 -0.0000067806908060555815 -0.000006702834608433795
          -0.000008225716406098795 -0.000008198554304445558 -0.000008117946292880776 -0.000010020760205259607 -0.000009992490291284243 -0.000009910873844936366
          -0.000012217865160703861 -0.000012190588753396059 -0.000012110518074011819 -0.000014797649389353911 -0.00001477903494222238 -0.000014715214540013864
          -0.000017697739817702566 -0.000017700982875711795 -0.00001770660885099577 -0.00002083357720161817 -0.000020862380945884715 -0.000021024280188474592
          -0.000006188488892209228 -0.00000616179022196748 -0.000006086051837580514 -0.00000745920805118148 -0.000007433269849756787 -0.000007361211936899557
          -0.00000907320466507982 -0.00000904801154911149 -0.000008984419014736412 -0.000011071252658171306 -0.000011048254771817328 -0.000010999630717867339
          -0.000013456709141835454 -0.000013439002762876018 -0.000013411871981466527 -0.00001616486136176223 -0.000016160076329773195 -0.00001617206768529078
          -0.000019028840842566318 -0.00001904059839232445 -0.00001912091353389254 -0.000021846230012869988 -0.000021896129893545987 -0.000022039021373329342
          -0.00002208066657646839 -0.00002209255059260649 -0.000022704309060106186 -0.000022868014858800658 -0.000022152611865294112 -0.000022164827671714094
          -0.000022768021741136038 -0.000022926030419602154 -0.00002233756412756878 -0.000022395746377354024 -0.000022975736795354884 -0.000023060593438733154
          -0.000022344712616513462 -0.000022958270392877006 -0.000022412702350711717 -0.00002300770693978527 -0.000022535053960655734 -0.00002312309071577029
          -0.00002168758986534357 -0.000022366248157441633 -0.000021848541531740374 -0.00002176271041297226 -0.0000224309195802649 -0.000021926217917730515
          -0.000022027206442951703 -0.000022553784502079654 -0.00002212158499064123 -0.000014135379548189052 -0.000015190134858413052 -0.000015493221431674065
          -0.000015035933407220281 -0.000013781347046637068 -0.000014921701930820175 -0.000015096050530284686 -0.000014583079456395452 -0.000012453270280437824
          -0.000013790391528869649 -0.000013510799508347232 -0.00001289665626784999 -0.000019237678496431903 -0.000020100624736734337 -0.000020061069410400394
          -0.00001927454629502411 -0.000019305644547100516 -0.00002040729637311704 -0.000020280082883984905 -0.00001936823793440088 -0.00001979972613686569
          -0.000021083255672571342 -0.00002066688685686282 -0.00002011717897849911 -0.000015382441860750906 -0.000016169218355358067 -0.000015115692861377045
          -0.000014500723624526409 -0.000015293848233362822 -0.000016111414656035953 -0.00001498272735021986 -0.000014342605135222607 -0.000014952975130473652
          -0.00001580418233352474 -0.00001443333644577042 -0.000013741962352684964 -0.000020092823714392065 -0.000019450451818622638 -0.000020838694061666155
          -0.000021246299923773533 -0.000020163933700549623 -0.000019483702585100395 -0.00002088567107818927 -0.0000213255535580208 -0.000020454576566879073
          -0.00001968102600869276 -0.00002114139760791109 -0.00002166518696236659 -0.000021767769608067904 -0.00002054111975770053 -0.00002181531808409971
          -0.000020575227035979178 -0.000022042694265028188 -0.000020771308947196407 -0.000014599261390170161 -0.000015616554923034737 -0.000014374347950580071
          -0.000015495446341623153 -0.000013502756705029293 -0.000014993338851984348 -0.000021048820185498557 -0.000021089050074412252 -0.000020421585896831322
          -0.00002014680828816541 -0.00002116353308745922 -0.000021181077902762772 -0.000020535269800707596 -0.000020254359262039785 -0.000021391664805274852
          -0.00002146585414037388 -0.00002089477304499441 -0.00002087422164180726 -0.000012132956268699144 -0.000012674338226705347 -0.000013373119787827068
          -0.000012570660487182642 -0.00001185305524924254 -0.000012380670621123835 -0.000013019179048645927 -0.00001223901585299207 -0.000010736198918806686
          -0.000011258177871286628 -0.000011618418675163172 -0.000010924171953133831 -0.000016282758017670223 -0.00001678168956269634 -0.00001602580685751138
          -0.000016356089540382755 -0.000014920170922771136 -0.000014651577191623279 -0.000023358780318008308 -0.0000242345196063726 -0.000024365731278616886
          -0.00002368166774976374 -0.00002341414917820422 -0.00002427570792638288 -0.00002440240969666876 -0.00002372412216125372 -0.000023591310940677484
          -0.00002440228304447403 -0.00002449481939560527 -0.00002383327127208473 -0.000023789740876276475 -0.00002549026822739104 -0.000023020834047990286
          -0.000020686499876005983 -0.000023033105378079016 -0.000024493103760054535 -0.0000221063956323294 -0.000020113564210823802 -0.0000203366459155156
          -0.000020088051711028612 -0.000018376169392710462 -0.000018049116369178423 -0.000021020431729196662 -0.000020960625642032545 -0.000021328417852685625
          -0.000021518623745356593 -0.000021113222471813916 -0.000021054932280784264 -0.000021404038938414684 -0.000021597555121029056 -0.00002137657798887891
          -0.00002142164066246363 -0.000021737569505518772 -0.00002186640684492235 -0.000018367683465512642 -0.00001864810671189019 -0.000018387883011939794
          -0.000018698643695473354 -0.000018501323746360715 -0.000018895215676691738 -0.000013542227329236744 -0.000013269547829387351 -0.000012310999122024893
          -0.000021272180508767434 -0.000021472743316666154 -0.000021386756810781665 -0.00002154277283470783 -0.000021653145252072947 -0.000021671704190630263
          -0.000020886245193017616 -0.000021075235022553052 -0.00002186606485095853 -0.000020833434477830773 -0.000021161218473640095 -0.00002191319880025171
          -0.000021074203334030692 -0.00002179196115455644 -0.000022321362521458028 -0.00001808007943845558 -0.00001859852734315384 -0.00001731968543133623
          -0.000016635172940338017 -0.000018220189635797566 -0.00001869333299807792 -0.000017321297775342486 -0.000016566611985364878 -0.000018432929974348603
          -0.000019032236056298393 -0.000017643290668735135 -0.000016272199752966185 -0.000013733504379432733 -0.000014751527750090282 -0.00001499146108091849
          -0.000013306485939969532 -0.00001426725054482969 -0.000014457023831903189 -0.000011688961511342844 -0.000012487666878483409 -0.0000124994042182495
          -0.00002216288473377179 -0.000019518992632350098 -0.000022219957080655148 -0.000019552641835887215 -0.000022493893104387957 -0.000019717503056840316
          -0.00001994383421782776 -0.000019078385607043034 -0.00002011827563615889 -0.000019122864858698953 -0.000020702088161957734 -0.000020264957313293386
          -0.00002057868553581112 -0.000021755273806408957 -0.000020707221940281298 -0.00002180736590113187 -0.000021238184723365482 -0.00002225804627804603
          -0.000021238897805803293 -0.000019361275922333294 -0.000021489052492537732 -0.000023434888176083688 -0.00002019228735791342 -0.000018512759465526944
          -0.00002053948747774067 -0.000022245408732791585 -0.0000162389806392226 -0.000015417169437114396 -0.000016791843547694704 -0.00001750581460271361
          -0.000017611164300694487 -0.000017958303295401333 -0.000016731325980115544 -0.00001761728251493635 -0.000018028314195759495 -0.000016682508657497704
          -0.00001757982136920369 -0.00001810416698920027 -0.000016384012744186793 -0.000022789754711067826 -0.000022477036885117544 -0.00002285452826381723
          -0.000022538800751988324 -0.000023122982480791055 -0.000022823654474332257 -0.00001693519336362447 -0.00001822308093053536 -0.0000169001326315197
          -0.00001821008316152734 -0.000016806556300822754 -0.000018267851455094097 -0.000019946473831659603 -0.000019374071351913443 -0.00002005457568761927
          -0.00001953540108161846 -0.000020441460815528903 -0.000019954445901525727 -0.000021020218978296486 -0.00002240933163117561 -0.000021099948142737478
          -0.000022477600341441464 -0.000021507592244489642 -0.0000227985584473196 -0.000022457578089839855 -0.000022813825256049146 -0.000022897184837851057
          -0.000022516985318148235 -0.000022865239452072007 -0.000022944855135967556 -0.000022632371217461473 -0.000022970772658442722 -0.000023046155620162325
          -0.00002346243016668414 -0.000024017239549700538 -0.000022625935154591897 -0.000023514915345700423 -0.000024065708693054603 -0.000022689973837547273
          -0.0000237074449071431 -0.00002424498893140033 -0.000022983013058086967 -0.000015854679177202825 -0.000017519363366255558 -0.00001699784353955132
          -0.000015254036104031779 -0.000016792622643836695 -0.000016294051071917044 -0.000013133614090064396 -0.00001417755862756236 -0.000013726771348233623
          -0.00001907060873689175 -0.000018193813553239235 -0.000014969720573298143 -0.000023718788999413772 -0.000023567542648701507 -0.000023938470376066626
          -0.000024107234333741442 -0.00002375391874586672 -0.000023606236540894965 -0.000023973166065337316 -0.00002413772717297873 -0.000023837228910759413
          -0.000023695417048663683 -0.00002405513617442668 -0.000024210844771542615 -0.00001657351093563962 -0.000018218619924086935 -0.000015967804589036714
          -0.00001753232923632999 -0.000013836455385861877 -0.000015076169391732777 -0.00002321526079466626 -0.00002331615921541465 -0.000023258578056991813
          -0.000023356592608607292 -0.000023356696459210535 -0.00002344857965494384 -0.000023009992411864122 -0.000020100079803231278 -0.000021985383276032565
          -0.00001933917320622426 -0.000017793129083856723 -0.000016519466023501976 -0.000017677555616609992 -0.000019293926417625962 -0.000017373663721579638
          -0.000018991780410763483 -0.000016195405828266056 -0.00001845525792290881 -0.000023537349948078614 -0.000023578738541831214 -0.000023673071080738868
          -0.000022721793049980067 -0.000022785608970978394 -0.000022948990852942597 -0.000018012233874250037 -0.00001812530959595301 -0.000018158944054002447
          -0.000018256909076157816 -0.000019250469272373 -0.000020237201764762273 -0.00002173783467482553 -0.000021792263868572307 -0.000022081916285842727
          -0.00002043461589989758 -0.00002054157217765332 -0.0000212182806626694 -0.00002199779654424058 -0.00002206959364333103 -0.00002223190227413908
          -0.000023233564001229674 -0.00002329866617692783 -0.00002353901232175124 -0.000024444128272842538 -0.00002447524200632296 -0.000024546575903498933
          -0.00001961618541504179 -0.000019854065943130588 -0.000020768922230011096 -0.000020694609204232943 -0.00002039462482661971 -0.000020421638545212708
          -0.000025535073944875978 -0.000024239755587268703 -0.00001870062988049824 -0.000011885282175652177 -0.000011596970560705805 -0.000010464064314600983
          -0.000024479883490760908 -0.00002450703879769153 -0.00002456996668887902 -0.00002052108760435047 -0.000020628458071571383 -0.00002091321319806586
          -0.000010302421557546822 -0.000010287990690537327 -0.000010244175915542826 -0.000013403059227578947 -0.000013395037672950986 -0.000013371280021610652
          -0.000012469383869704661 -0.000012460599130572576 -0.000012432601958588314 -0.00001585563563264587 -0.000015853091879374604 -0.000015846036880931693
          -0.000014963691968553797 -0.000014962267878506024 -0.000014956022861863509 -0.000017707437642850516 -0.000017716184894210153 -0.000017739016222948238
          -0.000020534005813229936 -0.000020559668621114886 -0.000020625883877816522 -0.000023201938132145352 -0.00002323776177842 -0.00002336527287383303
          -0.00002546609530057815 -0.000025504746431114243 -0.000025653876669571884 -0.000024271741234339175 -0.00002492517735079148 -0.000024316902163815565
          -0.00002495945378089861 -0.00002447987581481562 -0.000025113656011008595 -0.000026459464797689742 -0.000026669676419382784 -0.00002542594888636667
          -0.000025272190324764752 -0.000026487554276648422 -0.000026690193370932006 -0.000025454242775506726 -0.000025307446321855684 -0.00002656044222685762
          -0.000026749240779930303 -0.000025534769632036405 -0.00002542916285763666 -0.00002551908973285817 -0.000025543074095382762 -0.000025603085825191767
          -0.00002617823709191343 -0.000026213742765923984 -0.000026311278051178015 -0.00002710403268289114 -0.000027120192320074638 -0.00002716432049977303
          -0.00001903990697864556 -0.00001653969891727832 -0.000019044263660375396 -0.00001653831139126421 -0.000019056428180385596 -0.000016533812808571123
          -0.000018513248081524016 -0.000018517882034467236 -0.000018532897484364744 -0.000021604378389673356 -0.000021615520160226702 -0.000021647781190716167
          -0.00002125049615056295 -0.00002126388835712129 -0.000021306702878839555 -0.00002386755544532518 -0.00002389404891215947 -0.00002397155348520688
          -0.000026097835741705483 -0.000026131861087693748 -0.00002624698074542109 -0.000027642625304423465 -0.000027672149906584655 -0.000027768861878741606
          -0.000027831013712799727 -0.00002785514637051131 -0.00002791940591939577 -0.00002882388812722576 -0.00002796490882552263 -0.000029247637674900737
          -0.00002883897186392686 -0.00002798127717262659 -0.000029261527655350945 -0.00002888532833775838 -0.00002803176351937175 -0.000029303740957890995
        </DataArray>
        <DataArray type="Float64" Name="disp_z" format="ascii" RangeMin="-0.00002141607923734647" RangeMax="3.9527522384045554e-7">
          0 0 -7.626133613892042e-8 -7.465377011666743e-8 -1.598371321309924e-7 -1.5640599421188284e-7
          0 0 -7.854404489591689e-8 -7.736136739483305e-8 -1.719473593512737e-7 -1.6641621004806753e-7
          0 0 -1.0397497790142364e-7 -9.827302940277374e-8 -2.3057862318642205e-7 -2.181260613208872e-7
          0 0 -1.7234144736262526e-7 -1.6203413376863474e-7 -3.8169031241080155e-7 -3.604669797534611e-7
          0 0 -3.4129425569259564e-7 -3.2806065932498367e-7 -7.339955909668374e-7 -7.084292335079829e-7
          0 0 -6.745359810388831e-7 -6.622303514317376e-7 -0.000001398624361307501 -0.0000013761999693238013
          0 0 -0.000001225615696276457 -0.0000012198863767679072 -0.000002474613710086533 -0.000002464723894580971
          0 0 -0.000002041225000880714 -0.0000020532329281058305 -0.000004058512789426577 -0.00000408154776256427
          0 0 -0.0000032465650526501895 -0.0000032873618409540404 -0.0000064040557244364525 -0.000006489852622812799
          0 0 -0.000005584696346565893 -0.00000583560815956484 -0.000010961314345649861 -0.00001143652151821317
          0 -8.104677331924377e-8 -1.7185978161593274e-7 0 -8.65704015708852e-8 -1.9011253216411848e-7
          0 -1.217357607946858e-7 -2.6877311418601067e-7 0 -2.028447106892982e-7 -4.4410784649638793e-7
          0 -3.80797724510949e-7 -8.095806506408396e-7 0 -7.107755767586643e-7 -0.000001464713555175212
          0 -0.0000012401335068868191 -0.0000024991428394492506 0 -0.000002011253307810127 -0.000004000235883244163
          0 -0.0000031017166960848396 -0.000006114243433805503 0 -0.000004997546367503262 -0.00000983029595650008
          0 -9.079118942963374e-8 -1.958977447958285e-7 0 -1.049039008529894e-7 -2.2935522705264546e-7
          0 -1.5375797540995104e-7 -3.37132150101739e-7 0 -2.545421043022622e-7 -5.480710478521701e-7
          0 -4.450250530538247e-7 -9.316180028102092e-7 0 -7.674708151694601e-7 -0.000001567999020960633
          0 -0.000001261378347156788 -0.000002534846287175035 0 -0.0000019534447793670847 -0.000003884454401035734
          0 -0.000002910300849785925 -0.000005746178187538398 0 -0.000004226565245423443 -0.000008331134543574785
          0 -1.0853318347220464e-7 -2.379271770271008e-7 0 -1.3632905042285846e-7 -2.9799258059288275e-7
          0 -2.0275524973158108e-7 -4.394471551366418e-7 0 -3.290095933645855e-7 -6.944341402064327e-7
          0 -5.311205800181108e-7 -0.0000010935679960108763 0 -8.392814414590059e-7 -0.0000016986880897913073
          0 -0.0000012826521833991375 -0.0000025692959623011343 0 -0.000001876320080921402 -0.0000037324727012475617
          0 -0.000002651416298461282 -0.000005237414038806009 0 -0.0000033852406501062697 -0.000006719701575178388
          0 -1.397622809131172e-7 -3.0568415759914395e-7 0 -1.8721971405251583e-7 -4.055459029544625e-7
          0 -2.7432706663283636e-7 -5.855390235859585e-7 0 -4.2616349512191305e-7 -8.796145055112236e-7
          0 -6.343758199342788e-7 -0.0000012858902725049522 0 -9.1895564154685e-7 -0.000001843691026726255
          0 -0.000001297197382041006 -0.000002590332213126857 0 -0.0000017782746905601667 -0.000003539749501018976
          0 -0.0000023388009979868773 -0.000004632146171654887 0 -0.0000026035727944285565 -0.000005229777249914895
          0 -1.8774746068729378e-7 -3.959885066718462e-7 0 -2.6884107063036444e-7 -5.650233501063107e-7
          0 -3.778934096638732e-7 -7.803717342959348e-7 0 -5.443049535725008e-7 -0.0000010992413016856825
          0 -7.488703231151308e-7 -0.0000014965768291312085 0 -9.980317400432865e-7 -0.0000019877095255930774
          0 -0.000001298398241903798 -0.00000258739585559982 0 -0.0000016486695227075505 -0.0000032880518167931015
          0 -0.000002006087680596378 -0.000004001791226077233 0 -0.0000019180048565620207 -0.0000039075947712088346
          0 -2.633565414527022e-7 -5.37427823739485e-7 0 -3.7955176445925796e-7 -7.613292418294357e-7
          0 -5.133569871545692e-7 -0.000001018533411604924 0 -6.813973432581105e-7 -0.0000013467726452189783
          0 -8.680551707378412e-7 -0.0000017131779392278223 0 -0.0000010680596823571953 -0.0000021156131785318684
          0 -0.0000012771950155170554 -0.0000025463704584885407 0 -0.0000014860344590057804 -0.0000029802436678291436
          0 -0.0000016427365007445841 -0.000003322387364180216 0 -0.0000013411508729056329 -0.000002823939839815852
          0 -3.908108678112301e-7 -7.537404958966125e-7 0 -5.069974289571383e-7 -9.94373278901874e-7
          0 -6.772240742270217e-7 -0.0000013020992396838792 0 -8.311754072212127e-7 -0.000001613824893643148
          0 -9.852296910641966e-7 -0.0000019262525662211855 0 -0.0000011213320403070062 -0.000002214243324973106
          0 -0.000001226109129194 -0.000002452738093734663 0 -0.0000012858006221592256 -0.0000026110606108430772
          0 -0.0000012498528409225806 -0.0000025969678472635948 0 -8.527368115292375e-7 -0.0000018764597952292767
          0 -8.333785156063323e-7 -0.00000164402756191451 0 -9.717459839614696e-7 -0.000001916460473104517
          0 -0.0000010835812273127911 -0.000002141197816545295 0 -0.000001148226119281256 -0.0000022771378080673456
          0 -0.0000011454849448472596 -0.0000022838908538560094 0 -0.0000010652088857859768 -0.00000213870534388587
          0 -8.721014912204881e-7 -0.0000017802680990851583 0 -5.093612572791723e-7 -0.0000010744782750063114
          0 0 0 0 -3.131824193988817e-8 -8.899654805290082e-8
          -8.726888563666159e-8 -3.704903515335404e-8 -8.700259509123502e-8 -1.800865344238132e-7 -1.9516469674951333e-7 -8.328070699034175e-8
          0 0 5.137958900759655e-9 -1.534930188259427e-10 2.805540944817405e-9 -1.3807892623229898e-8
          0 0 0 1.0058507954566519e-8 3.401911026675343e-8 4.8302371939491954e-8
          1.4448232279768288e-8 4.93643549842071e-8 5.3463818163300815e-8 0 0 0
          0 -0.000006271377577718558 -0.000005644540848003449 -0.000006878039342465337 -0.000006995039320670225 -0.000012375024294791074
          -0.000011203121947005966 -0.000013734827188097794 -0.000013889743330342846 0 0 0
          0 -0.0000015168473563424926 -8.99003866219364e-7 1.9786675724022203e-8 -0.0000010880957377224817 -0.000003271538419626767
          -0.0000017976035879760947 -6.502645508435109e-7 -0.0000023922778793682085 0 0 0
          0 -0.0000036955730310186914 -0.0000036265941152982006 -0.000004622187057821132 -0.000004619188768474925 -0.000007295387674316635
          -0.0000072267452231884505 -0.000009163355034228931 -0.000009136739100255347 0 0 0
          0 -0.000001246684007066322 -0.0000014977935819596991 -9.509265420988964e-7 -7.592831113333365e-7 -0.0000025846208327951517
          -0.0000030601641680112143 -0.0000021428944430927494 -0.000001804813623113829 0 0 -6.502557292016052e-7
          -0.0000010276747320555719 -0.0000013698074600558071 -0.0000022409148961229276 0 0 -0.000005086696643594725
          -0.000004820371397278208 -0.000009962462865313559 -0.00000961073640877465 0 0 0
          0 -1.8074020134519972e-8 2.815637696396068e-8 2.705690033660671e-8 -4.8915283810868274e-9 -1.2099403761874786e-7
          6.867901650721197e-8 5.782816587611057e-8 -1.0984070856820596e-7 0 0 0
          0 -0.000006250460950406434 -0.000005968538485247184 -0.00000669109817044984 -0.000006720053804842713 -0.000012338237356854702
          -0.000011684183036910054 -0.000013208903601234841 -0.00001330549290695233 0 0 -0.000005583559627548998
          -0.000006878165936197687 -0.000010983464786887178 -0.000013867870130498183 0 0 0
          0 -8.963024954839486e-8 -1.0135706755479504e-7 -6.194536591732282e-8 -4.1729033392983454e-8 -2.0935057297578245e-7
          -2.2143588893476204e-7 -1.385899007635425e-7 -9.365311329383639e-8 0 0 0
          0 -0.000008297167614514472 -0.000009517904906311552 -0.000008412395260503974 -0.00000721485931872892 -0.000016988495701335933
          -0.000019248532742906704 -0.000016498097244136043 -0.000014482619247806471 0 0 0
          0 9.744375435751052e-8 4.983976402026456e-8 6.164320555467873e-8 9.735170583874477e-8 -2.9725253200096457e-8
          4.286257702487612e-8 1.0874489558938207e-7 1.775502848581402e-7 0 0 -0.0000020568749097896656
          -0.0000020294040201119843 -0.000004156085289496219 -0.000004206970423651427 0 -0.000005403455632854407 -0.000010694411145780234
          0 0 -5.5367822117785205e-8 -7.439236633622843e-8 -1.9169305926075223e-7 3.9527522384045554e-7
          0 0 0 -8.706008147133307e-8 -3.626473917832868e-7 -1.4941915175292959e-7
          -6.196487877734013e-8 -0.0000011041823852705268 -4.684054237041027e-7 0 0 0
          0 -0.000003202228751356993 -0.000002846836779539559 -0.0000044291409950597245 -0.0000045307483150017116 -0.00000659436630982548
          -0.000006353363394887065 -0.000008812243158036813 -0.000009025081548374049 0 0 0
          -0.000006887394566362856 -0.000007217417925697768 -0.000007310223089572471 -0.000013494507599318463 -0.000014374802822118536 -0.000014470098047019302
          0 0 -5.471015521848586e-7 -0.0000014567920650932696 -0.0000012543024637500796 -0.0000030597135542897237
          0 0 -1.4975066247013163e-7 -3.9064855195600983e-7 -6.537785586543989e-7 -0.0000012260441932706504
          0 0 -8.178054790712867e-7 -3.809997227160012e-7 -0.0000016656351173747037 -9.904937563896818e-7
          0 0 0 0 -0.000008199854650573267 -0.000008014512083928843
          -0.00000888149307040933 -0.000009300371894732497 -0.000016291553075460986 -0.00001593181097215427 -0.00001772229323680583 -0.000018572560857134394
          0 0 0 -0.000002804588294927148 -0.0000028725079035263484 -0.0000037673242289631655
          -0.000005659265971079747 -0.000005767393744721325 -0.000007581310968059113 0 0 -1.4351991050679873e-7
          -1.2868307228334095e-7 -4.094436673400678e-7 -3.643883198889411e-7 0 0 -0.000002758359489702373
          -0.0000020087112913289426 -0.00000552280233066623 -0.0000040677000066293635 0 0 -0.0000014427130015324093
          -0.0000019691121856324528 -0.0000030772286034924582 -0.000004370443756967315 0 0 -7.847147582211962e-7
          -3.365361553002661e-7 -0.0000019920607090766692 -8.112456117236816e-7 0 0 0
          6.652040151979634e-8 2.775933617914924e-8 5.115283997532082e-8 9.015769143262203e-8 3.664292408119051e-8 7.164615607255735e-8
          0 0 0 -3.189160327117211e-7 -1.7055040293109126e-7 -3.4188426383824656e-7
          -7.614137855184967e-7 -4.0954794545312194e-7 -7.900872862245876e-7 0 0 0
          -0.000007375673035413403 -0.000007675024384616974 -0.000007556658522533191 -0.000014579534852768844 -0.000015240052117929899 -0.000015048316147080895
          0 -0.000007720132129609904 -0.000015337185601775427 0 0 0
          0 2.95379464540505e-8 1.1208001791750886e-8 -1.7659425250851773e-9 2.015749088874351e-8 4.054193559368545e-8
          1.0743676850523927e-8 -1.3693037943508504e-8 2.6539498671058852e-8 0 0 -0.00000726367249909447
          -0.000007785004745901215 -0.000014269562097397712 -0.000015548849820123195 0 0 2.0263210912898486e-8
          3.9529052938951374e-8 2.4695352124048055e-8 5.5325659453996685e-8 0 0 -0.00000932416660475781
          -0.00000790562304380641 -0.000018970898692686115 -0.000015741765491696117 0 0 -0.000005753240764522087
          -0.0000060722448226170595 -0.00001136367244800414 -0.0000122442623942357 0 -9.68479241764282e-9 -2.7573365287851298e-8
          0 -4.501016454177583e-7 -9.822131622199226e-7 0 0 -0.000002700192762360793
          -0.0000016872317362062378 -0.0000053410312844231545 -0.000003641542595501171 0 -5.761041447987023e-7 -0.0000012008116512814837
          0 -1.2897703648927408e-7 1.9127079746046196e-7 0 8.696653068583117e-8 1.2838066214360775e-7
          0 -1.740659356765002e-7 -4.860582324488998e-7 0 -2.508732444548251e-8 -5.9566068146886274e-8
          0 -1.4249472475763535e-7 1.6318290783999926e-7 0 -0.0000049299952340566314 -0.000009995637861685702
          0 -0.000010696961353103154 -0.00002141607923734647 0 -0.000006311548183854911 -0.00001254863755465952
          0 1.181408805107476e-8 8.579161746226155e-9 0 8.879709614565969e-8 3.5344635986848476e-8
          0 -8.890693697156984e-7 -0.000001758259496463293 0 -8.391639280601558e-7 -0.000001677587903345442
          0 -9.574382055072733e-7 -0.0000018969238700813723 0 -8.704643311859991e-7 -0.000001738437516302768
          0 -9.88602725482435e-7 -0.000001963956374635067 0 -9.693764019692895e-7 -0.000001933164108872116
          0 -8.844650498522952e-7 -0.0000017721276427809665 0 -7.070743252295683e-7 -0.0000014416287731262155
          0 -3.393737849489165e-7 -7.154695503006814e-7 0 0 -3.586205424259795e-7
          -2.556650967289501e-7 -8.519748086969655e-7 -5.705642292149921e-7 0 0 0
          0 -1.4890670212343086e-7 -9.656429093202962e-8 -7.994094114491024e-8 -1.4500405760164654e-7 -3.172092276551073e-7
          -1.91940866477616e-7 -1.7600309719194153e-7 -3.1579658752557316e-7 0 -4.2668654269557626e-8 -7.84022320724533e-8
          0 -1.8615994041029737e-7 -3.7151927691861713e-7 0 -2.6986906175517785e-8 -5.800434310734302e-8
          0 0 -7.878552591387291e-7 -7.945169662776715e-7 -0.0000015712968570723542 -0.0000015849691990001925
          0 -8.667701391532912e-7 -0.0000017291111056404874 0 -7.459581740798975e-7 -0.0000014874394034719645
          0 -8.165014311764717e-7 -0.0000016265897595056832 0 -7.072527441529904e-7 -0.0000014050126270546477
          0 -5.255080599176319e-7 -0.0000010507497469163819 0 -2.6619981991869317e-7 -5.369177657019073e-7
          0 -1.7239563851618896e-7 -3.5819471267699765e-7 0 0 0
          -3.610100783405334e-8 -1.0464399171630088e-7 -1.0167368512828904e-7 -7.121437081872244e-8 -2.10062816915647e-7 -2.0648716301331443e-7
        </DataArray>
      </PointData>
      <CellData>
        <DataArray type="Int32" Name="libmesh_elem_id" format="ascii" RangeMin="40" RangeMax="1373">
          40 41 42 43 44 45
          46 47 48 49 50 51
          52 53 54 55 56 57
          98 99 100 101 102 103
          104 105 106 107 108 109
          110 111 112 113 114 115
          156 157 158 159 160 161
          162 163 164 165 166 167
          168 169 170 171 172 173
          214 215 216 217 218 219
          220 221 222 223 224 225
          226 227 228 229 230 231
          272 273 274 275 276 277
          278 279 280 281 282 283
          284 285 286 287 288 289
          330 331 332 333 334 335
          336 337 338 339 340 341
          342 343 344 345 346 347
          388 389 390 391 392 393
          394 395 396 397 398 399
          400 401 402 403 404 405
          446 447 448 449 450 451
          452 453 454 455 456 457
          458 459 460 461 462 463
          508 509 510 511 512 513
          514 515 516 517 518 519
          520 521 522 523 524 525
          526 527 528 529 530 531
          532 533 534 535 536 537
          538 539 540 541 542 543
          544 545 546 547 548 549
          550 551 552 553 554 555
          556 557 558 559 560 561
          562 563 564 565 566 567
          568 569 570 571 572 573
          574 575 576 577 578 579
          580 581 582 583 584 585
          586 587 588 589 590 591
          592 593 594 595 596 597
          598 599 600 601 602 603
          604 605 606 607 608 609
          610 611 612 613 614 615
          616 617 618 619 620 621
          622 623 624 625 626 627
          628 629 630 631 632 633
          634 635 636 637 638 639
          640 641 642 643 644 645
          646 647 648 649 650 651
          652 653 654 655 656 657
          658 659 660 661 662 663
          664 665 666 667 668 669
          670 671 672 673 674 675
          676 677 678 679 680 681
          682 683 684 685 686 687
          688 689 690 691 692 693
          694 695 696 697 698 699
          700 701 702 703 704 705
          706 707 708 709 710 711
          712 713 714 715 716 717
          718 719 720 721 722 723
          724 725 726 727 728 729
          730 731 732 733 734 735
          736 737 738 739 740 741
          742 743 744 745 746 747
          748 749 750 751 752 753
          754 755 756 757 758 759
          760 761 762 763 764 765
          766 767 768 769 770 771
          1186 1187 1188 1189 1190 1191
          1204 1205 1206 1207 1208 1209
          1222 1223 1224 1225 1240 1241
          1242 1243 1258 1259 1260 1261
          1276 1277 1278 1279 1300 1301
          1304 1305 1306 1307 1314 1315
          1316 1317 1326 1327 1328 1329
          1330 1331 1338 1339 1344 1345
          1348 1349 1356 1357 1358 1359
          1360 1361 1366 1367 1372 1373
        </DataArray>
        <DataArray type="Int32" Name="subdomain_id" format="ascii" RangeMin="103" RangeMax="143">
          103 103 103 103 103 103
          103 103 103 103 103 103
          103 103 103 103 103 103
          103 103 103 103 103 103
          103 103 103 103 103 103
          103 103 103 103 103 103
          103 103 103 103 103 103
          103 103 103 103 103 103
          103 103 103 103 103 103
          103 103 103 103 103 103
          103 103 103 103 103 103
          103 103 103 103 103 103
          103 103 103 103 103 103
          103 103 103 103 103 103
          103 103 103 103 103 103
          103 103 103 103 103 103
          103 103 103 103 103 103
          103 103 103 103 103 103
          103 103 103 103 103 103
          103 103 103 103 103 103
          103 103 103 103 103 103
          103 103 103 103 103 103
          103 103 103 103 103 103
          103 103 103 103 103 103
          103 103 103 103 103 103
          103 103 103 103 103 103
          103 103 104 104 104 104
          104 104 104 104 104 104
          104 104 104 104 104 104
          104 104 104 104 104 104
          104 104 104 104 104 104
          104 104 104 104 104 104
          104 104 104 104 104 104
          104 104 104 104 104 104
          104 104 104 104 104 104
          104 104 104 104 104 104
          104 104 104 104 104 104
          104 104 104 104 104 104
          104 104 104 104 104 104
          104 104 104 104 104 104
          104 104 104 104 104 104
          104 104 104 104 104 104
          104 104 104 104 104 104
          104 104 104 104 104 104
          104 104 104 104 104 104
          104 104 104 104 104 104
          104 104 104 104 104 104
          104 104 104 104 104 104
          104 104 104 104 104 104
          104 104 104 104 104 104
          104 104 104 104 104 104
          104 104 104 104 104 104
          104 104 104 104 104 104
          104 104 104 104 104 104
          104 104 104 104 104 104
          104 104 104 104 104 104
          104 104 104 104 104 104
          104 104 104 104 104 104
          104 104 104 104 104 104
          141 141 141 141 141 141
          141 141 141 141 141 141
          141 141 141 141 141 141
          141 141 141 141 141 141
          141 141 141 141 141 141
          141 141 141 141 141 141
          141 141 141 141 141 141
          141 141 141 141 141 141
          141 141 141 141 141 141
          105 105 105 105 105 105
          105 105 105 105 105 105
          105 105 105 105 105 105
          105 105 105 105 105 105
          105 105 105 105 106 106
          106 106 106 106 106 106
          106 106 106 106 106 106
          106 106 106 106 106 106
          106 106 106 106 106 106
          143 143 143 143 143 143
        </DataArray>
        <DataArray type="Int32" Name="processor_id" format="ascii" RangeMin="5" RangeMax="5">
          5 5 5 5 5 5
          5 5 5 5 5 5
          5 5 5 5 5 5
          5 5 5 5 5 5
          5 5 5 5 5 5
          5 5 5 5 5 5
          5 5 5 5 5 5
          5 5 5 5 5 5
          5 5 5 5 5 5
          5 5 5 5 5 5
          5 5 5 5 5 5
          5 5 5 5 5 5
          5 5 5 5 5 5
          5 5 5 5 5 5
          5 5 5 5 5 5
          5 5 5 5 5 5
          5 5 5 5 5 5
          5 5 5 5 5 5
          5 5 5 5 5 5
          5 5 5 5 5 5
          5 5 5 5 5 5
          5 5 5 5 5 5
          5 5 5 5 5 5
          5 5 5 5 5 5
          5 5 5 5 5 5
          5 5 5 5 5 5
          5 5 5 5 5 5
          5 5 5 5 5 5
          5 5 5 5 5 5
          5 5 5 5 5 5
          5 5 5 5 5 5
          5 5 5 5 5 5
          5 5 5 5 5 5
          5 5 5 5 5 5
          5 5 5 5 5 5
          5 5 5 5 5 5
          5 5 5 5 5 5
          5 5 5 5 5 5
          5 5 5 5 5 5
          5 5 5 5 5 5
          5 5 5 5 5 5
          5 5 5 5 5 5
          5 5 5 5 5 5
          5 5 5 5 5 5
          5 5 5 5 5 5
          5 5 5 5 5 5
          5 5 5 5 5 5
          5 5 5 5 5 5
          5 5 5 5 5 5
          5 5 5 5 5 5
          5 5 5 5 5 5
          5 5 5 5 5 5
          5 5 5 5 5 5
          5 5 5 5 5 5
          5 5 5 5 5 5
          5 5 5 5 5 5
          5 5 5 5 5 5
          5 5 5 5 5 5
          5 5 5 5 5 5
          5 5 5 5 5 5
          5 5 5 5 5 5
          5 5 5 5 5 5
          5 5 5 5 5 5
          5 5 5 5 5 5
          5 5 5 5 5 5
          5 5 5 5 5 5
          5 5 5 5 5 5
          5 5 5 5 5 5
          5 5 5 5 5 5
          5 5 5 5 5 5
          5 5 5 5 5 5
          5 5 5 5 5 5
          5 5 5 5 5 5
          5 5 5 5 5 5
          5 5 5 5 5 5
          5 5 5 5 5 5
          5 5 5 5 5 5
          5 5 5 5 5 5
        </DataArray>
      </CellData>
      <Points>
        <DataArray type="Float64" Name="Points" NumberOfComponents="3" format="ascii" RangeMin="0.0082758620689774" RangeMax="0.013139935358843113">
          0.00011111111111123 0.0082758620689751 0 0 0.0082758620689774 0
          0.00011111111111123 0.0082758620689751 0.00015 0 0.0082758620689774 0.00015
          0.00011111111111123 0.0082758620689751 0.0003 0 0.0082758620689774 0.0003
          0.00011111111111125 0.0086896551724226 0 0 0.0086896551724246 0
          0.00011111111111125 0.0086896551724226 0.00015 0 0.0086896551724246 0.00015
          0.00011111111111125 0.0086896551724226 0.0003 0 0.0086896551724246 0.0003
          0.00011111111111126 0.0091034482758696 0 0 0.0091034482758716 0
          0.00011111111111126 0.0091034482758696 0.00015 0 0.0091034482758716 0.00015
          0.00011111111111126 0.0091034482758696 0.0003 0 0.0091034482758716 0.0003
          0.00011111111111128 0.0095172413793168 0 0 0.0095172413793185 0
          0.00011111111111128 0.0095172413793168 0.00015 0 0.0095172413793185 0.00015
          0.00011111111111128 0.0095172413793168 0.0003 0 0.0095172413793185 0.0003
          0.00011111111111129 0.0099310344827632 0 0 0.0099310344827645 0
          0.00011111111111129 0.0099310344827632 0.00015 0 0.0099310344827645 0.00015
          0.00011111111111129 0.0099310344827632 0.0003 0 0.0099310344827645 0.0003
          0.00011111111111131 0.01034482758621 0 0 0.01034482758621 0
          0.00011111111111131 0.01034482758621 0.00015 0 0.01034482758621 0.00015
          0.00011111111111131 0.01034482758621 0.0003 0 0.01034482758621 0.0003
          0.00011111111111132 0.010758620689657 0 0 0.010758620689657 0
          0.00011111111111132 0.010758620689657 0.00015 0 0.010758620689657 0.00015
          0.00011111111111132 0.010758620689657 0.0003 0 0.010758620689657 0.0003
          0.00011111111111134 0.011172413793104 0 0 0.011172413793104 0
          0.00011111111111134 0.011172413793104 0.00015 0 0.011172413793104 0.00015
          0.00011111111111134 0.011172413793104 0.0003 0 0.011172413793104 0.0003
          0.00011111111111135 0.011586206896551 0 0 0.011586206896551 0
          0.00011111111111135 0.011586206896551 0.00015 0 0.011586206896551 0.00015
          0.00011111111111135 0.011586206896551 0.0003 0 0.011586206896551 0.0003
          0.00011111111111137 0.012 0 0 0.012 0
          0.00011111111111137 0.012 0.00015 0 0.012 0.00015
          0.00011111111111137 0.012 0.0003 0 0.012 0.0003
          0.00022222222222243 0.0082758620689727 0 0.00022222222222243 0.0082758620689727 0.00015
          0.00022222222222243 0.0082758620689727 0.0003 0.00022222222222246 0.0086896551724206 0
          0.00022222222222246 0.0086896551724206 0.00015 0.00022222222222246 0.0086896551724206 0.0003
          0.00022222222222249 0.0091034482758676 0 0.00022222222222249 0.0091034482758676 0.00015
          0.00022222222222249 0.0091034482758676 0.0003 0.00022222222222253 0.0095172413793151 0
          0.00022222222222253 0.0095172413793151 0.00015 0.00022222222222253 0.0095172413793151 0.0003
          0.00022222222222256 0.0099310344827619 0 0.00022222222222256 0.0099310344827619 0.00015
          0.00022222222222256 0.0099310344827619 0.0003 0.0002222222222226 0.010344827586209 0
          0.0002222222222226 0.010344827586209 0.00015 0.0002222222222226 0.010344827586209 0.0003
          0.00022222222222263 0.010758620689656 0 0.00022222222222263 0.010758620689656 0.00015
          0.00022222222222263 0.010758620689656 0.0003 0.00022222222222266 0.011172413793103 0
          0.00022222222222266 0.011172413793103 0.00015 0.00022222222222266 0.011172413793103 0.0003
          0.0002222222222227 0.011586206896551 0 0.0002222222222227 0.011586206896551 0.00015
          0.0002222222222227 0.011586206896551 0.0003 0.00022222222222273 0.012 0
          0.00022222222222273 0.012 0.00015 0.00022222222222273 0.012 0.0003
          0.00033333333333363 0.0082758620689704 0 0.00033333333333363 0.0082758620689704 0.00015
          0.00033333333333363 0.0082758620689704 0.0003 0.00033333333333368 0.0086896551724185 0
          0.00033333333333368 0.0086896551724185 0.00015 0.00033333333333368 0.0086896551724185 0.0003
          0.00033333333333373 0.0091034482758657 0 0.00033333333333373 0.0091034482758657 0.00015
          0.00033333333333373 0.0091034482758657 0.0003 0.00033333333333379 0.0095172413793133 0
          0.00033333333333379 0.0095172413793133 0.00015 0.00033333333333379 0.0095172413793133 0.0003
          0.00033333333333384 0.0099310344827607 0 0.00033333333333384 0.0099310344827607 0.00015
          0.00033333333333384 0.0099310344827607 0.0003 0.00033333333333389 0.010344827586208 0
          0.00033333333333389 0.010344827586208 0.00015 0.00033333333333389 0.010344827586208 0.0003
          0.00033333333333394 0.010758620689656 0 0.00033333333333394 0.010758620689656 0.00015
          0.00033333333333394 0.010758620689656 0.0003 0.000333333333334 0.011172413793103 0
          0.000333333333334 0.011172413793103 0.00015 0.000333333333334 0.011172413793103 0.0003
          0.00033333333333405 0.011586206896551 0 0.00033333333333405 0.011586206896551 0.00015
          0.00033333333333405 0.011586206896551 0.0003 0.0003333333333341 0.012 0
          0.0003333333333341 0.012 0.00015 0.0003333333333341 0.012 0.0003
          0.00044444444444486 0.0082758620689681 0 0.00044444444444486 0.0082758620689681 0.00015
          0.00044444444444486 0.0082758620689681 0.0003 0.00044444444444493 0.0086896551724165 0
          0.00044444444444493 0.0086896551724165 0.00015 0.00044444444444493 0.0086896551724165 0.0003
          0.00044444444444501 0.0091034482758637 0 0.00044444444444501 0.0091034482758637 0.00015
          0.00044444444444501 0.0091034482758637 0.0003 0.00044444444444508 0.0095172413793116 0
          0.00044444444444508 0.0095172413793116 0.00015 0.00044444444444508 0.0095172413793116 0.0003
          0.00044444444444516 0.0099310344827594 0 0.00044444444444516 0.0099310344827594 0.00015
          0.00044444444444516 0.0099310344827594 0.0003 0.00044444444444523 0.010344827586207 0
          0.00044444444444523 0.010344827586207 0.00015 0.00044444444444523 0.010344827586207 0.0003
          0.00044444444444531 0.010758620689655 0 0.00044444444444531 0.010758620689655 0.00015
          0.00044444444444531 0.010758620689655 0.0003 0.00044444444444538 0.011172413793103 0
          0.00044444444444538 0.011172413793103 0.00015 0.00044444444444538 0.011172413793103 0.0003
          0.00044444444444546 0.011586206896551 0 0.00044444444444546 0.011586206896551 0.00015
          0.00044444444444546 0.011586206896551 0.0003 0.00044444444444553 0.012 0
          0.00044444444444553 0.012 0.00015 0.00044444444444553 0.012 0.0003
          0.00055555555555597 0.0082758620689657 0 0.00055555555555597 0.0082758620689657 0.00015
          0.00055555555555597 0.0082758620689657 0.0003 0.00055555555555605 0.0086896551724145 0
          0.00055555555555605 0.0086896551724145 0.00015 0.00055555555555605 0.0086896551724145 0.0003
          0.00055555555555613 0.0091034482758618 0 0.00055555555555613 0.0091034482758618 0.00015
          0.00055555555555613 0.0091034482758618 0.0003 0.00055555555555621 0.0095172413793099 0
          0.00055555555555621 0.0095172413793099 0.00015 0.00055555555555621 0.0095172413793099 0.0003
          0.00055555555555629 0.0099310344827581 0 0.00055555555555629 0.0099310344827581 0.00015
          0.00055555555555629 0.0099310344827581 0.0003 0.00055555555555636 0.010344827586206 0
          0.00055555555555636 0.010344827586206 0.00015 0.00055555555555636 0.010344827586206 0.0003
          0.00055555555555644 0.010758620689655 0 0.00055555555555644 0.010758620689655 0.00015
          0.00055555555555644 0.010758620689655 0.0003 0.00055555555555652 0.011172413793102 0
          0.00055555555555652 0.011172413793102 0.00015 0.00055555555555652 0.011172413793102 0.0003
          0.0005555555555566 0.011586206896551 0 0.0005555555555566 0.011586206896551 0.00015
          0.0005555555555566 0.011586206896551 0.0003 0.00055555555555667 0.012 0
          0.00055555555555667 0.012 0.00015 0.00055555555555667 0.012 0.0003
          0.00066666666666675 0.0082758620689634 0 0.00066666666666675 0.0082758620689634 0.00015
          0.00066666666666675 0.0082758620689634 0.0003 0.00066666666666679 0.0086896551724125 0
          0.00066666666666679 0.0086896551724125 0.00015 0.00066666666666679 0.0086896551724125 0.0003
          0.00066666666666684 0.0091034482758598 0 0.00066666666666684 0.0091034482758598 0.00015
          0.00066666666666684 0.0091034482758598 0.0003 0.00066666666666688 0.0095172413793081 0
          0.00066666666666688 0.0095172413793081 0.00015 0.00066666666666688 0.0095172413793081 0.0003
          0.00066666666666693 0.0099310344827568 0 0.00066666666666693 0.0099310344827568 0.00015
          0.00066666666666693 0.0099310344827568 0.0003 0.00066666666666697 0.010344827586205 0
          0.00066666666666697 0.010344827586205 0.00015 0.00066666666666697 0.010344827586205 0.0003
          0.00066666666666701 0.010758620689654 0 0.00066666666666701 0.010758620689654 0.00015
          0.00066666666666701 0.010758620689654 0.0003 0.00066666666666706 0.011172413793102 0
          0.00066666666666706 0.011172413793102 0.00015 0.00066666666666706 0.011172413793102 0.0003
          0.0006666666666671 0.01158620689655 0 0.0006666666666671 0.01158620689655 0.00015
          0.0006666666666671 0.01158620689655 0.0003 0.00066666666666715 0.012 0
          0.00066666666666715 0.012 0.00015 0.00066666666666715 0.012 0.0003
          0.00077777777777787 0.0082758620689611 0 0.00077777777777787 0.0082758620689611 0.00015
          0.00077777777777787 0.0082758620689611 0.0003 0.00077777777777791 0.0086896551724104 0
          0.00077777777777791 0.0086896551724104 0.00015 0.00077777777777791 0.0086896551724104 0.0003
          0.00077777777777794 0.0091034482758578 0 0.00077777777777794 0.0091034482758578 0.00015
          0.00077777777777794 0.0091034482758578 0.0003 0.00077777777777797 0.0095172413793064 0
          0.00077777777777797 0.0095172413793064 0.00015 0.00077777777777797 0.0095172413793064 0.0003
          0.000777777777778 0.0099310344827555 0 0.000777777777778 0.0099310344827555 0.00015
          0.000777777777778 0.0099310344827555 0.0003 0.00077777777777803 0.010344827586205 0
          0.00077777777777803 0.010344827586205 0.00015 0.00077777777777803 0.010344827586205 0.0003
          0.00077777777777806 0.010758620689654 0 0.00077777777777806 0.010758620689654 0.00015
          0.00077777777777806 0.010758620689654 0.0003 0.00077777777777809 0.011172413793101 0
          0.00077777777777809 0.011172413793101 0.00015 0.00077777777777809 0.011172413793101 0.0003
          0.00077777777777813 0.01158620689655 0 0.00077777777777813 0.01158620689655 0.00015
          0.00077777777777813 0.01158620689655 0.0003 0.00077777777777816 0.012 0
          0.00077777777777816 0.012 0.00015 0.00077777777777816 0.012 0.0003
          0.0008888888888888 0.0082758620689588 0 0.0008888888888888 0.0082758620689588 0.00015
          0.0008888888888888 0.0082758620689588 0.0003 0.00088888888888881 0.0086896551724084 0
          0.00088888888888881 0.0086896551724084 0.00015 0.00088888888888881 0.0086896551724084 0.0003
          0.00088888888888882 0.0091034482758559 0 0.00088888888888882 0.0091034482758559 0.00015
          0.00088888888888882 0.0091034482758559 0.0003 0.00088888888888883 0.0095172413793047 0
          0.00088888888888883 0.0095172413793047 0.00015 0.00088888888888883 0.0095172413793047 0.0003
          0.00088888888888884 0.0099310344827542 0 0.00088888888888884 0.0099310344827542 0.00015
          0.00088888888888884 0.0099310344827542 0.0003 0.00088888888888885 0.010344827586204 0
          0.00088888888888885 0.010344827586204 0.00015 0.00088888888888885 0.010344827586204 0.0003
          0.00088888888888885 0.010758620689653 0 0.00088888888888885 0.010758620689653 0.00015
          0.00088888888888885 0.010758620689653 0.0003 0.00088888888888886 0.011172413793101 0
          0.00088888888888886 0.011172413793101 0.00015 0.00088888888888886 0.011172413793101 0.0003
          0.00088888888888887 0.01158620689655 0 0.00088888888888887 0.01158620689655 0.00015
          0.00088888888888887 0.01158620689655 0.0003 0.00088888888888888 0.012 0
          0.00088888888888888 0.012 0.00015 0.00088888888888888 0.012 0.0003
          0.001 0.0091034482758539 0 0.001 0.0091034482758539 0.00015
          0.001 0.0091034482758539 0.0003 0.001 0.0095172413793029 0
          0.001 0.0095172413793029 0.00015 0.001 0.0095172413793029 0.0003
          0.001 0.0099310344827529 0 0.001 0.0099310344827529 0.00015
          0.001 0.0099310344827529 0.0003 0.001 0.010344827586203 0
          0.001 0.010344827586203 0.00015 0.001 0.010344827586203 0.0003
          0.001 0.010758620689653 0 0.001 0.010758620689653 0.00015
          0.001 0.010758620689653 0.0003 0.001 0.0111724137931 0
          0.001 0.0111724137931 0.00015 0.001 0.0111724137931 0.0003
          0.001 0.01158620689655 0 0.001 0.01158620689655 0.00015
          0.001 0.01158620689655 0.0003 0.001 0.012 0
          0.001 0.012 0.00015 0.001 0.012 0.0003
          0.00067947077571632 0.012798245728111 0 0.00068678568032061 0.012710429785181 0
          0.00076344362314339 0.012698069087358 0 0.00078000626700894 0.012788238676479 0
          0.00067947077571632 0.012798245728111 0.00015 0.00068678568032061 0.012710429785181 0.00015
          0.00076344362314339 0.012698069087358 0.00015 0.00078000626700894 0.012788238676479 0.00015
          0.00067947077571632 0.012798245728111 0.0003 0.00068678568032061 0.012710429785181 0.0003
          0.00076344362314339 0.012698069087358 0.0003 0.00078000626700894 0.012788238676479 0.0003
          0.0007101811699723 0.012881232243155 0 0.00078737528777453 0.012884598822829 0
          0.0007101811699723 0.012881232243155 0.00015 0.00078737528777453 0.012884598822829 0.00015
          0.0007101811699723 0.012881232243155 0.0003 0.00078737528777453 0.012884598822829 0.0003
          0.00063149088332091 0.012876508075697 0 0.00071156048039536 0.012943694476106 0
          0.00064992343237843 0.012944046337553 0 0.00063149088332091 0.012876508075697 0.00015
          0.00071156048039536 0.012943694476106 0.00015 0.00064992343237843 0.012944046337553 0.00015
          0.00063149088332091 0.012876508075697 0.0003 0.00071156048039536 0.012943694476106 0.0003
          0.00064992343237843 0.012944046337553 0.0003 0.00014271480927744 0.012184528409521 0
          0.00021074182908597 0.012239195039162 0 0.00014617236906556 0.012274772666576 0
          0.00010836971036758 0.0122326927564 0 0.00014271480927744 0.012184528409521 0.00015
          0.00021074182908597 0.012239195039162 0.00015 0.00014617236906556 0.012274772666576 0.00015
          0.00010836971036758 0.0122326927564 0.00015 0.00014271480927744 0.012184528409521 0.0003
          0.00021074182908597 0.012239195039162 0.0003 0.00014617236906556 0.012274772666576 0.0003
          0.00010836971036758 0.0122326927564 0.0003 0.00040316247653445 0.012523054457121 0
          0.00050524235438491 0.012516470580574 0 0.00047556583290331 0.012611926172403 0
          0.00040677839563254 0.01259579728731 0 0.00040316247653445 0.012523054457121 0.00015
          0.00050524235438491 0.012516470580574 0.00015 0.00047556583290331 0.012611926172403 0.00015
          0.00040677839563254 0.01259579728731 0.00015 0.00040316247653445 0.012523054457121 0.0003
          0.00050524235438491 0.012516470580574 0.0003 0.00047556583290331 0.012611926172403 0.0003
          0.00040677839563254 0.01259579728731 0.0003 0.00038389728538556 0.012111104172094 0
          0.00037958632650406 0.012195366170904 0 0.00029855370140418 0.012181148574691 0
          0.00029802321336891 0.012105931916082 0 0.00038389728538556 0.012111104172094 0.00015
          0.00037958632650406 0.012195366170904 0.00015 0.00029855370140418 0.012181148574691 0.00015
          0.00029802321336891 0.012105931916082 0.00015 0.00038389728538556 0.012111104172094 0.0003
          0.00037958632650406 0.012195366170904 0.0003 0.00029855370140418 0.012181148574691 0.0003
          0.00029802321336891 0.012105931916082 0.0003 0.00062435778703091 0.012280526392523 0
          0.00063694887874418 0.012191685157308 0 0.00075163746499696 0.012211869018538 0
          0.0007101306235237 0.012330652999586 0 0.00062435778703091 0.012280526392523 0.00015
          0.00063694887874418 0.012191685157308 0.00015 0.00075163746499696 0.012211869018538 0.00015
          0.0007101306235237 0.012330652999586 0.00015 0.00062435778703091 0.012280526392523 0.0003
          0.00063694887874418 0.012191685157308 0.0003 0.00075163746499696 0.012211869018538 0.0003
          0.0007101306235237 0.012330652999586 0.0003 0.00090036231429234 0.012108977226849 0
          0.00080269198720626 0.012096984730608 0 0.00090036231429234 0.012108977226849 0.00015
          0.00080269198720626 0.012096984730608 0.00015 0.00090036231429234 0.012108977226849 0.0003
          0.00080269198720626 0.012096984730608 0.0003 0.00023865656240352 0.012177237347116 0
          0.00029061852669854 0.01224857812735 0 0.00023865656240352 0.012177237347116 0.00015
          0.00029061852669854 0.01224857812735 0.00015 0.00023865656240352 0.012177237347116 0.0003
          0.00029061852669854 0.01224857812735 0.0003 0.00056164385173704 0.012835416164401 0
          0.00056508360468666 0.012898794448667 0 0.00049240387645224 0.012913175910861 0
          0.00046984631090009 0.012828989929731 0 0.00056164385173704 0.012835416164401 0.00015
          0.00056508360468666 0.012898794448667 0.00015 0.00049240387645224 0.012913175910861 0.00015
          0.00046984631090009 0.012828989929731 0.00015 0.00056164385173704 0.012835416164401 0.0003
          0.00056508360468666 0.012898794448667 0.0003 0.00049240387645224 0.012913175910861 0.0003
          0.00046984631090009 0.012828989929731 0.0003 0.000050495613361417 0.012066083920595 0
          0.00011131843390441 0.012086989142678 0 0.000069577205110887 0.012153607960951 0
          0 0.012111111111109 0 0.000050495613361417 0.012066083920595 0.00015
          0.00011131843390441 0.012086989142678 0.00015 0.000069577205110887 0.012153607960951 0.00015
          0 0.012111111111109 0.00015 0.000050495613361417 0.012066083920595 0.0003
          0.00011131843390441 0.012086989142678 0.0003 0.000069577205110887 0.012153607960951 0.0003
          0 0.012111111111109 0.0003 0.00022470825547396 0.012306913365418 0
          0.00017103954025546 0.012340304715306 0 0.00022470825547396 0.012306913365418 0.00015
          0.00017103954025546 0.012340304715306 0.00015 0.00022470825547396 0.012306913365418 0.0003
          0.00017103954025546 0.012340304715306 0.0003 0.00085640575367095 0.012657655614724 0
          0.001 0.012571428571438 0 0.001 0.012714285714292 0
          0.00089085524488654 0.012778191533234 0 0.00085640575367095 0.012657655614724 0.00015
          0.001 0.012571428571438 0.00015 0.001 0.012714285714292 0.00015
          0.00089085524488654 0.012778191533234 0.00015 0.00085640575367095 0.012657655614724 0.0003
          0.001 0.012571428571438 0.0003 0.001 0.012714285714292 0.0003
          0.00089085524488654 0.012778191533234 0.0003 0.00017101007138246 0.012530153689505 0
          0.000086824088695593 0.01250759612347 0 0.00010015626416536 0.012463076177022 0
          0.00018026894988108 0.012457509098897 0 0.00017101007138246 0.012530153689505 0.00015
          0.000086824088695593 0.01250759612347 0.00015 0.00010015626416536 0.012463076177022 0.00015
          0.00018026894988108 0.012457509098897 0.00015 0.00017101007138246 0.012530153689505 0.0003
          0.000086824088695593 0.01250759612347 0.0003 0.00010015626416536 0.012463076177022 0.0003
          0.00018026894988108 0.012457509098897 0.0003 0.00055555555555552 0.013 0
          0.00054972466987376 0.012958523613261 0 0.00059017772624368 0.012950117696029 0
          0.00061111111111072 0.013 0 0.00055555555555552 0.013 0.00015
          0.00054972466987376 0.012958523613261 0.00015 0.00059017772624368 0.012950117696029 0.00015
          0.00061111111111072 0.013 0.00015 0.00055555555555552 0.013 0.0003
          0.00054972466987376 0.012958523613261 0.0003 0.00059017772624368 0.012950117696029 0.0003
          0.00061111111111072 0.013 0.0003 0.00056012017374448 0.012193168747791 0
          0.00054338833040714 0.012250054231166 0 0.00056012017374448 0.012193168747791 0.00015
          0.00054338833040714 0.012250054231166 0.00015 0.00056012017374448 0.012193168747791 0.0003
          0.00054338833040714 0.012250054231166 0.0003 0.00020164702899907 0.012111009853496 0
          0.00020164702899907 0.012111009853496 0.00015 0.00020164702899907 0.012111009853496 0.0003
          0.00058698867508036 0.01276393301723 0 0.00061242021253103 0.012689969395149 0
          0.00058698867508036 0.01276393301723 0.00015 0.00061242021253103 0.012689969395149 0.00015
          0.00058698867508036 0.01276393301723 0.0003 0.00061242021253103 0.012689969395149 0.0003
          0.00054704952286259 0.01264760123259 0 0.00058547756026548 0.012574831423214 0
          0.00066845126455385 0.012625352450745 0 0.00054704952286259 0.01264760123259 0.00015
          0.00058547756026548 0.012574831423214 0.00015 0.00066845126455385 0.012625352450745 0.00015
          0.00054704952286259 0.01264760123259 0.0003 0.00058547756026548 0.012574831423214 0.0003
          0.00066845126455385 0.012625352450745 0.0003 0.00040316497174951 0.012375710115571 0
          0.00038996592658543 0.012448925709731 0 0.00030251984068288 0.012451026681152 0
          0.00030273327950676 0.012339921797294 0 0.00040316497174951 0.012375710115571 0.00015
          0.00038996592658543 0.012448925709731 0.00015 0.00030251984068288 0.012451026681152 0.00015
          0.00030273327950676 0.012339921797294 0.00015 0.00040316497174951 0.012375710115571 0.0003
          0.00038996592658543 0.012448925709731 0.0003 0.00030251984068288 0.012451026681152 0.0003
          0.00030273327950676 0.012339921797294 0.0003 0 0.012166666666663 0
          0.000060257043043922 0.012213388328671 0 0 0.012222222222217 0
          0 0.012166666666663 0.00015 0.000060257043043922 0.012213388328671 0.00015
          0 0.012222222222217 0.00015 0 0.012166666666663 0.0003
          0.000060257043043922 0.012213388328671 0.0003 0 0.012222222222217 0.0003
          0.00086766031505541 0.012218873949421 0 0.00070802748250363 0.01210226547145 0
          0.00086766031505541 0.012218873949421 0.00015 0.00070802748250363 0.01210226547145 0.00015
          0.00086766031505541 0.012218873949421 0.0003 0.00070802748250363 0.01210226547145 0.0003
          0.00045681564832724 0.012667985356076 0 0.00038302222240927 0.012678606196169 0
          0.00045681564832724 0.012667985356076 0.00015 0.00038302222240927 0.012678606196169 0.00015
          0.00045681564832724 0.012667985356076 0.0003 0.00038302222240927 0.012678606196169 0.0003
          0.00057343997443155 0.012462111372123 0 0.00067467937701806 0.012497336760124 0
          0.00057343997443155 0.012462111372123 0.00015 0.00067467937701806 0.012497336760124 0.00015
          0.00057343997443155 0.012462111372123 0.0003 0.00067467937701806 0.012497336760124 0.0003
          0 0.012388888888886 0 0.00004805763346656 0.012364070531781 0
          0.000052775834931525 0.012418323433379 0 0 0.012444444444443 0
          0 0.012388888888886 0.00015 0.00004805763346656 0.012364070531781 0.00015
          0.000052775834931525 0.012418323433379 0.00015 0 0.012444444444443 0.00015
          0 0.012388888888886 0.0003 0.00004805763346656 0.012364070531781 0.0003
          0.000052775834931525 0.012418323433379 0.0003 0 0.012444444444443 0.0003
          0.0004655657017567 0.012222981448331 0 0.0004403524252846 0.012306679111378 0
          0.00036518397892919 0.012268658791136 0 0.0004655657017567 0.012222981448331 0.00015
          0.0004403524252846 0.012306679111378 0.00015 0.00036518397892919 0.012268658791136 0.00015
          0.0004655657017567 0.012222981448331 0.0003 0.0004403524252846 0.012306679111378 0.0003
          0.00036518397892919 0.012268658791136 0.0003 0.00079059026611164 0.012574208252283 0
          0.00074033738884001 0.012629472897336 0 0.00079059026611164 0.012574208252283 0.00015
          0.00074033738884001 0.012629472897336 0.00015 0.00079059026611164 0.012574208252283 0.0003
          0.00074033738884001 0.012629472897336 0.0003 0.00049134001885305 0.012124425854677 0
          0.00060162315338905 0.012101782274206 0 0.00049134001885305 0.012124425854677 0.00015
          0.00060162315338905 0.012101782274206 0.00015 0.00049134001885305 0.012124425854677 0.0003
          0.00060162315338905 0.012101782274206 0.0003 0.00055165526617401 0.012365152711649 0
          0.00046621557592763 0.012427373679685 0 0.00055165526617401 0.012365152711649 0.00015
          0.00046621557592763 0.012427373679685 0.00015 0.00055165526617401 0.012365152711649 0.0003
          0.00046621557592763 0.012427373679685 0.0003 0.00065175768920993 0.012395993188634 0
          0.00078658012555766 0.01242031863996 0 0.00065175768920993 0.012395993188634 0.00015
          0.00078658012555766 0.01242031863996 0.00015 0.00065175768920993 0.012395993188634 0.0003
          0.00078658012555766 0.01242031863996 0.0003 0.00072222222222142 0.013 0
          0.00076767785213736 0.012949407633443 0 0.00077777777777722 0.013 0
          0.00072222222222142 0.013 0.00015 0.00076767785213736 0.012949407633443 0.00015
          0.00077777777777722 0.013 0.00015 0.00072222222222142 0.013 0.0003
          0.00076767785213736 0.012949407633443 0.0003 0.00077777777777722 0.013 0.0003
          0.001 0.01228571428572 0 0.001 0.012428571428581 0
          0.00085243404696798 0.012340254950119 0 0.001 0.01228571428572 0.00015
          0.001 0.012428571428581 0.00015 0.00085243404696798 0.012340254950119 0.00015
          0.001 0.01228571428572 0.0003 0.001 0.012428571428581 0.0003
          0.00085243404696798 0.012340254950119 0.0003 0.000047305708530005 0.012255757186949 0
          0.000035989657241992 0.012305788523607 0 0 0.012277777777773 0
          0.000047305708530005 0.012255757186949 0.00015 0.000035989657241992 0.012305788523607 0.00015
          0 0.012277777777773 0.00015 0.000047305708530005 0.012255757186949 0.0003
          0.000035989657241992 0.012305788523607 0.0003 0 0.012277777777773 0.0003
          0 0.01233333333333 0 0 0.01233333333333 0.00015
          0 0.01233333333333 0.0003 0.00088888888888861 0.013 0
          0.00086852226729803 0.012945143609779 0 0.00092105077811413 0.012923509600428 0
          0.0009444444444442 0.013 0 0.00088888888888861 0.013 0.00015
          0.00086852226729803 0.012945143609779 0.00015 0.00092105077811413 0.012923509600428 0.00015
          0.0009444444444442 0.013 0.00015 0.00088888888888861 0.013 0.0003
          0.00086852226729803 0.012945143609779 0.0003 0.00092105077811413 0.012923509600428 0.0003
          0.0009444444444442 0.013 0.0003 0.000088322519872331 0.012287262323421 0
          0.000098057359918883 0.01234321954228 0 0.000088322519872331 0.012287262323421 0.00015
          0.000098057359918883 0.01234321954228 0.00015 0.000088322519872331 0.012287262323421 0.0003
          0.000098057359918883 0.01234321954228 0.0003 0.00082037799021753 0.012949927278989 0
          0.00083333333333302 0.013 0 0.00082037799021753 0.012949927278989 0.00015
          0.00083333333333302 0.013 0.00015 0.00082037799021753 0.012949927278989 0.0003
          0.00083333333333302 0.013 0.0003 0.000055423585756317 0.01245648439217 0
          0.00011750487062481 0.01240389197138 0 0.000055423585756317 0.01245648439217 0.00015
          0.00011750487062481 0.01240389197138 0.00015 0.000055423585756317 0.01245648439217 0.0003
          0.00011750487062481 0.01240389197138 0.0003 0.00022703795328819 0.012397087263253 0
          0.00024412512388832 0.012487409031957 0 0.00022703795328819 0.012397087263253 0.00015
          0.00024412512388832 0.012487409031957 0.00015 0.00022703795328819 0.012397087263253 0.0003
          0.00024412512388832 0.012487409031957 0.0003 0.00086622784349606 0.012879340816766 0
          0.00086622784349606 0.012879340816766 0.00015 0.00086622784349606 0.012879340816766 0.0003
          0.001 0.01214285714286 0 0.001 0.01214285714286 0.00015
          0.001 0.01214285714286 0.0003 0.00032807036377433 0.012530514194312 0
          0.00032139380548758 0.012616977778981 0 0.00032807036377433 0.012530514194312 0.00015
          0.00032139380548758 0.012616977778981 0.00015 0.00032807036377433 0.012530514194312 0.0003
          0.00032139380548758 0.012616977778981 0.0003 0.00078653837511981 0.012300730611142 0
          0.00078653837511981 0.012300730611142 0.00015 0.00078653837511981 0.012300730611142 0.0003
          0.00050187285486533 0.012723776617989 0 0.00050187285486533 0.012723776617989 0.00015
          0.00050187285486533 0.012723776617989 0.0003 0.00066666666666612 0.013 0
          0.00066666666666612 0.013 0.00015 0.00066666666666612 0.013 0.0003
          0.00086640285866826 0.012499721374928 0 0.00086640285866826 0.012499721374928 0.00015
          0.00086640285866826 0.012499721374928 0.0003 0.001 0.012857142857146 0
          0.001 0.012857142857146 0.00015 0.001 0.012857142857146 0.0003
          0.00043301270230906 0.012750000000722 0 0.00043301270230906 0.012750000000722 0.00015
          0.00043301270230906 0.012750000000722 0.0003 0.00025000000019401 0.01256698729822 0
          0.00025000000019401 0.01256698729822 0.00015 0.00025000000019401 0.01256698729822 0.0003
          0 0.0125 0 0 0.0125 0.00015
          0 0.0125 0.0003 0 0.012055555555554 0
          0 0.012055555555554 0.00015 0 0.012055555555554 0.0003
          0.001 0.013 0 0.001 0.013 0.00015
          0.001 0.013 0.0003 0.0005 0.013 0
          0.0005 0.013 0.00015 0.0005 0.013 0.0003
          0.0014444444444451 0.0095172413793029 0 0.0014444444444451 0.0095172413793029 0.00015
          0.0014444444444451 0.0095172413793029 0.0003 0.0018888888888902 0.0095172413793029 0
          0.0018888888888902 0.0095172413793029 0.00015 0.0018888888888902 0.0095172413793029 0.0003
          0.0014444444444452 0.0099310344827529 0 0.0014444444444452 0.0099310344827529 0.00015
          0.0014444444444452 0.0099310344827529 0.0003 0.0018888888888903 0.0099310344827529 0
          0.0018888888888903 0.0099310344827529 0.00015 0.0018888888888903 0.0099310344827529 0.0003
          0.0014444444444452 0.010344827586203 0 0.0014444444444452 0.010344827586203 0.00015
          0.0014444444444452 0.010344827586203 0.0003 0.0014444444444453 0.010758620689653 0
          0.0014444444444453 0.010758620689653 0.00015 0.0014444444444453 0.010758620689653 0.0003
          0.0014444444444453 0.0111724137931 0 0.0014444444444453 0.0111724137931 0.00015
          0.0014444444444453 0.0111724137931 0.0003 0.0014444444444454 0.01158620689655 0
          0.0014444444444454 0.01158620689655 0.00015 0.0014444444444454 0.01158620689655 0.0003
          0.0014444444444455 0.012 0 0.0014444444444455 0.012 0.00015
          0.0014444444444455 0.012 0.0003 0.0011659770658264 0.012184916069452 0
          0.0011978981211319 0.012291694091132 0 0.0011659770658264 0.012184916069452 0.00015
          0.0011978981211319 0.012291694091132 0.00015 0.0011659770658264 0.012184916069452 0.0003
          0.0011978981211319 0.012291694091132 0.0003 0.0014134281085546 0.012468353283698 0
          0.001412897365997 0.01265802692797 0 0.0011710921098332 0.012660749606473 0
          0.0011928404820732 0.012464476127519 0 0.0014134281085546 0.012468353283698 0.00015
          0.001412897365997 0.01265802692797 0.00015 0.0011710921098332 0.012660749606473 0.00015
          0.0011928404820732 0.012464476127519 0.00015 0.0014134281085546 0.012468353283698 0.0003
          0.001412897365997 0.01265802692797 0.0003 0.0011710921098332 0.012660749606473 0.0003
          0.0011928404820732 0.012464476127519 0.0003 0.0011801499871676 0.012824831216028 0
          0.0011801499871676 0.012824831216028 0.00015 0.0011801499871676 0.012824831216028 0.0003
          0.0014335559245349 0.012265987585326 0 0.0014335559245349 0.012265987585326 0.00015
          0.0014335559245349 0.012265987585326 0.0003 0.0014444444444455 0.013 0
          0.0014444444444455 0.013 0.00015 0.0014444444444455 0.013 0.0003
          0.0023333333333355 0.0099310344827529 0 0.0023333333333353 0.0095172413793029 0
          0.0023333333333355 0.0099310344827529 0.00015 0.0023333333333353 0.0095172413793029 0.00015
          0.0023333333333355 0.0099310344827529 0.0003 0.0023333333333353 0.0095172413793029 0.0003
          0.0018888888888904 0.010344827586203 0 0.0018888888888904 0.010344827586203 0.00015
          0.0018888888888904 0.010344827586203 0.0003 0.0023333333333357 0.010344827586203 0
          0.0023333333333357 0.010344827586203 0.00015 0.0023333333333357 0.010344827586203 0.0003
          0.0018888888888905 0.010758620689653 0 0.0018888888888905 0.010758620689653 0.00015
          0.0018888888888905 0.010758620689653 0.0003 0.0018888888888907 0.0111724137931 0
          0.0018888888888907 0.0111724137931 0.00015 0.0018888888888907 0.0111724137931 0.0003
          0.0018888888888908 0.01158620689655 0 0.0018888888888908 0.01158620689655 0.00015
          0.0018888888888908 0.01158620689655 0.0003 0.0018888888888909 0.012 0
          0.0018888888888909 0.012 0.00015 0.0018888888888909 0.012 0.0003
          0.0017386847932316 0.012348636106575 0 0.0017386847932316 0.012348636106575 0.00015
          0.0017386847932316 0.012348636106575 0.0003 0.0018888888888909 0.013 0
          0.001702980389272 0.012655949584096 0 0.0020604062010233 0.012679406151259 0
          0.0018888888888909 0.013 0.00015 0.001702980389272 0.012655949584096 0.00015
          0.0020604062010233 0.012679406151259 0.00015 0.0018888888888909 0.013 0.0003
          0.001702980389272 0.012655949584096 0.0003 0.0020604062010233 0.012679406151259 0.0003
          <InformationKey name="L2_NORM_RANGE" location="vtkDataArray" length="2">
            <Value index="0">
              0.008275862069
            </Value>
            <Value index="1">
              0.013139935359
            </Value>
          </InformationKey>
        </DataArray>
      </Points>
      <Cells>
        <DataArray type="Int64" Name="connectivity" format="ascii" RangeMin="0" RangeMax="755">
          1 0 6 7 3 2
          8 9 3 2 8 9
          5 4 10 11 7 6
          12 13 9 8 14 15
          9 8 14 15 11 10
          16 17 13 12 18 19
          15 14 20 21 15 14
          20 21 17 16 22 23
          19 18 24 25 21 20
          26 27 21 20 26 27
          23 22 28 29 25 24
          30 31 27 26 32 33
          27 26 32 33 29 28
          34 35 31 30 36 37
          33 32 38 39 33 32
          38 39 35 34 40 41
          37 36 42 43 39 38
          44 45 39 38 44 45
          41 40 46 47 43 42
          48 49 45 44 50 51
          45 44 50 51 47 46
          52 53 49 48 54 55
          51 50 56 57 51 50
          56 57 53 52 58 59
          0 60 63 6 2 61
          64 8 2 61 64 8
          4 62 65 10 6 63
          66 12 8 64 67 14
          8 64 67 14 10 65
          68 16 12 66 69 18
          14 67 70 20 14 67
          70 20 16 68 71 22
          18 69 72 24 20 70
          73 26 20 70 73 26
          22 71 74 28 24 72
          75 30 26 73 76 32
          26 73 76 32 28 74
          77 34 30 75 78 36
          32 76 79 38 32 76
          79 38 34 77 80 40
          36 78 81 42 38 79
          82 44 38 79 82 44
          40 80 83 46 42 81
          84 48 44 82 85 50
          44 82 85 50 46 83
          86 52 48 84 87 54
          50 85 88 56 50 85
          88 56 52 86 89 58
          60 90 93 63 61 91
          94 64 61 91 94 64
          62 92 95 65 63 93
          96 66 64 94 97 67
          64 94 97 67 65 95
          98 68 66 96 99 69
          67 97 100 70 67 97
          100 70 68 98 101 71
          69 99 102 72 70 100
          103 73 70 100 103 73
          71 101 104 74 72 102
          105 75 73 103 106 76
          73 103 106 76 74 104
          107 77 75 105 108 78
          76 106 109 79 76 106
          109 79 77 107 110 80
          78 108 111 81 79 109
          112 82 79 109 112 82
          80 110 113 83 81 111
          114 84 82 112 115 85
          82 112 115 85 83 113
          116 86 84 114 117 87
          85 115 118 88 85 115
          118 88 86 116 119 89
          90 120 123 93 91 121
          124 94 91 121 124 94
          92 122 125 95 93 123
          126 96 94 124 127 97
          94 124 127 97 95 125
          128 98 96 126 129 99
          97 127 130 100 97 127
          130 100 98 128 131 101
          99 129 132 102 100 130
          133 103 100 130 133 103
          101 131 134 104 102 132
          135 105 103 133 136 106
          103 133 136 106 104 134
          137 107 105 135 138 108
          106 136 139 109 106 136
          139 109 107 137 140 110
          108 138 141 111 109 139
          142 112 109 139 142 112
          110 140 143 113 111 141
          144 114 112 142 145 115
          112 142 145 115 113 143
          146 116 114 144 147 117
          115 145 148 118 115 145
          148 118 116 146 149 119
          120 150 153 123 121 151
          154 124 121 151 154 124
          122 152 155 125 123 153
          156 126 124 154 157 127
          124 154 157 127 125 155
          158 128 126 156 159 129
          127 157 160 130 127 157
          160 130 128 158 161 131
          129 159 162 132 130 160
          163 133 130 160 163 133
          131 161 164 134 132 162
          165 135 133 163 166 136
          133 163 166 136 134 164
          167 137 135 165 168 138
          136 166 169 139 136 166
          169 139 137 167 170 140
          138 168 171 141 139 169
          172 142 139 169 172 142
          140 170 173 143 141 171
          174 144 142 172 175 145
          142 172 175 145 143 173
          176 146 144 174 177 147
          145 175 178 148 145 175
          178 148 146 176 179 149
          150 180 183 153 151 181
          184 154 151 181 184 154
          152 182 185 155 153 183
          186 156 154 184 187 157
          154 184 187 157 155 185
          188 158 156 186 189 159
          157 187 190 160 157 187
          190 160 158 188 191 161
          159 189 192 162 160 190
          193 163 160 190 193 163
          161 191 194 164 162 192
          195 165 163 193 196 166
          163 193 196 166 164 194
          197 167 165 195 198 168
          166 196 199 169 166 196
          199 169 167 197 200 170
          168 198 201 171 169 199
          202 172 169 199 202 172
          170 200 203 173 171 201
          204 174 172 202 205 175
          172 202 205 175 173 203
          206 176 174 204 207 177
          175 205 208 178 175 205
          208 178 176 206 209 179
          180 210 213 183 181 211
          214 184 181 211 214 184
          182 212 215 185 183 213
          216 186 184 214 217 187
          184 214 217 187 185 215
          218 188 186 216 219 189
          187 217 220 190 187 217
          220 190 188 218 221 191
          189 219 222 192 190 220
          223 193 190 220 223 193
          191 221 224 194 192 222
          225 195 193 223 226 196
          193 223 226 196 194 224
          227 197 195 225 228 198
          196 226 229 199 196 226
          229 199 197 227 230 200
          198 228 231 201 199 229
          232 202 199 229 232 202
          200 230 233 203 201 231
          234 204 202 232 235 205
          202 232 235 205 203 233
          236 206 204 234 237 207
          205 235 238 208 205 235
          238 208 206 236 239 209
          210 240 243 213 211 241
          244 214 211 241 244 214
          212 242 245 215 213 243
          246 216 214 244 247 217
          214 244 247 217 215 245
          248 218 216 246 249 219
          217 247 250 220 217 247
          250 220 218 248 251 221
          219 249 252 222 220 250
          253 223 220 250 253 223
          221 251 254 224 222 252
          255 225 223 253 256 226
          223 253 256 226 224 254
          257 227 225 255 258 228
          226 256 259 229 226 256
          259 229 227 257 260 230
          228 258 261 231 229 259
          262 232 229 259 262 232
          230 260 263 233 231 261
          264 234 232 262 265 235
          232 262 265 235 233 263
          266 236 234 264 267 237
          235 265 268 238 235 265
          268 238 236 266 269 239
          246 270 273 249 247 271
          274 250 247 271 274 250
          248 272 275 251 249 273
          276 252 250 274 277 253
          250 274 277 253 251 275
          278 254 252 276 279 255
          253 277 280 256 253 277
          280 256 254 278 281 257
          255 279 282 258 256 280
          283 259 256 280 283 259
          257 281 284 260 258 282
          285 261 259 283 286 262
          259 283 286 262 260 284
          287 263 261 285 288 264
          262 286 289 265 262 286
          289 265 263 287 290 266
          264 288 291 267 265 289
          292 268 265 289 292 268
          266 290 293 269 294 295
          296 297 298 299 300 301
          298 299 300 301 302 303
          304 305 306 294 297 307
          308 298 301 309 308 298
          301 309 310 302 305 311
          312 306 313 314 315 308
          316 317 315 308 316 317
          318 310 319 320 321 322
          323 324 325 326 327 328
          325 326 327 328 329 330
          331 332 333 334 335 336
          337 338 339 340 337 338
          339 340 341 342 343 344
          345 346 347 348 349 350
          351 352 349 350 351 352
          353 354 355 356 357 358
          359 360 361 362 363 364
          361 362 363 364 365 366
          367 368 267 369 370 237
          268 371 372 238 268 371
          372 238 269 373 374 239
          375 347 376 322 377 351
          378 326 377 351 378 326
          379 355 380 330 381 382
          383 384 385 386 387 388
          385 386 387 388 389 390
          391 392 393 394 395 396
          397 398 399 400 397 398
          399 400 401 402 403 404
          323 322 405 406 327 326
          407 408 327 326 407 408
          331 330 409 410 411 412
          413 414 415 416 417 418
          415 416 417 418 419 420
          421 422 423 424 425 426
          427 428 429 430 427 428
          429 430 431 432 433 434
          435 436 437 438 439 440
          441 442 439 440 441 442
          443 444 445 446 447 358
          357 448 449 362 361 450
          449 362 361 450 451 366
          365 452 54 87 453 394
          56 88 454 398 56 88
          454 398 58 89 455 402
          456 457 295 294 458 459
          299 298 458 459 299 298
          460 461 303 302 457 462
          463 464 459 465 466 467
          459 465 466 467 461 468
          469 470 456 294 312 381
          458 298 315 385 458 298
          315 385 460 302 318 389
          471 472 473 474 475 476
          477 478 475 476 477 478
          479 480 481 482 483 395
          484 485 486 399 487 488
          486 399 487 488 489 403
          490 491 370 492 359 493
          372 494 363 495 372 494
          363 495 374 496 367 497
          237 370 493 207 238 372
          495 208 238 372 495 208
          239 374 497 209 336 335
          498 499 340 339 500 501
          340 339 500 501 344 343
          502 503 463 334 504 505
          466 338 506 507 466 338
          506 507 469 342 508 509
          510 511 512 513 514 515
          516 517 514 515 516 517
          518 519 520 521 522 523
          524 346 525 526 527 350
          525 526 527 350 528 529
          530 354 531 532 464 505
          533 534 467 507 533 534
          467 507 535 536 470 509
          537 147 177 538 539 148
          178 540 539 148 178 540
          541 149 179 542 523 543
          544 471 526 545 546 475
          526 545 546 475 529 547
          548 479 549 360 550 505
          551 364 552 507 551 364
          552 507 553 368 554 509
          555 313 556 557 558 316
          559 560 558 316 559 560
          561 319 562 563 564 565
          566 492 567 568 569 494
          567 568 569 494 570 571
          572 496 573 574 575 485
          576 577 578 488 576 577
          578 488 579 580 581 491
          582 574 511 510 583 577
          515 514 583 577 515 514
          584 580 519 518 87 117
          348 453 88 118 352 454
          88 118 352 454 89 119
          356 455 504 334 544 543
          506 338 546 545 506 338
          546 545 508 342 548 547
          585 586 587 588 589 590
          591 592 589 590 591 592
          593 594 595 596 574 597
          598 511 577 599 600 515
          577 599 600 515 580 601
          602 519 375 322 321 453
          377 326 325 454 377 326
          325 454 379 330 329 455
          557 556 603 604 560 559
          605 606 560 559 605 606
          563 562 607 608 425 609
          512 610 429 611 516 612
          429 611 516 612 433 613
          520 614 207 493 538 177
          208 495 540 178 208 495
          540 178 209 497 542 179
          615 473 616 426 617 477
          618 430 617 477 618 430
          619 481 620 434 297 414
          621 307 301 418 622 309
          301 418 622 309 305 422
          623 311 492 369 624 564
          494 371 625 567 494 371
          625 567 496 373 626 570
          627 333 336 628 629 337
          340 630 629 337 340 630
          631 341 344 632 360 633
          566 550 364 634 569 552
          364 634 569 552 368 635
          572 554 457 456 636 462
          459 458 637 465 459 458
          637 465 461 460 638 468
          357 360 549 543 361 364
          551 545 361 364 551 545
          365 368 553 547 295 464
          532 296 299 467 534 300
          299 467 534 300 303 470
          536 304 639 314 313 555
          640 317 316 558 640 317
          316 558 641 320 319 561
          471 474 524 523 475 478
          527 526 475 478 527 526
          479 482 530 529 426 610
          406 615 430 612 408 617
          430 612 408 617 434 614
          410 619 504 543 549 505
          506 545 551 507 506 545
          551 507 508 547 553 509
          566 565 642 550 569 568
          643 552 569 568 643 552
          572 571 644 554 610 512
          511 598 612 516 515 600
          612 516 515 600 614 520
          519 602 621 414 645 587
          622 418 646 591 622 418
          646 591 623 422 647 595
          405 474 615 406 407 478
          617 408 407 478 617 408
          409 482 619 410 381 384
          636 456 385 388 637 458
          385 388 637 458 389 392
          638 460 648 499 498 636
          649 501 500 637 649 501
          500 637 650 503 502 638
          616 651 423 426 618 652
          427 430 618 652 427 430
          620 653 431 434 324 597
          573 484 328 599 576 487
          328 599 576 487 332 601
          579 490 642 412 411 531
          643 416 415 533 643 416
          415 533 644 420 419 535
          538 358 447 537 540 362
          449 539 540 362 449 539
          542 366 451 541 524 376
          347 346 527 378 351 350
          527 378 351 350 530 380
          355 354 627 651 616 473
          629 652 618 477 629 652
          618 477 631 653 620 481
          405 322 376 474 407 326
          378 478 407 326 378 478
          409 330 380 482 306 307
          556 313 308 309 559 316
          308 309 559 316 310 311
          562 319 345 117 147 537
          349 118 148 539 349 118
          148 539 353 119 149 541
          414 297 296 411 418 301
          300 415 418 301 300 415
          422 305 304 419 621 586
          603 307 622 590 605 309
          622 590 605 309 623 594
          607 311 544 334 333 472
          546 338 337 476 546 338
          337 476 548 342 341 480
          348 347 375 453 352 351
          377 454 352 351 377 454
          356 355 379 455 531 505
          550 642 533 507 552 643
          533 507 552 643 535 509
          554 644 321 324 484 395
          325 328 487 399 325 328
          487 399 329 332 490 403
          598 597 323 406 600 599
          327 408 600 599 327 408
          602 601 331 410 447 448
          522 537 449 450 525 539
          449 450 525 539 451 452
          528 541 513 512 609 654
          517 516 611 655 517 516
          611 655 521 520 613 656
          604 603 586 585 606 605
          590 589 606 605 590 589
          608 607 594 593 463 462
          335 334 466 465 339 338
          466 465 339 338 469 468
          343 342 438 437 314 639
          442 441 317 640 442 441
          317 640 446 445 320 641
          436 383 382 437 440 387
          386 441 440 387 386 441
          444 391 390 445 393 657
          55 54 397 658 57 56
          397 658 57 56 401 659
          59 58 312 314 437 382
          315 317 441 386 315 317
          441 386 318 320 445 390
          346 345 537 522 350 349
          539 525 350 349 539 525
          354 353 541 528 498 335
          462 636 500 339 465 637
          500 339 465 637 502 343
          468 638 369 267 291 624
          371 268 292 625 371 268
          292 625 373 269 293 626
          358 538 493 359 362 540
          495 363 362 540 495 363
          366 542 497 367 394 453
          321 395 398 454 325 399
          398 454 325 399 402 455
          329 403 587 645 660 588
          591 646 661 592 591 646
          661 592 595 647 662 596
          448 543 523 522 450 545
          526 525 450 545 526 525
          452 547 529 528 472 333
          627 473 476 337 629 477
          476 337 629 477 480 341
          631 481 436 435 663 383
          440 439 664 387 440 439
          664 387 444 443 665 391
          411 296 532 531 415 300
          534 533 415 300 534 533
          419 304 536 535 609 425
          424 654 611 429 428 655
          611 429 428 655 613 433
          432 656 492 566 633 359
          494 569 634 363 494 569
          634 363 496 572 635 367
          393 394 54 397 398 56
          397 398 56 401 402 58
          413 414 645 417 418 646
          417 418 646 421 422 647
          628 627 651 630 629 652
          630 629 652 632 631 653
          117 348 345 118 352 349
          118 352 349 119 356 353
          565 642 412 568 643 416
          568 643 416 571 644 420
          457 295 464 459 299 467
          459 299 467 461 303 470
          463 464 505 466 467 507
          466 467 507 469 470 509
          499 336 628 501 340 630
          501 340 630 503 344 632
          384 636 648 388 637 649
          388 637 649 392 638 650
          492 369 370 494 371 372
          494 371 372 496 373 374
          473 474 615 477 478 617
          477 478 617 481 482 619
          381 382 312 385 386 315
          385 386 315 389 390 318
          471 472 544 475 476 546
          475 476 546 479 480 548
          582 574 575 583 577 578
          583 577 578 584 580 581
          312 306 294 315 308 298
          315 308 298 318 310 302
          524 376 474 527 378 478
          527 378 478 530 380 482
          396 393 657 400 397 658
          400 397 658 404 401 659
          483 395 396 486 399 400
          486 399 400 489 403 404
          357 448 543 361 450 545
          361 450 545 365 452 547
          485 573 484 488 576 487
          488 576 487 491 579 490
          621 586 587 622 590 591
          622 590 591 623 594 595
          324 597 323 328 599 327
          328 599 327 332 601 331
          603 307 556 605 309 559
          605 309 559 607 311 562
          610 425 426 612 429 430
          612 429 430 614 433 434
          360 633 359 364 634 363
          364 634 363 368 635 367
          598 610 406 600 612 408
          600 612 408 602 614 410
          574 597 573 577 599 576
          577 599 576 580 601 579
          672 276 273 666 673 277
          274 667 673 277 274 667
          674 278 275 668 675 672
          666 669 676 673 667 670
          676 673 667 670 677 674
          668 671 720 675 669 721
          722 676 670 723 722 676
          670 723 724 677 671 725
          678 279 276 672 679 280
          277 673 679 280 277 673
          680 281 278 674 726 678
          672 675 727 679 673 676
          727 679 673 676 728 680
          674 677 729 726 675 720
          730 727 676 722 730 727
          676 722 731 728 677 724
          681 282 279 678 682 283
          280 679 682 283 280 679
          683 284 281 680 732 681
          678 726 733 682 679 727
          733 682 679 727 734 683
          680 728 684 285 282 681
          685 286 283 682 685 286
          283 682 686 287 284 683
          735 684 681 732 736 685
          682 733 736 685 682 733
          737 686 683 734 687 288
          285 684 688 289 286 685
          688 289 286 685 689 290
          287 686 738 687 684 735
          739 688 685 736 739 688
          685 736 740 689 686 737
          690 291 288 687 691 292
          289 688 691 292 289 688
          692 293 290 689 741 690
          687 738 742 691 688 739
          742 691 688 739 743 692
          689 740 693 694 564 624
          695 696 567 625 695 696
          567 625 697 698 570 626
          699 700 701 702 703 704
          705 706 703 704 705 706
          707 708 709 710 702 701
          412 565 706 705 416 568
          706 705 416 568 710 709
          420 571 413 701 711 645
          417 705 712 646 417 705
          712 646 421 709 713 647
          690 741 744 714 691 742
          745 715 691 742 745 715
          692 743 746 716 714 699
          702 694 715 703 706 696
          715 703 706 696 716 707
          710 698 694 702 565 564
          696 706 568 567 696 706
          568 567 698 710 571 570
          747 717 748 749 750 718
          751 752 750 718 751 752
          753 719 754 755 699 744
          748 700 703 745 751 704
          703 745 751 704 707 746
          754 708 711 701 700 717
          712 705 704 718 712 705
          704 718 713 709 708 719
          714 694 693 690 715 696
          695 691 715 696 695 691
          716 698 697 692 291 690
          693 624 292 691 695 625
          292 691 695 625 293 692
          697 626 711 717 660 645
          712 718 661 646 712 718
          661 646 713 719 662 647
          714 699 744 715 703 745
          715 703 745 716 707 746
          748 700 717 751 704 718
          751 704 718 754 708 719
          413 701 412 417 705 416
          417 705 416 421 709 420
        </DataArray>
        <DataArray type="Int64" Name="offsets" format="ascii" RangeMin="8" RangeMax="3624">
          8 16 24 32 40 48
          56 64 72 80 88 96
          104 112 120 128 136 144
          152 160 168 176 184 192
          200 208 216 224 232 240
          248 256 264 272 280 288
          296 304 312 320 328 336
          344 352 360 368 376 384
          392 400 408 416 424 432
          440 448 456 464 472 480
          488 496 504 512 520 528
          536 544 552 560 568 576
          584 592 600 608 616 624
          632 640 648 656 664 672
          680 688 696 704 712 720
          728 736 744 752 760 768
          776 784 792 800 808 816
          824 832 840 848 856 864
          872 880 888 896 904 912
          920 928 936 944 952 960
          968 976 984 992 1000 1008
          1016 1024 1032 1040 1048 1056
          1064 1072 1080 1088 1096 1104
          1112 1120 1128 1136 1144 1152
          1160 1168 1176 1184 1192 1200
          1208 1216 1224 1232 1240 1248
          1256 1264 1272 1280 1288 1296
          1304 1312 1320 1328 1336 1344
          1352 1360 1368 1376 1384 1392
          1400 1408 1416 1424 1432 1440
          1448 1456 1464 1472 1480 1488
          1496 1504 1512 1520 1528 1536
          1544 1552 1560 1568 1576 1584
          1592 1600 1608 1616 1624 1632
          1640 1648 1656 1664 1672 1680
          1688 1696 1704 1712 1720 1728
          1736 1744 1752 1760 1768 1776
          1784 1792 1800 1808 1816 1824
          1832 1840 1848 1856 1864 1872
          1880 1888 1896 1904 1912 1920
          1928 1936 1944 1952 1960 1968
          1976 1984 1992 2000 2008 2016
          2024 2032 2040 2048 2056 2064
          2072 2080 2088 2096 2104 2112
          2120 2128 2136 2144 2152 2160
          2168 2176 2184 2192 2200 2208
          2216 2224 2232 2240 2248 2256
          2264 2272 2280 2288 2296 2304
          2312 2320 2328 2336 2344 2352
          2360 2368 2376 2384 2392 2400
          2408 2416 2424 2432 2440 2448
          2456 2464 2472 2480 2488 2496
          2504 2512 2520 2528 2536 2544
          2552 2560 2568 2576 2584 2592
          2600 2608 2616 2624 2632 2640
          2648 2656 2664 2672 2680 2688
          2696 2704 2712 2720 2728 2736
          2744 2752 2760 2768 2776 2784
          2792 2800 2808 2816 2824 2832
          2838 2844 2850 2856 2862 2868
          2874 2880 2886 2892 2898 2904
          2910 2916 2922 2928 2934 2940
          2946 2952 2958 2964 2970 2976
          2982 2988 2994 3000 3006 3012
          3018 3024 3030 3036 3042 3048
          3054 3060 3066 3072 3078 3084
          3090 3096 3102 3108 3114 3120
          3126 3132 3138 3144 3150 3156
          3164 3172 3180 3188 3196 3204
          3212 3220 3228 3236 3244 3252
          3260 3268 3276 3284 3292 3300
          3308 3316 3324 3332 3340 3348
          3356 3364 3372 3380 3388 3396
          3404 3412 3420 3428 3436 3444
          3452 3460 3468 3476 3484 3492
          3500 3508 3516 3524 3532 3540
          3548 3556 3564 3572 3580 3588
          3594 3600 3606 3612 3618 3624
        </DataArray>
        <DataArray type="UInt8" Name="types" format="ascii" RangeMin="12" RangeMax="13">
          12 12 12 12 12 12
          12 12 12 12 12 12
          12 12 12 12 12 12
          12 12 12 12 12 12
          12 12 12 12 12 12
          12 12 12 12 12 12
          12 12 12 12 12 12
          12 12 12 12 12 12
          12 12 12 12 12 12
          12 12 12 12 12 12
          12 12 12 12 12 12
          12 12 12 12 12 12
          12 12 12 12 12 12
          12 12 12 12 12 12
          12 12 12 12 12 12
          12 12 12 12 12 12
          12 12 12 12 12 12
          12 12 12 12 12 12
          12 12 12 12 12 12
          12 12 12 12 12 12
          12 12 12 12 12 12
          12 12 12 12 12 12
          12 12 12 12 12 12
          12 12 12 12 12 12
          12 12 12 12 12 12
          12 12 12 12 12 12
          12 12 12 12 12 12
          12 12 12 12 12 12
          12 12 12 12 12 12
          12 12 12 12 12 12
          12 12 12 12 12 12
          12 12 12 12 12 12
          12 12 12 12 12 12
          12 12 12 12 12 12
          12 12 12 12 12 12
          12 12 12 12 12 12
          12 12 12 12 12 12
          12 12 12 12 12 12
          12 12 12 12 12 12
          12 12 12 12 12 12
          12 12 12 12 12 12
          12 12 12 12 12 12
          12 12 12 12 12 12
          12 12 12 12 12 12
          12 12 12 12 12 12
          12 12 12 12 12 12
          12 12 12 12 12 12
          12 12 12 12 12 12
          12 12 12 12 12 12
          12 12 12 12 12 12
          12 12 12 12 12 12
          12 12 12 12 12 12
          12 12 12 12 12 12
          12 12 12 12 12 12
          12 12 12 12 12 12
          12 12 12 12 12 12
          12 12 12 12 12 12
          12 12 12 12 12 12
          12 12 12 12 12 12
          13 13 13 13 13 13
          13 13 13 13 13 13
          13 13 13 13 13 13
          13 13 13 13 13 13
          13 13 13 13 13 13
          13 13 13 13 13 13
          13 13 13 13 13 13
          13 13 13 13 13 13
          13 13 13 13 13 13
          12 12 12 12 12 12
          12 12 12 12 12 12
          12 12 12 12 12 12
          12 12 12 12 12 12
          12 12 12 12 12 12
          12 12 12 12 12 12
          12 12 12 12 12 12
          12 12 12 12 12 12
          12 12 12 12 12 12
          13 13 13 13 13 13
        </DataArray>
      </Cells>
    </Piece>
  </UnstructuredGrid>
</VTKFile>
