<?xml version="1.0"?>
<VTKFile type="UnstructuredGrid" version="0.1" byte_order="LittleEndian" header_type="UInt32" compressor="vtkZLibDataCompressor">
  <UnstructuredGrid>
    <Piece NumberOfPoints="789" NumberOfCells="452">
      <PointData>
        <DataArray type="Int32" Name="libmesh_node_id" format="ascii" RangeMin="0" RangeMax="1901">
          0 1 2 3 4 5
          6 7 8 9 10 11
          12 13 14 15 16 17
          18 19 20 21 22 23
          24 25 26 27 28 29
          30 31 32 33 34 35
          36 37 38 39 40 41
          42 43 44 45 46 47
          48 49 50 51 52 53
          54 55 56 57 58 59
          60 61 62 63 64 65
          66 67 68 69 70 71
          72 73 74 75 76 77
          78 79 80 81 82 83
          84 85 86 87 88 89
          90 91 92 93 94 95
          96 97 98 99 100 101
          102 103 104 105 106 107
          108 109 110 111 112 113
          114 115 116 117 118 119
          180 181 182 183 184 185
          186 187 188 189 190 191
          192 193 194 195 196 197
          198 199 200 201 202 203
          204 205 206 207 208 209
          210 211 212 213 214 215
          216 217 218 219 220 221
          222 223 224 225 226 227
          228 229 230 231 232 233
          234 235 236 237 238 239
          270 271 272 273 274 275
          276 277 278 279 280 281
          282 283 284 285 286 287
          288 289 290 291 292 293
          294 295 296 297 298 299
          300 301 302 303 304 305
          306 307 308 309 310 311
          312 313 314 315 316 317
          318 319 320 321 322 323
          324 325 326 327 328 329
          360 361 362 363 364 365
          366 367 368 369 370 371
          372 373 374 375 376 377
          378 379 380 381 382 383
          384 385 386 387 388 389
          390 391 392 393 394 395
          396 397 398 399 400 401
          402 403 404 405 406 407
          408 409 410 411 412 413
          414 415 416 417 418 419
          450 451 452 453 454 455
          456 457 458 459 460 461
          462 463 464 465 466 467
          468 469 470 471 472 473
          474 475 476 477 478 479
          480 481 482 483 484 485
          486 487 488 489 490 491
          492 493 494 495 496 497
          498 499 500 501 502 503
          504 505 506 507 508 509
          540 541 542 543 544 545
          546 547 548 549 550 551
          552 553 554 555 556 557
          558 559 560 561 562 563
          564 565 566 567 568 569
          570 571 572 573 574 575
          576 577 578 579 580 581
          582 583 584 585 586 587
          588 589 590 591 592 593
          594 595 596 597 598 599
          630 631 632 633 634 635
          636 637 638 639 640 641
          642 643 644 645 646 647
          648 649 650 651 652 653
          654 655 656 657 658 659
          660 661 662 663 664 665
          666 667 668 669 670 671
          672 673 674 675 676 677
          678 679 680 681 682 683
          684 685 686 687 688 689
          720 721 722 723 724 725
          726 727 728 729 730 731
          732 733 734 735 736 737
          738 739 740 741 742 743
          744 745 746 747 748 749
          750 751 752 753 754 755
          756 757 758 759 760 761
          762 763 764 765 766 767
          768 769 770 771 772 773
          774 775 776 777 778 779
          810 811 812 813 814 815
          816 817 818 819 820 821
          822 823 824 825 826 827
          828 829 830 831 832 833
          834 835 836 837 838 839
          840 841 842 843 844 845
          846 847 848 849 850 851
          852 853 854 855 856 857
          858 859 860 861 862 863
          864 865 866 867 868 869
          870 871 872 873 874 875
          1272 1273 1274 1275 1276 1277
          1326 1327 1328 1353 1354 1355
          1380 1381 1382 1407 1408 1409
          1434 1435 1436 1677 1678 1679
          1704 1705 1706 1731 1732 1733
          1758 1759 1760 1785 1786 1787
          1788 1789 1790 1812 1813 1814
          1815 1816 1817 1839 1840 1841
          1842 1843 1844 1866 1867 1868
          1869 1870 1871 120 121 122
          123 124 125 240 241 242
          330 331 332 420 421 422
          510 511 512 600 601 602
          690 691 692 780 781 782
          783 784 785 876 786 877
          787 878 788 1278 1279 1280
          1281 1282 1283 1329 1330 1331
          1356 1357 1358 1383 1384 1385
          1410 1411 1412 1437 1438 1439
          1461 1462 1463 1464 1465 1466
          1488 1489 1490 1515 1516 1517
          1542 1543 1544 1569 1570 1571
          1596 1597 1598 1623 1624 1625
          1650 1651 1652 1680 1653 1681
          1654 1682 1655 1707 1708 1709
          1734 1735 1736 1761 1762 1763
          1791 1764 1792 1765 1793 1766
          1818 1819 1820 1845 1846 1847
          1872 1873 1874 1893 879 1894
          880 1895 881 1896 1897 1898
          1899 1900 1901
        </DataArray>
        <DataArray type="Float64" Name="resid_x" format="ascii" RangeMin="-16.88043336707086" RangeMax="1.1382781431365698">
          -4.014524915359215 -0.0000011439091647247324 0.0000015814748204334705 -8.08875976776934 -8.0284876249471 1.5946521170207006e-7
          -0.00002035682742196343 -16.159981677829855 -4.0144095973204745 -0.00003945120769710542 -0.00008551441988124964 -8.067325898804654
          -0.000006305236896153588 -8.213237721663202 -0.00009300091653763332 -16.290367047676273 -0.00005348380286918086 -8.05861805879314
          -0.0000022952073255311234 -8.236226438660726 0.00002103835694278189 -16.43837496840277 0.00005876395814308211 -8.193509012384606
          -0.02158517355991041 -8.112921130385818 0.09666262245355606 -16.336386856563458 0.21115337410079604 -8.239864102299094
          -0.17674324474554037 -7.782508857024409 0.46289334207789645 -16.11965123065457 1.1382781431365698 -8.396699644847583
          -0.14825028688000952 -7.871270651260872 -0.17163727903998804 -15.888429698773896 0.0032836368279216543 -8.07488715556791
          -0.17211744480583757 -8.078803789546605 -0.16735735124147322 -16.270864664891718 0.05655122040777982 -8.229829449911835
          0.00006267339905008384 -8.283663765961357 0.00011483264076694866 -16.5747250130282 0.0001850230905420247 -8.295523173574633
          -0.0001707615133490492 -8.353464071998065 -0.00012898880026135373 -16.70299090530078 -0.00006168771423897823 -8.348318881358527
          -0.00012316982524307463 -8.416565716829016 -0.00009139026359683555 -16.829754768018446 -0.00006438307955836109 -8.411887920117875
          -0.0006647311646226228 -8.43855009148656 -0.000827236712958701 -16.88043336707086 0.00022806870792191347 -8.442631390091542
          -0.008588535463414537 -8.400251899973313 -0.014451277257565565 -16.813468672426186 0.003651965546108471 -8.42042945197305
          -0.026001345509166107 -8.25287686508841 -0.06269282398266096 -16.514900192323047 -0.017688398131174843 -8.278249688815393
          -0.016926614752144076 -8.140588099802931 -0.03167038940544131 -16.29238224026485 -0.017465517421805465 -8.156317111697085
          -0.009769670941958353 -8.118515333774148 -0.014839765172768082 -16.22834093879675 -0.010455463097874151 -8.099513550401584
          0.002290990106435409 -8.155111951388509 0.004739619607419421 -16.278650351221287 0.002364725249074162 -8.09735822956744
          0.010305962650270395 -8.198415011391837 0.019465463381633796 -16.355906406079672 0.015540552949281583 -8.128310923819175
          -0.002316619643885076 -8.167778567595994 -0.008741445021389183 -16.31557391762326 -0.004918476102060865 -8.151860191457194
          -0.01095760428286141 -8.135286402110484 0.013361105885882907 -16.308224088216 0.010864599978965828 -8.223939241839119
          0.000006364472518782804 -0.00026225247628186565 0.00019338066456775493 -0.0003733255506137567 0.00010330037770334144 -0.0001139006135195686
          -0.00009825891836356959 0.00006122121583373996 0.00015338056047564663 -0.0001234282780453455 0.00013926725497093173 -0.000057568978961697326
          -0.025272817385704194 -0.17499770297993233 -0.24630023292136372 -0.22692942814777428 -1.0320501262052515 -1.3627388339482644
          -0.19808017311585768 -0.38561141091880735 -0.2236350420481088 0.027437782050832027 -0.04264665865083117 -0.006541698649670913
          0.0003168280880583296 0.0006037156951848033 0.0003151525378575215 0.0006721128144020483 0.0009012076756027554 0.00025909271018864644
          0.00042233815660353 0.00020089791479627195 0.00003927984521912009 -0.00016225232765609832 -0.00042793879009472846 -0.00016520427114397052
          -0.001342876946306859 0.004232314045531815 -0.0019340283979083495 -0.007507415971170772 -0.014269691158156128 -0.029884058873569153
          -0.03171994518185084 -0.0544269548393288 -0.02849529596038458 -0.01638844364201031 -0.025591425444729587 -0.013851166258672443
          0.00697017208488937 0.013013674290713872 0.0019392189951528138 0.013143366529226874 0.030178223201322574 0.02575414928084019
          0.008772512946842781 -0.0008918506300812368 0.011451912487383531 -0.01134659683090522 -0.01850681458625303 -0.002336649762383125
          -0.000029553661961223554 -0.000022187651839367106 -0.00001750168506475802 -0.00005534665393724936 -0.000004880781308003179 0.00005412796716619539
          -0.000007072925122919571 0.00003687003073959971 0.00004274673851600852 -0.00001027538139730666 -0.00004978949612244321 -0.00010696218179528927
          0.00003911862331129612 -0.00008242528615287625 0.00005178376302250598 -0.026021593053362047 -0.13420672604800554 -0.03656209556119716
          -0.06630936207569516 -0.18086952573975346 -0.059072596224975626 0.00038391293149064865 -0.0000108065040187455 -0.000059826067976054276
          0.00000594235311268676 0.000023220707946691732 0.0000655466377521563 0.000134510390040532 0.000033579857820598136 0.00007690598298548679
          0.009010422348796787 0.01949801185051747 0.012554484900780594 0.0027321776473367976 0.006749738852763976 0.004562787316237049
          -0.0025157706472533903 -0.009867985625906073 -0.00670450155054958 -0.028508862756980058 -0.07057186962080753 -0.03736117627139546
          -0.0380395832682785 -0.06875694492594775 -0.0325011277569498 -0.0178228701876586 -0.03405062486107724 -0.017678797225800125
          0.007389102811753645 0.0070062299515800674 -0.0008932649527917391 0.020716812564995912 0.023976028973327068 0.0020594237496478485
          0.00040342476968735497 -0.006203167487096373 -0.008318634909286082 -0.020585206305279158 -0.04446041788958155 -0.024850991352440843
          -0.000022681510653654868 -0.000044476675254756515 -0.000011486372995861416 -0.000057127938193346495 0.000014668330181599742 0.00008237245439346452
          -0.00003113992737713289 -0.000027676574174684276 0.00002632954680770183 0.00004608089194491072 -0.00009310460055811376 0.00004391576594642288
          0.00011757159133818362 -0.00008018516011798482 -0.0000671704647379201 -0.00008389258630536744 -0.00006321779732498811 -0.00033158911119102186
          -0.000005934380298278086 -0.000012284865482214968 -0.000047469943772249223 0.000008181024966802397 -0.0000774909918499489 0.0000011338288512519057
          0.00013370102020449082 0.00002638209859728846 0.00011246492891103799 0.00017040624301145613 0.011714024722243366 0.00961714295448246
          0.010462569637306629 0.07273496512766098 0.051875836972015144 0.007859486055177278 0.014497536256767418 0.005058113982841839
          -0.00021770095801709743 -0.005495885845249404 -0.004215712566741914 -0.04361467735753699 -0.07820714872208256 -0.034792515885131436
          -0.042360425465303386 -0.07247089657058492 -0.030776065492630345 -0.019166761732492432 -0.03941327410390372 -0.020683779709993466
          0.003174283365870778 -0.0037766530160068257 -0.007989291830339695 0.022711706429729084 0.012046341476860789 -0.014618389838846113
          0.004237183851111936 -0.008117590399034924 -0.016536142281183608 -0.002267417349036016 -0.011355905517516085 -0.027671151433773744
          -0.00002694372059863781 -0.00006906696553610203 -0.000030911660703569765 -0.00005060771309928214 0.000024886641845078827 0.0000684833669470919
          0.000024395462883575192 -0.00006071472530422284 0.00005338117013575783 0.00007309560055812625 -0.00006265905219926537 0.00003695134178105519
          0.00008368570554129207 -0.00003973500751541792 0.00004103254511189647 0.00004275966916988949 0.00002435648201526419 0.000059073394669262314
          0.000019483370340189765 -0.00003603381547634399 0.000019454312013778008 0.00001499038206187464 -0.00004587359816543568 0.000033759656434817487
          0.0001039216408837973 -0.000020875557431132563 0.0001096943828695629 0.013363804997552187 0.018879276710621617 0.020927889377024833
          0.0716019900144822 0.08285826232361959 0.02219535192997668 0.008525379126563593 0.007308740134132741 -0.001522117672799972
          0.003990617674659802 0.0006868991036723671 -0.0006925420243355518 -0.027628204870017825 -0.05257508077820017 -0.021991701378432538
          -0.04075413737660494 -0.07271308112396113 -0.032142997636916526 -0.024945276992073495 -0.04987061969051432 -0.02576906018236791
          -0.008474518460312552 -0.02364141217832927 -0.01926378790001504 0.013914912749838138 0.010169050463210816 -0.01079779325737551
          0.011478575540719405 0.024292645747206798 -0.007778675348615316 -0.02360712799871667 -0.03498220508470862 -0.015862123403688422
          0.000010532879251456961 -0.00001740776792047427 -0.000021020373761615474 -0.000039379451700405355 0.000038254950466942717 0.00006476763606233504
          0.000014309138523849185 -0.00007426032848822928 0.000033404131254854974 0.00006179858590815712 -0.00005635521709823621 0.00004979384182490776
          0.00007256555115375818 -0.000015136733814813397 0.00007708264113670538 0.0000997839675678236 0.000024164120518754828 0.00007313932617147856
          0.00003627827218544155 -0.00005726044624232429 0.000031644886264281524 -0.000003704311498431423 -0.00003481897688661917 0.000022152661536267715
          -0.00018070406044046194 -0.000058000026725402165 0.00010677595441155319 0.0640444571524279 0.11675165688106226 0.03904659774699493
          0.04390245065774234 0.07150076172001363 0.018376215147806185 -0.0035706746306836123 -0.0021626879610874283 -0.0003476317229038628
          0.004265560372866517 0.0026158739228598904 -0.0017900914091688591 -0.002235410102723101 -0.021650897639641897 -0.010260626986533516
          -0.03146666858487546 -0.07357819438893376 -0.038986145677816886 -0.03404923995918452 -0.07348835733665027 -0.038492823702577894
          -0.025145475628436387 -0.05712746347748521 -0.033589497381620426 -0.012436255841842048 -0.019398181758973898 -0.011870539077862396
          -0.005022925912729015 -0.005853038246070419 0.003754196262242715 -0.033637373158366124 -0.040231042502393954 0.013128528208586232
          0.00006731862628139851 0.000048731978895766304 0.000028707692513840755 -0.00000871925196310741 0.00006135590124012325 0.00006669886962917815
          0.000008447046677240166 -0.00009341853195810046 0.00000176268972129634 0.00004294605634491688 -0.00004574492471931535 0.00004767580654529979
          0.00008222233530652545 0.00000687437175717065 0.00009227224393271172 0.00014796131160998982 0.00004033575764417208 0.00006980959138314091
          -0.0000025648704902181407 -0.00011269892942511461 -0.00004934661016076092 -0.00016520157514143818 0.000039608924047307426 0.00008875700299970646
          -0.0684675198700786 0.019786336549067585 0.020617856000356483 0.08671673141952763 0.2211355399485484 0.10423639873443946
          -0.007331087870987574 -0.01451644685070086 -0.01068391613817088 -0.004941726456371143 -0.006645197169074635 -0.0004014930574323117
          -0.0006618688693951214 0.0036525023049716054 0.0011424894358089688 -0.0017311965114554795 -0.008766584288223633 -0.0055096754284083005
          -0.0144316015972894 -0.03833536440855667 -0.02652166922043886 -0.047027379169977124 -0.09706653303843371 -0.049942888996454826
          -0.05237563573797388 -0.09682591451925937 -0.04746945200611563 -0.047285544017637626 -0.0809112815878894 -0.037649325334799144
          -0.014505599394027513 -0.02948803678070888 -0.00879367676544529 0.016272011959649557 0.016174084304231506 0.011579272851520273
          0.00009541877725860459 0.00007197363933109102 0.0000730475621555371 0.00001569334026108038 0.0001486690570930982 0.00008955328482596059
          -0.000006599171967991424 -0.00010795865914658975 -0.000023096261340782576 0.000020785806132295193 -0.000016341189402524492 0.00005064262047316248
          0.00010722437228416482 0.000046899825369983716 0.00010300878127100788 0.0001799020505730553 9.652740207144461e-8 0.000015577482270323628
          1.4225538436107854e-7 0.00015163031182208186 0.0001614825735840597 -0.01022438399570369 0.018666015086540533 -0.0029022943704379855
          0.1386471253458046 0.2660259340820943 0.07318164148462891 0.06259916463337944 0.06060544373566312 0.022104770650997807
          -0.05112524791074424 -0.09633603480931363 -0.03718813734231485 -0.008025819046300064 -0.009229319635246647 0.003430529365342494
          -0.010039731191131551 -0.0032744441584942052 0.017711170727291226 -0.0059559469545380495 -0.010845637501445182 0.007878731281731
          0.0029276878938162554 -0.0006467269399115239 -0.002839863283750077 -0.02208865898731016 -0.047395352546386604 -0.0259145331901518
          -0.056300144322115386 -0.10945585725852958 -0.050706353022473394 -0.038380517989040186 -0.0738020784431277 -0.033880295361717216
          -0.004761668688986198 -0.0279355324423185 -0.01992942075025006 0.04528776037024951 0.026163462905558266 -0.02677366431959971
          0.005590030971847071 0.03214028659836554 0.012734637237917568 0.07134783401944489 0.006115960586779323 0.04005521459589634
          0.016199703049541547 0.03424297617019523 0.019490410941836345 0.00011154596060425348 0.00004643884422605993 0.00010121737173207634
          0.00016030711879544413 0.00005667505500639436 0.00008871739407823043 0.0002048874723490357 0.000035910250595350135 0.0003180136820697399
          -0.0009404645169919235 -0.0017424059659356672 -0.0007348975608687525 0.017026963371204573 -0.006749715427965874 0.003266911357878044
          0.030484785781997203 -0.10937774542832912 -0.036448732201281864 -0.16529382631008627 -0.32316020689787806 -0.15463701917329953
          -0.06556767148557263 -0.11946962774908432 -0.05555536154775975 0.008870900453349151 0.01568377894953077 0.00014868802121359437
          -0.010356305542076782 -0.0016379338415575262 -0.009153212085559304 -0.01066853242546184 -0.009505469310659542 -0.019798135016012353
          0.004434593210851823 0.00008622865461305196 -0.0017309521252224513 0.001848384181057483 0.0009473080592989902 -0.005055942585007855
          -0.005253682226567857 -0.008225662067416373 -0.009230342952674775 -0.0047226061922511775 -0.005816027247785627 -0.012953839885697427
          0.0042517382322482256 0.00786099955975672 -0.013569314394671128 0.03235166241479526 0.028651905028668878 0.004172109493312259
          0.039195302321235026 -0.1667776718126346 -0.09318099033899507 0.44003723926490634 -0.7278449956510196 -0.056650317678769824
          -0.031790375704221496 -0.005278146755583357 -0.06985016163570368 -0.011961112500522564 -0.0380425488737508 -0.00721953709005918
          -0.015859344334631764 -0.03196100104948041 -0.012276576341077039 0.0005624864810540586 0.0009394512812770373 0.0003848285370624538
          0.00025984871984530145 0.0006961489597161474 0.00011744190070128724 0.0004512147405009159 0.0007531986555093795 0.00030818452569381094
          -0.0002183199058904961 -0.0004447112602008474 0.0001539997993820208 -0.00307363884513423 -0.002234336375599888 -0.004964311303843338
          -0.004853381555133929 -0.008081037321006956 -0.011061962487985966 -0.008681544579622447 -0.010202766226135473 -0.01319208701482033
          0.011310681712601856 0.027292135554684016 0.005606588684998748 0.027057973183139072 0.02998396633421363 -0.020544740702181485
          -0.009531093047165484 -0.010684223981059393 -0.01140804631580039 -0.0031551025250418085 -0.0492463755200756 -0.024367559041603926
          0.11783088305298728 0.25183900157270855 0.1277867687485843 0.14957288824511572 -0.18683390276294487 0.014892674756826985
          0.157258705625003 0.32099021037724507 0.16819041020608871 0.021060508528746524 -0.03105614952047553 -0.008819350625411282
          -0.00623027131261189 0.00561795213652827 0.0011340140244406882 0.0013452245923550876 -8.194901189884824 0.012578659716885987
          -16.479822468109845 0.010206226697794918 -8.40532865189996 -0.011418283418385577 -0.011119418093486821 0.0027127448609061133
          -0.013390643004837166 -0.01598293240959503 -0.001502890134180035 0.014987517251571436 0.007940667352684727 -0.026309822729737142
          -0.07772142692807904 -0.14591137014068334 0.05106836677034021 -0.13280434554992393 -0.13234445355847768 0.1478093538526002
          -0.027476891486042376 -0.08013219908037694 0.00698691952751318 0.07498390205749494 0.10876725773544926 -0.16145638313424548
          -0.1246732701755473 0.9914489155736881 -0.12277342120269275 0.03881267319389714 -0.039884614685239406 -0.27016977874446724
          0.04635432453529731 -0.13857723999217253 -0.03633557003679311 0.1949789525384542 0.12706460090240812 0.37469920704527837
          0.28026903342999976 0.17429625170045338 0.1490959468941626 0.11164408305512197 0.22141318304664992 0.10444074631143252
          0.12018815133197691 0.2421665011737133 0.1226566077646929 0.00982832864693961 0.01986684134064376 0.010167310976832766
          -0.0005601668015930983 0.0011215721728667916 0.0076074183972991705 0.0008642922469963565 0.003025087510145852 0.0051912960630300375
          -0.007779777517084696 -0.013452570677706888 -0.0008015356154400521 0.024777425332598746 0.053260816257184374 0.0297683998192122
          -0.1021251970226622 -0.17442473823525262 -0.0561450404736803 -0.03062690722472894 -0.0268106176844789 0.007591189296187295
          0.01674049933212629 0.044495922270769483 0.03352044870765525 0.0071132317033075765 0.018396337765846482 0.013226299104736938
          0.03486911537605408 0.07272228690827731 0.03193994328636052 0.11096576321710039 0.1915783610374433 0.06404810984453313
          0.02051459514980536 0.026351008617647054 0.0006284175943571668 -0.003543379482062292 -0.015288227008382727 -0.00005288591247776253
          -0.017817062041773468 -0.007997676655175923 -0.012297930757839026 -0.0011461585831966659 -0.0012844220064138767 -0.010626843954234744
          -0.003323327056723002 -0.009684859476333685 -0.013665932667286995 0.005566619585417598 0.01012385349263667 -0.002265238639841627
          -0.0003843955354270179 0.0021019446482535287 -0.00423560046226612 -0.00021899661287250183 -0.007406507188841616 -0.005542154940330057
          -0.13141651460156467 -0.28621582261038014 -0.15455941655870653 -0.13578115808875246 -0.2804288145744849 -0.14391664598482024
          0.0019412129356091157 -0.0038078407165720307 0.0016737448785058007 0.0034735110993535656 -0.0039841138891762995 0.0037223345696144605
          -0.006190335046822426 0.0027503340652037522 -0.018027793558792027 -0.0003364162103878243 -0.0005162037661619046 0.004477673384301717
          -0.0019156675074336604 -0.006160323510894017 0.00344990463440098
        </DataArray>
        <DataArray type="Float64" Name="resid_y" format="ascii" RangeMin="-0.4500859127033917" RangeMax="0.5027985036721254">
          -0.008935068432449737 -0.016368732425852787 -0.00002354641027113233 -0.00009860415430835556 -0.020127084890229296 -0.036254245804985444
          -0.00004915583800719006 -0.00013969119006581297 -0.0133150843857206 -0.015612480933127084 -0.000025207240485602966 -0.000023942427982730306
          -0.00004879865690769758 -0.00025834867801997376 -0.00003317217274339916 -0.000660597132466639 -0.00003968668384100871 -0.0004348622681900373
          -0.00008591772816314396 -0.00038933618447587436 -0.000033917128897100954 -0.0011901567532708844 -0.00009512452520518168 -0.0008239704145213272
          -0.021958651680925444 -0.01535369519998929 -0.07418152912333716 -0.025635453011837905 -0.0883342219936264 -0.010801826163165952
          -0.03202811655559523 -0.018287944096504666 -0.0419086772286231 -0.031696186951299776 0.020158670718169163 -0.010540286477025623
          0.02460612158192358 0.010808301637741196 0.06195855796704231 0.018201362348222214 0.058419696059964624 0.014929983721299871
          0.02811486770348049 0.020372234136480722 0.051207191547437074 0.03317787705255941 0.007644165202293031 0.003121625179286222
          0.000018972364961578666 -0.00030987598596820924 -0.000014781509384605845 -0.0008464584558450124 -0.00011600514341131036 -0.0005506689494220399
          -0.00009004750941637475 -0.0005318999576094559 0.00007045101005515551 -0.0015350525142421509 -0.00003149376309434168 -0.001138481545826138
          -0.00012333694435197676 -0.0006966564371561415 -0.00009209714014567216 -0.0018193344653256484 -0.00010685162916495433 -0.0011907770551611609
          0.0008766212149841565 -0.00016414322651358074 0.0016292416693428728 -0.0011318748803444724 0.0006296073155718195 -0.001085856178836428
          -0.005051550014413805 -0.00348460793838588 -0.008815855733996654 -0.007428880546902047 -0.0038003524510696156 -0.003214458562302916
          -0.016783761854546914 -0.009115003096970529 -0.03199067973812986 -0.01826433075301112 -0.015318734595957978 -0.010785019473742446
          -0.0052221415426623695 -0.004416354211768611 -0.009097266378996306 -0.007761883139744037 -0.005169574436999273 -0.004659263302801298
          0.00657557205633099 0.0027248726079422076 0.010870655191128483 0.0031929982342240783 0.003820698804254526 0.0009252271567100484
          0.015986140994331623 0.007873058428795508 0.029629172996176907 0.013515948970083323 0.013367697184252524 0.005599419195913724
          0.02269504587911151 0.009142927688183304 0.04101219781620862 0.013427027699000997 0.017988710117508022 0.0044531397216900845
          0.0053268827532311075 -0.0012667981749314439 0.011058592745484694 0.00008276125779308613 0.004642126256987816 -0.002022397096381745
          -0.009520894832444518 -0.004605878659875232 -0.024545117857302706 -0.015235849215825943 -0.009711192074338189 -0.006337203065938955
          -0.015929728339138846 -0.0001066148345008934 -0.03483113661124676 -0.00021634745817182555 -0.014997331420311951 -0.0001562805451624516
          -0.00006559140021849662 -0.00013908017374061714 -0.0001893413696738202 -0.000531382657699666 -0.0001377847804686595 -0.00021052039710557982
          -0.007918846943733453 -0.05759088850245387 -0.07600197429780758 -0.021024948969311473 -0.027841267933267043 0.018758652247816726
          0.028795450765854918 0.07613509780630762 0.059671906928701245 0.0006169178760025797 0.010035637137573397 -0.0000629321560877312
          -0.000741098629886965 -0.0011781666542859221 -0.0007060785883937377 -0.0012066778439296915 -0.001790656385023558 -0.0010375974010054974
          -0.0012064717218346673 -0.0020349666129588478 -0.0013006809277545436 -0.0006959887147673059 -0.0003691663288199337 0.00019446491342502148
          -0.005399501184943804 -0.008789266838179974 -0.0038618090649076703 -0.015647470303202182 -0.02796725960378737 -0.012722730980662775
          -0.007054919835565273 -0.013353060452679186 -0.007377392763221913 -0.00000317501752930896 0.0006950294488492284 -0.0006179075473267959
          0.007913394094775565 0.016036563841037018 0.007526790003238543 0.01291756042146662 0.03235840452883721 0.014235615947061315
          0.017536381177226515 0.03707729420611619 0.01602964065369681 -0.014788132547060698 -0.028498282200995487 -0.012726543033062102
          -0.016589376236688203 -0.000026271639316958334 -0.035845139641229866 -0.000002149572849940995 -0.022888918140181173 -0.00009166311989746573
          -0.00010743986692522602 -0.00016101571331875826 -0.00017752367799885147 -0.00007142399772932205 0.00012148992141947611 -0.00011225643890487753
          -0.00015838778457563651 0.000026698025467897235 -0.00035238499872555437 -0.0033243471151862235 -0.013169940266657508 -0.0038647783743061236
          0.0036666889967203534 0.014996555941434755 0.004136440428588052 -0.00015645342630664447 -0.00009951872938062344 -0.00018441096583845552
          -0.00017921453176069821 -0.000008397747955851166 -0.00026231885112160857 -0.00027368616929941865 -0.000080434138743069 -0.0003423531899384687
          -0.0009754355979901871 -0.001488295098047803 -0.001397614384894625 0.0008789351068964613 0.0028686811438699313 0.0019101555344403429
          -0.0035166939163642635 -0.005229571260129046 -0.0017426639470785182 -0.012130017476767285 -0.02228752013695923 -0.011876916833489737
          -0.0072963728832001196 -0.014993539889429988 -0.008687129019514593 -0.0021103212278650203 -0.002579813182549011 -0.0012630197011230387
          0.00601123356499462 0.011974333480338743 0.00545673769224015 0.0008205083581165895 0.00650114463309255 0.001640490422292956
          0.005056789499542261 0.02288527947660596 0.009418571142606205 -0.021179373571458757 -0.03172743090319677 -0.01149285603723311
          -0.015994701808527828 -0.00007713479709041404 -0.03374604255539958 -0.00003207768950504869 -0.020764543359295975 -0.00009034052027041828
          -0.00004952448664195461 -0.00009683218226881098 -0.00014751931142691988 -0.00016934131592277572 0.00011955860622879684 -0.00014320967385851417
          -0.00017572571887275804 -5.331587718884756e-7 -0.00020949030573491276 -0.00007087066926966725 -0.000001441110615646446 -0.00014329945218662966
          -0.00012332097107625728 -0.00007534234450225219 -0.00015622109641907737 -0.00015968745901065592 -0.00004578900170283391 -0.00021354861395231697
          -0.00028347925319899975 -0.0000799135504696109 -0.0003157071197846526 -0.00034249152549230017 -0.0031407459596218433 -0.003202126101503692
          -0.002880090587215108 -0.003178936622671976 -0.0013780500656498974 0.00267635055995543 0.007229392825376109 0.004186252459871129
          -0.0015821850699532791 -0.0005421022310139675 -0.00014446825694050536 -0.010055311047859596 -0.018770991604401127 -0.01029329514559641
          -0.009247965668096249 -0.017902164879737312 -0.009707608980880272 -0.0048848220629693 -0.006656756385361527 -0.0030515033673097214
          0.005936551977528334 0.012748274766212306 0.004793715535979438 0.0033426060450816933 0.00824432923216853 0.0030760422438721874
          -0.012804315091542895 -0.02383915504499025 -0.006264260799064794 0.009261493962316264 0.011269287165270571 0.00039104539622635687
          -0.016088793648413646 -0.00007367390144871755 -0.03409394909057817 -0.000053331605976467134 -0.022194609696310614 -0.000058615873562699317
          -0.0001768820325955345 -0.00004876044743177578 -0.00009091228286023617 -0.00018787654791584465 0.000042885266908824354 -0.0000976049998967117
          -0.00017817183002614284 -0.0000034823026186063533 -0.00020249743902903475 -0.00013838838648084074 -0.000042712677928463455 -0.0002308437151678016
          -0.0000807822568048358 -0.00003765278686935526 -0.000205020391221198 -0.00022575143952204934 -0.000048907571389433867 -0.00025040321173920316
          -0.00034492693371880254 -0.000048849901015896556 -0.0003295570055940212 -0.004580750157483077 -0.01219301380368608 -0.007720403811906177
          -0.0022360892990257366 0.000922224527471649 0.0016600784820890828 0.00602901706523639 0.013004695543554115 0.005928111811207698
          0.00027100145531858133 0.0009707213043829849 0.0006491024669978904 -0.006019183314937011 -0.012279329403903042 -0.006158317723434885
          -0.012824911997464314 -0.021657850160256134 -0.010925843930442457 -0.007129101013493566 -0.010295395186947193 -0.004425676265092771
          0.000987850596265669 0.006474114220403893 0.0026342925336814427 0.01222209882766067 0.02493764566115708 0.007849326754269706
          -0.005069965880492383 -0.013618867836321115 -0.009385540954024621 -0.02640531065703866 -0.045235806193223364 -0.005996229406900727
          -0.016808403574861918 -0.000058758751389123565 -0.036998167271433104 -0.000046285360011236176 -0.027329454592992655 -0.00005430032894864628
          -0.00013137355172781898 -0.00003360524293826014 -0.0000782999714994204 -0.00015795204705559493 0.00001940962776779409 -0.00012835719555717023
          -0.0001875430174423133 -0.000002474713013206342 -0.0002341735644660163 -0.00014329344552067944 -0.00006822628971246171 -0.00023587320988744265
          -0.00009520838840745838 -0.000037075798462663304 -0.00021030889178639753 -0.00026518049643019063 -0.00004629070622152098 -0.0002291308733225507
          -0.00032607082482559793 -0.00007148984381520401 -0.0003576690350338011 -0.01519465728120564 -0.028583587520464 -0.01545358563450443
          0.006918737383891732 0.01556193232737979 0.009610594317285316 0.009141818463276122 0.01710185318753865 0.006473420132320079
          -0.000050968219607358534 0.00007157065999412876 -0.0012727206303409372 -0.0017950240932615505 -0.006123629110140361 -0.0030060769151670913
          -0.009011086760437173 -0.01743930328724143 -0.009453400951564231 -0.006519203830746431 -0.009397668961575442 -0.004637349695439316
          -0.0038075386847499296 -0.003824933196466415 -0.0010105797992856075 0.007355102104932277 0.01632504302992935 0.007053679918809369
          0.0037540209085742543 0.009149790390770391 0.000443981081247824 0.020397290205363808 0.03310163925295145 0.059422714997404466
          -0.0181010146703832 -0.00005173112919251016 -0.043402652430531555 -0.000052720552189494674 -0.038862993025401874 -0.00005771857704486849
          -0.00008180838824281902 -0.000011574964330454338 -0.00007017164114465728 -0.00010983807520210942 0.000020264522938871765 -0.00014418067279902552
          -0.00018710095822054018 -0.000014235374445802085 -0.00022741703514526923 -0.00014775442736606262 -0.00005730558012222078 -0.00017584520544178944
          -0.00011906700087173892 -0.000073975802268594 -0.0001238214484159967 -0.0001831533264009793 -0.00010309383623731926 -0.00027203423562566307
          -0.0028325952332550397 -0.01279384779700711 -0.006832379527643733 -0.021962034930309876 -0.035407526515266186 -0.015721602904772224
          0.018638416278577787 0.03677243065115379 0.01724809284446368 0.008790911006604785 0.01712332702583005 0.00743448456446557
          0.0002896515269105726 0.002623882286927212 -0.0008407951492823001 0.000301180115052993 -0.0006488334540521723 -0.0016442529593905658
          -0.004028166254525539 -0.0071588917618285175 -0.003384212810840795 -0.007082527073332241 -0.010367321159007126 -0.004366172233972371
          -0.004511127564005714 -0.008276102259147614 -0.004390183063969932 0.0012879277338143907 0.0011649327304060694 -0.0024987870489421027
          0.002146627078398848 0.0046432325725510384 0.0019583185695919852 -0.043200575122162736 0.019972669421699975 0.07336750073322804
          -0.023630342347189554 -0.00005395917152126173 -0.05621352031658358 -0.00007297469467601458 -0.07077900249148485 -0.00005326050585461456
          -0.00003543850555061748 0.000017583194319929774 -0.00005049124829992202 -0.00003208593374134927 0.000034462084608048726 -0.00014935922183250544
          -0.00022852851987192196 -0.00007559327137005023 -0.000163090661812422 -0.0001395406364627788 -0.000020696181661729665 -0.00010296155204642977
          -0.00017618542845298265 -0.00003097780991853302 -0.00032738658906259757 0.0019319908099440911 0.0015495911926804511 0.00026457983702559296
          -0.01377641971207104 -0.04513924318254752 -0.02204037132691464 -0.015955412349532794 -0.008000203572674862 -0.0012057405869882812
          0.023955790214253828 0.046151702148387326 0.0206792701084984 0.005529233478168798 0.013502455408644417 0.0077120623666126625
          0.007905057209744229 0.014930629058251724 0.0028106110749576 -0.0026023815182956017 -0.0038269502519187315 -0.0034749277397868317
          -0.00422202191762823 -0.0039562856392430235 0.0005651367786703027 -0.0034652051871267436 -0.0046005441775199135 -0.0024541724803508747
          -0.001410101107833621 -0.003179148440027535 -0.0030277986866325823 0.0021078251866783956 0.003844590967354511 -0.0008803260403098812
          0.002280351969052484 0.0022266583049069394 -0.007330153771330394 0.02908383420678707 0.02812235739752151 0.0014545825264623627
          0.07656799884102672 0.0030587088250074133 0.15197496746683037 0.008974210265988119 0.04250933641624452 0.004745003819228292
          0.007740356980260123 0.015366978980419612 0.008446421359630987 -0.00005289320597706877 -0.000039018807915123296 -0.00020961266223067446
          -0.0003035414282710012 -0.000052969347215379645 -0.0002655576104534478 -0.00034232841110698464 0.00007137876981691896 -0.00014731294751150516
          -0.0013429366218716925 -0.0029715840359941237 -0.0010662087067200357 -0.012976701538222273 -0.04038512536800787 -0.0019601110907354596
          -0.03829594943133611 -0.052482467496462945 -0.040465087950759135 0.039546631866054935 0.07553747165666741 0.033597250624046116
          0.015989531183753652 0.028254748009196636 0.010779586131033886 -0.004055627729568856 -0.006069147140971731 0.00021261290205858152
          -0.006606123397621982 -0.005329968331805018 -0.0029316206974709103 -0.0011258138720135202 -0.001393928800130645 -0.00868748692000576
          0.0014302347751107836 0.004248583942855655 0.0013206169898498654 0.0019296401890981918 0.0017144616576350025 -0.00177850675603608
          -0.005627058459126366 -0.003899123661884163 -0.0017396757614840386 -0.004332200574154954 -0.00864821998348475 -0.008291003457214896
          -0.0028723715490092117 0.010014413943518874 0.009840412735429238 0.017411118257808944 0.03859639953126104 -0.0023587044425896764
          -0.004516196384890092 -0.10574130327716569 0.023453840369214385 -0.2561987404179147 -0.4500859127033917 -0.11039219810347156
          -0.0039566720709383885 -0.09875381030927122 -0.00912640127392042 -0.12115616528281992 -0.008712779741557486 0.24932790505795654
          0.005239217569457874 0.013240225683486193 0.010953336154458412 -0.0005807348562109349 -0.00028966260224676244 -0.0005464972827679132
          -0.000589170417524279 -0.00029450162684206 -0.0004883327646507847 -0.0007033959562978212 -0.0011967266756822588 -0.00015409827954925362
          -0.004663159293036234 -0.007513480477253474 -0.0031128392695946097 -0.0015370593029481183 -0.005745421066958856 -0.005728635408502658
          -0.0021111074549964304 0.0008521179992561079 0.00010519295383870642 0.003187494673878799 0.008806283901668932 -0.0004992042334935887
          0.0022195970858176484 0.012006403871135385 0.0024822419741162838 -0.0152733273506519 -0.029279214029319434 -0.019408847989337397
          -0.01168372773146198 -0.019936024780611517 -0.007641913215553187 -0.003576956091457917 -0.019546057126278327 -0.004825016856462527
          -0.08232633478672025 -0.16246794014978858 -0.08391726154140855 -0.020554782861781362 0.0019046283626988902 -0.007133437139599685
          0.058660271783546325 0.12335185314322183 0.06637324639572995 -0.026100139699163916 -0.034060103016576415 -0.02861209283071936
          -0.0012754908909089896 -0.005061924221829127 -0.00199635351625492 -0.014716500265129565 -0.01032041777384992 -0.030768625459792698
          -0.019410006029248042 -0.015796158021423236 -0.009245017206454556 -0.0112189765657712 -0.02385200511804675 -0.013515266378555886
          -0.015229971626882971 -0.027952497287955715 -0.015729644555436212 -0.017623520800284176 -0.041233523494571184 -0.030481369411565595
          -0.021214743622479437 -0.013981048114635991 0.004278355165591441 0.05166461517997034 0.047597124628407095 -0.01786079246043737
          -0.18557533467356746 -0.013484729502664217 -0.022667599139005234 0.21106810372054124 0.030707529024084468 0.00809426407936431
          0.39629267863178963 0.5027985036721254 0.009163814046145191 -0.13700383549919581 0.014387257452369129 -0.17944341544010023
          0.11438922398552798 -0.08755334641469781 -0.017854547749502125 0.0316024674709543 -0.18387418318557097 0.08258194384649531
          -0.27781930221462225 0.05089682319633976 0.11904432740151438 -0.012925265037649125 -0.030728721767065828 -0.018631852140325686
          0.03230766227845917 0.06732363738823337 0.033874334413976165 0.004807281581624821 0.011100980912225458 0.004702723227168269
          -0.00021890594156335347 -0.0006619440543385591 -0.0029528598858709863 -0.0015300350318113026 -0.00003152011830580975 0.0011300495826482432
          -0.003366945323650736 -0.0048694095437999615 -0.0017402246700419094 -0.0064823993999961645 -0.02230163183529012 -0.01806828444510645
          -0.02511062235242989 -0.048416820802500204 -0.025438122537479766 0.026364809130993448 0.0459036260282551 0.02147668327503348
          0.009012699242565203 0.02361232095345206 0.013113985622150486 -0.00886137574112715 -0.014266962241230724 -0.005974846947226491
          -0.033537693871491 -0.06763016896186269 -0.03706768659352786 0.006715129100926087 0.04235815182510519 0.017182760682962747
          0.013338109300046586 0.009320179470294176 -0.001818232625985905 -0.0016501247485116166 0.01935530133486081 -0.001042816425826043
          0.03457809715189428 -0.0033312250600080473 0.0013179904176271184 -0.0017808453368812205 -0.0001811494278651793 -0.003392067387553932
          -0.002613205320874612 0.0009177343258033321 -0.00044927231498625986 -0.006245227189598301 -0.00889290195162129 -0.0055534204382030605
          -0.007842524981386267 -0.004793612391471802 -0.00984280613087829 -0.0035437106777238547 -0.003560330092445163 -0.003378874684334371
          -0.07453330198808561 -0.15660461988035113 -0.08082194475653698 0.07840635251516298 0.1641238425209277 0.08376587973719285
          -0.006426903723287081 -0.0122211296595921 -0.007565273094127134 -0.015681331834036194 -0.018568155656349283 -0.03335901357691795
          -0.022031986392498037 -0.01951775961322344 -0.013514350856461688 -0.006802599660580916 -0.012535462221203941 -0.007017690818507116
          0.00016234139275045356 -0.0008150722112776343 -0.001322989355771631
        </DataArray>
        <DataArray type="Float64" Name="resid_z" format="ascii" RangeMin="0" RangeMax="0">
          0 0 0 0 0 0
          0 0 0 0 0 0
          0 0 0 0 0 0
          0 0 0 0 0 0
          0 0 0 0 0 0
          0 0 0 0 0 0
          0 0 0 0 0 0
          0 0 0 0 0 0
          0 0 0 0 0 0
          0 0 0 0 0 0
          0 0 0 0 0 0
          0 0 0 0 0 0
          0 0 0 0 0 0
          0 0 0 0 0 0
          0 0 0 0 0 0
          0 0 0 0 0 0
          0 0 0 0 0 0
          0 0 0 0 0 0
          0 0 0 0 0 0
          0 0 0 0 0 0
          0 0 0 0 0 0
          0 0 0 0 0 0
          0 0 0 0 0 0
          0 0 0 0 0 0
          0 0 0 0 0 0
          0 0 0 0 0 0
          0 0 0 0 0 0
          0 0 0 0 0 0
          0 0 0 0 0 0
          0 0 0 0 0 0
          0 0 0 0 0 0
          0 0 0 0 0 0
          0 0 0 0 0 0
          0 0 0 0 0 0
          0 0 0 0 0 0
          0 0 0 0 0 0
          0 0 0 0 0 0
          0 0 0 0 0 0
          0 0 0 0 0 0
          0 0 0 0 0 0
          0 0 0 0 0 0
          0 0 0 0 0 0
          0 0 0 0 0 0
          0 0 0 0 0 0
          0 0 0 0 0 0
          0 0 0 0 0 0
          0 0 0 0 0 0
          0 0 0 0 0 0
          0 0 0 0 0 0
          0 0 0 0 0 0
          0 0 0 0 0 0
          0 0 0 0 0 0
          0 0 0 0 0 0
          0 0 0 0 0 0
          0 0 0 0 0 0
          0 0 0 0 0 0
          0 0 0 0 0 0
          0 0 0 0 0 0
          0 0 0 0 0 0
          0 0 0 0 0 0
          0 0 0 0 0 0
          0 0 0 0 0 0
          0 0 0 0 0 0
          0 0 0 0 0 0
          0 0 0 0 0 0
          0 0 0 0 0 0
          0 0 0 0 0 0
          0 0 0 0 0 0
          0 0 0 0 0 0
          0 0 0 0 0 0
          0 0 0 0 0 0
          0 0 0 0 0 0
          0 0 0 0 0 0
          0 0 0 0 0 0
          0 0 0 0 0 0
          0 0 0 0 0 0
          0 0 0 0 0 0
          0 0 0 0 0 0
          0 0 0 0 0 0
          0 0 0 0 0 0
          0 0 0 0 0 0
          0 0 0 0 0 0
          0 0 0 0 0 0
          0 0 0 0 0 0
          0 0 0 0 0 0
          0 0 0 0 0 0
          0 0 0 0 0 0
          0 0 0 0 0 0
          0 0 0 0 0 0
          0 0 0 0 0 0
          0 0 0 0 0 0
          0 0 0 0 0 0
          0 0 0 0 0 0
          0 0 0 0 0 0
          0 0 0 0 0 0
          0 0 0 0 0 0
          0 0 0 0 0 0
          0 0 0 0 0 0
          0 0 0 0 0 0
          0 0 0 0 0 0
          0 0 0 0 0 0
          0 0 0 0 0 0
          0 0 0 0 0 0
          0 0 0 0 0 0
          0 0 0 0 0 0
          0 0 0 0 0 0
          0 0 0 0 0 0
          0 0 0 0 0 0
          0 0 0 0 0 0
          0 0 0 0 0 0
          0 0 0 0 0 0
          0 0 0 0 0 0
          0 0 0 0 0 0
          0 0 0 0 0 0
          0 0 0 0 0 0
          0 0 0 0 0 0
          0 0 0 0 0 0
          0 0 0 0 0 0
          0 0 0 0 0 0
          0 0 0 0 0 0
          0 0 0 0 0 0
          0 0 0 0 0 0
          0 0 0 0 0 0
          0 0 0 0 0 0
          0 0 0 0 0 0
          0 0 0 0 0 0
          0 0 0 0 0 0
          0 0 0 0 0 0
          0 0 0 0 0 0
          0 0 0 0 0 0
          0 0 0 0 0 0
          0 0 0
        </DataArray>
        <DataArray type="Float64" Name="stress_zz" format="ascii" RangeMin="-13783108.664388008" RangeMax="8193012.544441024">
          161996.14211824455 125972.14530082261 242034.2484851342 21878.416421278234 233150.2864411832 191768.2559410129
          305007.78007314564 -291538.7694521521 304304.4307641219 257564.36658120324 367981.31166115706 -604955.9553255823
          241503.39889280644 -251616.6925188269 519381.74834189686 -939957.6677923463 797260.0977909873 -1628298.6430658656
          -87286.25210623737 -402818.85101110645 53516.14190471571 -830497.9950584534 194318.53591566865 -1258177.1391058005
          559979.7272838292 1516622.8657896833 1347620.869054213 2303790.2913778694 2135262.0108245965 3090957.7169660553
          2834092.5622494663 4913257.695209358 4490976.250627093 6553135.119825191 6147859.93900472 8193012.544441024
          3620304.2239123974 4705175.544663696 3954163.1434196904 5029085.7232514825 4288022.062926983 5352995.90183927
          1639143.689932035 1625235.2620759236 1071659.2728618118 1036203.8507703813 504174.85579158843 447172.43946483906
          112996.07561517268 103489.76961702992 12226.10771293507 -6737.89403620267 -88543.86018930253 -116965.55768943524
          -19088.433706992597 -3322.1221093514478 10943.543400498977 30583.532730891544 40975.52050799055 64489.187571134535
          71765.35354096172 42811.05284276335 57903.20210660451 39534.236280988276 44041.05067224731 36257.41971921321
          218138.15642752725 210505.84391739266 207172.1047481646 194151.17438768595 196206.05306880188 177796.5048579793
          765960.729730958 877329.7257871391 776908.8975505547 841785.8815838302 787857.0653701511 806242.0373805214
          2342848.448016545 2546931.4053317457 2343764.134905326 2511842.3827367835 2344679.8217941076 2476753.360141822
          3937942.6919965823 4082892.3646122287 3830078.1409756974 3977489.083684678 3722213.589954813 3872085.802757127
          4162490.338630908 4208930.085357469 3995348.5334827984 4057929.440711228 3828206.7283346886 3906928.796064988
          3208911.633078548 3151016.5830427897 3021481.665076574 2984608.8315704274 2834051.6970745996 2818201.080098065
          1701445.470550262 1486287.3277106876 1410151.5881518733 1255595.6083142832 1118857.7057534845 1024903.8889178789
          791855.6600692279 557983.3852295867 364483.2220766705 230261.098138861 -62889.21591588692 -97461.1889518647
          1294196.9131104283 1219488.0965015122 759568.3169673475 765994.979186659 224939.72082426696 312501.86187180574
          109433.58033479335 313170.9372850838 186430.68852457937 329020.324282525 263427.79671436537 344869.7112799662
          407082.60224741313 569041.1513908945 730999.7005343759 74251.85522686681 134546.769059053 194841.68289123924
          69864.36017419514 1060149.3421148676 2050434.32405554 1455248.4423268822 3464196.3578570695 5473144.273387258
          2367865.40451682 2911428.0717497543 3454990.7389826896 1076080.5628520623 709085.1936050188 342089.8243579756
          -19270.292167547304 -21907.46073261188 -24544.62929767646 9067.904354109749 5685.000939633346 2302.0975251569434
          166180.8060700795 129037.40057910347 91893.99508812744 251178.60597162167 247394.66846104088 243610.73095046007
          642889.1777350078 685813.7458050838 728738.3138751597 2073081.3947749385 2057100.4350417 2041119.4753084618
          3623371.805446936 3486804.5039264658 3350237.2024059948 4042187.768542934 3833143.6191488053 3624099.469754677
          3377081.046115936 3127160.6663452773 2877240.2865746194 2187824.917418282 1797207.0066671865 1406589.0959160908
          1330881.8201328875 736716.079339473 142550.33854605872 1411400.4330005962 769256.4020223831 127112.37104416988
          157148.99538774922 3066.6077372954896 196481.8977357893 -152275.77214118792 235814.80008382935 -307618.1520196713
          -273562.0897116173 -621586.7929558397 -969611.4962000622 -246574.29948759446 -472670.08308898786 -698765.8666903813
          752229.1891047726 1147624.707267025 1543020.2254292776 2248079.2770881625 2981024.9099320867 3713970.542776011
          1875657.4550146437 2011284.6022702036 2146911.749525763 295575.7479671375 202190.08872378065 108804.4294804238
          -155721.233671118 -104789.7260791054 -53858.21848709282 96681.65152716413 87399.50552921988 78117.35953127562
          310661.05465097015 302245.159559757 293829.26446854393 302004.9270845115 314133.6579662139 326262.38884791627
          569680.9466984249 566429.8097440333 563178.6727896414 1822228.9247386127 1717204.3212691143 1612179.7177996156
          3236728.18528979 3046326.6775220204 2855925.1697542504 3901449.794996423 3621387.8842502795 3341325.973504136
          3589014.790677181 3228262.6183796767 2867510.446082173 2550713.0225179764 2069338.1435762693 1587963.2646345617
          1642014.0138258683 997564.5880352622 353115.16224465583 1227268.2042383323 614238.5917183912 1208.9791984500362
          236626.08951549622 -81272.4241443974 211168.26337746854 -27003.00028468436 185710.43723944086 27266.42357502869
          -508339.5943472791 -357415.6883375638 -206491.7823278486 -324455.90926777996 -225678.11295917872 -126900.31665057752
          689345.9939368303 425113.4994819875 160881.00502714465 1551610.5217278528 962379.7638554814 373149.00598311005
          938313.6672303989 630216.3825362774 322119.097842156 -12430.647240469 14584.228472830582 41599.10418613015
          -100221.21765683187 -94292.70944172685 -88364.20122662181 315078.54430675873 291490.2898445545 267902.0353823502
          621704.9556589682 631975.3643349379 642245.7730109077 410946.5668217742 429638.8690244376 448331.1712271011
          433966.53700077406 394102.37300490815 354238.20900904224 1390046.2395139576 1261188.02159982 1132329.8036856824
          2721597.3308527684 2512927.892707572 2304258.4545623763 3623956.493577205 3288032.6678135176 2952108.8420498306
          3550758.4801878985 3100706.545998638 2650654.611809377 2331599.6651182044 1825134.4442088346 1318669.2232994642
          854808.735468389 427172.0930522649 -464.54936385929614 -383947.23163738 -453919.28880560905 -523891.3459738382
          470947.89463605493 137698.12764298462 378160.7101909376 98324.19063981439 285373.52574582025 58950.2536366442
          -290520.4442340757 -248057.0775181548 -205593.71080223392 -179291.9529396144 -131668.8469581626 -84045.7409767108
          287468.7420848813 203960.16689640534 120451.59170792944 416472.7178489425 248954.3751345093 81436.03242007605
          37810.00110753646 21402.507706362798 4995.014305189125 -171701.9384619002 -91282.22894520112 -10862.519428502044
          75874.09360352342 25113.832455767482 -25646.428691988454 791273.3381740453 695458.8661461694 599644.3941182932
          1061737.9271429735 1059924.7993420283 1058111.671541083 520145.1098848096 527301.4595867394 534457.8092886691
          342323.7248276289 290709.4062344007 239095.08764117246 879894.8012838302 799350.4233929669 718806.0455021034
          1926403.398857266 1804918.4945079114 1683433.5901585564 2799224.23321359 2587438.174224864 2375652.11523614
          2597920.2746604965 2349770.1268242425 2101619.978987989 793263.3046006069 721266.5554719924 649269.8063433776
          -1965932.4657065338 -1488869.4880888278 -1011806.5104711221 -3796719.4325774917 -2488127.2164291143 -1179535.0002807365
          1078014.4542862964 550390.7132066945 799319.9386988541 367302.2462912875 520625.42311141186 184213.77937588046
          -98995.29221879423 -129099.45346029673 -159203.61470179923 -80424.37167043984 -55880.01360168682 -31335.655532933797
          113693.93624339058 92001.54959505958 70309.16294672858 121899.29897238957 47665.94268037457 -26567.41361164042
          9032.037966531032 -5074.848436823491 -19181.734840178025 -68563.26566022972 -36803.00174031651 -5042.737820403314
          327716.7752897914 258073.44190485645 188430.1085199215 1391531.612777811 1309242.1711133404 1226952.7294488696
          1378950.1296660004 1405449.6523879087 1431949.1751098165 437373.4250450077 465699.8626778661 494026.30031072453
          190745.96377078557 178889.23064208444 167032.4975133833 222197.23335954826 275967.58936143416 329737.94536331994
          577374.652053974 744154.5456520785 910934.439250183 807056.137401244 1110496.5380873303 1413936.9387734167
          -182579.01590502227 418403.3444520336 1019385.7048090894 -3043665.6583295935 -1752095.9775078213 -460526.296686049
          -6868029.633245476 -4577949.343260169 -2287869.053274864 -8200016.351853611 -5112946.26436552 -2025876.1768774297
          2387603.033849323 1321034.1584688693 1604316.1291073668 821184.5465728042 821029.2243654104 321334.9346767394
          82119.54856758169 -27445.431658104768 -137010.4118837912 12511.24834164275 16442.29793237264 20373.347523102526
          37681.32661777046 52764.43581520008 67847.5450126297 -63327.82893885045 -53953.01547056752 -44578.202002284605
          -71762.59270451024 -51576.27300637651 -31389.95330824278 112633.09850314351 95740.96701022662 78848.83551730975
          847248.3259044231 804742.177643502 762236.0293825809 1851666.0686241712 1894595.3067998136 1937524.544975456
          1276992.5074281227 1393873.3282664556 1510754.149104788 65256.8789852611 181218.33058293303 297179.782180605
          -276125.3929195289 -150614.06921485212 -25102.745510175377 -793680.1378946622 -480411.0072331142 -167141.87657156624
          -1548127.7451627646 -872057.3388387458 -195986.93251472723 -2733371.1524117445 -1542959.7306021359 -352548.3087925267
          -5057140.676191047 -3109821.215334216 -1162501.7544773861 -8793210.275245113 -5783305.857952361 -2773401.440659609
          -12325441.737382852 -8376261.703995407 -4427081.6706079645 -12323423.514840577 -8179148.254077076 -4034872.993313577
          3618300.9787333934 1906865.2619095978 3947158.4291847846 1980887.190694734 4276015.879636176 2054909.11947987
          151114.5782867277 74853.85699331429 -1406.864300099096 122157.508157312 141548.1082736212 160938.7083899304
          141370.70960501768 120821.40843762651 100272.10727023531 41833.2093947518 26335.85101701413 10838.49263927644
          -113191.20356754414 -76439.46702853122 -39687.73048951829 214678.70621948998 170289.77085969248 125900.83549989501
          1230273.7785259157 1232067.7953756275 1233861.8122253392 1831666.1871901187 1952349.386641306 2073032.5860924937
          683874.8508117214 743841.3628598981 803807.874908075 -464802.74284331955 -486433.53197966225 -508064.321116005
          -801911.5487686978 -880421.6426648231 -958931.7365609485 -1834886.1752891433 -1759776.6338804387 -1684667.0924717346
          -3656563.509234228 -3223419.1789857987 -2790274.8487373693 -6176739.240487611 -5368616.013424683 -4560492.786361756
          -9192990.934510157 -8064195.151186039 -6935399.367861921 -11978054.409190077 -10706693.914420273 -9435333.419650465
          -13113261.192963121 -12073309.354440577 -11033357.515918033 -10898395.394656932 -10705452.573070347 -10512509.751483763
          -6270794.390021773 -3547194.0388618275 -5377283.266242377 -2992612.63092287 -4483772.142462982 -2438031.222983912
          -297191.26497732254 -184833.62973773456 -72475.99449814654 133272.42662165506 150583.13016470734 167893.83370775962
          103599.52703067439 91095.36104567343 78591.19506067247 142127.6838799761 86138.68850453566 30149.69312909522
          112439.37270188362 58383.979578523446 4328.586455163277 364127.33151579 246410.95663978427 128694.58176377858
          945863.7274982969 843690.045899978 741516.3643016593 754871.2373191691 707584.5813799128 660297.9254406566
          -442689.36526990694 -584436.5306289406 -726183.6959879741 -1172599.749101131 -1409937.1924943205 -1647274.6358875101
          -1457460.1920604627 -1792183.3086409639 -2126906.4252214646 -2680357.7040004274 -3044780.2309408044 -3409202.7578811804
          -5011656.8253422985 -5308799.745840251 -5605942.666338205 -7563832.713094221 -7931390.088622851 -8298947.46415148
          -9569755.060355553 -10283974.174964704 -10998193.289573856 -10284908.220201764 -11689611.996708728 -13094315.773215689
          -9222332.469519002 -11502720.566953504 -13783108.664388008 -6223124.3568462785 -9502050.767121125 -12780977.17739597
          -1317372.4679725931 -6344607.393486448 -11371842.319000302 2636323.726273667 -3448530.3342490843 -9533384.394771837
          3475417.6017905953 6267695.684873729 3648509.3621568955 6159242.541047854 3821601.122523194 6050789.397221978
          656188.8591088951 810778.1526133842 965367.4461178731 327971.006233646 252255.756014276 176540.50579490597
          -29213.22840274044 -28816.00799283132 -28418.7875829222 13281.739361358064 10384.67419182725 7487.609022296436
          -14283.093223903968 -40935.08223730196 -67587.07125069998 -6510811.625232835 -6555786.109011109 -6600760.592789385
          -6492844.043300845 -6609727.172322278 -6726610.301343712 -5744527.620329073 -5991396.759274684 -6238265.898220294
          -4474634.033128254 -4787390.443404264 -5100146.8536802735 -2657784.1404955206 -2956533.306157089 -3255282.4718186576
          2126065.7095440812 3019504.1933677616 3912942.677191442 -190124.26738961507 -515645.36068420624 -841166.4539787977
          3190037.374639186 4438657.623359134 5687277.872079085 1809549.1531213135 1486627.7093904617 1163706.26565961
          4074569.965540249 5481545.722354857 6888521.479169465 2498954.7431095373 2313063.0553228883 2127171.367536239
          4573601.8507667035 5888640.868610875 7203679.886455047 2839959.4804201545 3313073.655242563 2126974.027432331
          2427235.927383437 1413988.5744445072 1541398.19952431 1939938.665042437 1475740.9150140253 1011543.1649856134
          776752.1578404134 630118.7734205121 483485.38900061086 -1558300.1151860296 -901023.8278797818 -243747.54057353365
          -4789035.421071678 -2566188.057521224 -343340.69397076836 -6364524.298328617 -3136796.189741252 90931.91884611262
          -6825631.917099664 -4073979.955160659 -1322327.9932216536 -4017757.4850250822 -6335737.879952561 -8653718.27488004
          1598983.1514311756 -2588789.8073413614 -6776562.766113898 3115669.825399746 1328784.798735166 -1857111.8289264634
          -1691088.5569304097 -6829893.483252673 -4710961.912595985 4650549.597929649 7399510.996412343 4607915.76745247
          7039118.697237737 4565281.936975293 6678726.39806313 1845287.36125612 1913647.3656220392 1982007.3699879583
          1357947.2842351987 1253772.2580772454 1149597.231919292 614574.5026266432 530211.8578392918 445849.21305194043
          -68959.94766592127 -128028.65417678954 -187097.36068765778 -778314.9899811742 -780074.3848991047 -781833.7798170352
          -312680.9549724998 -369201.47778626153 -425722.0006000233 -1061239.091105498 -1021447.7654046903 -981656.4397038827
          -255017.97655789356 -326120.0674183498 -397222.158278806 -539286.9314335502 -597894.3054890475 -656501.679544545
          -1565314.9932210513 -1641185.9176530992 -1717056.8420851468 -2545242.3821997573 -2608382.6833715895 -2671522.9845434213
          -3428266.139688509 -3421425.2466323096 -3414584.35357611 -4550617.857845572 -4546182.068576102 -4541746.279306633
          -5794345.854976021 -5820546.124107928 -5846746.393239835 -3087029.203734851 -4034935.065606108 -2872863.5344738234
          -3872532.055881908 -2658697.8652127953 -3710129.0461577084 -1584273.5307777384 -1299748.174330827 -1015222.817883916
          -19496.94684782508 389613.84603818296 798724.638924191 1274545.1895972495 1882924.5966697393 2491304.003742229
          5803595.293164549 4988813.452435297 5575494.086867799 4763186.598203004 5347392.880571051 4537559.743970712
          6578278.931998486 6455689.442262514 6333099.952526541 6732145.470120315 6659144.107649405 6586142.745178495
          6318436.299331835 6178945.208556212 6039454.117780589 3034339.6773715443 2980657.0852362704 3026847.2476020553
          -531743.29929092 3019354.817832566 -4044143.6838181103 5012096.653432245 6182890.8935641665 7353685.133696087
          5720138.033362323 5582794.529531291 5445451.025700258
        </DataArray>
        <DataArray type="Float64" Name="peeq" format="ascii" RangeMin="0" RangeMax="0.010293360432134467">
          0 0 0 0 0 0
          0.000003967627975064111 0 0 0 0.000007935255950128223 0
          0 0 0.000010302388907044012 0 0.000020604777814088024 0
          0 0 0.000006334760931979901 0 0.000012669521863959802 0
          0 0 0 0 0 0
          0 0 0 0 0 0
          0 0 0 0 0 0
          0 0 0 0 0 0
          0 0 0 0 0 0
          0 0 5.115861067272581e-8 1.0231722134545162e-7 1.0231722134545162e-7 2.0463444269090325e-7
          9.491502136312027e-7 0.00000101708797768927 9.049769164278605e-7 0.0000010201386675456793 8.608036192245184e-7 0.0000010231893574020885
          0.000011140371141563005 0.000010937511980403702 0.000011065298319783293 0.000010997727071499524 0.000010990225498003582 0.000011057942162595345
          0.00005061806909763839 0.000050597146748223724 0.00005081192057175953 0.00005079135666259067 0.00005100577204588065 0.00005098556657695762
          0.00014249035270663904 0.00014344062760311176 0.00014232108748467155 0.00014301693904984135 0.00014215182226270405 0.00014259325049657096
          0.00027587754900883856 0.000277670419908128 0.0002744742871725597 0.0002760399496535888 0.0002730710253362808 0.0002744094793990495
          0.00041351338095618913 0.00041683796487114195 0.0004111052609066425 0.0004140361939755392 0.0004086971408570959 0.00041123442307993644
          0.0005236682574132609 0.0005289228712650996 0.0005212218831086942 0.0005257296119528889 0.0005187755088041276 0.0005225363526406783
          0.0005750759373475459 0.0005805360223926898 0.000574384531887422 0.0005785633045559962 0.000573693126427298 0.0005765905867193026
          0.0005498406722943691 0.0005509289748278095 0.0005542021103086699 0.0005536331382662604 0.0005585635483229709 0.0005563373017047113
          0.0004616522209571642 0.0004533352464734013 0.0004754118730484162 0.0004654617350839357 0.0004891715251396682 0.0004775882236944701
          0 0 0 0.000003967627975064111 0 0.000007935255950128223
          0 0.000010302388907044012 0.000020604777814088024 0 0.000006334760931979901 0.000012669521863959802
          0 0 0 0 0 0
          0 0 0 0 0 0
          0 0 0 0 0 0
          7.112121644802219e-7 6.257110290814982e-7 5.402098936827745e-7 0.000011602782075609247 0.000011352663932207566 0.000011102545788805884
          0.000052721214686628994 0.000052620773528684466 0.00005252033237073996 0.0001432646110428767 0.00014300254546022168 0.00014274047987756664
          0.00027158634938516087 0.0002706009406999078 0.00026961553201465473 0.00040347789313970554 0.00040226582501247946 0.0004010537568852533
          0.0005087793427387521 0.000508592603553185 0.0005084058643676177 0.0005602485156912259 0.0005633974333313141 0.0005665463509714021
          0.0005475498704270376 0.0005573810449523105 0.0005672122194775833 0.0004872713324391521 0.0005079623305471751 0.000528653328655198
          0 0 0 0 0 0
          0 0 0 0 0 0
          0 6.603553308583646e-9 1.3207106617167291e-8 0 6.603553308583646e-9 1.3207106617167291e-8
          0 0 0 0 0 0
          0 0 0 0 0 0
          2.7138714250690894e-7 2.3119404783310464e-7 1.9100095315930031e-7 0.00001227201854944524 0.000012159987161630552 0.000012047955773815866
          0.000056728393066455296 0.00005654646147538857 0.000056364529884321856 0.00014545035230886336 0.0001451205661513717 0.00014479077999388006
          0.00026479966268905003 0.00026474080551417215 0.00026468194833929426 0.00038735156096149316 0.0003884921196849452 0.0003896326784083974
          0.00048659530475142834 0.0004907319794493611 0.000494868654147294 0.0005407157963405107 0.0005508366067105299 0.0005609574170805492
          0.0005493554941436301 0.0005696812818396938 0.0005900070695357576 0.0005370416474672286 0.0005721547065297201 0.0006072677655922117
          0 0 0 0 0 0
          0 0 0 0 0 0
          0 6.603553308583646e-9 1.3207106617167291e-8 0 6.603553308583646e-9 1.3207106617167291e-8
          0 0 0 0 0 0
          0 0 0 1.224035315115515e-7 6.120176575577575e-8 0
          1.2318473432480634e-7 6.159236716240317e-8 0 0.000013890349515949971 0.000014263439419785981 0.000014636529323621994
          0.00006132844680816915 0.00006199368800358946 0.00006265892919900976 0.00014615685610428944 0.00014705988847342892 0.0001479629208425684
          0.0002551661485550292 0.000257481526719306 0.0002597969048835828 0.00036717998098167195 0.00037257683599551175 0.0003779736910093514
          0.00046171834436906415 0.0004729981643668445 0.0004842779843646248 0.0005255493273541936 0.0005466171820655288 0.0005676850367768641
          0.0005698920519183642 0.0006057956124438936 0.0006416991729694229 0.0006304972294368772 0.0006859257141423677 0.0007413541988478584
          0 0 0 0 0 0
          0 0 0 0 0 0
          0 0 0 0 0 0
          0 0 0 0 0 0
          0 0 0 1.224035315115515e-7 6.120176575577575e-8 0
          1.224035315115515e-7 9.941350638793683e-8 7.642348126432217e-8 0.000017208526237502903 0.00001816485341757315 0.000019121180597643396
          0.00006879941652235989 0.0000708724153566902 0.0000729454141910205 0.0001482528271237217 0.00015153617492178254 0.00015481952271984337
          0.00024548460765805655 0.00025164366611277227 0.00025780272456748794 0.0003480511588213029 0.0003594877852710937 0.00037092441172088456
          0.00044384094481111013 0.0004642621009589301 0.0004846832571067501 0.0005314777036733578 0.0005655340091259091 0.0005995903145784605
          0.000635865413165391 0.0006882036353364606 0.0007405418575075304 0.0008042252000882738 0.0008768195879539514 0.0009494139758196288
          0 0 0 0 0 0
          0 0 0 0 0 0
          0 0 0 0.0000012996033748125235 6.498016874062618e-7 0
          0.000002304885326823069 0.0000011524426634115346 0 0.0000010052819520105457 5.026409760052728e-7 0
          0 0 0 0 0 0
          1.3789108754643832e-7 5.208979870605581e-7 9.039048865746778e-7 0.00002239702590688724 0.000024165674522028276 0.000025934323137169315
          0.00008038555156148203 0.00008384857553031564 0.00008731159949914923 0.00015601026562491767 0.00016161272216514932 0.00016721517870538102
          0.0002427120569048689 0.0002524018613912002 0.0002620916658775315 0.00034053735866165563 0.0003571286938307984 0.0003737200289999412
          0.0004508982132260867 0.0004777574371733391 0.0005046166611205915 0.0005869061243026338 0.0006274222442814614 0.0006679383642602889
          0.0007898755987576462 0.0008461509265865607 0.000902426254415475 0.0011105631080295913 0.001180442428371821 0.0012503217487140506
          0 0 0 0 0 0
          0 0 0 0 0 0
          0 0 0 0.0000012996033748125235 6.498016874062618e-7 0
          0.000002304885326823069 0.0000011524426634115346 0 0.0000010052819520105457 5.026409760052728e-7 0
          0 0 0 0 0 0
          0.0000017587234296230687 0.000002347137911679034 0.000002935552393734999 0.0000310674931483381 0.00003307943660530396 0.000035091380062269816
          0.00009720971882975188 0.00010070547720139876 0.00010420123557304564 0.0001745798343848449 0.0001800780824839574 0.00018557633058306988
          0.00025740117600159436 0.0002668614840227047 0.0002763217920438151 0.0003616138154722891 0.0003768306821770666 0.000392047548881844
          0.0005097098479710654 0.0005310217691644628 0.0005523336903578603 0.0007318832453796292 0.0007579817114245156 0.000784080177469402
          0.0010858511720054204 0.001113651325628155 0.0011414514792508898 0.0016184056610077614 0.0016439003687663803 0.0016693950765249992
          0.0000011930907955286568 5.965453977643284e-7 5.965453977643284e-7 2.982726988821642e-7 0 0
          0 0 0 0 0 0
          9.126522856915897e-7 4.5632614284579484e-7 0 0.0000020703497562169963 0.0000010351748781084981 0
          0.0000011576974705254064 5.788487352627032e-7 0 0 0 0
          0 0 0 0 0 0
          0.000006107094648701453 0.000006813800031364505 0.000007520505414027558 0.00004515728460997381 0.00004690395104937 0.000048650617488766204
          0.00012081018900595401 0.0001231704564398263 0.0001255307238736986 0.00020650152069189037 0.00021016716184065276 0.0002138328029894151
          0.0002998215117556135 0.0003062703384421707 0.00031271916512872795 0.00043131700389807367 0.0004402162115490544 0.0004491154192000352
          0.0006461274825818807 0.000654247006927691 0.0006623665312735013 0.0009970701900646201 0.0009988570823523586 0.0010006439746400968
          0.0015519518806021751 0.0015400676748952465 0.0015281834691883178 0.002356669685809592 0.002324984435799208 0.0022932991857888244
          0.00000423093410733878 0.00000211546705366939 0.000003920275435422364 0.0000019900780520433073 0.0000036096167635059485 0.0000018646890504172247
          0 2.9940334332125234e-8 5.988066866425047e-8 0 0 0
          9.865488684684723e-7 4.932744342342362e-7 0 0.0000021442463389938787 0.0000010721231694969394 0
          0.0000011576974705254064 5.788487352627032e-7 0 0 0 0
          0 0 0 0.0000045336360651200415 0.000004974019870981233 0.000005414403676842425
          0.00003005699511112589 0.00003172298917351571 0.00003338898323590552 0.00009046096291607481 0.00009308951932050655 0.00009571807572493826
          0.000180904550124243 0.00018405316995829 0.00018720178979233698 0.0002926024670244707 0.0002968907264973301 0.0003011789859701895
          0.0004345402907569273 0.00044041575589294296 0.00044629122102895856 0.0006439563406977781 0.0006500463521914 0.0006561363636850221
          0.0009751982236543147 0.000977968240465436 0.0009807382572765576 0.001490409193300327 0.0014847021865177497 0.0014789951797351728
          0.0022504038393475756 0.0022293080970232503 0.002208212354698925 0.0032917859525016715 0.0032483888291533636 0.003204991705805056
          0.004586021764260855 0.004519254686575553 0.0044524876088902505 0.00607028597682952 0.005980942224729941 0.005891598472630363
          0.00011405968317943762 0.00021322660840110316 0.00012180699695454932 0.00023079320705842008 0.000129554310729661 0.000248359805715737
          0.000007446378978886046 0.000006410393425339279 0.000005374407871792512 0 0 0
          7.389658277688268e-8 3.694829138844134e-8 0 7.389658277688268e-8 3.694829138844134e-8 0
          0 0 0 0.0011822183710507655 0.0011896571640569358 0.0011970959570631059
          0.0016928879846981727 0.0016977529206994573 0.0017026178567007416 0.002388513551428373 0.0023884328941781137 0.0023883522369278543
          0.0032979864590823907 0.0032899724753967115 0.0032819584917110323 0.004429712882127429 0.00441062837766522 0.004391543873203012
          0.005716831139287812 0.005714532824760286 0.005712234510232761 0.0057473011185161915 0.005716107813644173 0.005684914508772154
          0.006885220422930202 0.006881711682758815 0.00687820294258743 0.007170645572641956 0.007129618004064889 0.007088590435487822
          0.008095537956471187 0.008091087399916343 0.008086636843361502 0.008613412749230463 0.008566662922217805 0.008519913095205145
          0.00927021871172527 0.009265051960372738 0.009259885209020208 0.00037981604494725674 0.00036252453373317975 0.00040790264026881976
          0.00038715739209397584 0.00043598923559038283 0.0004117902504547719 0.0004399759988663697 0.0004773987072888082 0.0005148214157112468
          0.0005605120123418931 0.0006139507118667225 0.0006673894113915519 0.0007669850469724058 0.0008425460391289646 0.0009181070312855235
          0.0011022400060889058 0.0011935078372815881 0.0012847756684742707 0.0016239359232044436 0.0017012648128290745 0.001778593702453705
          0.0023880669171018366 0.002405022698505935 0.002421978479910034 0.003420266820797888 0.003367453652852328 0.0033146404849067686
          0.004766123256679476 0.0046831030572332885 0.0046000828577871 0.007670663310115658 0.006358636637959218 0.007563113630081639
          0.006242189235606386 0.00745556395004762 0.0061257418332535535 0.0001234358915983739 0.00022355156029207475 0.00013181397642727927
          0.0002435824065637346 0.00014019206125618464 0.0002636132528353945 0.000011660111452336526 0.00001002277314541196 0.000008385434838487394
          0 0 0 0 0 0
          1.4527086632472435e-8 1.281044332125053e-7 2.4168177979253816e-7 0.000010601557346421918 0.000011388020555457364 0.000012174483764492809
          0.000004040291724829262 0.000004522064276729233 0.000005003836828629204 0.00005136214652625479 0.00005331866962682341 0.00005527519272739203
          0.000023327239027828735 0.000024588099834329316 0.000025848960640829898 0.00006378356314299691 0.00006590553519907652 0.00006802750725515612
          0.0001321511386216297 0.00013552662598446589 0.0001389021133473021 0.00023310141642196895 0.0002378535564571049 0.0002426056964922409
          0.0003670031389933133 0.0003732453381600486 0.00037948753732678384 0.0005521310161361825 0.0005598386465335797 0.000567546276930977
          0.0008147271654547212 0.0008230145591138101 0.0008313019527728991 0.002118373942501974 0.0015581665208944501 0.0021244751651780204
          0.001565931541357814 0.0021305763878540665 0.0015736965618211776 0.0028152439498202357 0.0028190904106537846 0.0028229368714873335
          0.003654784400306985 0.0036561300631556045 0.003657475726004224 0.004629367890324757 0.0046285797759357435 0.00462779166154673
          0.006932094377528895 0.0059652611034741974 0.0069266637457169305 0.0059596161173096785 0.006921233113904967 0.00595397113114516
          0.007888881101348815 0.007884516361381565 0.007880151621414318 0.008806782366650792 0.00880368322470804 0.00880058408276529
          0.009615386785264808 0.009613470106399472 0.009611553427534138 0.0099845787217937 0.009288504208674678 0.009937915457596496
          0.009179149553597703 0.00989125219339929 0.009069794898520729 0.010293360432134467 0.01028798478396296 0.010282609135791453
          0.010197993995726169 0.010197086161943425 0.010196178328160683
        </DataArray>
        <DataArray type="Float64" Name="pe11" format="ascii" RangeMin="0" RangeMax="0.010279061284950637">
          0 0 0 0 0 0
          0.000003957362446718654 0 0 0 0.000007914724893437308 0
          0 0 0.000010284129069446925 0 0.00002056825813889385 0
          0 0 0.00000632676662272827 0 0.00001265353324545654 0
          0 0 0 0 0 0
          0 0 0 0 0 0
          0 0 0 0 0 0
          0 0 0 0 0 0
          0 0 0 0 0 0
          0 0 5.115350110602336e-8 1.0230700221204672e-7 1.0230700221204672e-7 2.0461400442409343e-7
          9.490624962759961e-7 0.0000010169920193503872 9.048911052465801e-7 0.0000010200405282774042 8.607197142171642e-7 0.000001023089037204421
          0.000011139612006019823 0.000010936743595904229 0.000011064441926567524 0.00001099683850730033 0.000010989271847115225 0.000011056933418696427
          0.00005061562863556397 0.00005059481572605465 0.00005080922685552762 0.0000507887465540455 0.000051002825075491284 0.000050982677382036355
          0.0001424816016611748 0.00014343338595317856 0.0001423126083858658 0.00014300991281664135 0.0001421436151105568 0.00014258643968010414
          0.00027584913503754066 0.0002776471206278378 0.0002744448443224401 0.00027601560077961806 0.00027304055360733944 0.0002743840809313983
          0.00041343447228635224 0.00041676721377446456 0.00041102037748953725 0.0004139589954251632 0.00040860628269272236 0.000411150777075862
          0.0005234941967733126 0.0005287601172091497 0.0005210350327694002 0.0005255515854424653 0.0005185758687654881 0.0005223430536757809
          0.0005747798234157108 0.0005802520248397916 0.0005740773063899922 0.0005782629551855131 0.000573374789364274 0.0005762738855312346
          0.0005494578404600567 0.00055055388892907 0.0005538340851340068 0.000553264431928505 0.0005582103298079569 0.00055597497492794
          0.000461280570268817 0.00045297895879863016 0.00047510121282840986 0.00046515366501837343 0.0004889218553880026 0.0004773283712381167
          0 0 0 0.000003957362446718654 0 0.000007914724893437308
          0 0.000010284129069446925 0.00002056825813889385 0 0.00000632676662272827 0.00001265353324545654
          0 0 0 0 0 0
          0 0 0 0 0 0
          0 0 0 0 0 0
          7.111496030519226e-7 6.25653963001551e-7 5.401583229511794e-7 0.000011602059321942117 0.000011351871650067644 0.00001110168397819317
          0.000052718077573732044 0.000052617503665771905 0.000052516929757811766 0.00014325103724639455 0.00014298950791880903 0.00014272797859122348
          0.00027154322922351995 0.00027055753523041364 0.00026957184123730727 0.0004033728786015128 0.00040215746845059395 0.000400942058299675
          0.0005085705642861748 0.0005083788827047369 0.0005081872011232988 0.0005599202010976679 0.0005630739828042394 0.000566227764510811
          0.0005471486860180015 0.0005570196090011329 0.0005668905319842641 0.0004868516281164358 0.000507637535950522 0.0005284234437846081
          0 0 0 0 0 0
          0 0 0 0 0 0
          0 6.601739306660272e-9 1.3203478613320544e-8 0 6.601739306660272e-9 1.3203478613320544e-8
          0 0 0 0 0 0
          0 0 0 0 0 0
          2.713642578806133e-7 2.3117369260841947e-7 1.9098312733622565e-7 0.000012271356600535364 0.000012159231466264084 0.000012047106331992807
          0.00005672386060999967 0.000056541928468235976 0.00005635999632647227 0.0001454291811560519 0.0001451001880597109 0.00014477119496336994
          0.0002647343834439266 0.0002646768379427909 0.00026461929244165516 0.0003872063496194953 0.0003883481704862577 0.0003894899913530201
          0.0004863381213630493 0.0004904808443142256 0.000494623567265402 0.0005403531188072825 0.0005505010568186978 0.0005606489948301132
          0.0005489392864898334 0.0005693363442151714 0.0005897334019405093 0.0005365153561692572 0.0005717477298255677 0.0006069801034818783
          0 0 0 0 0 0
          0 0 0 0 0 0
          0 6.601739306660272e-9 1.3203478613320544e-8 0 6.601739306660272e-9 1.3203478613320544e-8
          0 0 0 0 0 0
          0 0 0 1.2229846298142008e-7 6.114923149071004e-8 0
          1.2307960441091335e-7 6.153980220545667e-8 0 0.000013889668888069375 0.000014262593784555057 0.000014635518681040736
          0.00006132184846517211 0.00006198708376467575 0.00006265231906417938 0.000146126009145627 0.00014702915308397027 0.00014793229702231357
          0.00025507643332671264 0.00025739245125161133 0.00025970846917651 0.00036699572899496905 0.00037239418511963486 0.0003777926412443006
          0.000461426085476347 0.0004727149214405206 0.00048400375740469424 0.0005251863359332283 0.0005462869289591367 0.0005673875219850452
          0.0005694802294424103 0.0006054450937409553 0.0006414099580395004 0.0006296588530971584 0.0006851229208024164 0.0007405869885076747
          0 0 0 0 0 0
          0 0 0 0 0 0
          0 0 0 0 0 0
          0 0 0 0 0 0
          0 0 0 1.2229846298142008e-7 6.114923149071004e-8 0
          1.2229846298142008e-7 9.935796756489341e-8 7.641747214836676e-8 0.000017207588567466675 0.00001816365542733552 0.000019119722287204355
          0.0000687897278212285 0.00007086250121414893 0.00007293527460706935 0.0001482106569028422 0.00015149343997883222 0.00015477622305482222
          0.0002453744755060427 0.0002515307577290316 0.0002576870399520206 0.0003478481361927518 0.00035927523314103273 0.0003707023300893136
          0.0004435637199340509 0.00046396652540892265 0.00048436933088379433 0.0005311847648046409 0.0005652116748758435 0.0005992385849470459
          0.0006353942224067819 0.0006876514205856679 0.0007399086187645538 0.0008022798965643976 0.0008746214364422095 0.0009469629763200216
          0 0 0 0 0 0
          0 0 0 0 0 0
          0 0 0 0.0000012991566159909793 6.495783079954896e-7 0
          0.000002304216591116314 0.000001152108295558157 0 0.0000010050599751253351 5.025299875626676e-7 0
          0 0 0 0 0 0
          1.3788758978406665e-7 5.208677243746795e-7 9.038478589652923e-7 0.000022395419269118862 0.000024163666240674502 0.00002593191321223013
          0.00008037211519120499 0.0000838342733354129 0.0000872964314796208 0.00015595812472840863 0.00016155825975730872 0.0001671583947862088
          0.00024259332747689834 0.00025227134787357596 0.00026194936827025363 0.0003403498850362173 0.00035690229033680156 0.00037345469563738586
          0.0004506842846685665 0.00047745253619038144 0.0005042207877121964 0.000586603304188892 0.0006269487330079613 0.0006672941618270305
          0.0007885257325513536 0.0008445227751294704 0.0009005198177075872 0.0011046664258319901 0.001174150286963597 0.0012436341480952038
          0 0 0 0 0 0
          0 0 0 0 0 0
          0 0 0 0.0000012991566159909793 6.495783079954896e-7 0
          0.000002304216591116314 0.000001152108295558157 0 0.0000010050599751253351 5.025299875626676e-7 0
          0 0 0 0 0 0
          0.0000017586771791470167 0.0000023470460941583056 0.0000029354150091695942 0.00003106447865400883 0.00003307591729534 0.00003508735593667116
          0.0000971918532694319 0.00010068565334406636 0.00010417945341870085 0.0001745209955610958 0.00018001203249924706 0.0001855030694373983
          0.0002572813184753955 0.00026671508537456175 0.000276148852273728 0.0003614222125179004 0.00037656840553849133 0.00039171459855908217
          0.0005093278974054274 0.0005305066211300493 0.0005516853448546714 0.000730463600263509 0.0007564289580095975 0.0007823943157556858
          0.0010800528954262505 0.0011079753267270115 0.0011358977580277728 0.0016005228051444366 0.0016267486306198171 0.0016529744560951976
          0.0000011897022203970783 5.948511101985391e-7 5.948511101985391e-7 2.9742555509926957e-7 0 0
          0 0 0 0 0 0
          9.120818106947038e-7 4.560409053473519e-7 0 0.000002067664117929078 0.000001033832058964539 0
          0.0000011555823072343743 5.777911536171872e-7 0 0 0 0
          0 0 0 0 0 0
          0.000006106868391901443 0.0000068134329444569446 0.000007519997497012446 0.00004515207802635925 0.00004689777313050059 0.000048643468234641925
          0.00012078612401981631 0.0001231413639636036 0.00012549660390739084 0.00020643044734787946 0.00021007628701570521 0.000213722126683531
          0.0002996592853979623 0.00030604576874365507 0.00031243225208934784 0.00043089660150931057 0.00043962960546601026 0.0004483626094227099
          0.0006446553880734353 0.0006524040401700285 0.000660152692266622 0.0009916450299323606 0.0009927690393353535 0.0009938930487383463
          0.0015350248046445605 0.0015221914887965859 0.001509358172948611 0.0023148682375755546 0.0022820515864970282 0.002249234935418502
          0.000004222136887858763 0.0000021110684439293815 0.000003911719442638702 0.0000019857488919485536 0.0000036013019974186406 0.0000018604293399677254
          0 2.9889170629202515e-8 5.977834125840503e-8 0 0 0
          9.859662402950318e-7 4.929831201475159e-7 0 0.0000021415485475294064 0.0000010707742737647032 0
          0.0000011555823072343743 5.777911536171872e-7 0 0 0 0
          0 0 0 0.000004533167380144873 0.000004973406239393842 0.000005413645098642812
          0.00003005313033017758 0.00003171814882561379 0.000033383167321049996 0.00009044455184197163 0.00009306923333134356 0.00009569391482071546
          0.0001808511792489486 0.00018398661846058152 0.00018712205767221438 0.00029244640277227 0.0002966961784360687 0.00030094595409986747
          0.0004340595665250568 0.0004398381251054873 0.0004456166836859177 0.0006424083803200334 0.0006482778094271558 0.0006541472385342779
          0.000970439458539106 0.0009727568023830582 0.0009750741462270101 0.00147731658072213 0.001470767308851343 0.0014642180369805558
          0.002219544029329585 0.0021970159626155646 0.002174487895901544 0.0032305812634530863 0.0031850120188461287 0.0031394427742391707
          0.00448596409368165 0.004416081638047153 0.004346199182412655 0.005932295552982365 0.0058394833962558765 0.005746671239529386
          0.00011335351898477658 0.00021183401236507968 0.00012076811383680316 0.00022872937488456518 0.00012818270868882975 0.0002456247374040507
          0.0000074365128022367435 0.000006403426394520579 0.0000053703399868044145 0 0 0
          7.388442960032799e-8 3.6942214800163997e-8 0 7.388442960032799e-8 3.6942214800163997e-8 0
          0 0 0 0.0011768186557893846 0.0011840911872846734 0.0011913637187799622
          0.0016814687148044949 0.0016860839731234016 0.0016906992314423082 0.0023667562895863534 0.002366331017531565 0.0023659057454767764
          0.003260860095187932 0.0032524367506450626 0.003244013406102193 0.004373633287343562 0.00435414241610332 0.00433465154486308
          0.005679456900256903 0.005676590745386576 0.005673724590516248 0.005673618966988102 0.005642025770722525 0.005610432574456948
          0.006847932100553364 0.006843842254321428 0.0068397524080894894 0.007085885848041144 0.007044532347059737 0.0070031788460783295
          0.008063173682906542 0.008058220538808584 0.008053267394710628 0.008528239349037492 0.008481283077085337 0.008434326805133183
          0.00924653026219667 0.009240995971539798 0.009235461680882927 0.00037951200795314664 0.00036227961679618354 0.00040766979876000697
          0.0003869741809831419 0.0004358275895668672 0.00041166874517010023 0.00043943373489155964 0.00047694437367994103 0.0005144550124683225
          0.0005592860885700387 0.0006127691211844271 0.0006662521537988156 0.0007639092849206907 0.0008392658778853507 0.0009146224708500108
          0.0010944994734588354 0.0011850894307082445 0.0012756793879576535 0.0016050453474315291 0.0016818458345343905 0.0017586463216372518
          0.002345606119114017 0.0023640067685638186 0.0023824074180136203 0.0033391800556797323 0.0032848964759679645 0.003230612896256197
          0.004637349978349084 0.004552933231473644 0.004468516484598204 0.007506888013302397 0.006186222891324726 0.007396467051786643
          0.006068782254079965 0.007286046090270891 0.005951341616835203 0.00012267279655864453 0.0002220551811141324 0.00013066820649560167
          0.00024131335508777602 0.00013866361643255878 0.00026057152906141964 0.000011645206001578346 0.00001001152895171365 0.000008377851901848953
          0 0 0 0 0 0
          1.4527043636209756e-8 1.280997410156435e-7 2.4167243839507726e-7 0.000010599348719880905 0.000011385748565584548 0.000012172148411288194
          0.000004039930103176857 0.000004521616982870932 0.000005003303862565007 0.000051348939879639906 0.00005330496724402363 0.00005526099460840735
          0.000023324113738965233 0.000024584509511493652 0.000025844905284022074 0.0000637717673831527 0.00006589168589707503 0.00006801160441099734
          0.00013211373791776837 0.0001354829486189891 0.0001388521593202098 0.00023299247662433934 0.00023772936905404113 0.0002424662614837429
          0.0003666897793059197 0.00037290024006452957 0.0003791107008231394 0.0005512472737694396 0.0005588950302043174 0.0005665427866391949
          0.0008124240749834123 0.0008206087814366548 0.0008287934878898973 0.0021063357529820807 0.001551207013907591 0.00211232795046132
          0.0015588996108204364 0.00211832014794056 0.0015665922077332819 0.002796520120633491 0.002800183588618218 0.0028038470566029445
          0.003628541597641938 0.003629580974769254 0.00363062035189657 0.0045962577818917955 0.00459501183747656 0.0045937658930613225
          0.006911659699194699 0.005941887684176427 0.006905798117733931 0.005935906951234759 0.006899936536273164 0.005929926218293089
          0.007873633662036484 0.007868804448811894 0.007863975235587305 0.008797267644554605 0.008793744140978561 0.008790220637402521
          0.00960917187335728 0.009606938911186608 0.009604705949015937 0.009912146317582797 0.009120800439998656 0.009865229571535974
          0.009009019803592587 0.009818312825489148 0.008897239167186518 0.010279061284950637 0.0102734531448762 0.01026784500480176
          0.010188378759976515 0.010187307414269962 0.010186236068563408
        </DataArray>
        <DataArray type="Float64" Name="pe22" format="ascii" RangeMin="-0.005327063061668637" RangeMax="0">
          0 0 0 0 0 0
          -0.000001781865600850251 0 0 0 -0.000003563731201700502 0
          0 0 -0.000004757703138645532 0 -0.000009515406277291064 0
          0 0 -0.0000029758375377952806 0 -0.000005951675075590561 0
          0 0 0 0 0 0
          0 0 0 0 0 0
          0 0 0 0 0 0
          0 0 0 0 0 0
          0 0 0 0 0 0
          0 0 -2.5131423465995187e-8 -5.0262846931990374e-8 -5.0262846931990374e-8 -1.0052569386398075e-7
          -4.633965263235396e-7 -4.964198530769611e-7 -4.41874800505962e-7 -4.98153526833622e-7 -4.2035307468838443e-7 -4.998872005902829e-7
          -0.000005460145867039723 -0.000005358452480460445 -0.00000541670254627819 -0.00000538041577323501 -0.000005373259225516657 -0.000005402379066009574
          -0.000025076079839474037 -0.000025049357456104593 -0.0000251397818193087 -0.000025110872562057007 -0.00002520348379914336 -0.000025172387668009424
          -0.00007133127477383102 -0.00007175199636027122 -0.0000712218187740928 -0.00007152050342942673 -0.00007111236277435456 -0.00007128901049858224
          -0.00013949560951443817 -0.00014030267347914355 -0.00013885990190006396 -0.000139587074891747 -0.00013822419428568977 -0.00013887147630435045
          -0.00021163494977408622 -0.0002131476713699648 -0.00021062503048970203 -0.0002120323285277422 -0.0002096151112053178 -0.00021091698568551957
          -0.0002717980035093592 -0.00027427992907251304 -0.0002708955512069029 -0.0002731359473516205 -0.00026999309890444643 -0.00027199196563072796
          -0.0003023648956036525 -0.0003050080283167432 -0.0003022323986565371 -0.0003044073021002579 -0.0003020999017094217 -0.00030380657588377263
          -0.0002918656227980102 -0.0002922988538653589 -0.0002936779927155912 -0.000293534322749074 -0.00029549036263317217 -0.0002947697916327892
          -0.00024586162016588544 -0.00024152529456313466 -0.00025129378911378217 -0.0002464968220769486 -0.0002567259580616789 -0.0002514683495907625
          0 0 0 -0.000001781865600850251 0 -0.000003563731201700502
          0 -0.000004757703138645532 -0.000009515406277291064 0 -0.0000029758375377952806 -0.000005951675075590561
          0 0 0 0 0 0
          0 0 0 0 0 0
          0 0 0 0 0 0
          -3.4746761880684527e-7 -3.0556778036436403e-7 -2.636679419218828e-7 -0.0000056947883323801625 -0.000005566568179276626 -0.000005438348026173088
          -0.000026163311405455367 -0.000026086308792752233 -0.000026009306180049092 -0.00007185549526717221 -0.00007168718508725917 -0.00007151887490734612
          -0.00013758033835975595 -0.00013708248505070597 -0.00013658463174165598 -0.00020692549218485627 -0.00020633533846708976 -0.00020574518474932322
          -0.0002646684929844686 -0.00026454434248553095 -0.0002644201919865933 -0.0002951983728572658 -0.0002964044870123094 -0.000297610601167353
          -0.0002909462281155273 -0.0002946458715573392 -0.00029834551499915106 -0.0002588644321466389 -0.00026655498590527475 -0.00027424553966391057
          0 0 0 0 0 0
          0 0 0 0 0 0
          0 -3.2334469117765705e-9 -6.466893823553141e-9 0 -3.2334469117765705e-9 -6.466893823553141e-9
          0 0 0 0 0 0
          0 0 0 0 0 0
          -1.3266332556419437e-7 -1.129608965464171e-7 -9.325846752863981e-8 -0.00000603977226542728 -0.00000597834731618769 -0.000005916922366948101
          -0.00002823438388309016 -0.00002811684372614376 -0.000027999303569197368 -0.00007316312696900203 -0.00007292645173320165 -0.00007268977649740127
          -0.00013449898123193965 -0.00013434957915707622 -0.00013420017708221278 -0.00019915832983489535 -0.00019948917129625275 -0.00019982001275761018
          -0.00025385377567943806 -0.0002552897284186387 -0.00025672568115783925 -0.00028562783369449245 -0.0002892189747848781 -0.0002928101158752638
          -0.00029177695039227626 -0.00029905091334724563 -0.0003063248763022151 -0.0002828898721465228 -0.0002952194596495701 -0.0003075490471526174
          0 0 0 0 0 0
          0 0 0 0 0 0
          0 -3.2334469117765705e-9 -6.466893823553141e-9 0 -3.2334469117765705e-9 -6.466893823553141e-9
          0 0 0 0 0 0
          0 0 0 -5.6840521404992084e-8 -2.8420260702496042e-8 0
          -5.722282794740025e-8 -2.8611413973700123e-8 0 -0.0000068641519975429664 -0.000007038740566158067 -0.0000072133291347731675
          -0.00003065751303502414 -0.00003094622074830193 -0.000031234928461579733 -0.00007381831269987019 -0.00007410535626289105 -0.0000743923998259119
          -0.0001300579871960769 -0.0001308421449304241 -0.00013162630266477134 -0.00018933228085705954 -0.0001912806163493246 -0.00019322895184158964
          -0.00024136402327478655 -0.0002453991628241802 -0.00024943430237357386 -0.00027745666718871555 -0.00028484166719570475 -0.00029222666720269384
          -0.00030037927702331193 -0.0003126559691357824 -0.00032493266124825277 -0.00032486431457007714 -0.0003427018219496927 -0.0003605393293293084
          0 0 0 0 0 0
          0 0 0 0 0 0
          0 0 0 0 0 0
          0 0 0 0 0 0
          0 0 0 -5.6840521404992084e-8 -2.8420260702496042e-8 0
          -5.6840521404992084e-8 -4.7122644890818234e-8 -3.7404768376644385e-8 -0.000008545889508961915 -0.000009003885478394137 -0.000009461881447826361
          -0.00003455492796258389 -0.00003550881202197675 -0.00003646269608136962 -0.00007518144692677238 -0.00007654193065688391 -0.00007790241438699542
          -0.000125457878914031 -0.00012784085922171696 -0.00013022383952940295 -0.00017953912743430415 -0.00018380147224639415 -0.00018806381705848414
          -0.00023112666659902103 -0.00023849303281270272 -0.0002458593990263844 -0.00027725801987007006 -0.00028898779844449356 -0.000300717577018917
          -0.00032628502151501785 -0.00034303717431480063 -0.0003597893271145835 -0.00039519188927671106 -0.00041568185943024994 -0.0004361718295837889
          0 0 0 0 0 0
          0 0 0 0 0 0
          0 0 0 -6.287209823577274e-7 -3.143604911788637e-7 0
          -0.0000011160803876614145 -5.580401938307072e-7 0 -4.873594053036871e-7 -2.436797026518436e-7 0
          0 0 0 0 0 0
          -6.813401350677185e-8 -2.5587118917918495e-7 -4.4360836485159807e-7 -0.000011176874503918891 -0.000012027559036412269 -0.000012878243568905646
          -0.00004049792029205247 -0.000042095573351135946 -0.000043693226410219406 -0.00007920630716421862 -0.00008161609405309758 -0.00008402588094197652
          -0.00012373307623118746 -0.000127637740902511 -0.00013154240557383456 -0.0001741068745188592 -0.00018044310357412903 -0.0001867793326293989
          -0.0002301768901287363 -0.00023986136008605176 -0.0002495458300433672 -0.00029487507544160543 -0.0003083045578642406 -0.00032173404028687584
          -0.00038110001855127303 -0.00039762965788601843 -0.00041415929722076383 -0.0005028898414743888 -0.0005199434821110279 -0.0005369971227476668
          0 0 0 0 0 0
          0 0 0 0 0 0
          0 0 0 -6.287209823577274e-7 -3.143604911788637e-7 0
          -0.0000011160803876614145 -5.580401938307072e-7 0 -4.873594053036871e-7 -2.436797026518436e-7 0
          0 0 0 0 0 0
          -8.698872188347703e-7 -0.0000011573715177763547 -0.0000014448558167179385 -0.00001553000458882032 -0.000016491125608826913 -0.000017452246628833507
          -0.00004890730476740619 -0.00005050041261330166 -0.00005209352045919714 -0.00008808172071129799 -0.00009041964383362334 -0.0000927575669559487
          -0.0001294049109576709 -0.00013323636683924814 -0.0001370678227208254 -0.000179991793502638 -0.00018588795971227694 -0.00019178412592191587
          -0.00024810699747176464 -0.0002557716317275981 -0.0002634362659834315 -0.00034113732713513813 -0.0003495572498785043 -0.00035797717262187046
          -0.0004740114488178044 -0.0004818649717211037 -0.000489718494624403 -0.000655372594238135 -0.0006616411701139962 -0.0006679097459898572
          -5.350030806276155e-7 -2.6750154031380777e-7 -2.6750154031380777e-7 -1.3375077015690388e-7 0 0
          0 0 0 0 0 0
          -4.4031498221385726e-7 -2.2015749110692863e-7 0 -9.973121447407002e-7 -4.986560723703501e-7 0
          -5.56997162526843e-7 -2.784985812634215e-7 0 0 0 0
          0 0 0 0 0 0
          -0.000003020725585628792 -0.0000033630370451154453 -0.0000037053485046020986 -0.00002250738228917948 -0.000023314536581825255 -0.00002412169087447103
          -0.000060351831026358444 -0.0000613302009025138 -0.00006230857077866918 -0.00010261510845464519 -0.00010397380428919197 -0.00010533250012373873
          -0.0001466978696606506 -0.00014898785828315343 -0.0001512778469056563 -0.00020516781758891627 -0.00020801039902699066 -0.00021085298046506505
          -0.0002931585747853726 -0.0002948824712704317 -0.0002966063677554909 -0.0004224903787919758 -0.00042103542714527417 -0.0004195804754985725
          -0.0006068117523963642 -0.0006006085237015256 -0.0005944052950066868 -0.0008536017235831803 -0.000843036510750771 -0.0008324712979183616
          -0.0000020033410741336598 -0.0000010016705370668299 -0.0000018701230879473395 -9.5002317684704e-7 -0.0000017369051017610195 -8.983758166272503e-7
          0 -1.496163287337028e-8 -2.992326574674056e-8 0 0 0
          -4.7619053387153116e-7 -2.3809526693576558e-7 0 -0.0000010331876963983742 -5.165938481991871e-7 0
          -5.56997162526843e-7 -2.784985812634215e-7 0 0 0 0
          0 0 0 -0.0000022427444461653398 -0.000002453541034876373 -0.000002664337623587406
          -0.000014891019742020773 -0.000015667507589887898 -0.000016443995437755023 -0.000044772774345894044 -0.00004590124719800896 -0.00004702972005012389
          -0.00008895050427166402 -0.00009007529728134389 -0.00009120009029102374 -0.00014175140654605875 -0.00014296726835198115 -0.00014418313015790354
          -0.00020499629492321182 -0.0002062411327865217 -0.00020748597064983165 -0.0002917702550712906 -0.000292062149237579 -0.0002923540434038675
          -0.0004188940167740436 -0.00041641434021541377 -0.00041393466365678407 -0.0006015504625236885 -0.0005945159523984693 -0.0005874814422732504
          -0.0008535575464134442 -0.0008408562086792445 -0.0008281548709450449 -0.0011872921336954674 -0.0011694343016656842 -0.0011515764696359014
          -0.0016110664871498335 -0.001590874585995477 -0.0015706826848411208 -0.0021326142792824133 -0.0021135247881889615 -0.0020944352970955096
          -0.0000529381353894159 -0.00009898042675956918 -0.00005430303061428045 -0.00010262156844816558 -0.000055667925839145 -0.000106262710136762
          -0.0000034479220096313125 -0.0000029922463901976563 -0.000002536570770764 0 0 0
          -3.587555165767391e-8 -1.7937775828836955e-8 0 -3.587555165767391e-8 -1.7937775828836955e-8 0
          0 0 0 -0.000522469348274066 -0.000521915414277137 -0.0005213614802802081
          -0.0007238158919211587 -0.0007210537847093677 -0.0007182916774975767 -0.0009913842258494033 -0.000986187822689515 -0.0009809914195296266
          -0.001338658915739613 -0.0013314973282068613 -0.0013243357406741096 -0.0017786131130001323 -0.0017706114766333895 -0.001762609840266647
          -0.0025327700744622265 -0.0025331150229927534 -0.0025334599715232803 -0.002315621029854806 -0.0023085714241664395 -0.002301521818478072
          -0.00311115522780055 -0.0031142988966449655 -0.003117442565489381 -0.002938556467260619 -0.0029346714698644688 -0.002930786472468319
          -0.0037533744743731 -0.00375942611500341 -0.00376547775563372 -0.0036321432097465123 -0.0036328248778533553 -0.003633506545960198
          -0.004427845259920809 -0.004436837033817078 -0.004445828807713347 -0.00020024089336722007 -0.00019170935019567425 -0.00021075979172238883
          -0.00020103196121289667 -0.00022127869007755756 -0.00021035457223011906 -0.0002293618567235351 -0.0002426617182729683 -0.00025596157982240143
          -0.00028537469326624175 -0.0003025098047364928 -0.00031964491620674383 -0.00037483394275011255 -0.0003957472549995458 -0.000416660567248979
          -0.0005053623121045959 -0.0005260622390517519 -0.0005467621659989079 -0.0006814258977740101 -0.0006953321833726112 -0.0007092384689712123
          -0.0009025359140885829 -0.0009058767775404291 -0.0009092176409922754 -0.0011737313503528781 -0.0011609024983280185 -0.0011480736463031589
          -0.001601321963995579 -0.0015859368990385882 -0.001570551834081597 -0.002758631401905412 -0.002155998328179913 -0.0027436552341440425
          -0.0021393397346272237 -0.002728679066382673 -0.002122681141074534 -0.00005743401614120988 -0.0001039652775003423 -0.000058897590125816705
          -0.00010834094019723712 -0.00006036116411042353 -0.00011271660289413195 -0.000005451377391038737 -0.000004727120027198144 -0.00000400286266335755
          0 0 0 0 0 0
          -7.2391877704510015e-9 -6.345777336053416e-8 -1.1967635895061732e-7 -0.0000052895464123821365 -0.000005661732495704077 -0.000006033918579026016
          -0.0000020079740842310758 -0.000002239560149808608 -0.0000024711462153861403 -0.000025532389111734647 -0.000026400602918131055 -0.000027268816724527466
          -0.000011584789418835559 -0.000012168655409973727 -0.000012752521401111898 -0.00003155868383602337 -0.00003248714999934148 -0.00003341561616265959
          -0.00006497431601170898 -0.00006635271173964642 -0.00006773110746758387 -0.00011358484862323744 -0.00011531831219654285 -0.00011705177576984825
          -0.00017618301035878512 -0.00017811122344925362 -0.00018003943653972212 -0.00025931619808565877 -0.00026115181079259 -0.00026298742349952127
          -0.000371984454860916 -0.00037303396334891143 -0.000374083471836907 -0.000936595587482177 -0.0007004433548227434 -0.0009349028960040296
          -0.0007000462281633178 -0.0009332102045258824 -0.0006996491015038923 -0.0012310220258683097 -0.0012283976232218543 -0.001225773220575399
          -0.0015921717444779277 -0.0015893821267668749 -0.0015865925090558218 -0.002025625366257754 -0.002023808263072636 -0.002021991159887518
          -0.0032569284420902434 -0.0027501593147541046 -0.0032586818914645396 -0.002750018749436295 -0.0032604353408388362 -0.0027498781841184855
          -0.003792060715191296 -0.0037959174250201022 -0.0037997741348489086 -0.004343089060704285 -0.004349110718092868 -0.004355132375481451
          -0.004871118056322609 -0.00487943652688845 -0.00488775499745429 -0.00437361252238965 -0.0034875213388966906 -0.00437938189367259
          -0.0034794157468441486 -0.00438515126495553 -0.003471310154791607 -0.00507509681311152 -0.005087223721107951 -0.005099350629104382
          -0.005305624157875043 -0.005316343609771839 -0.005327063061668637
        </DataArray>
        <DataArray type="Float64" Name="pe33" format="ascii" RangeMin="-0.005633279101101965" RangeMax="0">
          0 0 0 0 0 0
          -0.000002175496845868402 0 0 0 -0.000004350993691736804 0
          0 0 -0.000005526425930801396 0 -0.000011052851861602791 0
          0 0 -0.0000033509290849329937 0 -0.000006701858169865987 0
          0 0 0 0 0 0
          0 0 0 0 0 0
          0 0 0 0 0 0
          0 0 0 0 0 0
          0 0 0 0 0 0
          0 0 -2.602207764002815e-8 -5.20441552800563e-8 -5.20441552800563e-8 -1.040883105601126e-7
          -4.856659699524565e-7 -5.20572166273426e-7 -4.6301630474061815e-7 -5.218870014437819e-7 -4.403666395287798e-7 -5.23201836614138e-7
          -0.000005679466138980098 -0.000005578291115443783 -0.000005647739380289333 -0.000005616422734065318 -0.000005616012621598568 -0.000005654554352686853
          -0.00002553954879608993 -0.000025545458269950057 -0.000025669445036218924 -0.000025677873991988497 -0.000025799341276347915 -0.000025810289714026937
          -0.00007115032688734375 -0.00007168138959290731 -0.00007109078961177298 -0.00007148940938721462 -0.00007103125233620223 -0.00007129742918152192
          -0.0001363535255231025 -0.00013734444714869423 -0.00013558494242237607 -0.00013642852588787108 -0.00013481635932164967 -0.00013551260462704788
          -0.00020179952251226597 -0.00020361954240449967 -0.00020039534699983525 -0.00020192666689742103 -0.00019899117148740452 -0.00020023379139034233
          -0.00025169619326395327 -0.00025448018813663655 -0.0002501394815624974 -0.0002524156380908447 -0.0002485827698610416 -0.00025035108804505275
          -0.00027241492781205826 -0.0002752439965230484 -0.0002718449077334552 -0.00027385565308525513 -0.0002712748876548522 -0.00027246730964746184
          -0.0002575922176620465 -0.00025825503506371114 -0.00026015609241841563 -0.00025973010917943097 -0.0002627199671747848 -0.0002612051832951508
          -0.00021541895010293149 -0.00021145366423549553 -0.00022380742371462756 -0.0002186568429414248 -0.00023219589732632363 -0.00022586002164735408
          0 0 0 -0.000002175496845868402 0 -0.000004350993691736804
          0 -0.000005526425930801396 -0.000011052851861602791 0 -0.0000033509290849329937 -0.000006701858169865987
          0 0 0 0 0 0
          0 0 0 0 0 0
          0 0 0 0 0 0
          -3.636819842450774e-7 -3.20086182637187e-7 -2.764903810292966e-7 -0.000005907270989561955 -0.000005785303470791017 -0.00000566333595202008
          -0.00002655476616827666 -0.000026531194873019665 -0.000026507623577762674 -0.00007139554197922231 -0.00007130232283154984 -0.00007120910368387736
          -0.00013396289086376395 -0.00013347505017970762 -0.00013298720949565134 -0.0001964473864166565 -0.0001958221299835041 -0.00019519687355035176
          -0.0002439020713017062 -0.0002438345402192058 -0.00024376700913670543 -0.0002647218282404021 -0.00026666949579193 -0.0002686171633434579
          -0.0002562024579024741 -0.0002623737374437935 -0.00026854501698511294 -0.00022798719596979692 -0.00024108255004524722 -0.00025417790412069754
          0 0 0 0 0 0
          0 0 0 0 0 0
          0 -3.3682923948837015e-9 -6.736584789767403e-9 0 -3.3682923948837015e-9 -6.736584789767403e-9
          0 0 0 0 0 0
          0 0 0 0 0 0
          -1.38700932316419e-7 -1.1821279606200239e-7 -9.772465980758579e-8 -0.000006231584335108083 -0.000006180884150076394 -0.000006130183965044704
          -0.000028489476726909506 -0.000028425084742092202 -0.000028360692757274898 -0.00007226605418704983 -0.00007217373632650925 -0.00007208141846596867
          -0.00013023540221198692 -0.00013032725878571466 -0.00013041911535944238 -0.00018804801978459997 -0.00018885899919000496 -0.00018966997859540995
          -0.0002324843456836112 -0.00023519111589558698 -0.0002378978861075627 -0.00025472528511278996 -0.0002612820820338197 -0.00026783887895484934
          -0.00025716233609755714 -0.0002702854308679256 -0.00028340852563829403 -0.0002536254840227344 -0.0002765282701759977 -0.00029943105632926093
          0 0 0 0 0 0
          0 0 0 0 0 0
          0 -3.3682923948837015e-9 -6.736584789767403e-9 0 -3.3682923948837015e-9 -6.736584789767403e-9
          0 0 0 0 0 0
          0 0 0 -6.545794157642788e-8 -3.272897078821394e-8 0
          -6.585677646351297e-8 -3.2928388231756486e-8 0 -0.000007025516890526407 -0.000007223853218396987 -0.000007422189546267568
          -0.000030664335430147975 -0.000031040863016373806 -0.00003141739060259964 -0.00007230769644575682 -0.00007292379682107923 -0.00007353989719640165
          -0.0001250184461306357 -0.0001265503063211872 -0.0001280821665117387 -0.0001776634481379095 -0.00018111356877031025 -0.000184563689402711
          -0.00022006206220156034 -0.00022731575861634042 -0.00023456945503112054 -0.0002477296687445126 -0.0002614452617634319 -0.00027516085478235133
          -0.0002691009524190983 -0.00029278912460517286 -0.00031647729679124746 -0.00030479453852708127 -0.00034242109885272373 -0.00038004765917836614
          0 0 0 0 0 0
          0 0 0 0 0 0
          0 0 0 0 0 0
          0 0 0 0 0 0
          0 0 0 -6.545794157642788e-8 -3.272897078821394e-8 0
          -6.545794157642788e-8 -5.223532267407512e-8 -3.901270377172236e-8 -0.000008661699058504758 -0.000009159769948941377 -0.000009657840839378
          -0.00003423479985864462 -0.000035353689192172175 -0.00003647257852569973 -0.00007302920997606984 -0.00007495150932194833 -0.0000768738086678268
          -0.00011991659659201167 -0.00012368989850731465 -0.00012746320042261765 -0.00016830900875844756 -0.0001754737608946385 -0.00018263851303082943
          -0.00021243705333502972 -0.00022547349259621977 -0.0002385099318574098 -0.0002539267449345707 -0.0002762238764313498 -0.0002985210079281288
          -0.000309109200891764 -0.0003446142462708671 -0.00038011929164997023 -0.00040708800728768657 -0.0004589395770119595 -0.0005107911467362325
          0 0 0 0 0 0
          0 0 0 0 0 0
          0 0 0 -6.704356336332512e-7 -3.352178168166256e-7 0
          -0.0000011881362034548989 -5.940681017274494e-7 0 -5.177005698216476e-7 -2.588502849108238e-7 0
          0 0 0 0 0 0
          -6.975357627729482e-8 -2.6499653519549434e-7 -4.602394941136939e-7 -0.000011218544765199967 -0.000012136107204262225 -0.000013053669643324483
          -0.000039874194899152506 -0.00004173869998427696 -0.0000436032050694014 -0.00007675181756419001 -0.00007994216570421115 -0.00008313251384423229
          -0.00011886025124571088 -0.00012463360697106496 -0.00013040696269641907 -0.00016624301051735806 -0.00017645918676267248 -0.0001866753630079869
          -0.00022050739453983016 -0.00023759117610432966 -0.0002546749576688291 -0.0002917282287472865 -0.0003186441751437205 -0.00034556012154015464
          -0.0004074257140000803 -0.0004468931172434518 -0.00048636052048682315 -0.0006017765843576014 -0.0006542068048525692 -0.0007066370253475369
          0 0 0 0 0 0
          0 0 0 0 0 0
          0 0 0 -6.704356336332512e-7 -3.352178168166256e-7 0
          -0.0000011881362034548989 -5.940681017274494e-7 0 -5.177005698216476e-7 -2.588502849108238e-7 0
          0 0 0 0 0 0
          -8.887899603122463e-7 -0.0000011896745763819508 -0.0000014905591924516553 -0.000015534474065188503 -0.00001658479168651308 -0.000017635109307837656
          -0.000048284548502025694 -0.000050185240730764703 -0.00005208593295950371 -0.00008643927484979782 -0.00008959238866562371 -0.00009274550248144962
          -0.0001278764075177246 -0.0001334787185353136 -0.0001390810295529026 -0.00018143041901526235 -0.00019068044582621428 -0.00019993047263716624
          -0.0002612208999336627 -0.00027473498940245125 -0.00028824907887123986 -0.000389326273128371 -0.00040687170813109315 -0.0004244171431338153
          -0.000606041446608446 -0.0006261103550059077 -0.0006461792634033695 -0.0009451502109063014 -0.0009651074605058207 -0.0009850647101053403
          -6.546991397694622e-7 -3.273495698847311e-7 -3.273495698847311e-7 -1.6367478494236555e-7 0 0
          0 0 0 0 0 0
          -4.717668284808463e-7 -2.3588341424042314e-7 0 -0.0000010703519731883773 -5.351759865941886e-7 0
          -5.98585144707531e-7 -2.992925723537655e-7 0 0 0 0
          0 0 0 0 0 0
          -0.0000030861428062726494 -0.000003450395899341498 -0.0000038146489924103474 -0.000022644695737179757 -0.00002358323654867533 -0.000024521777360170905
          -0.00006043429299345785 -0.00006181116306108977 -0.00006318803312872167 -0.00010381533889323422 -0.00010610248272651323 -0.00010838962655979224
          -0.00015296141573731167 -0.0001570579104605016 -0.00016115440518369155 -0.00022572878392039422 -0.0002316192064390195 -0.00023750962895764484
          -0.00035149681328806273 -0.00035752156889959683 -0.00036354632451113093 -0.0005691546511403846 -0.0005717336121900792 -0.0005743125732397738
          -0.0009282130522481962 -0.0009215829650950603 -0.0009149528779419241 -0.001461266513992374 -0.001439015075746257 -0.00141676363750014
          -0.0000022187958137251028 -0.0000011093979068625514 -0.000002041596354691361 -0.0000010357257151015128 -0.0000018643968956576196 -9.620535233404744e-7
          0 -1.4927537755832246e-8 -2.985507551166449e-8 0 0 0
          -5.097757064235004e-7 -2.548878532117502e-7 0 -0.0000011083608511310314 -5.541804255655158e-7 0
          -5.98585144707531e-7 -2.992925723537655e-7 0 0 0 0
          0 0 0 -0.000002290422933979534 -0.00000251986520451747 -0.0000027493074750554055
          -0.000015162110588156806 -0.00001605064123572589 -0.00001693917188329497 -0.0000456717774960776 -0.00004716798613333458 -0.00004866419477059157
          -0.00009190067497728457 -0.00009391132117923759 -0.00009592196738119062 -0.00015069499622621116 -0.0001537289100840875 -0.00015676282394196388
          -0.0002290632716018449 -0.00023359699231896545 -0.000238130713036086 -0.0003506381252487427 -0.0003562156601895766 -0.00036179319513041043
          -0.0005515454417650625 -0.0005563424621676443 -0.0005611394825702261 -0.0008757661181984415 -0.0008762513564528735 -0.0008767365947073056
          -0.0013659864829161405 -0.0013561597539363196 -0.001346333024956499 -0.002043289129757619 -0.0020155777171804445 -0.0019878663046032697
          -0.002874897606531817 -0.0028252070520516756 -0.002775516497571534 -0.0037996812736999525 -0.0037259586080669142 -0.003652235942433876
          -0.00006041538359536071 -0.00011285358560551056 -0.00006646508322252273 -0.00012610780643639962 -0.00007251478284968474 -0.00013936202726728866
          -0.00000398859079260543 -0.0000034111800043229224 -0.000002833769216040414 0 0 0
          -3.800887794265411e-8 -1.9004438971327055e-8 0 -3.800887794265411e-8 -1.9004438971327055e-8 0
          0 0 0 -0.0006543493075153188 -0.0006621757730075364 -0.000670002238499754
          -0.0009576528228833363 -0.0009650301884140337 -0.0009724075539447312 -0.0013753720637369499 -0.0013801431948420497 -0.0013849143259471496
          -0.0019222011794483183 -0.001920939422438201 -0.0019196776654280831 -0.0025950201743434294 -0.0025835309394699312 -0.0025720417045964326
          -0.0031466868257946767 -0.003143475722393821 -0.003140264618992965 -0.003357997937133296 -0.003333454346556086 -0.003308910755978876
          -0.003736776872752814 -0.003729543357676461 -0.0037223098426001078 -0.004147329380780526 -0.004109860877195268 -0.00407239237361001
          -0.004309799208533441 -0.004298794423805175 -0.004287789639076908 -0.004896096139290979 -0.0048484581992319815 -0.004800820259172984
          -0.004818685002275861 -0.00480415893772272 -0.004789632873169578 -0.00017927111458592652 -0.00017057026660050924 -0.00019691000703761806
          -0.00018594221977024516 -0.00021454889948930957 -0.0002013141729399811 -0.0002100718781680245 -0.00023428265540697274 -0.000258493432645921
          -0.0002739113953037968 -0.0003102593164479343 -0.00034660723759207164 -0.0003890753421705779 -0.00044351862288580484 -0.0004979619036010317
          -0.0005891371613542392 -0.0006590271916564924 -0.0007289172219587456 -0.0009236194496575188 -0.000986513651161779 -0.0010494078526660394
          -0.001443070205025434 -0.0014581299910233895 -0.0014731897770213448 -0.0021654487053268533 -0.002123993977639946 -0.002082539249953038
          -0.0030360280143535046 -0.002966996332435056 -0.0028979646505166074 -0.004748256611396984 -0.004030224563144813 -0.0046528118176426
          -0.003929442519452741 -0.004557367023888217 -0.00382866047576067 -0.00006523878041743468 -0.00011808990361379013 -0.00007177061636978495
          -0.00013297241489053892 -0.00007830245232213526 -0.0001478549261672877 -0.000006193828610539608 -0.000005284408924515506 -0.000004374989238491404
          0 0 0 0 0 0
          -7.287855865758753e-9 -6.464196765510933e-8 -1.219960794444599e-7 -0.0000053098023074987664 -0.000005724016069880471 -0.000006138229832262176
          -0.00000203195601894578 -0.0000022820568330623223 -0.000002532157647178865 -0.000025816550767905256 -0.000026904364325892566 -0.00002799217788387987
          -0.000011739324320129674 -0.000012415854101519923 -0.000013092383882910173 -0.000032213083547129316 -0.00003340453589773353 -0.00003459598824833775
          -0.00006713942190605935 -0.00006913023687934264 -0.00007112105185262592 -0.00011940762800110186 -0.00012241105685749826 -0.00012541448571389463
          -0.0001905067689471346 -0.00019478901661527595 -0.0001990712642834173 -0.0002919310756837807 -0.00029774321941172723 -0.0003035553631396737
          -0.00044043962012249637 -0.0004475748180877433 -0.0004547100160529902 -0.0011697401654999036 -0.0008507636590848473 -0.0011774250544572902
          -0.0008588533826571184 -0.0011851099434146768 -0.0008669431062293892 -0.0015654980947651805 -0.0015717859653963627 -0.0015780738360275447
          -0.0020363698531640096 -0.0020401988480023784 -0.002044027842840748 -0.002570632415634041 -0.0025712035744039226 -0.0025717747331738044
          -0.0036547312571044545 -0.0031917283694223213 -0.00364711622626939 -0.003185888201798462 -0.003639501195434326 -0.0031800480341746032
          -0.004081572946845188 -0.004072887023791791 -0.004064201100738395 -0.004454178583850318 -0.004444633422885693 -0.004435088261921068
          -0.004738053817034671 -0.004727502384298157 -0.004716950951561645 -0.005538533795193146 -0.005633279101101965 -0.005485847677863381
          -0.005529604056748436 -0.005433161560533617 -0.005425929012394909 -0.005203964471839112 -0.005186229423768244 -0.005168494375697377
          -0.004882754602101469 -0.004870963804498118 -0.004859173006894768
        </DataArray>
        <DataArray type="Float64" Name="disp_x" format="ascii" RangeMin="0" RangeMax="0.00002059712760314938">
          0 1.3631421794788792e-7 1.3757803759803614e-7 0 0 1.362297324930434e-7
          1.376537240030375e-7 0 0 1.3585776590377475e-7 1.382123481000655e-7 0
          1.4051931727093352e-7 0 1.401396247821246e-7 0 1.3616300481141094e-7 0
          1.410155034736011e-7 0 1.411852734896897e-7 0 1.4149357835515646e-7 0
          1.3990600251389493e-7 0 1.3949517794591414e-7 0 1.3884350963448103e-7 0
          1.2858763655879636e-7 0 1.3313918792064647e-7 0 1.4603447154231177e-7 0
          1.3291741133345877e-7 0 1.3294910752403276e-7 0 1.3312033651233091e-7 0
          1.370580108255424e-7 0 1.3874097900472275e-7 0 1.4270395782885335e-7 0
          1.4175999214623486e-7 0 1.4138689017191454e-7 0 1.4060096951237385e-7 0
          1.418075564608258e-7 0 1.4189036921144616e-7 0 1.420573013777073e-7 0
          1.430705414820681e-7 0 1.430016459607669e-7 0 1.4284467839069887e-7 0
          1.4413978083870605e-7 0 1.441095658545984e-7 0 1.4397690655948744e-7 0
          1.469394888157161e-7 0 1.4716070747674085e-7 0 1.4754262442294793e-7 0
          1.547195061946303e-7 0 1.547492277173684e-7 0 1.5499269115630594e-7 0
          1.6835645138617068e-7 0 1.6832488720013198e-7 0 1.682599847731512e-7 0
          1.8485964992173826e-7 0 1.8457542857403392e-7 0 1.8370804577766865e-7 0
          1.9977467317142918e-7 0 1.9918542979950094e-7 0 1.9755094228081627e-7 0
          2.0828180484155745e-7 0 2.0786691406565032e-7 0 2.0637478315046026e-7 0
          2.051526413949373e-7 0 2.0487388325053534e-7 0 2.0502312709816554e-7 0
          1.9068642710773833e-7 0 1.9253471023912857e-7 0 1.9657156439431192e-7 0
          2.7245671140364357e-7 2.752903547179345e-7 2.7241157223109343e-7 2.7514542426038216e-7 2.7248253385542555e-7 2.7435966710522763e-7
          2.7978554182794015e-7 2.808214741973008e-7 2.857448167107915e-7 2.820519949539855e-7 2.8216166564839524e-7 2.8220988057371667e-7
          2.7937967380729766e-7 2.7941973756873683e-7 2.8042723794069024e-7 2.6669357856400925e-7 2.6384609816115607e-7 2.5613692255452586e-7
          2.673145511733337e-7 2.691257725623858e-7 2.74937929832609e-7 2.790679911327201e-7 2.790362763099386e-7 2.807433860612142e-7
          2.8215299676821053e-7 2.822541365221116e-7 2.8208697976677457e-7 2.839310658099418e-7 2.8384004031606327e-7 2.8380382830420273e-7
          2.8605708719912853e-7 2.8599039532581793e-7 2.8570345204739255e-7 2.8822960012670926e-7 2.8815055699503173e-7 2.878846671506189e-7
          2.9423361352104023e-7 2.944914034711883e-7 2.94981678112633e-7 3.0990171863767983e-7 3.098991385422351e-7 3.104194514619878e-7
          3.3679860389916175e-7 3.3679185767499685e-7 3.3660871061887957e-7 3.6916433317813606e-7 3.686626651225588e-7 3.6713857159325213e-7
          3.982190216143883e-7 3.972302670371703e-7 3.94358943790427e-7 4.145262780040229e-7 4.139917611938026e-7 4.1191860707833803e-7
          4.0940946522086546e-7 4.097120847303989e-7 4.113200819746057e-7 3.833588421217568e-7 3.8668624336385174e-7 3.9611145376265687e-7
          4.0851346118656277e-7 4.1285180200646886e-7 4.0841348987862256e-7 4.126502227983593e-7 4.0806738596577375e-7 4.123037262191955e-7
          4.1961158975640405e-7 4.210936997676154e-7 4.230045838679376e-7 4.228813017393717e-7 4.229910139983116e-7 4.233675864442599e-7
          4.189455528004314e-7 4.1927622773476186e-7 4.1961000158653843e-7 4.073188054459163e-7 4.0318738344508853e-7 4.018617954743732e-7
          4.071076812300434e-7 4.083395609997529e-7 4.1246890883617366e-7 4.192965423626627e-7 4.195511345857354e-7 4.2015768951506417e-7
          4.2291396513560373e-7 4.229167722278091e-7 4.2294091462090965e-7 4.259028227986027e-7 4.2577353524294566e-7 4.255787368115253e-7
          4.2897466954829523e-7 4.289807549604501e-7 4.284583958345826e-7 4.3212752267130654e-7 4.320120248270131e-7 4.3165859578330285e-7
          4.4209282758346096e-7 4.4221222894108253e-7 4.4280064428597714e-7 4.65848281911405e-7 4.659242243555262e-7 4.6667123964594026e-7
          5.053461793804742e-7 5.053475045704863e-7 5.051384816380738e-7 5.523012265313198e-7 5.516980678481295e-7 5.497640215674868e-7
          5.939466643435094e-7 5.930308542356327e-7 5.902030030532091e-7 6.176560410846276e-7 6.173811043533066e-7 6.164859299627216e-7
          6.11794391299878e-7 6.140182527824125e-7 6.199848096918813e-7 5.791498452627704e-7 5.853549063312699e-7 6.033545371619216e-7
          5.443634454109199e-7 5.502733000607129e-7 5.4414652334787e-7 5.501635970868313e-7 5.435314273069399e-7 5.498796668671847e-7
          5.600315663920986e-7 5.606103069266633e-7 5.613348457555123e-7 5.63507080542291e-7 5.636606132589363e-7 5.639505404556667e-7
          5.590987546782446e-7 5.59194841483991e-7 5.595398671571592e-7 5.476032520129522e-7 5.465701564497258e-7 5.464627947085937e-7
          5.490007979243823e-7 5.498570209943293e-7 5.518397037680846e-7 5.592029440547432e-7 5.594068685100059e-7 5.59697111778385e-7
          5.636565848516784e-7 5.636366572165958e-7 5.63625575949906e-7 5.679001186718598e-7 5.676990830526565e-7 5.672681535828825e-7
          5.715189983203971e-7 5.716731459520508e-7 5.707326963189997e-7 5.757513413026009e-7 5.75587723517884e-7 5.753107044654351e-7
          5.906308515815559e-7 5.90746864391902e-7 5.916190185144106e-7 6.227100231042255e-7 6.23003064592165e-7 6.240529275191997e-7
          6.737390496337675e-7 6.739016220743822e-7 6.740300824512487e-7 7.33417991470417e-7 7.330888545067231e-7 7.317424681099511e-7
          7.859310167166755e-7 7.859500461884278e-7 7.851910243124938e-7 8.16914757311482e-7 8.183038663690589e-7 8.21933297109747e-7
          8.131733904221178e-7 8.187774561145289e-7 8.339783304005956e-7 7.800211476007841e-7 7.919633350322923e-7 8.25450774120526e-7
          6.797332853373007e-7 6.876601548218387e-7 6.794776663233324e-7 6.875673133529975e-7 6.785065667287993e-7 6.872249368197591e-7
          7.000937723654252e-7 7.003435885862078e-7 7.006654067183262e-7 7.041459414436698e-7 7.042641096281465e-7 7.04509661011098e-7
          6.995862020131395e-7 6.99656659732803e-7 6.999555127110256e-7 6.897224546592715e-7 6.895304904086031e-7 6.896262819156848e-7
          6.908428115872579e-7 6.915538314255451e-7 6.924163493319814e-7 6.993088205514847e-7 6.993417956521938e-7 6.994338747266249e-7
          7.04250720443933e-7 7.042877614575656e-7 7.041855342303785e-7 7.099921991167721e-7 7.096680874022062e-7 7.088686018990319e-7
          7.137640106947658e-7 7.131388054724863e-7 7.115806990945193e-7 7.190234654966899e-7 7.19175780101392e-7 7.194070547126491e-7
          7.401464651187666e-7 7.404134349931052e-7 7.417949397704408e-7 7.806101470266709e-7 7.811164352149645e-7 7.828884751517224e-7
          8.417151979343903e-7 8.423779261824776e-7 8.437185894546602e-7 9.118380324078496e-7 9.126338004013378e-7 9.137969652036619e-7
          9.738953296400996e-7 9.76080647107433e-7 9.805218031198615e-7 0.0000010127610815945701 0.0000010180649025942252 0.0000010312732435830075
          0.0000010161795605183313 0.000001027862573677267 0.000001058554809800534 9.916826588877684e-7 0.0000010122336222561705 0.000001069227696232886
          8.142655449164406e-7 8.249071259091251e-7 8.141632555773785e-7 8.248845766143599e-7 8.127852770996308e-7 8.245177052211473e-7
          8.402711139633281e-7 8.404147183524604e-7 8.406756403859728e-7 8.448907357097734e-7 8.449883578191517e-7 8.45234703629837e-7
          8.403797623427632e-7 8.404562682455107e-7 8.406804742781962e-7 8.321371352699159e-7 8.321393842658434e-7 8.322097306413126e-7
          8.324479372751582e-7 8.333047154581767e-7 8.335092079335191e-7 8.39646191782746e-7 8.394754858245876e-7 8.393643080214394e-7
          8.446913985495383e-7 8.449611955571464e-7 8.448180617661363e-7 8.518435097641316e-7 8.51618187889313e-7 8.4979024586725e-7
          8.53585414158959e-7 8.531819948332824e-7 8.521260440505336e-7 8.626811313556872e-7 8.6313147223159e-7 8.641816498447047e-7
          8.908383165578634e-7 8.915429262520786e-7 8.937107498228116e-7 9.394308433718238e-7 9.404429529179493e-7 9.438107442489646e-7
          0.0000010093393765524945 0.000001010968499650015 0.0000010148335687748418 0.000001087991266549834 0.0000010908217066861528 0.0000010971310506980018
          0.0000011592982554493169 0.0000011649601960664668 0.0000011784816303445564 0.0000012086888560659635 0.0000012198100809686293 0.0000012480047191341967
          0.0000012272978216635795 0.0000012468319863278107 0.0000012997771418258554 0.0000012264016145979853 0.0000012567807144296307 0.000001343645652510848
          9.471649961538933e-7 9.619315279975435e-7 9.478553302629142e-7 9.621356396176887e-7 9.464037378406375e-7 9.620139218355767e-7
          9.80859237485253e-7 9.810142082143674e-7 9.813620442880073e-7 9.85783098946748e-7 9.85894837224849e-7 9.861734646992162e-7
          9.814007166305263e-7 9.814186527184632e-7 9.815728619172356e-7 9.74126275884178e-7 9.744457950462157e-7 9.745065311382741e-7
          9.755543962068213e-7 9.749739782114849e-7 9.747986113285936e-7 9.799333811558284e-7 9.796831482827567e-7 9.795308161958688e-7
          9.851216118770919e-7 9.862584587994484e-7 9.852609084832742e-7 9.919791412787365e-7 9.918871340864479e-7 9.901671324413815e-7
          9.921623486572944e-7 9.921723311651595e-7 9.925509661281587e-7 0.0000010071335501079387 0.000001007977769406668 0.0000010101473713999
          0.000001043032152296717 0.000001044321916311733 0.0000010477276809281298 0.0000010996683912331166 0.00000110159217853359 0.0000011071982987330083
          0.0000011776021611078176 0.0000011804564048862324 0.0000011881400334581594 0.0000012642755742496876 0.000001269418247480147 0.0000012830141590642062
          0.0000013468239377724774 0.000001356122942111559 0.0000013814206632040455 0.000001413680871894611 0.0000014296662140238477 0.000001475183737501247
          0.000001460693758466554 0.0000014856883893264865 0.0000015614756263649184 0.000001505973848158103 0.00000154221948658992 0.0000016559670476781728
          0.0000010764453749349669 0.0000010987129124314847 0.000001080120455739983 0.0000010993567287291266 0.0000010801386969227564 0.000001100212889692142
          0.0000011220869241615656 0.0000011223525435209589 0.0000011228864378326051 0.0000011267782753936245 0.0000011269292456651983 0.0000011272691480174668
          0.0000011224640778414837 0.0000011224168800682123 0.000001122532473428358 0.000001115850825457382 0.0000011165601622639337 0.000001116460875241233
          0.0000011170536957871584 0.000001116622746329364 0.0000011162658144688189 0.000001119864117016766 0.0000011200673283222888 0.0000011198946761673667
          0.0000011277404777019076 0.0000011276607866143224 0.000001125321694972981 0.0000011293717126475476 0.0000011288718139730996 0.0000011286685496470093
          0.0000011314616195132758 0.0000011318807811142518 0.000001133724853103254 0.0000011531662360967605 0.0000011539818067282962 0.0000011572667937622547
          0.0000011974930923387123 0.0000011990491224245983 0.0000012038527124462765 0.0000012633002600928311 0.0000012652729226812678 0.0000012728865643135304
          0.000001349122447706508 0.0000013523386869158223 0.0000013641190764003266 0.0000014461016015333934 0.0000014517303190028126 0.0000014722937863349911
          0.000001546123487160206 0.0000015554881730658576 0.0000015905585759892483 0.000001642878251986157 0.0000016576180381407921 0.000001714366194974009
          0.0000017390719493889903 0.0000017600566924874102 0.0000018462291010168344 0.000001858095737297002 0.0000018882139512527443 0.0000020082780129795993
          0.0000012033797555134692 0.0000012357736141658227 0.000001206978542881047 0.0000012366228502575823 0.0000012147991632720801 0.0000012398300847823356
          0.0000012642250573211719 0.0000012645925310709331 0.000001265507112842547 0.000001267760839858346 0.0000012678592948218755 0.000001268313374316789
          0.0000012632895349548359 0.0000012634075086840828 0.000001263502429165922 0.0000012587843065821841 0.0000012583274037031573 0.0000012581669499887436
          0.000001258150765041497 0.0000012580175516547045 0.0000012577953031588867 0.0000012609655414883493 0.0000012610093625362188 0.0000012608053310917036
          0.0000012669466755257522 0.0000012654160663507022 0.0000012648017056784828 0.000001265418693259289 0.0000012657519550570757 0.000001266851581647808
          0.0000012727441436999625 0.0000012734643942988048 0.0000012761546122051222 0.000001301265385627882 0.0000013023380205058702 0.0000013060358814059138
          0.0000013546930708660922 0.0000013566636751311208 0.0000013617721068240884 0.0000014310240254586405 0.0000014335829982778112 0.000001441222501634714
          0.0000015263390417002281 0.0000015304319472777408 0.0000015440992212837058 0.00000163842485475238 0.0000016452940990879295 0.0000016677819835139698
          0.0000017650649812403301 0.000001775700102768845 0.000001810728935527638 0.0000019069264506811872 0.0000019224398619643395 0.000001973806693576885
          0.00000207521109517066 0.0000020964160000574525 0.0000021672895643127977 0.0000022984953409706635 0.0000023259896201814623 0.0000024187523050643352
          0.0000026187783424883202 0.0000026540922389799296 0.000002768430283967875 0.0000031653527505299107 0.0000031948611953141993 0.0000033276525234892345
          0.0000018042469664355142 0.0000017451504000433745 0.0000018064190069310056 0.000001732447020915633 0.0000018102355821886003 0.0000017445324055969678
          0.000001831793056236697 0.0000018318461967704744 0.0000018324973975810384 0.0000018310180936040294 0.0000018310292628028926 0.0000018311128068062193
          0.0000018260238348899866 0.00000182597647980029 0.0000018260755227743926 0.0000018232190275858021 0.000001823160002721929 0.0000018229599887161573
          0.0000018230746363519778 0.0000018230778341356642 0.0000018229139136247733 0.000002550910381234032 0.000002561833261127382 0.000002592496090865786
          0.0000028516642197520984 0.0000028653010414480777 0.000002903129412801612 0.0000032543204523355635 0.000003270311144893038 0.0000033127872751984844
          0.000003795763702610317 0.000003812951601216534 0.000003854972934788959 0.000004514988105345591 0.00000453115816215001 0.000004565741899466589
          0.000007310114180483223 0.000007319603509740217 0.000007358140755610857 0.000005456599854802681 0.00000547134145863562 0.0000054931322327518485
          0.000008829889256055998 0.000008833480246722323 0.000008856685750838062 0.000006671424268184577 0.000006681189453597383 0.000006689138035721952
          0.000010656083878210292 0.000010653678481518667 0.000010659893676299501 0.000008224293567283705 0.000008231260230394392 0.000008223429835269997
          0.00001281614923056839 0.000012807329130461805 0.000012796200971513984 1.768071119540492e-7 0 1.800317234222202e-7
          0 1.8906978098565066e-7 0 3.5801933736279994e-7 3.646359326418768e-7 3.845172500583161e-7
          5.47550725114929e-7 5.595419807307158e-7 5.95689474331828e-7 7.525055945433842e-7 7.72561085127357e-7 8.319444544415184e-7
          9.82515984422606e-7 0.0000010142950923851539 0.0000011068679040064724 0.000001256699185712231 0.0000012999490389063494 0.0000014268423343287757
          0.0000015989653471073826 0.0000016430583125032908 0.0000018030575953911295 0.000002045221318530168 0.0000020803809990160994 0.000002241774062996819
          0.0000024203001772180725 0.0000024817698873914337 0.0000026438127561804495 0.000004007243226731775 0.000003087235774843325 0.000004044448985669482
          0.000003132545999546229 0.000004165139654710826 0.0000033217155326091483 0.000002421779963035315 0.0000024818011478477903 0.0000024198759453630262
          0.0000024934042427326992 0.0000024158754175339307 0.000002484320121791708 0.000002396852322769278 0.000002396453907049982 0.000002395023933849024
          0.000002393882347725507 0.0000023935604193507457 0.0000023923371997799067 0.0000023870284851522013 0.000002386782697121249 0.000002386003389504932
          0.000002385602332811979 0.000002385643634595764 0.0000023854788079502225 0.000002386986116538918 0.0000023872798156701286 0.000002387880022465815
          0.0000018238756047669962 0.000001824083845614217 0.0000018244934471388695 0.0000023887246640518047 0.000002389583761612797 0.0000023923267134337374
          0.0000018206329441780252 0.0000018217570854599691 0.000001824436204775361 0.0000018301747434400288 0.000001831763201370596 0.000001836159658701996
          0.0000018633963823796603 0.0000018656277983973038 0.0000018717034088371028 0.000001925093078064412 0.0000019280189822703683 0.000001936244463532227
          0.0000020218197818687334 0.000002025814249680265 0.0000020373117659666964 0.0000021572938810097458 0.000002162563451458293 0.000002177704046813944
          0.0000023254671634822 0.00000233338337510264 0.000002356067320170237 0.00000379525807606151 0.0000033660864491047713 0.000003809650478579951
          0.000003378534086420773 0.0000038552631218265234 0.000003417305229992611 0.000004365636710992449 0.000004381194358290565 0.0000044317115424983425
          0.000005115777627610369 0.000005131213666849742 0.000005183045849981417 0.000006085870936940641 0.000006099289899828048 0.000006147205428615367
          0.000010717633936982692 0.000009022002972458767 0.000010729322533294641 0.000009036445810645288 0.0000107626088284455 0.000009078507733359571
          0.00001271002628419015 0.000012717565194205213 0.000012739596558749983 0.000015027865228146408 0.000015030589012971333 0.000015038221761823842
          0.00001766896436522376 0.000017665794709586906 0.000017655845499569178 0.000010202473954174653 0.000005290200523423775 0.000010203159677816273
          0.000005322582238291092 0.00001017922458576739 0.0000054249855957673865 0.00001536235500888366 0.000015347668133679046 0.000015318157619084995
          0.00002059712760314938 0.000020587658005578574 0.000020559658935635254
        </DataArray>
        <DataArray type="Float64" Name="disp_y" format="ascii" RangeMin="-0.00001653969891727832" RangeMax="0">
          0 0 -1.5012867153287926e-7 -1.50223817336339e-7 0 0
          -1.5002288476820364e-7 -1.5012276987695e-7 0 0 -1.4915056760805817e-7 -1.5004378888314862e-7
          -3.053334285085067e-7 -3.0535294130632554e-7 -3.051204286003222e-7 -3.051795047525627e-7 -3.047532560166014e-7 -3.048840843989516e-7
          -4.6473622994191615e-7 -4.648495855580168e-7 -4.6500559084836114e-7 -4.6516313854933794e-7 -4.65392710469744e-7 -4.652455120522162e-7
          -6.240831520071579e-7 -6.247367166396633e-7 -6.247286815395348e-7 -6.248759307260979e-7 -6.282820324486528e-7 -6.25623526326631e-7
          -7.750904988992708e-7 -7.754531365737806e-7 -7.746709813897963e-7 -7.751301238740708e-7 -7.741267364125706e-7 -7.760057480914251e-7
          -9.18695930303846e-7 -9.185811587803368e-7 -9.185090190729857e-7 -9.18582893331619e-7 -9.158242972129812e-7 -9.17146002660808e-7
          -0.0000010691093498790847 -0.0000010677781862359612 -0.0000010688870345898797 -0.000001067667254735349 -0.0000010685766026201084 -0.0000010668948268756904
          -0.0000012235088379033486 -0.0000012230037747259726 -0.0000012233556608375105 -0.0000012229364870556205 -0.0000012228993039877578 -0.000001222727139789589
          -0.000001376445038860587 -0.0000013762968014685087 -0.0000013763754160325068 -0.0000013761877719488699 -0.00000137608912262343 -0.0000013757991037546564
          -0.0000015290312055756568 -0.0000015287872905194793 -0.0000015289288983399434 -0.0000015287098098612133 -0.0000015286635309543098 -0.000001528481464062676
          -0.0000016821801627651297 -0.00000168196624183563 -0.000001681899994109228 -0.0000016817017313010285 -0.0000016812157212571878 -0.000001681033775707955
          -0.0000018399646558663745 -0.0000018395272917679067 -0.0000018393018740932716 -0.0000018388991353478172 -0.0000018375004315456023 -0.000001837146944884597
          -0.000002010931923294012 -0.0000020100201951526814 -0.0000020098320961976058 -0.000002008938864392662 -0.0000020064570526892737 -0.000002005659127748748
          -0.000002206291960745327 -0.0000022050702693797523 -0.000002204880613157479 -0.000002203636230943748 -0.0000022002831961371617 -0.0000021989587948935027
          -0.000002434916654509815 -0.000002433678196836175 -0.000002433564119476713 -0.0000024323501931345354 -0.000002429039401464964 -0.000002427758535259576
          -0.0000026992138768871902 -0.0000026985113708941195 -0.000002698203775463538 -0.000002697546005305765 -0.000002694974945040897 -0.000002694283746428729
          -0.0000029936093368504147 -0.000002994046939886153 -0.000002993269630110756 -0.0000029939056485489515 -0.0000029924214070055597 -0.000002993286702058802
          -0.0000033029850440284636 -0.000003304605047071904 -0.000003302971557707695 -0.0000033046225433490583 -0.0000033046012181248586 -0.0000033068034693157616
          -0.0000036037512079668494 -0.000003604725289214791 -0.0000036035509699153034 -0.000003604851073054821 -0.0000036053675458889536 -0.000003607216704523676
          0 -1.501395579398366e-7 0 -1.4998796063920978e-7 0 -1.490898934366925e-7
          -3.0528690755180724e-7 -3.050825619939841e-7 -3.043243185799009e-7 -4.643406009736617e-7 -4.6450131549396766e-7 -4.650211666937359e-7
          -6.22107013775399e-7 -6.230299580188078e-7 -6.26058879659e-7 -7.740955865488028e-7 -7.73828745948498e-7 -7.731197716883353e-7
          -9.203476558552197e-7 -9.199914292078386e-7 -9.179060984006144e-7 -0.0000010720534462432634 -0.0000010716443766265328 -0.0000010713231174822041
          -0.0000012245883361078876 -0.0000012244568847463114 -0.0000012240040809815856 -0.0000013771548303530441 -0.000001377096810089234 -0.0000013768775841682833
          -0.000001529745422971125 -0.0000015296364378470815 -0.0000015293903499809478 -0.0000016828851097699876 -0.0000016825673262645447 -0.000001681810539601487
          -0.000001841315119147204 -0.000001840610347807393 -0.0000018386691204538876 -0.0000020137228684943287 -0.0000020126033497070326 -0.0000020092092828602494
          -0.000002210186776116377 -0.0000022088200747329953 -0.0000022044439666814533 -0.0000024386556178728606 -0.000002437280096203181 -0.0000024329643030483724
          -0.0000027012942702511775 -0.000002700189846729544 -0.0000026969953342048507 -0.0000029929013128608195 -0.0000029920851211652 -0.0000029906869893907568
          -0.0000032990008894075976 -0.000003298489491025565 -0.000003298811004082014 -0.0000036013506728861084 -0.0000036003631201557977 -0.0000036001735592804405
          0 -1.502726902204636e-7 0 -1.501547721396809e-7 0 -1.4991366137628593e-7
          -3.05292581630753e-7 -3.0512526557036606e-7 -3.047883399945709e-7 -4.6367878317010826e-7 -4.6374028531115265e-7 -4.636903314498446e-7
          -6.201098123726974e-7 -6.202582306103664e-7 -6.202678847112051e-7 -7.729949957372915e-7 -7.73156791737243e-7 -7.73209220061853e-7
          -9.237678569698921e-7 -9.235002055153375e-7 -9.235852404113866e-7 -0.000001074635843258757 -0.0000010744015447545792 -0.0000010737639985470798
          -0.0000012261278702515958 -0.0000012260579940750413 -0.0000012258663556135352 -0.0000013784205929945255 -0.000001378375896190917 -0.000001378190671646601
          -0.0000015308791550694282 -0.0000015307541327661357 -0.000001530565659429834 -0.000001683958204775449 -0.0000016835820448234077 -0.0000016826241801432564
          -0.0000018435976619499336 -0.0000018428489507655455 -0.0000018407207085560286 -0.0000020183904684991626 -0.0000020172900330121705 -0.0000020140163558476583
          -0.000002216583278994011 -0.0000022152597341228977 -0.000002211161464873401 -0.000002444561085292984 -0.000002443149445470833 -0.0000024390467067419294
          -0.0000027043818823659856 -0.000002703062205623967 -0.00000269969296479186 -0.0000029919299744662033 -0.0000029906365720308264 -0.000002988184526397743
          -0.00000329465516314746 -0.0000032930558700209146 -0.000003291041541085015 -0.000003598735885445624 -0.0000035964701611263297 -0.000003592663461608805
          0 -1.5029497340332937e-7 0 -1.5020457212285728e-7 0 -1.4982999900545702e-7
          -3.053857914405843e-7 -3.052685693476326e-7 -3.0494708102322304e-7 -4.6324836236472197e-7 -4.631807981746041e-7 -4.630277965266456e-7
          -6.191098134672884e-7 -6.189830605159758e-7 -6.18730658609235e-7 -7.730836003477028e-7 -7.731220175715679e-7 -7.730913204100793e-7
          -9.261160563848174e-7 -9.262165255045168e-7 -9.263093685553749e-7 -0.0000010772085485274766 -0.0000010770378311548892 -0.000001076859216659666
          -0.000001228129731779811 -0.000001228098530078264 -0.0000012279056145004425 -0.0000013801745589966164 -0.0000013802457854150704 -0.0000013802976622043208
          -0.000001532436327329694 -0.0000015322098745068772 -0.0000015319716712268752 -0.0000016854207758600619 -0.0000016849191524687156 -0.0000016836033021457788
          -0.0000018470272630153296 -0.0000018462338437354883 -0.0000018439252836628873 -0.0000020250129401909615 -0.0000020239227582386867 -0.0000020207531370034067
          -0.0000022252680248012116 -0.0000022239317995768983 -0.0000022200954789452198 -0.0000024525891942618793 -0.000002451020070357625 -0.000002446991057989486
          -0.00000270872153385045 -0.0000027069838276311297 -0.0000027029964511541428 -0.0000029911172310059525 -0.000002989042827218979 -0.000002984707567977563
          -0.000003291359692432415 -0.0000032885886381518732 -0.0000032828753827238098 -0.0000035982202263153178 -0.0000035945407718487654 -0.00000358590753042808
          0 -1.5023616076116694e-7 0 -1.5008165581731683e-7 0 -1.4952829426573954e-7
          -3.0566417930057665e-7 -3.055284542880312e-7 -3.0515116688945156e-7 -4.633809991154681e-7 -4.632924594560685e-7 -4.631161446193095e-7
          -6.190788178286294e-7 -6.189812251778934e-7 -6.186758444813698e-7 -7.738146673732412e-7 -7.737975475572448e-7 -7.736362873315565e-7
          -9.279257808154338e-7 -9.279849659291112e-7 -9.281610869054939e-7 -0.000001079563250494386 -0.000001079513857881123 -0.000001079519367118596
          -0.0000012304647628094124 -0.0000012304764081489042 -0.0000012303985356439644 -0.0000013825213502267266 -0.000001382629440269268 -0.0000013828986268663593
          -0.0000015341385956439244 -0.0000015337825205721525 -0.0000015333460685335984 -0.0000016873186213859682 -0.0000016867157073856492 -0.0000016849984299644515
          -0.000001851835667785754 -0.000001850988646036256 -0.000001848445331798015 -0.000002033486650301858 -0.0000020323773843751487 -0.000002029217687033253
          -0.000002236041852822691 -0.0000022345938408179664 -0.000002230960335290604 -0.0000024625166777791394 -0.0000024607026923796533 -0.000002456377733784049
          -0.000002714883743282006 -0.000002712476059269684 -0.0000027071520844033214 -0.0000029920765257569993 -0.000002988905516515613 -0.000002981715579219775
          -0.000003290506194141151 -0.000003286273953279409 -0.000003275881201335525 -0.000003605957707228596 -0.000003600520353488924 -0.0000035853433634787626
          0 -1.501245621359676e-7 0 -1.4991559153941337e-7 0 -1.491093569387116e-7
          -3.06276261842122e-7 -3.061104801194832e-7 -3.0566448162003977e-7 -4.6421566934948497e-7 -4.6414427303067404e-7 -4.6396878763963877e-7
          -6.198978640319253e-7 -6.197856335902239e-7 -6.194983600193593e-7 -7.747185761730477e-7 -7.747873323687549e-7 -7.746160644105672e-7
          -9.294559109536117e-7 -9.295196273582723e-7 -9.297009621200365e-7 -0.000001081900576607082 -0.0000010817975892816425 -0.0000010818828134364794
          -0.0000012330223594975378 -0.0000012331256567050831 -0.0000012332709871223065 -0.00000138530363349644 -0.0000013852635192812137 -0.0000013856229755233657
          -0.000001535665655838343 -0.0000015352892808195963 -0.0000015344670521951005 -0.0000016900659582249191 -0.000001689401638929645 -0.0000016873118188639937
          -0.0000018582224295682723 -0.0000018572319323283987 -0.0000018544366777983715 -0.0000020437316834523896 -0.0000020425541410407064 -0.000002039267026471115
          -0.0000022486100488210244 -0.000002247025709413621 -0.000002243194787308122 -0.0000024744704516290387 -0.000002472240806536093 -0.0000024671079614898413
          -0.000002723567191215284 -0.0000027203964858313464 -0.0000027129060576934732 -0.00000299720589171582 -0.000002992808996967226 -0.0000029815871832580267
          -0.000003296633035965041 -0.000003290704209550695 -0.0000032740014204678667 -0.000003625759110742197 -0.000003618626741943935 -0.0000035953902918326384
          0 -1.4999451048476072e-7 0 -1.497836678708555e-7 0 -1.486124355440593e-7
          -3.074504331490555e-7 -3.0725153386166566e-7 -3.0675421968074844e-7 -4.657928633899853e-7 -4.657497864726474e-7 -4.6559910694643795e-7
          -6.212297435933732e-7 -6.21114727921056e-7 -6.208748407949582e-7 -7.759267239073307e-7 -7.760008643823215e-7 -7.758625591010522e-7
          -9.309835156595998e-7 -9.309917423737585e-7 -9.311373620694085e-7 -0.0000010838823706577026 -0.0000010838948346201833 -0.0000010840952977004733
          -0.000001235864396419588 -0.000001236140792972976 -0.0000012365778759914515 -0.000001387828796058436 -0.0000013875143322227364 -0.000001387615963949192
          -0.0000015372562140599152 -0.0000015368390581128388 -0.0000015356481487723498 -0.000001694383386906739 -0.0000016936077975838395 -0.0000016911003047302636
          -0.000001866238867674136 -0.0000018650986422012191 -0.0000018619471831028735 -0.00000205574870311926 -0.0000020543973197183105 -0.00000205078553538959
          -0.000002263141880821682 -0.0000022612715267493824 -0.0000022567711668337455 -0.0000024888798133903004 -0.000002486147498544924 -0.0000024794776566284103
          -0.00000273618337577897 -0.0000027322351601185346 -0.000002721740808834257 -0.000003009465742915899 -0.0000030038170766223283 -0.0000029875836248014756
          -0.000003315287584771009 -0.000003307709761180855 -0.000003283473958955981 -0.0000036685412373647295 -0.0000036588776564950472 -0.0000036259019990862555
          0 -1.4985446107851494e-7 0 -1.4962765631127433e-7 0 -1.4801539007468076e-7
          -3.09513604309375e-7 -3.0931613472024257e-7 -3.088481517424588e-7 -4.681240966655206e-7 -4.680777519773245e-7 -4.679729100719036e-7
          -6.22740023430174e-7 -6.227580274095161e-7 -6.225741897259668e-7 -7.774231755363845e-7 -7.773746276287033e-7 -7.772765804462047e-7
          -9.324309821160994e-7 -9.323470470370334e-7 -9.324674410503649e-7 -0.0000010857807353965867 -0.0000010860313141688208 -0.000001086357982813126
          -0.0000012387589858447098 -0.0000012391502619409613 -0.0000012397440254734028 -0.0000013893369200041315 -0.0000013886300758950981 -0.0000013884100746648089
          -0.0000015397361622808125 -0.000001539333314039836 -0.000001537637197845749 -0.000001700716202797026 -0.0000016997486355278935 -0.0000016969209050182145
          -0.000001876054570440296 -0.000001874831576537435 -0.0000018712849400972307 -0.0000020698135376617597 -0.0000020681886353462653 -0.0000020638696446055843
          -0.0000022799751882115994 -0.0000022776968272419264 -0.000002271927642145653 -0.0000025068237611649016 -0.000002503524665730175 -0.0000024946618501956438
          -0.0000027554865946497416 -0.000002750586815213529 -0.000002736235995149778 -0.0000030336412271586275 -0.0000030263830756716303 -0.000003004007093485961
          -0.000003354944821247781 -0.0000033451220074843045 -0.0000033120927099731546 -0.0000037444209869781403 -0.000003730241730346295 -0.000003687658021907041
          0 -1.493375149064778e-7 0 -1.4895576200324772e-7 0 -1.4712442295771017e-7
          -3.1327148844578925e-7 -3.132459013190946e-7 -3.1289210194880056e-7 -4.708278568587192e-7 -4.7078910763420473e-7 -4.707115393944319e-7
          -6.246308481576287e-7 -6.246446682851071e-7 -6.245221762147534e-7 -7.787976041799022e-7 -7.787803566829248e-7 -7.787463511929062e-7
          -9.335455794897317e-7 -9.335169289637635e-7 -9.336191783283706e-7 -0.000001088023957780162 -0.0000010883930052359132 -0.0000010885995824799028
          -0.0000012410180979734953 -0.0000012408219873512227 -0.0000012417834885529579 -0.000001389780097644481 -0.0000013895576333664965 -0.0000013887096794333505
          -0.0000015439714042296067 -0.0000015433392275294223 -0.0000015411241540456169 -0.0000017091983705525826 -0.0000017081420556512146 -0.0000017050586944028248
          -0.00000188864237895177 -0.0000018872138807567863 -0.0000018829644573653888 -0.0000020861303118804206 -0.000002084357521892614 -0.0000020790517639689174
          -0.0000022998445754557393 -0.00000229723484492734 -0.0000022897947284539737 -0.0000025304194507536823 -0.0000025267323957299643 -0.000002514794896778451
          -0.0000027855107743852485 -0.0000027797682087788116 -0.000002760487111624348 -0.0000030766273539914994 -0.0000030682551086924995 -0.00000303829147723951
          -0.0000034253518253845414 -0.0000034133419990552757 -0.000003369832397289477 -0.0000038635718425786835 -0.000003847764372325224 -0.0000037911967754629934
          -0.0000044364434662935625 -0.0000044194390845206655 -0.000004352088048037092 -0.000005199600455344312 -0.0000051769032021259825 -0.000005102508547219515
          -1.8348867334047422e-7 0 -1.8501391369927448e-7 0 -1.9116373472776443e-7 0
          -3.341744284528665e-7 -3.3477140611540437e-7 -3.3564379632625265e-7 -4.821097601508133e-7 -4.820872717689526e-7 -4.822349855965749e-7
          -6.316679989292155e-7 -6.31696793361545e-7 -6.31886126866492e-7 -7.835585071439022e-7 -7.835814916697156e-7 -7.835915006086925e-7
          -9.37636876793752e-7 -9.376762532834642e-7 -9.378275433637708e-7 -0.0000027641576798519072 -0.0000027572101638753617 -0.0000027361562631165932
          -0.0000031185779228789668 -0.000003108932751977548 -0.0000030795306916590115 -0.0000035565704614653826 -0.0000035437064719241205 -0.000003504424931774343
          -0.0000041154343611418 -0.000004099043602622489 -0.000004049738428449124 -0.000004839455210403374 -0.000004820158254942846 -0.000004761635681994102
          -0.000006462580463229711 -0.000006447301065095712 -0.000006401015605253762 -0.000005779053634739017 -0.00000575767667571247 -0.000005695126676359447
          -0.000007770537031743104 -0.00000775529137637551 -0.000007709184926960477 -0.000006980582326981377 -0.000006959756548782509 -0.000006899468116761741
          -0.000009346427148072928 -0.000009332118636461105 -0.000009288145500397561 -0.000008478386120522843 -0.00000846051895764648 -0.000008406011906061464
          -0.000011223931374433199 -0.000011211931867184464 -0.000011175554836911955 -0.000003876981408310621 -0.000003875492920549423 -0.0000038752467299211926
          -0.0000038741097607870034 -0.000003873144235545153 -0.000003872796943942125 -0.0000038818417618760125 -0.000003879151702297993 -0.000003874799441999047
          -0.000003891503623101664 -0.000003887608642130604 -0.000003879357408384536 -0.000003909371932719666 -0.000003903967718562373 -0.0000038900608474865884
          -0.000003941409193088671 -0.000003934292441637338 -0.000003912145723409647 -0.000003996544291918524 -0.000003988321553790975 -0.0000039579950775895145
          -0.0000040936267506701444 -0.000004077201476486909 -0.000004038824548258548 -0.000004226492531286481 -0.00000421867885398248 -0.000004165022723109185
          -0.000004858248132870762 -0.000004844158306202335 -0.000004787477446992899 -0.000006188488892209228 -0.000005709957790938407 -0.00000616179022196748
          -0.000005684118747617947 -0.000006086051837580514 -0.000005612399297111341 -1.8343539549578162e-7 0 -1.8477635301187738e-7
          0 -1.9023007694958708e-7 0 -3.3716969967179926e-7 -3.3787136353894225e-7 -3.3925949402693e-7
          -4.836459167089861e-7 -4.836123270478562e-7 -4.83573806293433e-7 -6.335713916370052e-7 -6.335641646586953e-7 -6.335608023545554e-7
          -7.860327810207036e-7 -7.859682155221673e-7 -7.86111756526453e-7 -9.400225486442095e-7 -9.396354479853308e-7 -9.38857342714972e-7
          -0.000001092069513118537 -0.0000010918623473333837 -0.000001091864206809999 -0.0000010978083374302503 -0.0000010971183529534117 -0.0000010948723881864835
          -0.0000012469145304430879 -0.0000012466069158958797 -0.0000012455851321508113 -0.0000014073352853159785 -0.0000014065859319051162 -0.0000014042719212390257
          -0.0000015806682302848357 -0.0000015793448147332317 -0.0000015756399224792902 -0.0000017708406819577987 -0.0000017691059570732347 -0.0000017642305156826055
          -0.0000019795847725019702 -0.0000019771777421369896 -0.000001970458779936134 -0.0000022079985914461127 -0.0000022043214168486702 -0.0000021940945378753584
          -0.000002465905636199037 -0.0000024610982772516328 -0.0000024461909545554757 -0.000003291164342855285 -0.0000028435954204146244 -0.00000328179522617777
          -0.0000028361522808204456 -0.000003252629072984829 -0.0000028128933049802476 -0.000003843962941344178 -0.000003832642809549174 -0.000003797385231800768
          -0.000004533484555527804 -0.0000045203119869343966 -0.000004479715671784063 -0.000005394575726510296 -0.000005380047734961253 -0.000005335432243289719
          -0.000008593159679973165 -0.0000071943360259559525 -0.000008581251682554082 -0.000007181803488258091 -0.00000854613486177218 -0.0000071441475606909685
          -0.000010221760082835804 -0.000010211059095159341 -0.000010179704178576342 -0.000012087285692844053 -0.000012078319624176798 -0.000012051463061107549
          -0.000014202762611918544 -0.00001419692745504395 -0.00001417902349229733 -0.000010302421557546822 -0.00000745920805118148 -0.000010287990690537327
          -0.000007433269849756787 -0.000010244175915542826 -0.000007361211936899557 -0.000013403059227578947 -0.000013395037672950986 -0.000013371280021610652
          -0.00001653969891727832 -0.00001653831139126421 -0.000016533812808571123
        </DataArray>
        <DataArray type="Float64" Name="disp_z" format="ascii" RangeMin="-0.000001916460473104517" RangeMax="0">
          0 0 0 0 -5.570338256569513e-8 -5.549296585509202e-8
          -5.608481678898288e-8 -5.575715268313603e-8 -1.1118353988095015e-7 -1.1132861545032725e-7 -1.1157225282296242e-7 -1.1197295653232031e-7
          0 0 -5.5469543318388015e-8 -5.790331788477811e-8 -1.1496135336889157e-7 -1.1271796507270687e-7
          0 0 -5.6898617430982115e-8 -5.6694854494006144e-8 -1.1316705374098347e-7 -1.1339952630086713e-7
          0 0 -5.6152622300074106e-8 -5.658463327527389e-8 -1.1329869069319742e-7 -1.1258163339553626e-7
          0 0 -5.391574137656114e-8 -4.5339962347068986e-8 -9.792867697574857e-8 -1.0306521745796881e-7
          0 0 -5.138759698703484e-8 -5.1672245898998104e-8 -1.0557504387541615e-7 -1.0237595093957858e-7
          0 0 -5.624394863928224e-8 -5.4324999318993245e-8 -1.1323846494013174e-7 -1.1273583479273488e-7
          0 0 -5.7755403232994745e-8 -5.812781250506196e-8 -1.153827602175914e-7 -1.1531750640303088e-7
          0 0 -5.8384930622248793e-8 -5.8276347333610815e-8 -1.167372502008614e-7 -1.1679586236597265e-7
          0 0 -5.894203644732085e-8 -5.898527269117339e-8 -1.1785646685634387e-7 -1.1788235790197956e-7
          0 0 -5.954716550522747e-8 -5.9582193538666985e-8 -1.1909914526638291e-7 -1.1916155858653754e-7
          0 0 -6.127622289673959e-8 -6.112914152734246e-8 -1.228870637963099e-7 -1.2290431121970932e-7
          0 0 -6.582163054264971e-8 -6.574446982650312e-8 -1.3181500688021185e-7 -1.3167560127562765e-7
          0 0 -7.401252147473887e-8 -7.400409627126239e-8 -1.480799647577449e-7 -1.4802931940585187e-7
          0 0 -8.362602360604795e-8 -8.389576053948566e-8 -1.6686027831752004e-7 -1.6715395221577558e-7
          0 0 -9.188045971289088e-8 -9.232919665219769e-8 -1.8267300585652845e-7 -1.8345402197601414e-7
          0 0 -9.562978711808914e-8 -9.651867946094426e-8 -1.9071994556996213e-7 -1.9191089843015738e-7
          0 0 -9.287892784769633e-8 -9.316347818626493e-8 -1.863730584567434e-7 -1.8592320112968705e-7
          0 0 -8.374171499189532e-8 -8.309183817376019e-8 -1.7115994838702995e-7 -1.6975892629815303e-7
          0 0 -5.542579084538104e-8 -5.6078751922188194e-8 -1.1120436752145552e-7 -1.1149255323779223e-7
          0 -5.5125111211212573e-8 -1.1496198327270034e-7 0 -5.6946803140328366e-8 -1.1321753496468669e-7
          0 -5.622177890061282e-8 -1.137981509986572e-7 0 -5.8145083610120564e-8 -1.0269916868669607e-7
          0 -5.37859340275197e-8 -1.1044837347040655e-7 0 -5.809473542030624e-8 -1.1465939012201051e-7
          0 -5.751359088055267e-8 -1.1536203286842522e-7 0 -5.845738164340934e-8 -1.1674180723095754e-7
          0 -5.8848594035332176e-8 -1.177559934836307e-7 0 -5.941460692912507e-8 -1.1885903817965055e-7
          0 -6.153428004116852e-8 -1.230227675247682e-7 0 -6.620780583686559e-8 -1.3260198700782313e-7
          0 -7.405173578950898e-8 -1.4817451032883284e-7 0 -8.297440137383468e-8 -1.6574533132219287e-7
          0 -9.028251703664387e-8 -1.802373503720963e-7 0 -9.359113118632131e-8 -1.8741308690278786e-7
          0 -9.170299751383789e-8 -1.8602625152157595e-7 0 -8.563189480662121e-8 -1.7622098987544565e-7
          0 0 -5.5478728012402305e-8 -5.5740466257792444e-8 -1.107961950445981e-7 -1.1172464506030157e-7
          0 -5.721690000194761e-8 -1.1274762229485e-7 0 -5.6821047574137766e-8 -1.136170020542922e-7
          0 -5.686502131553958e-8 -1.1355751970777924e-7 0 -5.5075342703906685e-8 -1.1487726023844248e-7
          0 -5.7308477659288514e-8 -1.1380400584286898e-7 0 -5.7672015992962023e-8 -1.1529591644146366e-7
          0 -5.7772956506085566e-8 -1.1543002942932396e-7 0 -5.841205258884452e-8 -1.1676040916871705e-7
          0 -5.861502409779893e-8 -1.1740981900686668e-7 0 -5.919000121146096e-8 -1.1839920841123009e-7
          0 -6.181453053660275e-8 -1.236537255325192e-7 0 -6.665753444244941e-8 -1.3370647000160608e-7
          0 -7.388644384039124e-8 -1.4799232096129678e-7 0 -8.178384878110634e-8 -1.6372930323650916e-7
          0 -8.781703488155424e-8 -1.7669115554475607e-7 0 -9.10697150816109e-8 -1.8407085835671596e-7
          0 -9.048371402892565e-8 -1.8648020196283715e-7 0 -8.897241165366853e-8 -1.8696979838562495e-7
          0 0 -5.5244340485376564e-8 -5.573197058569659e-8 -1.1042156598160798e-7 -1.1150607811718297e-7
          0 -5.680299014783285e-8 -1.1302069202598553e-7 0 -5.689457359139119e-8 -1.1372398360773438e-7
          0 -5.7064846488043184e-8 -1.1409806114328005e-7 0 -5.7249526789682286e-8 -1.1583267643642938e-7
          0 -5.8185100057639566e-8 -1.1609309811899498e-7 0 -5.769924950936007e-8 -1.151644640880622e-7
          0 -5.7812481152964515e-8 -1.1554707327925368e-7 0 -5.8378682164994243e-8 -1.1672656885928751e-7
          0 -5.8289521267355995e-8 -1.161604977585694e-7 0 -5.886225614749805e-8 -1.1799626683783973e-7
          0 -6.21378895404405e-8 -1.2458800111873338e-7 0 -6.711244078608913e-8 -1.347200599319654e-7
          0 -7.345700566474034e-8 -1.4765270704445975e-7 0 -7.99660759617751e-8 -1.6131442847817263e-7
          0 -8.512748629808084e-8 -1.7330990214840872e-7 0 -8.889330146556612e-8 -1.832927697307238e-7
          0 -9.1917688056884e-8 -1.9325562864828696e-7 0 -9.6021461652199e-8 -2.067647447254664e-7
          0 0 -5.4843204974235454e-8 -5.55827010041036e-8 -1.0971885829861271e-7 -1.1124099035149793e-7
          0 -5.66385544849801e-8 -1.1301272003154001e-7 0 -5.6953152308041686e-8 -1.1387143104185534e-7
          0 -5.7267280131162757e-8 -1.1451525538711624e-7 0 -5.796014552193485e-8 -1.1628997232052589e-7
          0 -5.834352650210271e-8 -1.1640332529204929e-7 0 -5.77088736634664e-8 -1.1525608573723796e-7
          0 -5.78037776709929e-8 -1.1552465784665386e-7 0 -5.8139410613725226e-8 -1.163850726951066e-7
          0 -5.7272697947080534e-8 -1.1416191239686586e-7 0 -5.8677369358895687e-8 -1.1792648453796619e-7
          0 -6.266830846467744e-8 -1.2587253788480495e-7 0 -6.757967877100045e-8 -1.35935733609222e-7
          0 -7.305868317695709e-8 -1.4759839364591135e-7 0 -7.826479559473331e-8 -1.5970454393270935e-7
          0 -8.338138096775756e-8 -1.722992342329136e-7 0 -8.904438347527188e-8 -1.8772031993065816e-7
          0 -9.807188254801575e-8 -2.1032554498452406e-7 0 -1.129481183290784e-7 -2.453743573090777e-7
          0 0 -5.40034060753472e-8 -5.527994528758172e-8 -1.0843227205728442e-7 -1.1080867724008033e-7
          0 -5.661527556332134e-8 -1.1313935460116155e-7 0 -5.702987673569967e-8 -1.1405403753616513e-7
          0 -5.74223692347429e-8 -1.1480158553964786e-7 0 -5.807402502600131e-8 -1.1625613562540466e-7
          0 -5.853301972429786e-8 -1.1641124923713424e-7 0 -5.767064754892454e-8 -1.1519412148891662e-7
          0 -5.779344010370395e-8 -1.1569974330850449e-7 0 -5.721588324421671e-8 -1.1473409523867206e-7
          0 -5.594956183795493e-8 -1.1233223137647545e-7 0 -5.8850289832823285e-8 -1.1844057029276701e-7
          0 -6.341490069998325e-8 -1.276927354171356e-7 0 -6.821607168433207e-8 -1.379813402404554e-7
          0 -7.335374581741975e-8 -1.489039152461488e-7 0 -7.822829496404303e-8 -1.6098558734771874e-7
          0 -8.496196423420534e-8 -1.773301199179251e-7 0 -9.55192242264666e-8 -2.0265071343741938e-7
          0 -1.1410898056792028e-7 -2.4383268807503673e-7 0 -1.4578541432905e-7 -3.112656026434074e-7
          0 0 -5.2257217343505234e-8 -5.476944276414102e-8 -1.0600657693742478e-7 -1.101634805883866e-7
          0 -5.6702245115063294e-8 -1.1339300638050543e-7 0 -5.712637521391479e-8 -1.1427150148025025e-7
          0 -5.7523582747163116e-8 -1.1499062091629753e-7 0 -5.8010618934282304e-8 -1.1613982864481462e-7
          0 -5.839540885880189e-8 -1.1619086511221719e-7 0 -5.7537345745756747e-8 -1.1501267194929004e-7
          0 -5.7889437280708545e-8 -1.1573851839509485e-7 0 -5.559938097021331e-8 -1.1141285533733846e-7
          0 -5.5594352489226154e-8 -1.1188196838985499e-7 0 -5.951560887408871e-8 -1.1973204787095786e-7
          0 -6.464015964388163e-8 -1.302808840572661e-7 0 -7.027587262675434e-8 -1.418802627691466e-7
          0 -7.561006710443234e-8 -1.5335746968800616e-7 0 -8.206995744265391e-8 -1.6813622962984849e-7
          0 -9.337413154059268e-8 -1.9253432701823002e-7 0 -1.1356491120622693e-7 -2.3437225007696028e-7
          0 -1.4784248298941395e-7 -3.0282205634501087e-7 0 -2.0148456805673152e-7 -4.1182561636564213e-7
          0 0 -4.8421611945883314e-8 -5.4117804154732775e-8 -1.0232009569348919e-7 -1.0945167815301382e-7
          0 -5.6841388967741856e-8 -1.1378094182921475e-7 0 -5.724685841508194e-8 -1.1452129857879715e-7
          0 -5.754116788208287e-8 -1.1511614386268781e-7 0 -5.819102861912603e-8 -1.1602979601782496e-7
          0 -5.785024936478847e-8 -1.1574237108315213e-7 0 -5.7487819964884556e-8 -1.1505107869501557e-7
          0 -5.7185901844666865e-8 -1.1362181116721464e-7 0 -5.4448625587742765e-8 -1.0885310998613716e-7
          0 -5.6482475098920873e-8 -1.1342693956082894e-7 0 -6.102273574086056e-8 -1.2195486652868263e-7
          0 -6.67982792786307e-8 -1.3407934024613235e-7 0 -7.416619763165211e-8 -1.481214405766839e-7
          0 -8.099135530895416e-8 -1.6242662032655127e-7 0 -9.202855738359382e-8 -1.8422081064748563e-7
          0 -1.1193898468673886e-7 -2.226028443082824e-7 0 -1.4679631804470235e-7 -2.8890096234509594e-7
          0 -2.031277708754701e-7 -3.9570139345244535e-7 0 -2.856437990666512e-7 -5.528562405355026e-7
          0 0 -4.7663669432442354e-8 -5.4286545543975986e-8 -8.657393078729579e-8 -1.0904618658800581e-7
          0 -5.7090447933855436e-8 -1.1399030687078617e-7 0 -5.742084993888107e-8 -1.1479848563265941e-7
          0 -5.7571218030177894e-8 -1.151572512287997e-7 0 -5.800603580359482e-8 -1.157504117561488e-7
          0 -5.7683304507313435e-8 -1.1527990031091132e-7 0 -5.752819856967794e-8 -1.1523746088644378e-7
          0 -5.4753635893265046e-8 -1.1056680488153303e-7 0 -5.4696559768681134e-8 -1.1009341062486829e-7
          0 -5.8025340048733386e-8 -1.172688699053643e-7 0 -6.301646875557547e-8 -1.2722287921545494e-7
          0 -6.90986874891093e-8 -1.3975604598457813e-7 0 -7.846168104946087e-8 -1.5906132389838896e-7
          0 -8.875042811818072e-8 -1.8051234791265543e-7 0 -1.0625958018670021e-7 -2.16933449950496e-7
          0 -1.366506374214627e-7 -2.7891486754449896e-7 0 -1.87417772189255e-7 -3.8095253573593353e-7
          0 -2.673299084929468e-7 -5.400816488809205e-7 0 -3.8044557525856664e-7 -7.600794000239394e-7
          0 -5.237595918987048e-7 -0.0000010398671421462936 0 -6.740400676864247e-7 -0.0000013330224020905543
          0 0 -6.448189495149073e-8 -8.481996583770168e-8 -1.2691513072188146e-7 -1.7799426741796458e-7
          0 -5.852821564912129e-8 -1.1759986886114217e-7 0 -5.8478928845600834e-8 -1.1689134869357551e-7
          0 -5.778470088409188e-8 -1.154295780927914e-7 0 -5.760507769225307e-8 -1.1530329315188262e-7
          0 -5.751870818992201e-8 -1.1518092248160031e-7 0 -1.5171338592001576e-7 -3.057939473166041e-7
          0 -1.9858957626003165e-7 -3.987370620198438e-7 0 -2.6319169627039116e-7 -5.262135400967055e-7
          0 -3.477993479770175e-7 -6.922330508096403e-7 0 -4.504712403858239e-7 -8.931325491779036e-7
          0 -5.333308406649094e-7 -0.0000010692688139946345 0 -5.684024422853634e-7 -0.0000011235876459679754
          0 -6.192361545035734e-7 -0.0000012406598312519588 0 -6.859133452702035e-7 -0.0000013546825041521612
          0 -7.041168525884977e-7 -0.0000014100884366277595 0 -7.952027504783596e-7 -0.000001570911684721356
          0 -7.812361211349249e-7 -0.0000015634349497576678 0 0 -7.626133613892042e-8
          -7.465377011666743e-8 -1.598371321309924e-7 -1.5640599421188284e-7 0 -8.104677331924377e-8 -1.7185978161593274e-7
          0 -9.079118942963374e-8 -1.958977447958285e-7 0 -1.0853318347220464e-7 -2.379271770271008e-7
          0 -1.397622809131172e-7 -3.0568415759914395e-7 0 -1.8774746068729378e-7 -3.959885066718462e-7
          0 -2.633565414527022e-7 -5.37427823739485e-7 0 -3.908108678112301e-7 -7.537404958966125e-7
          0 -5.069974289571383e-7 -9.94373278901874e-7 0 0 -8.333785156063323e-7
          -6.772240742270217e-7 -0.00000164402756191451 -0.0000013020992396838792 0 0 -6.487745767896161e-8
          -8.031357902026874e-8 -1.2697732222062978e-7 -1.7234519935756456e-7 0 -5.7954304981443545e-8 -1.1645994013361045e-7
          0 -5.7473513179309095e-8 -1.1487062128916851e-7 0 -5.775730443613056e-8 -1.1556146883048819e-7
          0 -5.718999354340562e-8 -1.1449103661720885e-7 0 -5.689220999973149e-8 -1.1403168089065889e-7
          0 -5.6879942498195264e-8 -1.1380824831938752e-7 0 -5.9204047407721596e-8 -1.1907235830631972e-7
          0 -5.702978216003327e-8 -1.1487791906966253e-7 0 -5.994406868865575e-8 -1.2052204179932743e-7
          0 -6.524869191583576e-8 -1.3120854565493504e-7 0 -7.246828642663958e-8 -1.4617007662151588e-7
          0 -8.206550374757448e-8 -1.6555526644349612e-7 0 -9.609126156908855e-8 -1.9451856482840783e-7
          0 -1.1908687406585177e-7 -2.4063702881687543e-7 0 0 -2.3201670659643536e-7
          -1.8235067892756486e-7 -4.6770782105850963e-7 -3.6858718388304846e-7 0 -2.9351890560930187e-7 -5.905490435140998e-7
          0 -3.6611538930958784e-7 -7.352509871041294e-7 0 -4.4706326336996833e-7 -8.96678110669356e-7
          0 0 -6.136706264395253e-7 -5.443584478154526e-7 -0.0000012242013961585483 -0.000001086042156519109
          0 -6.748011730625802e-7 -0.0000013464025153272328 0 -7.295827349479088e-7 -0.0000014555957408816002
          0 -7.732366712648909e-7 -0.0000015428730362912977 0 0 -8.890693697156984e-7
          -9.717459839614696e-7 -0.000001758259496463293 -0.000001916460473104517 0 -8.391639280601558e-7 -0.000001677587903345442
          0 -7.945169662776715e-7 -0.0000015849691990001925
        </DataArray>
      </PointData>
      <CellData>
        <DataArray type="Int32" Name="libmesh_elem_id" format="ascii" RangeMin="0" RangeMax="1173">
          0 1 2 3 4 5
          6 7 8 9 10 11
          12 13 14 15 16 17
          18 19 20 21 22 23
          24 25 26 27 28 29
          30 31 32 33 34 35
          36 37 38 39 58 59
          60 61 62 63 64 65
          66 67 68 69 70 71
          72 73 74 75 76 77
          78 79 80 81 82 83
          84 85 86 87 88 89
          90 91 92 93 94 95
          96 97 116 117 118 119
          120 121 122 123 124 125
          126 127 128 129 130 131
          132 133 134 135 136 137
          138 139 140 141 142 143
          144 145 146 147 148 149
          150 151 152 153 154 155
          174 175 176 177 178 179
          180 181 182 183 184 185
          186 187 188 189 190 191
          192 193 194 195 196 197
          198 199 200 201 202 203
          204 205 206 207 208 209
          210 211 212 213 232 233
          234 235 236 237 238 239
          240 241 242 243 244 245
          246 247 248 249 250 251
          252 253 254 255 256 257
          258 259 260 261 262 263
          264 265 266 267 268 269
          270 271 290 291 292 293
          294 295 296 297 298 299
          300 301 302 303 304 305
          306 307 308 309 310 311
          312 313 314 315 316 317
          318 319 320 321 322 323
          324 325 326 327 328 329
          348 349 350 351 352 353
          354 355 356 357 358 359
          360 361 362 363 364 365
          366 367 368 369 370 371
          372 373 374 375 376 377
          378 379 380 381 382 383
          384 385 386 387 406 407
          408 409 410 411 412 413
          414 415 416 417 418 419
          420 421 422 423 424 425
          426 427 428 429 430 431
          432 433 434 435 436 437
          438 439 440 441 442 443
          444 445 464 465 466 467
          468 469 470 471 472 473
          474 475 476 477 478 479
          480 481 482 483 484 485
          486 487 488 489 490 491
          492 493 494 495 496 497
          498 499 500 501 502 503
          504 505 506 507 772 773
          774 775 790 791 792 793
          808 809 810 811 826 827
          828 829 844 845 846 847
          862 863 864 865 880 881
          882 883 898 899 916 917
          934 935 952 953 970 971
          988 989 1006 1007 1024 1025
          1026 1027 1042 1043 1044 1045
          1060 1061 1062 1063 1078 1079
          1080 1081 1096 1097 1098 1099
          1100 1101 1114 1115 1116 1117
          1118 1119 1132 1133 1134 1135
          1136 1137 1150 1151 1152 1153
          1154 1155 1168 1169 1170 1171
          1172 1173
        </DataArray>
        <DataArray type="Int32" Name="subdomain_id" format="ascii" RangeMin="103" RangeMax="105">
          103 103 103 103 103 103
          103 103 103 103 103 103
          103 103 103 103 103 103
          103 103 103 103 103 103
          103 103 103 103 103 103
          103 103 103 103 103 103
          103 103 103 103 103 103
          103 103 103 103 103 103
          103 103 103 103 103 103
          103 103 103 103 103 103
          103 103 103 103 103 103
          103 103 103 103 103 103
          103 103 103 103 103 103
          103 103 103 103 103 103
          103 103 103 103 103 103
          103 103 103 103 103 103
          103 103 103 103 103 103
          103 103 103 103 103 103
          103 103 103 103 103 103
          103 103 103 103 103 103
          103 103 103 103 103 103
          103 103 103 103 103 103
          103 103 103 103 103 103
          103 103 103 103 103 103
          103 103 103 103 103 103
          103 103 103 103 103 103
          103 103 103 103 103 103
          103 103 103 103 103 103
          103 103 103 103 103 103
          103 103 103 103 103 103
          103 103 103 103 103 103
          103 103 103 103 103 103
          103 103 103 103 103 103
          103 103 103 103 103 103
          103 103 103 103 103 103
          103 103 103 103 103 103
          103 103 103 103 103 103
          103 103 103 103 103 103
          103 103 103 103 103 103
          103 103 103 103 103 103
          103 103 103 103 103 103
          103 103 103 103 103 103
          103 103 103 103 103 103
          103 103 103 103 103 103
          103 103 103 103 103 103
          103 103 103 103 103 103
          103 103 103 103 103 103
          103 103 103 103 103 103
          103 103 103 103 103 103
          103 103 103 103 103 103
          103 103 103 103 103 103
          103 103 103 103 103 103
          103 103 103 103 103 103
          103 103 103 103 103 103
          103 103 103 103 103 103
          103 103 103 103 103 103
          103 103 103 103 103 103
          103 103 103 103 103 103
          103 103 103 103 103 103
          103 103 103 103 103 103
          103 103 103 103 105 105
          105 105 105 105 105 105
          105 105 105 105 105 105
          105 105 105 105 105 105
          105 105 105 105 105 105
          105 105 105 105 105 105
          105 105 105 105 105 105
          105 105 105 105 105 105
          105 105 105 105 105 105
          105 105 105 105 105 105
          105 105 105 105 105 105
          105 105 105 105 105 105
          105 105 105 105 105 105
          105 105 105 105 105 105
          105 105 105 105 105 105
          105 105
        </DataArray>
        <DataArray type="Int32" Name="processor_id" format="ascii" RangeMin="7" RangeMax="7">
          7 7 7 7 7 7
          7 7 7 7 7 7
          7 7 7 7 7 7
          7 7 7 7 7 7
          7 7 7 7 7 7
          7 7 7 7 7 7
          7 7 7 7 7 7
          7 7 7 7 7 7
          7 7 7 7 7 7
          7 7 7 7 7 7
          7 7 7 7 7 7
          7 7 7 7 7 7
          7 7 7 7 7 7
          7 7 7 7 7 7
          7 7 7 7 7 7
          7 7 7 7 7 7
          7 7 7 7 7 7
          7 7 7 7 7 7
          7 7 7 7 7 7
          7 7 7 7 7 7
          7 7 7 7 7 7
          7 7 7 7 7 7
          7 7 7 7 7 7
          7 7 7 7 7 7
          7 7 7 7 7 7
          7 7 7 7 7 7
          7 7 7 7 7 7
          7 7 7 7 7 7
          7 7 7 7 7 7
          7 7 7 7 7 7
          7 7 7 7 7 7
          7 7 7 7 7 7
          7 7 7 7 7 7
          7 7 7 7 7 7
          7 7 7 7 7 7
          7 7 7 7 7 7
          7 7 7 7 7 7
          7 7 7 7 7 7
          7 7 7 7 7 7
          7 7 7 7 7 7
          7 7 7 7 7 7
          7 7 7 7 7 7
          7 7 7 7 7 7
          7 7 7 7 7 7
          7 7 7 7 7 7
          7 7 7 7 7 7
          7 7 7 7 7 7
          7 7 7 7 7 7
          7 7 7 7 7 7
          7 7 7 7 7 7
          7 7 7 7 7 7
          7 7 7 7 7 7
          7 7 7 7 7 7
          7 7 7 7 7 7
          7 7 7 7 7 7
          7 7 7 7 7 7
          7 7 7 7 7 7
          7 7 7 7 7 7
          7 7 7 7 7 7
          7 7 7 7 7 7
          7 7 7 7 7 7
          7 7 7 7 7 7
          7 7 7 7 7 7
          7 7 7 7 7 7
          7 7 7 7 7 7
          7 7 7 7 7 7
          7 7 7 7 7 7
          7 7 7 7 7 7
          7 7 7 7 7 7
          7 7 7 7 7 7
          7 7 7 7 7 7
          7 7 7 7 7 7
          7 7 7 7 7 7
          7 7 7 7 7 7
          7 7 7 7 7 7
          7 7
        </DataArray>
      </CellData>
      <Points>
        <DataArray type="Float64" Name="Points" NumberOfComponents="3" format="ascii" RangeMin="0" RangeMax="0.009803689505302022">
          0 0 0 0.00011111111111093 0 0
          0.00011111111111095 0.00041379310344969 0 0 0.00041379310344996 0
          0 0 0.00015 0.00011111111111093 0 0.00015
          0.00011111111111095 0.00041379310344969 0.00015 0 0.00041379310344996 0.00015
          0 0 0.0003 0.00011111111111093 0 0.0003
          0.00011111111111095 0.00041379310344969 0.0003 0 0.00041379310344996 0.0003
          0.00011111111111096 0.00082758620689912 0 0 0.00082758620689964 0
          0.00011111111111096 0.00082758620689912 0.00015 0 0.00082758620689964 0.00015
          0.00011111111111096 0.00082758620689912 0.0003 0 0.00082758620689964 0.0003
          0.00011111111111098 0.0012413793103467 0 0 0.0012413793103472 0
          0.00011111111111098 0.0012413793103467 0.00015 0 0.0012413793103472 0.00015
          0.00011111111111098 0.0012413793103467 0.0003 0 0.0012413793103472 0.0003
          0.00011111111111099 0.0016551724137963 0 0 0.0016551724137971 0
          0.00011111111111099 0.0016551724137963 0.00015 0 0.0016551724137971 0.00015
          0.00011111111111099 0.0016551724137963 0.0003 0 0.0016551724137971 0.0003
          0.00011111111111101 0.002068965517246 0 0 0.0020689655172471 0
          0.00011111111111101 0.002068965517246 0.00015 0 0.0020689655172471 0.00015
          0.00011111111111101 0.002068965517246 0.0003 0 0.0020689655172471 0.0003
          0.00011111111111102 0.0024827586206956 0 0 0.002482758620697 0
          0.00011111111111102 0.0024827586206956 0.00015 0 0.002482758620697 0.00015
          0.00011111111111102 0.0024827586206956 0.0003 0 0.002482758620697 0.0003
          0.00011111111111104 0.0028965517241444 0 0 0.002896551724146 0
          0.00011111111111104 0.0028965517241444 0.00015 0 0.002896551724146 0.00015
          0.00011111111111104 0.0028965517241444 0.0003 0 0.002896551724146 0.0003
          0.00011111111111105 0.0033103448275919 0 0 0.0033103448275936 0
          0.00011111111111105 0.0033103448275919 0.00015 0 0.0033103448275936 0.00015
          0.00011111111111105 0.0033103448275919 0.0003 0 0.0033103448275936 0.0003
          0.00011111111111107 0.0037241379310415 0 0 0.0037241379310435 0
          0.00011111111111107 0.0037241379310415 0.00015 0 0.0037241379310435 0.00015
          0.00011111111111107 0.0037241379310415 0.0003 0 0.0037241379310435 0.0003
          0.00011111111111108 0.0041379310344912 0 0 0.0041379310344935 0
          0.00011111111111108 0.0041379310344912 0.00015 0 0.0041379310344935 0.00015
          0.00011111111111108 0.0041379310344912 0.0003 0 0.0041379310344935 0.0003
          0.0001111111111111 0.0045517241379399 0 0 0.0045517241379424 0
          0.0001111111111111 0.0045517241379399 0.00015 0 0.0045517241379424 0.00015
          0.0001111111111111 0.0045517241379399 0.0003 0 0.0045517241379424 0.0003
          0.00011111111111111 0.004965517241389 0 0 0.0049655172413917 0
          0.00011111111111111 0.004965517241389 0.00015 0 0.0049655172413917 0.00015
          0.00011111111111111 0.004965517241389 0.0003 0 0.0049655172413917 0.0003
          0.00011111111111113 0.0053793103448383 0 0 0.0053793103448414 0
          0.00011111111111113 0.0053793103448383 0.00015 0 0.0053793103448414 0.00015
          0.00011111111111113 0.0053793103448383 0.0003 0 0.0053793103448414 0.0003
          0.00011111111111114 0.005793103448287 0 0 0.0057931034482903 0
          0.00011111111111114 0.005793103448287 0.00015 0 0.0057931034482903 0.00015
          0.00011111111111114 0.005793103448287 0.0003 0 0.0057931034482903 0.0003
          0.00011111111111116 0.0062068965517355 0 0 0.0062068965517387 0
          0.00011111111111116 0.0062068965517355 0.00015 0 0.0062068965517387 0.00015
          0.00011111111111116 0.0062068965517355 0.0003 0 0.0062068965517387 0.0003
          0.00011111111111117 0.006620689655183 0 0 0.006620689655186 0
          0.00011111111111117 0.006620689655183 0.00015 0 0.006620689655186 0.00015
          0.00011111111111117 0.006620689655183 0.0003 0 0.006620689655186 0.0003
          0.00011111111111119 0.0070344827586302 0 0 0.007034482758633 0
          0.00011111111111119 0.0070344827586302 0.00015 0 0.007034482758633 0.00015
          0.00011111111111119 0.0070344827586302 0.0003 0 0.007034482758633 0.0003
          0.0001111111111112 0.0074482758620775 0 0 0.00744827586208 0
          0.0001111111111112 0.0074482758620775 0.00015 0 0.00744827586208 0.00015
          0.0001111111111112 0.0074482758620775 0.0003 0 0.00744827586208 0.0003
          0.00011111111111122 0.0078620689655252 0 0 0.0078620689655276 0
          0.00011111111111122 0.0078620689655252 0.00015 0 0.0078620689655276 0.00015
          0.00011111111111122 0.0078620689655252 0.0003 0 0.0078620689655276 0.0003
          0.00022222222222175 0 0 0.00022222222222178 0.00041379310344941 0
          0.00022222222222175 0 0.00015 0.00022222222222178 0.00041379310344941 0.00015
          0.00022222222222175 0 0.0003 0.00022222222222178 0.00041379310344941 0.0003
          0.00022222222222182 0.0008275862068986 0 0.00022222222222182 0.0008275862068986 0.00015
          0.00022222222222182 0.0008275862068986 0.0003 0.00022222222222185 0.0012413793103461 0
          0.00022222222222185 0.0012413793103461 0.00015 0.00022222222222185 0.0012413793103461 0.0003
          0.00022222222222188 0.0016551724137956 0 0.00022222222222188 0.0016551724137956 0.00015
          0.00022222222222188 0.0016551724137956 0.0003 0.00022222222222192 0.0020689655172449 0
          0.00022222222222192 0.0020689655172449 0.00015 0.00022222222222192 0.0020689655172449 0.0003
          0.00022222222222195 0.0024827586206942 0 0.00022222222222195 0.0024827586206942 0.00015
          0.00022222222222195 0.0024827586206942 0.0003 0.00022222222222199 0.0028965517241428 0
          0.00022222222222199 0.0028965517241428 0.00015 0.00022222222222199 0.0028965517241428 0.0003
          0.00022222222222202 0.0033103448275902 0 0.00022222222222202 0.0033103448275902 0.00015
          0.00022222222222202 0.0033103448275902 0.0003 0.00022222222222205 0.0037241379310395 0
          0.00022222222222205 0.0037241379310395 0.00015 0.00022222222222205 0.0037241379310395 0.0003
          0.00022222222222209 0.0041379310344889 0 0.00022222222222209 0.0041379310344889 0.00015
          0.00022222222222209 0.0041379310344889 0.0003 0.00022222222222212 0.0045517241379374 0
          0.00022222222222212 0.0045517241379374 0.00015 0.00022222222222212 0.0045517241379374 0.0003
          0.00022222222222216 0.0049655172413862 0 0.00022222222222216 0.0049655172413862 0.00015
          0.00022222222222216 0.0049655172413862 0.0003 0.00022222222222219 0.0053793103448353 0
          0.00022222222222219 0.0053793103448353 0.00015 0.00022222222222219 0.0053793103448353 0.0003
          0.00022222222222222 0.0057931034482838 0 0.00022222222222222 0.0057931034482838 0.00015
          0.00022222222222222 0.0057931034482838 0.0003 0.00022222222222226 0.0062068965517323 0
          0.00022222222222226 0.0062068965517323 0.00015 0.00022222222222226 0.0062068965517323 0.0003
          0.00022222222222229 0.0066206896551799 0 0.00022222222222229 0.0066206896551799 0.00015
          0.00022222222222229 0.0066206896551799 0.0003 0.00022222222222232 0.0070344827586275 0
          0.00022222222222232 0.0070344827586275 0.00015 0.00022222222222232 0.0070344827586275 0.0003
          0.00022222222222236 0.007448275862075 0 0.00022222222222236 0.007448275862075 0.00015
          0.00022222222222236 0.007448275862075 0.0003 0.00022222222222239 0.0078620689655229 0
          0.00022222222222239 0.0078620689655229 0.00015 0.00022222222222239 0.0078620689655229 0.0003
          0.00033333333333257 0 0 0.00033333333333262 0.00041379310344914 0
          0.00033333333333257 0 0.00015 0.00033333333333262 0.00041379310344914 0.00015
          0.00033333333333257 0 0.0003 0.00033333333333262 0.00041379310344914 0.0003
          0.00033333333333268 0.00082758620689808 0 0.00033333333333268 0.00082758620689808 0.00015
          0.00033333333333268 0.00082758620689808 0.0003 0.00033333333333273 0.0012413793103456 0
          0.00033333333333273 0.0012413793103456 0.00015 0.00033333333333273 0.0012413793103456 0.0003
          0.00033333333333278 0.0016551724137948 0 0.00033333333333278 0.0016551724137948 0.00015
          0.00033333333333278 0.0016551724137948 0.0003 0.00033333333333283 0.0020689655172438 0
          0.00033333333333283 0.0020689655172438 0.00015 0.00033333333333283 0.0020689655172438 0.0003
          0.00033333333333289 0.0024827586206928 0 0.00033333333333289 0.0024827586206928 0.00015
          0.00033333333333289 0.0024827586206928 0.0003 0.00033333333333294 0.0028965517241412 0
          0.00033333333333294 0.0028965517241412 0.00015 0.00033333333333294 0.0028965517241412 0.0003
          0.00033333333333299 0.0033103448275885 0 0.00033333333333299 0.0033103448275885 0.00015
          0.00033333333333299 0.0033103448275885 0.0003 0.00033333333333305 0.0037241379310375 0
          0.00033333333333305 0.0037241379310375 0.00015 0.00033333333333305 0.0037241379310375 0.0003
          0.0003333333333331 0.0041379310344865 0 0.0003333333333331 0.0041379310344865 0.00015
          0.0003333333333331 0.0041379310344865 0.0003 0.00033333333333315 0.0045517241379349 0
          0.00033333333333315 0.0045517241379349 0.00015 0.00033333333333315 0.0045517241379349 0.0003
          0.0003333333333332 0.0049655172413834 0 0.0003333333333332 0.0049655172413834 0.00015
          0.0003333333333332 0.0049655172413834 0.0003 0.00033333333333326 0.0053793103448322 0
          0.00033333333333326 0.0053793103448322 0.00015 0.00033333333333326 0.0053793103448322 0.0003
          0.00033333333333331 0.0057931034482806 0 0.00033333333333331 0.0057931034482806 0.00015
          0.00033333333333331 0.0057931034482806 0.0003 0.00033333333333336 0.006206896551729 0
          0.00033333333333336 0.006206896551729 0.00015 0.00033333333333336 0.006206896551729 0.0003
          0.00033333333333342 0.0066206896551769 0 0.00033333333333342 0.0066206896551769 0.00015
          0.00033333333333342 0.0066206896551769 0.0003 0.00033333333333347 0.0070344827586248 0
          0.00033333333333347 0.0070344827586248 0.00015 0.00033333333333347 0.0070344827586248 0.0003
          0.00033333333333352 0.0074482758620725 0 0.00033333333333352 0.0074482758620725 0.00015
          0.00033333333333352 0.0074482758620725 0.0003 0.00033333333333357 0.0078620689655205 0
          0.00033333333333357 0.0078620689655205 0.00015 0.00033333333333357 0.0078620689655205 0.0003
          0.00044444444444337 0 0 0.00044444444444345 0.00041379310344886 0
          0.00044444444444337 0 0.00015 0.00044444444444345 0.00041379310344886 0.00015
          0.00044444444444337 0 0.0003 0.00044444444444345 0.00041379310344886 0.0003
          0.00044444444444352 0.00082758620689756 0 0.00044444444444352 0.00082758620689756 0.00015
          0.00044444444444352 0.00082758620689756 0.0003 0.00044444444444359 0.0012413793103451 0
          0.00044444444444359 0.0012413793103451 0.00015 0.00044444444444359 0.0012413793103451 0.0003
          0.00044444444444367 0.001655172413794 0 0.00044444444444367 0.001655172413794 0.00015
          0.00044444444444367 0.001655172413794 0.0003 0.00044444444444374 0.0020689655172427 0
          0.00044444444444374 0.0020689655172427 0.00015 0.00044444444444374 0.0020689655172427 0.0003
          0.00044444444444382 0.0024827586206914 0 0.00044444444444382 0.0024827586206914 0.00015
          0.00044444444444382 0.0024827586206914 0.0003 0.00044444444444389 0.0028965517241395 0
          0.00044444444444389 0.0028965517241395 0.00015 0.00044444444444389 0.0028965517241395 0.0003
          0.00044444444444397 0.0033103448275869 0 0.00044444444444397 0.0033103448275869 0.00015
          0.00044444444444397 0.0033103448275869 0.0003 0.00044444444444404 0.0037241379310355 0
          0.00044444444444404 0.0037241379310355 0.00015 0.00044444444444404 0.0037241379310355 0.0003
          0.00044444444444412 0.0041379310344842 0 0.00044444444444412 0.0041379310344842 0.00015
          0.00044444444444412 0.0041379310344842 0.0003 0.00044444444444419 0.0045517241379324 0
          0.00044444444444419 0.0045517241379324 0.00015 0.00044444444444419 0.0045517241379324 0.0003
          0.00044444444444426 0.0049655172413807 0 0.00044444444444426 0.0049655172413807 0.00015
          0.00044444444444426 0.0049655172413807 0.0003 0.00044444444444434 0.0053793103448292 0
          0.00044444444444434 0.0053793103448292 0.00015 0.00044444444444434 0.0053793103448292 0.0003
          0.00044444444444441 0.0057931034482774 0 0.00044444444444441 0.0057931034482774 0.00015
          0.00044444444444441 0.0057931034482774 0.0003 0.00044444444444449 0.0062068965517258 0
          0.00044444444444449 0.0062068965517258 0.00015 0.00044444444444449 0.0062068965517258 0.0003
          0.00044444444444456 0.0066206896551738 0 0.00044444444444456 0.0066206896551738 0.00015
          0.00044444444444456 0.0066206896551738 0.0003 0.00044444444444464 0.007034482758622 0
          0.00044444444444464 0.007034482758622 0.00015 0.00044444444444464 0.007034482758622 0.0003
          0.00044444444444471 0.00744827586207 0 0.00044444444444471 0.00744827586207 0.00015
          0.00044444444444471 0.00744827586207 0.0003 0.00044444444444479 0.0078620689655182 0
          0.00044444444444479 0.0078620689655182 0.00015 0.00044444444444479 0.0078620689655182 0.0003
          0.00055555555555442 0 0 0.0005555555555545 0.00041379310344859 0
          0.00055555555555442 0 0.00015 0.0005555555555545 0.00041379310344859 0.00015
          0.00055555555555442 0 0.0003 0.0005555555555545 0.00041379310344859 0.0003
          0.00055555555555458 0.00082758620689704 0 0.00055555555555458 0.00082758620689704 0.00015
          0.00055555555555458 0.00082758620689704 0.0003 0.00055555555555465 0.0012413793103446 0
          0.00055555555555465 0.0012413793103446 0.00015 0.00055555555555465 0.0012413793103446 0.0003
          0.00055555555555473 0.0016551724137932 0 0.00055555555555473 0.0016551724137932 0.00015
          0.00055555555555473 0.0016551724137932 0.0003 0.00055555555555481 0.0020689655172416 0
          0.00055555555555481 0.0020689655172416 0.00015 0.00055555555555481 0.0020689655172416 0.0003
          0.00055555555555489 0.0024827586206899 0 0.00055555555555489 0.0024827586206899 0.00015
          0.00055555555555489 0.0024827586206899 0.0003 0.00055555555555497 0.0028965517241379 0
          0.00055555555555497 0.0028965517241379 0.00015 0.00055555555555497 0.0028965517241379 0.0003
          0.00055555555555504 0.0033103448275852 0 0.00055555555555504 0.0033103448275852 0.00015
          0.00055555555555504 0.0033103448275852 0.0003 0.00055555555555512 0.0037241379310336 0
          0.00055555555555512 0.0037241379310336 0.00015 0.00055555555555512 0.0037241379310336 0.0003
          0.0005555555555552 0.0041379310344819 0 0.0005555555555552 0.0041379310344819 0.00015
          0.0005555555555552 0.0041379310344819 0.0003 0.00055555555555528 0.0045517241379299 0
          0.00055555555555528 0.0045517241379299 0.00015 0.00055555555555528 0.0045517241379299 0.0003
          0.00055555555555535 0.0049655172413779 0 0.00055555555555535 0.0049655172413779 0.00015
          0.00055555555555535 0.0049655172413779 0.0003 0.00055555555555543 0.0053793103448261 0
          0.00055555555555543 0.0053793103448261 0.00015 0.00055555555555543 0.0053793103448261 0.0003
          0.00055555555555551 0.0057931034482741 0 0.00055555555555551 0.0057931034482741 0.00015
          0.00055555555555551 0.0057931034482741 0.0003 0.00055555555555559 0.0062068965517226 0
          0.00055555555555559 0.0062068965517226 0.00015 0.00055555555555559 0.0062068965517226 0.0003
          0.00055555555555566 0.0066206896551708 0 0.00055555555555566 0.0066206896551708 0.00015
          0.00055555555555566 0.0066206896551708 0.0003 0.00055555555555574 0.0070344827586193 0
          0.00055555555555574 0.0070344827586193 0.00015 0.00055555555555574 0.0070344827586193 0.0003
          0.00055555555555582 0.0074482758620675 0 0.00055555555555582 0.0074482758620675 0.00015
          0.00055555555555582 0.0074482758620675 0.0003 0.0005555555555559 0.0078620689655158 0
          0.0005555555555559 0.0078620689655158 0.00015 0.0005555555555559 0.0078620689655158 0.0003
          0.00066666666666586 0 0 0.0006666666666659 0.00041379310344831 0
          0.00066666666666586 0 0.00015 0.0006666666666659 0.00041379310344831 0.00015
          0.00066666666666586 0 0.0003 0.0006666666666659 0.00041379310344831 0.0003
          0.00066666666666595 0.00082758620689653 0 0.00066666666666595 0.00082758620689653 0.00015
          0.00066666666666595 0.00082758620689653 0.0003 0.00066666666666599 0.0012413793103441 0
          0.00066666666666599 0.0012413793103441 0.00015 0.00066666666666599 0.0012413793103441 0.0003
          0.00066666666666604 0.0016551724137924 0 0.00066666666666604 0.0016551724137924 0.00015
          0.00066666666666604 0.0016551724137924 0.0003 0.00066666666666608 0.0020689655172404 0
          0.00066666666666608 0.0020689655172404 0.00015 0.00066666666666608 0.0020689655172404 0.0003
          0.00066666666666613 0.0024827586206885 0 0.00066666666666613 0.0024827586206885 0.00015
          0.00066666666666613 0.0024827586206885 0.0003 0.00066666666666617 0.0028965517241363 0
          0.00066666666666617 0.0028965517241363 0.00015 0.00066666666666617 0.0028965517241363 0.0003
          0.00066666666666622 0.0033103448275835 0 0.00066666666666622 0.0033103448275835 0.00015
          0.00066666666666622 0.0033103448275835 0.0003 0.00066666666666626 0.0037241379310316 0
          0.00066666666666626 0.0037241379310316 0.00015 0.00066666666666626 0.0037241379310316 0.0003
          0.0006666666666663 0.0041379310344796 0 0.0006666666666663 0.0041379310344796 0.00015
          0.0006666666666663 0.0041379310344796 0.0003 0.00066666666666635 0.0045517241379274 0
          0.00066666666666635 0.0045517241379274 0.00015 0.00066666666666635 0.0045517241379274 0.0003
          0.00066666666666639 0.0049655172413752 0 0.00066666666666639 0.0049655172413752 0.00015
          0.00066666666666639 0.0049655172413752 0.0003 0.00066666666666644 0.0053793103448231 0
          0.00066666666666644 0.0053793103448231 0.00015 0.00066666666666644 0.0053793103448231 0.0003
          0.00066666666666648 0.0057931034482709 0 0.00066666666666648 0.0057931034482709 0.00015
          0.00066666666666648 0.0057931034482709 0.0003 0.00066666666666653 0.0062068965517194 0
          0.00066666666666653 0.0062068965517194 0.00015 0.00066666666666653 0.0062068965517194 0.0003
          0.00066666666666657 0.0066206896551677 0 0.00066666666666657 0.0066206896551677 0.00015
          0.00066666666666657 0.0066206896551677 0.0003 0.00066666666666661 0.0070344827586165 0
          0.00066666666666661 0.0070344827586165 0.00015 0.00066666666666661 0.0070344827586165 0.0003
          0.00066666666666666 0.0074482758620651 0 0.00066666666666666 0.0074482758620651 0.00015
          0.00066666666666666 0.0074482758620651 0.0003 0.0006666666666667 0.0078620689655135 0
          0.0006666666666667 0.0078620689655135 0.00015 0.0006666666666667 0.0078620689655135 0.0003
          0.00077777777777724 0 0 0.00077777777777728 0.00041379310344804 0
          0.00077777777777724 0 0.00015 0.00077777777777728 0.00041379310344804 0.00015
          0.00077777777777724 0 0.0003 0.00077777777777728 0.00041379310344804 0.0003
          0.00077777777777731 0.00082758620689601 0 0.00077777777777731 0.00082758620689601 0.00015
          0.00077777777777731 0.00082758620689601 0.0003 0.00077777777777734 0.0012413793103436 0
          0.00077777777777734 0.0012413793103436 0.00015 0.00077777777777734 0.0012413793103436 0.0003
          0.00077777777777737 0.0016551724137916 0 0.00077777777777737 0.0016551724137916 0.00015
          0.00077777777777737 0.0016551724137916 0.0003 0.0007777777777774 0.0020689655172393 0
          0.0007777777777774 0.0020689655172393 0.00015 0.0007777777777774 0.0020689655172393 0.0003
          0.00077777777777743 0.0024827586206871 0 0.00077777777777743 0.0024827586206871 0.00015
          0.00077777777777743 0.0024827586206871 0.0003 0.00077777777777747 0.0028965517241347 0
          0.00077777777777747 0.0028965517241347 0.00015 0.00077777777777747 0.0028965517241347 0.0003
          0.0007777777777775 0.0033103448275818 0 0.0007777777777775 0.0033103448275818 0.00015
          0.0007777777777775 0.0033103448275818 0.0003 0.00077777777777753 0.0037241379310296 0
          0.00077777777777753 0.0037241379310296 0.00015 0.00077777777777753 0.0037241379310296 0.0003
          0.00077777777777756 0.0041379310344773 0 0.00077777777777756 0.0041379310344773 0.00015
          0.00077777777777756 0.0041379310344773 0.0003 0.00077777777777759 0.0045517241379249 0
          0.00077777777777759 0.0045517241379249 0.00015 0.00077777777777759 0.0045517241379249 0.0003
          0.00077777777777762 0.0049655172413724 0 0.00077777777777762 0.0049655172413724 0.00015
          0.00077777777777762 0.0049655172413724 0.0003 0.00077777777777765 0.00537931034482 0
          0.00077777777777765 0.00537931034482 0.00015 0.00077777777777765 0.00537931034482 0.0003
          0.00077777777777769 0.0057931034482677 0 0.00077777777777769 0.0057931034482677 0.00015
          0.00077777777777769 0.0057931034482677 0.0003 0.00077777777777772 0.0062068965517161 0
          0.00077777777777772 0.0062068965517161 0.00015 0.00077777777777772 0.0062068965517161 0.0003
          0.00077777777777775 0.0066206896551647 0 0.00077777777777775 0.0066206896551647 0.00015
          0.00077777777777775 0.0066206896551647 0.0003 0.00077777777777778 0.0070344827586137 0
          0.00077777777777778 0.0070344827586137 0.00015 0.00077777777777778 0.0070344827586137 0.0003
          0.00077777777777781 0.0074482758620625 0 0.00077777777777781 0.0074482758620625 0.00015
          0.00077777777777781 0.0074482758620625 0.0003 0.00077777777777784 0.0078620689655112 0
          0.00077777777777784 0.0078620689655112 0.00015 0.00077777777777784 0.0078620689655112 0.0003
          0.00088888888888862 0 0 0.00088888888888863 0.00041379310344776 0
          0.00088888888888862 0 0.00015 0.00088888888888863 0.00041379310344776 0.00015
          0.00088888888888862 0 0.0003 0.00088888888888863 0.00041379310344776 0.0003
          0.00088888888888864 0.00082758620689549 0 0.00088888888888864 0.00082758620689549 0.00015
          0.00088888888888864 0.00082758620689549 0.0003 0.00088888888888865 0.0012413793103431 0
          0.00088888888888865 0.0012413793103431 0.00015 0.00088888888888865 0.0012413793103431 0.0003
          0.00088888888888866 0.0016551724137908 0 0.00088888888888866 0.0016551724137908 0.00015
          0.00088888888888866 0.0016551724137908 0.0003 0.00088888888888867 0.0020689655172382 0
          0.00088888888888867 0.0020689655172382 0.00015 0.00088888888888867 0.0020689655172382 0.0003
          0.00088888888888868 0.0024827586206857 0 0.00088888888888868 0.0024827586206857 0.00015
          0.00088888888888868 0.0024827586206857 0.0003 0.00088888888888868 0.002896551724133 0
          0.00088888888888868 0.002896551724133 0.00015 0.00088888888888868 0.002896551724133 0.0003
          0.00088888888888869 0.0033103448275802 0 0.00088888888888869 0.0033103448275802 0.00015
          0.00088888888888869 0.0033103448275802 0.0003 0.0008888888888887 0.0037241379310276 0
          0.0008888888888887 0.0037241379310276 0.00015 0.0008888888888887 0.0037241379310276 0.0003
          0.00088888888888871 0.004137931034475 0 0.00088888888888871 0.004137931034475 0.00015
          0.00088888888888871 0.004137931034475 0.0003 0.00088888888888872 0.0045517241379224 0
          0.00088888888888872 0.0045517241379224 0.00015 0.00088888888888872 0.0045517241379224 0.0003
          0.00088888888888873 0.0049655172413697 0 0.00088888888888873 0.0049655172413697 0.00015
          0.00088888888888873 0.0049655172413697 0.0003 0.00088888888888874 0.005379310344817 0
          0.00088888888888874 0.005379310344817 0.00015 0.00088888888888874 0.005379310344817 0.0003
          0.00088888888888875 0.0057931034482644 0 0.00088888888888875 0.0057931034482644 0.00015
          0.00088888888888875 0.0057931034482644 0.0003 0.00088888888888876 0.0062068965517129 0
          0.00088888888888876 0.0062068965517129 0.00015 0.00088888888888876 0.0062068965517129 0.0003
          0.00088888888888877 0.0066206896551616 0 0.00088888888888877 0.0066206896551616 0.00015
          0.00088888888888877 0.0066206896551616 0.0003 0.00088888888888877 0.007034482758611 0
          0.00088888888888877 0.007034482758611 0.00015 0.00088888888888877 0.007034482758611 0.0003
          0.00088888888888878 0.00744827586206 0 0.00088888888888878 0.00744827586206 0.00015
          0.00088888888888878 0.00744827586206 0.0003 0.00088888888888879 0.0078620689655088 0
          0.00088888888888879 0.0078620689655088 0.00015 0.00088888888888879 0.0078620689655088 0.0003
          0.001 0 0 0.001 0.00041379310344749 0
          0.001 0 0.00015 0.001 0.00041379310344749 0.00015
          0.001 0 0.0003 0.001 0.00041379310344749 0.0003
          0.001 0.00082758620689497 0 0.001 0.00082758620689497 0.00015
          0.001 0.00082758620689497 0.0003 0.001 0.0012413793103426 0
          0.001 0.0012413793103426 0.00015 0.001 0.0012413793103426 0.0003
          0.001 0.0016551724137901 0 0.001 0.0016551724137901 0.00015
          0.001 0.0016551724137901 0.0003 0.001 0.0020689655172371 0
          0.001 0.0020689655172371 0.00015 0.001 0.0020689655172371 0.0003
          0.001 0.0024827586206843 0 0.001 0.0024827586206843 0.00015
          0.001 0.0024827586206843 0.0003 0.001 0.0028965517241314 0
          0.001 0.0028965517241314 0.00015 0.001 0.0028965517241314 0.0003
          0.001 0.0033103448275785 0 0.001 0.0033103448275785 0.00015
          0.001 0.0033103448275785 0.0003 0.001 0.0037241379310256 0
          0.001 0.0037241379310256 0.00015 0.001 0.0037241379310256 0.0003
          0.001 0.0041379310344727 0 0.001 0.0041379310344727 0.00015
          0.001 0.0041379310344727 0.0003 0.001 0.0045517241379199 0
          0.001 0.0045517241379199 0.00015 0.001 0.0045517241379199 0.0003
          0.001 0.0049655172413669 0 0.001 0.0049655172413669 0.00015
          0.001 0.0049655172413669 0.0003 0.001 0.0053793103448139 0
          0.001 0.0053793103448139 0.00015 0.001 0.0053793103448139 0.0003
          0.001 0.0057931034482612 0 0.001 0.0057931034482612 0.00015
          0.001 0.0057931034482612 0.0003 0.001 0.0062068965517097 0
          0.001 0.0062068965517097 0.00015 0.001 0.0062068965517097 0.0003
          0.001 0.0066206896551586 0 0.001 0.0066206896551586 0.00015
          0.001 0.0066206896551586 0.0003 0.001 0.0070344827586082 0
          0.001 0.0070344827586082 0.00015 0.001 0.0070344827586082 0.0003
          0.001 0.0074482758620575 0 0.001 0.0074482758620575 0.00015
          0.001 0.0074482758620575 0.0003 0.001 0.0078620689655065 0
          0.001 0.0078620689655065 0.00015 0.001 0.0078620689655065 0.0003
          0.001 0.0082758620689564 0 0.001 0.0082758620689564 0.00015
          0.001 0.0082758620689564 0.0003 0.001 0.0086896551724064 0
          0.001 0.0086896551724064 0.00015 0.001 0.0086896551724064 0.0003
          0.0014444444444438 0.00041379310344749 0 0.0014444444444438 0 0
          0.0014444444444438 0.00041379310344749 0.00015 0.0014444444444438 0 0.00015
          0.0014444444444438 0.00041379310344749 0.0003 0.0014444444444438 0 0.0003
          0.0014444444444439 0.00082758620689497 0 0.0014444444444439 0.00082758620689497 0.00015
          0.0014444444444439 0.00082758620689497 0.0003 0.001444444444444 0.0012413793103426 0
          0.001444444444444 0.0012413793103426 0.00015 0.001444444444444 0.0012413793103426 0.0003
          0.001444444444444 0.0016551724137901 0 0.001444444444444 0.0016551724137901 0.00015
          0.001444444444444 0.0016551724137901 0.0003 0.0014444444444441 0.0020689655172371 0
          0.0014444444444441 0.0020689655172371 0.00015 0.0014444444444441 0.0020689655172371 0.0003
          0.0014444444444441 0.0024827586206843 0 0.0014444444444441 0.0024827586206843 0.00015
          0.0014444444444441 0.0024827586206843 0.0003 0.0014444444444446 0.0062068965517097 0
          0.0014444444444446 0.0062068965517097 0.00015 0.0014444444444446 0.0062068965517097 0.0003
          0.0014444444444447 0.0066206896551586 0 0.0014444444444447 0.0066206896551586 0.00015
          0.0014444444444447 0.0066206896551586 0.0003 0.0014444444444448 0.0070344827586082 0
          0.0014444444444448 0.0070344827586082 0.00015 0.0014444444444448 0.0070344827586082 0.0003
          0.0014444444444448 0.0074482758620576 0 0.0014444444444448 0.0074482758620576 0.00015
          0.0014444444444448 0.0074482758620576 0.0003 0.0014444444444449 0.0078620689655065 0
          0.0014444444444449 0.0078620689655065 0.00015 0.0014444444444449 0.0078620689655065 0.0003
          0.0018888888888896 0.0078620689655065 0 0.0018888888888896 0.0078620689655065 0.00015
          0.0018888888888896 0.0078620689655065 0.0003 0.0014444444444449 0.0082758620689564 0
          0.0014444444444449 0.0082758620689564 0.00015 0.0014444444444449 0.0082758620689564 0.0003
          0.0018888888888898 0.0082758620689564 0 0.0018888888888898 0.0082758620689564 0.00015
          0.0018888888888898 0.0082758620689564 0.0003 0.001444444444445 0.0086896551724064 0
          0.001444444444445 0.0086896551724064 0.00015 0.001444444444445 0.0086896551724064 0.0003
          0.0018888888888899 0.0086896551724064 0 0.0018888888888899 0.0086896551724064 0.00015
          0.0018888888888899 0.0086896551724064 0.0003 0.0014444444444451 0.0091034482758539 0
          0.0014444444444451 0.0091034482758539 0.00015 0.0014444444444451 0.0091034482758539 0.0003
          0.00188888888889 0.0091034482758539 0 0.00188888888889 0.0091034482758539 0.00015
          0.00188888888889 0.0091034482758539 0.0003 0.00011111111111123 0.0082758620689751 0
          0 0.0082758620689774 0 0.00011111111111123 0.0082758620689751 0.00015
          0 0.0082758620689774 0.00015 0.00011111111111123 0.0082758620689751 0.0003
          0 0.0082758620689774 0.0003 0.00022222222222243 0.0082758620689727 0
          0.00022222222222243 0.0082758620689727 0.00015 0.00022222222222243 0.0082758620689727 0.0003
          0.00033333333333363 0.0082758620689704 0 0.00033333333333363 0.0082758620689704 0.00015
          0.00033333333333363 0.0082758620689704 0.0003 0.00044444444444486 0.0082758620689681 0
          0.00044444444444486 0.0082758620689681 0.00015 0.00044444444444486 0.0082758620689681 0.0003
          0.00055555555555597 0.0082758620689657 0 0.00055555555555597 0.0082758620689657 0.00015
          0.00055555555555597 0.0082758620689657 0.0003 0.00066666666666675 0.0082758620689634 0
          0.00066666666666675 0.0082758620689634 0.00015 0.00066666666666675 0.0082758620689634 0.0003
          0.00077777777777787 0.0082758620689611 0 0.00077777777777787 0.0082758620689611 0.00015
          0.00077777777777787 0.0082758620689611 0.0003 0.0008888888888888 0.0082758620689588 0
          0.0008888888888888 0.0082758620689588 0.00015 0.0008888888888888 0.0082758620689588 0.0003
          0.00088888888888881 0.0086896551724084 0 0.00088888888888881 0.0086896551724084 0.00015
          0.00088888888888881 0.0086896551724084 0.0003 0.001 0.0091034482758539 0
          0.00088888888888882 0.0091034482758559 0 0.001 0.0091034482758539 0.00015
          0.00088888888888882 0.0091034482758559 0.00015 0.001 0.0091034482758539 0.0003
          0.00088888888888882 0.0091034482758559 0.0003 0.0018888888888873 0.00041379310344749 0
          0.0018888888888872 0 0 0.0018888888888873 0.00041379310344749 0.00015
          0.0018888888888872 0 0.00015 0.0018888888888873 0.00041379310344749 0.0003
          0.0018888888888872 0 0.0003 0.0018888888888875 0.00082758620689497 0
          0.0018888888888875 0.00082758620689497 0.00015 0.0018888888888875 0.00082758620689497 0.0003
          0.0018888888888876 0.0012413793103426 0 0.0018888888888876 0.0012413793103426 0.00015
          0.0018888888888876 0.0012413793103426 0.0003 0.0018888888888877 0.0016551724137901 0
          0.0018888888888877 0.0016551724137901 0.00015 0.0018888888888877 0.0016551724137901 0.0003
          0.0018888888888879 0.0020689655172371 0 0.0018888888888879 0.0020689655172371 0.00015
          0.0018888888888879 0.0020689655172371 0.0003 0.001888888888888 0.0024827586206843 0
          0.001888888888888 0.0024827586206843 0.00015 0.001888888888888 0.0024827586206843 0.0003
          0.0014444444444442 0.0028965517241314 0 0.0014444444444442 0.0028965517241314 0.00015
          0.0014444444444442 0.0028965517241314 0.0003 0.0018888888888881 0.0028965517241314 0
          0.0018888888888881 0.0028965517241314 0.00015 0.0018888888888881 0.0028965517241314 0.0003
          0.0014444444444442 0.0033103448275785 0 0.0014444444444442 0.0033103448275785 0.00015
          0.0014444444444442 0.0033103448275785 0.0003 0.0014444444444443 0.0037241379310256 0
          0.0014444444444443 0.0037241379310256 0.00015 0.0014444444444443 0.0037241379310256 0.0003
          0.0014444444444444 0.0041379310344727 0 0.0014444444444444 0.0041379310344727 0.00015
          0.0014444444444444 0.0041379310344727 0.0003 0.0014444444444444 0.0045517241379199 0
          0.0014444444444444 0.0045517241379199 0.00015 0.0014444444444444 0.0045517241379199 0.0003
          0.0014444444444445 0.0049655172413669 0 0.0014444444444445 0.0049655172413669 0.00015
          0.0014444444444445 0.0049655172413669 0.0003 0.0014444444444445 0.0053793103448139 0
          0.0014444444444445 0.0053793103448139 0.00015 0.0014444444444445 0.0053793103448139 0.0003
          0.0014444444444446 0.0057931034482612 0 0.0014444444444446 0.0057931034482612 0.00015
          0.0014444444444446 0.0057931034482612 0.0003 0.0018888888888891 0.0062068965517097 0
          0.001888888888889 0.0057931034482612 0 0.0018888888888891 0.0062068965517097 0.00015
          0.001888888888889 0.0057931034482612 0.00015 0.0018888888888891 0.0062068965517097 0.0003
          0.001888888888889 0.0057931034482612 0.0003 0.0018888888888893 0.0066206896551586 0
          0.0018888888888893 0.0066206896551586 0.00015 0.0018888888888893 0.0066206896551586 0.0003
          0.0018888888888894 0.0070344827586082 0 0.0018888888888894 0.0070344827586082 0.00015
          0.0018888888888894 0.0070344827586082 0.0003 0.0018888888888895 0.0074482758620575 0
          0.0018888888888895 0.0074482758620575 0.00015 0.0018888888888895 0.0074482758620575 0.0003
          0.0023333333333346 0.0078620689655065 0 0.0023333333333344 0.0074482758620575 0
          0.0023333333333346 0.0078620689655065 0.00015 0.0023333333333344 0.0074482758620575 0.00015
          0.0023333333333346 0.0078620689655065 0.0003 0.0023333333333344 0.0074482758620575 0.0003
          0.0023333333333348 0.0082758620689564 0 0.0023333333333348 0.0082758620689564 0.00015
          0.0023333333333348 0.0082758620689564 0.0003 0.002333333333335 0.0086896551724064 0
          0.002333333333335 0.0086896551724064 0.00015 0.002333333333335 0.0086896551724064 0.0003
          0.0023333333333351 0.0091034482758539 0 0.0023333333333351 0.0091034482758539 0.00015
          0.0023333333333351 0.0091034482758539 0.0003 0.0014444444444451 0.0095172413793029 0
          0.001 0.0095172413793029 0 0.0014444444444451 0.0095172413793029 0.00015
          0.001 0.0095172413793029 0.00015 0.0014444444444451 0.0095172413793029 0.0003
          0.001 0.0095172413793029 0.0003 0.0018888888888902 0.0095172413793029 0
          0.0018888888888902 0.0095172413793029 0.00015 0.0018888888888902 0.0095172413793029 0.0003
          0.0023333333333353 0.0095172413793029 0 0.0023333333333353 0.0095172413793029 0.00015
          0.0023333333333353 0.0095172413793029 0.0003
          <InformationKey name="L2_NORM_RANGE" location="vtkDataArray" length="2">
            <Value index="0">
              0
            </Value>
            <Value index="1">
              0.0098036895053
            </Value>
          </InformationKey>
        </DataArray>
      </Points>
      <Cells>
        <DataArray type="Int64" Name="connectivity" format="ascii" RangeMin="0" RangeMax="788">
          0 1 2 3 4 5
          6 7 4 5 6 7
          8 9 10 11 3 2
          12 13 7 6 14 15
          7 6 14 15 11 10
          16 17 13 12 18 19
          15 14 20 21 15 14
          20 21 17 16 22 23
          19 18 24 25 21 20
          26 27 21 20 26 27
          23 22 28 29 25 24
          30 31 27 26 32 33
          27 26 32 33 29 28
          34 35 31 30 36 37
          33 32 38 39 33 32
          38 39 35 34 40 41
          37 36 42 43 39 38
          44 45 39 38 44 45
          41 40 46 47 43 42
          48 49 45 44 50 51
          45 44 50 51 47 46
          52 53 49 48 54 55
          51 50 56 57 51 50
          56 57 53 52 58 59
          55 54 60 61 57 56
          62 63 57 56 62 63
          59 58 64 65 61 60
          66 67 63 62 68 69
          63 62 68 69 65 64
          70 71 67 66 72 73
          69 68 74 75 69 68
          74 75 71 70 76 77
          73 72 78 79 75 74
          80 81 75 74 80 81
          77 76 82 83 79 78
          84 85 81 80 86 87
          81 80 86 87 83 82
          88 89 85 84 90 91
          87 86 92 93 87 86
          92 93 89 88 94 95
          91 90 96 97 93 92
          98 99 93 92 98 99
          95 94 100 101 97 96
          102 103 99 98 104 105
          99 98 104 105 101 100
          106 107 103 102 108 109
          105 104 110 111 105 104
          110 111 107 106 112 113
          109 108 114 115 111 110
          116 117 111 110 116 117
          113 112 118 119 115 114
          663 664 117 116 665 666
          117 116 665 666 119 118
          667 668 1 120 121 2
          5 122 123 6 5 122
          123 6 9 124 125 10
          2 121 126 12 6 123
          127 14 6 123 127 14
          10 125 128 16 12 126
          129 18 14 127 130 20
          14 127 130 20 16 128
          131 22 18 129 132 24
          20 130 133 26 20 130
          133 26 22 131 134 28
          24 132 135 30 26 133
          136 32 26 133 136 32
          28 134 137 34 30 135
          138 36 32 136 139 38
          32 136 139 38 34 137
          140 40 36 138 141 42
          38 139 142 44 38 139
          142 44 40 140 143 46
          42 141 144 48 44 142
          145 50 44 142 145 50
          46 143 146 52 48 144
          147 54 50 145 148 56
          50 145 148 56 52 146
          149 58 54 147 150 60
          56 148 151 62 56 148
          151 62 58 149 152 64
          60 150 153 66 62 151
          154 68 62 151 154 68
          64 152 155 70 66 153
          156 72 68 154 157 74
          68 154 157 74 70 155
          158 76 72 156 159 78
          74 157 160 80 74 157
          160 80 76 158 161 82
          78 159 162 84 80 160
          163 86 80 160 163 86
          82 161 164 88 84 162
          165 90 86 163 166 92
          86 163 166 92 88 164
          167 94 90 165 168 96
          92 166 169 98 92 166
          169 98 94 167 170 100
          96 168 171 102 98 169
          172 104 98 169 172 104
          100 170 173 106 102 171
          174 108 104 172 175 110
          104 172 175 110 106 173
          176 112 108 174 177 114
          110 175 178 116 110 175
          178 116 112 176 179 118
          114 177 669 663 116 178
          670 665 116 178 670 665
          118 179 671 667 120 180
          181 121 122 182 183 123
          122 182 183 123 124 184
          185 125 121 181 186 126
          123 183 187 127 123 183
          187 127 125 185 188 128
          126 186 189 129 127 187
          190 130 127 187 190 130
          128 188 191 131 129 189
          192 132 130 190 193 133
          130 190 193 133 131 191
          194 134 132 192 195 135
          133 193 196 136 133 193
          196 136 134 194 197 137
          135 195 198 138 136 196
          199 139 136 196 199 139
          137 197 200 140 138 198
          201 141 139 199 202 142
          139 199 202 142 140 200
          203 143 141 201 204 144
          142 202 205 145 142 202
          205 145 143 203 206 146
          144 204 207 147 145 205
          208 148 145 205 208 148
          146 206 209 149 147 207
          210 150 148 208 211 151
          148 208 211 151 149 209
          212 152 150 210 213 153
          151 211 214 154 151 211
          214 154 152 212 215 155
          153 213 216 156 154 214
          217 157 154 214 217 157
          155 215 218 158 156 216
          219 159 157 217 220 160
          157 217 220 160 158 218
          221 161 159 219 222 162
          160 220 223 163 160 220
          223 163 161 221 224 164
          162 222 225 165 163 223
          226 166 163 223 226 166
          164 224 227 167 165 225
          228 168 166 226 229 169
          166 226 229 169 167 227
          230 170 168 228 231 171
          169 229 232 172 169 229
          232 172 170 230 233 173
          171 231 234 174 172 232
          235 175 172 232 235 175
          173 233 236 176 174 234
          237 177 175 235 238 178
          175 235 238 178 176 236
          239 179 177 237 672 669
          178 238 673 670 178 238
          673 670 179 239 674 671
          180 240 241 181 182 242
          243 183 182 242 243 183
          184 244 245 185 181 241
          246 186 183 243 247 187
          183 243 247 187 185 245
          248 188 186 246 249 189
          187 247 250 190 187 247
          250 190 188 248 251 191
          189 249 252 192 190 250
          253 193 190 250 253 193
          191 251 254 194 192 252
          255 195 193 253 256 196
          193 253 256 196 194 254
          257 197 195 255 258 198
          196 256 259 199 196 256
          259 199 197 257 260 200
          198 258 261 201 199 259
          262 202 199 259 262 202
          200 260 263 203 201 261
          264 204 202 262 265 205
          202 262 265 205 203 263
          266 206 204 264 267 207
          205 265 268 208 205 265
          268 208 206 266 269 209
          207 267 270 210 208 268
          271 211 208 268 271 211
          209 269 272 212 210 270
          273 213 211 271 274 214
          211 271 274 214 212 272
          275 215 213 273 276 216
          214 274 277 217 214 274
          277 217 215 275 278 218
          216 276 279 219 217 277
          280 220 217 277 280 220
          218 278 281 221 219 279
          282 222 220 280 283 223
          220 280 283 223 221 281
          284 224 222 282 285 225
          223 283 286 226 223 283
          286 226 224 284 287 227
          225 285 288 228 226 286
          289 229 226 286 289 229
          227 287 290 230 228 288
          291 231 229 289 292 232
          229 289 292 232 230 290
          293 233 231 291 294 234
          232 292 295 235 232 292
          295 235 233 293 296 236
          234 294 297 237 235 295
          298 238 235 295 298 238
          236 296 299 239 237 297
          675 672 238 298 676 673
          238 298 676 673 239 299
          677 674 240 300 301 241
          242 302 303 243 242 302
          303 243 244 304 305 245
          241 301 306 246 243 303
          307 247 243 303 307 247
          245 305 308 248 246 306
          309 249 247 307 310 250
          247 307 310 250 248 308
          311 251 249 309 312 252
          250 310 313 253 250 310
          313 253 251 311 314 254
          252 312 315 255 253 313
          316 256 253 313 316 256
          254 314 317 257 255 315
          318 258 256 316 319 259
          256 316 319 259 257 317
          320 260 258 318 321 261
          259 319 322 262 259 319
          322 262 260 320 323 263
          261 321 324 264 262 322
          325 265 262 322 325 265
          263 323 326 266 264 324
          327 267 265 325 328 268
          265 325 328 268 266 326
          329 269 267 327 330 270
          268 328 331 271 268 328
          331 271 269 329 332 272
          270 330 333 273 271 331
          334 274 271 331 334 274
          272 332 335 275 273 333
          336 276 274 334 337 277
          274 334 337 277 275 335
          338 278 276 336 339 279
          277 337 340 280 277 337
          340 280 278 338 341 281
          279 339 342 282 280 340
          343 283 280 340 343 283
          281 341 344 284 282 342
          345 285 283 343 346 286
          283 343 346 286 284 344
          347 287 285 345 348 288
          286 346 349 289 286 346
          349 289 287 347 350 290
          288 348 351 291 289 349
          352 292 289 349 352 292
          290 350 353 293 291 351
          354 294 292 352 355 295
          292 352 355 295 293 353
          356 296 294 354 357 297
          295 355 358 298 295 355
          358 298 296 356 359 299
          297 357 678 675 298 358
          679 676 298 358 679 676
          299 359 680 677 300 360
          361 301 302 362 363 303
          302 362 363 303 304 364
          365 305 301 361 366 306
          303 363 367 307 303 363
          367 307 305 365 368 308
          306 366 369 309 307 367
          370 310 307 367 370 310
          308 368 371 311 309 369
          372 312 310 370 373 313
          310 370 373 313 311 371
          374 314 312 372 375 315
          313 373 376 316 313 373
          376 316 314 374 377 317
          315 375 378 318 316 376
          379 319 316 376 379 319
          317 377 380 320 318 378
          381 321 319 379 382 322
          319 379 382 322 320 380
          383 323 321 381 384 324
          322 382 385 325 322 382
          385 325 323 383 386 326
          324 384 387 327 325 385
          388 328 325 385 388 328
          326 386 389 329 327 387
          390 330 328 388 391 331
          328 388 391 331 329 389
          392 332 330 390 393 333
          331 391 394 334 331 391
          394 334 332 392 395 335
          333 393 396 336 334 394
          397 337 334 394 397 337
          335 395 398 338 336 396
          399 339 337 397 400 340
          337 397 400 340 338 398
          401 341 339 399 402 342
          340 400 403 343 340 400
          403 343 341 401 404 344
          342 402 405 345 343 403
          406 346 343 403 406 346
          344 404 407 347 345 405
          408 348 346 406 409 349
          346 406 409 349 347 407
          410 350 348 408 411 351
          349 409 412 352 349 409
          412 352 350 410 413 353
          351 411 414 354 352 412
          415 355 352 412 415 355
          353 413 416 356 354 414
          417 357 355 415 418 358
          355 415 418 358 356 416
          419 359 357 417 681 678
          358 418 682 679 358 418
          682 679 359 419 683 680
          360 420 421 361 362 422
          423 363 362 422 423 363
          364 424 425 365 361 421
          426 366 363 423 427 367
          363 423 427 367 365 425
          428 368 366 426 429 369
          367 427 430 370 367 427
          430 370 368 428 431 371
          369 429 432 372 370 430
          433 373 370 430 433 373
          371 431 434 374 372 432
          435 375 373 433 436 376
          373 433 436 376 374 434
          437 377 375 435 438 378
          376 436 439 379 376 436
          439 379 377 437 440 380
          378 438 441 381 379 439
          442 382 379 439 442 382
          380 440 443 383 381 441
          444 384 382 442 445 385
          382 442 445 385 383 443
          446 386 384 444 447 387
          385 445 448 388 385 445
          448 388 386 446 449 389
          387 447 450 390 388 448
          451 391 388 448 451 391
          389 449 452 392 390 450
          453 393 391 451 454 394
          391 451 454 394 392 452
          455 395 393 453 456 396
          394 454 457 397 394 454
          457 397 395 455 458 398
          396 456 459 399 397 457
          460 400 397 457 460 400
          398 458 461 401 399 459
          462 402 400 460 463 403
          400 460 463 403 401 461
          464 404 402 462 465 405
          403 463 466 406 403 463
          466 406 404 464 467 407
          405 465 468 408 406 466
          469 409 406 466 469 409
          407 467 470 410 408 468
          471 411 409 469 472 412
          409 469 472 412 410 470
          473 413 411 471 474 414
          412 472 475 415 412 472
          475 415 413 473 476 416
          414 474 477 417 415 475
          478 418 415 475 478 418
          416 476 479 419 417 477
          684 681 418 478 685 682
          418 478 685 682 419 479
          686 683 420 480 481 421
          422 482 483 423 422 482
          483 423 424 484 485 425
          421 481 486 426 423 483
          487 427 423 483 487 427
          425 485 488 428 426 486
          489 429 427 487 490 430
          427 487 490 430 428 488
          491 431 429 489 492 432
          430 490 493 433 430 490
          493 433 431 491 494 434
          432 492 495 435 433 493
          496 436 433 493 496 436
          434 494 497 437 435 495
          498 438 436 496 499 439
          436 496 499 439 437 497
          500 440 438 498 501 441
          439 499 502 442 439 499
          502 442 440 500 503 443
          441 501 504 444 442 502
          505 445 442 502 505 445
          443 503 506 446 444 504
          507 447 445 505 508 448
          445 505 508 448 446 506
          509 449 447 507 510 450
          448 508 511 451 448 508
          511 451 449 509 512 452
          450 510 513 453 451 511
          514 454 451 511 514 454
          452 512 515 455 453 513
          516 456 454 514 517 457
          454 514 517 457 455 515
          518 458 456 516 519 459
          457 517 520 460 457 517
          520 460 458 518 521 461
          459 519 522 462 460 520
          523 463 460 520 523 463
          461 521 524 464 462 522
          525 465 463 523 526 466
          463 523 526 466 464 524
          527 467 465 525 528 468
          466 526 529 469 466 526
          529 469 467 527 530 470
          468 528 531 471 469 529
          532 472 469 529 532 472
          470 530 533 473 471 531
          534 474 472 532 535 475
          472 532 535 475 473 533
          536 476 474 534 537 477
          475 535 538 478 475 535
          538 478 476 536 539 479
          477 537 687 684 478 538
          688 685 478 538 688 685
          479 539 689 686 480 540
          541 481 482 542 543 483
          482 542 543 483 484 544
          545 485 481 541 546 486
          483 543 547 487 483 543
          547 487 485 545 548 488
          486 546 549 489 487 547
          550 490 487 547 550 490
          488 548 551 491 489 549
          552 492 490 550 553 493
          490 550 553 493 491 551
          554 494 492 552 555 495
          493 553 556 496 493 553
          556 496 494 554 557 497
          495 555 558 498 496 556
          559 499 496 556 559 499
          497 557 560 500 498 558
          561 501 499 559 562 502
          499 559 562 502 500 560
          563 503 501 561 564 504
          502 562 565 505 502 562
          565 505 503 563 566 506
          504 564 567 507 505 565
          568 508 505 565 568 508
          506 566 569 509 507 567
          570 510 508 568 571 511
          508 568 571 511 509 569
          572 512 510 570 573 513
          511 571 574 514 511 571
          574 514 512 572 575 515
          513 573 576 516 514 574
          577 517 514 574 577 517
          515 575 578 518 516 576
          579 519 517 577 580 520
          517 577 580 520 518 578
          581 521 519 579 582 522
          520 580 583 523 520 580
          583 523 521 581 584 524
          522 582 585 525 523 583
          586 526 523 583 586 526
          524 584 587 527 525 585
          588 528 526 586 589 529
          526 586 589 529 527 587
          590 530 528 588 591 531
          529 589 592 532 529 589
          592 532 530 590 593 533
          531 591 594 534 532 592
          595 535 532 592 595 535
          533 593 596 536 534 594
          597 537 535 595 598 538
          535 595 598 538 536 596
          599 539 537 597 600 687
          538 598 601 688 538 598
          601 688 539 599 602 689
          687 600 603 690 688 601
          604 691 688 601 604 691
          689 602 605 692 690 603
          693 694 691 604 695 696
          691 604 695 696 692 605
          697 698 606 541 540 607
          608 543 542 609 608 543
          542 609 610 545 544 611
          699 606 607 700 701 608
          609 702 701 608 609 702
          703 610 611 704 612 546
          541 606 613 547 543 608
          613 547 543 608 614 548
          545 610 705 612 606 699
          706 613 608 701 706 613
          608 701 707 614 610 703
          615 549 546 612 616 550
          547 613 616 550 547 613
          617 551 548 614 708 615
          612 705 709 616 613 706
          709 616 613 706 710 617
          614 707 618 552 549 615
          619 553 550 616 619 553
          550 616 620 554 551 617
          711 618 615 708 712 619
          616 709 712 619 616 709
          713 620 617 710 621 555
          552 618 622 556 553 619
          622 556 553 619 623 557
          554 620 714 621 618 711
          715 622 619 712 715 622
          619 712 716 623 620 713
          624 558 555 621 625 559
          556 622 625 559 556 622
          626 560 557 623 717 624
          621 714 718 625 622 715
          718 625 622 715 719 626
          623 716 720 561 558 624
          721 562 559 625 721 562
          559 625 722 563 560 626
          723 720 624 717 724 721
          625 718 724 721 625 718
          725 722 626 719 726 564
          561 720 727 565 562 721
          727 565 562 721 728 566
          563 722 729 567 564 726
          730 568 565 727 730 568
          565 727 731 569 566 728
          732 570 567 729 733 571
          568 730 733 571 568 730
          734 572 569 731 735 573
          570 732 736 574 571 733
          736 574 571 733 737 575
          572 734 738 576 573 735
          739 577 574 736 739 577
          574 736 740 578 575 737
          741 579 576 738 742 580
          577 739 742 580 577 739
          743 581 578 740 744 582
          579 741 745 583 580 742
          745 583 580 742 746 584
          581 743 627 585 582 744
          628 586 583 745 628 586
          583 745 629 587 584 746
          747 627 744 748 749 628
          745 750 749 628 745 750
          751 629 746 752 630 588
          585 627 631 589 586 628
          631 589 586 628 632 590
          587 629 753 630 627 747
          754 631 628 749 754 631
          628 749 755 632 629 751
          633 591 588 630 634 592
          589 631 634 592 589 631
          635 593 590 632 756 633
          630 753 757 634 631 754
          757 634 631 754 758 635
          632 755 636 594 591 633
          637 595 592 634 637 595
          592 634 638 596 593 635
          759 636 633 756 760 637
          634 757 760 637 634 757
          761 638 635 758 639 597
          594 636 640 598 595 637
          640 598 595 637 641 599
          596 638 642 639 636 759
          643 640 637 760 643 640
          637 760 644 641 638 761
          762 642 759 763 764 643
          760 765 764 643 760 765
          766 644 761 767 645 600
          597 639 646 601 598 640
          646 601 598 640 647 602
          599 641 648 645 639 642
          649 646 640 643 649 646
          640 643 650 647 641 644
          768 648 642 762 769 649
          643 764 769 649 643 764
          770 650 644 766 651 603
          600 645 652 604 601 646
          652 604 601 646 653 605
          602 647 654 651 645 648
          655 652 646 649 655 652
          646 649 656 653 647 650
          771 654 648 768 772 655
          649 769 772 655 649 769
          773 656 650 770 657 693
          603 651 658 695 604 652
          658 695 604 652 659 697
          605 653 660 657 651 654
          661 658 652 655 661 658
          652 655 662 659 653 656
          774 660 654 771 775 661
          655 772 775 661 655 772
          776 662 656 773 777 778
          693 657 779 780 695 658
          779 780 695 658 781 782
          697 659 783 777 657 660
          784 779 658 661 784 779
          658 661 785 781 659 662
          786 783 660 774 787 784
          661 775 787 784 661 775
          788 785 662 776
        </DataArray>
        <DataArray type="Int64" Name="offsets" format="ascii" RangeMin="8" RangeMax="3616">
          8 16 24 32 40 48
          56 64 72 80 88 96
          104 112 120 128 136 144
          152 160 168 176 184 192
          200 208 216 224 232 240
          248 256 264 272 280 288
          296 304 312 320 328 336
          344 352 360 368 376 384
          392 400 408 416 424 432
          440 448 456 464 472 480
          488 496 504 512 520 528
          536 544 552 560 568 576
          584 592 600 608 616 624
          632 640 648 656 664 672
          680 688 696 704 712 720
          728 736 744 752 760 768
          776 784 792 800 808 816
          824 832 840 848 856 864
          872 880 888 896 904 912
          920 928 936 944 952 960
          968 976 984 992 1000 1008
          1016 1024 1032 1040 1048 1056
          1064 1072 1080 1088 1096 1104
          1112 1120 1128 1136 1144 1152
          1160 1168 1176 1184 1192 1200
          1208 1216 1224 1232 1240 1248
          1256 1264 1272 1280 1288 1296
          1304 1312 1320 1328 1336 1344
          1352 1360 1368 1376 1384 1392
          1400 1408 1416 1424 1432 1440
          1448 1456 1464 1472 1480 1488
          1496 1504 1512 1520 1528 1536
          1544 1552 1560 1568 1576 1584
          1592 1600 1608 1616 1624 1632
          1640 1648 1656 1664 1672 1680
          1688 1696 1704 1712 1720 1728
          1736 1744 1752 1760 1768 1776
          1784 1792 1800 1808 1816 1824
          1832 1840 1848 1856 1864 1872
          1880 1888 1896 1904 1912 1920
          1928 1936 1944 1952 1960 1968
          1976 1984 1992 2000 2008 2016
          2024 2032 2040 2048 2056 2064
          2072 2080 2088 2096 2104 2112
          2120 2128 2136 2144 2152 2160
          2168 2176 2184 2192 2200 2208
          2216 2224 2232 2240 2248 2256
          2264 2272 2280 2288 2296 2304
          2312 2320 2328 2336 2344 2352
          2360 2368 2376 2384 2392 2400
          2408 2416 2424 2432 2440 2448
          2456 2464 2472 2480 2488 2496
          2504 2512 2520 2528 2536 2544
          2552 2560 2568 2576 2584 2592
          2600 2608 2616 2624 2632 2640
          2648 2656 2664 2672 2680 2688
          2696 2704 2712 2720 2728 2736
          2744 2752 2760 2768 2776 2784
          2792 2800 2808 2816 2824 2832
          2840 2848 2856 2864 2872 2880
          2888 2896 2904 2912 2920 2928
          2936 2944 2952 2960 2968 2976
          2984 2992 3000 3008 3016 3024
          3032 3040 3048 3056 3064 3072
          3080 3088 3096 3104 3112 3120
          3128 3136 3144 3152 3160 3168
          3176 3184 3192 3200 3208 3216
          3224 3232 3240 3248 3256 3264
          3272 3280 3288 3296 3304 3312
          3320 3328 3336 3344 3352 3360
          3368 3376 3384 3392 3400 3408
          3416 3424 3432 3440 3448 3456
          3464 3472 3480 3488 3496 3504
          3512 3520 3528 3536 3544 3552
          3560 3568 3576 3584 3592 3600
          3608 3616
        </DataArray>
        <DataArray type="UInt8" Name="types" format="ascii" RangeMin="12" RangeMax="12">
          12 12 12 12 12 12
          12 12 12 12 12 12
          12 12 12 12 12 12
          12 12 12 12 12 12
          12 12 12 12 12 12
          12 12 12 12 12 12
          12 12 12 12 12 12
          12 12 12 12 12 12
          12 12 12 12 12 12
          12 12 12 12 12 12
          12 12 12 12 12 12
          12 12 12 12 12 12
          12 12 12 12 12 12
          12 12 12 12 12 12
          12 12 12 12 12 12
          12 12 12 12 12 12
          12 12 12 12 12 12
          12 12 12 12 12 12
          12 12 12 12 12 12
          12 12 12 12 12 12
          12 12 12 12 12 12
          12 12 12 12 12 12
          12 12 12 12 12 12
          12 12 12 12 12 12
          12 12 12 12 12 12
          12 12 12 12 12 12
          12 12 12 12 12 12
          12 12 12 12 12 12
          12 12 12 12 12 12
          12 12 12 12 12 12
          12 12 12 12 12 12
          12 12 12 12 12 12
          12 12 12 12 12 12
          12 12 12 12 12 12
          12 12 12 12 12 12
          12 12 12 12 12 12
          12 12 12 12 12 12
          12 12 12 12 12 12
          12 12 12 12 12 12
          12 12 12 12 12 12
          12 12 12 12 12 12
          12 12 12 12 12 12
          12 12 12 12 12 12
          12 12 12 12 12 12
          12 12 12 12 12 12
          12 12 12 12 12 12
          12 12 12 12 12 12
          12 12 12 12 12 12
          12 12 12 12 12 12
          12 12 12 12 12 12
          12 12 12 12 12 12
          12 12 12 12 12 12
          12 12 12 12 12 12
          12 12 12 12 12 12
          12 12 12 12 12 12
          12 12 12 12 12 12
          12 12 12 12 12 12
          12 12 12 12 12 12
          12 12 12 12 12 12
          12 12 12 12 12 12
          12 12 12 12 12 12
          12 12 12 12 12 12
          12 12 12 12 12 12
          12 12 12 12 12 12
          12 12 12 12 12 12
          12 12 12 12 12 12
          12 12 12 12 12 12
          12 12 12 12 12 12
          12 12 12 12 12 12
          12 12 12 12 12 12
          12 12 12 12 12 12
          12 12 12 12 12 12
          12 12 12 12 12 12
          12 12 12 12 12 12
          12 12 12 12 12 12
          12 12
        </DataArray>
      </Cells>
    </Piece>
  </UnstructuredGrid>
</VTKFile>
