<?xml version="1.0"?>
<VTKFile type="UnstructuredGrid" version="0.1" byte_order="LittleEndian" header_type="UInt32" compressor="vtkZLibDataCompressor">
  <UnstructuredGrid>
    <Piece NumberOfPoints="774" NumberOfCells="452">
      <PointData>
        <DataArray type="Int32" Name="libmesh_node_id" format="ascii" RangeMin="2286" RangeMax="4991">
          2286 2287 2288 2289 2290 2291
          2292 2293 2294 2295 2296 2297
          2340 2341 2342 2343 2344 2345
          2346 2347 2348 2349 2350 2351
          2400 2401 2403 2404 2406 2407
          2412 2413 2414 2415 2416 2417
          2418 2419 2420 2421 2422 2423
          2487 2488 2489 2490 2491 2492
          2523 2524 2525 2526 2527 2528
          2529 2530 2531 2532 2533 2534
          2550 2551 2552 2553 2554 2555
          2556 2557 2558 2559 2560 2561
          2580 2581 2582 2583 2584 2585
          2685 2686 2687 2688 2689 2690
          2691 2692 2693 2694 2695 2696
          2698 2699 2700 2702 2703 2704
          2706 2707 2708 2796 2797 2798
          2799 2800 2801 2802 2803 2804
          2805 2806 2807 2838 2839 2840
          2841 2842 2843 2844 2845 2846
          2847 2848 2849 2881 2883 2885
          2949 2950 2951 2952 2953 2954
          2955 2956 2957 3054 3055 3056
          3057 3058 3059 3093 3094 3095
          3096 3097 3098 3099 3100 3101
          3102 3103 3104 3117 3118 3119
          3120 3121 3122 3123 3124 3125
          3126 3127 3128 3195 3196 3197
          3198 3199 3200 3201 3202 3203
          3210 3211 3212 3213 3214 3215
          3216 3217 3218 3219 3220 3221
          3222 3223 3224 3225 3226 3227
          3252 3253 3254 3255 3256 3257
          3300 3301 3302 3303 3304 3305
          3306 3307 3308 3309 3310 3311
          3318 3319 3320 3321 3322 3323
          3324 3325 3326 3327 3328 3329
          3330 3331 3332 3333 3334 3335
          3366 3367 3368 3378 3379 3380
          3381 3382 3383 3384 3385 3386
          3387 3388 3389 3390 3391 3392
          3453 3454 3455 3456 3457 3458
          3459 3460 3461 3483 3484 3485
          3492 3493 3494 3525 3526 3528
          3529 3531 3532 3543 3544 3545
          3564 3565 3566 3567 3568 3569
          3570 3571 3572 3588 3589 3590
          3591 3592 3593 3609 3610 3611
          3612 3613 3614 3615 3616 3617
          3618 3619 3620 3630 3631 3632
          3633 3634 3635 3636 3637 3638
          3639 3640 3641 3654 3655 3656
          3657 3658 3659 3660 3661 3662
          3684 3685 3686 3687 3689 3691
          3693 3694 3695 3696 3697 3698
          3708 3709 3710 3711 3712 3713
          3735 3736 3737 3738 3739 3740
          3741 3742 3743 3744 3745 3746
          3747 3748 3749 3762 3763 3764
          3771 3772 3773 3774 3775 3776
          3777 3778 3779 3786 3787 3788
          3795 3796 3797 3798 3799 3800
          3801 3802 3803 3804 3805 3806
          3807 3808 3809 3816 3817 3818
          3834 3835 3836 3837 3838 3839
          3846 3847 3848 3849 3850 3851
          3861 3862 3863 3882 3884 3885
          3887 3888 3890 3900 3901 3902
          3903 3904 3905 3906 3907 3908
          3924 3925 3926 3927 3928 3929
          3930 3931 3932 3939 3940 3941
          3942 3943 3944 3954 3955 3956
          3958 3959 3960 3962 3963 3964
          3969 3970 3971 3972 3973 3974
          3993 3994 3995 4032 4033 4034
          4035 4036 4037 4053 4054 4055
          4056 4057 4058 4059 4060 4061
          4062 4063 4064 4089 4090 4091
          4104 4105 4106 4107 4108 4109
          4116 4117 4118 4128 4129 4130
          4167 4168 4169 4170 4171 4172
          4185 4186 4187 4208 4209 4212
          4213 4216 4217 4233 4234 4235
          4236 4237 4238 4254 4255 4256
          4257 4258 4259 4269 4270 4271
          4272 4273 4274 4284 4285 4286
          4287 4288 4289 4290 4291 4292
          4293 4294 4295 4302 4303 4304
          4314 4315 4316 4317 4318 4319
          4320 4321 4322 4323 4324 4325
          4326 4327 4328 4338 4339 4340
          4344 4345 4346 4350 4351 4352
          4353 4354 4355 4365 4366 4367
          4368 4369 4370 4371 4372 4373
          4374 4375 4376 4377 4378 4379
          4380 4381 4382 4383 4384 4385
          4386 4387 4388 4389 4390 4391
          4398 4399 4400 4416 4417 4418
          4422 4423 4424 4425 4426 4427
          4428 4429 4430 4434 4435 4436
          4437 4438 4439 4440 4441 4442
          4443 4444 4445 4458 4459 4460
          4482 4483 4484 4485 4486 4487
          4488 4489 4490 4491 4492 4493
          4494 4495 4496 4497 4498 4499
          4500 4501 4502 4506 4507 4508
          4509 4510 4511 4518 4519 4520
          4521 4522 4523 4545 4546 4547
          4566 4567 4568 4569 4570 4571
          4572 4573 4574 4599 4600 4601
          4602 4603 4604 4605 4606 4607
          4611 4612 4613 4647 4648 4649
          4650 4651 4652 4653 4654 4655
          4656 4657 4658 4677 4678 4679
          4689 4690 4691 4692 4693 4694
          4695 4696 4697 4716 4717 4718
          4743 4744 4745 4746 4747 4748
          4749 4750 4751 4779 4780 4781
          4788 4789 4790 4800 4801 4802
          4803 4804 4805 4806 4807 4808
          4809 4810 4811 4830 4831 4832
          4872 4873 4874 4902 4903 4904
          4923 4924 4925 4968 4969 4970
          4986 4987 4988 4989 4990 4991
          2880 2882 2884 3883 3873 3886
          3876 3889 3879 3957 3961 3965
          3875 3878 3881 4119 4120 4121
          4206 4207 4210 4211 4214 4215
          4347 4348 4349 4251 4252 4253
        </DataArray>
        <DataArray type="Float64" Name="resid_x" format="ascii" RangeMin="-0.02808922053219476" RangeMax="0.0028079544537522594">
          -0.00008541868945188824 0.0003187805316988701 0.0005598647010538471 0.0009360772008930596 -0.0020505762257050364 -0.0007464808983899118
          -0.0040677708952605585 -0.002812932509889343 -0.010973147514741655 -0.012610964688675175 -0.012750013489837286 -0.0107463033533719
          -0.004116990527517572 0.00030648190003645936 0.0003004943628317769 0.001287614801649184 -0.010817161012976584 -0.0017666191017511323
          -0.002616398550767951 -0.0019265799940395567 -0.019429386929986414 -0.010998850218784995 -0.009510702573088836 -0.012036204354558322
          -0.01801246772381848 -0.003197476524002596 -0.02577980606917052 -0.00513969145180404 -0.018081042115282386 -0.0089094374736014
          -0.001005061548963404 0.0008579373276402791 0.00036826144122503734 -0.0011043656111411337 -0.0035744294227777473 -0.00002236701569202637
          -0.0024773941988058823 -0.00612943432132429 -0.003743591004506719 -0.0018219687516722871 -0.0031000869173332113 -0.005482384491816816
          -0.005244611766691998 -0.0036463858367019597 -0.0035322888604356617 -0.0031363686519592093 -0.007741718910641016 -0.008583200265291246
          0.00004373120765688299 0.0005901485735728684 -0.0022940926402910122 -0.0034973179078257033 -0.00012898467013933157 0.0006923050171929734
          -0.006377433914453334 -0.009397942513299284 0.0008228085629866655 0.0012791557091764716 -0.00017769681933277326 -0.004105986625862812
          -0.00021762315863682602 -0.000004585953658153841 -0.00019937802978287067 0.0000612441306362399 -0.0015552886408745081 -0.0008719663490202034
          -0.00119944896472024 -0.0033168120308655347 -0.009197805307082252 -0.0049185406096525774 -0.005602320751248335 -0.00788037960582777
          -0.0012126995437302668 -0.0013278040666202529 -0.0020121688953249617 -0.002945580004469761 -0.006997034874015817 -0.008979565751109142
          -0.0005602577369900885 -0.0002251000715078888 -0.00030806096902580293 -0.00024700796061960517 -0.001504460242630401 -0.0008070283181034199
          -0.002094748775369304 -0.0012114484924135027 -0.008741691589186473 -0.01036291231809816 -0.010150939032847361 -0.008041112827235963
          -0.009427729318751688 -0.011020705181666202 -0.004341698966976892 -0.01814575512129224 -0.007036647107003802 -0.0008777113836710981
          -0.0165956650827237 -0.014071133495175303 -0.008094969481136083 -0.00043637986072653234 0.0017922572789288438 0.0017437395685915291
          0.0003717605936142121 -0.0018398913863366673 0.0016498700074931705 0.0016680086269236227 -0.0018460267323350266 -0.005851194476035992
          -0.0030061350143393284 -0.003087402947532958 -0.005947192971672344 0.000024178939360908203 0.0000682058934886598 0.0005171864177961893
          0.0003037343131446768 -0.0009924392317106623 -0.0013072732671961518 0.00013369207486579882 -0.0015840232691672895 -0.003334788722996862
          -0.004417035492930488 -0.002819778214552038 -0.002909545440880734 -0.00700117876125983 -0.011443927787184727 -0.0077162355253515
          -0.0014516227173881902 -0.0009278183247989347 -0.0018901525235461847 -0.0014060836533200671 -0.001248924527045503 -0.002314752012073651
          -0.0013520799659429983 -0.000770405536872687 -0.0016608234365520502 -0.0007069762340758956 -0.002108828968689913 -0.0006951658614626766
          -0.0025168068018119882 -0.003915726045298662 -0.005520755286572587 -0.004196259814205128 -0.003787231309592798 0.00025615920845956097
          0.0003808010216550528 -0.0030434538295711633 -0.0018546757957649262 -0.000006160920076769827 0.0005041763578779168 -0.0026198072233754033
          -0.002655798580367019 -0.0005219561393334793 -0.00018658356797196518 -0.0023187769257964064 -0.0019561011902573533 -0.0011586813766299997
          -0.00014417795554777513 -0.0027904730278578427 -0.001446092670929211 -0.002910820798760483 0.0012754571759856503 -0.009934794823992732
          -0.007722316289365594 -0.0071454181739127876 -0.006649382776242163 -0.00038875423069173465 -0.001658809712341558 -0.0028373464793931547
          -0.00214510095483611 -0.0037750950251087545 -0.002693591041262877 -0.005383761993850822 -0.0092180930192729 -0.004972734062165252
          -0.0030463215260345677 -0.00036951309121224796 0.0028079544537522594 -0.0002189201961471099 -0.003438811369240291 -0.004596806638897277
          -0.0004755421721398534 -0.0017387472672476534 -0.003280850945811764 0.00035427384995756483 -0.0010945039080789698 -0.0026530375872795275
          -0.0036007121535894804 -0.00015901511253169076 -0.004894267182066869 -0.005683044310393903 -0.006567708404825456 -0.0035345080559459063
          -0.0033913475182849595 -0.007141564410628298 -0.0016894767529320731 -0.010270318127675537 -0.004082987550036776 -0.009203510763276412
          -0.001407151423279629 -0.0006618575807326721 -0.0032508062548757266 -0.002808670300655791 -0.00525484198141335 -0.004168616376462708
          -0.0026671197731293894 -0.003498050159499222 -0.0007195607895593703 -0.0011747326956879078 -0.0027270796830318744 -0.0037428573971078904
          -0.0010821985991986693 -0.0026129533878571642 -0.0007343034513560553 0.0001473688404391993 -0.002586588026116221 -0.005372847516851742
          -0.0031858181360657767 -0.002331555736395874 -0.006984067627720414 -0.006277791341702699 -0.005511232836258095 -0.007096360948092517
          -0.0017335087246341807 -0.0003780531531782927 -0.0009267073600759401 -0.0004168191875253413 -0.0007420928941599403 -0.0010340952608069998
          -0.0018201777469197822 -0.003462146358980789 -0.005220921808776424 -0.0010885352823888361 -0.0018009697678431635 -0.0005789658421893051
          -0.0013312858206218081 -0.001919058379664662 -0.003940677712491514 -0.0005742139071420738 -0.0007831581445909563 -0.0012610348062311871
          -0.0005373236046297691 -0.000926825319895741 -0.0036117002161759615 -0.002042612918072173 -0.001201849040556091 -0.002904557697432253
          0.00017257285861571603 0.0004652963388354081 -0.002586047351879728 0.00028593310019164875 0.0005363121485890687 -0.004932708048222878
          -0.004463609509043565 -0.0033124001386459767 -0.0072297408120061135 -0.004052095929800714 -0.0024782241844878428 -0.0007289106282790669
          -0.001308985442832089 -0.001269264828485106 -0.005365960275592663 -0.010474061955985547 -0.016169315123036654 -0.02366376678358506
          -0.0260161943225512 -0.019397594973778354 -0.01835608205303174 0.0014728292883718908 0.0021726804409683 -0.0022222664053090924
          -0.00021980534749665992 -0.0018753835329752278 -0.002721054936891676 -0.0006404562876909381 -0.0020111748681714836 -0.001542977160116088
          -0.0037581711375813676 -0.003801582282041416 -0.005360621346637284 -0.002233658905962166 -0.0007000440236253347 -0.002440209784637659
          -0.00047667217117064453 -0.005055561742284276 -0.002548248050858515 -0.006590713615150179 -0.0006941326041447482 -0.00022352499416200544
          -0.00015601963922229345 -0.013716718543573592 -0.0035715675277363523 -0.002117352568749453 -0.004977755400594752 -0.017482929953256843
          -0.006532936911558984 -0.00914557641292646 -0.013092821373120067 -0.0001560779600700002 -0.0018882617115876243 -0.0020703239460431178
          -0.0001485765024664687 -0.0013693377554409025 -0.005262299993691322 -0.0033003030261760102 -0.001992234472758092 -0.012113609787169466
          -0.013919213289316446 -0.013724392526309082 -0.01412035335678219 -0.0078086981012193135 0.0003545848824728637 0.0008090780853393653
          -0.017291134438584876 -0.0005550332402126656 -0.0015723342853064537 -0.01650082070289738 -0.012317123137172814 -0.007913757930599452
          -0.0033489365103633872 -0.0019301288395610072 -0.0014312934861298032 -0.003229541549590209 -0.004993138710215561 -0.0017606419425071351
          -0.01210950834277602 -0.01007953047791954 -0.016622866740765296 -0.013749874694736874 -0.010657533427368637 -0.012406607931710667
          -0.008549183303733443 -0.010025745765642746 -0.005263684422007309 -0.004674689851816183 -0.011722926509581733 -0.013332189633412206
          -0.006833985334756321 -0.0032215774468502545 -0.001633089770364915 -0.008446827141300961 -0.0023593860926877652 -0.005766789686395768
          -0.008068685492588656 -0.004823709602422843 -0.0011280818589885222 -0.0023160170895231147 -0.007377007747704667 -0.015802923790314338
          -0.005117140842928247 -0.01018417693036433 -0.015243888492541657 -0.009640515217361312 -0.004364598891727134 -0.01210686912980563
          -0.008283731027091568 -0.004749443045774182 -0.013461859938008747 -0.0028275905702317417 -0.003276799565385069 -0.0013537535942800272
          -0.00273397510849005 -0.004804665259377616 -0.006155983130483822 -0.004967465680270067 -0.0037089125807314716 -0.0028468278081579257
          -0.006007907075201935 -0.004815623210294717 -0.004543647390877759 -0.0030216282060386845 -0.006343735293196318 -0.006343905696627239
          -0.002992613525230503 -0.0015950379682294624 -0.000789692349554727 -0.004635532912382723 -0.0035794166769900215 -0.003803347828227166
          -0.0023458098417226125 -0.008695828522433002 -0.008082587059026203 -0.007871928532998007 -0.0037369030820758597 -0.010130561387956538
          -0.009119626450607932 -0.005301992150201329 -0.014819271819497715 -0.005745406821066945 -0.002589831726678482 -0.006723386036209034
          -0.0007356572991650268 -0.001572081581670659 0.00005759662124038556 -0.0016008766491248938 0.000018294457484024917 -0.0017452389478831432
          -0.006621629223826225 -0.0015257338896678962 -0.004750527635545065 -0.01198619477558438 -0.015858380241031256 -0.02405702217189365
          -0.023926430912258212 -0.013308607767361202 -0.017494327816219624 -0.002644026452574888 -0.0015199825175145065 -0.0029126476483671837
          -0.0016319570917642245 -0.0010540539511572078 -0.00318671318628283 -0.005471810032900759 -0.00404331885825826 -0.004590473694594088
          -0.004087880302067193 -0.0018163869899385787 -0.004627618095105035 -0.003170447483169969 -0.0008030501686082658 -0.0025541343998813915
          -0.0038813182389889622 -0.002094047424106904 -0.002547694960101765 -0.005585571188923666 -0.005297604399860489 -0.008093799091717813
          -0.0062951949546992125 -0.001955696380605776 -0.0006250809528496326 -0.010389573816947717 -0.005801476859867982 -0.0176722424210336
          -0.02267003199784412 -0.00890089510221781 -0.022216744119299747 -0.015716714592992176 -0.01034555141090543 -0.01623480089219953
          -0.014248178260846345 -0.014471961733596661 -0.010633188438818664 -0.005457629248204032 -0.005795374007546705 -0.007239127280978419
          -0.011695746613116675 -0.011990528298160719 -0.012834737237922944 -0.0021838096990540734 -0.0017293426952802449 -0.0011300073877302808
          -0.0008735073826615647 -0.0009532140481125495 -0.0018542325500083834 -0.0009118644435037737 -0.001369185450196042 0.00026585108295140714
          -0.001303053632232043 -0.0012109789103140756 -0.0027212750487093373 -0.003574794080217103 -0.0003956843737182858 -0.0033711498796602513
          -0.00008373507874059882 -0.005497310778831643 -0.0022973559039307645 -0.005857541066438543 -0.003901447418579451 -0.005946982610088636
          -0.003296045730668773 -0.008814302422305964 -0.001404819038059557 -0.004253930970164355 -0.00022886993763293617 -0.002253271994725914
          -0.002529373390355971 -0.00033919372168611517 -0.00022744143447184229 -0.00790574258447485 0.0000528253837304149 -0.01045882440185153
          -0.002353358580738707 -0.000553093735518928 -0.0009788156293382144 -0.007013500184928745 -0.00023705665530115994 -0.010048442757497611
          -0.006885618823027295 -0.0008162830696325507 -0.009177151310493459 -0.013396109355887198 -0.007596865290662613 -0.018484336735866247
          -0.010751425399838865 -0.0067801893210353015 -0.00404116457933501 -0.008446424410326059 -0.009552272159014663 -0.003157811364111307
          -0.004239001149731081 -0.005707540204425543 -0.00826833444697872 -0.005137463763746908 -0.002656200209399273 -0.005815511417352148
          -0.0069566086772319125 -0.001558869315983813 -0.012613052821865978 -0.012223561522405113 -0.003421968144740717 -0.009318442655186665
          -0.004574213919202208 -0.002555203941973616 -0.001953823171192859 -0.0031594659656573043 -0.0026709534029238924 -0.0017633353273707186
          -0.005190493818605368 -0.0072976594910159065 -0.0034791829276192843 -0.002701768139557359 -0.0030428882755870745 -0.0005342101243259734
          -0.0003804225718662124 -0.0018121973289977333 -0.0024964256714410382 -0.003680237016427945 -0.0016011761586574025 -0.002155908922233607
          -0.0021323153175321075 -0.004736536257410329 -0.0007916927356945713 -0.005070180145859471 -0.004138634161721999 -0.004759629092802253
          -0.007489031409042113 -0.011330705345457659 -0.001026001413116262 -0.0029823171107068447 -0.02495663401871795 -0.0008431233139605254
          -0.011106906437077235 -0.021817270756779195 -0.010542946232344086 -0.004979169257658178 -0.006069357211861082 -0.012030271738187714
          -0.003366494209054771 -0.0008242525791093414 -0.0019732885010910195 -0.0058273781665914015 -0.0054745281025496695 -0.0008556712898055707
          -0.0004621942837852444 -0.010405073315623348 -0.008295409363251238 -0.006428142343423815 -0.003218399152582041 -0.0020405571636095132
          0.00007179839545035094 -0.0021247981923506742 -0.000981212238770901 -0.003154093782390177 0.0003549735128391962 -0.001398145280884
          -0.006788033310943575 -0.006581365157344532 -0.002526477887327516 -0.00341086018922665 -0.0020995592457859757 -0.002665294876635027
          -0.0034800984277980618 -0.00106239942338604 -0.00008477697755937541 0.00041777596769421166 -0.007413693620502926 -0.001616830775225342
          -0.0022934866931070275 -0.0009826116777569283 -0.006266415886189591 -0.0034339690187366045 -0.005666113682094576 -0.00442132839308762
          -0.007229505781412016 -0.00206489269546406 -0.00986245910367245 -0.006072695820650509 -0.004084986715973571 -0.0052211318939408
          -0.0016610064714619455 -0.0027905087095971837 -0.001253752002017272 -0.001974731168464139 -0.0022352969789602994 -0.0013911444904852743
          -0.00747541086516465 -0.0010186999982211564 -0.0035446937455533845 -0.012583800693038327 -0.0025098700275592023 -0.025641915088176148
          0.0003561056452081601 -0.01935268653766542 -0.005606318637009444 -0.00033589840498660095 -0.0019488723635490146 0.00009623327219188127
          -0.0037246923057772108 -0.005797455675754293 -0.008388096401366951 -0.01408038694492042 -0.02808922053219476 -0.022217725539816158
          -0.0046486676042345465 -0.004741769929734407 -0.0005592219114021191 -0.0026819238206632345 -0.0012002279176996922 -0.0021065226918397517
          -0.00015768453755526934 -0.004983997780121818 -0.007182000092984531 -0.0030563433362651438 0.000032660043017607165 -0.006101906978636329
          -0.00427027373943023 -0.002882436681293399 -0.004570936488323518 -0.009711749040087092 -0.009478357274218752 -0.006846477609671275
          -0.0005910984724710744 -0.00003731806148721262 -0.003195659318783406 -0.009320469894490202 -0.0023493683234301344 -0.003809233859044525
          -0.0015309611416167712 -0.009837647995484033 -0.0028253863362790455 -0.001842945128182727 -0.0024432626161106086 -0.0010021470710910307
          -0.00022924987538797126 -0.007266225356675982 -0.006564107490693694 -0.002572043209242203 -0.0001897430105186615 -0.007189510256996101
          -0.006151296342023382 0.00034224779791336424 -0.008585967209846057 -0.0006173131996014547 -0.0000040929701210501435 -0.004499743556256597
          -0.008432942977744773 -0.006373303305857281 -0.007422875708632315 -0.008431006269498553 -0.01435527310174578 -0.007590906995920577
          -0.0027519550012655714 -0.0026181974185055523 -0.0015575030436725257 -0.0016616146205752358 -0.006668677547062352 -0.005356986394405183
          -0.0069835032873220015 -0.001055739005998646 -0.007844867881000361 -0.0049494178915932 -0.0034966094944621773 -0.0021908874410190293
          -0.0080110811963503 0.001081303513967402 -0.01069430996961307 -0.005263170345743973 -0.0017873000700729946 -0.002314185653987444
          -0.00519632731801245 -0.0067924833408543606 -0.006063996777451841 -0.008519654304530277 -0.0019488278116537305 -0.002992780446444243
          -0.001415817851530221 -0.003862348600444321 -0.0011076176496755963 -0.00023422690570029658 -0.00102121659285892 -0.000322304699151843
          -0.0027606168918845597 -0.0061061050857400545 -0.003819202947143552 -0.005421339352911225 -0.00022868603859471648 -0.00271399613197687
          -0.0060317750421043925 -0.006349223032012574 0.000605900337619758 -0.004385224182501979 -0.005195135460059674 -0.0063490725068495735
          -0.007339097979219389 -0.0019697138500465172 -0.0051154850062067325 -0.008200638188988751 -0.006550606438981976 -0.007823056105241033
          -0.0020556812562118054 -0.0017291913232577727 -0.005583376361122383 -0.006889754982630336 -0.0008160433706096981 -0.004821966331135297
          -0.008699170783373233 -0.011186806348762346 -0.0027153266226500605 -0.007822749148948205 -0.009124703522346955 -0.013220695949513583
          -0.008234735489609069 -0.0031125332731036792 -0.005305509587568924 -0.009263869895347554 -0.011597381986083732 -0.007410118343104344
          -0.013221340840532392 -0.01773266308830923 -0.007633036767806578 -0.020203196239176435 -0.026825146746141115 -0.0174652915363378
          -0.006259385463823541 -0.0038682036939765574 -0.0029378965346285035 -0.016897790184759565 -0.023156441412743867 -0.015130532859858548
          -0.012667924046700474 -0.01509938670944333 -0.0029787592381738115 -0.004120101771468043 -0.005935550497524922 -0.008999725260905755
          -0.010048940904974657 -0.018688865014393485 -0.005768102088115512 -0.014036492813003676 -0.012879608285860655 -0.021996285321971953
          -0.02097464411871286 -0.011012425507175294 -0.010777138629277871 -0.013864013382324458 -0.0199312997062151 -0.010698513179971947
          -0.0120232241023146 -0.011036388237229744 -0.009147136929989585 -0.009595265470753844 -0.011589759991997184 -0.005848046285081843
          -0.0052879594662407214 -0.013623885548105008 -0.011897974891644125 -0.023584549302590574 -0.00670467371335981 -0.013545681511448748
          -0.01350783032511238 -0.013899476005395428 -0.007430175017868024 -0.015006149599461338 -0.01897430649948717 -0.0079151104201447
        </DataArray>
        <DataArray type="Float64" Name="resid_y" format="ascii" RangeMin="-0.8381987166076693" RangeMax="1.267405024361129">
          0.00007386767084778534 -0.00038423347771976424 0.00001686973749227827 -0.000728161014295764 0.0015018941526879354 0.0006148637437505267
          0.0028010720958582536 0.0010522207337896328 0.005109411421110918 0.005737532038356613 0.006153465854704179 0.005040010490846708
          0.0029971420198027093 0.00029180412995548355 -0.00008228294810425085 -0.00047870021190210554 0.006560244737299615 0.0014368799354949335
          0.00042534801231772223 0.002160266909631725 0.007676105880160902 0.0035508082056184415 0.0040657254709203505 0.005687628058937189
          0.01130049872623265 0.006256960578612553 0.014561323207993637 0.012487511077030694 0.008650343678340722 0.007657978669039847
          -0.0013616251677187191 -0.0002939804178961787 0.00012010582809901527 -0.001662171903384052 -0.0023316894683978046 0.00024031189734970843
          0.001081622317661679 -0.003523152871504426 -0.00020791038184170968 0.0010835424619159845 0.0013440066061199962 -0.0006999403114230085
          -0.00037904793191914643 -0.0011922393387419628 0.0011594104327876942 0.0018265132979476684 0.0039733598956214755 0.004184297614277743
          0.00020977897652242616 -0.00010945385478072778 0.0033116246209417 0.0020159317194483883 0.0005282429768476565 0.0006016541115093643
          0.007716463749928848 0.004045841434777701 0.0012726335215378498 0.0012199402863665165 0.004847923231981799 0.002351332180505039
          -0.00036009738163161886 -0.00021155861498182993 -0.0003697120554955746 -0.0003323878373931166 -0.0008119547605272559 -0.0001141237880016438
          -0.00043265171208053954 -0.000010292052580518352 -0.0005477763213106168 0.00020592987701864574 0.0005505221217270151 0.000309953170186672
          0.001807969597265896 0.0036020785471244272 0.002047750857516961 0.003319163741608979 0.0036959360107647887 0.004399809597728947
          -0.00017974120996226695 -0.00011872556745240459 -0.00015796881432833532 -0.0007863838154236191 -0.00022923337690095025 0.00004912161721182251
          -0.0000026604672435093235 -0.000838664868987038 0.0002270330974361856 0.0004231650293987643 0.00010961003440934647 -0.0004278889716629597
          -0.0013624574840631065 0.009276619456687007 0.007427257941580556 -0.00046307693601410627 0.005584731420741118 0.006184459354133004
          0.0056290660057465025 0.006187630840471081 0.0047033046506135545 0.00020302316469089643 -0.0006250991456459194 -0.0004969195383774244
          0.00008181756181596667 0.0002557845623856886 -0.0011570864257270178 -0.0011747346820037002 0.000018581704180398173 0.00020938890155228207
          -0.00036749664980270137 -0.0001247292603422101 0.00002789558768839795 -0.00012925435796401485 -0.00039119529389830543 -0.00020786880423731557
          -0.00013796252176262458 0.00023911940864633496 0.00014534971072896474 0.0005169923951869881 0.0006619895956676558 0.001262174539051475
          0.0018710252679400574 0.0024466518723453984 0.001779209498178308 0.0012354535537108247 0.001200584325661072 0.001462777026199194
          0.0010684071910942866 0.0001521954558599825 0.0005800492334867013 0.0006964914868712521 0.00036977030529639077 0.0025348339210753412
          0.0012308941835284942 0.0017478907224914852 0.003430245468829085 0.0009150046177537063 0.0025705784517874586 0.00022357872566086678
          0.002344012109661977 0.0003984224328491548 0.0014685709811875433 0.00022525101984127716 0.001255557510092986 0.00025434906846422134
          -0.00007542412320099556 0.0007622616577704355 0.0004543076924795053 0.00018586708107537486 -0.00041900134007966106 0.0008506159028878746
          0.00044395212582132304 0.00003444158740809056 0.0002797658260950686 0.00009439854090287358 0.0006100657128626993 0.0005130819443110168
          0.00040456694308138585 0.00045846280725680977 0.0005800238128779549 0.001096845746299424 0.0023953282949102928 0.0007800395350936462
          0.0009180959677751871 0.0007048268847993366 0.00148199589471798 -0.00002089451464146186 0.0019897504466039884 0.0002193619231915661
          0.0007818918376203687 0.0006523085826602437 0.002919361471068485 0.0019240207204494209 0.0028083917646444245 0.002832118177195239
          -0.26609509963217315 -0.3191806562415023 -0.596395074145847 -0.6864666899372853 -0.41845898335586695 -0.5147868829323292
          -0.0006112538263974565 -0.0006183135597131462 -0.0000032500097880555634 -0.000626126730231491 -0.0010629053652537745 -0.0008543771615341367
          0.0010512278930212594 0.00011846233259980854 0.003025642828988595 0.002619375248033712 0.003226470132033185 0.0021390666565718752
          0.0005506627083637916 0.005063634583202178 -0.0012074212700632359 0.005515886741215448 0.0003775480935280795 0.003241896290087115
          0.0008816274938399926 -0.0005537462645629487 0.0008743929130610173 -0.000692397219345886 0.0012267078033761092 0.00017454102776504055
          0.001927071225796495 0.0013582234687629091 0.00130174842479161 0.00018963703645152874 0.0018040751754377915 0.0024276289652336303
          0.0014320533948692094 0.0014984826791022698 -0.00009434793600784919 0.00017305475632267697 0.000463990538059289 0.0033911212807797853
          0.0014512914576771951 0.002272879263372607 0.0019973630739842374 0.0034051179746625027 0.0031434561083260593 0.0036123972762228396
          0.0002042809969386994 0.00003424553794742491 0.0009701050444640424 0.0016897572521901993 0.00292942628902515 0.0030052959764897136
          0.00025422801599717104 0.0006133382939292886 0.001047215310804983 0.0025811823295026903 0.0026268317827184418 0.001944678205110538
          0.00156528939529324 0.002769680315830206 0.0031943658396863805 0.00009962086323892297 0.001034288448909404 0.000852587838058666
          -0.0001948038678112364 0.0010836404185654847 0.0009099138725729428 0.0010056013372226726 0.0019312427627582729 0.001677838103077034
          -0.00011023640221824449 -0.00038160665988373754 0.0004468441692620506 -0.0001694984128899346 -0.00033605748574377925 0.0008827234330562872
          0.00043844858480679427 0.0005892427650797116 0.0011750018688931885 0.0025151147330402246 0.0017295684362804153 0.0024614762520601685
          -0.40779695561750984 -0.8381987166076693 -0.5319471664312984 0.0004600666822592858 0.007295903655303762 0.0026026510932429525
          0.0064983658840724046 0.005192066151286548 0.00584823480117886 0.0009009766617031623 -0.0003840341801390479 0.000695145755898352
          0.0002361907286760334 0.002517152104852649 0.0023490187415419472 0.00005411724026033182 -0.00041574272902544784 0.003641223245167635
          0.0022304244423621555 0.0021587228119049895 0.005044119670990499 0.0003937822121369283 0.001100346027048088 -0.00030049255571559796
          0.000339891045569668 0.0008759878192581283 0.0007973749728303614 0.006573332684926131 0.0029782566774641736 0.000022993077717914367
          0.00006593022245787727 0.013299281133203333 0.006958086303364926 0.00020437766890421538 0.00152644082677042 0.010892286253128824
          0.005846926978354254 0.0042114025846211045 0.004553740057531397 -0.00006546949049715534 0.002288149047807164 0.00436142743068943
          0.001258893619182161 0.0001380057200081608 0.001421184430452499 0.0037224743266275895 0.0033824602591929764 0.004327626328006373
          0.003912353606054436 0.005926308989530393 0.007415912242202366 -0.0001063771299332078 -0.00021827595168649738 0.00023612396496605625
          0.0015149757294878052 0.0009245967797686383 0.003907636055289307 0.004108758538528448 0.006597524293994905 0.005778591448780693
          0.0023867421920569787 0.0012320981233773232 0.0018417605935463488 0.002471375276588042 0.0034553884103857846 0.0027073218093393997
          0.008718759708001213 0.006047314274873206 0.012581097150227774 0.010617148948299349 0.007257521759414286 0.008807394684425263
          0.008295306060365298 0.007605822170288379 0.004429381901365548 0.004220243517381678 0.005525976817136485 0.006250756614495229
          0.004960811411953668 0.0017943242186809136 0.0022235350664702863 0.002121478404836008 -0.00034137583464464126 0.0009909097444057435
          0.0024020649802782568 0.0010500077651026951 0.0011207996121203635 0.0006021765903432008 0.004138554904392633 0.006066432939744848
          0.003856771610215793 0.005664734588413989 0.00815741414640489 0.003535352722414953 0.0029969672162440952 0.006405201849415537
          0.004288403387531489 0.0019422877041934267 0.005595569977222409 0.00010134668132305569 0.0008865863409586727 0.0007480198937142857
          0.0024921514049425775 0.0032208002673294878 0.00419544886509296 0.0028930617276244908 0.001359653065047095 0.003688792195323254
          -0.0001239487080738344 -0.00013255800031364284 0.001369511243642041 0.002820793879099781 0.004152193983281982 0.004829079828160776
          0.002071068736725995 0.0011563423430989705 0.0016912567168762827 0.0032663080795246324 0.0038254725979989662 0.0020858262268253908
          0.0025399971370344276 0.0038341531644335014 0.003742786902461881 0.004630697019466071 0.0013958342144226484 0.004212935562554414
          0.004506945245490779 0.0017495734919222294 0.005658234309579291 0.003084661535229599 0.0012463480138347471 0.0030681997041030196
          0.0012156420202997509 0.0024203724067751314 0.00001750310639245245 0.0009179158710016511 0.002092777285407632 0.002524763976258962
          0.0027303807533018976 0.0011092614490171848 0.003024358412492295 0.0036262598844989946 0.008514164177819653 0.007185163019525265
          0.00900714512086355 0.003907843287235868 0.004792936632466993 0.0007412002292046527 0.0015508452652087945 0.0007460823563308627
          0.000694672840592464 0.000720134509946152 -0.000013977989096219945 0.00009396566165328912 0.00015655924367785623 -0.0003758843520571681
          -0.0010654396583522907 -0.0007117677727485061 0.00017557459306243722 -0.00015431791427850117 0.0003779338330938131 0.00037519209499404377
          0.0012101188989195322 0.0011727713212001944 0.0007597056331201946 0.008734485963919236 0.0072437418656928765 0.012498460681578338
          0.011019747560895521 0.006651381068598972 0.006069008123828046 0.0036048214415298624 0.0021158832604401406 0.0036104983262659623
          0.007568934644567649 0.005694888516858787 0.00902437871714555 0.00612957951604777 0.00564361191168742 0.008936676116613682
          0.004867766694658694 0.004480340410384004 0.008542177860023897 0.001011533449140331 0.004463561958128762 0.0026143683956834293
          0.010518886251384502 0.014784726332490283 0.008548914705081095 0.4392326992177107 0.33228110721874926 0.900285953927235
          0.6806153716453791 0.48973982888788437 0.39264501493144355 0.10765963853683513 -0.07628855525639507 0.23504456584530725
          -0.12741719058801426 0.19039803998007987 0.019511429880568587 -0.0002664415249950657 0.0003222852023193751 -0.00046979903102772197
          -0.00016952767195710372 0.0007373936400862924 0.00039788316206687546 0.002016528572882592 0.0009417751863523977 0.0013323061049446139
          0.5240067489400286 -0.0010582140007731194 1.0604910881749117 0.00007326396291650744 0.5259408125026277 0.0007374844837372968
          0.5405350660952548 1.0823486344251143 0.4777395174641482 0.004480137012191535 0.0015872669802005912 0.004400324047368148
          0.4969556652838507 0.9662461146497886 0.3295519000591725 0.0036231916378777346 0.000033727195561009116 0.0033021821129158024
          0.004833849340231469 0.0004513150729510765 0.0028319626937846343 -0.001930489508253752 0.6714553843685939 -0.002464239571712351
          1.267405024361129 -0.0005486978235870466 0.40578726163180034 0.005642670402254524 0.007776909371381008 0.0019065378675666156
          0.0025622742521639597 0.002526407707839018 0.0030386599258278857 0.002544121038242142 0.000870846128815439 0.002882325440085154
          0.005588936223464291 0.002337092351952813 0.0064965198445456895 0.008026174323630161 0.002169411841214622 0.0033294501416832045
          0.0033269990845705977 0.0014465408947918479 0.0018657257717500098 0.0021540357065759075 0.0009212593863658913 0.0023307968974157767
          0.007305026226900546 0.010554977334013449 0.007537398639552051 0.0011977414456590396 0.001813753907749821 -0.0001290627351197976
          0.0001546729031448868 0.0007003397388535282 0.0017100207684176416 0.0007230765048595322 -0.0007615014315919127 0.00047985304487578595
          -0.00012510636065946046 0.00026664344063180925 -0.000645794718276492 0.0009400612278391771 0.00008747521516357104 0.0009511763897358874
          0.0034018938400601773 0.0022375818722478458 -0.00021736845072295452 0.0010199395375852793 0.007825118563447891 0.0015380022809227123
          0.006925483154153089 0.009840424965921052 0.0064625823296901586 0.009870568837097027 0.011926250395693505 0.008242963890435134
          0.001360075001022587 0.0006737878972554456 0.0006074183061542046 0.0036405216466164625 0.002655425131518195 -0.0007062628666672927
          0.00009160288383085191 0.0016485041209792634 0.0026244542504319443 0.0017694289459936619 0.0014899870223429312 0.000574786064669916
          -0.00001710566074392128 0.000025714677733851277 0.00010506297753559712 0.0009468349313432323 -0.0002991783993639141 0.0007141667662121098
          0.0008333627096235308 0.0008577520387884896 -0.001032674158982269 0.000335524552843372 0.00031354406453090733 0.0007842925575753529
          0.0013263345577278485 0.00012267375483872994 -0.00001026382195756445 -0.00017063254737303968 0.003833594278269903 0.0014110617763675587
          0.0016713403532676516 0.0025080779965606093 0.0050839548801941414 0.0032654654638054614 0.0043345472765842635 0.0047186657343421395
          0.004597493447842438 0.0007225699003652192 0.004363251514217195 0.004094280688217322 0.0022444070023884266 0.0037199790810839573
          0.000808681014674642 0.0016132407754699551 0.0002486725228975778 0.0010415633064926452 0.0006908083584600405 0.001167679667661221
          0.0021960895100708033 -0.0002567507189484286 0.0022624898062119647 0.0008906649702641045 0.002509236304398234 0.0009985567369705795
          0.00040173801270069337 0.003504319131703043 0.002693150443004777 0.0011880811229516564 0.0013819905402972787 0.0009052911065704494
          0.0022547075644476777 0.000745646116545845 0.0012608354989284698 0.010041563012289784 0.01785545059710647 0.010725427941619015
          0.0020144806382514646 0.0011468597878052933 0.00044096687198688644 0.0014054340557276557 0.0010039585540541074 0.0010518537287897423
          0.00033473680751849866 0.0010046612815816924 0.003985810344840919 0.0018698090354555136 0.0009455283775113288 0.0018495254895177504
          0.00371202619624322 0.0047496085687290315 0.003198782727078797 0.003955274423703442 0.005624735202024479 0.005889692856451467
          0.00046393508574807396 -0.00040057286734715425 0.0005293235971182558 0.004076798480960542 0.0009765538794043495 0.00195951234110002
          0.001184007511644318 0.005857328016878119 0.001913878851492537 -0.0012080203582266469 -0.0012082996028359438 -0.0010301056104029538
          -0.0013383737947356977 -0.00047432101828109863 -0.0006940762500825259 -0.0003308270490344767 -0.00041014155927321383 -0.0002566706416420317
          0.003200689804513747 0.00004737034948424507 0.002714421347267376 0.00033080740283769616 -0.0003119827645083617 0.00027129908784800927
          0.005673354168704514 0.005544315523808324 0.005243633244575566 0.0091890512485025 0.013410228438650584 0.008211022040659377
          0.000698818559991321 0.00009230839342533326 0.0006026932551990716 -0.00036856653985156695 0.0005348752887339159 -0.000013181143584839461
          0.006863256362669542 0.0017942928971091954 0.004306745158805594 0.0036491306789598887 0.0019537008729447747 0.0022640093808449224
          0.005303531982122883 0.0030974514482901006 0.0061910728778833135 0.0009959144943768204 -0.00009154192830604715 0.00021444709490913566
          0.005756659830322086 0.006643611380756087 0.00566961247702881 0.0029187625202116707 0.0011750134825814218 0.0017979659283957339
          -0.15325776221791154 -0.00015615109891686796 -0.22102825714733537 -0.27870041534886697 -0.0006483795171807194 -0.4175753904349661
          -0.07171659902980032 -0.0003990852729436889 -0.16896502694304857 0.0036768743848628604 -0.00011953174242740339 0.001676376810423319
          0.005240660370406783 0.00293000867755306 -0.00019007463899639587 -0.0002029096267009145 0.0014166298990763923 0.0005600186488176548
          0.003221224734393402 -0.0012432812540649207 0.0019062967334607661 0.007121102478173089 0.00726944495329071 0.005036070014048585
          -0.3355035212109707 -0.6643195656137759 -0.3533176044114384 0.005501519297694754 -0.0008622398957012917 0.00208826020468356
          0.005019906994284368 0.0036416682091690022 0.0012867615728541504 0.0012881251753738554 0.004521462470711113 0.005206243290286877
          0.006978537449675894 0.0057993418366695595 0.004662656664414521 0.005597130459800634 0.0066202312309954214 0.004849224883642325
          0.000013885315271966459 -0.0003889356428098123 -0.00017655847515657408 0.005468286377075568 -0.00042104361945378976 0.001554087019041396
          0.00043721491788248357 0.00100857948114505 0.0005929924556199173 0.009734663249569633 0.013266257879520515 0.007407308137157204
          0.003841244350755911 0.004051729461552023 -0.000863594085019008 -0.00023217656207312476 0.0007478555832480735 0.0015630942163539496
          0.003764695366173597 0.005769388545568216 0.002608273927027921 0.004328028896401916 0.0051993497155716495 0.00692562272628075
          0.009071878047788307 0.003643665604379648 0.005173076185333081 0.007591936561423394 0.009959119263089608 0.005875739389766058
          0.0059393535494449215 0.0051575774632277305 0.0043475728916780275 0.00822311903394568 0.012425297965168558 0.006341475211294412
          0.6318164622943131 -0.0047237015342514385 1.2290619012778017 -0.007368557999365488 0.5057584974299191 -0.0008706631269891352
          0.005669998788490407 0.0077044477493769525 0.0041524763120020375 -0.0037689687402685523 -0.00842158914194413 -0.0025396476650562105
        </DataArray>
        <DataArray type="Float64" Name="resid_z" format="ascii" RangeMin="0" RangeMax="0">
          0 0 0 0 0 0
          0 0 0 0 0 0
          0 0 0 0 0 0
          0 0 0 0 0 0
          0 0 0 0 0 0
          0 0 0 0 0 0
          0 0 0 0 0 0
          0 0 0 0 0 0
          0 0 0 0 0 0
          0 0 0 0 0 0
          0 0 0 0 0 0
          0 0 0 0 0 0
          0 0 0 0 0 0
          0 0 0 0 0 0
          0 0 0 0 0 0
          0 0 0 0 0 0
          0 0 0 0 0 0
          0 0 0 0 0 0
          0 0 0 0 0 0
          0 0 0 0 0 0
          0 0 0 0 0 0
          0 0 0 0 0 0
          0 0 0 0 0 0
          0 0 0 0 0 0
          0 0 0 0 0 0
          0 0 0 0 0 0
          0 0 0 0 0 0
          0 0 0 0 0 0
          0 0 0 0 0 0
          0 0 0 0 0 0
          0 0 0 0 0 0
          0 0 0 0 0 0
          0 0 0 0 0 0
          0 0 0 0 0 0
          0 0 0 0 0 0
          0 0 0 0 0 0
          0 0 0 0 0 0
          0 0 0 0 0 0
          0 0 0 0 0 0
          0 0 0 0 0 0
          0 0 0 0 0 0
          0 0 0 0 0 0
          0 0 0 0 0 0
          0 0 0 0 0 0
          0 0 0 0 0 0
          0 0 0 0 0 0
          0 0 0 0 0 0
          0 0 0 0 0 0
          0 0 0 0 0 0
          0 0 0 0 0 0
          0 0 0 0 0 0
          0 0 0 0 0 0
          0 0 0 0 0 0
          0 0 0 0 0 0
          0 0 0 0 0 0
          0 0 0 0 0 0
          0 0 0 0 0 0
          0 0 0 0 0 0
          0 0 0 0 0 0
          0 0 0 0 0 0
          0 0 0 0 0 0
          0 0 0 0 0 0
          0 0 0 0 0 0
          0 0 0 0 0 0
          0 0 0 0 0 0
          0 0 0 0 0 0
          0 0 0 0 0 0
          0 0 0 0 0 0
          0 0 0 0 0 0
          0 0 0 0 0 0
          0 0 0 0 0 0
          0 0 0 0 0 0
          0 0 0 0 0 0
          0 0 0 0 0 0
          0 0 0 0 0 0
          0 0 0 0 0 0
          0 0 0 0 0 0
          0 0 0 0 0 0
          0 0 0 0 0 0
          0 0 0 0 0 0
          0 0 0 0 0 0
          0 0 0 0 0 0
          0 0 0 0 0 0
          0 0 0 0 0 0
          0 0 0 0 0 0
          0 0 0 0 0 0
          0 0 0 0 0 0
          0 0 0 0 0 0
          0 0 0 0 0 0
          0 0 0 0 0 0
          0 0 0 0 0 0
          0 0 0 0 0 0
          0 0 0 0 0 0
          0 0 0 0 0 0
          0 0 0 0 0 0
          0 0 0 0 0 0
          0 0 0 0 0 0
          0 0 0 0 0 0
          0 0 0 0 0 0
          0 0 0 0 0 0
          0 0 0 0 0 0
          0 0 0 0 0 0
          0 0 0 0 0 0
          0 0 0 0 0 0
          0 0 0 0 0 0
          0 0 0 0 0 0
          0 0 0 0 0 0
          0 0 0 0 0 0
          0 0 0 0 0 0
          0 0 0 0 0 0
          0 0 0 0 0 0
          0 0 0 0 0 0
          0 0 0 0 0 0
          0 0 0 0 0 0
          0 0 0 0 0 0
          0 0 0 0 0 0
          0 0 0 0 0 0
          0 0 0 0 0 0
          0 0 0 0 0 0
          0 0 0 0 0 0
          0 0 0 0 0 0
          0 0 0 0 0 0
          0 0 0 0 0 0
          0 0 0 0 0 0
          0 0 0 0 0 0
          0 0 0 0 0 0
          0 0 0 0 0 0
          0 0 0 0 0 0
          0 0 0 0 0 0
        </DataArray>
        <DataArray type="Float64" Name="stress_zz" format="ascii" RangeMin="-5008857.249016716" RangeMax="4442321.86152276">
          -1172857.4881009865 -682457.1987568664 -1057058.5669458988 -1687772.967751935 -1239758.7202837698 -746328.5007995206
          -1081949.818370579 -1698154.06070296 -1306659.952466553 -810199.8028421749 -1106841.0697952593 -1708535.153653985
          41163.984124775416 191132.24057170658 89541.25234621337 499536.1754836545 56765.822900285435 141427.2778147327
          64328.262704413704 507653.9785204131 72367.66167579545 91722.3150577588 39115.273062614026 515771.78155717184
          -900151.5027369128 -676266.738350128 -954424.1748932829 -648806.6823382144 -1008696.8470496528 -621346.6263263007
          -1420053.8536724043 -332476.66446978494 -709981.3170024074 -2721734.139730451 -1365607.8319520454 -310804.40871798724
          -879305.7511218714 -2968090.918985618 -1311161.810231687 -289132.1529661897 -1048630.1852413355 -3214447.698240785
          629584.0544273752 1691498.8004217222 596110.7022039018 1647413.330527313 562637.3499804283 1603327.8606329036
          1827610.2915642883 3391550.2902799346 3063374.115001297 1118001.2932361395 1874282.2177407392 3618470.2400339916
          3006363.11156593 934570.9269427119 1920954.1439171894 3845390.1897880486 2949352.1081305626 751140.5606492843
          1676387.1893487994 1741885.474011012 911575.5720036405 1338176.2534474484 1764098.0623854566 1717357.9145638365
          976764.9890706436 1463769.456814696 1851808.9354221143 1692830.3551166612 1041954.4061376461 1589362.6601819438
          -2368327.8957304433 -1520917.5501704707 -2380293.1505569885 -1581384.9008988608 -2392258.405383533 -1641852.2516272508
          -1015393.7098086029 773751.7842657795 2596728.0478154654 1419659.2994912593 -1061578.5516111017 814307.1236771353
          2513148.892558886 1378524.7531782659 -1107763.3934136005 854862.4630884912 2429569.7373023066 1337390.2068652725
          757553.3109981648 818699.6930374568 1839272.499901149 722078.3536034984 758263.3254677476 1945299.418217414
          686603.396208832 697826.9578980387 2051326.3365336794 2353702.029686478 2123158.362723348 1139326.6126787623
          2348926.1426695334 2292414.212790791 2149659.88130647 1198378.5071651035 2244485.6904626326 2231126.395895104
          2176161.399889591 1257430.401651445 2140045.2382557327 432405.8830454364 613656.2545402544 1251510.7521529344
          1033603.6058869151 389220.3199513565 694678.2480926323 1331951.9535477953 1005727.3400352024 346034.7568572766
          775700.24164501 1412393.154942656 977851.0741834897 435620.5438260507 534867.9645561508 634115.3852862511
          2140131.1471796595 3149871.971669683 1766028.2506079602 2177524.8402551124 3173899.5860315943 1854940.0763898822
          2214918.5333305653 3197927.200393506 1943851.902171804 696150.8753075739 404824.22135781974 651772.3651620173
          483382.4818963308 607393.8550164606 561940.7424348419 932694.7974235312 1748555.7788174232 2389138.6298639798
          2236346.372319374 929047.7518326228 1783000.3105584865 2376400.3949399153 2225178.802508883 925400.7062417145
          1817444.8422995496 2363662.1600158513 2214011.2326983926 -1785272.2241860018 -3258079.782655061 -3585408.187061919
          -3148603.3996007075 -1845899.9827553998 -3362792.026540309 -3629689.1390670347 -3249068.654244057 -1906527.7413247973
          -3467504.270425557 -3673970.0910721505 -3349533.908887407 3365118.7294134856 1863536.958392915 3207280.2652868954
          3387804.641238303 1886145.0781068977 3251944.982076144 3410490.5530631207 1908753.19782088 3296609.6988653927
          -2979948.0056323297 500338.1418469715 -2946117.881076785 545667.6957712331 -2912287.75652124 590997.2496954945
          233713.00742811273 1272100.5985537446 -657654.119742508 -878112.585575633 200127.28470130116 1308718.2539624707
          -650898.9896092905 -990724.8578949228 166541.5619744896 1345335.9093711965 -644143.859476073 -1103337.1302142125
          2449195.150536631 1610711.8635056266 2445448.2555895536 1669573.4952593448 2441701.360642477 1728435.1270130628
          208106.37971413202 -169902.63244841862 280496.12681671727 -128903.17200024771 352885.87391930254 -87903.71155207678
          682420.4407812727 1317880.6477321077 624952.5706255684 1352033.3423911096 567484.7004698641 1386186.0370501112
          -1908735.4361228235 -2668153.2382478137 -2894279.7466784385 -1857433.91344922 -1944408.5729237646 -2703623.021505001
          -2881486.7136169625 -1822139.6420929616 -1980081.7097247052 -2739092.804762188 -2868693.680555486 -1786845.370736703
          1654120.9518191952 -2127330.8082944266 1654574.823557946 -2464347.082597957 1655028.6952966969 -2801363.3569014883
          -293157.2480942712 -260912.93274101455 -228668.6173877578 1595078.8739074266 2060737.921015776 1622595.5752373545
          2064279.6084316394 1650112.2765672824 2067821.2958475028 756972.6215740705 1069161.20027554 572752.2017656896
          740118.3625217034 1045024.9529231741 507892.0910522397 723264.1034693363 1020888.7055708084 443031.98033878964
          -1233281.8736231807 -781850.4518307403 -1367671.3079558748 -1211426.4424842037 -730557.1549740506 -1346314.1068903971
          -1189571.0113452266 -679263.8581173607 -1324956.9058249197 2577555.307854329 2776195.941324586 2974836.5747948433
          1938072.9517503148 2112809.5926764356 2287546.233602556 -258173.69252002967 78628.45582197091 -302018.8273146128
          89286.14761946531 -345863.9621091961 99943.8394169597 -173689.35820338925 -98326.03225899662 -22962.70631460409
          -1913040.0985080865 928656.2779255633 -103803.31926155812 -1936893.6095808889 993008.2367840232 -150990.55560839453
          -1960747.1206536917 1057360.1956424834 -198177.791955231 -671797.42434567 203213.01813155483 -791005.0186980213
          111781.36068387108 -910212.6130503726 20349.7032361874 -1007574.5865661881 -1018324.4343554483 -1171371.7151428189
          -1288469.0138785066 -1055108.317828875 -986411.1958706753 -1173165.631330103 -1325203.681751344 -1102642.0490915622
          -954497.9573859023 -1174959.5475173867 -1361938.3496241812 118434.98620700846 -778440.2318872372 -651801.6818600012
          205077.50209781397 98637.69226555336 -765410.6876376045 -659661.9291037672 148377.4199415924 78840.39832409826
          -752381.1433879717 -667522.1763475332 91677.33778537085 963914.899654709 362874.5212143954 -419802.21533937537
          1008810.6760044013 362561.9274342887 -480905.0103964975 1053706.4523540935 362249.3336541819 -542007.8054536198
          2602796.648586963 2605836.2210533307 2608875.7935196976 843145.4361448225 744809.0406440074 646472.6451431925
          -659942.083471274 -860418.9070031065 -610926.3043029523 -829296.3321537862 -561910.5251346307 -798173.7573044656
          -868068.3668817817 -809849.2750700928 -856750.4608415675 -779498.5794242211 -845432.5548013535 -749147.8837783495
          3424892.005224369 3509225.9236637396 3593559.8421031097 -6026.395991350839 -291178.68048680405 565724.1056127801
          723078.7220582165 31414.233278134558 -330406.5660146231 542632.2983210239 775536.3559634974 68854.86254761997
          -369634.4515424422 519540.4910292675 827993.9898687783 -209447.9815472354 -242658.83533469652 -275869.6891221577
          -209486.8318356316 -180202.84109559798 -150918.85035556438 -1918650.3264979688 -3373361.372253713 -1918965.1349489598
          -3410180.618261816 -1919279.9433999506 -3446999.8642699183 -716147.9612833293 -713421.8002421762 -710695.6392010229
          -3459317.3726224066 -2341826.7167286715 -3437756.6480760537 -2282261.66053839 -3416195.923529701 -2222696.604348109
          -3767986.6183906924 -4302514.888511842 -4837043.158632993 -902129.1512340498 -883104.8507629836 -872622.5879401728
          -835531.9790689207 -843116.0246462959 -787959.1073748579 -604808.7800862718 -607246.3184416951 -609683.8567971183
          309806.6281786827 299584.5427601775 289362.4573416723 -1025089.9652599166 -1003113.1206259863 -981136.2759920561
          -2658924.4434163515 -1759702.286974406 -2967219.566195986 -2021644.3146351255 -3275514.6889756196 -2283586.342295845
          56784.66002988326 96936.09739175931 137087.5347536354 -2275173.620038159 -459763.0887896853 -2394382.6973707047
          -451831.46817047236 -2513591.7747032503 -443899.84755125945 3024802.3633928495 1507240.3261070205 2048502.8027706158
          2961635.711787577 1389743.5540082427 1874663.8605505594 2898469.060182305 1272246.781909465 1700824.9183305027
          1796364.024044985 1736373.2874097908 1859641.3979849569 1804469.323539673 1695981.9573044062 1846851.5402385755
          1812574.623034361 1655590.6271990216 1834061.6824921945 1528122.4523568174 3351652.3339049187 1575476.6515024574
          3475843.822263119 1622830.8506480972 3600035.3106213184 393705.6704297557 53028.28890008417 -70052.347168795
          434054.2729261816 61149.05220155775 -87533.3638237734 474402.8754226076 69269.81550303135 -105014.38047875179
          -771775.9530775559 116921.23979811528 -799226.7733843392 176178.71779211186 -826677.5936911227 235436.19578610852
          -64485.49625814412 -66194.17955246635 -67902.86284678856 1312883.0004243646 1942605.404734156 1276918.7334061374
          1973249.6619294134 1240954.4663879103 2003893.9191246708 2282035.1608858383 1888824.5655954513 2265106.593633815
          1802549.8513517403 2248178.0263817925 1716275.1371080298 -571460.0247282987 45020.64804970974 -733636.4547653663
          -44630.88710490186 -895812.8848024344 -134282.42225951358 -745959.916683284 -697243.7563882893 -648527.596093295
          1293440.2376617924 770051.3802188778 1349766.577742743 759156.2218625257 1406092.9178236942 748261.0635061734
          1354872.0938861591 1450940.2509522648 1547008.4080183702 602463.8984606618 665320.2985458004 728176.698630939
          1661060.4367935143 1736626.4288913202 1812192.420989126 968024.7121923384 1050605.01429092 1133185.3163895016
          198880.3183190988 206662.65776824814 214444.99721739758 -1561082.062254661 1846504.8128238642 -1670512.2578505357
          2110616.4178946633 -1779942.4534464104 2374728.0229654624 -187557.55524140457 -421944.7287037154 -197154.34722844046
          -401156.79883708956 -206751.1392154763 -380368.8689704639 -3006412.214078116 -3021696.712857563 -3036981.21163701
          -169534.0508120558 -150034.1214294508 -130534.19204684583 -269699.31451167807 -267393.37365798734 -265087.4328042966
          1765419.4214643305 1739366.7083829097 1713313.9953014883 819414.1049858177 1137845.0998381535 1456276.0946904896
          -831805.4129881834 -840414.9741242457 -849024.5352603082 1944038.7221865067 1685102.011635421 1971426.4305979796
          1733099.1466117757 1998814.139009452 1781096.2815881306 1477681.031694068 1497877.4361601067 1518073.8406261448
          721863.1924172617 549428.8570821038 702788.3601755037 394650.62696956046 683713.5279337456 239872.39685701704
          408417.8852858998 233007.04313402122 272017.7786887533 379592.6062559028 238274.69395182913 249161.74653565808
          350767.3272259058 243542.34476963704 226305.71438256282 175532.3113475162 155093.86844332755 134655.4255391389
          1482472.8017132424 1514168.6368309588 1545864.4719486749 889603.3705533014 1327275.2870603097 878003.5886843038
          1373465.0325071872 866403.8068153061 1419654.7779540652 2107294.801482039 2553434.148355604 2132613.488902986
          2567482.714383629 2157932.176323933 2581531.280411654 3087972.1976618674 3134160.4551062817 3180348.712550697
          2762171.8309039813 3712598.396783006 2730625.1462385054 3784565.53622998 2699078.461573029 3856532.6756769535
          -3051532.4989227597 1321096.3137065577 -1751000.3221780672 -3353417.740673549 -3092326.293563838 1586818.2924371671
          -1731573.8811200964 -3293788.685468109 -3133120.0882049175 1852540.271167776 -1712147.440062126 -3234159.6302626682
          -1194506.462702033 -1144315.7706420918 -1094125.0785821504 -1339801.3694576207 -1311904.0587742834 -1284006.7480909466
          -256612.40744050837 323912.8594099356 -340258.2543755283 206256.03666318548 -423904.1013105481 88599.21391643537
          589141.3308967176 600433.1618395114 611724.992782305 -118306.50647907858 -260362.4271400557 -58768.27307724877
          -343830.7300618018 769.960324581014 -427299.0329835479 -1962956.8320658011 -2406037.1287165517 -1966536.404823258
          -2423938.5012865206 -1970115.9775807152 -2441839.8738564895 338648.6731591328 392477.97844318027 446307.2837272277
          2998581.895598635 4130664.3520992068 3070889.347947716 4286493.106810983 3143196.800296797 4442321.86152276
          -3179910.4449353684 -2524582.391950508 -2016218.0728890982 -2536172.505238597 -3160657.8569752933 -2483695.983604094
          -1977155.1750498875 -2554277.726350496 -3141405.2690152195 -2442809.5752576794 -1938092.277210677 -2572382.9474623958
          -207346.83422986587 -222901.94379711544 -238457.05336436495 -2192364.262615283 -3092227.8823375315 -2199869.2240594747
          -3032066.5537642087 -2207374.185503666 -2971905.225190885 187212.07240503284 2561554.1894534566 163209.17519975698
          2696042.6317712823 139206.27799448115 2830531.074089108 2742602.261621432 2806470.6505098175 2870339.039398202
          1165787.8975163926 1172532.390527147 1179276.8835379018 -515278.36570003175 -553629.1083916277 -591979.8510832236
          -1163326.9262218 -1229933.2049691859 -1296539.4837165715 -2674230.5250898222 -2748117.498640759 -2822004.4721916956
          -1147893.282125628 267431.39896162174 -1184034.3544456013 197177.85527213727 -1220175.426765575 126924.31158265285
          -1312578.6343438344 -1354081.9835229851 -1395585.3327021361 2299676.840254173 2792533.387510972 3285389.9347677715
          574345.9467115755 542386.4232401655 510426.8997687552 1059833.2427105156 1023143.5100889143 986453.777467313
          -2670152.876974385 -2673801.987047401 -2677451.0971204164 1838719.474568508 1846950.5924764194 1855181.710384331
          2452454.9180156607 2418754.7497131294 3217311.158858469 2411704.5419995845 2429942.8008459066 3215158.5180858816
          2370954.1659835083 2441130.851978684 3213005.8773132935 1446347.2092998128 1691341.0736770986 1936334.9380543842
          -150020.06360301015 464905.18036218267 -285242.90980050963 287841.8227277768 -420465.7559980091 110778.46509337083
          -2614170.766256231 -2661140.1728449087 -2708109.5794335864 -2943096.245563118 -2923394.0449043396 -2903691.844245561
          3113817.58916127 3071884.117265335 3029950.6453693993 -2285162.467551808 -2265983.6222253894 -2246804.7768989704
          -469947.5341345752 -82344.1513967711 -427324.2179751896 -51341.353921738206 -384700.90181580395 -20338.55644670528
          -3635119.773097105 -3628650.8647048622 -3622181.956312618 -1287547.3159947656 -1359642.2499732655 -1431737.1839517655
          -4133860.3633124805 -4571358.806164599 -5008857.249016716 -39327.45691695207 -10231.346491997334 18864.76393295743
          759052.351365339 726914.1339532871 694775.9165412354 2126640.87152351 2334786.825662105 2542932.7798007
          630871.858071732 495112.74116187834 543434.8311598146 493800.95192419074 455997.8042478971 492489.16268650314
          -759363.32272538 -847029.9707839105 -934696.6188424409 -759606.988362425 -134360.3524514085 -792609.1878353762
          -171580.43140706973 -825611.3873083278 -208800.51036273106 392708.5414390591 354338.93880608096 315969.33617310296
          421920.63460232515 387823.6513110541 353726.66801978333 -924445.6493064855 -1020113.5633643148 -1115781.4774221438
          -180712.86748769938 -2152240.7613694915 -51943.10737997247 -2060642.9501447887 76826.65272775409 -1969045.1389200862
          -400449.03879791294 -400442.84421862924 -400436.6496393457 -1825867.3919815111 -1877816.8080055127 -1929766.2240295135
        </DataArray>
        <DataArray type="Float64" Name="peeq" format="ascii" RangeMin="0.00015079367864848342" RangeMax="0.004921793718578007">
          0.0015989192879862224 0.00150316357610555 0.0011849407503368545 0.0013345871165313457 0.0015986756100483807 0.001502930947317353
          0.001185344170195061 0.0013351082330895193 0.0015984319321105385 0.0015026983185291564 0.001185747590053268 0.001335629349647693
          0.002575388505985662 0.0024756725131921723 0.002553656123506329 0.002694473480880489 0.002574802342274762 0.0024754389085118516
          0.002553705377840468 0.002694310832830154 0.0025742161785638623 0.0024752053038315323 0.0025537546321746066 0.0026941481847798194
          0.0005835622206669352 0.0008421810139806454 0.0005840921134196588 0.0008429883637313489 0.0005846220061723824 0.0008437957134820524
          0.0036091052489548316 0.0036871091227058264 0.003116785774875788 0.0031603373600885614 0.0036090397774385277 0.003686339212175298
          0.0031156535939689894 0.0031586645771642568 0.003608974305922224 0.0036855693016447696 0.003114521413062191 0.003156991794239953
          0.002701104364670531 0.0028793722378500945 0.002701929696417843 0.0028796083179493193 0.0027027550281651562 0.002879844398048544
          0.002899091112220336 0.002734370169033887 0.002802102169286684 0.003027507957233721 0.002897562396962938 0.002734831554249617
          0.0027996313181790815 0.003021839984275392 0.0028960336817055402 0.002735292939465348 0.0027971604670714778 0.0030161720113170637
          0.003845373503699951 0.004188924330816068 0.003936007437174691 0.003659789765672213 0.00384409312633636 0.004185118075672098
          0.003933686255855458 0.0036594810663522852 0.0038428127489727694 0.004181311820528127 0.003931365074536225 0.0036591723670323585
          0.0014831655204207382 0.001691900075588872 0.0014841328295844296 0.0016920059840363866 0.0014851001387481211 0.001692111892483901
          0.002550097203208312 0.0023366982186835824 0.0031121368073805836 0.003198678383600071 0.002547880530319288 0.0023355506311264567
          0.0031096922451574437 0.0031965745563663646 0.0025456638574302636 0.00233440304356933 0.003107247682934304 0.0031944707291326592
          0.0019986172217820483 0.0020433658723806604 0.002342143830613174 0.001997837127798569 0.002042616625477572 0.0023417850760839498
          0.00199705703381509 0.0020418673785744844 0.0023414263215547257 0.004702701906902303 0.004886623412331478 0.00477498184022611
          0.004614942594628569 0.004696923989718578 0.004881831786823174 0.00476970062019923 0.004608897727150878 0.004691146072534854
          0.0048770401613148695 0.00476441940017235 0.004602852859673188 0.0032110356863207803 0.003325103080592029 0.0030822727590065708
          0.0031049758023681748 0.00321026754070569 0.0033253982615578806 0.0030829504670678676 0.0031045120805023333 0.0032094993950906
          0.003325693442523733 0.0030836281751291644 0.003104048358636492 0.0034401283685723434 0.00344029095720577 0.003440453545839196
          0.0029052340756924445 0.0027188539979321404 0.002596197054067904 0.0029043907444355026 0.002718135599990576 0.0025965184735926767
          0.00290354741317856 0.002717417202049011 0.00259683989311745 0.003277108407676118 0.003518133343512843 0.00327580902958902
          0.0035180835720704 0.0032745096515019215 0.0035180338006279583 0.00405872279619547 0.0038129997789018173 0.004119730527408671
          0.004417243655983754 0.004058550814042024 0.0038135731364917712 0.0041194006315818585 0.004415823866052846 0.004058378831888579
          0.0038141464940817248 0.004119070735755046 0.004414404076121938 0.0015844522873181342 0.0019088474910096403 0.0013734817151101848
          0.0009223586886444726 0.0015848339369379212 0.0019076378766700688 0.0013739596818397588 0.0009257522546634301 0.001585215586557708
          0.0019064282623304984 0.0013744376485693328 0.0009291458206823876 0.003288721059220912 0.003043424140687932 0.0030869401918897314
          0.003289501750855856 0.0030437955465244214 0.0030880309671306888 0.003290282442490801 0.003044166952360911 0.0030891217423716453
          0.0005978144799220795 0.0014247097942327596 0.000603374152062261 0.0014257086389211034 0.0006089338242024423 0.0014267074836094476
          0.002818026537616054 0.002998468382940071 0.0033805753354354756 0.0034338124793306976 0.0028165237716820555 0.002998058580681294
          0.0033792162507578294 0.003430175789379248 0.0028150210057480583 0.0029976487784225177 0.003377857166080184 0.0034265390994277977
          0.0035396587645790266 0.003235309244871228 0.0035405619454992763 0.0032357964268311164 0.003541465126419526 0.003236283608791006
          0.0026141386536603483 0.002843450594207325 0.0026104716698861956 0.002838942386682417 0.002606804686112043 0.0028344341791575094
          0.003506274059422357 0.0029991803972947376 0.0035034926007537232 0.0029987123286854033 0.00350071114208509 0.002998244260076069
          0.0017630677704184455 0.0015942263973937306 0.0015957069066285553 0.0018338655488537394 0.001763987360155937 0.0015956550571370569
          0.0015977281454557638 0.001835635334031529 0.0017649069498934286 0.001597083716880383 0.0015997493842829728 0.0018374051192093185
          0.002375129381316561 0.002228314404848995 0.0023750828657917154 0.002227352639140888 0.00237503635026687 0.002226390873432781
          0.002333040027150165 0.0023298977805315414 0.0023267555339129167 0.0028129356583221675 0.0025962076814547395 0.0028140826522901345
          0.0025971656600641117 0.002815229646258102 0.0025981236386734834 0.002976740231117116 0.0029697715734028985 0.003012298317778818
          0.002974748195659879 0.0029680016886058105 0.003008415328178046 0.0029727561602026424 0.0029662318038087216 0.0030045323385772733
          0.0024321632822085276 0.002642336520895048 0.0020226591303316977 0.0024298963583482117 0.0026403655942351797 0.002020275878456523
          0.0024276294344878963 0.0026383946675753115 0.002017892626581348 0.0024332078560336274 0.002435006073061134 0.0024368042900886405
          0.0022330059150015226 0.002232301860029458 0.0022315978050573932 0.0028613543070230654 0.0029094450308192947 0.002859326012476354
          0.0029068430930615577 0.002857297717929642 0.0029042411553038203 0.0028285869412413662 0.002826570157169508 0.0028245533730976496
          0.0018354725106438734 0.0021931304231884905 0.002294427788185336 0.0018373823488143932 0.0021953591506305788 0.0022945635910908407
          0.001839292186984913 0.0021975878780726675 0.002294699393996346 0.00385330023843423 0.00395982066933831 0.0038482104349993177
          0.003954939181344175 0.003843120631564406 0.0039500576933500404 0.0005165491976018248 0.00034289566968605803 0.00036169437254669225
          0.0005846326554366275 0.0005172554921971963 0.0003441707808896622 0.00036322379823999025 0.0005856249098405851 0.0005179617867925679
          0.00034544589209326644 0.0003647532239332882 0.0005866171642445431 0.0013154462495230082 0.0009494514366866758 0.0010530197950236932
          0.0014080092584697176 0.0013158393796744972 0.0009503946871179976 0.001053617141100579 0.0014079697686785694 0.0013162325098259866
          0.0009513379375493194 0.0010542144871774652 0.0014079302788874211 0.0027162570539749627 0.002448535590432715 0.0026970355242633727
          0.0027151777221227657 0.002447940294222338 0.002695677633929271 0.0027140983902705683 0.002447344998011961 0.002694319743595171
          0.0028302683884712746 0.002829706474065974 0.002829144559660672 0.0030174585551631843 0.003011359793831614 0.003005261032500044
          0.00022191063834014758 0.00018632597327817893 0.00022372084749931075 0.0001882072368518977 0.00022553105665847395 0.00019008850042561646
          0.0006417798385459521 0.0008757563393917133 0.0006431001317278334 0.0008768947490824104 0.000644420424909715 0.0008780331587731074
          0.002557514012618606 0.002558627179831035 0.0025597403470434643 0.001883768517963237 0.0020992118195771836 0.0020706212323097946
          0.0017470993079098046 0.0018844323687401676 0.002099651924904309 0.0020704126342369782 0.0017472624238737443 0.0018850962195170987
          0.0021000920302314346 0.0020702040361641615 0.0017474255398376845 0.002355482396476643 0.002355119772576977 0.0023547571486773095
          0.0018915452345829292 0.0018920024130258462 0.001892459591468763 0.0022840146123182204 0.0019452054587911053 0.0022845680918214322
          0.001945765081478659 0.002285121571324644 0.0019463247041662131 0.0018006357407467557 0.0018034167672039293 0.0018061977936611028
          0.0016943466243146785 0.0019770212023753936 0.0016960557402457492 0.0019789716617287165 0.0016977648561768202 0.0019809221210820398
          0.0018700460620882711 0.0018702675283515547 0.0018704889946148382 0.0020069743627029917 0.0020873411548854694 0.002007577856805993
          0.002088687994174821 0.0020081813509089945 0.002090034833464172 0.001948138288490698 0.001948325379654878 0.0019485124708190577
          0.001691204542497166 0.0016909527544302797 0.0016907009663633932 0.002240931022195873 0.0022429000537549986 0.0022448690853141247
          0.001586970074576105 0.0019842596519202855 0.0015871462739114506 0.0019841380622546813 0.0015873224732467963 0.0019840164725890776
          0.0025410382319173684 0.0025424341615508383 0.0025438300911843088 0.002628768263271992 0.0026064647383266222 0.0026273144740143854
          0.0026055120438206103 0.002625860684756779 0.002604559349314598 0.004272079159821183 0.004449732333492605 0.004240786591369319
          0.004267967116656405 0.004444187380991356 0.004237206507923222 0.004263855073491628 0.0044386424284901084 0.004233626424477126
          0.0048342128346284055 0.00460856295768066 0.004612621406070628 0.004830833927081174 0.004606391843577865 0.004609955203747712
          0.0048274550195339435 0.00460422072947507 0.004607289001424797 0.0016839248035426212 0.0022779238544598213 0.0016856019044678115
          0.0022800195964354725 0.001687279005393002 0.0022821153384111233 0.002672393541031845 0.002632714587715141 0.0025469035080466426
          0.0026708800257466783 0.0026309178390029673 0.0025455202879202726 0.0026693665104615114 0.002629121090290793 0.0025441370677939034
          0.0029152605135094904 0.0027974406466422597 0.0029142723318133714 0.0027972329103916537 0.0029132841501172523 0.002797025174141047
          0.0011503115952178748 0.001150969949078381 0.0011516283029388867 0.004665796610171994 0.004897678109911293 0.00466336354877178
          0.0048945369182338775 0.004660930487371565 0.004891395726556463 0.004921793718578007 0.004736597613591708 0.004917281679821987
          0.004731045962484336 0.004912769641065967 0.004725494311376964 0.004158193138014316 0.004321815267257896 0.004152368159706531
          0.004315831228107309 0.004146543181398745 0.004309847188956722 0.003701090783399279 0.0036992178962931012 0.0036973450091869237
          0.004251781228456974 0.004209740236539802 0.004250232601448991 0.004208687245275241 0.004248683974441008 0.004207634254010681
          0.003693186914445268 0.0036917230921749947 0.0036902592699047214 0.002247639975565608 0.002248197599813407 0.002248755224061206
          0.0030570232530683665 0.003055803286376102 0.0030545833196838367 0.0021941429929863594 0.002195058422065402 0.0021959738511444444
          0.0022184965749100227 0.002218849865552121 0.0022192031561942193 0.00253963234667368 0.0024101736740313948 0.0025408697025811064
          0.0024119614373779813 0.0025421070584885313 0.002413749200724568 0.002486891525915828 0.002339803470408742 0.0024884655899819366
          0.0023406012008524036 0.0024900396540480448 0.0023413989312960643 0.0015503273027385493 0.0015517636518612781 0.0015532000009840074
          0.0012376251457984105 0.0012383993054563914 0.0012391734651143722 0.002263791867729824 0.002263994944739614 0.0022641980217494037
          0.002966677471931925 0.002966370090457615 0.002966062708983304 0.001284945147212866 0.0012887543849327003 0.0012925636226525346
          0.0010933556965784207 0.0010946729101208614 0.001095990123663302 0.0035598876625129432 0.0031166478971932487 0.003559697090486679
          0.0031180720910290527 0.003559506518460415 0.0031194962848648563 0.003996658831364096 0.003994612850277053 0.003992566869190009
          0.0045580541246891945 0.004334747032125986 0.004552009995755571 0.004328515954079134 0.004545965866821947 0.0043222848760322815
          0.0016282571072221198 0.0019375656735499257 0.0015579050846999997 0.0016280055982325237 0.0019371366810552345 0.001558023052143832
          0.0016277540892429279 0.0019367076885605434 0.0015581410195876647 0.001492271888117277 0.0014928777215174583 0.0014934835549176395
          0.004380735651171889 0.004377210606338427 0.0043736855615049645 0.0024478395422602734 0.0024544344735541175 0.0024478280950204494
          0.0024544713203911144 0.002447816647780626 0.0024545081672281113 0.004312349285965533 0.003944957256718127 0.004310919430663769
          0.003944999934398764 0.004309489575362005 0.003945042612079402 0.0035626141591878825 0.003563939868282781 0.0035652655773776784
          0.0037873354655785074 0.0034745332032948273 0.0037880777624523577 0.00347597104411569 0.003788820059326209 0.0034774088849365524
          0.0005632152977655706 0.0007383075067923405 0.0005515782519365298 0.0003689557685497439 0.0005663781244808058 0.0007426768437808683
          0.0005550036151501638 0.00037251392953176004 0.0005695409511960412 0.0007470461807693959 0.0005584289783637978 0.0003760720905137762
          0.0007467741495806162 0.0007482449425759499 0.0007497157355712837 0.0014024437604851165 0.0014059868603001472 0.0014095299601151773
          0.003034448785148136 0.0030628251687386584 0.0030325612347914797 0.0030610741439870393 0.0030306736844348224 0.0030593231192354207
          0.0027423188225646523 0.002744282814587929 0.0027462468066112066 0.0027906740543423873 0.0027204054607424043 0.002789005163683792
          0.002717858942178901 0.0027873362730251963 0.0027153124236153968 0.0021966516515220065 0.0017055188848591127 0.0021943601924857047
          0.0017042861750074878 0.0021920687334494033 0.001703053465155863 0.001856182125115112 0.0018565677825651832 0.0018569534400152549
          0.0032093210156293613 0.003256098651062202 0.0032114135541479673 0.0032579346721449535 0.0032135060926665737 0.003259770693227705
          0.0010653876287589667 0.0011373814391631885 0.0009181722979725565 0.0007801558763007029 0.001067116526306685 0.0011390029007199802
          0.0009197451401189956 0.0007819166845879586 0.0010688454238544033 0.001140624362276772 0.0009213179822654351 0.0007836774928752143
          0.00297076346802308 0.0029686707713697815 0.0029665780747164827 0.0005135831336621715 0.00032959421376509477 0.0005155462345453227
          0.00033236040833454513 0.0005175093354284738 0.0003351266029039955 0.00327385925919984 0.003780452874499122 0.0032720410418962515
          0.0037786327785238635 0.003270222824592663 0.0037768126825486045 0.0037957541758275436 0.0037927081578406326 0.0037896621398537207
          0.0025269571405033106 0.0025259263367093192 0.002524895532915328 0.0028776384867267406 0.0028751143678615795 0.0028725902489964185
          0.0008199617553595982 0.0008225991125385737 0.0008252364697175491 0.0004041394694647993 0.00040595480824962883 0.0004077701470344583
          0.0027413277793836613 0.003303063699304791 0.0027385274415806025 0.003301428955558019 0.002735727103777544 0.003299794211811247
          0.00040746744205863374 0.00040912771438526184 0.00041078798671188995 0.001008671786958113 0.001011880600962988 0.0010150894149678629
          0.002682249981103608 0.0026802270772799163 0.002678204173456226 0.004655880584330731 0.0046515867119892645 0.004647292839647798
          0.0002525509208727503 0.000254928535263156 0.0002573061496535617 0.002917778249109535 0.00291957274163727 0.002921367234165006
          0.004364885789651099 0.004333065757246353 0.0038050692665342035 0.004360148972243934 0.004328445226868079 0.003801468403742723
          0.0043554121548367705 0.0043238246964898055 0.003797867540951243 0.0010176805722389125 0.001022231435772583 0.0010267822993062533
          0.0027700529180364124 0.002667359201059481 0.002767121946089439 0.0026648695022088893 0.002764190974142465 0.0026623798033582973
          0.0011586952633350937 0.0011608326325272058 0.0011629700017193178 0.0013672652440014487 0.0013690725620812572 0.0013708798801610666
          0.003069947968049079 0.0030673196001661475 0.0030646912322832166 0.0002646603145347438 0.0002670675157101949 0.00026947471688564597
          0.0008377635710351427 0.0011791934418688937 0.0008388331054968457 0.0011800820761440184 0.0008399026399585486 0.0011809707104191434
          0.0013829897842707565 0.0013846580029249263 0.0013863262215790967 0.00015079367864848342 0.00015206390059074995 0.00015333412253301654
          0.0027666044296763164 0.0027658503675725044 0.002765096305468693 0.002879116514616717 0.002876902879240968 0.00287468924386522
          0.0048013344695222076 0.004796985675942616 0.004792636882363026 0.002561307478509318 0.002560857099650221 0.0025604067207911237
          0.0026217632769019207 0.002574202402574512 0.0026199145164151243 0.0025731560567323632 0.002618065755928328 0.0025721097108902147
          0.0029676939719065023 0.0029657664532629804 0.0029638389346194585 0.0023717948955840227 0.0023988823686528103 0.002371923071205066
          0.002398045503503958 0.0023720512468261095 0.0023972086383551063 0.002529016927332153 0.0025276557700953653 0.002526294612858577
          0.0023183005789558344 0.002317855158424809 0.0023174097378937837 0.002543403615410742 0.0025427272955488834 0.002542050975687025
          0.0018616911259921683 0.0019467567664143224 0.0018649585280188891 0.0019501925825980756 0.0018682259300456102 0.0019536283987818285
          0.002341111959299015 0.0023424714478971747 0.002343830936495334 0.0024945869596274778 0.002495054962216443 0.0024955229648054083
        </DataArray>
        <DataArray type="Float64" Name="pe11" format="ascii" RangeMin="0.00015073628846580149" RangeMax="0.004921333816516039">
          0.0015984665846858577 0.0015027962695469451 0.0011845872578717365 0.0013340373285519735 0.001598214380813098 0.0015025576736089296
          0.0011849865544193202 0.0013345469774027287 0.0015979621769403383 0.0015023190776709142 0.0011853858509669039 0.0013350566262534838
          0.0025746141197546327 0.002474759031792316 0.0025521225944102523 0.0026929453235882204 0.0025739992343286706 0.0024744861903260758
          0.0025521222684553105 0.0026927412305476827 0.002573384348902708 0.002474213348859834 0.0025521219425003695 0.002692537137507144
          0.000583502208953181 0.0008420865838348919 0.0005840314553942997 0.0008428920592856908 0.0005845607018354184 0.0008436975347364895
          0.0036063222088516408 0.0036843149668716697 0.0031144488393428146 0.0031580886662929014 0.003606176589044962 0.0036834684428777797
          0.003113289379284116 0.0031563368173881143 0.0036060309692382843 0.003682621918883889 0.003112129919225416 0.0031545849684833263
          0.002698605497567028 0.0028768995887671366 0.0026993794013187 0.0028770864308897237 0.002700153305070372 0.002877273273012311
          0.0028978695665828934 0.002732515942331147 0.0028003898046714115 0.0030269323561664717 0.0028963200283744243 0.002732971981952675
          0.002797902876880397 0.0030212380246366797 0.002894770490165955 0.0027334280215742033 0.0027954159490893825 0.0030155436931068886
          0.0038443891522543807 0.00418744570369458 0.003934148191228241 0.0036588261109535072 0.0038431322851898153 0.00418365631112166
          0.0039318724127292695 0.0036585576774802136 0.003841875418125249 0.00417986691854874 0.003929596634230297 0.00365828924400692
          0.001482314924212818 0.0016912160626391891 0.0014832581082548353 0.0016913065206935938 0.0014842012922968526 0.0016913969787479984
          0.0025483111331117804 0.0023348677922125625 0.00311077303292143 0.003197538322806336 0.0025460907475174303 0.002333692511567299
          0.003108326449005988 0.003195438006021424 0.0025438703619230806 0.002332517230922035 0.003105879865090546 0.0031933376892365117
          0.0019983652660907625 0.0020430646877117303 0.00234176331430609 0.0019975864316953387 0.002042316318050129 0.002341402606338967
          0.0019968075972999154 0.0020415679483885285 0.0023410418983718442 0.004702276503171005 0.004885970223155201 0.0047738593007459655
          0.004614121943087541 0.004696508397597944 0.0048811520385781135 0.0047685575188157955 0.004608077473763169 0.004690740292024885
          0.004876333854001028 0.004763255736885627 0.004602033004438796 0.0032102939871416014 0.003323381004237479 0.0030800000378531705
          0.003103922395949431 0.0032095535562639923 0.003323726466089399 0.003080731903209539 0.0031034792921844595 0.003208813125386384
          0.003324071927941318 0.0030814637685659075 0.003103036188419488 0.0034372172076861437 0.0034373227800237106 0.0034374283523612766
          0.0029039305218976318 0.002716883002138187 0.0025937820297878417 0.002903062744646277 0.0027161478995262676 0.002594077427990121
          0.002902194967394923 0.0027154127969143474 0.0025943728261924003 0.003276600881396765 0.0035169756720587852 0.0032753204637214883
          0.0035169664484647023 0.0032740400460462117 0.0035169572248706193 0.004055547526274219 0.0038094693436451343 0.004115985132931862
          0.00441407857845655 0.004055298450424468 0.0038099856839541616 0.004115594377118534 0.004412586134512586 0.004055049374574717
          0.00381050202426319 0.004115203621305205 0.004411093690568623 0.001582706655938345 0.0019068455327681476 0.001371531154519216
          0.0009211240021128591 0.0015830578316243069 0.0019056208397131814 0.0013719646867894962 0.0009244845386820663 0.0015834090073102683
          0.0019043961466582147 0.0013723982190597763 0.0009278450752512738 0.0032851408340350543 0.003040841171078208 0.003083436114778573
          0.0032858701373085558 0.0030411720290077393 0.003084477448271397 0.0032865994405820577 0.0030415028869372716 0.00308551878176422
          0.0005972161039824697 0.001423328633194673 0.000602751461501318 0.0014242752758134793 0.0006082868190201662 0.0014252219184322855
          0.002813451809796722 0.0029950211141819266 0.0033775502334457 0.003429237057507113 0.0028119467697353016 0.0029946655256429954
          0.0033762466435640157 0.0034256212130130623 0.0028104417296738802 0.002994309937104064 0.003374943053682331 0.003422005368519011
          0.0035360008352707806 0.003232565603234557 0.0035368520369651246 0.0032330147643523204 0.003537703238659468 0.003233463925470085
          0.0026129703380958777 0.002842749289757549 0.0026092597095561825 0.002838216152317936 0.0026055490810164873 0.002833683014878322
          0.0035010584510777225 0.0029941343009068978 0.0034982430933263755 0.0029936193466033236 0.003495427735575028 0.002993104392299749
          0.0017619522708321924 0.0015930745285156172 0.0015939397210231639 0.001831927595774069 0.0017628442202423469 0.0015944680027498075
          0.0015959119752966355 0.0018336544863615366 0.0017637361696525016 0.0015958614769839982 0.0015978842295701074 0.0018353813769490042
          0.002371653636499117 0.002224214335030927 0.0023716378554585996 0.0022232163607872435 0.002371622074418082 0.00222221838654356
          0.0023314176710651753 0.002328220254944187 0.002325022838823198 0.0028102984910905195 0.0025926482067571274 0.0028115054559913586
          0.0025936663530458774 0.002812712420892198 0.0025946844993346278 0.0029761812930163513 0.002968823226491845 0.0030117575520650164
          0.002974177164760975 0.0029670376509136464 0.0030078448116910954 0.0029721730365055996 0.0029652520753354473 0.003003932071317175
          0.0024307242310263105 0.0026412988157659047 0.0020207649664925513 0.002428417398957222 0.0026392885406487992 0.002018325285034233
          0.002426110566888133 0.0026372782655316937 0.0020158856035759143 0.002430147742785294 0.0024319550627914487 0.0024337623827976034
          0.002231356249986002 0.0022306027003618813 0.0022298491507377616 0.0028610407271569857 0.0029091597164917294 0.0028590115434046232
          0.0029065532005233376 0.0028569823596522603 0.0029039466845549454 0.002827954087509901 0.0028259113408797627 0.0028238685942496237
          0.0018315988703087435 0.00218933813546317 0.002290331568752745 0.0018335514426007023 0.002191649579566625 0.0022904853194292895
          0.0018355040148926613 0.0021939610236700797 0.002290639070105833 0.0038497542244123302 0.003955792680012143 0.0038446981412624155
          0.00395089735051655 0.0038396420581125 0.003946002021020958 0.0005164895610731202 0.00034285623603330363 0.00036165074832644165
          0.0005845546175117656 0.0005171959259552643 0.00034413254213670817 0.00036318197059578204 0.0005855474704599212 0.0005179022908374086
          0.0003454088482401127 0.0003647131928651224 0.0005865403234080768 0.0013151857769448327 0.0009492790873091368 0.001052780780986641
          0.0014076728343579102 0.0013155774737426992 0.0009502234981613385 0.0010533779582889557 0.0014076289273956767 0.0013159691705405662
          0.0009511679090135404 0.0010539751355912704 0.0014075850204334434 0.0027158635300908313 0.002448149427596517 0.0026966831379909855
          0.0027147809798907145 0.002447552215953229 0.002695319001731053 0.0027136984296905974 0.002446955004309941 0.0026939548654711216
          0.0028285053028430343 0.0028279605124913124 0.00282741572213959 0.0030171425402355113 0.0030110143342678792 0.0030048861283002467
          0.00022188498247623578 0.00018629993341542236 0.000223696301710795 0.00018818280364243353 0.0002255076209453542 0.00019006567386944468
          0.00064166911774791 0.0008756213913666058 0.0006429911982818907 0.0008767597842033404 0.0006443132788158711 0.0008778981770400751
          0.0025546773166396763 0.0025558549513467217 0.002557032586053767 0.0018833585506496469 0.002098839512302447 0.002070245733420956
          0.0017466990631180195 0.0018840161725816418 0.002099277376675013 0.0020700361437965345 0.0017468562439983688 0.0018846737945136366
          0.0020997152410475793 0.002069826554172113 0.0017470134248787177 0.0023551102544426884 0.0023547447868633997 0.00235437931928411
          0.001891060427164048 0.0018915105343938086 0.0018919606416235696 0.0022800737933088054 0.001941431423716541 0.0022805843891610658
          0.0019419567996424246 0.0022810949850133252 0.001942482175568308 0.0017967528397399926 0.001799598439638692 0.0018024440395373914
          0.001691641798580151 0.001973973860449347 0.0016932921944554117 0.001975871283996169 0.0016949425903306724 0.0019777687075429916
          0.00186582359763609 0.001866024847042052 0.0018662260964480142 0.002005920658593137 0.0020855275474514273 0.0020065061747541234
          0.0020868418780798873 0.0020070916909151098 0.0020881562087083486 0.0019474467129918529 0.001947624894538024 0.001947803076084195
          0.0016909170071383352 0.001690663450240406 0.0016904098933424772 0.002237934992245987 0.002239860244475698 0.0022417854967054104
          0.0015826689557458067 0.0019798018981042617 0.0015827905937750664 0.0019796505366588223 0.0015829122318043254 0.0019794991752133824
          0.002537120695734891 0.002538471849459482 0.002539823003184073 0.0026276281718704297 0.002605500836448469 0.002626120270009448
          0.002604511253732566 0.002624612368148466 0.0026035216710166625 0.0042712266145004734 0.004448542896673057 0.004239688863442743
          0.00426712991151447 0.0044429950065703674 0.004236120097402269 0.004263033208528467 0.004437447116467679 0.004232551331361793
          0.004832613919206042 0.004606095683003267 0.004609840326314196 0.004829174688257305 0.004603831905879251 0.004607118732184419
          0.004825735457308565 0.004601568128755235 0.004604397138054643 0.0016793048760055844 0.0022740351379013663 0.0016810127965494759
          0.0022761616848807295 0.0016827207170933673 0.0022782882318600926 0.0026720249333257867 0.002632401374548733 0.0025464268109098233
          0.0026705054362015784 0.0026305934294178343 0.002545031013650858 0.00266898593907737 0.002628785484286936 0.002543635216391893
          0.00291355164299106 0.0027958449039431083 0.0029125198789832153 0.0027956031866228875 0.0029114881149753706 0.002795361469302665
          0.0011501746704145482 0.0011508286215563266 0.0011514825726981048 0.004663675948375315 0.004896484678600204 0.004661138489182957
          0.0048932682397662885 0.004658601029990597 0.004890051800932372 0.004921333816516039 0.004736288259786866 0.00491679237905465
          0.004730752140879091 0.0049122509415932625 0.004725216021971318 0.004155584216784656 0.004318770295546571 0.004149779519039941
          0.0043127781916852 0.004143974821295226 0.004306786087823828 0.0036986790271776914 0.003696861340488888 0.0036950436538000847
          0.004248853615409157 0.004206816147475123 0.004247200583010402 0.004205665502634803 0.004245547550611648 0.0042045148577944825
          0.0036901471204850524 0.003688616342177464 0.003687085563869875 0.002247199800785216 0.002247751193052445 0.002248302585319675
          0.0030541715908090597 0.0030529660197427524 0.0030517604486764447 0.0021936029529926737 0.00219450713711912 0.0021954113212455657
          0.0022178208726447955 0.002218158350372065 0.0022184958280993343 0.002537314452517406 0.0024074247029878737 0.0025385713671732648
          0.0024092922395137634 0.0025398282818291235 0.002411159776039654 0.002484227404876806 0.002338209094568752 0.0024857565456781077
          0.0023389684261406318 0.0024872856864794103 0.0023397277577125123 0.0015472409820221566 0.001548658891562245 0.0015500768011023338
          0.0012374201212991835 0.0012381940442666801 0.0012389679672341768 0.0022628521808983324 0.00226302881915998 0.0022632054574216274
          0.0029652783687494013 0.0029649924564627197 0.002964706544176037 0.001281740951320125 0.0012855670703267365 0.001289393189333348
          0.0010901648432638787 0.001091455925282716 0.0010927470073015533 0.0035548942691709237 0.0031118817034627754 0.0035546527130717325
          0.0031132475003403147 0.003554411156972541 0.003114613297217854 0.0039923136329683435 0.003990232313010147 0.003988150993051949
          0.004556164957410104 0.004332854882802682 0.004550109749445934 0.004326624952800091 0.004544054541481764 0.0043203950227975
          0.001628010854752709 0.0019373376189268595 0.0015576902840706793 0.0016277601035514868 0.0019369103024605189 0.0015578076189924656
          0.001627509352350265 0.0019364829859941785 0.001557924953914252 0.0014920982308035257 0.0014927005734968455 0.0014933029161901654
          0.004377257736623153 0.0043737040267853465 0.004370150316947539 0.002447233898469836 0.0024539221029764406 0.0024471937627856314
          0.002453936159965663 0.002447153627101427 0.0024539502169548854 0.0043086143179884425 0.003940486429086965 0.004307134601848755
          0.003940489249096446 0.004305654885709068 0.003940492069105928 0.0035577541515208174 0.003559041849566122 0.0035603295476114272
          0.0037831567264528044 0.00347015685779657 0.003783846414035861 0.0034715508745485116 0.003784536101618918 0.0034729448913004522
          0.0005623479708250791 0.0007370732653928288 0.0005509003995217566 0.0003686182772916749 0.0005655003786050121 0.0007414695995332938
          0.0005543447470357949 0.0003721818681253266 0.000568652786384945 0.0007458659336737589 0.0005577890945498332 0.00037574545895897827
          0.0007465544248551963 0.0007480266558935995 0.0007494988869320025 0.001399039134144104 0.0014026395337872117 0.0014062399334303197
          0.0030340804485596198 0.0030623820896599307 0.003032197602997492 0.0030606351230603574 0.0030303147574353654 0.003058888156460783
          0.002738499165148686 0.002740412926753334 0.002742326688357983 0.0027903878821161168 0.002720121530286273 0.0027887128299450754
          0.002717563345925694 0.0027870377777740336 0.002715005161565116 0.0021948945437637608 0.0017036327001823124 0.002192573615112548
          0.00170234509347877 0.0021902526864613354 0.0017010574867752277 0.001855991201047182 0.0018563768361664584 0.0018567624712857345
          0.0032048292763170146 0.0032518494792020953 0.0032068758171843637 0.00325364345162266 0.0032089223580517136 0.003255437424043224
          0.0010640014742221281 0.0011365610973074092 0.0009177301977565042 0.0007794572315208958 0.0010657119466565106 0.0011381689465418806
          0.0009193006770760664 0.0007812156495102269 0.001067422419090893 0.0011397767957763523 0.0009208711563956284 0.000782974067499558
          0.002970250549686044 0.0029681507812246866 0.0029660510127633294 0.0005133155761256228 0.0003294521305968897 0.0005152819177081274
          0.0003322223666273169 0.0005172482592906319 0.00033499260265774396 0.0032730359126682115 0.003779613417668388 0.0032712296225185745
          0.003777804818831213 0.0032694233323689384 0.003775996219994038 0.0037949469319685228 0.0037919221559200773 0.003788897379871631
          0.0025264776593623165 0.0025254301523360027 0.002524382645309689 0.0028767919498723458 0.0028742586675386895 0.0028717253852050323
          0.0008186364822372659 0.0008212926008942351 0.0008239487195512043 0.0004034834836499733 0.00040528453283583394 0.00040708558202169447
          0.002740020665447422 0.0033024771678242947 0.0027372157941820178 0.00330085875840202 0.0027344109229166134 0.003299240348979745
          0.00040740437599234077 0.0004090669315270482 0.0004107294870617556 0.0010060687094741053 0.0010092670850215734 0.0010124654605690416
          0.0026818585368990336 0.0026798247044012386 0.0026777908719034437 0.0046534786013457605 0.004649157521218247 0.004644836441090732
          0.00025242335112469295 0.00025480075774253366 0.00025717816436037427 0.0029142037640050027 0.0029159475677613973 0.0029176913715177914
          0.004364369974674182 0.0043325303294544145 0.0038042185656140337 0.004359669183346813 0.004327936211991944 0.0038006469663235125
          0.004354968392019444 0.0043233420945294745 0.0037970753670329917 0.0010153863609263353 0.0010199941664580815 0.0010246019719898276
          0.0027697418117049316 0.002666963823618604 0.00276679603073764 0.0026644507703479613 0.0027638502497703485 0.0026619377170773186
          0.001156448628859818 0.001158585250925778 0.001160721872991738 0.0013659253933188693 0.0013676973233535574 0.0013694692533882452
          0.0030685786239700837 0.0030659428561249664 0.0030633070882798495 0.000264610963754386 0.00026702112815398286 0.0002694312925535797
          0.0008376561034671283 0.001179027265002972 0.0008387242869618959 0.0011799136256683477 0.0008397924704566633 0.0011807999863337234
          0.0013808240809524788 0.0013824485102200646 0.001384072939487651 0.00015073628846580149 0.00015200677186403901 0.00015327725526227654
          0.0027644922433701664 0.0027636797282585644 0.0027628672131469623 0.002878856785905615 0.002876637677219928 0.0028744185685342415
          0.004799809369802957 0.004795428126979442 0.0047910468841559275 0.0025608885175730633 0.002560430454070651 0.00255997239056824
          0.002621376069119754 0.0025737604139511776 0.0026195036196867937 0.0025726900656352666 0.0026176311702538323 0.0025716197173193556
          0.00296561744946185 0.0029636338485988815 0.002961650247735912 0.0023706985961436753 0.0023980593136211058 0.002370799667059615
          0.0023972066533380124 0.0023709007379755544 0.002396353993054919 0.0025284260493224826 0.0025270631265294297 0.0025257002037363772
          0.002317408544020459 0.0023169691085581515 0.002316529673095844 0.002541954178851085 0.002541252534218897 0.002540550889586709
          0.001859600846716125 0.0019450923576404828 0.001862939355192166 0.001948564414086542 0.0018662778636682064 0.0019520364705326008
          0.002339691335221684 0.0023410394977970697 0.0023423876603724555 0.0024927067042204007 0.0024931530527584275 0.002493599401296455
        </DataArray>
        <DataArray type="Float64" Name="pe22" format="ascii" RangeMin="-0.002530765512743001" RangeMax="-0.00007777554485825818">
          -0.0008018738649460938 -0.0007533511809093827 -0.000596328581924064 -0.0006729660083692151 -0.0008016237656912171 -0.0007531233667976814
          -0.0005962557508704906 -0.000672902844427677 -0.0008013736664363405 -0.00075289555268598 -0.0005961829198169172 -0.0006728396804861391
          -0.001325020962651525 -0.0012709894741371748 -0.0013202380187488341 -0.0013989381609227853 -0.0013250341590432294 -0.0012712021363265164
          -0.0013203637105343173 -0.0013989163019523237 -0.0013250473554349339 -0.0012714147985158583 -0.0013204894023198007 -0.0013988944429818623
          -0.0002918151803750509 -0.0004197254504896222 -0.000291845988364952 -0.00041977911648022434 -0.0002918767963548531 -0.00041983278247082644
          -0.0019110049343289556 -0.0019575630463639576 -0.0016494980066047136 -0.0016702231356248275 -0.001912236090379915 -0.0019584835547595417
          -0.0016493626813817034 -0.0016707711893851878 -0.0019134672464308745 -0.001959404063155126 -0.0016492273561586933 -0.0016713192431455483
          -0.001407475355379799 -0.0015074485069151125 -0.0014076972332321277 -0.0015074633589214769 -0.0014079191110844566 -0.0015074782109278412
          -0.001497367851405004 -0.0014273689768028403 -0.0014510430234568829 -0.0015367855963129534 -0.001498366305501993 -0.0014286698357096012
          -0.001451850440916587 -0.0015369440454967166 -0.0014993647595989818 -0.0014299706946163625 -0.001452657858376291 -0.00153710249468048
          -0.00190616136271352 -0.002094613461805856 -0.001974035583718489 -0.001829525140634603 -0.001906606239642675 -0.002094983506933875
          -0.0019746821483437827 -0.0018302281651280576 -0.0019070511165718306 -0.0020953535520618943 -0.0019753287129690767 -0.0018309311896215121
          -0.0007490535778400019 -0.0008514506883129304 -0.0007490585366104245 -0.0008512359239399439 -0.0007490634953808472 -0.0008510211595669573
          -0.0012138268618037656 -0.0011086717909650613 -0.0014951505971341063 -0.0015443147248487752 -0.0012131288973708239 -0.0011075065857841639
          -0.0014944199472032018 -0.0015438676748280907 -0.0012124309329378826 -0.0011063413806032664 -0.0014936892972722976 -0.0015434206248074065
          -0.0009958034627521887 -0.0010193973974186748 -0.0011628829176967557 -0.0009957773452730755 -0.0010191981594989104 -0.0011626918633516673
          -0.0009957512277939623 -0.001018998921579146 -0.001162500809006579 -0.002332897600182888 -0.002468024255479954 -0.002408389312282016
          -0.002299767663070263 -0.0023333755907263966 -0.002468921698562571 -0.002409178469669044 -0.002300109000419661 -0.0023338535812699045
          -0.0024698191416451876 -0.002409967627056072 -0.0023004503377690587 -0.0016248085084521716 -0.0016985069518094388 -0.0015932263020817412
          -0.001589872460222662 -0.0016254607157969831 -0.0016995986586927968 -0.0015941946477918449 -0.0015907020755421013 -0.0016261129231417946
          -0.0017006903655761548 -0.0015951629935019485 -0.0015915316908615405 -0.0018204368538263602 -0.0018211181393435207 -0.0018217994248606812
          -0.0015074833069176697 -0.0014231282452851015 -0.0013651134518870285 -0.001508724122709528 -0.0014237191048365899 -0.0013662289174581471
          -0.0015099649385013868 -0.0014243099643880782 -0.0013673443830292656 -0.001637903048969466 -0.0017785669327727283 -0.0016382424579190766
          -0.0017795232399841843 -0.001638581866868687 -0.0017804795471956403 -0.002145219896845843 -0.0020140979982815376 -0.0021627219110705873
          -0.002316069485298024 -0.002146582367489342 -0.0020150002707784286 -0.002163779758696729 -0.0023174469079098045 -0.002147944838132841
          -0.0020159025432753197 -0.00216483760632287 -0.0023188243305215846 -0.0007506022904452312 -0.0009035824088199499 -0.0006513889859826676
          -0.00044206337068017023 -0.0007496746615387009 -0.0009028336173337258 -0.0006507159152959667 -0.0004424304122102156 -0.0007487470326321704
          -0.0009020848258475019 -0.0006500428446092656 -0.00044279745374026095 -0.001736587268438452 -0.0015990604505988736 -0.001628237550135045
          -0.0017366899984077612 -0.0015990997486163804 -0.0016283737161464458 -0.0017367927283770707 -0.0015991390466338874 -0.0016285098821578472
          -0.0002910520964130936 -0.0006792185192157358 -0.00029258567567638625 -0.0006779695771049685 -0.0002941192549396789 -0.000676720634994201
          -0.0014510226224317044 -0.0015510331461879754 -0.001725132518287265 -0.0017488553626642893 -0.0014504152717053215 -0.0015512623614568487
          -0.0017257237801476652 -0.0017486428625458105 -0.0014498079209789387 -0.0015514915767257222 -0.0017263150420080654 -0.0017484303624273317
          -0.0018690371394400923 -0.0017067335372272664 -0.0018695501317524815 -0.0017070313629289717 -0.0018700631240648705 -0.0017073291886306769
          -0.001282636111771087 -0.0014094667476448248 -0.0012825621772148393 -0.0014099217569087824 -0.0012824882426585914 -0.0014103767661727395
          -0.0017979001150414402 -0.0015503128120139002 -0.0017978512607896074 -0.0015499318121592984 -0.0017978024065377744 -0.0015495508123046968
          -0.0008909572183191216 -0.0008053764802279985 -0.0008099161030928599 -0.0009323205794033831 -0.0008907746691057543 -0.0008054070858593386
          -0.0008099712611831483 -0.0009321739879769317 -0.0008905921198923865 -0.000805437691490679 -0.0008100264192734366 -0.0009320273965504807
          -0.0012536184951832238 -0.00117565190888715 -0.0012538369379232962 -0.0011761486545416601 -0.001254055380663369 -0.0011766454001961703
          -0.0011326701030715 -0.0011322206015519898 -0.0011317711000324794 -0.001468032559755676 -0.0013586935001613989 -0.001468771478494179
          -0.0013589203517943254 -0.0014695103972326823 -0.0013591472034272518 -0.0015047320889691746 -0.0015246486008277892 -0.0015270661066825173
          -0.0015054859490655757 -0.0015258172602386913 -0.0015279469364693796 -0.0015062398091619772 -0.001526985919649594 -0.0015288277662562418
          -0.0011736238043709804 -0.001290289045591606 -0.00097241911434499 -0.0011731412450639686 -0.0012902614551355029 -0.0009716715393187367
          -0.0011726586857569567 -0.0012902338646793997 -0.0009709239642924835 -0.0012847598936766187 -0.0012864353811706914 -0.001288110868664764
          -0.0010632653743893892 -0.0010616629420052625 -0.001060060509621136 -0.0014305321386748142 -0.0014569831981416379 -0.0014308117874609952
          -0.001457144129221498 -0.0014310914362471762 -0.0014573050603013582 -0.0014001590305380606 -0.0014004670608307739 -0.0014007750911234872
          -0.0009554178111325761 -0.0011533972914945885 -0.0011889813480828585 -0.000955720804410292 -0.0011539308893669035 -0.0011887691044599456
          -0.000956023797688008 -0.0011544644872392184 -0.0011885568608370322 -0.0019438874810614524 -0.0020119050656051416 -0.0019441339367810325
          -0.0020123331905637022 -0.0019443803925006122 -0.002012761315522262 -0.0002590976940420915 -0.00017333726697922713 -0.0001831929903621272
          -0.00029338606592647996 -0.0002591959172810889 -0.00017378100276626153 -0.00018370227889007095 -0.0002935225958594084 -0.0002592941405200863
          -0.00017422473855329592 -0.00018421156741801472 -0.00029365912579233677 -0.0006593320385225 -0.0004757018711390114 -0.0005289293009466979
          -0.0007066622308754069 -0.0006593964469144395 -0.0004757974585847002 -0.000528921194276649 -0.0007065438527267063 -0.0006594608553063791
          -0.00047589304603038894 -0.0005289130876065999 -0.0007064254745780057 -0.001354285003063346 -0.001222680944634075 -0.001353144437575982
          -0.0013543141196799375 -0.0012227351499557565 -0.0013534304052878335 -0.0013543432362965288 -0.0012227893552774383 -0.0013537163729996848
          -0.001470953477145879 -0.0014716149019248707 -0.0014722763267038625 -0.0015134995641336736 -0.001513743907836821 -0.0015139882515399683
          -0.00011233956669386101 -0.00009522490886565177 -0.00011310946596131916 -0.00009602563769344155 -0.0001138793652287773 -0.0000968263665212313
          -0.0003226802575971891 -0.00043786729661089447 -0.00032291724866736414 -0.00043800461792416114 -0.0003231542397375391 -0.0004381419392374277
          -0.001343712392656319 -0.0013441354582191369 -0.0013445585237819547 -0.0009442694669033909 -0.0010478554200173864 -0.0010315822503000147
          -0.0008748577470063216 -0.0009443943618784723 -0.0010479880925219843 -0.00103151690779846 -0.0008749321759511081 -0.0009445192568535538
          -0.001048120765026582 -0.0010314515652969053 -0.0008750066048958944 -0.0011820712166891964 -0.0011821845897500632 -0.0011822979628109298
          -0.0009514705633517509 -0.0009514788321233736 -0.0009514871008949966 -0.0011686221936607667 -0.0009950746562304219 -0.00116827815357681
          -0.0009948139923609345 -0.0011679341134928532 -0.0009945533284914467 -0.0009490280763492807 -0.0009498358395489484 -0.0009506436027486161
          -0.0008627771465666706 -0.0010079242528871714 -0.0008626950703160143 -0.001007908196060724 -0.0008626129940653583 -0.0010078921392342765
          -0.0009811027470701514 -0.0009815422706784833 -0.000981981794286815 -0.0010192551735412091 -0.0010666965554271682 -0.001019086116095876
          -0.001066546452066534 -0.001018917058650543 -0.0010663963487059 -0.0009842169917479162 -0.0009840868803159394 -0.0009839567688839624
          -0.0008470681991585279 -0.0008471348328413792 -0.0008472014665242305 -0.0011501261825234894 -0.0011501877777581548 -0.0011502493729928197
          -0.0008379943662234977 -0.0010479584444318994 -0.0008380298018115624 -0.0010486452849498241 -0.0008380652373996271 -0.001049332125467749
          -0.0013109708322364523 -0.0013108477497131015 -0.001310724667189751 -0.0013706469477661552 -0.0013506851626927923 -0.0013707001602174037
          -0.0013506604005234031 -0.0013707533726686524 -0.001350635638354014 -0.0021089918694882324 -0.002225606272240493 -0.002108800843463151
          -0.0021093206838053435 -0.0022258812104612494 -0.0021091526515778294 -0.0021096494981224555 -0.002226156148682006 -0.002109504459692508
          -0.0024880008503374755 -0.002414831863308772 -0.002387687291415341 -0.002489402043843286 -0.0024164889316158123 -0.0023891080154463166
          -0.002490803237349097 -0.0024181459999228533 -0.002390528739477292 -0.000899155219396647 -0.001210247423828554 -0.0008996819650625772
          -0.0012118093786255644 -0.0009002087107285075 -0.001213371333422575 -0.0013570064540698885 -0.00133681254085533 -0.0013051714221753812
          -0.0013571209689035718 -0.0013366315095947067 -0.0013050991923052582 -0.0013572354837372547 -0.0013364504783340836 -0.0013050269624351352
          -0.0015273544405962397 -0.0014571892927336188 -0.0015273382038369294 -0.0014571759961394966 -0.0015273219670776193 -0.0014571626995453744
          -0.0005722496153669801 -0.0005721327498201316 -0.000572015884273283 -0.0024453904178747114 -0.002527573178484531 -0.0024471149923871328
          -0.0025291693456137663 -0.0024488395668995546 -0.002530765512743001 -0.0024868248742254857 -0.002344003961730641 -0.0024879379508643508
          -0.0023447040546055076 -0.002489051027503216 -0.002345404147480374 -0.0020866335701941506 -0.00218656523059999 -0.002087043772449103
          -0.0021872464550241077 -0.002087453974704056 -0.002187927679448225 -0.0018724749386190838 -0.001873237006069065 -0.0018739990735190458
          -0.002255260882820258 -0.0022293083520070695 -0.0022567262680109126 -0.0022308754622252665 -0.0022581916532015663 -0.002232442572443464
          -0.0019665795319154583 -0.0019668712350995937 -0.0019671629382837295 -0.001133997826997627 -0.0011341795407905206 -0.0011343612545834142
          -0.0016286301133021123 -0.001627369804410946 -0.0016261094955197797 -0.00111196922085473 -0.0011121913040134574 -0.001112413387172184
          -0.0011285124509044775 -0.0011286597670809896 -0.001128807083257502 -0.0013476041784502085 -0.001289232891480965 -0.001347986981268793
          -0.0012885331883438719 -0.001348369784087378 -0.0012878334852067788 -0.0012872322082334814 -0.0012028051219564128 -0.0012874487049264827
          -0.0012029268515952847 -0.001287665201619484 -0.0012030485812341571 -0.0007973740259440342 -0.0007972776065562773 -0.0007971811871685204
          -0.0006185895799508069 -0.0006186840620113967 -0.0006187785440719864 -0.001156297790607745 -0.0011564054460118135 -0.0011565131014158823
          -0.0015303968318076395 -0.0015312964884960955 -0.001532196145184552 -0.0006837232341151217 -0.0006845594991139364 -0.000685395764112751
          -0.0005836378799885851 -0.0005836587991415177 -0.0005836797182944503 -0.001848501391004228 -0.0016262547136010096 -0.001848886633500865
          -0.0016264454103149676 -0.001849271875997502 -0.001626636107028926 -0.0020608179081821583 -0.0020615856711927 -0.002062353434203242
          -0.002295595271050257 -0.0021684384730503038 -0.002296226423105328 -0.0021687419275673338 -0.0022968575751603987 -0.002169045382084364
          -0.0008130626947098246 -0.0009650649161728451 -0.0007766198333416554 -0.0008130545121435469 -0.0009652640099677509 -0.0007765747468741962
          -0.000813046329577269 -0.0009654631037626565 -0.0007765296604067371 -0.0007439332285897328 -0.0007438660337707114 -0.0007437988389516899
          -0.002248101945802269 -0.0022491477605804315 -0.0022501935753585943 -0.001250423414194979 -0.0012486410491027544 -0.0012507555059503288
          -0.001248940231180447 -0.0012510875977056787 -0.00124923941325814 -0.0022421936134089625 -0.0020595756495790816 -0.0022434169230888387
          -0.0020604183484964583 -0.002244640232768715 -0.002061261047413835 -0.0018703403176886185 -0.001870740720990121 -0.0018711411242916232
          -0.0019916967365339743 -0.0018342098569776566 -0.0019924366166093888 -0.001834515048399141 -0.001993176496684803 -0.0018348202398206256
          -0.0002954424187918478 -0.00039098875859987605 -0.00028622081338385084 -0.00019083198599663653 -0.0002964116710138242 -0.0003920541087928691
          -0.0002870474061958536 -0.00019208192465032295 -0.0002973809232358007 -0.0003931194589858621 -0.0002878739990078565 -0.00019333186330400937
          -0.00037684782912586874 -0.00037709679773292144 -0.0003773457663399741 -0.0007361254193769463 -0.0007367316658603578 -0.0007373379123437693
          -0.0015163712009244028 -0.0015499223975766934 -0.0015166405118304696 -0.0015503668448599943 -0.0015169098227365365 -0.0015508112921432948
          -0.0014282876180836195 -0.001428498752335707 -0.0014287098865877945 -0.0014093663708139778 -0.0013731544290178953 -0.0014095323626426254
          -0.0013730189712707918 -0.0014096983544712727 -0.0013728835135236887 -0.001048929847560058 -0.0008136105383291035 -0.001048126383868953
          -0.0008126150828737812 -0.0010473229201778483 -0.000811619627418459 -0.000926073869700916 -0.0009262895684278197 -0.0009265052671547237
          -0.0016903354418865149 -0.0017228114520155267 -0.0016906549574451741 -0.0017230257983904204 -0.0016909744730038332 -0.0017232401447653137
          -0.0005444803761409024 -0.0005778180301194916 -0.0004649801334414258 -0.00039829674369684214 -0.000544384327606246 -0.0005779314472664051
          -0.00046519081263633066 -0.00039838313449757723 -0.0005442882790715898 -0.0005780448644133186 -0.0004654014918312355 -0.00039846952529831226
          -0.0014648436893454863 -0.0014648505156818 -0.001464857342018114 -0.0002612790544769731 -0.0001681059848314937 -0.0002616997929584487
          -0.00016904484828956525 -0.00026212053143992426 -0.00016998371174763684 -0.0015975278054475963 -0.001851691375650423 -0.0015973385407602363
          -0.0018519638329124813 -0.0015971492760728768 -0.0018522362901745393 -0.0018488728684561816 -0.001849142597480914 -0.001849412326505646
          -0.0012796274354466518 -0.0012796239873547792 -0.0012796205392629064 -0.0014020656565072462 -0.0014017678641041367 -0.0014014700717010276
          -0.0004263413464524546 -0.00042647187971301705 -0.0004266024129735795 -0.00021143910930972707 -0.00021192654412131786 -0.00021241397893290864
          -0.0013202608007833073 -0.0016315526974405418 -0.0013197113403314012 -0.0016316286528155447 -0.0013191618798794951 -0.0016317046081905473
          -0.00020603112042422703 -0.0002064999261864834 -0.00020696873194873977 -0.0005423773962246421 -0.0005429775601487006 -0.0005435777240727591
          -0.0013499117565288338 -0.0013498802071447245 -0.0013498486577606151 -0.0023763117080190864 -0.0023774500321662676 -0.0023785883563134493
          -0.00013075389537536028 -0.00013164960810114142 -0.00013254532082692256 -0.0015315107048047387 -0.0015318871581741426 -0.0015322636115435466
          -0.0021361442809966357 -0.0021273884152498332 -0.0018478142485291791 -0.0021368522810483867 -0.0021278777925905043 -0.0018481442491918632
          -0.0021375602811001372 -0.002128367169931175 -0.0018484742498545475 -0.0005398181301286619 -0.0005406140091490787 -0.0005414098881694955
          -0.0013961541671953935 -0.0013489846041100236 -0.0013960167244675733 -0.0013488675388554907 -0.0013958792817397524 -0.001348750473600958
          -0.0005996542479283718 -0.0005995600131517101 -0.0005994657783750485 -0.0006948057865706935 -0.0006948822461153464 -0.0006949587056599995
          -0.0014744616320876494 -0.0014735206423317632 -0.001472579652575877 -0.00013518756746312834 -0.00013610586214530824 -0.00013702415682748814
          -0.0004182774161616061 -0.0005877383600265654 -0.00041837644653178305 -0.0005877342352558991 -0.00041847547690196006 -0.0005877301104852328
          -0.0007058626320210653 -0.0007057293314248366 -0.0007055960308286077 -0.00007777554485825818 -0.00007826422253189109 -0.00007875290020552397
          -0.0014631466321406493 -0.0014639655827823987 -0.0014647845334241477 -0.0014477524218103831 -0.0014479175949950677 -0.0014480827681797523
          -0.002441732209878216 -0.0024428210526551072 -0.0024439098954319987 -0.0012702624024819864 -0.0012700810546597125 -0.0012698997068374387
          -0.0013286959752409025 -0.0013119569228198448 -0.001328728461711491 -0.0013120258934292961 -0.0013287609481820793 -0.0013120948640387472
          -0.0015671061307278573 -0.0015668838850117245 -0.001566661639295592 -0.0012422519019438675 -0.0012439868061674489 -0.0012428052111476628
          -0.0012441367043511333 -0.001243358520351458 -0.0012442866025348177 -0.0012943739465594568 -0.0012945298944621497 -0.0012946858423648429
          -0.0011971240147237942 -0.0011973062215634692 -0.001197488428403144 -0.0013363431989670234 -0.0013361734047157548 -0.001336003610464486
          -0.0009964451756068699 -0.0010317189576253675 -0.0009967463537517867 -0.0010326249941292089 -0.0009970475318967038 -0.0010335310306330506
          -0.0012342081323427883 -0.0012348373074250916 -0.001235466482507395 -0.001318895505818618 -0.0013193103159919038 -0.00131972512616519
        </DataArray>
        <DataArray type="Float64" Name="pe33" format="ascii" RangeMin="-0.002434508942290552" RangeMax="-0.00007296074360754328">
          -0.0007965927197397638 -0.0007494450886375622 -0.0005882586759476722 -0.000661071320182758 -0.0007965906151218807 -0.0007494343068112483
          -0.0005887308035488295 -0.0006616441329750512 -0.0007965885105039976 -0.000749423524984934 -0.0005892029311499868 -0.0006622169457673444
          -0.0012495931571031077 -0.0012037695576551414 -0.0012318845756614178 -0.0012940071626654352 -0.0012489650752854405 -0.0012032840539995587
          -0.0012317585579209927 -0.0012938249285953587 -0.0012483369934677736 -0.0012027985503439758 -0.0012316325401805681 -0.0012936426945252817
          -0.0002916870285781301 -0.0004223611333452697 -0.00029218546702934763 -0.0004231129428054664 -0.00029268390548056527 -0.0004238647522656631
          -0.0016953172745226845 -0.001726751920507713 -0.0014649508327381012 -0.0014878655306680734 -0.0016939404986650473 -0.0017249848881182377
          -0.001463926697902412 -0.0014855656280029256 -0.0016925637228074099 -0.0017232178557287626 -0.0014629025630667225 -0.0014832657253377776
          -0.001291130142187229 -0.0013694510818520241 -0.0012916821680865722 -0.0013696230719682466 -0.0012922341939859154 -0.0013697950620844693
          -0.0014005017151778897 -0.0013051469655283067 -0.0013493467812145284 -0.001490146759853518 -0.001397953722872431 -0.0013043021462430737
          -0.0013460524359638097 -0.001484293979139963 -0.0013954057305669725 -0.0013034573269578408 -0.0013427580907130908 -0.001478441198426408
          -0.001938227789540861 -0.002092832241888723 -0.0019601126075097512 -0.0018293009703189034 -0.0019365260455471395 -0.002088672804187784
          -0.0019571902643854854 -0.0018283295123521558 -0.0019348243015534187 -0.002084513366486845 -0.00195426792126122 -0.0018273580543854077
          -0.0007332613463728157 -0.0008397653743262585 -0.0007341995716444105 -0.0008400705967536496 -0.0007351377969160053 -0.0008403758191810407
          -0.0013344842713080144 -0.0012261960012475007 -0.0016156224357873233 -0.0016532235979575599 -0.001332961850146606 -0.0012261859257831347
          -0.0016139065018027858 -0.0016515703311933323 -0.0013314394289851976 -0.0012261758503187687 -0.001612190567818248 -0.0016499170644291047
          -0.0010025618033385735 -0.0010236672902930555 -0.0011788803966093337 -0.0010018090864222632 -0.0010231181585512185 -0.0011787107429872994
          -0.001001056369505953 -0.001022569026809382 -0.0011785410893652652 -0.002369378902988117 -0.0024179459676752463 -0.002365469988463949
          -0.0023143542800172774 -0.002363132806871548 -0.0024122303400155426 -0.0023593790491467518 -0.0023079684733435077 -0.0023568867107549795
          -0.002406514712355839 -0.0023532881098295546 -0.002301582666669737 -0.0015854854786894297 -0.0016248740524280403 -0.0014867737357714284
          -0.0015140499357267684 -0.0015840928404670094 -0.001624127807396602 -0.0014865372554176935 -0.001512777216642358 -0.001582700202244589
          -0.0016233815623651637 -0.0014863007750639588 -0.0015115044975579472 -0.001616780353859783 -0.001616204640680189 -0.001615628927500595
          -0.0013964472149799614 -0.0012937547568530855 -0.0012286685779008127 -0.0013943386219367488 -0.001292428794689677 -0.0012278485105319736
          -0.0013922300288935362 -0.001291102832526269 -0.0012270284431631345 -0.001638697832427299 -0.0017384087392860565 -0.0016370780058024119
          -0.0017374432084805175 -0.0016354581791775244 -0.0017364776776749788 -0.0019103276294283756 -0.0017953713453635958 -0.001953263221861273
          -0.0020980090931585252 -0.0019087160829351258 -0.001794985413175733 -0.0019518146184218038 -0.002095139226602782 -0.001907104536441876
          -0.00179459948098787 -0.0019503660149823346 -0.002092269360047038 -0.0008321043654931136 -0.0010032631239481975 -0.0007201421685365482
          -0.00047906063143268886 -0.0008333831700856058 -0.0010027872223794553 -0.0007212487714935293 -0.0004820541264718508 -0.0008346619746780981
          -0.001002311320810713 -0.0007223553744505105 -0.0004850476215110127 -0.0015485535655966026 -0.0014417807204793339 -0.0014551985646435283
          -0.0015491801389007946 -0.0014420722803913585 -0.0014561037321249503 -0.0015498067122049863 -0.0014423638403033832 -0.0014570088996063728
          -0.0003061640075693761 -0.0007441101139789372 -0.00031016578582493165 -0.0007463056987085108 -0.0003141675640804872 -0.0007485012834380844
          -0.0013624291873650177 -0.001443987967993951 -0.001652417715158435 -0.0016803816948428234 -0.0013615314980299795 -0.0014434031641861462
          -0.0016505228634163503 -0.0016769783504672511 -0.0013606338086949413 -0.0014428183603783418 -0.0016486280116742658 -0.0016735750060916793
          -0.0016669636958306874 -0.0015258320660072903 -0.0016673019052126422 -0.0015259834014233488 -0.0016676401145945974 -0.0015261347368394072
          -0.0013303342263247908 -0.0014332825421127238 -0.0013266975323413433 -0.001428294395409153 -0.0013230608383578957 -0.0014233062487055822
          -0.0017031583360362828 -0.0014438214888929976 -0.0017003918325367681 -0.0014436875344440248 -0.0016976253290372535 -0.0014435535799950522
          -0.0008709950525130706 -0.0007876980482876182 -0.0007840236179303038 -0.000899607016370686 -0.0008720695511365928 -0.0007890609168904687
          -0.0007859407141134873 -0.0009014804983846047 -0.0008731440497601149 -0.000790423785493319 -0.0007878578102966706 -0.0009033539803985234
          -0.0011180351413158933 -0.0010485624261437766 -0.0011178009175353031 -0.0010470677062455833 -0.001117566693754713 -0.0010455729863473899
          -0.0011987475679936747 -0.0011959996533921966 -0.0011932517387907183 -0.0013422659313348435 -0.0012339547065957283 -0.0013427339774971796
          -0.0012347460012515521 -0.0013432020236595157 -0.001235537295907376 -0.001471449204047176 -0.0014441746256640558 -0.0014846914453824985
          -0.0014686912156953993 -0.0014412203906749544 -0.0014798978752217156 -0.0014659332273436222 -0.001438266155685853 -0.0014751043050609325
          -0.0012571004266553297 -0.0013510097701742985 -0.0010483458521475606 -0.0012552761538932528 -0.001349027085513296 -0.0010466537457154955
          -0.0012534518811311763 -0.0013470444008522933 -0.0010449616392834305 -0.0011453878491086747 -0.001145519681620757 -0.001145651514132839
          -0.0011680908755966127 -0.0011689397583566192 -0.0011697886411166257 -0.0014305085884821715 -0.001452176518350091 -0.0014281997559436278
          -0.0014494090713018388 -0.0014258909234050837 -0.0014466416242535866 -0.0014277950569718404 -0.0014254442800489889 -0.0014230935031261367
          -0.000876181059176167 -0.0010359408439685814 -0.0011013502206698867 -0.0008778306381904101 -0.0010377186901997214 -0.001101716214969344
          -0.0008794802172046533 -0.0010394965364308613 -0.0011020822092688012 -0.0019058667433508767 -0.0019438876144070006 -0.001900564204481382
          -0.0019385641599528479 -0.001895261665611887 -0.0019332407054986956 -0.0002573918670310287 -0.00016951896905407644 -0.00017845775796431444
          -0.00029116855158528555 -0.0002580000086741755 -0.00017035153937044664 -0.000179479691705711 -0.0002920248746005127 -0.0002586081503173223
          -0.00017118410968681682 -0.0001805016254471076 -0.0002928811976157399 -0.0006558537384223326 -0.0004735772161701253 -0.0005238514800399427
          -0.0007010106034825032 -0.0006561810268282598 -0.00047442603957663826 -0.0005244567640123065 -0.0007010850746689703 -0.0006565083152341869
          -0.0004752748629831513 -0.0005250620479846705 -0.0007011595458554375 -0.0013615785270274857 -0.001225468482962442 -0.0013435387004150036
          -0.0013604668602107766 -0.0012248170659974723 -0.0013418885964432197 -0.0013593551933940677 -0.0012241656490325022 -0.0013402384924714357
          -0.0013575518256971554 -0.0013563456105664415 -0.0013551393954357276 -0.0015036429761018377 -0.0014972704264310578 -0.0014908978767602782
          -0.00010954541578237474 -0.00009107502454977056 -0.0001105868357494758 -0.00009215716594899197 -0.00011162825571657686 -0.00009323930734821337
          -0.00031898886015072086 -0.0004377540947557113 -0.00032007394961452643 -0.0004387551662791792 -0.00032115903907833194 -0.0004397562378026472
          -0.0012109649239833572 -0.0012117194931275848 -0.0012124740622718125 -0.0009390890837462559 -0.0010509840922850603 -0.0010386634831209408
          -0.0008718413161116977 -0.0009396218107031692 -0.0010512892841530288 -0.0010385192359980743 -0.0008719240680472605 -0.0009401545376600826
          -0.0010515944760209972 -0.001038374988875208 -0.0008720068199828231 -0.0011730390377534918 -0.0011725601971133359 -0.0011720813564731801
          -0.0009395898638122968 -0.0009400317022704345 -0.0009404735407285724 -0.0011114515996480385 -0.0009463567674861186 -0.0011123062355842552
          -0.0009471428072814897 -0.0011131608715204719 -0.0009479288470768609 -0.0008477247633907114 -0.0008497626000897434 -0.0008518004367887754
          -0.0008288646520134803 -0.0009660496075621757 -0.0008305971241393971 -0.0009679630879354452 -0.000832329596265314 -0.0009698765683087148
          -0.0008847208505659384 -0.0008844825763635685 -0.0008842443021611987 -0.0009866654850519275 -0.0010188309920242588 -0.0009874200586582472
          -0.0010202954260133536 -0.000988174632264567 -0.0010217598600024487 -0.0009632297212439362 -0.0009635380142220843 -0.0009638463072002323
          -0.0008438488079798074 -0.0008435286173990269 -0.0008432084268182465 -0.001087808809722497 -0.0010896724667175438 -0.0010915361237125905
          -0.0007446745895223089 -0.0009318434536723624 -0.0007447607919635036 -0.0009310052517089979 -0.0007448469944046981 -0.0009301670497456331
          -0.0012261498634984383 -0.00122762409974638 -0.0012290983359943219 -0.0012569812241042743 -0.0012548156737556763 -0.0012554201097920437
          -0.0012538508532091623 -0.001253858995479813 -0.001252886032662648 -0.0021622347450122406 -0.0022229366244325625 -0.002130888019979592
          -0.002157809227709126 -0.002217113796109118 -0.002126967445824438 -0.0021533837104060114 -0.002211290967785673 -0.0021230468716692858
          -0.0023446130688685673 -0.0021912638196944956 -0.0022221530348988544 -0.0023397726444140173 -0.0021873429742634387 -0.002218010716738102
          -0.002334932219959468 -0.0021834221288323822 -0.00221386839857735 -0.0007801496566089375 -0.001063787714072812 -0.0007813308314868986
          -0.001064352306255165 -0.0007825120063648596 -0.001064916898437518 -0.0013150184792558974 -0.0012955888336934026 -0.001241255388734441
          -0.0013133844672980062 -0.0012939619198231271 -0.001239931821345599 -0.001311750455340115 -0.0012923350059528519 -0.0012386082539567573
          -0.0013861972023948197 -0.0013386556112094895 -0.001385181675146285 -0.00133842719048339 -0.0013841661478977505 -0.0013381987697572903
          -0.000577925055047568 -0.0005786958717361949 -0.0005794666884248218 -0.002218285530500604 -0.0023689115001156724 -0.0022140234967958235
          -0.0023640988941525214 -0.0022097614630910427 -0.0023592862881893703 -0.002434508942290552 -0.0023922842980562235 -0.0024288544281902994
          -0.0023860480862735833 -0.002423199914090046 -0.002379811874490943 -0.002068950646590504 -0.00213220506494658 -0.002062735746590837
          -0.0021255317366610915 -0.0020565208465911696 -0.002118858408375603 -0.001826204088558607 -0.0018236243344198228 -0.001821044580281039
          -0.0019935927325888986 -0.0019775077954680533 -0.00199047431499949 -0.001974790040409536 -0.0019873558974100817 -0.001972072285351019
          -0.0017235675885695944 -0.0017217451070778694 -0.0017199226255861443 -0.0011132019737875888 -0.0011135716522619246 -0.0011139413307362602
          -0.0014255414775069472 -0.0014255962153318059 -0.0014256509531566646 -0.0010816337321379434 -0.0010823158331056623 -0.0010829979340733812
          -0.0010893084217403178 -0.001089498583291075 -0.0010896887448418322 -0.0011897102740671972 -0.001118191811506908 -0.001190584385904471
          -0.0011207590511698915 -0.0011914584977417452 -0.0011233262908328747 -0.0011969951966433244 -0.001135403972612339 -0.0011983078407516255
          -0.001136041574545347 -0.0011996204848599265 -0.0011366791764783552 -0.0007498669560781219 -0.0007513812850059677 -0.0007528956139338135
          -0.0006188305413483766 -0.0006195099822552835 -0.0006201894231621906 -0.0011065543902905872 -0.0011066233731481662 -0.0011066923560057453
          -0.0014348815369417617 -0.0014336959679666231 -0.0014325103989914847 -0.0005980177172050032 -0.0006010075712128 -0.0006039974252205968
          -0.0005065269632752935 -0.0005077971261411983 -0.000509067289007103 -0.0017063928781666958 -0.0014856269898617656 -0.0017057660795708673
          -0.0014868020900253465 -0.0017051392809750386 -0.0014879771901889277 -0.0019314957247861856 -0.0019286466418174469 -0.0019257975588487073
          -0.002260569686359847 -0.002164416409752377 -0.0022538833263406055 -0.0021578830252327566 -0.0022471969663213644 -0.002151349640713136
          -0.0008149481600428842 -0.0009722727027540142 -0.0007810704507290236 -0.00081470559140794 -0.0009716462924927679 -0.0007812328721182694
          -0.0008144630227729958 -0.0009710198822315218 -0.0007813952935075151 -0.0007481650022137926 -0.0007488345397261339 -0.0007495040772384754
          -0.002129155790820883 -0.0021245562662049132 -0.0021199567415889444 -0.0011968104842748567 -0.0012052810538736864 -0.0011964382568353023
          -0.0012049959287852158 -0.001196066029395748 -0.0012047108036967451 -0.0020664207045794796 -0.0018809107795078822 -0.002063717678759916
          -0.0018800709005999871 -0.0020610146529403523 -0.0018792310216920922 -0.0016874138338321984 -0.0016883011285760009 -0.0016891884233198036
          -0.0017914599899188292 -0.0016359470008189133 -0.0017914097974264715 -0.0016370358261493698 -0.0017913596049341143 -0.0016381246514798262
          -0.00026690555203323115 -0.00034608450679295263 -0.00026467958613790566 -0.0001777862912950383 -0.0002690887075911877 -0.00034941549074042464
          -0.0002672973408399411 -0.00018009994347500358 -0.0002712718631491443 -0.00035274647468789666 -0.00026991509554197664 -0.00018241359565496885
          -0.00036970659572932755 -0.000370929858160678 -0.0003721531205920284 -0.000662913714767157 -0.0006659078679268536 -0.0006689020210865501
          -0.001517709247635217 -0.0015124596920832363 -0.001515557091167023 -0.0015102682782003624 -0.001513404934698829 -0.0015080768643174886
          -0.0013102115470650668 -0.0013119141744176277 -0.0013136168017701885 -0.0013810215113021387 -0.001346967101268377 -0.0013791804673024496
          -0.0013445443746549018 -0.0013773394233027605 -0.0013421216480414267 -0.0011459646962037027 -0.0008900221618532088 -0.0011444472312435948
          -0.0008897300106049887 -0.0011429297662834872 -0.0008894378593567687 -0.0009299173313462657 -0.0009300872677386383 -0.000930257204131011
          -0.0015144938344305 -0.0015290380271865682 -0.00151622085973919 -0.0015306176532322395 -0.0015179478850478802 -0.0015321972792779106
          -0.0005195210980812258 -0.0005587430671879174 -0.0004527500643150783 -0.00038116048782405363 -0.0005213276190502643 -0.0005602374992754756
          -0.0004541098644397356 -0.00038283251501264966 -0.0005231341400193029 -0.0005617319313630336 -0.0004554696645643928 -0.0003845045422012456
          -0.0015054068603405574 -0.0015033002655428865 -0.0015011936707452155 -0.00025203652164864976 -0.00016134614576539602 -0.0002535821247496787
          -0.00016317751833775155 -0.0002551277278507076 -0.0001650088909101071 -0.0016755081072206146 -0.0019279220420179643 -0.0016738910817583382
          -0.001925840985918731 -0.0016722740562960614 -0.001923759929819498 -0.0019460740635123407 -0.0019427795584391627 -0.0019394850533659843
          -0.0012468502239156643 -0.0012458061649812233 -0.0012447621060467822 -0.0014747262933650993 -0.001472490803434552 -0.0014702553135040046
          -0.0003922951357848112 -0.000394820721181218 -0.0003973463065776247 -0.00019204437434024619 -0.00019335798871451598 -0.0001946716030887858
          -0.0014197598646641149 -0.0016709244703837526 -0.0014175044538506166 -0.0016692301055864754 -0.001415249043037118 -0.0016675357407891975
          -0.0002013732555681137 -0.00020256700534056478 -0.00020376075511301583 -0.0004636913132494631 -0.00046628952487287275 -0.0004688877364962823
          -0.0013319467803702 -0.0013299444972565142 -0.0013279422141428288 -0.002277166893326673 -0.0022717074890519777 -0.0022662480847772818
          -0.00012166945574933264 -0.00012315114964139216 -0.00012463284353345168 -0.001382693059200264 -0.0013840604095872548 -0.0013854277599742453
          -0.0022282256936775454 -0.002205141914204581 -0.0019564043170848537 -0.002222816902298425 -0.0022000584194014398 -0.0019525027171316488
          -0.002217408110919305 -0.0021949749245982987 -0.001948601117178444 -0.0004755682307976733 -0.0004793801573090026 -0.00048319208382033193
          -0.0013735876445095379 -0.00131797921950858 -0.0013707793062700667 -0.0013155832314924705 -0.0013679709680305954 -0.0013131872434763612
          -0.0005567943809314462 -0.0005590252377740677 -0.0005612560946166892 -0.0006711196067481753 -0.0006728150772382104 -0.0006745105477282454
          -0.0015941169918824336 -0.0015924222137932032 -0.0015907274357039726 -0.00012942339629125766 -0.0001309152660086746 -0.00013240713572609155
          -0.0004193786873055222 -0.0005912889049764065 -0.0004203478404301128 -0.0005921793904124486 -0.0004213169935547034 -0.0005930698758484907
          -0.0006749614489314133 -0.0006767191787952281 -0.0006784769086590431 -0.00007296074360754328 -0.00007374254933214793 -0.00007452435505675257
          -0.0013013456112295166 -0.0012997141454761652 -0.0012980826797228142 -0.0014311043640952313 -0.0014287200822248598 -0.0014263358003544886
          -0.0023580771599247398 -0.002352607074324334 -0.0023471369887239275 -0.0012906261150910767 -0.0012903493994109387 -0.0012900726837308005
          -0.0012926800938788516 -0.0012618034911313328 -0.0012907751579753024 -0.0012606641722059703 -0.0012888702220717533 -0.0012595248532806082
          -0.0013985113187339926 -0.001396749963587156 -0.0013949886084403194 -0.001128446694199807 -0.0011540725074536567 -0.0011279944559119516
          -0.001153069948986879 -0.0011275422176240963 -0.0011520673905201007 -0.0012340521027630249 -0.0012325332320672793 -0.0012310143613715337
          -0.0011202845292966643 -0.0011196628869946821 -0.0011190412446926998 -0.0012056109798840612 -0.0012050791295031421 -0.0012045472791222234
          -0.0008631556711092552 -0.0009133734000151154 -0.0008661930014403787 -0.0009159394199573327 -0.0008692303317715021 -0.00091850543989955
          -0.001105483202878895 -0.0011062021903719777 -0.0011069211778650606 -0.0011738111984017827 -0.0011738427367665237 -0.0011738742751312647
        </DataArray>
        <DataArray type="Float64" Name="disp_x" format="ascii" RangeMin="0.000007003922407035417" RangeMax="0.000041250479572717434">
          0.000029083242660994603 0.000028981456114508392 0.000027694162757189097 0.000027808427687885834 0.00002908619955337631 0.000028984950542250582
          0.000027697827448343275 0.00002781162972817749 0.000029095228208061187 0.0000289949609004326 0.00002770954419424692 0.00002782171853591882
          0.00003577446161757761 0.00003339271172337319 0.000032473723543025006 0.00003395819373312049 0.00003577438549130827 0.0000333936878009647
          0.00003247414490402055 0.000033957478354801666 0.000035774249236711713 0.00003339676041967227 0.00003247573105993213 0.00003395539675415703
          0.00002708451831436093 0.000028047240480711588 0.000027087377910970458 0.000028050407856256493 0.000027095509281012108 0.000028059875158713385
          0.000034454528084927064 0.00003471916495944667 0.0000370137397728283 0.00003662445047123822 0.00003444986850557672 0.000034713111257609785
          0.00003700693098982032 0.000036618774829483466 0.000034435054177091705 0.00003469587981810827 0.000036987015772012646 0.00003660446496343351
          0.000031157960527890326 0.00003244470897948365 0.00003115785974604576 0.000032443852710331714 0.00003115735841441191 0.000032440691639882723
          0.00001556803752359859 0.00001706412547098035 0.00001666429284091736 0.000014646880072080136 0.000015564661159442816 0.00001705942218858443
          0.00001665871001787439 0.00001464430142570889 0.000015553230852424767 0.00001704464058921531 0.000016641682879115727 0.000014635469092883088
          0.000015818258214497483 0.000018423440634037907 0.000018599336166045066 0.000016341876278166295 0.000015823494171377468 0.000018427489220725608
          0.00001860288182521502 0.000016345857612365974 0.000015840079713579895 0.00001844151237209935 0.000018615278355481494 0.00001635633440548062
          0.000027928159968499843 0.00002906457920073042 0.00002793074418320753 0.00002906720723262665 0.000027938791425015644 0.0000290750909935929
          0.000010665075184046404 0.000010092418902910824 0.000012002988091009762 0.000012536298477206906 0.000010673196017183985 0.00001010182838837289
          0.000012011529877422624 0.000012543357886608852 0.000010698507696680408 0.000010131428553129202 0.0000120368162062132 0.000012563897387022093
          0.000031537545983047245 0.00003159889588189479 0.00003324708474108573 0.00003154161435033343 0.00003160279872382262 0.00003325092972809772
          0.00003155395142943843 0.00003161432926826431 0.00003326003638766758 0.00001943740790799254 0.000022306460750888932 0.000021654891378349614
          0.000019150903255748515 0.00001943992832464788 0.00002230609086742172 0.000021655181003741585 0.000019153957489786758 0.00001944735304564216
          0.000022305201379503595 0.000021656321717729765 0.000019162357472399792 0.000015860996574156633 0.00001788220300487836 0.000018537669806135217
          0.00001652639248010872 0.000015862672439926504 0.00001788365600106031 0.0000185376416521393 0.000016526487025491876 0.000015867085922212026
          0.00001788781629737911 0.000018537878274088783 0.000016526334250141888 0.00003425801162623083 0.00003425429673856328 0.0000342433145049321
          0.00001640560571791157 0.00001783762581110507 0.000018170034092807106 0.000016402858595887987 0.000017834530153375226 0.000018166701215700026
          0.00001639493940910711 0.000017824959207108813 0.000018157245978123147 0.000014971010753469973 0.000017079156973039727 0.000014974115840148786
          0.000017081952179078102 0.000014983486727063353 0.00001709029237140033 0.00003199977137504018 0.0000318857454184165 0.000029584136957102977
          0.000029309524410960437 0.00003199481837700115 0.00003188156771104564 0.00002957972034677993 0.00002930492611530598 0.00003197922355257059
          0.0000318684231501068 0.00002956660614195586 0.000029291705245677776 0.000008606589558298169 0.00000921133140177928 0.000008200244842368252
          0.000007494187312439849 0.000008616225502622155 0.00000922093694840184 0.000008209747688142708 0.000007503377714239711 0.000008644269554054772
          0.00000924840407517716 0.000008239784101607187 0.000007531312742333737 0.00003154977753960745 0.000033321361243935205 0.00003093674811901661
          0.000031547308576053986 0.00003331932041355691 0.00003093518687061373 0.000031540433110307235 0.00003331316279547939 0.000030931220756263895
          0.000007003922407035417 0.000008148174952384278 0.000007011932374264354 0.000008157771661781184 0.00000703656191534716 0.000008184743464322295
          0.000023514277827280606 0.000020773798721354693 0.000020123832162059923 0.000022379200069098645 0.00002351307712320734 0.000020773814216456714
          0.00002012513247947462 0.000022378692708138464 0.000023509434152209204 0.000020773895716770702 0.000020129566145696296 0.00002237763190249272
          0.00003180607173367676 0.00003388949042510486 0.00003180270903866989 0.00003388673243314867 0.000031791881453299966 0.000033878050914674945
          0.000011277369020252114 0.000012376061484104566 0.0000112806278679313 0.000012377273688521736 0.000011289594113751591 0.000012381089721322483
          0.000024471646285375385 0.000025562600052058785 0.000024469125387926684 0.000025560247448318467 0.00002446034401959266 0.000025552647266680763
          0.000028787657041309137 0.000027988350302530575 0.000027292650889752512 0.00002806938766880403 0.00002878975007339186 0.00002799042789216829
          0.000027293827251698087 0.00002807045488776552 0.000028795986243740363 0.000027996699199412992 0.000027297743818220426 0.000028074144182432428
          0.00001974435829894008 0.00001998148758296204 0.00001974043709902071 0.0000199772929382749 0.000019727538257129178 0.00001996659899524604
          0.000010263873758528165 0.000010269116942490555 0.000010285116640172566 0.0000190417296616781 0.00002114208395440128 0.00001904027043760296
          0.000021141206709148096 0.000019035642900238193 0.00002113817806240143 0.000014540673044582452 0.000015642312289379388 0.00001419480414822166
          0.000014540750269574878 0.000015640336558872334 0.00001419361517317965 0.000014541679544261618 0.000015633869611104532 0.000014190489402442191
          0.000010605660132923472 0.00001153003678657292 0.000009425340857618058 0.000010612444476999608 0.0000115348248981176 0.000009432487072916668
          0.000010632591322517924 0.000011549009523990628 0.00000945435601627809 0.000018610126473876385 0.00001860618903076007 0.00001859500174053876
          0.000009685692575534933 0.00000969551616385781 0.000009726481421292364 0.00003631275668562624 0.00003719237228846304 0.00003631576009720046
          0.00003719433464904837 0.00003632421418078651 0.0000372002002015739 0.000012698025586401339 0.000012700876061248603 0.000012709958959964916
          0.000023189674415770643 0.000021410562039036866 0.000023149023411562302 0.00002318857426525457 0.000021408483015698214 0.00002314834891598932
          0.000023184820422152354 0.000021403393805172183 0.000023146531685668706 0.000021483683186314877 0.00002359304493909975 0.000021484483331817298
          0.00002359105597843467 0.000021486834752945204 0.000023585150790335115 0.000026644976417032075 0.00002599763036581829 0.00002589859509333109
          0.00002669645101746049 0.000026647922965363477 0.000026000362893042004 0.00002590122887695271 0.00002669960490900531 0.000026656882687615078
          0.000026009005515226352 0.000025909318270666395 0.000026709234235426717 0.000028740350477600703 0.000027599715339436812 0.000027604642981102435
          0.00002881793774274296 0.000028744784726547263 0.000027603719768008114 0.000027608719105243546 0.000028821968782984173 0.00002875818553540971
          0.000027616127778988397 0.00002762175077407368 0.000028833738229537454 0.00003528508247883201 0.0000336170769426045 0.00003505439831509522
          0.000035288501466706835 0.000033620767090938126 0.00003505779383994187 0.00003530005620318598 0.00003363227681457469 0.0000350678593145893
          0.00001744613448561227 0.000017443462532118457 0.000017434856420048624 0.000013115280736271934 0.000013115284036779054 0.000013116818335937806
          0.000025592482450388025 0.000025120952817724724 0.000025594751099015933 0.000025122207231555285 0.000025601011475776236 0.000025126097069098063
          0.00002661312620122386 0.00002765212746770478 0.000026616542002947986 0.00002765604178671564 0.00002662652200909732 0.00002766729827647552
          0.00001943678719196264 0.000019434045533938437 0.00001942547871391038 0.00003076440207283668 0.000031858759534257556 0.00003168909579241387
          0.000030205324637737722 0.000030767875968864744 0.00003186279956615956 0.00003169325417275229 0.000030209347629350932 0.000030778552354649347
          0.000031875492975413646 0.0000317059499358605 0.000030220887394220547 0.00003310376730769328 0.00003310814872059624 0.00003311998310296887
          0.000030649168132167826 0.000030651926739978196 0.00003065933509314941 0.00002560405500267203 0.000024880754245099146 0.000025602543414976425
          0.000024879970195461577 0.00002559754607943359 0.000024877538133533878 0.000021824395697290743 0.000021820612204507396 0.00002180820637771926
          0.000026261607537867092 0.000026987697790328632 0.00002626163049366496 0.000026987515277083416 0.00002626105412247965 0.000026986534542973838
          0.000021189318583620967 0.000021184816935585022 0.000021168691440596342 0.00003012493779482484 0.000029334810046410477 0.00003012695016929887
          0.0000293359896445632 0.000030132796603184775 0.000029339297140143753 0.00003052351397643158 0.00003052600339052946 0.00003053298779489338
          0.0000300582966467575 0.000030062850927097794 0.000030076570178946166 0.000028203300150127166 0.00002820337999642683 0.00002820343085837873
          0.00002175720610403047 0.00002040422956461062 0.000021752221907401137 0.000020400247554160037 0.000021735467889984208 0.00002039008767319188
          0.000026875957174721708 0.00002687453690399058 0.000026870199044005794 0.000037626512781622253 0.000036974099985394044 0.000037623310151392086
          0.00003697274524148191 0.000037614062041539626 0.000036968861649161515 0.000016823760303333707 0.000018777311299947452 0.000017154932966675024
          0.000016828980133068984 0.000018781414582541723 0.00001716007402276112 0.000016847011391981057 0.000018791051675444455 0.000017176669172915494
          0.0000255713511206809 0.000029194929264717844 0.000026664695037180635 0.000025568896603017623 0.000029190576376901302 0.000026661426491124468
          0.000025561457726430426 0.000029178166828060393 0.000026650342630795698 0.000020931702857584156 0.00001905296440656712 0.000020927358889391968
          0.00001904741106702264 0.00002091511204413599 0.000019029276336258628 0.000039278767138661046 0.00003754416092923327 0.000038194346873100725
          0.0000392785494684278 0.00003754457788334337 0.00003819416419606624 0.00003927782105489639 0.00003754599113122406 0.00003819354570138888
          0.000035834521617411675 0.00003510684252362448 0.000035832200712675265 0.000035105657302258694 0.00003582547719326459 0.0000351010609240847
          0.00002916222529816623 0.00002916613367170431 0.000029177816212404764 0.000029545000222954016 0.000026385134077780232 0.000029540607928902743
          0.000026382395127697027 0.000029527248681216445 0.000026374160802493417 0.000023167199020294816 0.00001998298782590915 0.000023166472226010504
          0.000019984982914011708 0.000023163197055577915 0.00001999101799602064 0.000020686183729809176 0.00002272903188014018 0.000020688188500462278
          0.00002272823862877274 0.000020694714524268195 0.000022724654452672805 0.00001931560451178558 0.00001931828457760112 0.000019325986446815896
          0.000032520632388308786 0.00003215105894075151 0.00003251506459998205 0.000032145984725684164 0.000032496875541631324 0.000032129198662398994
          0.00003522508074779116 0.00003521871551592147 0.00003519912779682111 0.000032623257650992354 0.00003262721637623468 0.00003263891359665659
          0.00003758955238503649 0.00003758228823548054 0.000037558694188969615 0.000032340152173580905 0.00003234321230432738 0.000032352228687014724
          0.00003214455581432029 0.00003214685769155121 0.000032153684577616906 0.000038863554817150146 0.000039588865861023364 0.00003885632896231777
          0.000039582440820558016 0.00003883244606117717 0.000039563241242701854 0.000029698108385855686 0.00003087269198721343 0.000029698293631177386
          0.000030873919076359866 0.000029698391532346433 0.000030877165653572744 0.00002466555542946088 0.00002466525544082197 0.000024664213995752948
          0.000028771101737168606 0.000028775677995717255 0.000028789606565501384 0.00003165894564376457 0.000031660956886551236 0.00003166690567746741
          0.00001696038612645923 0.000016959273402706976 0.000016955243515706504 0.00002276405340176824 0.00002275990529639483 0.00002274596869563154
          0.00002263593135719124 0.00002263228418671991 0.000022621151369458955 0.000026395330415239735 0.000027301628934423874 0.00002639183632506333
          0.000027298992157442238 0.00002638076428163423 0.000027291504579306204 0.000025648965827086 0.000025645466204513334 0.000025634518518282644
          0.000021384743777579427 0.000020091238405679514 0.000021385240306229874 0.000020093965589435678 0.000021387250851839155 0.000020100890144472682
          0.0000300604517182278 0.000031575621130971135 0.00003015826831539226 0.000030065232697240343 0.000031580061965139616 0.000030162852117507282
          0.000030079123730961486 0.00003159370840145975 0.000030176544262244123 0.000030375436817981322 0.00003037953277106468 0.0000303919196856346
          0.000024919690390664596 0.000024916677073645295 0.000024907035889670044 0.0000338752232328916 0.00003398713175851175 0.00003387725420220971
          0.000033990298275829916 0.00003388275079361216 0.00003399978117425758 0.000027222086322222937 0.000027706824318168563 0.000027218331680265575
          0.00002770300245469439 0.000027206847440157924 0.00002769117724337987 0.000028188817938906596 0.000028185458493310902 0.000028175008230487527
          0.000029754520741493837 0.00002987450047878038 0.000029750958523599805 0.000029871846034547645 0.00002973951144004156 0.000029862841578427043
          0.00002380330297252809 0.00002385002277369248 0.0000246696783100587 0.00002456549116006848 0.00002380112299709238 0.000023848164265168643
          0.00002467044566709743 0.00002456557104432903 0.000023793729988163952 0.00002384386744169581 0.000024672817072264062 0.00002456526422323572
          0.000026561777076905134 0.000026565140123402513 0.000026574700777522427 0.000023453245847294207 0.0000234517437434358 0.000023447807651339275
          0.000014154312304578073 0.000015070157447559864 0.000014156703021726628 0.00001507115116246202 0.000014164755207091475 0.000015073224780626652
          0.000028456842377725442 0.000028455770823819424 0.000028452051432738685 0.00003868308051098891 0.000037058172767265605 0.00003868322042422259
          0.000037059346253345364 0.00003868394496414363 0.000037062180299023655 0.000009854318447752508 0.000008767028970965017 0.000009862636106967498
          0.0000087757492835759 0.000009887492343292263 0.000008802332722663436 0.000031716472056915224 0.00003172087389685353 0.00003173408147381215
          0.000028873666009347017 0.0000299097591591729 0.000028871609959929223 0.000029907860279571098 0.000028863997599824313 0.000029901193242939073
          0.000025717487271322725 0.00002672323783278696 0.00002660907406630064 0.000025642550654721117 0.000025718810500693233 0.00002672583666918943
          0.000026612242703018617 0.000025644375761717596 0.000025723238875359025 0.000026733536496992058 0.000026621344028074388 0.0000256500400610505
          0.000013088828926434387 0.000013092988170085676 0.00001310519811883831 0.00002551890900367512 0.000025049168696676552 0.000025521102018664866
          0.000025050570829318397 0.000025527759091188343 0.00002505536479220496 0.000013247180677666524 0.000014654267382804497 0.000013253049500112309
          0.00001466085064617009 0.000013269518782388495 0.000014679758212870775 0.000014248052344293894 0.000014255057268578207 0.00001427577719401824
          0.00003424524442371085 0.00003424904141917311 0.00003426036309549475 0.000012125773198690642 0.000012131463349327785 0.00001214922567955867
          0.000024712753765016705 0.00002471369524575568 0.000024716070577130974 0.000023774546952551687 0.00002377323929304704 0.000023769182284896062
          0.000011350952699307126 0.000014069012626909137 0.000011357927303941714 0.00001407337876029435 0.000011379300342967582 0.000014086272461873616
          0.000025778185011217426 0.000025780736172496187 0.000025788133132028802 0.000023154592491079113 0.000023151345141790615 0.00002313920730944692
          0.000035119055497891154 0.00003512242954665058 0.000035132853099017665 0.00002418036754688629 0.000024178541411057105 0.000024172699805303456
          0.00002447649145999116 0.000024476377259933058 0.000024476148572517882 0.000029880192534192245 0.00002987929562074312 0.000029875864137282893
          0.000016937297866038008 0.000016767955089733914 0.000014135534645278195 0.000016942327648038344 0.00001677336098413115 0.000014142927606083636
          0.00001695776219325231 0.00001678898022130526 0.00001416522603995696 0.00002373142568118855 0.00002373005814586237 0.000023727098326161054
          0.00003639225008349617 0.000035371007375302216 0.000036394453912872917 0.00003537382399261753 0.000036399572966293966 0.0000353833296180307
          0.000024675092064796105 0.0000246755736440367 0.000024676110094159306 0.00002693128236674582 0.00002693329436246549 0.000026938822782644495
          0.000011688038783584296 0.000011697463903118243 0.00001172572920077488 0.000025095496602923384 0.00002509705664975733 0.00002510149733276767
          0.00002778127044086833 0.000028904455460777647 0.000027784784319295234 0.000028908737409789205 0.000027794751726656643 0.000028921844360523028
          0.000025889887267708746 0.00002589071228853429 0.000025892957518927027 0.00002435205017424421 0.000024352335990838318 0.000024352698999600985
          0.0000382087701434396 0.00003820220008298721 0.000038181524272993636 0.00003799576133521561 0.00003799674921516582 0.00003799885241856778
          0.000023657922800587945 0.000023656736898590015 0.000023652904554992117 0.00003455452973387227 0.00003455828375128531 0.000034570237948278034
          0.00003551310104689029 0.000035688950578788455 0.00003551579196144904 0.000035690596284642606 0.00003552319850695089 0.000035694571986729595
          0.00003686280454103945 0.000036858191498275155 0.000036844709923179665 0.00003924252479708655 0.00003935969566866992 0.00003923895697772626
          0.00003935749790427337 0.000039227940394545725 0.000039351149617244886 0.000039986576595518686 0.00003998564119047375 0.00003998279652254907
          0.000041005403547459566 0.00004100327210395567 0.000040996269363143503 0.00003844367198610072 0.00003843851456355577 0.000038422034353153445
          0.000041250479572717434 0.00004074587939807089 0.00004124656525573808 0.000040740667223704306 0.00004123666470164323 0.000040725055873204244
          0.00003935093306999804 0.00003934676528726599 0.00003933182972169819 0.00003898557141729342 0.000038978876563063784 0.000038955979422850835
        </DataArray>
        <DataArray type="Float64" Name="disp_y" format="ascii" RangeMin="-0.000013799962045733456" RangeMax="0">
          -0.000010769255350314593 -0.000011264070158811041 -0.000011587377148042852 -0.000011159819146063664 -0.000010770942379133193 -0.000011265604491905877
          -0.00001158932971928654 -0.0000111620835170879 -0.000010776059107805391 -0.00001127013120523192 -0.00001159534266620211 -0.00001116893969109545
          -0.000006173318040841401 -0.000007553628845872437 -0.000007419376334893821 -0.000006340658111152172 -0.000006173387605152833 -0.00000755477189866697
          -0.000007421195042995218 -0.000006342022642521254 -0.000006173413376122122 -0.0000075580981294180616 -0.000007426628233534294 -0.000006345874053211302
          -0.000013576105371228412 -0.000013658943044462838 -0.000013576299732765033 -0.000013659212983101263 -0.000013576829324706651 -0.000013659852944780995
          -0.0000022044683471301926 -0.000001089430670457923 -9.163509989606413e-7 -0.0000018384078991309422 -0.0000022058199836444336 -0.000001089997027432118
          -9.160493575504864e-7 -0.0000018385717537448827 -0.0000022103496518864996 -0.000001091235069603748 -9.135726860153792e-7 -0.0000018404802899587964
          -0.000007451689144298481 -0.000006472275114323714 -0.00000745434938216915 -0.000006474464727549711 -0.000007462735048567458 -0.000006481387383538404
          -0.000007253093310138316 -0.000008361883577312145 -0.000008370303718993985 -0.000006940921672052819 -0.000007254577542588158 -0.000008364441084377724
          -0.000008372697642455485 -0.0000069416932250874005 -0.000007260587848255777 -0.000008371624098687 -0.000008379679676995074 -0.000006944264147682109
          -0.000003303124485323845 -0.000004198995799290684 -0.000005152160714382202 -0.000004472853385889456 -0.0000033047662862760887 -0.000004201675554615041
          -0.000005155412632782236 -0.000004474891385365102 -0.000003309936085425654 -0.0000042105714562392264 -0.0000051653337227718 -0.000004480720833018507
          -0.000010741848237137105 -0.000010344781573567496 -0.0000107443863446008 -0.000010346829416641417 -0.000010752072301907569 -0.000010352586445309423
          -0.0000013966213148307006 -6.51315222004729e-7 -8.376683424542248e-7 -0.0000017285476638441804 -0.0000013955258476339892 -6.503171822284297e-7
          -8.377185255907173e-7 -0.0000017287337688483564 -0.0000013929316995458597 -6.468313269790583e-7 -8.372255759844819e-7 -0.000001729566833250762
          -0.000012427707916003161 -0.00001178216397706877 -0.000011453847966981106 -0.000012428664624163314 -0.000011783116207999223 -0.000011454746358549927
          -0.00001243221160136626 -0.000011785331863718619 -0.000011457085308080111 -0.0000011972752589107031 -0.0000013308469385294109 -0.000002565778676494547
          -0.0000023440967991711037 -0.0000011981414203838081 -0.0000013316821535784818 -0.0000025674206735856213 -0.0000023456567435250572 -0.000001200686153161398
          -0.0000013349339009203283 -0.0000025725078275358937 -0.0000023500747845326674 -0.000005694955706606774 -0.00000652097003263826 -0.000007400203872334762
          -0.000006473537234165337 -0.000005696818464164505 -0.000006524274112282306 -0.0000074040856327812045 -0.000006475761711952296 -0.000005702617491433843
          -0.000006534430561176866 -0.00000741554627720668 -0.000006482873440392698 -0.0000033347616374997222 -0.0000033368017249352975 -0.000003342883709656379
          -0.000007470886997523006 -0.000008268611480397978 -0.000008760125405694375 -0.000007472821775541528 -0.0000082717354731833 -0.000008763246484969261
          -0.000007479504174296142 -0.000008280183433564928 -0.000008773236937833395 -0.000004757504257833176 -0.000005535399373421434 -0.000004758937343823247
          -0.000005538017747108985 -0.000004763311655690441 -0.0000055455572479026 -0.0000024810642869318757 -0.0000036467676715596373 -0.000003996536943052355
          -0.000002746759170795813 -0.000002483197614622897 -0.000003649756621150094 -0.0000039999527344933955 -0.000002749385397980334 -0.000002490708756113303
          -0.0000036584294665976444 -0.000004010183609953622 -0.0000027576047604404296 -5.29891142820046e-7 -0.0000011408643635689746 -0.0000010016212350929866
          -5.023751573253473e-7 -5.285878966204229e-7 -0.0000011392532872051765 -9.995434951201409e-7 -5.007882735096108e-7 -5.22660213251212e-7
          -0.0000011338148051774272 -9.943811344749226e-7 -4.967610057205093e-7 -0.000005710991440333203 -0.0000054911064850564754 -0.00000656291565315182
          -0.0000057140802495532555 -0.000005493325285292011 -0.000006566039581423768 -0.000005723661559420673 -0.0000054992553889031145 -0.000006575130780167604
          0 0 0 0 0 0
          -0.000008988815314971157 -0.000008265841788733008 -0.000007284428206801544 -0.000007653542198084859 -0.00000899468665358552 -0.00000827110941582792
          -0.000007289146629315606 -0.000007659150045183764 -0.000009012555242340554 -0.000008287498136374154 -0.000007303809612930747 -0.000007676734991103841
          -0.000004733151193806999 -0.000004460175960925161 -0.000004736336877410107 -0.0000044622687581511064 -0.000004745836116549603 -0.000004468796815130921
          -0.000003818331309423038 -0.000004877457727992844 -0.000003816093281616162 -0.000004875915748884801 -0.0000038092619554317037 -0.000004871035964672866
          -0.00000756731233051522 -0.000008477774938439928 -0.000007573144725595296 -0.000008483373435080512 -0.000007590955731323641 -0.000008500708213232064
          -0.000010071585452906317 -0.000010453787005472452 -0.000010497242682967414 -0.000009970881699393984 -0.000010074064362285433 -0.000010456541250705262
          -0.000010500663625256103 -0.000009974122685461814 -0.000010081132164412905 -0.00001046480300398759 -0.000010510799293897283 -0.000009983679183074101
          -0.000009298876476647826 -0.000009731358431263447 -0.00000930228711115009 -0.000009735074610287108 -0.000009311510018276994 -0.000009745178695732215
          -0.0000029118312650017576 -0.0000029092061133365767 -0.0000029014936586698237 -0.000008148958907439101 -0.000009074014139237182 -0.00000815304953061938
          -0.000009079299733259567 -0.00000816564009109521 -0.000009094847800759305 -0.000005797732458413726 -0.00000682399384801156 -0.000006210870243779888
          -0.000005798104904250571 -0.000006825298179224655 -0.000006211417203406929 -0.000005798694953848462 -0.000006829630610702953 -0.000006212713652543612
          -0.0000025340168978142274 -0.000003389512210653829 -0.0000021448389273678457 -0.0000025325376141061944 -0.0000033881887775849096 -0.0000021420875031729407
          -0.000002527949582900216 -0.0000033845996653397844 -0.0000021334611170380312 -0.000009272434113002778 -0.000009275851059958945 -0.000009285808710686566
          0 0 0 -0.000009697011628857134 -0.000008762727224850893 -0.000009697432508710897
          -0.000008762358286558945 -0.00000969870449071305 -0.000008761031411923716 -0.0000044024954583704855 -0.0000044016826030361855 -0.000004399354992662692
          -0.000010428391959461957 -0.000009738256568793389 -0.00000980856231339213 -0.000010433971908630262 -0.000009742996669804316 -0.000009814127506666302
          -0.000010450957155063456 -0.000009757802017898593 -0.000009830712492467615 -0.000006547968306668212 -0.0000064815478270541056 -0.00000655286263368398
          -0.000006486657318086354 -0.00000656750735380087 -0.000006501872097817398 -0.00001315111793185938 -0.000012959793285701885 -0.000012772215140663996
          -0.000012788362969464723 -0.000013151379180601732 -0.000012960159067917698 -0.000012772835618856369 -0.000012788996033571742 -0.000013152121148147033
          -0.000012960895227518973 -0.000012774990974975368 -0.000012790770389483943 -0.00001229863293217425 -0.000012418627587921346 -0.000012016717492236253
          -0.000011805673146571387 -0.000012299966479933777 -0.000012419974501216585 -0.000012018427287713303 -0.000011807065295938187 -0.000012304324254103847
          -0.000012424239325617241 -0.00001202363114595183 -0.000011811358134533195 -0.000010584090992611805 -0.000010615373378171923 -0.000009812414678417894
          -0.000010584871480282599 -0.000010616200158024266 -0.000009812844254622269 -0.000010588349363909934 -0.00001061936546061619 -0.000009814442142631333
          -0.000007733913553371494 -0.000007736662040871665 -0.000007745275298211461 -0.00000583328609014755 -0.000005833038641984459 -0.000005830320726789771
          -0.000013018065560098972 -0.000012765645434168413 -0.000013018358264684505 -0.00001276627028258182 -0.000013019064864080638 -0.000012768168673389548
          -0.000012472944771359352 -0.000012813665055070279 -0.000012474185934190802 -0.000012814742716438684 -0.00001247732754795044 -0.000012817927913573338
          -0.000008775913629895234 -0.000008779736456929128 -0.000008791409146067842 -0.000010692643705408553 -0.000010651519807900589 -0.00001114966466992641
          -0.000011495907673711699 -0.000010693639453613755 -0.000010652204870188218 -0.000011150351583207414 -0.000011496763680452609 -0.000010696559605752173
          -0.000010654317737836831 -0.000011152461991981752 -0.000011498978011689059 -0.000010084880330542233 -0.000010085582461300367 -0.000010087046496685639
          -0.000010119839116351393 -0.000010121230646621006 -0.000010125303993424485 -0.000009686772971956353 -0.000010276349227464903 -0.000009691883775799041
          -0.000010281651547277424 -0.00000970707462864771 -0.000010298200606279572 -0.00001040821413540755 -0.000010412989366130891 -0.000010426708702002302
          -0.000010473436366549771 -0.000009906282051794177 -0.000010477916125131517 -0.000009910523724478156 -0.000010491098658289351 -0.000009923778314779647
          -0.000010322078416158778 -0.00001032682711581208 -0.00001033812815989444 -0.000009385136475642454 -0.000009267870714804546 -0.000009387463745291322
          -0.00000927093255909365 -0.000009393971461035299 -0.000009280039543509229 -0.000009670152049350841 -0.000009671996100215906 -0.000009677239127036065
          -0.000012084111637655895 -0.000012085178034673521 -0.000012087863653912964 -0.000009214091921015147 -0.00000921799999783587 -0.000009230005239574304
          -0.0000107925521598431 -0.000010232950374366221 -0.00001079703478779248 -0.000010237595781306238 -0.000010812351446178092 -0.000010253042063255524
          -0.000009025409243295353 -0.000009030174096381713 -0.000009043828060672278 -0.000003873511504112104 -0.000004845465942307506 -0.00000387320562974264
          -0.000004845618487311007 -0.000003873005483281952 -0.000004846332250635615 -0.0000021605664588278614 -0.0000033470159954376263 -0.000002922114781646758
          -0.000002162325164325874 -0.000003349160652141582 -0.000002923992560320335 -0.0000021659350060385205 -0.000003356311526155844 -0.0000029301216067274606
          -0.00000174077047302319 -0.0000013842546010218081 -0.000003175146444227448 -0.0000017421371373490095 -0.0000013856997665622625 -0.00000317781453082717
          -0.0000017459472014533173 -0.0000013904491458507082 -0.000003185781227448231 -0.000010755561821626315 -0.000009762318472589348 -0.000010760569024089041
          -0.000009766506076752778 -0.000010777205626910502 -0.00000977797598513423 -0.0000059950216981442064 -0.00000638033337362535 -0.000005435783404344255
          -0.000005993286320005535 -0.000006379163903360246 -0.000005434566278451435 -0.000005988328957301959 -0.000006375679106068454 -0.000005431111710095582
          -0.000004187893422726041 -0.000005238250345465305 -0.00000418901460827406 -0.000005239545748828167 -0.000004193005677023043 -0.0000052432632674462535
          -0.000013754849707171922 -0.00001375562568455674 -0.000013757671922473941 0 0 0
          0 0 0 0 0 0
          0 0 0 -0.000005472591735358423 -0.000005320609976695591 -0.000005476178004944609
          -0.0000053245142131040625 -0.000005488228312933709 -0.000005335685817539722 -0.000006220618244133799 -0.000006224639335365865 -0.000006235929308013681
          0 -0.0000012361851324362095 0 -0.0000012373526368628027 0 -0.0000012405514284099104
          0 0 0 -0.000009693187856561531 -0.000009693918724446161 -0.00000969558567189994
          0 0 0 -0.000009265945325056395 -0.000009267042672351214 -0.000009270352357263697
          -0.000008825454523386062 -0.0000088269594523256 -0.000008831769114648961 -8.403994691635565e-7 0 -8.393967202347473e-7
          0 -8.32589695625497e-7 0 -0.000008375426759942855 -0.000008402704077743321 -0.000008378922042632815
          -0.000008405328106451396 -0.000008389144961743158 -0.000008413125932714224 -0.00001082399449046616 -0.000010829350906359875 -0.00001084599349471427
          -0.000012771100187501794 -0.000012772445706162184 -0.000012776401938165691 -0.000008544469841659092 -0.000008546502341326164 -0.000008552430336441546
          -0.000007112232719050272 -0.000007114883577306306 -0.00000712244350526168 -0.000011129964212647913 -0.000011134326965016345 -0.000011148945946521997
          -0.00001150724384994456 -0.000011511584389062497 -0.000011524023827481448 -0.000007045405212248988 -0.000007812265630260596 -0.000007050473139277805
          -0.000007817089803551499 -0.000007065703155001782 -0.000007831813364579263 -0.0000060326551337152054 -0.000006037410362408209 -0.000006051672177836371
          -0.000003979263695907345 -0.000004634249278109276 -0.000003981980751668218 -0.000004637371231495086 -0.000003989181677938357 -0.000004645502749586598
          -0.000012641900472864432 -0.000013070890415640468 -0.000013209499209043346 -0.000012643192318348444 -0.00001307231537577897 -0.000013210872868495501
          -0.000012647178212603626 -0.000013076435764531926 -0.00001321510558893509 -0.000013794231056381925 -0.000013795675391594462 -0.000013799962045733456
          -0.000004888698706312529 -0.000004892627118868031 -0.000004904320292948649 -0.000007900533121223756 -0.000008404054235917247 -0.000007901444838099893
          -0.00000840469510917184 -0.000007904284293313233 -0.00000840687274291148 -0.000004384224680868395 -0.000005496181330774744 -0.000004387965309566422
          -0.000005500587139519143 -0.000004399303697303198 -0.000005513867163537786 -0.000006437630283984907 -0.000006442139227373104 -0.000006456074796303088
          -0.000005056131584210179 -0.000005974336284449519 -0.000005060094541287758 -0.000005978221926403162 -0.000005072193304083712 -0.000005990746689510565
          -0.000011995943585458122 -0.000011760149808171985 -0.000011993298965415758 -0.000012204145991459355 -0.000011998678473407916 -0.000011763339331840327
          -0.000011995941626233405 -0.000012206191323899201 -0.000012006559609361273 -0.000011772102317252061 -0.000012004198155980975 -0.000012212169242244452
          -0.000012136345787502309 -0.000012138190367170813 -0.000012143603079220007 -0.000010984962146778667 -0.000010990373144874793 -0.000011007395603166297
          -0.000004978114495907989 -0.000005726562887822773 -0.00000497877600126569 -0.000005727589154417996 -0.000004980108389493233 -0.0000057309591590503794
          -0.0000082211835740822 -0.00000822538039886172 -0.000008237949578871051 -0.000006880929269862626 -0.000007210500440645061 -0.000006879417802532003
          -0.000007209584716493258 -0.000006874979053383124 -0.000007205798458538235 -0.0000017967900261163782 -0.000001521572526491914 -0.0000017952244889724509
          -0.0000015190594707775804 -0.0000017907268011385553 -0.0000015115354339068955 -0.00001373367011199936 -0.000013735395907029877 -0.000013741386531785377
          -0.000007085512003477734 -0.000006563857227531454 -0.000007089814565655966 -0.000006567619338387945 -0.00000710200137816004 -0.000006578803452716328
          -0.00001141498661978769 -0.000011370673140487584 -0.000011771270291719028 -0.000011800930285004579 -0.000011418657696810674 -0.0000113736132301542
          -0.0000117737353536539 -0.00001180382785130652 -0.000011429817255138448 -0.000011382349510708453 -0.000011781259540897305 -0.000011812392749062627
          -0.000004011278286912411 -0.000004011356945724016 -0.000004011348821089564 -0.000012189820933121759 -0.000012306116150185261 -0.00001219183754200991
          -0.000012307798762375852 -0.000012197929390673323 -0.000012312753297444754 -0.0000027221058500752182 -0.0000020320882330392295 -0.0000027226629641759572
          -0.0000020331618476384537 -0.0000027237178940013817 -0.0000020371851335769945 -0.0000010012865970473286 -0.000001001972398438366 -0.000001004960992907591
          -0.000008827938261496133 -0.000008828305683428845 -0.000008829566002296646 -0.000003061934000138926 -0.0000030616077293755422 -0.0000030610153459868574
          -0.000011692610798495904 -0.000011696330084944474 -0.000011707693134884626 -0.000012225602459742723 -0.000012228214378958613 -0.000012236397246567959
          -0.000002205990577372595 -0.000003746549726435855 -0.0000022054467290001255 -0.0000037474316314070594 -0.000002203549935760555 -0.0000037503282005937393
          -0.00001250812543963306 -0.000012509345342015159 -0.000012512941230639684 -0.000011484610202762031 -0.000011488905753903297 -0.000011498873786477454
          -0.00000913997394272237 -0.000009140177950902749 -0.000009140796298488872 -0.000003656902133385789 -0.0000036596214553389814 -0.000003668616898714817
          -0.000012403148332724074 -0.00001240464324832722 -0.000012408632650687272 -0.000007384140114771587 -0.000007387726558062236 -0.000007398055360181808
          0 -0.0000011067965405078588 0 0 -0.000001107513883313301 0
          0 -0.0000011102608070346513 0 -0.000011450399462891458 -0.000011454715513333438 -0.00001146847041355276
          -0.000008039876456014079 -0.00000819965287143282 -0.00000803947629513977 -0.000008199660766724606 -0.000008038480443918493 -0.000008199628384784171
          -0.000011299857896369752 -0.000011304676571240766 -0.000011318890999919897 -0.000010936083216826074 -0.000010939417491722074 -0.000010949269592213572
          0 0 0 -0.000012489388420345712 -0.000012490641261392317 -0.000012493822695182173
          -0.000013228922450749279 -0.000013254513948779677 -0.00001322960270355378 -0.00001325555576769187 -0.00001323135027543715 -0.000013258876552855008
          -0.000010971959307262207 -0.00001097625478507122 -0.000010989237729237364 -0.000012595072832732615 -0.00001259611987174273 -0.000012599162789074419
          -0.0000014940820584206314 -0.0000014934476440799095 -0.0000014926910232591655 -0.00000780549982925165 -0.000007804615586981038 -0.000007801364717519209
          -0.0000027245289378467904 -0.0000027267019569303767 -0.0000027318091959571754 -0.000011210436255395918 -0.000011211367298204146 -0.000011213841473373288
          -0.000007712805785839212 -0.000007041316791879869 -0.000007712663312874864 -0.000007041045831021937 -0.000007711278264936346 -0.000007039962847511217
          -0.000002878357185377028 -0.0000028791303245824313 -0.000002881055441086782 -0.0000034031215625960284 -0.000004165934682948087 -0.0000034016433655070223
          -0.000004164300684693734 -0.000003396506632233163 -0.000004159445928270328 -0.0000050932673743641535 -0.000005091150789556631 -0.0000050847818712827514
          -0.0000041694200162440065 -0.000004166913080497598 -0.000004158816841629209 -0.0000029762820260055227 -0.0000029753839674010763 -0.000002971875462950256
          0 -9.031798234767123e-7 0 -9.023406868882754e-7 0 -9.002183661027159e-7
          -0.0000029250018009897505 -0.0000029236296277769823 -0.0000029188758854847707 -0.0000018027813043503274 -0.0000018023422849838207 -0.0000018024452595187571
        </DataArray>
        <DataArray type="Float64" Name="disp_z" format="ascii" RangeMin="-8.547441721472035e-7" RangeMax="0">
          0 0 0 0 -1.7862756266570538e-7 -1.7104914348124103e-7
          -1.451278864522596e-7 -1.5540234990924286e-7 -3.5724225078844786e-7 -3.421245579321367e-7 -2.9035251458997096e-7 -3.108834303051774e-7
          0 0 0 0 -2.428952301021472e-7 -2.391146690580022e-7
          -2.4050626236855237e-7 -2.481904856869354e-7 -4.857994610889765e-7 -4.779238697377113e-7 -4.80849909287367e-7 -4.963225240957646e-7
          0 0 -1.0211003984887825e-7 -1.203219210838745e-7 -2.0441222392177694e-7 -2.409871524976785e-7
          0 0 0 0 -3.0718256430781396e-7 -3.1696621368964225e-7
          -2.814282702921502e-7 -2.8128405645084163e-7 -6.138293402577473e-7 -6.335802995652552e-7 -5.628142217206488e-7 -5.609287358193999e-7
          0 0 -2.47638413659872e-7 -2.597985545316842e-7 -4.955156371633562e-7 -5.195063167750855e-7
          0 0 0 0 -2.6957749932315206e-7 -2.4343677732795625e-7
          -2.604348136948311e-7 -2.894253464116488e-7 -5.3836381500938e-7 -4.8604723913968e-7 -5.1951438232949e-7 -5.769736875072292e-7
          0 0 0 0 -3.463930378428432e-7 -3.748032945991498e-7
          -3.4956074627436675e-7 -3.3056638406873936e-7 -6.923870773694788e-7 -7.484813467403778e-7 -6.983362822209562e-7 -6.610705256860356e-7
          0 0 -1.6690720609349537e-7 -1.841386806041083e-7 -3.3412754595482856e-7 -3.6836000217310003e-7
          0 0 0 0 -2.6273814078374615e-7 -2.46675006048861e-7
          -3.060834796114064e-7 -3.1064428933145805e-7 -5.244124599765506e-7 -4.940972274920537e-7 -6.114038506787697e-7 -6.208527697493209e-7
          0 0 0 -2.0951100921865447e-7 -2.1465380259049537e-7 -2.3320762741954805e-7
          -4.185338869751197e-7 -4.2903579484554675e-7 -4.6685329758462015e-7 0 0 0
          0 -4.16791398816681e-7 -4.2314185720879174e-7 -4.138908522482085e-7 -4.1080700776311825e-7 -8.311438308574503e-7
          -8.443854138693377e-7 -8.257334468605499e-7 -8.196024501761004e-7 0 0 0
          0 -2.970051721750826e-7 -3.002190824978264e-7 -2.783116209767027e-7 -2.8245100998582655e-7 -5.936592607005682e-7
          -6.002906677660852e-7 -5.567537150959898e-7 -5.641730781818435e-7 0 -2.9732206134948196e-7 -5.947706049011501e-7
          0 0 0 -2.626631846310361e-7 -2.4867521656024806e-7 -2.3938572861028146e-7
          -5.244994944238422e-7 -4.964429158637372e-7 -4.796364305741489e-7 0 0 -3.0491146994689647e-7
          -3.187358722914176e-7 -6.091547736582273e-7 -6.372423674396366e-7 0 0 0
          0 -3.4241465893987847e-7 -3.231023621847224e-7 -3.488084150555731e-7 -3.709970988556681e-7 -6.842782789551595e-7
          -6.46253036210511e-7 -6.972021127163165e-7 -7.409134794648465e-7 0 0 0
          0 -1.838889642579457e-7 -2.1410357146847397e-7 -1.7049055997535137e-7 -1.337656581660621e-7 -3.67901437187844e-7
          -4.2746939618465946e-7 -3.421415483921265e-7 -2.6933412809156006e-7 0 0 0
          -2.8341493934531685e-7 -2.6948215094756773e-7 -2.7013048652075587e-7 -5.669103857479449e-7 -5.392616455784605e-7 -5.406619506078571e-7
          0 0 -1.0047862807857112e-7 -1.5595369793320847e-7 -2.0362940064098877e-7 -3.122164894190255e-7
          0 0 0 0 -2.6101524727146994e-7 -2.71794405440956e-7
          -3.0659176967749444e-7 -3.1542121969740874e-7 -5.215641789366931e-7 -5.433379175794623e-7 -6.123480993506613e-7 -6.295029548577465e-7
          0 0 -3.03318157944637e-7 -2.7984025149815565e-7 -6.068723446053948e-7 -5.598296769242495e-7
          0 0 -2.586579676106454e-7 -2.764758421761975e-7 -5.163505428294626e-7 -5.514338291814911e-7
          0 0 -3.1487758121229593e-7 -2.679646222226824e-7 -6.287906042619538e-7 -5.357635159561083e-7
          0 0 0 0 -1.8765735612869656e-7 -1.7520910337750548e-7
          -1.73235985010469e-7 -1.8970219272319858e-7 -3.7574215360511904e-7 -3.509436803959899e-7 -3.474002446982322e-7 -3.801954124914827e-7
          0 0 -2.2101822449861155e-7 -2.1469588733505986e-7 -4.418348556783863e-7 -4.2726609874020485e-7
          0 -2.4021632674097085e-7 -4.794764625555674e-7 0 0 -2.55308281982277e-7
          -2.374161025469118e-7 -5.109064974005357e-7 -4.751750748172322e-7 0 0 0
          -2.805764470172592e-7 -2.7536623356885796e-7 -2.836162202923682e-7 -5.600392651882837e-7 -5.49718921514479e-7 -5.652800084671052e-7
          0 0 0 -2.4890381242161586e-7 -2.6282900081618745e-7 -2.1695981531059898e-7
          -4.972403930562169e-7 -5.25192633710586e-7 -4.3342602105240477e-7 0 -2.229363614247985e-7 -4.466372773972117e-7
          0 -2.2508757219453596e-7 -4.509122936463703e-7 0 0 -2.744505048742634e-7
          -2.7995802422286835e-7 -5.474414197285448e-7 -5.588815210812121e-7 0 -2.7142012062048323e-7 -5.42116328313462e-7
          0 0 0 -1.8696699960633006e-7 -2.084068542421028e-7 -2.1972638461871578e-7
          -3.7440304531960157e-7 -4.179029441608756e-7 -4.3943947661048727e-7 0 0 -3.468742394827217e-7
          -3.5160420439402724e-7 -6.914536973141451e-7 -7.009026640596062e-7 0 0 0
          0 -9.699041993626545e-8 -8.155164268157317e-8 -8.209412825755755e-8 -1.0181881951516651e-7 -1.9434611467304574e-7
          -1.630133830882759e-7 -1.6469987176149908e-7 -2.042334099260606e-7 0 0 0
          0 -1.5601945227927633e-7 -1.2800874249361444e-7 -1.3508337326072915e-7 -1.6417184871254505e-7 -3.1215455124869845e-7
          -2.5645681450211054e-7 -2.7040707632289185e-7 -3.284277616514223e-7 0 0 0
          -2.637358667148063e-7 -2.4302692384332467e-7 -2.626890512439043e-7 -5.27550647606586e-7 -4.856744405658627e-7 -5.254301678312138e-7
          0 -2.5931649570386745e-7 -5.183359643425057e-7 0 -2.849193096251935e-7 -5.673211262908848e-7
          0 0 -7.226524533066558e-8 -6.766829017546035e-8 -1.4542261635861408e-7 -1.36113456292579e-7
          0 0 -1.0382577103280923e-7 -1.2208276864105656e-7 -2.0822558599570087e-7 -2.444908184003936e-7
          0 -2.3301012612384328e-7 -4.6673499643811007e-7 0 0 0
          0 -1.9620724549078316e-7 -2.178021569703688e-7 -2.1340452112382519e-7 -1.8624582729478744e-7 -3.9255150230341165e-7
          -4.366562598457896e-7 -4.2665201350422444e-7 -3.72339974662534e-7 0 -2.3438730181247575e-7 -4.681366785862809e-7
          0 -1.97484956063338e-7 -3.950941087286666e-7 0 0 -2.228971994946612e-7
          -1.9948904916006264e-7 -4.461314402521228e-7 -3.9898311200680337e-7 0 -1.762006661605336e-7 -3.5262867091647784e-7
          0 0 -1.7909941647256085e-7 -1.9799086011622318e-7 -3.588032198062178e-7 -3.967117046240606e-7
          0 -1.9538720719814336e-7 -3.929770804449673e-7 0 0 -2.0419486479139312e-7
          -2.0778862660106554e-7 -4.0875182705635275e-7 -4.1624016086766574e-7 0 -2.021551096883547e-7 -4.0439887466867426e-7
          0 -1.850277621039321e-7 -3.6979820350629466e-7 0 -2.1703276072028377e-7 -4.3477425455804457e-7
          0 0 -1.69725038936353e-7 -1.9550397030235818e-7 -3.3964071320904586e-7 -3.8931374776920907e-7
          0 -2.360523045122071e-7 -4.7291547207587384e-7 0 0 -2.468561637816768e-7
          -2.436490662865013e-7 -4.926933744889307e-7 -4.869840939494198e-7 0 0 0
          -3.840807177923343e-7 -3.9354589893285175e-7 -3.833798255710705e-7 -7.663703815639037e-7 -7.841511431249963e-7 -7.666350527162959e-7
          0 0 0 -4.1149950590476513e-7 -3.894975124551224e-7 -3.9141083376623155e-7
          -8.213008598215954e-7 -7.776879542249614e-7 -7.813049017148018e-7 0 0 -1.6326030456432356e-7
          -2.135136883409858e-7 -3.2686934313067015e-7 -4.2800662493825195e-7 0 0 0
          -2.552530484846467e-7 -2.5237698757756415e-7 -2.440843294979423e-7 -5.100015408145595e-7 -5.042318324867888e-7 -4.876998379006426e-7
          0 0 -2.6331278392827567e-7 -2.5364358918968825e-7 -5.262404155032033e-7 -5.073713534338844e-7
          0 -1.440497495136175e-7 -2.885007837332296e-7 0 0 -3.9013544838782756e-7
          -4.12262787779312e-7 -7.785129475959617e-7 -8.231051354895181e-7 0 0 -4.2822402034072205e-7
          -4.2568932241134347e-7 -8.547441721472035e-7 -8.493620336850148e-7 0 0 -3.7425451024849533e-7
          -3.826941366987201e-7 -7.460844551697165e-7 -7.628012837989385e-7 0 -3.3300969215950915e-7 -6.653066844630424e-7
          0 0 -3.506958148011943e-7 -3.5567112064259603e-7 -7.002006234327063e-7 -7.104653443149454e-7
          0 -3.056610352898528e-7 -6.100677329888664e-7 0 -2.241676909592904e-7 -4.489247686499022e-7
          0 -2.5760563566547994e-7 -5.151927168497194e-7 0 -2.1766728352647064e-7 -4.3589447880528286e-7
          0 -2.2093898556148638e-7 -4.4201411964664643e-7 0 0 -2.34012442729591e-7
          -1.995364431397729e-7 -4.683921877539786e-7 -4.008908223770634e-7 0 0 -2.3301167739908107e-7
          -2.2510739873217856e-7 -4.6650797013570305e-7 -4.5046540440398314e-7 0 -1.6635108630691214e-7 -3.332687618588822e-7
          0 -1.5052696274011211e-7 -3.015501907205757e-7 0 -2.222734377194976e-7 -4.444426798541704e-7
          0 -2.7238137406992867e-7 -5.442666114922404e-7 0 -1.3438741489443745e-7 -2.7002447446316525e-7
          0 -1.2813833185161493e-7 -2.573083667986104e-7 0 0 -3.097123737135459e-7
          -2.754733536401794e-7 -6.19193295576656e-7 -5.515811537034271e-7 0 -3.473010452226437e-7 -6.937232003992815e-7
          0 0 -3.9949076289868395e-7 -3.8607361552145153e-7 -7.966786327742185e-7 -7.698034440601242e-7
          0 0 0 -1.8113718413976387e-7 -2.047391432028719e-7 -1.7538701053665635e-7
          -3.619768281054566e-7 -4.09114019804356e-7 -3.5078886747607947e-7 0 -1.703157647469664e-7 -3.408607886791155e-7
          0 -3.77171658614381e-7 -7.528359156328275e-7 0 0 -2.3741192157393254e-7
          -2.3757411664130064e-7 -4.74766945523217e-7 -4.7518480358668546e-7 0 0 -3.6638768076979057e-7
          -3.3747784085152156e-7 -7.318588676037741e-7 -6.74816563181492e-7 0 -3.0549027141709194e-7 -6.114750858192202e-7
          0 0 -3.23029010401317e-7 -2.965382885116118e-7 -6.459114587431664e-7 -5.938051796061159e-7
          0 0 0 0 -9.228421711943681e-8 -9.971817685222804e-8
          -9.018541661032208e-8 -7.88309581911415e-8 -1.8580820015066435e-7 -2.0177900624641985e-7 -1.811548980023897e-7 -1.591965562146685e-7
          0 -1.0957303772617594e-7 -2.1965481747500524e-7 0 -1.4981457847945088e-7 -3.0122442249483346e-7
          0 0 -2.8834076888038527e-7 -2.859056624184797e-7 -5.758540475181552e-7 -5.715446580883213e-7
          0 -2.488255834641361e-7 -4.983234182029207e-7 0 0 -2.658855075185753e-7
          -2.6199728261513823e-7 -5.313575116791427e-7 -5.228860165763856e-7 0 0 -2.3344470101727758e-7
          -1.930635577656041e-7 -4.662845080869838e-7 -3.861476150170468e-7 0 -1.9742748088470855e-7 -3.9500953319753506e-7
          0 0 -2.7841260443909234e-7 -2.7837014743140105e-7 -5.577505398028298e-7 -5.569077025588971e-7
          0 0 0 0 -1.3123568289357877e-7 -1.38511164508122e-7
          -1.2251589632457151e-7 -1.1154308610722075e-7 -2.63217881332609e-7 -2.777481012400663e-7 -2.4577425007342507e-7 -2.239890915848499e-7
          0 -2.854247294129178e-7 -5.701155631541026e-7 0 0 -9.221514023615416e-8
          -7.951646870799307e-8 -1.853307782303133e-7 -1.598602558420625e-7 0 0 -3.1260197972383016e-7
          -3.4408710668645815e-7 -6.248936706508855e-7 -6.874704020132058e-7 0 -3.5340901042515055e-7 -7.057934496321478e-7
          0 -2.4386740528019763e-7 -4.872454051549235e-7 0 -2.820664396068112e-7 -5.631563761424306e-7
          0 -1.1002937723032041e-7 -2.2098077066216803e-7 0 -8.000514539061974e-8 -1.6015935099258388e-7
          0 0 -2.7563837689683624e-7 -3.1313816117277144e-7 -5.502325333268488e-7 -6.25674102160289e-7
          0 -8.588516128660275e-8 -1.723600251867073e-7 0 -1.1320315987813003e-7 -2.2491902686345752e-7
          0 -2.6011400412736145e-7 -5.193728339336059e-7 0 -4.039673671183518e-7 -8.059802896722243e-7
          0 -7.121958573057723e-8 -1.432707091284854e-7 0 -2.5967450213191174e-7 -5.198053042778949e-7
          0 0 0 -3.9995440437178036e-7 -3.924264566547171e-7 -3.557380558746142e-7
          -7.97988515541124e-7 -7.832707527274103e-7 -7.097220582768975e-7 0 -1.1886280169260487e-7 -2.4055911869475994e-7
          0 0 -2.685655972250943e-7 -2.5853412099631773e-7 -5.359937239273214e-7 -5.164323259195374e-7
          0 -1.352501715362687e-7 -2.7127528629373237e-7 0 -1.5621927196385542e-7 -3.1311218392431253e-7
          0 -2.9662238290169794e-7 -5.924124298845979e-7 0 -7.416905620853351e-8 -1.4920256480350434e-7
          0 0 -1.189502574720016e-7 -1.456832190398668e-7 -2.3821316279273795e-7 -2.919339855652332e-7
          0 -1.5616494049250597e-7 -3.1314731177596477e-7 0 -6.542072492165465e-8 -1.3104794495561201e-7
          0 -2.6142896424199597e-7 -5.222629274089106e-7 0 -2.73834259470188e-7 -5.466922503248121e-7
          0 -4.1495669256408966e-7 -8.285098751463233e-7 0 -2.460692860837818e-7 -4.911249214653967e-7
          0 0 -2.534355438547907e-7 -2.465159088070942e-7 -5.059550685213315e-7 -4.926686925253537e-7
          0 -2.692624758548919e-7 -5.375964286016823e-7 0 0 -2.2439554659819697e-7
          -2.3156491575059627e-7 -4.485501780477279e-7 -4.626203895962092e-7 0 -2.4433097237354195e-7 -4.879494395628449e-7
          0 -2.2431659520734212e-7 -4.482721893422086e-7 0 -2.3923312048349254e-7 -4.780165389513779e-7
          0 0 -1.7276765502014201e-7 -1.8423280321173987e-7 -3.466147340959965e-7 -3.699715435349524e-7
          0 -2.195967224203092e-7 -4.3991562462204415e-7 0 -2.3099363899718033e-7 -4.6146827402453045e-7
        </DataArray>
      </PointData>
      <CellData>
        <DataArray type="Int32" Name="libmesh_elem_id" format="ascii" RangeMin="1392" RangeMax="3231">
          1392 1393 1402 1403 1418 1419
          1434 1435 1442 1443 1448 1449
          1454 1455 1478 1479 1500 1501
          1512 1513 1522 1523 1546 1547
          1572 1573 1582 1583 1590 1591
          1608 1609 1614 1615 1616 1617
          1630 1631 1638 1639 1650 1651
          1654 1655 1656 1657 1678 1679
          1682 1683 1684 1685 1704 1705
          1714 1715 1718 1719 1746 1747
          1760 1761 1762 1763 1772 1773
          1790 1791 1794 1795 1802 1803
          1816 1817 1824 1825 1832 1833
          1838 1839 1840 1841 1846 1847
          1848 1849 1852 1853 1856 1857
          1858 1859 1862 1863 1864 1865
          1874 1875 1876 1877 1878 1879
          1882 1883 1888 1889 1904 1905
          1906 1907 1910 1911 1916 1917
          1924 1925 1926 1927 1930 1931
          1936 1937 1946 1947 1950 1951
          1956 1957 1960 1961 1982 1983
          1996 1997 1998 1999 2026 2027
          2028 2029 2038 2039 2046 2047
          2048 2049 2052 2053 2054 2055
          2058 2059 2060 2061 2084 2085
          2088 2089 2096 2097 2102 2103
          2106 2107 2110 2111 2126 2127
          2136 2137 2138 2139 2144 2145
          2148 2149 2154 2155 2158 2159
          2162 2163 2164 2165 2170 2171
          2176 2177 2178 2179 2196 2197
          2200 2201 2202 2203 2204 2205
          2212 2213 2220 2221 2222 2223
          2224 2225 2226 2227 2228 2229
          2232 2233 2236 2237 2246 2247
          2250 2251 2252 2253 2254 2255
          2260 2261 2264 2265 2266 2267
          2274 2275 2282 2283 2308 2309
          2310 2311 2312 2313 2318 2319
          2324 2325 2328 2329 2346 2347
          2350 2351 2364 2365 2368 2369
          2370 2371 2402 2403 2416 2417
          2420 2421 2444 2445 2458 2459
          2462 2463 2466 2467 2468 2469
          2470 2471 2478 2479 2484 2485
          2488 2489 2490 2491 2502 2503
          2504 2505 2510 2511 2512 2513
          2524 2525 2550 2551 2566 2567
          2570 2571 2580 2581 2582 2583
          2602 2603 2608 2609 2616 2617
          2628 2629 2634 2635 2636 2637
          2640 2641 2642 2643 2644 2645
          2650 2651 2666 2667 2668 2669
          2684 2685 2690 2691 2696 2697
          2700 2701 2710 2711 2714 2715
          2716 2717 2726 2727 2750 2751
          2760 2761 2766 2767 2772 2773
          2782 2783 2798 2799 2802 2803
          2810 2811 2826 2827 2830 2831
          2838 2839 2860 2861 2868 2869
          2874 2875 2884 2885 2922 2923
          2928 2929 2934 2935 2938 2939
          2946 2947 2948 2949 2960 2961
          2962 2963 2964 2965 2974 2975
          2978 2979 2994 2995 2998 2999
          3004 3005 3008 3009 3020 3021
          3028 3029 3034 3035 3038 3039
          3040 3041 3042 3043 3050 3051
          3052 3053 3054 3055 3060 3061
          3066 3067 3072 3073 3076 3077
          3082 3083 3086 3087 3096 3097
          3100 3101 3102 3103 3112 3113
          3116 3117 3148 3149 3154 3155
          3158 3159 3166 3167 3182 3183
          3230 3231
        </DataArray>
        <DataArray type="Int32" Name="subdomain_id" format="ascii" RangeMin="107" RangeMax="107">
          107 107 107 107 107 107
          107 107 107 107 107 107
          107 107 107 107 107 107
          107 107 107 107 107 107
          107 107 107 107 107 107
          107 107 107 107 107 107
          107 107 107 107 107 107
          107 107 107 107 107 107
          107 107 107 107 107 107
          107 107 107 107 107 107
          107 107 107 107 107 107
          107 107 107 107 107 107
          107 107 107 107 107 107
          107 107 107 107 107 107
          107 107 107 107 107 107
          107 107 107 107 107 107
          107 107 107 107 107 107
          107 107 107 107 107 107
          107 107 107 107 107 107
          107 107 107 107 107 107
          107 107 107 107 107 107
          107 107 107 107 107 107
          107 107 107 107 107 107
          107 107 107 107 107 107
          107 107 107 107 107 107
          107 107 107 107 107 107
          107 107 107 107 107 107
          107 107 107 107 107 107
          107 107 107 107 107 107
          107 107 107 107 107 107
          107 107 107 107 107 107
          107 107 107 107 107 107
          107 107 107 107 107 107
          107 107 107 107 107 107
          107 107 107 107 107 107
          107 107 107 107 107 107
          107 107 107 107 107 107
          107 107 107 107 107 107
          107 107 107 107 107 107
          107 107 107 107 107 107
          107 107 107 107 107 107
          107 107 107 107 107 107
          107 107 107 107 107 107
          107 107 107 107 107 107
          107 107 107 107 107 107
          107 107 107 107 107 107
          107 107 107 107 107 107
          107 107 107 107 107 107
          107 107 107 107 107 107
          107 107 107 107 107 107
          107 107 107 107 107 107
          107 107 107 107 107 107
          107 107 107 107 107 107
          107 107 107 107 107 107
          107 107 107 107 107 107
          107 107 107 107 107 107
          107 107 107 107 107 107
          107 107 107 107 107 107
          107 107 107 107 107 107
          107 107 107 107 107 107
          107 107 107 107 107 107
          107 107 107 107 107 107
          107 107 107 107 107 107
          107 107 107 107 107 107
          107 107 107 107 107 107
          107 107 107 107 107 107
          107 107 107 107 107 107
          107 107 107 107 107 107
          107 107 107 107 107 107
          107 107 107 107 107 107
          107 107 107 107 107 107
          107 107 107 107 107 107
          107 107 107 107 107 107
          107 107 107 107 107 107
          107 107 107 107 107 107
          107 107
        </DataArray>
        <DataArray type="Int32" Name="processor_id" format="ascii" RangeMin="2" RangeMax="2">
          2 2 2 2 2 2
          2 2 2 2 2 2
          2 2 2 2 2 2
          2 2 2 2 2 2
          2 2 2 2 2 2
          2 2 2 2 2 2
          2 2 2 2 2 2
          2 2 2 2 2 2
          2 2 2 2 2 2
          2 2 2 2 2 2
          2 2 2 2 2 2
          2 2 2 2 2 2
          2 2 2 2 2 2
          2 2 2 2 2 2
          2 2 2 2 2 2
          2 2 2 2 2 2
          2 2 2 2 2 2
          2 2 2 2 2 2
          2 2 2 2 2 2
          2 2 2 2 2 2
          2 2 2 2 2 2
          2 2 2 2 2 2
          2 2 2 2 2 2
          2 2 2 2 2 2
          2 2 2 2 2 2
          2 2 2 2 2 2
          2 2 2 2 2 2
          2 2 2 2 2 2
          2 2 2 2 2 2
          2 2 2 2 2 2
          2 2 2 2 2 2
          2 2 2 2 2 2
          2 2 2 2 2 2
          2 2 2 2 2 2
          2 2 2 2 2 2
          2 2 2 2 2 2
          2 2 2 2 2 2
          2 2 2 2 2 2
          2 2 2 2 2 2
          2 2 2 2 2 2
          2 2 2 2 2 2
          2 2 2 2 2 2
          2 2 2 2 2 2
          2 2 2 2 2 2
          2 2 2 2 2 2
          2 2 2 2 2 2
          2 2 2 2 2 2
          2 2 2 2 2 2
          2 2 2 2 2 2
          2 2 2 2 2 2
          2 2 2 2 2 2
          2 2 2 2 2 2
          2 2 2 2 2 2
          2 2 2 2 2 2
          2 2 2 2 2 2
          2 2 2 2 2 2
          2 2 2 2 2 2
          2 2 2 2 2 2
          2 2 2 2 2 2
          2 2 2 2 2 2
          2 2 2 2 2 2
          2 2 2 2 2 2
          2 2 2 2 2 2
          2 2 2 2 2 2
          2 2 2 2 2 2
          2 2 2 2 2 2
          2 2 2 2 2 2
          2 2 2 2 2 2
          2 2 2 2 2 2
          2 2 2 2 2 2
          2 2 2 2 2 2
          2 2 2 2 2 2
          2 2 2 2 2 2
          2 2 2 2 2 2
          2 2 2 2 2 2
          2 2
        </DataArray>
      </CellData>
      <Points>
        <DataArray type="Float64" Name="Points" NumberOfComponents="3" format="ascii" RangeMin="0.0055128205128194" RangeMax="0.014586579917196396">
          0.010655961336451 0.0054415469453289 0 0.010738296327413 0.0059250363170334 0
          0.010252884061106 0.0059462536680524 0 0.010205117478458 0.0054994523140404 0
          0.010655961336451 0.0054415469453289 0.00015 0.010738296327413 0.0059250363170334 0.00015
          0.010252884061106 0.0059462536680524 0.00015 0.010205117478458 0.0054994523140404 0.00015
          0.010655961336451 0.0054415469453289 0.0003 0.010738296327413 0.0059250363170334 0.0003
          0.010252884061106 0.0059462536680524 0.0003 0.010205117478458 0.0054994523140404 0.0003
          0.011940440807394 0.0034141066074527 0 0.011459595517011 0.003824326979063 0
          0.011102612382238 0.0034627190197861 0 0.011355953963772 0.0030463545109029 0
          0.011940440807394 0.0034141066074527 0.00015 0.011459595517011 0.003824326979063 0.00015
          0.011102612382238 0.0034627190197861 0.00015 0.011355953963772 0.0030463545109029 0.00015
          0.011940440807394 0.0034141066074527 0.0003 0.011459595517011 0.003824326979063 0.0003
          0.011102612382238 0.0034627190197861 0.0003 0.011355953963772 0.0030463545109029 0.0003
          0.010057653370411 0.0084974472595183 0 0.01054988842507 0.0084422245958245 0
          0.010057653370411 0.0084974472595183 0.00015 0.01054988842507 0.0084422245958245 0.00015
          0.010057653370411 0.0084974472595183 0.0003 0.01054988842507 0.0084422245958245 0.0003
          0.011046194733105 0.00090743319272295 0 0.011064186406242 0.00044456569898216 0
          0.011549090679959 0.00043919238601916 0 0.011507246232172 0.00087204304167501 0
          0.011046194733105 0.00090743319272295 0.00015 0.011064186406242 0.00044456569898216 0.00015
          0.011549090679959 0.00043919238601916 0.00015 0.011507246232172 0.00087204304167501 0.00015
          0.011046194733105 0.00090743319272295 0.0003 0.011064186406242 0.00044456569898216 0.0003
          0.011549090679959 0.00043919238601916 0.0003 0.011507246232172 0.00087204304167501 0.0003
          0.010695724673322 0.003201084864495 0 0.010922769205465 0.002821493997395 0
          0.010695724673322 0.003201084864495 0.00015 0.010922769205465 0.002821493997395 0.00015
          0.010695724673322 0.003201084864495 0.0003 0.010922769205465 0.002821493997395 0.0003
          0.0063972422249218 0.0045440807567198 0 0.0065062213292024 0.0050164807168814 0
          0.0062389906493372 0.0053128670028646 0 0.0060512178389602 0.0047929387822649 0
          0.0063972422249218 0.0045440807567198 0.00015 0.0065062213292024 0.0050164807168814 0.00015
          0.0062389906493372 0.0053128670028646 0.00015 0.0060512178389602 0.0047929387822649 0.00015
          0.0063972422249218 0.0045440807567198 0.0003 0.0065062213292024 0.0050164807168814 0.0003
          0.0062389906493372 0.0053128670028646 0.0003 0.0060512178389602 0.0047929387822649 0.0003
          0.0077450758336629 0.0014176167893871 0 0.0081853433575 0.0016343392489207 0
          0.0081296210030831 0.0020475545417094 0 0.0077097822266787 0.0019577759081516 0
          0.0077450758336629 0.0014176167893871 0.00015 0.0081853433575 0.0016343392489207 0.00015
          0.0081296210030831 0.0020475545417094 0.00015 0.0077097822266787 0.0019577759081516 0.00015
          0.0077450758336629 0.0014176167893871 0.0003 0.0081853433575 0.0016343392489207 0.0003
          0.0081296210030831 0.0020475545417094 0.0003 0.0077097822266787 0.0019577759081516 0.0003
          0.010163700921554 0.0050965322104848 0 0.010539876174215 0.0050107335132671 0
          0.010163700921554 0.0050965322104848 0.00015 0.010539876174215 0.0050107335132671 0.00015
          0.010163700921554 0.0050965322104848 0.0003 0.010539876174215 0.0050107335132671 0.0003
          0.0067145785472978 0.00092067788586619 0 0.0066311284750677 0.00045344715700039 0
          0.0071039644964018 0.00045254776362746 0 0.0071622170579096 0.00091220258976311 0
          0.0067145785472978 0.00092067788586619 0.00015 0.0066311284750677 0.00045344715700039 0.00015
          0.0071039644964018 0.00045254776362746 0.00015 0.0071622170579096 0.00091220258976311 0.00015
          0.0067145785472978 0.00092067788586619 0.0003 0.0066311284750677 0.00045344715700039 0.0003
          0.0071039644964018 0.00045254776362746 0.0003 0.0071622170579096 0.00091220258976311 0.0003
          0.011832021157187 0.0073476785459853 0 0.011779780861271 0.0068646395959748 0
          0.012243708910156 0.0068324173193727 0 0.011832021157187 0.0073476785459853 0.00015
          0.011779780861271 0.0068646395959748 0.00015 0.012243708910156 0.0068324173193727 0.00015
          0.011832021157187 0.0073476785459853 0.0003 0.011779780861271 0.0068646395959748 0.0003
          0.012243708910156 0.0068324173193727 0.0003 0.0084907788898463 0.00044286110481525 0
          0.0089555217282148 0.00046389179151574 0 0.0088246864415892 0.00090448805343066 0
          0.0084146790711037 0.00087434414493667 0 0.0084907788898463 0.00044286110481525 0.00015
          0.0089555217282148 0.00046389179151574 0.00015 0.0088246864415892 0.00090448805343066 0.00015
          0.0084146790711037 0.00087434414493667 0.00015 0.0084907788898463 0.00044286110481525 0.0003
          0.0089555217282148 0.00046389179151574 0.0003 0.0088246864415892 0.00090448805343066 0.0003
          0.0084146790711037 0.00087434414493667 0.0003 0.0073198391209489 0.002802975731369 0
          0.007729981097025 0.0028801564362105 0 0.0077015154526268 0.0033237594367458 0
          0.0072927827923603 0.0032114269239825 0 0.0073198391209489 0.002802975731369 0.00015
          0.007729981097025 0.0028801564362105 0.00015 0.0077015154526268 0.0033237594367458 0.00015
          0.0072927827923603 0.0032114269239825 0.00015 0.0073198391209489 0.002802975731369 0.0003
          0.007729981097025 0.0028801564362105 0.0003 0.0077015154526268 0.0033237594367458 0.0003
          0.0072927827923603 0.0032114269239825 0.0003 0.011061956134478 0.0014022262787872 0
          0.011061956134478 0.0014022262787872 0.00015 0.011061956134478 0.0014022262787872 0.0003
          0.0067262777673885 0.0043003855308917 0 0.0070184374453973 0.0044097475846897 0
          0.0069143452336461 0.0047780273607631 0 0.0067262777673885 0.0043003855308917 0.00015
          0.0070184374453973 0.0044097475846897 0.00015 0.0069143452336461 0.0047780273607631 0.00015
          0.0067262777673885 0.0043003855308917 0.0003 0.0070184374453973 0.0044097475846897 0.0003
          0.0069143452336461 0.0047780273607631 0.0003 0.0072966772765568 0.0023596996909359 0
          0.0077191611848381 0.0024307703640478 0 0.0072966772765568 0.0023596996909359 0.00015
          0.0077191611848381 0.0024307703640478 0.00015 0.0072966772765568 0.0023596996909359 0.0003
          0.0077191611848381 0.0024307703640478 0.0003 0.010569749843509 0.00092230265866691 0
          0.010578573679683 0.0013844170604281 0 0.010145320905195 0.0014335884987508 0
          0.01008894187929 0.00096115561381429 0 0.010569749843509 0.00092230265866691 0.00015
          0.010578573679683 0.0013844170604281 0.00015 0.010145320905195 0.0014335884987508 0.00015
          0.01008894187929 0.00096115561381429 0.00015 0.010569749843509 0.00092230265866691 0.0003
          0.010578573679683 0.0013844170604281 0.0003 0.010145320905195 0.0014335884987508 0.0003
          0.01008894187929 0.00096115561381429 0.0003 0.0061669869081239 0.00049673093518566 0
          0.0062913293509889 0.00097410606592609 0 0.0059245902968253 0.0010856763727913 0
          0.0057061681768373 0.00065177476244477 0 0.0061669869081239 0.00049673093518566 0.00015
          0.0062913293509889 0.00097410606592609 0.00015 0.0059245902968253 0.0010856763727913 0.00015
          0.0057061681768373 0.00065177476244477 0.00015 0.0061669869081239 0.00049673093518566 0.0003
          0.0062913293509889 0.00097410606592609 0.0003 0.0059245902968253 0.0010856763727913 0.0003
          0.0057061681768373 0.00065177476244477 0.0003 0.010613957240618 0.0022894151744625 0
          0.011031068838334 0.0023895404946521 0 0.01053554486979 0.0026566023779455 0
          0.010613957240618 0.0022894151744625 0.00015 0.011031068838334 0.0023895404946521 0.00015
          0.01053554486979 0.0026566023779455 0.00015 0.010613957240618 0.0022894151744625 0.0003
          0.011031068838334 0.0023895404946521 0.0003 0.01053554486979 0.0026566023779455 0.0003
          0.0055128205128194 0 0 0.0060256410256386 0 0
          0.0055128205128194 0 0.00015 0.0060256410256386 0 0.00015
          0.0055128205128194 0 0.0003 0.0060256410256386 0 0.0003
          0.0087932726011055 0.003543484648519 0 0.0081725565838686 0.0034418576035907 0
          0.0081844882448281 0.0029554535172717 0 0.0086653225286358 0.0029358056411338 0
          0.0087932726011055 0.003543484648519 0.00015 0.0081725565838686 0.0034418576035907 0.00015
          0.0081844882448281 0.0029554535172717 0.00015 0.0086653225286358 0.0029358056411338 0.00015
          0.0087932726011055 0.003543484648519 0.0003 0.0081725565838686 0.0034418576035907 0.0003
          0.0081844882448281 0.0029554535172717 0.0003 0.0086653225286358 0.0029358056411338 0.0003
          0.010609256891376 0.0018508518753275 0 0.011063963632424 0.0019108783312894 0
          0.010609256891376 0.0018508518753275 0.00015 0.011063963632424 0.0019108783312894 0.00015
          0.010609256891376 0.0018508518753275 0.0003 0.011063963632424 0.0019108783312894 0.0003
          0.0061614658010566 0.0029736343202522 0 0.0061372854142827 0.0036106222238676 0
          0.0061614658010566 0.0029736343202522 0.00015 0.0061372854142827 0.0036106222238676 0.00015
          0.0061614658010566 0.0029736343202522 0.0003 0.0061372854142827 0.0036106222238676 0.0003
          0.0091223832784702 0.0028108558594978 0 0.0093224708097351 0.0032450014434347 0
          0.0091223832784702 0.0028108558594978 0.00015 0.0093224708097351 0.0032450014434347 0.00015
          0.0091223832784702 0.0028108558594978 0.0003 0.0093224708097351 0.0032450014434347 0.0003
          0.010365654248251 0.0046741943492533 0 0.010130092133721 0.0048347586786618 0
          0.0098673679311407 0.0047157860708196 0 0.010078628200493 0.0044157313734999 0
          0.010365654248251 0.0046741943492533 0.00015 0.010130092133721 0.0048347586786618 0.00015
          0.0098673679311407 0.0047157860708196 0.00015 0.010078628200493 0.0044157313734999 0.00015
          0.010365654248251 0.0046741943492533 0.0003 0.010130092133721 0.0048347586786618 0.0003
          0.0098673679311407 0.0047157860708196 0.0003 0.010078628200493 0.0044157313734999 0.0003
          0.0074225055052033 0.0045889494028562 0 0.0073125071067115 0.0049521547682488 0
          0.0074225055052033 0.0045889494028562 0.00015 0.0073125071067115 0.0049521547682488 0.00015
          0.0074225055052033 0.0045889494028562 0.0003 0.0073125071067115 0.0049521547682488 0.0003
          0.0061231952422177 0.002444135475079 0 0.0061231952422177 0.002444135475079 0.00015
          0.0061231952422177 0.002444135475079 0.0003 0.007634491258567 0.0037589111207536 0
          0.0080978935956725 0.0039120786728548 0 0.007634491258567 0.0037589111207536 0.00015
          0.0080978935956725 0.0039120786728548 0.00015 0.007634491258567 0.0037589111207536 0.0003
          0.0080978935956725 0.0039120786728548 0.0003 0.0067400809843091 0.0034207975388345 0
          0.0067100713183769 0.0039836679330495 0 0.0063054236008776 0.0041223407032968 0
          0.0067400809843091 0.0034207975388345 0.00015 0.0067100713183769 0.0039836679330495 0.00015
          0.0063054236008776 0.0041223407032968 0.00015 0.0067400809843091 0.0034207975388345 0.0003
          0.0067100713183769 0.0039836679330495 0.0003 0.0063054236008776 0.0041223407032968 0.0003
          0.0064429727892239 0.0018594619814901 0 0.0065003657821779 0.0023397297588745 0
          0.0060722038988066 0.0019538017587265 0 0.0064429727892239 0.0018594619814901 0.00015
          0.0065003657821779 0.0023397297588745 0.00015 0.0060722038988066 0.0019538017587265 0.00015
          0.0064429727892239 0.0018594619814901 0.0003 0.0065003657821779 0.0023397297588745 0.0003
          0.0060722038988066 0.0019538017587265 0.0003 0.0068255396015086 0.0051581133306003 0
          0.0068255396015086 0.0051581133306003 0.00015 0.0068255396015086 0.0051581133306003 0.0003
          0.0065384615384579 0 0 0.0065384615384579 0 0.00015
          0.0065384615384579 0 0.0003 0.012879713087233 0.0060908484912964 0
          0.012982043505355 0.0056371881930815 0 0.012879713087233 0.0060908484912964 0.00015
          0.012982043505355 0.0056371881930815 0.00015 0.012879713087233 0.0060908484912964 0.0003
          0.012982043505355 0.0056371881930815 0.0003 0.0065699942646101 0.0028542668018424 0
          0.0065699942646101 0.0028542668018424 0.00015 0.0065699942646101 0.0028542668018424 0.0003
          0.0084683943974961 0.0045583446766593 0 0.0079943718437571 0.0043747262241866 0
          0.0085823759797054 0.0040943119694046 0 0.0084683943974961 0.0045583446766593 0.00015
          0.0079943718437571 0.0043747262241866 0.00015 0.0085823759797054 0.0040943119694046 0.00015
          0.0084683943974961 0.0045583446766593 0.0003 0.0079943718437571 0.0043747262241866 0.0003
          0.0085823759797054 0.0040943119694046 0.0003 0.0085830886495109 0.0024681574500846 0
          0.0090044137010858 0.0023542069269131 0 0.0085830886495109 0.0024681574500846 0.00015
          0.0090044137010858 0.0023542069269131 0.00015 0.0085830886495109 0.0024681574500846 0.0003
          0.0090044137010858 0.0023542069269131 0.0003 0.0098857235699117 0.0079055319030787 0
          0.0095144479526816 0.0076594245921199 0 0.0094715724969347 0.0073263583858313 0
          0.0099283521138692 0.0073475677072736 0 0.0098857235699117 0.0079055319030787 0.00015
          0.0095144479526816 0.0076594245921199 0.00015 0.0094715724969347 0.0073263583858313 0.00015
          0.0099283521138692 0.0073475677072736 0.00015 0.0098857235699117 0.0079055319030787 0.0003
          0.0095144479526816 0.0076594245921199 0.0003 0.0094715724969347 0.0073263583858313 0.0003
          0.0099283521138692 0.0073475677072736 0.0003 0.010833716827414 0.0069257207373803 0
          0.010357413059119 0.0069077241183533 0 0.010300982556592 0.0064274708783385 0
          0.010786080808085 0.0064391381968206 0 0.010833716827414 0.0069257207373803 0.00015
          0.010357413059119 0.0069077241183533 0.00015 0.010300982556592 0.0064274708783385 0.00015
          0.010786080808085 0.0064391381968206 0.00015 0.010833716827414 0.0069257207373803 0.0003
          0.010357413059119 0.0069077241183533 0.0003 0.010300982556592 0.0064274708783385 0.0003
          0.010786080808085 0.0064391381968206 0.0003 0.012723582323863 0.006509831652106 0
          0.012251440655851 0.0062918667587536 0 0.012542392069256 0.0059723735377719 0
          0.012723582323863 0.006509831652106 0.00015 0.012251440655851 0.0062918667587536 0.00015
          0.012542392069256 0.0059723735377719 0.00015 0.012723582323863 0.006509831652106 0.0003
          0.012251440655851 0.0062918667587536 0.0003 0.012542392069256 0.0059723735377719 0.0003
          0.0071151184692216 0.0040272738406853 0 0.0071151184692216 0.0040272738406853 0.00015
          0.0071151184692216 0.0040272738406853 0.0003 0.005927800859391 0.0043689372395662 0
          0.005927800859391 0.0043689372395662 0.00015 0.005927800859391 0.0043689372395662 0.0003
          0.0092411258002763 0.0078319639415625 0 0.0089588909882048 0.0073942383853577 0
          0.0092411258002763 0.0078319639415625 0.00015 0.0089588909882048 0.0073942383853577 0.00015
          0.0092411258002763 0.0078319639415625 0.0003 0.0089588909882048 0.0073942383853577 0.0003
          0.009874674666521 0.0068715373563056 0 0.010410157305432 0.007394545582291 0
          0.009874674666521 0.0068715373563056 0.00015 0.010410157305432 0.007394545582291 0.00015
          0.009874674666521 0.0068715373563056 0.0003 0.010410157305432 0.007394545582291 0.0003
          0.0075354000991736 0.004186248288406 0 0.0075354000991736 0.004186248288406 0.00015
          0.0075354000991736 0.004186248288406 0.0003 0.01131847387487 0.0058224977902188 0
          0.011696082283392 0.0060272916092408 0 0.011725204011411 0.0063910302275778 0
          0.011265055974573 0.0064250601080915 0 0.01131847387487 0.0058224977902188 0.00015
          0.011696082283392 0.0060272916092408 0.00015 0.011725204011411 0.0063910302275778 0.00015
          0.011265055974573 0.0064250601080915 0.00015 0.01131847387487 0.0058224977902188 0.0003
          0.011696082283392 0.0060272916092408 0.0003 0.011725204011411 0.0063910302275778 0.0003
          0.011265055974573 0.0064250601080915 0.0003 0.012000241143886 0.0058170880130831 0
          0.012000241143886 0.0058170880130831 0.00015 0.012000241143886 0.0058170880130831 0.0003
          0.011120492592586 0.0052514705902296 0 0.011120492592586 0.0052514705902296 0.00015
          0.011120492592586 0.0052514705902296 0.0003 0.0092910901193945 0.0039260363263486 0
          0.0090503465409481 0.0043132092761106 0 0.0092910901193945 0.0039260363263486 0.00015
          0.0090503465409481 0.0043132092761106 0.00015 0.0092910901193945 0.0039260363263486 0.0003
          0.0090503465409481 0.0043132092761106 0.0003 0.007889027184575 0.0048982243533992 0
          0.007889027184575 0.0048982243533992 0.00015 0.007889027184575 0.0048982243533992 0.0003
          0.0094935553236164 0.004533528646427 0 0.0097061514105808 0.0041851036755216 0
          0.0094935553236164 0.004533528646427 0.00015 0.0097061514105808 0.0041851036755216 0.00015
          0.0094935553236164 0.004533528646427 0.0003 0.0097061514105808 0.0041851036755216 0.0003
          0.007602124101561 0.0050930903063015 0 0.007602124101561 0.0050930903063015 0.00015
          0.007602124101561 0.0050930903063015 0.0003 0.010723762445737 0.0044202706845482 0
          0.010410164583979 0.0041181159817359 0 0.010723762445737 0.0044202706845482 0.00015
          0.010410164583979 0.0041181159817359 0.00015 0.010723762445737 0.0044202706845482 0.0003
          0.010410164583979 0.0041181159817359 0.0003 0.01095205032792 0.0047963590452232 0
          0.01095205032792 0.0047963590452232 0.00015 0.01095205032792 0.0047963590452232 0.0003
          0.011303178752756 0.0069106117689346 0 0.011303178752756 0.0069106117689346 0.00015
          0.011303178752756 0.0069106117689346 0.0003 0.01003253261535 0.0038623502872685 0
          0.01003253261535 0.0038623502872685 0.00015 0.01003253261535 0.0038623502872685 0.0003
          0.0076528923620256 0.0053996878686031 0 0.0072494384034052 0.005322441352826 0
          0.0076528923620256 0.0053996878686031 0.00015 0.0072494384034052 0.005322441352826 0.00015
          0.0076528923620256 0.0053996878686031 0.0003 0.0072494384034052 0.005322441352826 0.0003
          0.0096442187720765 0.0035928190702974 0 0.0096442187720765 0.0035928190702974 0.00015
          0.0096442187720765 0.0035928190702974 0.0003 0.012013949131265 0.002158444108951 0
          0.012018063243501 0.0027123142038817 0 0.012013949131265 0.002158444108951 0.00015
          0.012018063243501 0.0027123142038817 0.00015 0.012013949131265 0.002158444108951 0.0003
          0.012018063243501 0.0027123142038817 0.0003 0.0080144547016537 0.00086684480617367 0
          0.008304219624614 0.0012703006012415 0 0.0080327132462595 0.0011721512048422 0
          0.0080144547016537 0.00086684480617367 0.00015 0.008304219624614 0.0012703006012415 0.00015
          0.0080327132462595 0.0011721512048422 0.00015 0.0080144547016537 0.00086684480617367 0.0003
          0.008304219624614 0.0012703006012415 0.0003 0.0080327132462595 0.0011721512048422 0.0003
          0.0094736490244467 0.0005865877812969 0 0.010068957850501 0.00047856930843549 0
          0.0096358530086744 0.0010887425154837 0 0.0094736490244467 0.0005865877812969 0.00015
          0.010068957850501 0.00047856930843549 0.00015 0.0096358530086744 0.0010887425154837 0.00015
          0.0094736490244467 0.0005865877812969 0.0003 0.010068957850501 0.00047856930843549 0.0003
          0.0096358530086744 0.0010887425154837 0.0003 0.0071984303565192 0.0057392272964834 0
          0.0067200519522164 0.0055550541115669 0 0.0071984303565192 0.0057392272964834 0.00015
          0.0067200519522164 0.0055550541115669 0.00015 0.0071984303565192 0.0057392272964834 0.0003
          0.0067200519522164 0.0055550541115669 0.0003 0.013091675611077 0.0041736873632184 0
          0.012621380555602 0.004071395146678 0 0.012601464682814 0.0035037767307713 0
          0.013091675611077 0.0041736873632184 0.00015 0.012621380555602 0.004071395146678 0.00015
          0.012601464682814 0.0035037767307713 0.00015 0.013091675611077 0.0041736873632184 0.0003
          0.012621380555602 0.004071395146678 0.0003 0.012601464682814 0.0035037767307713 0.0003
          0.01153639784925 0.0020208067996516 0 0.011496246026306 0.0025480504488598 0
          0.01153639784925 0.0020208067996516 0.00015 0.011496246026306 0.0025480504488598 0.00015
          0.01153639784925 0.0020208067996516 0.0003 0.011496246026306 0.0025480504488598 0.0003
          0.011043213382792 0.0084269911709333 0 0.011043213382792 0.0084269911709333 0.00015
          0.011043213382792 0.0084269911709333 0.0003 0.010128205128191 0 0
          0.0096153846153732 0 0 0.010128205128191 0 0.00015
          0.0096153846153732 0 0.00015 0.010128205128191 0 0.0003
          0.0096153846153732 0 0.0003 0.0091025641025551 0 0
          0.0085897435897353 0 0 0.0091025641025551 0 0.00015
          0.0085897435897353 0 0.00015 0.0091025641025551 0 0.0003
          0.0085897435897353 0 0.0003 0.0085182476127008 0.0020437661198126 0
          0.0089029205554566 0.0019047336662455 0 0.0085182476127008 0.0020437661198126 0.00015
          0.0089029205554566 0.0019047336662455 0.00015 0.0085182476127008 0.0020437661198126 0.0003
          0.0089029205554566 0.0019047336662455 0.0003 0.0081522818828449 0.0024947087352937 0
          0.0081522818828449 0.0024947087352937 0.00015 0.0081522818828449 0.0024947087352937 0.0003
          0.010641025641009 0 0 0.010579843756946 0.00045349299099366 0
          0.010641025641009 0 0.00015 0.010579843756946 0.00045349299099366 0.00015
          0.010641025641009 0 0.0003 0.010579843756946 0.00045349299099366 0.0003
          0.011153846153828 0 0 0.011153846153828 0 0.00015
          0.011153846153828 0 0.0003 0.011760912133753 0.0054122119446059 0
          0.011760912133753 0.0054122119446059 0.00015 0.011760912133753 0.0054122119446059 0.0003
          0.011666666666648 0 0 0.011666666666648 0 0.00015
          0.011666666666648 0 0.0003 0.011547825504055 0.0049713459697514 0
          0.011547825504055 0.0049713459697514 0.00015 0.011547825504055 0.0049713459697514 0.0003
          0.011349632014182 0.0045239710214715 0 0.011349632014182 0.0045239710214715 0.00015
          0.011349632014182 0.0045239710214715 0.0003 0.011997463288521 0.00046572766410539 0
          0.012179487179468 0 0 0.011997463288521 0.00046572766410539 0.00015
          0.012179487179468 0 0.00015 0.011997463288521 0.00046572766410539 0.0003
          0.012179487179468 0 0.0003 0.01039056673058 0.0035410773695937 0
          0.010772622187787 0.0038062315725381 0 0.01039056673058 0.0035410773695937 0.00015
          0.010772622187787 0.0038062315725381 0.00015 0.01039056673058 0.0035410773695937 0.0003
          0.010772622187787 0.0038062315725381 0.0003 0.0089323359070786 0.0047421281357296 0
          0.0089323359070786 0.0047421281357296 0.00015 0.0089323359070786 0.0047421281357296 0.0003
          0.010891746765568 0.007407252260552 0 0.010891746765568 0.007407252260552 0.00015
          0.010891746765568 0.007407252260552 0.0003 0.011089383238376 0.0041358143249023 0
          0.011089383238376 0.0041358143249023 0.00015 0.011089383238376 0.0041358143249023 0.0003
          0.007205317033861 0.0036141963404016 0 0.007205317033861 0.0036141963404016 0.00015
          0.007205317033861 0.0036141963404016 0.0003 0.0080269839945158 0.0054023282425744 0
          0.0080269839945158 0.0054023282425744 0.00015 0.0080269839945158 0.0054023282425744 0.0003
          0.0077721363879251 0.0058968168784219 0 0.0077721363879251 0.0058968168784219 0.00015
          0.0077721363879251 0.0058968168784219 0.0003 0.0095370253310475 0.0025850582106885 0
          0.009732219723835 0.0029713438236062 0 0.0095370253310475 0.0025850582106885 0.00015
          0.009732219723835 0.0029713438236062 0.00015 0.0095370253310475 0.0025850582106885 0.0003
          0.009732219723835 0.0029713438236062 0.0003 0.0094100372761059 0.0021522308351028 0
          0.0094100372761059 0.0021522308351028 0.00015 0.0094100372761059 0.0021522308351028 0.0003
          0.0087313387484914 0.001424359608332 0 0.0084651319029022 0.0017289788972556 0
          0.0087313387484914 0.001424359608332 0.00015 0.0084651319029022 0.0017289788972556 0.00015
          0.0087313387484914 0.001424359608332 0.0003 0.0084651319029022 0.0017289788972556 0.0003
          0.011363196701121 0.0073867521895413 0 0.011894488312007 0.0078344841271679 0
          0.011431801070778 0.0078815011129823 0 0.011363196701121 0.0073867521895413 0.00015
          0.011894488312007 0.0078344841271679 0.00015 0.011431801070778 0.0078815011129823 0.00015
          0.011363196701121 0.0073867521895413 0.0003 0.011894488312007 0.0078344841271679 0.0003
          0.011431801070778 0.0078815011129823 0.0003 0.011511795106494 0.0083968566041475 0
          0.011511795106494 0.0083968566041475 0.00015 0.011511795106494 0.0083968566041475 0.0003
          0.0093066157528448 0.0017085494075796 0 0.0093066157528448 0.0017085494075796 0.00015
          0.0093066157528448 0.0017085494075796 0.0003 0.011737204813157 0.0042624504192267 0
          0.011920232844873 0.0047153506313134 0 0.011737204813157 0.0042624504192267 0.00015
          0.011920232844873 0.0047153506313134 0.00015 0.011737204813157 0.0042624504192267 0.0003
          0.011920232844873 0.0047153506313134 0.0003 0.0097199155871303 0.0015315099671301 0
          0.0098040259351994 0.0019696894002764 0 0.0097199155871303 0.0015315099671301 0.00015
          0.0098040259351994 0.0019696894002764 0.00015 0.0097199155871303 0.0015315099671301 0.0003
          0.0098040259351994 0.0019696894002764 0.0003 0.0099068743951204 0.0023814903757239 0
          0.0099068743951204 0.0023814903757239 0.00015 0.0099068743951204 0.0023814903757239 0.0003
          0.010196799496301 0.0018655242590307 0 0.010252080701677 0.0022738797315184 0
          0.010196799496301 0.0018655242590307 0.00015 0.010252080701677 0.0022738797315184 0.00015
          0.010196799496301 0.0018655242590307 0.0003 0.010252080701677 0.0022738797315184 0.0003
          0.0082479601882269 0.0062087007836213 0 0.0083721174281176 0.0058457654542534 0
          0.0087793359412623 0.006030240425184 0 0.0086690881028679 0.0063945203238097 0
          0.0082479601882269 0.0062087007836213 0.00015 0.0083721174281176 0.0058457654542534 0.00015
          0.0087793359412623 0.006030240425184 0.00015 0.0086690881028679 0.0063945203238097 0.00015
          0.0082479601882269 0.0062087007836213 0.0003 0.0083721174281176 0.0058457654542534 0.0003
          0.0087793359412623 0.006030240425184 0.0003 0.0086690881028679 0.0063945203238097 0.0003
          0.0098103305116681 0.0063862496116293 0 0.0098103305116681 0.0063862496116293 0.00015
          0.0098103305116681 0.0063862496116293 0.0003 0.0084248193747317 0.0050261658136402 0
          0.0084248193747317 0.0050261658136402 0.00015 0.0084248193747317 0.0050261658136402 0.0003
          0.0069463016830039 0.0027787422025108 0 0.0070048409545821 0.0031125297586922 0
          0.0069463016830039 0.0027787422025108 0.00015 0.0070048409545821 0.0031125297586922 0.00015
          0.0069463016830039 0.0027787422025108 0.0003 0.0070048409545821 0.0031125297586922 0.0003
          0.010028456835002 0.0032748409090605 0 0.010028456835002 0.0032748409090605 0.00015
          0.010028456835002 0.0032748409090605 0.0003 0.013084530633285 0.0046685927017207 0
          0.012657407202949 0.0045740785705039 0 0.013084530633285 0.0046685927017207 0.00015
          0.012657407202949 0.0045740785705039 0.00015 0.013084530633285 0.0046685927017207 0.0003
          0.012657407202949 0.0045740785705039 0.0003 0.0063788755008874 0.0014091508241809 0
          0.0060137569775388 0.0015029488511318 0 0.0063788755008874 0.0014091508241809 0.00015
          0.0060137569775388 0.0015029488511318 0.00015 0.0063788755008874 0.0014091508241809 0.0003
          0.0060137569775388 0.0015029488511318 0.0003 0.01196380743939 0.0083394019710021 0
          0.01196380743939 0.0083394019710021 0.00015 0.01196380743939 0.0083394019710021 0.0003
          0.010073855840534 0.0027196155419985 0 0.010289681297386 0.0025561678844121 0
          0.010073855840534 0.0027196155419985 0.00015 0.010289681297386 0.0025561678844121 0.00015
          0.010073855840534 0.0027196155419985 0.0003 0.010289681297386 0.0025561678844121 0.0003
          0.0093223919318803 0.0053434698815888 0 0.009764317340127 0.0054658727348424 0
          0.0097769212248058 0.0059119658621614 0 0.0093027527337708 0.0057939169389015 0
          0.0093223919318803 0.0053434698815888 0.00015 0.009764317340127 0.0054658727348424 0.00015
          0.0097769212248058 0.0059119658621614 0.00015 0.0093027527337708 0.0057939169389015 0.00015
          0.0093223919318803 0.0053434698815888 0.0003 0.009764317340127 0.0054658727348424 0.0003
          0.0097769212248058 0.0059119658621614 0.0003 0.0093027527337708 0.0057939169389015 0.0003
          0.0068882925124701 0.0023177669638962 0 0.0068882925124701 0.0023177669638962 0.00015
          0.0068882925124701 0.0023177669638962 0.0003 0.0092499592325966 0.0063238181416562 0
          0.0089620052424248 0.0065330227489775 0 0.0092499592325966 0.0063238181416562 0.00015
          0.0089620052424248 0.0065330227489775 0.00015 0.0092499592325966 0.0063238181416562 0.0003
          0.0089620052424248 0.0065330227489775 0.0003 0.0072168253422346 0.001397514094839 0
          0.0076041066380058 0.00089936619415626 0 0.0072168253422346 0.001397514094839 0.00015
          0.0076041066380058 0.00089936619415626 0.00015 0.0072168253422346 0.001397514094839 0.0003
          0.0076041066380058 0.00089936619415626 0.0003 0.0075718226613923 0.00044755222139025 0
          0.0075718226613923 0.00044755222139025 0.00015 0.0075718226613923 0.00044755222139025 0.0003
          0.012116660000204 0.0051206445675074 0 0.012116660000204 0.0051206445675074 0.00015
          0.012116660000204 0.0051206445675074 0.0003 0.0068338524094732 0.0018398489073113 0
          0.0068338524094732 0.0018398489073113 0.00015 0.0068338524094732 0.0018398489073113 0.0003
          0.0088473960481577 0.0056214227923259 0 0.0088473960481577 0.0056214227923259 0.00015
          0.0088473960481577 0.0056214227923259 0.0003 0.0081402125110085 0.0066115625704341 0
          0.0081402125110085 0.0066115625704341 0.00015 0.0081402125110085 0.0066115625704341 0.0003
          0.0067824993802385 0.0013824026215467 0 0.0072591856110724 0.0018865642034293 0
          0.0067824993802385 0.0013824026215467 0.00015 0.0072591856110724 0.0018865642034293 0.00015
          0.0067824993802385 0.0013824026215467 0.0003 0.0072591856110724 0.0018865642034293 0.0003
          0.0094035295411974 0.0068662830960629 0 0.0094035295411974 0.0068662830960629 0.00015
          0.0094035295411974 0.0068662830960629 0.0003 0.0080770297303238 0.0057078658228848 0
          0.0080770297303238 0.0057078658228848 0.00015 0.0080770297303238 0.0057078658228848 0.0003
          0.012455160230445 0.0055307966461266 0 0.012455160230445 0.0055307966461266 0.00015
          0.012455160230445 0.0055307966461266 0.0003 0.0092134396095011 0.0012639463069257 0
          0.0092134396095011 0.0012639463069257 0.00015 0.0092134396095011 0.0012639463069257 0.0003
          0.0085681017610313 0.0067725899286886 0 0.0085681017610313 0.0067725899286886 0.00015
          0.0085681017610313 0.0067725899286886 0.0003 0.010337781301114 0.0029713007827362 0
          0.010337781301114 0.0029713007827362 0.00015 0.010337781301114 0.0029713007827362 0.0003
          0.0080769230769162 0 0 0.0080362994401078 0.00044130282391618 0
          0.0075641025640979 0 0 0.0080769230769162 0 0.00015
          0.0080362994401078 0.00044130282391618 0.00015 0.0075641025640979 0 0.00015
          0.0080769230769162 0 0.0003 0.0080362994401078 0.00044130282391618 0.0003
          0.0075641025640979 0 0.0003 0.0084157309119158 0.0054663429893237 0
          0.0084157309119158 0.0054663429893237 0.00015 0.0084157309119158 0.0054663429893237 0.0003
          0.012625060394875 0.0050215313919928 0 0.012340535819996 0.0049145470001145 0
          0.012625060394875 0.0050215313919928 0.00015 0.012340535819996 0.0049145470001145 0.00015
          0.012625060394875 0.0050215313919928 0.0003 0.012340535819996 0.0049145470001145 0.0003
          0.0088807280393962 0.0051824777758032 0 0.0088807280393962 0.0051824777758032 0.00015
          0.0088807280393962 0.0051824777758032 0.0003 0.00978640191627 0.0050564284414982 0
          0.00978640191627 0.0050564284414982 0.00015 0.00978640191627 0.0050564284414982 0.0003
          0.007051282051278 0 0 0.007051282051278 0 0.00015
          0.007051282051278 0 0.0003 0.0089738769927721 0.0068608682916542 0
          0.0089738769927721 0.0068608682916542 0.00015 0.0089738769927721 0.0068608682916542 0.0003
          0.010464396561549 0.007914442793445 0 0.010959162019398 0.0079079830093058 0
          0.010464396561549 0.007914442793445 0.00015 0.010959162019398 0.0079079830093058 0.00015
          0.010464396561549 0.007914442793445 0.0003 0.010959162019398 0.0079079830093058 0.0003
          0.0093768424757788 0.0049206652486621 0 0.0093768424757788 0.0049206652486621 0.00015
          0.0093768424757788 0.0049206652486621 0.0003 0.0084364690699339 0.0071912877673881 0
          0.0084364690699339 0.0071912877673881 0.00015 0.0084364690699339 0.0071912877673881 0.0003
          0.011870414872976 0.00080294526771027 0 0.011870414872976 0.00080294526771027 0.00015
          0.011870414872976 0.00080294526771027 0.0003 0.013048655853798 0.0051555709380823 0
          0.013048655853798 0.0051555709380823 0.00015 0.013048655853798 0.0051555709380823 0.0003
          0.0091480378790118 0.00093783666102615 0 0.0091480378790118 0.00093783666102615 0.00015
          0.0091480378790118 0.00093783666102615 0.0003 0.012592651705639 0.0068198098450163 0
          0.012592651705639 0.0068198098450163 0.00015 0.012592651705639 0.0068198098450163 0.0003
          0.012272070002081 0.0045810549534562 0 0.012153081904124 0.0040944528080542 0
          0.012272070002081 0.0045810549534562 0.00015 0.012153081904124 0.0040944528080542 0.00015
          0.012272070002081 0.0045810549534562 0.0003 0.012153081904124 0.0040944528080542 0.0003
          0.011634800364854 0.0014122839921498 0 0.011634800364854 0.0014122839921498 0.00015
          0.011634800364854 0.0014122839921498 0.0003 0.012451479243686 0.0021914486022899 0
          0.012674188674928 0.0028095410694266 0 0.012451479243686 0.0021914486022899 0.00015
          0.012674188674928 0.0028095410694266 0.00015 0.012451479243686 0.0021914486022899 0.0003
          0.012674188674928 0.0028095410694266 0.0003 0.013121586466294 0.0036708577033715 0
          0.013121586466294 0.0036708577033715 0.00015 0.013121586466294 0.0036708577033715 0.0003
          0.013248150362312 0.0031919567697963 0 0.013248150362312 0.0031919567697963 0.00015
          0.013248150362312 0.0031919567697963 0.0003 0.012096711335481 0.0017058387426491 0
          0.012096711335481 0.0017058387426491 0.00015 0.012096711335481 0.0017058387426491 0.0003
          0.012692307692288 0 0 0.012542896420733 0.00061304595643839 0
          0.012692307692288 0 0.00015 0.012542896420733 0.00061304595643839 0.00015
          0.012692307692288 0 0.0003 0.012542896420733 0.00061304595643839 0.0003
          0.012384518900215 0.0018567382086698 0 0.012384518900215 0.0018567382086698 0.00015
          0.012384518900215 0.0018567382086698 0.0003 0.012087580163866 0.0010424427844857 0
          0.012087580163866 0.0010424427844857 0.00015 0.012087580163866 0.0010424427844857 0.0003
          <InformationKey name="L2_NORM_RANGE" location="vtkDataArray" length="2">
            <Value index="0">
              0.0055128205128
            </Value>
            <Value index="1">
              0.014586579917
            </Value>
          </InformationKey>
        </DataArray>
      </Points>
      <Cells>
        <DataArray type="Int64" Name="connectivity" format="ascii" RangeMin="0" RangeMax="773">
          0 1 2 3 4 5
          6 7 4 5 6 7
          8 9 10 11 12 13
          14 15 16 17 18 19
          16 17 18 19 20 21
          22 23 30 31 32 33
          34 35 36 37 34 35
          36 37 38 39 40 41
          15 14 42 43 19 18
          44 45 19 18 44 45
          23 22 46 47 48 49
          50 51 52 53 54 55
          52 53 54 55 56 57
          58 59 60 61 62 63
          64 65 66 67 64 65
          66 67 68 69 70 71
          3 72 73 0 7 74
          75 4 7 74 75 4
          11 76 77 8 78 79
          80 81 82 83 84 85
          82 83 84 85 86 87
          88 89 99 100 101 102
          103 104 105 106 103 104
          105 106 107 108 109 110
          111 112 113 114 115 116
          117 118 115 116 117 118
          119 120 121 122 744 123
          30 33 745 124 34 37
          745 124 34 37 746 125
          38 41 48 126 127 128
          52 129 130 131 52 129
          130 131 56 132 133 134
          135 136 112 111 137 138
          116 115 137 138 116 115
          139 140 120 119 141 142
          143 144 145 146 147 148
          145 146 147 148 149 150
          151 152 153 154 155 156
          157 158 159 160 157 158
          159 160 161 162 163 164
          165 166 43 167 168 169
          45 170 168 169 45 170
          171 172 47 173 174 175
          153 156 176 177 157 160
          176 177 157 160 178 179
          161 164 180 181 182 183
          184 185 186 187 184 185
          186 187 188 189 190 191
          166 165 192 193 169 168
          194 195 169 168 194 195
          172 171 196 197 112 182
          181 113 116 186 185 117
          116 186 185 117 120 190
          189 121 204 205 180 183
          206 207 184 187 206 207
          184 187 208 209 188 191
          210 211 212 213 214 215
          216 217 214 215 216 217
          218 219 220 221 222 223
          128 127 224 225 131 130
          224 225 131 130 226 227
          134 133 154 153 79 78
          158 157 83 82 158 157
          83 82 162 161 87 86
          231 113 181 232 233 117
          185 234 233 117 185 234
          235 121 189 236 237 238
          239 199 240 241 242 201
          240 241 242 201 243 244
          245 203 246 247 228 248
          249 250 229 251 249 250
          229 251 252 253 230 254
          255 49 48 128 256 53
          52 131 256 53 52 131
          257 57 56 134 175 258
          79 153 177 259 83 157
          177 259 83 157 179 260
          87 161 267 237 199 198
          268 240 201 200 268 240
          201 200 269 243 203 202
          270 271 232 272 273 274
          234 275 273 274 234 275
          276 277 236 278 267 198
          228 247 268 200 229 250
          268 200 229 250 269 202
          230 253 183 279 280 204
          187 281 282 206 187 281
          282 206 191 283 284 208
          285 286 287 288 289 290
          291 292 289 290 291 292
          293 294 295 296 297 298
          299 300 301 302 303 304
          301 302 303 304 305 306
          307 308 261 309 310 311
          263 312 313 314 263 312
          313 314 265 315 316 317
          238 318 127 126 241 319
          130 129 241 319 130 129
          244 320 133 132 324 325
          287 286 326 327 291 290
          326 327 291 290 328 329
          295 294 330 298 331 288
          332 302 333 292 332 302
          333 292 334 306 335 296
          318 336 222 127 319 337
          224 130 319 337 224 130
          320 338 226 133 339 340
          341 342 343 344 345 346
          343 344 345 346 347 348
          349 350 300 1 339 342
          304 5 343 346 304 5
          343 346 308 9 347 350
          351 310 341 340 352 313
          345 344 352 313 345 344
          353 316 349 348 354 339
          1 0 355 343 5 4
          355 343 5 4 356 347
          9 8 357 358 272 180
          359 360 275 184 359 360
          275 184 361 362 278 188
          48 239 238 126 52 242
          241 129 52 242 241 129
          56 245 244 132 336 271
          363 222 337 274 364 224
          337 274 364 224 338 277
          365 226 51 321 239 48
          55 322 242 52 55 322
          242 52 59 323 245 56
          366 367 213 212 368 369
          217 216 368 369 217 216
          370 371 221 220 223 222
          363 372 225 224 364 373
          225 224 364 373 227 226
          365 374 375 210 213 376
          377 214 217 378 377 214
          217 378 379 218 221 380
          375 381 73 210 377 382
          75 214 377 382 75 214
          379 383 77 218 381 354
          0 73 382 355 4 75
          382 355 4 75 383 356
          8 77 297 300 342 384
          301 304 346 385 301 304
          346 385 305 308 350 386
          376 213 367 387 378 217
          369 388 378 217 369 388
          380 221 371 389 223 372
          390 391 225 373 392 393
          225 373 392 393 227 374
          394 395 396 357 180 205
          397 359 184 207 397 359
          184 207 398 361 188 209
          387 367 357 396 388 369
          359 397 388 369 359 397
          389 371 361 398 399 747
          748 400 401 749 750 402
          401 749 750 402 403 751
          752 404 405 102 406 407
          408 106 409 410 408 106
          409 410 411 110 412 413
          180 272 232 181 184 275
          234 185 184 275 234 185
          188 278 236 189 414 415
          144 416 417 418 148 419
          417 418 148 419 420 421
          152 422 423 424 255 391
          425 426 256 393 425 426
          256 393 427 428 257 395
          429 430 431 753 432 433
          434 754 432 433 434 754
          435 436 437 755 438 399
          400 439 440 401 402 441
          440 401 402 441 442 403
          404 443 447 415 414 448
          449 418 417 450 449 418
          417 450 451 421 420 452
          453 100 99 454 455 104
          103 456 455 104 103 456
          457 108 107 458 279 459
          460 280 281 461 462 282
          281 461 462 282 283 463
          464 284 279 465 62 459
          281 466 66 461 281 466
          66 461 283 467 70 463
          448 414 100 453 450 417
          104 455 450 417 104 455
          452 420 108 457 468 469
          415 447 470 471 418 449
          470 471 418 449 472 473
          421 451 753 431 748 756
          754 434 750 757 754 434
          750 757 755 437 752 758
          400 748 431 12 402 750
          434 16 402 750 434 16
          404 752 437 20 474 31
          469 468 475 35 471 470
          475 35 471 470 476 39
          473 472 399 438 744 759
          401 440 745 760 401 440
          745 760 403 442 746 761
          339 477 351 340 343 478
          352 344 343 478 352 344
          347 479 353 348 367 366
          358 357 369 368 360 359
          369 368 360 359 371 370
          362 361 480 32 31 474
          481 36 35 475 481 36
          35 475 482 40 39 476
          483 477 339 354 484 478
          343 355 484 478 343 355
          485 479 347 356 486 483
          354 381 487 484 355 382
          487 484 355 382 488 485
          356 383 183 182 465 279
          187 186 466 281 187 186
          466 281 191 190 467 283
          762 763 489 490 764 765
          491 492 764 765 491 492
          766 767 493 494 490 489
          32 480 492 491 36 481
          492 491 36 481 494 493
          40 482 387 495 496 376
          388 497 498 378 388 497
          498 378 389 499 500 380
          501 270 272 358 502 273
          275 360 502 273 275 360
          503 276 278 362 504 331
          298 297 505 333 302 301
          505 333 302 301 506 335
          306 305 507 486 381 375
          508 487 382 377 508 487
          382 377 509 488 383 379
          318 238 237 510 319 241
          240 511 319 241 240 511
          320 244 243 512 50 49
          255 424 54 53 256 426
          54 53 256 426 58 57
          257 428 363 513 390 372
          364 514 392 373 364 514
          392 373 365 515 394 374
          516 423 391 390 517 425
          393 392 517 425 393 392
          518 427 395 394 519 520
          205 204 521 522 207 206
          521 522 207 206 523 524
          209 208 525 519 204 280
          526 521 206 282 526 521
          206 282 527 523 208 284
          528 460 459 529 530 462
          461 531 530 462 461 531
          532 464 463 533 534 90
          535 536 537 93 538 539
          537 93 538 539 540 96
          541 542 546 525 280 460
          547 526 282 462 547 526
          282 462 548 527 284 464
          759 768 747 399 760 769
          749 401 760 769 749 401
          761 770 751 403 507 375
          376 496 508 377 378 498
          508 377 378 498 509 379
          380 500 483 486 549 550
          484 487 551 552 484 487
          551 552 485 488 553 554
          231 232 271 336 233 234
          274 337 233 234 274 337
          235 236 277 338 391 255
          128 223 393 256 131 225
          393 256 131 225 395 257
          134 227 525 546 555 556
          526 547 557 558 526 547
          557 558 527 548 559 560
          519 525 556 561 521 526
          558 562 521 526 558 562
          523 527 560 563 561 556
          564 565 562 558 566 567
          562 558 566 567 563 560
          568 569 570 571 572 573
          574 575 576 577 574 575
          576 577 578 579 580 581
          2 1 300 299 6 5
          304 303 6 5 304 303
          10 9 308 307 582 299
          298 330 583 303 302 332
          583 303 302 332 584 307
          306 334 585 363 271 270
          586 364 274 273 586 364
          274 273 587 365 277 276
          555 416 144 143 557 419
          148 147 557 419 148 147
          559 422 152 151 588 589
          237 267 590 591 240 268
          590 591 240 268 592 593
          243 269 396 594 495 387
          397 595 497 388 397 595
          497 388 398 596 499 389
          594 396 205 520 595 397
          207 522 595 397 207 522
          596 398 209 524 597 598
          430 429 599 600 433 432
          599 600 433 432 601 602
          436 435 603 246 248 604
          605 249 251 606 605 249
          251 606 607 252 254 608
          72 211 210 73 74 215
          214 75 74 215 214 75
          76 219 218 77 536 535
          609 543 539 538 610 544
          539 538 610 544 542 541
          611 545 612 561 565 613
          614 562 567 615 614 562
          567 615 616 563 569 617
          618 619 620 621 622 623
          624 625 622 623 624 625
          626 627 628 629 630 588
          267 247 631 590 268 250
          631 590 268 250 632 592
          269 253 633 634 573 572
          635 636 577 576 635 636
          577 576 637 638 581 580
          60 639 81 640 64 641
          85 642 64 641 85 642
          68 643 89 644 561 612
          520 519 562 614 522 521
          562 614 522 521 563 616
          524 523 510 231 336 318
          511 233 337 319 511 233
          337 319 512 235 338 320
          640 81 80 645 642 85
          84 646 642 85 84 646
          644 89 88 647 550 648
          477 483 552 649 478 484
          552 649 478 484 554 650
          479 485 630 247 246 651
          631 250 249 652 631 250
          249 652 632 253 252 653
          633 572 654 621 635 576
          655 625 635 576 655 625
          637 580 656 629 15 43
          166 439 19 45 169 441
          19 45 169 441 23 47
          172 443 660 639 661 651
          662 641 663 652 662 641
          663 652 664 643 665 653
          666 330 288 287 667 332
          292 291 667 332 292 291
          668 334 296 295 603 660
          651 246 605 662 652 249
          605 662 652 249 607 664
          653 252 571 570 516 669
          575 574 517 670 575 574
          517 670 579 578 518 671
          672 262 261 311 673 264
          263 314 673 264 263 314
          674 266 265 317 416 555
          546 675 419 557 547 676
          419 557 547 676 422 559
          548 677 570 573 678 657
          574 577 679 658 574 577
          679 658 578 581 680 659
          495 42 14 496 497 44
          18 498 497 44 18 498
          499 46 22 500 61 529
          459 62 65 531 461 66
          65 531 461 66 69 533
          463 70 13 507 496 14
          17 508 498 18 17 508
          498 18 21 509 500 22
          114 510 237 589 118 511
          240 591 118 511 240 591
          122 512 243 593 513 669
          516 390 514 670 517 392
          514 670 517 392 515 671
          518 394 594 681 42 495
          595 682 44 497 595 682
          44 497 596 683 46 499
          114 589 588 111 118 591
          590 115 118 591 590 115
          122 593 592 119 510 114
          113 231 511 118 117 233
          511 118 117 233 512 122
          121 235 681 594 520 612
          682 595 522 614 682 595
          522 614 683 596 524 616
          684 685 645 686 687 688
          646 689 687 688 646 689
          690 691 647 692 693 654
          572 571 694 655 576 575
          694 655 576 575 695 656
          580 579 675 546 460 528
          676 547 462 530 676 547
          462 530 677 548 464 532
          439 400 12 15 441 402
          16 19 441 402 16 19
          443 404 20 23 696 672
          648 697 698 673 649 699
          698 673 649 699 700 674
          650 701 702 618 621 654
          703 622 625 655 703 622
          625 655 704 626 629 656
          72 705 212 211 74 706
          216 215 74 706 216 215
          76 707 220 219 182 112
          136 465 186 116 138 466
          186 116 138 466 190 120
          140 467 708 686 645 80
          709 689 646 84 709 689
          646 84 710 692 647 88
          91 341 310 92 94 345
          313 95 94 345 313 95
          97 349 316 98 135 630
          651 661 137 631 652 663
          137 631 652 663 139 632
          653 665 666 287 325 711
          667 291 327 712 667 291
          327 712 668 295 329 713
          444 25 714 715 445 27
          716 717 445 27 716 717
          446 29 718 719 705 720
          366 212 706 721 368 216
          706 721 368 216 707 722
          370 220 331 504 715 714
          333 505 717 716 333 505
          717 716 335 506 719 718
          13 549 486 507 17 551
          487 508 17 551 487 508
          21 553 488 509 571 669
          513 693 575 670 514 694
          575 670 514 694 579 671
          515 695 102 405 685 99
          106 408 688 103 106 408
          688 103 110 411 691 107
          672 351 477 648 673 352
          478 649 673 352 478 649
          674 353 479 650 693 513
          363 585 694 514 364 586
          694 514 364 586 695 515
          365 587 285 714 25 24
          289 716 27 26 289 716
          27 26 293 718 29 28
          143 142 192 564 147 146
          194 566 147 146 194 566
          151 150 196 568 726 489
          763 771 727 491 765 772
          727 491 765 772 728 493
          767 773 534 536 715 504
          537 539 717 505 537 539
          717 505 540 542 719 506
          165 565 564 192 168 567
          566 194 168 567 566 194
          171 569 568 196 78 81
          639 660 82 85 641 662
          82 85 641 662 86 89
          643 664 136 135 661 63
          138 137 663 67 138 137
          663 67 140 139 665 71
          729 262 672 696 730 264
          673 698 730 264 673 698
          731 266 674 700 630 135
          111 588 631 137 115 590
          631 137 115 590 632 139
          119 592 702 585 270 501
          703 586 273 502 703 586
          273 502 704 587 276 503
          585 702 654 693 586 703
          655 694 586 703 655 694
          587 704 656 695 61 406
          528 529 65 409 530 531
          65 409 530 531 69 412
          532 533 414 732 101 100
          417 733 105 104 417 733
          105 104 420 734 109 108
          63 62 465 136 67 66
          466 138 67 66 466 138
          71 70 467 140 501 720
          618 702 502 721 622 703
          502 721 622 703 503 722
          626 704 720 501 358 366
          721 502 360 368 721 502
          360 368 722 503 362 370
          685 684 454 99 688 687
          456 103 688 687 456 103
          691 690 458 107 685 405
          640 645 688 408 642 646
          688 408 642 646 691 411
          644 647 30 141 469 31
          34 145 471 35 34 145
          471 35 38 149 473 39
          598 738 739 430 600 740
          741 433 600 740 741 433
          602 742 743 436 43 42
          681 167 45 44 682 170
          45 44 682 170 47 46
          683 173 678 711 325 723
          679 712 327 724 679 712
          327 724 680 713 329 725
          619 618 720 705 623 622
          721 706 623 622 721 706
          627 626 722 707 102 101
          528 406 106 105 530 409
          106 105 530 409 110 109
          532 412 549 13 12 739
          551 17 16 741 551 17
          16 741 553 21 20 743
          711 678 573 634 712 679
          577 636 712 679 577 636
          713 680 581 638 80 79
          258 708 84 83 259 709
          84 83 259 709 88 87
          260 710 738 598 696 697
          740 600 698 699 740 600
          698 699 742 602 700 701
          714 285 288 331 716 289
          292 333 716 289 292 333
          718 293 296 335 672 311
          310 351 673 314 313 352
          673 314 313 352 674 317
          316 353 430 739 12 431
          433 741 16 434 433 741
          16 434 436 743 20 437
          193 438 439 166 195 440
          441 169 195 440 441 169
          197 442 443 172 489 726
          33 32 491 727 37 36
          491 727 37 36 493 728
          41 40 444 715 536 543
          445 717 539 544 445 717
          539 544 446 719 542 545
          3 619 705 72 7 623
          706 74 7 623 706 74
          11 627 707 76 633 666
          711 634 635 667 712 636
          635 667 712 636 637 668
          713 638 384 534 504 297
          385 537 505 301 385 537
          505 301 386 540 506 305
          726 771 744 33 727 772
          745 37 727 772 745 37
          728 773 746 41 167 613
          565 165 170 615 567 168
          170 615 567 168 173 617
          569 171 675 732 414 416
          676 733 417 419 676 733
          417 419 677 734 420 422
          550 549 739 738 552 551
          741 740 552 551 741 740
          554 553 743 742 732 675
          528 101 733 676 530 105
          733 676 530 105 734 677
          532 109 63 661 639 60
          67 663 641 64 67 663
          641 64 71 665 643 68
          384 91 90 534 385 94
          93 537 385 94 93 537
          386 97 96 540 123 744
          438 193 124 745 440 195
          124 745 440 195 125 746
          442 197 406 61 60 407
          409 65 64 410 409 65
          64 410 412 69 68 413
          154 78 660 603 158 82
          662 605 158 82 662 605
          162 86 664 607 91 384
          342 341 94 385 346 345
          94 385 346 345 97 386
          350 349 405 407 60 640
          408 410 64 642 408 410
          64 642 411 413 68 644
          648 550 738 697 649 552
          740 699 649 552 740 699
          650 554 742 701 735 92
          310 309 736 95 313 312
          736 95 313 312 737 98
          316 315 633 582 330 666
          635 583 332 667 635 583
          332 667 637 584 334 668
          167 681 612 613 170 682
          614 615 170 682 614 615
          173 683 616 617 620 2
          299 582 624 6 303 583
          624 6 303 583 628 10
          307 584 582 633 621 620
          583 635 625 624 583 635
          625 624 584 637 629 628
          141 144 415 469 145 148
          418 471 145 148 418 471
          149 152 421 473 143 564
          556 555 147 566 558 557
          147 566 558 557 151 568
          560 559 2 620 619 3
          6 624 623 7 6 624
          623 7 10 628 627 11
          729 696 598 597 730 698
          600 599 730 698 600 599
          731 700 602 601 141 30
          123 142 145 34 124 146
          145 34 124 146 149 38
          125 150 154 603 604 155
          158 605 606 159 158 605
          606 159 162 607 608 163
          193 192 142 123 195 194
          146 124 195 194 146 124
          197 196 150 125
        </DataArray>
        <DataArray type="Int64" Name="offsets" format="ascii" RangeMin="8" RangeMax="3616">
          8 16 24 32 40 48
          56 64 72 80 88 96
          104 112 120 128 136 144
          152 160 168 176 184 192
          200 208 216 224 232 240
          248 256 264 272 280 288
          296 304 312 320 328 336
          344 352 360 368 376 384
          392 400 408 416 424 432
          440 448 456 464 472 480
          488 496 504 512 520 528
          536 544 552 560 568 576
          584 592 600 608 616 624
          632 640 648 656 664 672
          680 688 696 704 712 720
          728 736 744 752 760 768
          776 784 792 800 808 816
          824 832 840 848 856 864
          872 880 888 896 904 912
          920 928 936 944 952 960
          968 976 984 992 1000 1008
          1016 1024 1032 1040 1048 1056
          1064 1072 1080 1088 1096 1104
          1112 1120 1128 1136 1144 1152
          1160 1168 1176 1184 1192 1200
          1208 1216 1224 1232 1240 1248
          1256 1264 1272 1280 1288 1296
          1304 1312 1320 1328 1336 1344
          1352 1360 1368 1376 1384 1392
          1400 1408 1416 1424 1432 1440
          1448 1456 1464 1472 1480 1488
          1496 1504 1512 1520 1528 1536
          1544 1552 1560 1568 1576 1584
          1592 1600 1608 1616 1624 1632
          1640 1648 1656 1664 1672 1680
          1688 1696 1704 1712 1720 1728
          1736 1744 1752 1760 1768 1776
          1784 1792 1800 1808 1816 1824
          1832 1840 1848 1856 1864 1872
          1880 1888 1896 1904 1912 1920
          1928 1936 1944 1952 1960 1968
          1976 1984 1992 2000 2008 2016
          2024 2032 2040 2048 2056 2064
          2072 2080 2088 2096 2104 2112
          2120 2128 2136 2144 2152 2160
          2168 2176 2184 2192 2200 2208
          2216 2224 2232 2240 2248 2256
          2264 2272 2280 2288 2296 2304
          2312 2320 2328 2336 2344 2352
          2360 2368 2376 2384 2392 2400
          2408 2416 2424 2432 2440 2448
          2456 2464 2472 2480 2488 2496
          2504 2512 2520 2528 2536 2544
          2552 2560 2568 2576 2584 2592
          2600 2608 2616 2624 2632 2640
          2648 2656 2664 2672 2680 2688
          2696 2704 2712 2720 2728 2736
          2744 2752 2760 2768 2776 2784
          2792 2800 2808 2816 2824 2832
          2840 2848 2856 2864 2872 2880
          2888 2896 2904 2912 2920 2928
          2936 2944 2952 2960 2968 2976
          2984 2992 3000 3008 3016 3024
          3032 3040 3048 3056 3064 3072
          3080 3088 3096 3104 3112 3120
          3128 3136 3144 3152 3160 3168
          3176 3184 3192 3200 3208 3216
          3224 3232 3240 3248 3256 3264
          3272 3280 3288 3296 3304 3312
          3320 3328 3336 3344 3352 3360
          3368 3376 3384 3392 3400 3408
          3416 3424 3432 3440 3448 3456
          3464 3472 3480 3488 3496 3504
          3512 3520 3528 3536 3544 3552
          3560 3568 3576 3584 3592 3600
          3608 3616
        </DataArray>
        <DataArray type="UInt8" Name="types" format="ascii" RangeMin="12" RangeMax="12">
          12 12 12 12 12 12
          12 12 12 12 12 12
          12 12 12 12 12 12
          12 12 12 12 12 12
          12 12 12 12 12 12
          12 12 12 12 12 12
          12 12 12 12 12 12
          12 12 12 12 12 12
          12 12 12 12 12 12
          12 12 12 12 12 12
          12 12 12 12 12 12
          12 12 12 12 12 12
          12 12 12 12 12 12
          12 12 12 12 12 12
          12 12 12 12 12 12
          12 12 12 12 12 12
          12 12 12 12 12 12
          12 12 12 12 12 12
          12 12 12 12 12 12
          12 12 12 12 12 12
          12 12 12 12 12 12
          12 12 12 12 12 12
          12 12 12 12 12 12
          12 12 12 12 12 12
          12 12 12 12 12 12
          12 12 12 12 12 12
          12 12 12 12 12 12
          12 12 12 12 12 12
          12 12 12 12 12 12
          12 12 12 12 12 12
          12 12 12 12 12 12
          12 12 12 12 12 12
          12 12 12 12 12 12
          12 12 12 12 12 12
          12 12 12 12 12 12
          12 12 12 12 12 12
          12 12 12 12 12 12
          12 12 12 12 12 12
          12 12 12 12 12 12
          12 12 12 12 12 12
          12 12 12 12 12 12
          12 12 12 12 12 12
          12 12 12 12 12 12
          12 12 12 12 12 12
          12 12 12 12 12 12
          12 12 12 12 12 12
          12 12 12 12 12 12
          12 12 12 12 12 12
          12 12 12 12 12 12
          12 12 12 12 12 12
          12 12 12 12 12 12
          12 12 12 12 12 12
          12 12 12 12 12 12
          12 12 12 12 12 12
          12 12 12 12 12 12
          12 12 12 12 12 12
          12 12 12 12 12 12
          12 12 12 12 12 12
          12 12 12 12 12 12
          12 12 12 12 12 12
          12 12 12 12 12 12
          12 12 12 12 12 12
          12 12 12 12 12 12
          12 12 12 12 12 12
          12 12 12 12 12 12
          12 12 12 12 12 12
          12 12 12 12 12 12
          12 12 12 12 12 12
          12 12 12 12 12 12
          12 12 12 12 12 12
          12 12 12 12 12 12
          12 12 12 12 12 12
          12 12 12 12 12 12
          12 12 12 12 12 12
          12 12 12 12 12 12
          12 12
        </DataArray>
      </Cells>
    </Piece>
  </UnstructuredGrid>
</VTKFile>
