<?xml version="1.0"?>
<VTKFile type="UnstructuredGrid" version="0.1" byte_order="LittleEndian" header_type="UInt32" compressor="vtkZLibDataCompressor">
  <UnstructuredGrid>
    <Piece NumberOfPoints="774" NumberOfCells="452">
      <PointData>
        <DataArray type="Int32" Name="libmesh_node_id" format="ascii" RangeMin="2286" RangeMax="4991">
          2286 2287 2288 2289 2290 2291
          2292 2293 2294 2295 2296 2297
          2340 2341 2342 2343 2344 2345
          2346 2347 2348 2349 2350 2351
          2400 2401 2403 2404 2406 2407
          2412 2413 2414 2415 2416 2417
          2418 2419 2420 2421 2422 2423
          2487 2488 2489 2490 2491 2492
          2523 2524 2525 2526 2527 2528
          2529 2530 2531 2532 2533 2534
          2550 2551 2552 2553 2554 2555
          2556 2557 2558 2559 2560 2561
          2580 2581 2582 2583 2584 2585
          2685 2686 2687 2688 2689 2690
          2691 2692 2693 2694 2695 2696
          2698 2699 2700 2702 2703 2704
          2706 2707 2708 2796 2797 2798
          2799 2800 2801 2802 2803 2804
          2805 2806 2807 2838 2839 2840
          2841 2842 2843 2844 2845 2846
          2847 2848 2849 2881 2883 2885
          2949 2950 2951 2952 2953 2954
          2955 2956 2957 3054 3055 3056
          3057 3058 3059 3093 3094 3095
          3096 3097 3098 3099 3100 3101
          3102 3103 3104 3117 3118 3119
          3120 3121 3122 3123 3124 3125
          3126 3127 3128 3195 3196 3197
          3198 3199 3200 3201 3202 3203
          3210 3211 3212 3213 3214 3215
          3216 3217 3218 3219 3220 3221
          3222 3223 3224 3225 3226 3227
          3252 3253 3254 3255 3256 3257
          3300 3301 3302 3303 3304 3305
          3306 3307 3308 3309 3310 3311
          3318 3319 3320 3321 3322 3323
          3324 3325 3326 3327 3328 3329
          3330 3331 3332 3333 3334 3335
          3366 3367 3368 3378 3379 3380
          3381 3382 3383 3384 3385 3386
          3387 3388 3389 3390 3391 3392
          3453 3454 3455 3456 3457 3458
          3459 3460 3461 3483 3484 3485
          3492 3493 3494 3525 3526 3528
          3529 3531 3532 3543 3544 3545
          3564 3565 3566 3567 3568 3569
          3570 3571 3572 3588 3589 3590
          3591 3592 3593 3609 3610 3611
          3612 3613 3614 3615 3616 3617
          3618 3619 3620 3630 3631 3632
          3633 3634 3635 3636 3637 3638
          3639 3640 3641 3654 3655 3656
          3657 3658 3659 3660 3661 3662
          3684 3685 3686 3687 3689 3691
          3693 3694 3695 3696 3697 3698
          3708 3709 3710 3711 3712 3713
          3735 3736 3737 3738 3739 3740
          3741 3742 3743 3744 3745 3746
          3747 3748 3749 3762 3763 3764
          3771 3772 3773 3774 3775 3776
          3777 3778 3779 3786 3787 3788
          3795 3796 3797 3798 3799 3800
          3801 3802 3803 3804 3805 3806
          3807 3808 3809 3816 3817 3818
          3834 3835 3836 3837 3838 3839
          3846 3847 3848 3849 3850 3851
          3861 3862 3863 3882 3884 3885
          3887 3888 3890 3900 3901 3902
          3903 3904 3905 3906 3907 3908
          3924 3925 3926 3927 3928 3929
          3930 3931 3932 3939 3940 3941
          3942 3943 3944 3954 3955 3956
          3958 3959 3960 3962 3963 3964
          3969 3970 3971 3972 3973 3974
          3993 3994 3995 4032 4033 4034
          4035 4036 4037 4053 4054 4055
          4056 4057 4058 4059 4060 4061
          4062 4063 4064 4089 4090 4091
          4104 4105 4106 4107 4108 4109
          4116 4117 4118 4128 4129 4130
          4167 4168 4169 4170 4171 4172
          4185 4186 4187 4208 4209 4212
          4213 4216 4217 4233 4234 4235
          4236 4237 4238 4254 4255 4256
          4257 4258 4259 4269 4270 4271
          4272 4273 4274 4284 4285 4286
          4287 4288 4289 4290 4291 4292
          4293 4294 4295 4302 4303 4304
          4314 4315 4316 4317 4318 4319
          4320 4321 4322 4323 4324 4325
          4326 4327 4328 4338 4339 4340
          4344 4345 4346 4350 4351 4352
          4353 4354 4355 4365 4366 4367
          4368 4369 4370 4371 4372 4373
          4374 4375 4376 4377 4378 4379
          4380 4381 4382 4383 4384 4385
          4386 4387 4388 4389 4390 4391
          4398 4399 4400 4416 4417 4418
          4422 4423 4424 4425 4426 4427
          4428 4429 4430 4434 4435 4436
          4437 4438 4439 4440 4441 4442
          4443 4444 4445 4458 4459 4460
          4482 4483 4484 4485 4486 4487
          4488 4489 4490 4491 4492 4493
          4494 4495 4496 4497 4498 4499
          4500 4501 4502 4506 4507 4508
          4509 4510 4511 4518 4519 4520
          4521 4522 4523 4545 4546 4547
          4566 4567 4568 4569 4570 4571
          4572 4573 4574 4599 4600 4601
          4602 4603 4604 4605 4606 4607
          4611 4612 4613 4647 4648 4649
          4650 4651 4652 4653 4654 4655
          4656 4657 4658 4677 4678 4679
          4689 4690 4691 4692 4693 4694
          4695 4696 4697 4716 4717 4718
          4743 4744 4745 4746 4747 4748
          4749 4750 4751 4779 4780 4781
          4788 4789 4790 4800 4801 4802
          4803 4804 4805 4806 4807 4808
          4809 4810 4811 4830 4831 4832
          4872 4873 4874 4902 4903 4904
          4923 4924 4925 4968 4969 4970
          4986 4987 4988 4989 4990 4991
          2880 2882 2884 3883 3873 3886
          3876 3889 3879 3957 3961 3965
          3875 3878 3881 4119 4120 4121
          4206 4207 4210 4211 4214 4215
          4347 4348 4349 4251 4252 4253
        </DataArray>
        <DataArray type="Float64" Name="resid_x" format="ascii" RangeMin="-0.000005006612359137463" RangeMax="0.00004081194747040939">
          -0.0000019275940681406922 -0.0000023132563291561326 -0.0000022837290671873234 -0.0000024705784578138434 -1.0721247789557964e-7 -5.395180955325429e-7
          5.805130285363447e-7 2.2888978712387598e-7 0.000004816298293963683 0.000005440289211566807 0.0000054318602111802505 0.000004661837448072248
          -3.4674578541782353e-7 -0.0000027303462459826733 -0.00000236187272269206 -0.0000033685396587657124 0.000003868918622362827 -0.0000010411931330445157
          4.3747349848938244e-7 -8.043222332609901e-7 0.000011962303691603893 0.000005841009535156871 0.00000632537959502355 0.000008645699445253285
          0.000004032112243645969 -5.915239660314597e-7 0.000006084931440053509 -1.0281516082955022e-8 0.0000032165147316742804 -1.6841571226500207e-7
          2.739396285367235e-7 -0.000002174370122176583 -0.000002964463773791337 -2.8174585486873127e-7 0.000004618711817006016 4.18107333199913e-8
          0.0000024947981298595323 0.000009076701306565127 0.000009892871722705365 0.000008853792661245308 0.000009866147875126074 0.00001162110422758822
          0.0000036070935340304366 0.000002168538316249524 0.0000011858213206927815 2.973654342763865e-7 0.000006309084835010026 0.000006894415979674662
          -0.0000011710365215300556 -0.0000029365222208865838 0.000006930905889213079 0.00000972206649318963 -0.0000010950988107438775 -0.0000030184927460874533
          0.000018897561519182204 0.00002822253449519252 0.00000553750514242779 0.0000014575886344569966 0.000014584767226377693 0.000019990459356744594
          -0.0000015301559823654998 -0.0000023157917306559916 -0.000002860236848478692 -0.000003120471048001505 0.0000013170197120659921 0.000001476209192385891
          4.333888363738936e-7 0.000005642250394011228 0.000013960506813903706 0.000008576704782048417 0.000009816990034439144 0.000015680836762399508
          -3.1240198561377497e-7 -8.439330652088017e-7 -1.713564856675731e-7 8.060458223102529e-7 0.0000028241298777320623 0.000004485577076884795
          -0.0000013951131265788064 -0.0000020056588638794892 -0.000002114919322560027 -8.055957112507173e-7 0.0000012472127151053058 1.1349725292930657e-7
          0.0000046182696602503626 0.0000049719469150666384 0.000010507725147101965 0.000010886438355672823 0.000013745907292639359 0.000014485940767139383
          0.000004962731302793344 0.000005398281496926671 9.73648965008067e-7 0.000010857168102340609 0.000003052783806190007 -3.0506283121845e-7
          0.000005954730817325782 0.00000437417627363601 0.0000012687556223411889 -0.0000016399238116360237 -0.000002545530633613069 -0.0000025285372025063424
          -0.0000028931320288361206 0.000001245925250747959 0.00000363295227512328 0.0000023752187685577297 0.000003745565083201896 0.00001085394104594073
          0.000013528466810242001 0.000011466734725296135 0.000011930790873693198 -0.0000014256248848099062 -0.0000019744149493128305 -0.000002482677106563358
          -0.0000020765721786553115 0.00000131782761259025 0.000005178260155114245 0.0000012555578510209386 0.0000036492590198555774 0.000008246853315796443
          0.000012472886442793651 0.00001069117073981829 0.000009574178046145576 0.000005816288187299179 0.000010170341369519775 0.000011864776899850327
          0.0000027495387691089945 0.0000013609974565120808 0.000004889219844095294 0.0000029137628589914755 0.0000031772186466216823 0.000007238913533158531
          0.000005838337996610932 0.000006951234729601907 0.000010290649892996662 0.000002853208924236128 0.000005018483145269315 0.000001558707424909045
          0.000010367946455591692 0.000008728680669367606 0.000015517660192809757 0.000006332866942182491 0.000004231139861810007 -0.000002035749677942178
          -0.0000023119995944398397 0.000005178510319225893 0.00000252595855809723 -0.0000010195481963126696 -0.0000018247424760087227 0.000010979280554712645
          0.000009096569076438854 0.000005420753907747766 0.000006181945064520633 0.000008063528697865863 0.000007330208561251439 0.000016024057200692
          0.000014729322786344312 0.0000052374683237044195 0.000004587388257704106 0.000033998455280404016 0.000032460274770329534 0.000007968214570164278
          0.00000706861189958552 0.00001823345330009829 0.000018532069692600572 -0.0000012522443015861029 -7.023743731071619e-7 0.000001589844242477767
          3.015278884355155e-7 0.0000029202273004180768 2.4418382449375997e-7 0.000005697104507262907 0.000010147667172333286 0.000004064561385686005
          0.000007219677838232741 0.000003240932136661101 0.000012783251892578562 -1.3907699658588513e-7 0.000008647502264036433 0.000003101055573662137
          -0.000001513220186044606 0.000003820061609483005 0.0000070429976783970005 -0.0000029932521938835777 -7.501585597147198e-7 0.0000048322624870422715
          0.000007750961891206387 -0.0000023113171110367148 0.00001131544017418662 0.000012976519816909615 0.000013514422030791451 0.000007873061130370118
          0.0000035078116633613377 0.00000488976188894874 0.0000014356267938886447 0.000009030632626361168 0.000007564731657749846 0.000011527612451267544
          0.00001736527491713602 0.000012344269909370098 0.00004081194747040939 0.00003289841342546396 0.00002801410055663922 0.00002360092379483092
          0.000005798335272699795 0.0000061259505435007355 0.000002769241160383018 0.0000030794123737631907 0.000010976031785236984 0.000010635738233899517
          -6.449538478836558e-7 3.6771024447546097e-7 -0.000001258507994483793 -0.0000022704985776500486 8.991375934908064e-7 0.0000021965736629603327
          1.616155653749729e-7 -6.342546875481858e-7 0.000004157312425756565 0.000003110049242138757 0.000002536547754505847 0.0000040786795079683635
          0.00000447322642438408 0.0000010009565591939662 0.0000024099956808243395 2.6671879171935586e-7 0.0000073709952363998354 0.000005676072445393032
          0.000014869748484080958 0.00003953642434240123 0.000024926691182702854 0.0000028814734683857424 0.0000029679901136780984 0.0000022941066704085245
          0.000003606347646067931 0.000009173296831366251 0.000012083469191903617 0.000001404349666556115 -1.1978281322377882e-7 0.000006320189142261512
          6.138341874795117e-7 -0.0000014180367529093019 0.000016279345098624276 0.000007784739616711889 0.000005499044110068851 0.000014679723011834511
          -0.0000013346360672183977 -0.0000022261715544313887 0.00001538449227389549 -0.0000014107039403299382 -0.0000028572121535397343 0.00004035341709496265
          0.000003922405869438705 0.0000035053976181753654 0.00002519509259268915 0.000008800733646729952 0.0000053792773608840605 0.0000072531471984049745
          0.000004455065084618681 0.0000015720555714970885 0.0000048473541693905275 0.000002389653144696524 0.000004888692954452267 0.000008756023271772051
          0.000009987387590726371 0.000005875541341904267 0.000005363370275901502 -2.3987964747895774e-7 -0.000005006612359137463 0.0000036311918432119228
          -8.053256473905535e-7 0.0000032912047447375414 0.0000049888227208194635 -1.6664879998185e-7 0.0000028112722652018363 0.0000019081361716244416
          0.000007320910117014634 0.000010361831506600083 0.000010654906637874717 0.0000043151030055810224 0.0000011358469498290447 0.00000428129516394371
          0.0000016777970339720838 0.000010614392716323806 0.000009669235920828356 4.186296140851198e-7 -0.0000016373774430200605 -0.0000017727392727096003
          -0.0000018157523367090533 0.00000313710977906112 -1.9614968460590632e-7 -5.730951553317709e-7 8.428619422407024e-7 0.0000039849712467621146
          8.507773313071176e-7 0.000002492047307622869 0.000004002848977391338 -0.0000020123994235454745 -0.0000011920808005161376 -7.399779586858557e-7
          -0.0000012114826790643463 -0.000001046701503693015 0.0000013462189254465073 5.041827169094404e-7 3.2111250303223926e-7 0.0000032369802827059146
          0.0000049829129187273224 0.000005587422216679627 0.000005776019675884925 0.0000018797057594888145 -0.000002317332980728004 -0.0000029773259746512792
          0.000007069703126916238 -0.000001929029441627428 -0.000001947078860808915 0.000005017120375150341 0.000002288592632626596 4.607592520855519e-7
          0.000009202819537978968 0.000005406074337299671 0.000008989155604544052 0.000016674198862531853 0.00002442472500163717 0.00001422121259953002
          0.0000038072377868125784 0.000004120980602539959 0.000006224642789431911 0.000005942694662586234 0.0000029439957024424146 0.000005059809206731103
          0.000003396703224467501 0.000002964325065635265 0.0000016164790999084744 9.049018570017608e-7 0.000004515791373282951 0.000003974499922732022
          0.000015588842753766485 0.0000050739626855644815 0.000007503650648055249 0.000003685875962777807 -4.200128774500822e-7 9.481306810776857e-7
          0.0000030353092619339606 0.0000023739379101384017 -7.696425575881571e-7 -7.223115892074361e-7 0.0000019089781189141064 0.0000054705987519998445
          7.578417166032025e-8 0.0000017873214726016329 0.000004630754407708437 0.000003528284432618989 3.440354201522666e-7 0.000002725664247194004
          0.000004302660102095679 0.0000027112463578671253 0.0000058803904855464495 0.00000404419188576588 0.000004446362531274062 8.068862131227483e-7
          0.000002051104443734353 0.000008062565189426163 0.000008184784458298289 0.0000076042080854321625 0.0000035907832076631507 0.000009948192194464411
          0.000006097000123883589 0.00000583038992152396 0.0000019805502122771657 0.0000010539904575779246 0.000005023027065176322 0.000005306409183392091
          0.000005396686057590472 0.0000023085323235250144 0.0000037089221365249614 0.000002093835224571683 0.000001053781551352273 0.0000025935272427654588
          0.0000010487682231552498 0.000005197265504880422 0.000005865264903315293 0.000005054408129090415 0.0000022560469439270037 0.000004626888964520681
          0.000003455480017899859 6.585032283901171e-7 0.00000440137268076235 0.000005333515322891724 8.761816181757087e-7 0.000006107289544199368
          5.811720822368471e-7 0.0000031473498625089746 -4.96537678751352e-7 0.000002493826699589974 0.000004043370588124873 0.000007276945531708989
          0.000010136286036702136 0.0000015418057210392355 0.000007305984686345468 0.000008111865650528571 0.000008188311329870857 0.00001859600265441408
          0.000014400115374346711 0.000011997573521771443 0.000013171642290643604 0.000007212673157508398 0.0000054295183358199495 0.000007026347701222235
          0.000004219284605588847 0.0000062404655072345605 0.00000821454390420584 0.00000823874936617397 0.000009774389759353852 0.00000835741927573963
          0.00001005359880690282 9.255615212033774e-7 0.000007547195674195706 0.000006492625424070475 -0.0000013284234863242261 0.0000035615146116718677
          0.000014518964296494907 0.000009762008176039672 0.000010334197539485501 0.000008287518312943831 0.00000922533074509957 0.00001214232238799795
          0.000010277170710448758 0.000008679360642416256 0.000007953139402161469 0.0000038767721459720406 0.000001138578111126165 0.000009622853800905773
          0.000011436818875054655 0.0000021215551559983226 0.00001217490082927597 0.000006035603823839608 0.000002923831527779086 0.00000860607821762116
          0.0000124793131763834 0.000011496919273490391 0.000007071666239033547 0.000004552386558387411 0.000005063564167295809 0.000006813890820245305
          0.0000031126818427207326 0.0000028694553400043787 0.0000016315276003542323 0.0000011743026198107742 0.000003854083502785599 -0.000001169318891491855
          0.0000020878295992066143 0.0000037092190374732326 0.000006785071671622234 0.000004269553382174607 0.0000019165787370489795 0.0000017534587335443774
          1.1617644379846581e-7 0.000005560246211233633 0.0000039482905638266175 0.000009554580725379402 2.7068251251538555e-7 0.000008733816953210294
          -1.6096661081821395e-7 0.000011290715828171649 0.000007414587994025723 0.000014970452931084566 0.000008854767860277946 0.000011014539228026976
          0.0000047713265403093175 0.000015925916322379052 0.00000196256065843059 0.000008318136767160311 0.000003271482413191862 0.000011519956337746606
          0.000003563901286973703 -1.4939097003896507e-7 0.0000028975857391255744 0.000002392368857240257 -0.0000020488054612854967 0.0000018939554404795444
          0.000001289275399996015 -0.0000010332700541848538 0.000003154738327681983 0.000002302277301247102 -0.0000019650189324593725 0.000002215592376675346
          0.0000029907036985798996 -9.476375420480743e-7 0.0000027301163574300347 0.000013603404865669688 0.000006209548377489327 0.000018843670638979404
          0.000009068166582082426 0.00001134511461153842 0.0000048150970295424145 0.000006194708333129295 0.000005332467807761532 3.551911052501744e-7
          0.000002826435581582132 0.000004906241478613849 0.000006138962407753468 0.0000061806663289587505 0.0000021576627937669457 0.000007336371764532501
          0.0000018597000572828648 -9.169489543214837e-7 0.0000030502820331790303 0.000007146467075447305 0.0000011375856963091735 0.000004038967019504014
          0.000015852545607097923 0.000007666525580596328 0.000010405918103417733 0.000004179605854748303 0.000003466026981424619 0.000005681589828610001
          0.000006449200176339431 0.000007935814623216686 0.000009719160611876276 0.000005623440692437143 0.000004555589009358485 0.000002108900260644475
          2.2907216323808655e-7 0.000007850619026639194 0.000005874284287887832 0.000008908949332697702 0.000004904857018317443 0.000009809072277766617
          0.0000073785458174491225 0.000013266041657522543 0.0000034101732875324586 0.000013704725247754013 0.000010788806288797304 0.000010283283033651891
          0.000002617805174853771 0.00000520633602052456 -0.0000015344609818335186 -4.7026771698988057e-7 0.000013756197900782752 -0.000002344679539856287
          0.000001471359999394295 0.000008172499748493323 6.510035828188876e-7 4.3942146565889573e-7 9.910159282089381e-7 0.0000020486889562576494
          0.000008876463029716675 0.0000033795822633742034 0.000009411536136871845 0.0000016476974837864589 7.964582318109592e-7 -0.0000011283650191984407
          -0.0000014721931456129767 0.0000037055236896677 0.0000013518229764475365 0.000010943295366327987 0.000004466692386406734 0.0000022806570041389307
          -0.0000015747427086765242 0.000008300315428311222 0.000005181819713762081 0.000004240861362858617 -0.0000017219770008236601 0.0000041680570052604615
          0.000009786964762392714 0.00000788748651836535 0.00000295780768011511 0.0000025218343233657237 0.000005720882318316356 0.0000036748853264878534
          0.000003489216537921891 8.300455900389636e-8 -0.0000016172319454721418 -0.000002077607185069219 0.000007155497145916456 2.6361290095255896e-7
          0.0000012721419924144328 -7.286688646912509e-7 0.000007706861878009619 0.0000037501503995507335 0.0000048486005511660935 0.0000030548970428867506
          0.00000387347672758942 4.069238406234632e-7 0.0000045976768010547175 0.000007171559281204942 0.000003450788549019812 0.000008212378501903927
          0.000014515792781333303 0.000014437451077098373 0.000011034945875953994 0.00000982665080839773 0.000009737013291433172 0.000006986620481708172
          0.000009967906193349141 5.822263213980938e-7 0.00000462359313022076 0.0000048474013114585546 -0.0000010264611844945648 0.000012237859185582067
          -0.000002124900354116832 0.0000075816169089470975 4.156759267903709e-7 0.00000385075218356512 0.00001843032449455606 -6.395684413185165e-7
          0.00003856998529983002 0.000004797453001748053 0.000023292341048364307 0.00000654558812462902 0.00001438810643561439 0.000008310737471983742
          0.00000528600487781361 0.000004526122429349133 -9.672791607684417e-7 0.0000010807574165050404 0.0000018431354795733768 0.0000015407237916598149
          -0.0000011698746595900644 0.0000028031758514401872 0.000003944998827831725 0.0000015930079173553935 -0.000001626929000853039 0.000004166739969502231
          0.000001917506115889367 5.949544596983714e-7 0.0000023309656713710325 0.0000061858470499220886 0.000005203013168753046 0.0000034845012153450483
          0.000017232208917139502 0.000011599744786039423 0.000012437825566813387 0.000007407816366100661 0.0000011496451985948397 0.0000020921187895428517
          3.199865186154227e-7 0.000005497052852687645 7.799277776943114e-7 0.000009462189891618067 0.000014278066093664776 0.000005888650845831123
          0.000005471311412597046 0.000013704781950840683 0.000010443617198152566 0.000010715682224438083 0.0000034092080423153703 0.000009946450486797431
          0.000001358080667368533 -0.0000017771464008164983 0.0000012282086145898319 0.000013782727748212764 0.00000954651375972837 0.000011241404790807152
          0.000007589003097829838 0.0000044473584446258485 0.000006579439666865028 0.000008375740473187676 0.000014806859449656429 0.000008805013064439038
          0.0000160023862385561 0.00001600054458084088 0.000007965151850530816 0.000004762604347785526 0.000010250624124408247 0.000009274997835095888
          0.000004021929693953652 -2.6252335505461133e-7 0.0000026770287102628743 0.000006625284315608937 0.000003886318832524438 0.0000036044270450563687
          0.000002417246079522428 -0.000002460737958120962 0.0000012744680495391236 0.000013310037766389726 0.000004138389000374332 0.000008123088727218786
          0.0000033520790658769783 0.000005028211129243232 0.000004119712573080747 0.000009326394291103712 3.526537749598546e-7 0.0000027198673378803218
          0.000004448544585589076 0.000015026948488428005 0.0000029818813871429484 0.0000012162711515717461 0.000004998599850036811 -5.198627055502669e-7
          0.0000027025440407779655 0.000009406473936879323 0.000002509890587365504 0.000006414097848628231 -0.0000013616096057322835 0.000003334627153961378
          4.857759416942997e-7 0.0000011140971740708494 -0.0000025777712258090446 4.4565842860500027e-7 -3.5371001683159875e-7 5.680571788513333e-7
          0.000008872980308938239 9.234395992319122e-7 0.00000501735640390244 0.000005702688154585189 0.0000034053239772458 0.0000046534736013459366
          0.00000633339134381572 0.0000028533042957246124 0.0000056767517615519125 0.000004494066851767897 -9.18957021589506e-9 0.0000017308984783248604
          0.000002354245946634137 0.000004016391488725901 7.879442431857342e-9 0.0000015789305745084192 8.658792658433612e-7 0.0000022347026880087384
          0.000008006975169227992 9.539593044394223e-7 0.000003873811120103099 0.00000615706579720765 0.000008348137443991988 0.0000044640281042784835
          0.000013716509772554453 0.000018692757727256648 0.000009622028455891218 0.00000806340010406359 0.000012099861946168744 0.000006044042645481085
          0.000015527282528626785 0.000007750334790390667 0.0000071002464625546935 0.000007488588506521232 0.000011214433893513842 0.0000052680309856611984
          0.000004516872763593582 0.0000072536355695262955 -5.422943302191285e-7 0.0000018260844321105196 1.152662645331759e-7 0.000003632873163406103
          0.000009693293572254902 0.00002057622328077713 0.000012033184646043082 0.00000937761782449087 0.00000813657749088037 0.000015760929173325167
          0.000014271284610956059 0.000009202302503119597 0.00000955057405871429 0.000007088340884475741 0.000011707408311689704 0.0000059286602176467085
          0.000005388919542159698 0.000004951779770223652 0.0000059092497233237395 0.000004964654178429839 0.000005808098605619705 0.000004890567205206864
          0.0000037115542279586577 0.000012915297649129798 0.000010736453587512074 0.000023665860475752254 0.0000061348763218394 0.00001692311061862739
          0.000009262830512613007 0.000008987903850066203 0.000005282702306708131 0.00001647419959871499 0.000023456913053720996 0.000013977786073926524
        </DataArray>
        <DataArray type="Float64" Name="resid_y" format="ascii" RangeMin="-0.01169287668029834" RangeMax="0.003712116064603252">
          -1.1202201624562619e-7 -2.9899061821520023e-7 -3.4760665465960114e-7 4.971437450162347e-8 -2.1497594099913891e-7 9.717149744613643e-7
          -7.302950309504095e-7 6.036931202149307e-7 8.219448383410544e-7 0.0000017751347001285223 6.4031050266627e-7 8.267743049107656e-7
          -0.0000010430189732414316 -5.481603694845738e-7 -4.5829945183230997e-7 -1.757124789992376e-7 -0.000002071762221118878 -6.810162577041562e-7
          8.957976770215467e-8 -6.827834020191499e-7 0.00000146090053443175 0.0000016948063742252065 0.00000106207773139513 3.4116174444428354e-7
          -0.000003201434467159283 -0.0000020146473920044233 -0.000004437446638251921 -0.000004255739414231116 -0.0000025681023493261644 -0.0000024247023329721645
          0.0000017410001223530647 4.748864895659272e-8 -2.601973315338995e-7 0.0000036963451389114554 0.000003097728741671365 -1.3910310718578695e-7
          -0.0000012218473250322215 0.000008428239318275478 0.0000014045982986331728 -7.832641859844994e-7 -8.382027368147166e-7 0.000003965835707247416
          0.0000013886255577316535 0.0000023800332835770266 -3.6293794634944827e-7 -3.4195576299397845e-7 1.0293741847106075e-7 -2.280096719048906e-7
          -3.6048775301986136e-7 1.4649574814947636e-7 -0.0000043410251082173085 -0.000002957226037493023 -8.156424779141164e-7 -8.76523536647543e-7
          -0.000012359911759299985 -0.000006477906469297152 -0.0000015019015843589258 -0.0000016628405156938683 -0.000007983718837980495 -0.000004132163558903624
          -1.1275214776109484e-7 5.205008156475809e-7 3.847003698794708e-7 -2.580317407783507e-7 1.0585656664402997e-7 9.3637519286505e-7
          -3.169935599333165e-7 -0.000002682354832988674 -0.0000010731086441662357 -5.84057507563903e-7 -0.0000017912456117927418 -0.0000026463398557722423
          0.000001407374650866898 2.3449484406611217e-7 2.0911055114390675e-7 -0.0000010594089775255427 1.6168797742441982e-7 3.5373959823468103e-7
          -5.6972922640903534e-8 9.89037516339929e-8 -1.6552201592634431e-7 0.000002167898697832279 -7.830363141500063e-7 -2.8353422809590783e-7
          -0.0000029504642652572374 0.0000026828453116396137 -0.0000016977193508839212 -0.000001454869640805836 -0.0000026105847166980035 -3.3698418326836145e-7
          0.0000012008304377982004 1.7014850256036676e-7 9.317605299576093e-7 7.135689288791103e-7 0.000001048781519592118 0.000003273177217620604
          -0.0000010031312537711612 4.060180195516669e-7 0.0000016982480370280467 -2.245096548448601e-8 1.3521042725099346e-7 3.2469686028237504e-7
          -3.9489276019023366e-7 4.180889490231366e-7 5.559661155217412e-7 0.0000014637057779444927 -2.097056491300953e-7 -2.082121484188633e-8
          8.630363945911525e-8 4.466922925690578e-8 2.1434038587585247e-7 -1.3512546166998159e-7 1.843869156545417e-7 3.901113257459999e-7
          -2.3002414798259374e-7 -0.0000011380995506471599 -0.00000114258600472498 -3.0612002872203517e-7 -0.00000235800735945901 -0.000002753709191678994
          -0.0000034832623861289717 -0.0000031450177504317375 -0.0000031162749102855644 -8.649518870088285e-7 -0.0000016274093578112422 7.573121676139084e-8
          -0.0000030280788411627367 -0.0000011189493341614513 -6.450571307047535e-7 -0.0000026031784355834767 -0.0000014375170741905054 -0.000003969567983838282
          -0.0000025539795668661804 -0.0000027633827167845067 -0.000005462655469485895 -0.0000023622358915916354 -0.000007651639093386514 -0.0000013552931300173056
          -0.0000074095819664178695 -0.0000016999583402085394 -0.000003346222685806635 -2.6092404999903535e-7 -0.0000016347245522832206 -4.780244532878557e-7
          -4.8117302376684754e-8 -9.284685321932695e-7 -8.591673747685314e-7 -3.357762978486653e-7 0.0000011862552315840486 -1.3489591588341458e-7
          7.710946422341504e-7 9.32044366545523e-7 6.550999671186891e-7 -1.302882594882062e-7 -0.000003089148933768486 -0.0000059955409410176325
          -0.000005596780765914668 4.25344074072697e-7 -0.0000024588291078493207 -0.000012000565553670593 -0.000010265392261173817 3.594542214220998e-7
          -0.0000015443774401110912 -0.000005654253848588319 -0.0000047327734988703365 6.582929976185238e-7 2.9651367538510373e-7 0.0000012038263318720367
          -4.275488860124889e-7 4.0223942747918615e-7 -0.0000012647865874123448 -3.8906364020069306e-7 3.152348591558586e-7 -2.9881553998962855e-7
          -0.004411794877276006 -0.002602927532673753 -0.008832654576345396 -0.005214091309921346 -0.004434438273995726 -0.002695152218795215
          -3.275186165607735e-7 0.0000015730726244723471 -5.396124503859005e-7 -1.1695727445315725e-7 -5.740310475431561e-7 9.614100004540042e-7
          -0.0000024991919165219447 -0.000001436703317595411 -0.0000034015743312731765 -0.0000037035304977402206 -0.000004983233009391366 -0.000002375488109763969
          0.000002494597977656561 -0.000001099793144899541 0.000003010533218898194 -0.0000033517928450121524 0.0000013504953073908109 -4.0792159567467744e-7
          -0.0000036825390348563247 -4.6693150626336485e-7 -0.000005474688331546379 -0.0000012698590272268787 -0.000004847070618581393 -0.000004428450100919107
          -0.000003566929266616767 -0.0000021402782597831384 -0.000002143195558647424 3.2233787681515066e-7 -7.242338700219966e-7 -3.5325685740408147e-7
          7.211121584101317e-7 1.9128653268047496e-7 3.1916236793109315e-7 -1.196381713220243e-7 4.986343136999076e-7 -0.0000012042998203524481
          -8.764832637063111e-7 -9.626521845092738e-7 0.0000012131829941123932 -4.1788711460395006e-7 -7.43468642776593e-7 -6.452233212803776e-7
          -3.8582898592622733e-7 2.669102717703549e-7 -0.0000019900696755616523 -0.0000034797901846666396 -0.000004085458327331842 -0.000004582032324832418
          -0.000002416455371191586 -0.00000748540874306175 -0.000005356104526789765 -0.000003868840732726246 -0.0000034688086929766937 -0.0000019436565704290115
          -0.0000017817923049648701 -0.0000034837150392282197 -0.00000371604260228928 -0.000001387800555738412 -0.0000014824185110691402 5.44355958532073e-7
          -0.0000017085107181082304 -0.0000021796914832345436 -4.928948022561025e-7 -0.0000028171307575216014 -0.000004342270162997503 -0.000003552654656803142
          -1.0040856340397687e-7 2.8402864146672042e-8 -0.0000021689901940169336 -2.9309941168976887e-7 -2.735057713569404e-7 -0.000004308839885574026
          -7.635494025918675e-7 -0.0000023134078992550523 -0.0000030843750113795747 -0.0000036988080069407653 -0.000002100049257644076 -0.0000030099595133398736
          -0.001166192973298762 -0.002338714601849454 -0.0012166861975719649 0.0000011686130978131454 -0.000001167796263985138 0.0000017282600486417943
          -4.4903797285361646e-7 3.0812607480779075e-7 2.2589221412502858e-7 -0.0000016113645939919282 -5.228599570116128e-7 -0.000002269219847188253
          2.4187449232772676e-7 -0.000003427264997733683 -0.0000025428446482679036 -2.677933490609005e-7 1.7093892332176175e-7 -0.000005532043308292649
          -0.0000015594471644763894 -0.000002084694072871946 -0.000005053761269462054 0.000001187989701226938 -5.691581004651884e-7 0.0000015551426440769782
          4.3796912958500925e-8 -2.5373641506952135e-7 1.641159017616925e-7 -0.0000017479962782576686 -9.690009730341231e-7 8.70294304835097e-8
          -1.3133988526706913e-7 -0.0000034071326201028096 -0.000001962571571258523 2.3777974146946268e-7 -5.166653296391401e-7 -0.0000020477619465907038
          -0.0000012629951263581907 -6.557604628131767e-7 -9.927335588473529e-8 -3.7053099472775936e-8 -7.525811559383911e-7 -1.232836296049221e-7
          0.0000016943254529490966 -6.630596814400508e-8 -5.919732163595873e-7 7.877965450406787e-7 8.222859249490139e-7 -1.276557736610076e-7
          2.0146262198110845e-7 0.0000011491031034380986 7.721813296702584e-7 0.0000014934876749472803 -8.423889198173884e-8 -3.8201727343804837e-7
          0.00000326139578054295 -5.457690320114818e-7 -0.000001723434485936294 0.0000016681864549181538 -3.6870596044043594e-7 -0.000001358829742842925
          -0.0000036087337550148608 -0.0000016353780348948854 -0.000002859430100682521 -0.0000026915193585561395 -0.0000036517271667924067 -0.0000030375409068579377
          -0.000003412017442182627 -0.000003226625722512269 -0.000005108521335653662 -0.000005734068300754236 -0.0000026445089909808706 -0.000003652447761962746
          -0.0000017996192129099246 -9.825542844569407e-7 -0.0000016239717040812066 -6.036499253063432e-8 -8.228934534454911e-8 3.0012263187162436e-7
          -0.000007973586553467783 -0.000004135222886835887 -0.000003100989856604907 -4.709045028886312e-7 4.082601436021082e-7 -7.578040074427556e-7
          1.5665783662096797e-7 2.292213324359138e-8 4.122893062946144e-7 -1.6263380187529763e-7 -6.957220338764739e-7 0.000001327028809464982
          4.2206199544689293e-7 -1.210706830605951e-7 1.0619747956887304e-8 7.205950633519531e-7 1.827458159502776e-7 -1.2556867247295184e-7
          5.342311318922224e-7 4.3157576475874246e-7 0.000001156185743128764 0.0000016039290704986803 -7.991119783294989e-8 1.345375313880487e-7
          -0.0000030213266249286795 -7.220669688786686e-7 -0.000003042231115168645 -0.00000376912831517558 -0.000003172779307660141 -0.000004247192070126488
          0.0000017836202681467336 0.000003041432988131528 -0.0000011770786104625328 -7.289734197798645e-7 -0.0000016928605580729048 -0.000001299428933591515
          -0.0000020051068996233953 -0.0000014896734864080531 -0.0000018383489290675972 -0.0000011519086151562212 -0.0000016968583831868285 -5.210973696508255e-7
          -9.291498321798569e-7 0.00000117675251199139 4.200280734065545e-7 0.000001763323103024482 0.000001304642895161301 9.57751877114603e-7
          1.4646841983191605e-7 -2.9060774303212716e-7 -6.223024528323462e-8 7.650739171712224e-7 4.018967219650456e-7 5.847550697416284e-7
          -0.0000011846406757494259 -0.0000033060151684257723 -3.002629083270064e-7 -0.0000018123975345134616 -0.000001933755918381245 -0.000002949348051670738
          0.000001263340879490045 -5.344435770370318e-7 -7.686695308417417e-7 7.299848594779189e-7 -0.0000030164673948257503 0.0000013105613775697819
          -0.000005232405190893838 0.0000017082359131141353 2.57090818310806e-7 -0.0000024580499756100176 -0.000005995348846695467 -0.0000029449820282580327
          -0.000002161755459769376 -0.0000031237887757458406 -1.4927397720438263e-7 -8.115883446663643e-7 -2.6612719577318814e-7 0.0000010063144858804898
          0.000003089925200287216 0.0000023809229534577613 -2.48786719446653e-7 0.0000017533161494108582 1.642255450474896e-7 -6.230648109944997e-7
          -8.316260650350661e-7 -0.0000012822942279181447 -7.980375628395862e-7 -0.000009858616284762547 -0.000009139646851419672 -0.000014640960572622971
          -0.000014350783606602996 -0.000007762861743867804 -0.000008121773923137204 0.000001565695999662664 4.5041074395440334e-7 0.0000016662287349636894
          0.000003222992546354775 -9.268413860806513e-7 0.000002299433845247799 0.0000010624573005078158 -1.0994968644133934e-7 9.604519393040592e-7
          4.7035827910324457e-7 0.0000010176373385023616 -0.0000027926129074729803 2.723550811987649e-7 -8.113788809748553e-7 3.4900981467442943e-7
          -0.000003988759590656341 -0.000005587201876187248 -0.0000027780239046960864 0.0010493057951391038 0.0016009511214444617 0.0021003211086922224
          0.003202853913048103 0.001019348784210566 0.0015728379790231851 0.0018554057110712475 0.0018324694893983597 0.003712116064603252
          0.0036681626309798395 0.0018432946905063002 0.0018413577387024196 0.000002113312544928074 1.479566082963034e-7 9.595209766451e-7
          3.837382074210402e-9 -0.0000013249877717908237 -1.1987284666173208e-7 -0.000002789921073967751 -0.000001640923471548381 -0.0000016421947495477013
          0.00020307982217269456 0.0000021212271892153594 0.0004043873242159391 -2.3141166101859224e-7 0.00016990213591088312 -9.456061751810397e-7
          -0.0009018053719766843 -0.0018109396545110943 -0.0009604284292156356 5.452249593300429e-8 -4.42912278164273e-8 5.456077380207314e-7
          -0.0022266694156408 -0.004473754315724015 -0.002327358253878185 6.232865612096003e-7 2.781771265411223e-7 8.516211469902432e-7
          7.915656004989311e-7 7.393288747310853e-7 0.0000011187977176645332 0.000003316218747471153 -0.003930183951897723 0.00000452438005348933
          -0.007889766811536823 0.0000021247408492919024 -0.004092282109978338 -0.0000020598301578066483 -0.0000027458423703060654 -2.2201331635997648e-7
          0.0000014636343295387072 0.0000010026290427011218 0.0000023014547446682625 -0.0000010089903405086434 -5.708576728850542e-7 -0.0000011138271907972647
          1.9847503978601827e-7 4.905652110373873e-7 -1.7455360891427407e-7 -4.66301098035575e-7 1.647963007618547e-7 7.429516592858537e-7
          -0.000006335492839445577 -0.0000028725713044734646 -0.000002753326830513261 -0.0000020631905306763704 -0.00000194166083647071 -0.000002063697787407781
          -0.000007005662341583521 -0.000011644371710837348 -0.000007180161499389243 -0.0000012706058009381068 -0.000001822586470063333 0.0000012843893794702325
          6.702701457203877e-7 9.47041738392964e-7 2.8065997928830577e-7 6.843562386350355e-7 0.0000027920876986640823 0.000001092445380254008
          0.0000013476491825430755 7.039724670239098e-7 0.0000025634846808947256 -0.000001486837172944011 8.690933753253971e-7 -0.000001750424651519476
          6.291006185528067e-7 -8.298119364615747e-7 4.6336855999765114e-7 2.903261458967604e-7 -0.0000023036079314399383 -3.144797937034219e-7
          -0.0000012910117880978941 -0.000002477118643068321 -0.000001478650150451774 -0.0000027585749162507313 -0.0000036310786036995377 -0.0000020734312485108652
          -0.0000018584184113893385 -0.0000018779852802235477 -5.521170111505696e-7 0.0000013010513720459332 -2.5952262619911154e-7 0.0000021716353544925723
          4.8129799367323256e-8 0.0000022281244798959612 1.7835166070401254e-7 -0.0000025609668293506314 -0.0000017307822346821107 -9.97070084464305e-8
          8.083488797659341e-7 0.0000015518473693001337 0.0000013199798897956666 -2.639641261804968e-7 9.886110122357596e-7 2.74996023165398e-7
          5.252142379493473e-7 -1.219714564028773e-7 0.0000028082609144566297 -4.5937030599305334e-7 0.0000018904059784178185 -6.805901285033829e-8
          -0.0000012398483140796737 -2.570519876720148e-7 -2.406921692124468e-7 -9.842133792594548e-8 -0.000004181306054880027 -0.0000011050076313911215
          -0.0000010927862670066443 -0.0000014167737377949324 -0.000003533182603177379 -0.0000014405040925885397 -0.000001565716304339007 -0.000002058289412710905
          1.1220109231860689e-7 4.037121453953369e-7 6.455883782203499e-7 -0.0000034744124817989892 -0.0000026699221441443127 -0.0000028806192440334645
          -0.000002804401694949299 -0.0000034752957388824017 -0.0000015089613236632512 -0.000002805086446358519 -0.0000022313018401225572 -0.0000028947722966448514
          0.0000019386814319878164 0.0000011796741188538611 5.980233418710623e-8 0.0000027944841501006262 6.211656120407028e-7 0.0000027310209912076444
          1.6954774493919966e-7 0.0000014510221742584928 8.24257371874644e-7 -0.0000027993014374218966 -0.000002420500112075173 -9.572401521665426e-7
          -0.000003651575503099084 -3.106452454678982e-7 -0.0000024517542761754753 -0.0000022027582521830236 -0.000005536268162555091 -0.0000030420992771168845
          -9.329178427967041e-7 1.854837858923002e-7 -2.613887198792998e-7 -8.898182865429202e-7 1.6375466648107205e-7 -1.8945557149268807e-7
          2.1683407222788248e-7 3.7448870688211184e-7 1.5195330656941897e-8 -7.003462118519016e-7 -4.329603549811656e-7 1.367794676901136e-7
          5.829627155399392e-8 -0.000002682263356947089 -9.00453920550312e-7 -2.518656473778094e-7 1.127640874096919e-7 -0.0000017235859492838006
          -0.000002014757728664371 -5.26719947947004e-7 -0.0000024022657771163337 -2.6820498137507254e-7 5.723068116909695e-7 -6.224664195024487e-7
          2.3664631921367293e-7 -0.000001089969721928749 -2.1240440102100223e-7 0.000002420289883045242 0.0000011816120931046098 0.0000016500171402346114
          -2.1955136394536442e-7 -0.0000015766392746863417 -0.0000016838366188313319 -0.000001095378751868846 -0.0000017287069052583908 -0.0000014140701196589233
          3.022680170922283e-7 4.35491553701841e-7 3.976726991271589e-7 -0.0000028773199749046246 -0.0000019116576813476985 -0.0000027257111262974677
          -0.0000030367723977612997 -0.000004075666020319276 -0.0000022605418154722848 -0.000007133657088546214 -0.00001090698909139362 -0.000005524975946083303
          -0.0000045049052798713666 -0.000003917025723565188 -0.00000404356301851892 -0.0000031340419954276034 -0.00000235507911803027 -0.000003249251501305766
          -4.725319067058059e-7 5.263232170961418e-7 -3.0443839972235653e-7 -0.0000013830233323358296 -4.111494511897795e-7 -0.0000010022774578717294
          2.1779739242579893e-7 -8.798866587612399e-7 -5.227202216609352e-7 -3.7792009829104144e-7 0.0000015124566876341698 6.560641952775949e-7
          -0.0000033675593652335994 -0.0000049544184938920405 -0.0000032290274277375908 6.206326323071132e-7 -1.563932674415779e-7 1.2162657152476122e-7
          0.0015064565140997985 5.197799239207339e-7 0.0008883739911803058 0.0030170259150636165 0.000002029266191675219 0.0017815325672950566
          0.0015206681204704559 8.180904970290104e-7 0.0008912898726199242 -0.000001214769312743967 3.912661181246918e-7 -7.629336125757752e-7
          -1.1046945963370802e-7 -3.5492990223089105e-8 8.946740262007202e-8 3.009160959247664e-7 6.546620504753117e-7 6.070946907922245e-7
          -1.3133569447005417e-7 0.0000012651477322087046 -6.268955816029001e-7 -0.0000013558052877376463 -0.00000286354255165809 -8.247339270792305e-7
          -0.000009334640669028628 -0.000018002184413290365 -0.00002515226875811043 -8.322349956011929e-7 0.0000011453706867618069 -4.087502666859366e-7
          -4.716494509558397e-7 -1.101270097184949e-7 3.9889903536132615e-8 -5.715525501072231e-7 -7.760427595052133e-7 -0.0000015025020516381236
          -0.0000017646540150430962 -0.000002897556426259204 -0.0000016134463267265808 -0.000002601140229332999 -0.000003421773217007762 -0.000002430831700419786
          0.0000037796171509113 0.0000062198000473070655 0.0000032991885157258264 0.0000016210449259399656 0.0000030772448130315933 0.0000016777291497547392
          7.263266959575514e-7 -1.7990464789511412e-7 -2.825875259511706e-7 -4.4663731875926524e-7 -2.293645984426107e-7 -6.230579500379405e-8
          4.309614018570447e-7 0.000002021271174187326 8.620599334012522e-7 0.0000017617660567196582 9.289663971540074e-7 0.000001860255290420977
          0.0000034802891430390885 0.000008518099310737479 0.000005141653030031048 4.2659515560403843e-7 2.599706181750927e-7 -0.0000020898359596732696
          0.0000013430655639752598 2.8970385079329225e-7 0.000003581496208925408 0.0000032584410092906246 0.0000035513840085325127 0.000002165835823292675
          -0.0000012324807274820097 -0.0000016280988102473568 0.0000030029917914712115 -0.000003265765068574157 -0.000004845743875281101 -0.0000014481248094106672
          -0.005842431906775979 0.000007861130513936963 -0.01169287668029834 0.000011076169864567345 -0.006013679290086072 0.000004404070786691999
          7.733257700799938e-8 -0.0000026959773261015993 -7.436158904039329e-7 0.00000954702365210322 0.000017294954060947595 0.00000836948793282808
        </DataArray>
        <DataArray type="Float64" Name="resid_z" format="ascii" RangeMin="0" RangeMax="0">
          0 0 0 0 0 0
          0 0 0 0 0 0
          0 0 0 0 0 0
          0 0 0 0 0 0
          0 0 0 0 0 0
          0 0 0 0 0 0
          0 0 0 0 0 0
          0 0 0 0 0 0
          0 0 0 0 0 0
          0 0 0 0 0 0
          0 0 0 0 0 0
          0 0 0 0 0 0
          0 0 0 0 0 0
          0 0 0 0 0 0
          0 0 0 0 0 0
          0 0 0 0 0 0
          0 0 0 0 0 0
          0 0 0 0 0 0
          0 0 0 0 0 0
          0 0 0 0 0 0
          0 0 0 0 0 0
          0 0 0 0 0 0
          0 0 0 0 0 0
          0 0 0 0 0 0
          0 0 0 0 0 0
          0 0 0 0 0 0
          0 0 0 0 0 0
          0 0 0 0 0 0
          0 0 0 0 0 0
          0 0 0 0 0 0
          0 0 0 0 0 0
          0 0 0 0 0 0
          0 0 0 0 0 0
          0 0 0 0 0 0
          0 0 0 0 0 0
          0 0 0 0 0 0
          0 0 0 0 0 0
          0 0 0 0 0 0
          0 0 0 0 0 0
          0 0 0 0 0 0
          0 0 0 0 0 0
          0 0 0 0 0 0
          0 0 0 0 0 0
          0 0 0 0 0 0
          0 0 0 0 0 0
          0 0 0 0 0 0
          0 0 0 0 0 0
          0 0 0 0 0 0
          0 0 0 0 0 0
          0 0 0 0 0 0
          0 0 0 0 0 0
          0 0 0 0 0 0
          0 0 0 0 0 0
          0 0 0 0 0 0
          0 0 0 0 0 0
          0 0 0 0 0 0
          0 0 0 0 0 0
          0 0 0 0 0 0
          0 0 0 0 0 0
          0 0 0 0 0 0
          0 0 0 0 0 0
          0 0 0 0 0 0
          0 0 0 0 0 0
          0 0 0 0 0 0
          0 0 0 0 0 0
          0 0 0 0 0 0
          0 0 0 0 0 0
          0 0 0 0 0 0
          0 0 0 0 0 0
          0 0 0 0 0 0
          0 0 0 0 0 0
          0 0 0 0 0 0
          0 0 0 0 0 0
          0 0 0 0 0 0
          0 0 0 0 0 0
          0 0 0 0 0 0
          0 0 0 0 0 0
          0 0 0 0 0 0
          0 0 0 0 0 0
          0 0 0 0 0 0
          0 0 0 0 0 0
          0 0 0 0 0 0
          0 0 0 0 0 0
          0 0 0 0 0 0
          0 0 0 0 0 0
          0 0 0 0 0 0
          0 0 0 0 0 0
          0 0 0 0 0 0
          0 0 0 0 0 0
          0 0 0 0 0 0
          0 0 0 0 0 0
          0 0 0 0 0 0
          0 0 0 0 0 0
          0 0 0 0 0 0
          0 0 0 0 0 0
          0 0 0 0 0 0
          0 0 0 0 0 0
          0 0 0 0 0 0
          0 0 0 0 0 0
          0 0 0 0 0 0
          0 0 0 0 0 0
          0 0 0 0 0 0
          0 0 0 0 0 0
          0 0 0 0 0 0
          0 0 0 0 0 0
          0 0 0 0 0 0
          0 0 0 0 0 0
          0 0 0 0 0 0
          0 0 0 0 0 0
          0 0 0 0 0 0
          0 0 0 0 0 0
          0 0 0 0 0 0
          0 0 0 0 0 0
          0 0 0 0 0 0
          0 0 0 0 0 0
          0 0 0 0 0 0
          0 0 0 0 0 0
          0 0 0 0 0 0
          0 0 0 0 0 0
          0 0 0 0 0 0
          0 0 0 0 0 0
          0 0 0 0 0 0
          0 0 0 0 0 0
          0 0 0 0 0 0
          0 0 0 0 0 0
          0 0 0 0 0 0
          0 0 0 0 0 0
          0 0 0 0 0 0
          0 0 0 0 0 0
        </DataArray>
        <DataArray type="Float64" Name="stress_zz" format="ascii" RangeMin="-3785.702191730692" RangeMax="3419.3279333454084">
          -612.0362521990799 -433.870746711395 -732.6921646369824 -507.12536407565864 -615.4066946686637 -417.743953069504
          -724.9926313107344 -499.42430950305265 -618.7771371382473 -401.61715942761305 -717.2930979844864 -491.7232549304467
          375.317034619692 -94.92039186076886 -1084.3678669490469 -32.44120108458836 383.9140956060545 -111.87393700531531
          -1110.8627114885162 -45.15826512326397 392.51115659241714 -128.82748214986168 -1137.3575560279853 -57.87532916193959
          728.2490918669366 244.29403287884875 774.5003444727591 248.5177149365022 820.7515970785818 252.74139699415565
          -106.80777044880635 6.385941052081364 -374.17629901292 -1716.7049911045049 -102.09235769495825 5.032290482378627
          -424.3111047362444 -1787.51253230242 -97.3769449411102 3.678639912675891 -474.44591045956867 -1858.3200735003354
          -571.36574746879 -57.79394320962872 -563.713267809908 -58.43376127839021 -556.0607881510258 -59.0735793471517
          -1377.7615871345185 -901.1638735920706 -138.0441898865484 0.7296481388276561 -1390.2759180106057 -1004.6588783819525
          -146.1748243218322 -14.050738629811462 -1402.7902488866926 -1108.1538831718342 -154.30545875711613 -28.83112539845058
          259.59797902813153 451.57200999587997 678.4885138473645 286.7018993215438 255.61918454245657 456.6102307578818
          684.4991771541206 297.42310061766983 251.6403900567816 461.6484515198837 690.509840460877 308.14430191379586
          -284.94552604803187 -390.7874618671125 -283.5588675737583 -395.2254620532203 -282.17220909948475 -399.6634622393281
          -50.53173750545876 542.1936197687464 592.9860356314277 447.45182350940456 -56.848919741740815 546.4536852351961
          575.9411599778459 441.72155318893516 -63.166101978022866 550.7137507016456 558.8962843242643 435.99128286846576
          -463.1579272249329 -308.560716103643 -726.4125553985098 -454.75784148567664 -297.64211363964915 -759.787299117444
          -446.35775574642037 -286.72351117565535 -793.1620428363783 264.7655359363764 221.26965766422325 -49.03242295139274
          37.73895419795234 277.97469967590047 211.78073197227283 -57.88888525083665 45.75129471228607 291.1838634154245
          202.29180628032242 -66.74534755028057 53.76363522661981 -507.0368220407797 404.1015860930253 427.2667489127173
          -196.73741885054665 -517.2412953735757 399.18990487665263 428.0804798737312 -210.85129922712102 -527.4457687063716
          394.27822366028 428.8942108347452 -224.9651796036954 578.4246002643616 607.6985306137869 636.9724609632124
          -1533.9648768467887 -537.5257132143873 278.2290142342514 -1646.7495853034109 -575.4971079451892 332.16931313034286
          -1759.5342937600333 -613.468502675991 386.1096120264344 -105.7567612350569 360.126565925769 -90.55462937021312
          354.0188682611346 -75.35249750536934 347.91117059650026 169.79865064650923 538.8277965806052 344.5831219633893
          192.60563602747638 154.42012993767952 540.3462415024051 347.53081105322104 187.77455385551775 139.0416092288498
          541.864686424205 350.4785001430526 182.94347168355915 73.11483118854926 -799.7820014549502 -424.22001136475546
          -148.79126046511078 50.089093157896286 -816.5312935292188 -400.88951444241593 -169.18631335250205 27.06335512724337
          -833.2805856034873 -377.55901752007617 -189.58136623989327 398.8578844610161 378.5453895448983 13.701991527667062
          414.3051237488185 365.1819203259757 22.02811586034578 429.7523630366211 351.8184511070531 30.354240193024495
          685.4637508372907 1233.0565111335384 705.3382872090782 1263.6420122622837 725.2128235808658 1294.2275133910293
          93.33125735172015 540.3254585879249 860.8794007933914 165.67107386621223 89.60157088382746 527.8309901408321
          873.913472010715 173.06790284062023 85.87188441593476 515.3365216937392 886.9475432280385 180.46473181502824
          577.4925474834191 635.4687306894625 576.3923855768664 616.6365529447987 575.2922236703138 597.8043752001348
          602.0562996640374 -243.97470551935135 640.786255283989 -193.6789665636162 679.5162109039404 -143.38322760788105
          -773.5913043627693 -776.9191495008452 -790.8157060118054 -803.7067536038127 -808.0401076608414 -830.4943577067804
          11.615300116929241 -59.5295044453896 126.85759919664002 306.2344266828908 18.403208885735772 -49.95759100643991
          132.8171944062526 299.90778567584147 25.191117654542307 -40.385677567490234 138.7767896158652 293.5811446687922
          -141.4085703058434 880.7309070614407 -154.5883321894156 910.3940062173431 -167.76809407298785 940.0571053732451
          459.76960251135654 484.2086519671612 508.6477014229659 474.27329386558205 315.62265881863686 507.73130080876
          303.77232525896443 541.1893077519381 291.921991699292 -695.9818193435559 -2052.585690570088 -1286.8799390714196
          -699.8005842917755 -2145.439407719716 -1256.1667290871646 -703.6193492399954 -2238.293124869344 -1225.453519102909
          134.88541782886628 394.01767122671004 132.2743379918434 125.59660252420865 394.80722389669467 149.06368862757142
          116.30778721955103 395.5967765666793 165.85303926329942 624.5407672597507 626.8112783639978 629.0817894682446
          1021.5350785269425 1068.842844772035 1116.1506110171276 147.33910417326874 228.85271773317834 174.97096345719942
          201.97473819123906 202.60282274113018 175.09675864929974 85.75475856691872 84.78012336948996 83.80548817206119
          279.1647850836754 564.5088784158561 141.72699335944648 287.00880777013896 572.6379838017475 129.94209538694003
          294.8528304566027 580.7670891876389 118.15719741443357 414.1989252405561 -54.2314969049894 406.5846240280683
          -57.92498536478766 398.9703228155805 -61.618473824585905 544.8084036002426 3083.5917102679546 1817.446025821433
          698.0418777677462 582.2211286104018 3251.4598218066817 1896.3224788036882 688.1270333356917 619.6338536205608
          3419.3279333454084 1975.198931785943 678.2121889036371 -1061.7625305581469 -763.5395886041547 -883.7786829109306
          -645.9828679702143 -1054.9317174816888 -769.7327752385384 -897.2038463586283 -639.2739298388462 -1048.1009044052312
          -775.9259618729219 -910.629009806326 -632.5649917074782 -634.8410593943526 -11.448092905658495 928.4462472111808
          -636.2110262682064 -7.1812655637428175 990.8662389092934 -637.5809931420603 -2.914438221827095 1053.286230607406
          -667.4278629432854 -709.4423277473713 -751.4567925514572 503.32654768961174 485.7674517411407 468.20835579266964
          680.4439881602311 61.023409150836414 772.0760847584296 63.2959310773047 863.7081813566285 65.56845300377317
          -184.73541008988087 -1038.6999818550344 -183.89988916678413 -1061.7119850658544 -183.0643682436874 -1084.7239882766744
          254.30553294249748 266.1519179162952 277.9983028900929 -472.472456972943 -780.4680701559228 -752.0319556466656
          -902.4807022094392 -473.33956432896804 -799.0568223749119 -768.7469523660902 -915.3078023874453 -474.2066716849931
          -817.6455745939014 -785.4619490855148 -928.1349025654516 87.30338057262225 93.21422650712367 99.12507244162512
          -537.646112617516 -551.755299405747 -565.8644861939779 798.2730868120793 522.8217123949403 820.0922761594094
          523.7566229568152 841.9114655067393 524.6915335186902 457.67717803035964 455.1203097554958 452.5634414806319
          456.1570983032412 711.1180019702997 463.24863224894176 721.3199575402564 470.3401661946423 731.521913110213
          1766.6322698853085 1771.3084361477734 1775.9846024102383 -8.577665504773783 76.90751347005113 -0.25927294118277544
          71.80438281724199 8.059119622408236 66.70125216443284 -276.5952702991307 -285.44874963267046 -294.3022289662104
          -749.8402053484176 -750.7284418278252 -751.6166783072329 197.73780590397664 201.82959602808074 205.92138615218488
          1451.443263099553 2288.875054202847 1440.1294950039478 2357.853751510256 1428.815726908343 2426.832448817665
          28.18025169314089 31.387908734137937 34.59556577513496 -174.3095996679678 1269.9120160321572 -197.83496028423173
          1311.6407731000727 -221.3603209004956 1353.369530167988 -52.326436616322 -13.14685773712511 -164.16300555774822
          -59.15621783889122 -33.75447052553912 -217.85131904238938 -65.98599906146045 -54.36208331395312 -271.5396325270306
          200.37884970975446 176.294541294492 263.84871832177896 193.5933450312782 161.69028335257863 281.22205810040225
          186.80784035280195 147.0860254106653 298.59539787902554 1496.6816275262604 246.2121336208872 1558.7876187516324
          296.0869826563557 1620.8936099770044 345.9618316918242 -677.5832291189363 -434.1978454434746 -1454.7193010277924
          -671.7658088810051 -463.743262740728 -1500.4429953104545 -665.9483886430737 -493.28868003798146 -1546.1666895931164
          285.2150699662592 1068.7019475860027 267.94921227652765 1084.395774473042 250.6833545867961 1100.0896013600811
          -796.0248284465216 -795.4074327067062 -794.790036966891 314.6911666465221 558.8224797194314 319.1935654954615
          575.3506120315396 323.69596434440075 591.8787443436479 562.2957199359847 312.0229542049666 563.9983543023604
          307.4502292777525 565.7009886687363 302.8775043505384 601.0239893359268 232.38673731604467 603.0519696985413
          224.15365686949536 605.0799500611558 215.9205764229461 637.4746103915621 626.089191804193 614.7037732168238
          426.68707587777845 190.85447917978982 449.08398831873114 177.78023672669258 471.4809007596839 164.70599427359542
          675.0949996017264 730.6813883129317 786.2677770241371 115.73882609153176 104.93690647603532 94.13498686053892
          943.8070846537221 1012.0316861256874 1080.2562875976525 315.8605507231896 308.01784325909904 300.1751357950085
          118.68591807281261 116.40250118424078 114.11908429566886 -552.6981798704251 2134.3577115378403 -628.6347193401723
          2232.982644701293 -704.5712588099196 2331.6075778647455 -509.5336140522287 -475.1219017491469 -502.50645345051726
          -470.238452289808 -495.4792928488059 -465.355002830469 -105.50481847590498 -112.3126026391622 -119.1203868024194
          -1063.61391232746 -1059.5381748812856 -1055.4624374351115 -206.43840359134487 -204.09995115728768 -201.7614987232305
          179.0565481829538 222.56228078048866 266.0680133780235 -505.6838119764993 -558.1764166245039 -610.6690212725089
          964.0671997701422 953.2246413493724 942.3820829286024 -611.4204006499643 -763.1469891307814 -608.3695818836349
          -774.1368387668771 -605.3187631173055 -785.1266884029726 -193.63197792747218 -194.52117289350437 -195.41036785953648
          138.59688230341612 498.22342614229865 139.58550585348314 519.91432743667 140.5741294035502 541.6052287310412
          -591.6516553957737 -270.49862163514956 -640.0391985174412 -587.9022964619427 -274.5444550851464 -633.1148663097053
          -584.1529375281116 -278.5902885351432 -626.1905341019693 -629.2125261687534 -639.4444481811454 -649.6763701935374
          69.0327570983996 59.98297021146313 50.93318332452667 1339.5640173165364 1048.6469680665534 1363.2300944187516
          1038.7046917548455 1386.8961715209662 1028.7624154431373 203.7363096752819 32.322458141282404 218.25287332585228
          29.47407608490805 232.76943697642264 26.62569402853368 -184.2601738774774 -180.9496139069171 -177.63905393635682
          304.74328581245254 149.93780007501772 299.2160200603605 152.50126875759872 293.6887543082685 155.06473744017975
          1015.5728929256469 1495.995971868821 -103.82806313407787 -1208.7027794217383 1068.4607434449633 1516.0959460356255
          -107.01943124044055 -1251.8509168164783 1121.3485939642799 1536.1959202024302 -110.21079934680321 -1294.999054211218
          -987.7357969435262 -996.3427590710594 -1004.9497211985929 -406.9661023365573 -407.050066181239 -407.1340300259208
          -1198.7111790270772 -1429.8618441280596 -1237.6570955397624 -1509.404975316125 -1276.6030120524474 -1588.9481065041903
          -548.8918017478296 -553.5059516858878 -558.120101623946 408.30349160204776 1114.8570471563714 429.70874027478936
          1131.0479133041442 451.113988947531 1147.2387794519168 -215.50157938490872 -1.274980467562898 -193.18768161300855
          24.930139002481994 -170.8737838411084 51.135258472526914 72.679598579052 69.75301941205139 66.82644024505078
          -305.57141791463096 -16.70217737873338 -309.8641819724297 -26.763039569355737 -314.1569460302285 -36.82390175997809
          165.563551732154 -168.32931747424487 -659.1833560830735 323.8977766133922 168.3997923274797 -179.69689158329987
          -668.2409978028953 350.782874740574 171.23603292280535 -191.0644656923549 -677.2986395227172 377.6679728677559
          58.9747734757074 70.69836195140749 82.42195042710759 -157.40048263656917 -585.4399279851203 -173.2336591762251
          -703.1768109008539 -189.066835715881 -820.9136938165874 277.321405945154 365.2623576374634 285.3364357124244
          363.42227024886034 293.35146547969475 361.5821828602573 507.4954503852084 504.48222343576305 501.4689964863177
          647.4373789578121 617.9882304563088 588.5390819548054 208.92334663861865 199.70153387106123 190.47972110350378
          757.7566107851361 769.64221879455 781.5278268039639 -273.4482769259631 -294.717925574279 -315.98757422259484
          15.940662305772975 132.13653025614494 19.597619146850555 136.32281076895333 23.25457598792813 140.50909128176173
          188.44977739424792 190.6186479582937 192.78751852233958 111.80545383248152 61.931425515436025 12.057397198390996
          668.8101604351607 681.9572422191038 695.1043240030469 98.4524711066826 86.29844707277077 74.14442303885892
          603.9516399053527 605.5142043809715 607.0767688565904 -390.150230715816 -385.6163027628257 -381.0823748098354
          347.010169314069 322.9346380169794 484.4311726179058 342.36344882719635 337.9849583234368 478.43163602181875
          337.7167283403237 353.0352786298942 472.4320994257317 -247.3717211073258 -292.0975090874204 -336.8232970675151
          1257.059683015326 1248.9143787449955 1275.1437844970117 1267.9862460875659 1293.2278859786973 1287.0581134301362
          2.4245806167654678 10.757515859170638 19.09045110157581 -92.80787140301362 -95.33577660982202 -97.86368181663045
          739.2510486125185 734.6181430940787 729.9852375756391 758.8288520013557 744.2428923969717 729.6569327925876
          -625.4378135757535 -986.7475696543407 -656.6464957770224 -989.2599487132475 -687.8551779782915 -991.7723277721544
          -16.7448006395355 -20.514987737211648 -24.28517483488779 800.8230931342499 816.1028005227845 831.382507911319
          -3428.1235325809794 -3606.9128621558357 -3785.702191730692 592.9790799855168 580.7532387391312 568.5273974927455
          -98.2797278078314 -130.17085352590178 -162.06197924397208 -1173.1473759935614 -1237.6899261437 -1302.232476293838
          1280.5260242103016 1128.4139763653213 1313.7293767237916 1164.1935639669887 1346.9327292372814 1199.9731515686567
          -609.9349637766685 -591.745989008766 -573.5570142408633 -1512.4108046440786 -581.2316100034947 -1584.1583114702335
          -589.914225159697 -1655.9058182963881 -598.5968403158993 -1453.1581121129107 -1466.623824439469 -1480.0895367660273
          -120.88213508133265 -97.63509928950987 -74.38806349768697 -411.7613631666535 -387.2204175206588 -362.67947187466416
          1455.6073238249382 19.65860923564942 1526.3335326165377 -10.380026259329771 1597.0597414081376 -40.41866175430896
          -1017.006446780823 -1036.538748006699 -1056.0710492325752 -1497.6856258657976 -1530.7752941109425 -1563.8649623560873
        </DataArray>
        <DataArray type="Float64" Name="peeq" format="ascii" RangeMin="0" RangeMax="0">
          0 0 0 0 0 0
          0 0 0 0 0 0
          0 0 0 0 0 0
          0 0 0 0 0 0
          0 0 0 0 0 0
          0 0 0 0 0 0
          0 0 0 0 0 0
          0 0 0 0 0 0
          0 0 0 0 0 0
          0 0 0 0 0 0
          0 0 0 0 0 0
          0 0 0 0 0 0
          0 0 0 0 0 0
          0 0 0 0 0 0
          0 0 0 0 0 0
          0 0 0 0 0 0
          0 0 0 0 0 0
          0 0 0 0 0 0
          0 0 0 0 0 0
          0 0 0 0 0 0
          0 0 0 0 0 0
          0 0 0 0 0 0
          0 0 0 0 0 0
          0 0 0 0 0 0
          0 0 0 0 0 0
          0 0 0 0 0 0
          0 0 0 0 0 0
          0 0 0 0 0 0
          0 0 0 0 0 0
          0 0 0 0 0 0
          0 0 0 0 0 0
          0 0 0 0 0 0
          0 0 0 0 0 0
          0 0 0 0 0 0
          0 0 0 0 0 0
          0 0 0 0 0 0
          0 0 0 0 0 0
          0 0 0 0 0 0
          0 0 0 0 0 0
          0 0 0 0 0 0
          0 0 0 0 0 0
          0 0 0 0 0 0
          0 0 0 0 0 0
          0 0 0 0 0 0
          0 0 0 0 0 0
          0 0 0 0 0 0
          0 0 0 0 0 0
          0 0 0 0 0 0
          0 0 0 0 0 0
          0 0 0 0 0 0
          0 0 0 0 0 0
          0 0 0 0 0 0
          0 0 0 0 0 0
          0 0 0 0 0 0
          0 0 0 0 0 0
          0 0 0 0 0 0
          0 0 0 0 0 0
          0 0 0 0 0 0
          0 0 0 0 0 0
          0 0 0 0 0 0
          0 0 0 0 0 0
          0 0 0 0 0 0
          0 0 0 0 0 0
          0 0 0 0 0 0
          0 0 0 0 0 0
          0 0 0 0 0 0
          0 0 0 0 0 0
          0 0 0 0 0 0
          0 0 0 0 0 0
          0 0 0 0 0 0
          0 0 0 0 0 0
          0 0 0 0 0 0
          0 0 0 0 0 0
          0 0 0 0 0 0
          0 0 0 0 0 0
          0 0 0 0 0 0
          0 0 0 0 0 0
          0 0 0 0 0 0
          0 0 0 0 0 0
          0 0 0 0 0 0
          0 0 0 0 0 0
          0 0 0 0 0 0
          0 0 0 0 0 0
          0 0 0 0 0 0
          0 0 0 0 0 0
          0 0 0 0 0 0
          0 0 0 0 0 0
          0 0 0 0 0 0
          0 0 0 0 0 0
          0 0 0 0 0 0
          0 0 0 0 0 0
          0 0 0 0 0 0
          0 0 0 0 0 0
          0 0 0 0 0 0
          0 0 0 0 0 0
          0 0 0 0 0 0
          0 0 0 0 0 0
          0 0 0 0 0 0
          0 0 0 0 0 0
          0 0 0 0 0 0
          0 0 0 0 0 0
          0 0 0 0 0 0
          0 0 0 0 0 0
          0 0 0 0 0 0
          0 0 0 0 0 0
          0 0 0 0 0 0
          0 0 0 0 0 0
          0 0 0 0 0 0
          0 0 0 0 0 0
          0 0 0 0 0 0
          0 0 0 0 0 0
          0 0 0 0 0 0
          0 0 0 0 0 0
          0 0 0 0 0 0
          0 0 0 0 0 0
          0 0 0 0 0 0
          0 0 0 0 0 0
          0 0 0 0 0 0
          0 0 0 0 0 0
          0 0 0 0 0 0
          0 0 0 0 0 0
          0 0 0 0 0 0
          0 0 0 0 0 0
          0 0 0 0 0 0
          0 0 0 0 0 0
          0 0 0 0 0 0
          0 0 0 0 0 0
          0 0 0 0 0 0
          0 0 0 0 0 0
        </DataArray>
        <DataArray type="Float64" Name="pe11" format="ascii" RangeMin="0" RangeMax="0">
          0 0 0 0 0 0
          0 0 0 0 0 0
          0 0 0 0 0 0
          0 0 0 0 0 0
          0 0 0 0 0 0
          0 0 0 0 0 0
          0 0 0 0 0 0
          0 0 0 0 0 0
          0 0 0 0 0 0
          0 0 0 0 0 0
          0 0 0 0 0 0
          0 0 0 0 0 0
          0 0 0 0 0 0
          0 0 0 0 0 0
          0 0 0 0 0 0
          0 0 0 0 0 0
          0 0 0 0 0 0
          0 0 0 0 0 0
          0 0 0 0 0 0
          0 0 0 0 0 0
          0 0 0 0 0 0
          0 0 0 0 0 0
          0 0 0 0 0 0
          0 0 0 0 0 0
          0 0 0 0 0 0
          0 0 0 0 0 0
          0 0 0 0 0 0
          0 0 0 0 0 0
          0 0 0 0 0 0
          0 0 0 0 0 0
          0 0 0 0 0 0
          0 0 0 0 0 0
          0 0 0 0 0 0
          0 0 0 0 0 0
          0 0 0 0 0 0
          0 0 0 0 0 0
          0 0 0 0 0 0
          0 0 0 0 0 0
          0 0 0 0 0 0
          0 0 0 0 0 0
          0 0 0 0 0 0
          0 0 0 0 0 0
          0 0 0 0 0 0
          0 0 0 0 0 0
          0 0 0 0 0 0
          0 0 0 0 0 0
          0 0 0 0 0 0
          0 0 0 0 0 0
          0 0 0 0 0 0
          0 0 0 0 0 0
          0 0 0 0 0 0
          0 0 0 0 0 0
          0 0 0 0 0 0
          0 0 0 0 0 0
          0 0 0 0 0 0
          0 0 0 0 0 0
          0 0 0 0 0 0
          0 0 0 0 0 0
          0 0 0 0 0 0
          0 0 0 0 0 0
          0 0 0 0 0 0
          0 0 0 0 0 0
          0 0 0 0 0 0
          0 0 0 0 0 0
          0 0 0 0 0 0
          0 0 0 0 0 0
          0 0 0 0 0 0
          0 0 0 0 0 0
          0 0 0 0 0 0
          0 0 0 0 0 0
          0 0 0 0 0 0
          0 0 0 0 0 0
          0 0 0 0 0 0
          0 0 0 0 0 0
          0 0 0 0 0 0
          0 0 0 0 0 0
          0 0 0 0 0 0
          0 0 0 0 0 0
          0 0 0 0 0 0
          0 0 0 0 0 0
          0 0 0 0 0 0
          0 0 0 0 0 0
          0 0 0 0 0 0
          0 0 0 0 0 0
          0 0 0 0 0 0
          0 0 0 0 0 0
          0 0 0 0 0 0
          0 0 0 0 0 0
          0 0 0 0 0 0
          0 0 0 0 0 0
          0 0 0 0 0 0
          0 0 0 0 0 0
          0 0 0 0 0 0
          0 0 0 0 0 0
          0 0 0 0 0 0
          0 0 0 0 0 0
          0 0 0 0 0 0
          0 0 0 0 0 0
          0 0 0 0 0 0
          0 0 0 0 0 0
          0 0 0 0 0 0
          0 0 0 0 0 0
          0 0 0 0 0 0
          0 0 0 0 0 0
          0 0 0 0 0 0
          0 0 0 0 0 0
          0 0 0 0 0 0
          0 0 0 0 0 0
          0 0 0 0 0 0
          0 0 0 0 0 0
          0 0 0 0 0 0
          0 0 0 0 0 0
          0 0 0 0 0 0
          0 0 0 0 0 0
          0 0 0 0 0 0
          0 0 0 0 0 0
          0 0 0 0 0 0
          0 0 0 0 0 0
          0 0 0 0 0 0
          0 0 0 0 0 0
          0 0 0 0 0 0
          0 0 0 0 0 0
          0 0 0 0 0 0
          0 0 0 0 0 0
          0 0 0 0 0 0
          0 0 0 0 0 0
          0 0 0 0 0 0
          0 0 0 0 0 0
          0 0 0 0 0 0
        </DataArray>
        <DataArray type="Float64" Name="pe22" format="ascii" RangeMin="0" RangeMax="0">
          0 0 0 0 0 0
          0 0 0 0 0 0
          0 0 0 0 0 0
          0 0 0 0 0 0
          0 0 0 0 0 0
          0 0 0 0 0 0
          0 0 0 0 0 0
          0 0 0 0 0 0
          0 0 0 0 0 0
          0 0 0 0 0 0
          0 0 0 0 0 0
          0 0 0 0 0 0
          0 0 0 0 0 0
          0 0 0 0 0 0
          0 0 0 0 0 0
          0 0 0 0 0 0
          0 0 0 0 0 0
          0 0 0 0 0 0
          0 0 0 0 0 0
          0 0 0 0 0 0
          0 0 0 0 0 0
          0 0 0 0 0 0
          0 0 0 0 0 0
          0 0 0 0 0 0
          0 0 0 0 0 0
          0 0 0 0 0 0
          0 0 0 0 0 0
          0 0 0 0 0 0
          0 0 0 0 0 0
          0 0 0 0 0 0
          0 0 0 0 0 0
          0 0 0 0 0 0
          0 0 0 0 0 0
          0 0 0 0 0 0
          0 0 0 0 0 0
          0 0 0 0 0 0
          0 0 0 0 0 0
          0 0 0 0 0 0
          0 0 0 0 0 0
          0 0 0 0 0 0
          0 0 0 0 0 0
          0 0 0 0 0 0
          0 0 0 0 0 0
          0 0 0 0 0 0
          0 0 0 0 0 0
          0 0 0 0 0 0
          0 0 0 0 0 0
          0 0 0 0 0 0
          0 0 0 0 0 0
          0 0 0 0 0 0
          0 0 0 0 0 0
          0 0 0 0 0 0
          0 0 0 0 0 0
          0 0 0 0 0 0
          0 0 0 0 0 0
          0 0 0 0 0 0
          0 0 0 0 0 0
          0 0 0 0 0 0
          0 0 0 0 0 0
          0 0 0 0 0 0
          0 0 0 0 0 0
          0 0 0 0 0 0
          0 0 0 0 0 0
          0 0 0 0 0 0
          0 0 0 0 0 0
          0 0 0 0 0 0
          0 0 0 0 0 0
          0 0 0 0 0 0
          0 0 0 0 0 0
          0 0 0 0 0 0
          0 0 0 0 0 0
          0 0 0 0 0 0
          0 0 0 0 0 0
          0 0 0 0 0 0
          0 0 0 0 0 0
          0 0 0 0 0 0
          0 0 0 0 0 0
          0 0 0 0 0 0
          0 0 0 0 0 0
          0 0 0 0 0 0
          0 0 0 0 0 0
          0 0 0 0 0 0
          0 0 0 0 0 0
          0 0 0 0 0 0
          0 0 0 0 0 0
          0 0 0 0 0 0
          0 0 0 0 0 0
          0 0 0 0 0 0
          0 0 0 0 0 0
          0 0 0 0 0 0
          0 0 0 0 0 0
          0 0 0 0 0 0
          0 0 0 0 0 0
          0 0 0 0 0 0
          0 0 0 0 0 0
          0 0 0 0 0 0
          0 0 0 0 0 0
          0 0 0 0 0 0
          0 0 0 0 0 0
          0 0 0 0 0 0
          0 0 0 0 0 0
          0 0 0 0 0 0
          0 0 0 0 0 0
          0 0 0 0 0 0
          0 0 0 0 0 0
          0 0 0 0 0 0
          0 0 0 0 0 0
          0 0 0 0 0 0
          0 0 0 0 0 0
          0 0 0 0 0 0
          0 0 0 0 0 0
          0 0 0 0 0 0
          0 0 0 0 0 0
          0 0 0 0 0 0
          0 0 0 0 0 0
          0 0 0 0 0 0
          0 0 0 0 0 0
          0 0 0 0 0 0
          0 0 0 0 0 0
          0 0 0 0 0 0
          0 0 0 0 0 0
          0 0 0 0 0 0
          0 0 0 0 0 0
          0 0 0 0 0 0
          0 0 0 0 0 0
          0 0 0 0 0 0
          0 0 0 0 0 0
          0 0 0 0 0 0
          0 0 0 0 0 0
        </DataArray>
        <DataArray type="Float64" Name="pe33" format="ascii" RangeMin="0" RangeMax="0">
          0 0 0 0 0 0
          0 0 0 0 0 0
          0 0 0 0 0 0
          0 0 0 0 0 0
          0 0 0 0 0 0
          0 0 0 0 0 0
          0 0 0 0 0 0
          0 0 0 0 0 0
          0 0 0 0 0 0
          0 0 0 0 0 0
          0 0 0 0 0 0
          0 0 0 0 0 0
          0 0 0 0 0 0
          0 0 0 0 0 0
          0 0 0 0 0 0
          0 0 0 0 0 0
          0 0 0 0 0 0
          0 0 0 0 0 0
          0 0 0 0 0 0
          0 0 0 0 0 0
          0 0 0 0 0 0
          0 0 0 0 0 0
          0 0 0 0 0 0
          0 0 0 0 0 0
          0 0 0 0 0 0
          0 0 0 0 0 0
          0 0 0 0 0 0
          0 0 0 0 0 0
          0 0 0 0 0 0
          0 0 0 0 0 0
          0 0 0 0 0 0
          0 0 0 0 0 0
          0 0 0 0 0 0
          0 0 0 0 0 0
          0 0 0 0 0 0
          0 0 0 0 0 0
          0 0 0 0 0 0
          0 0 0 0 0 0
          0 0 0 0 0 0
          0 0 0 0 0 0
          0 0 0 0 0 0
          0 0 0 0 0 0
          0 0 0 0 0 0
          0 0 0 0 0 0
          0 0 0 0 0 0
          0 0 0 0 0 0
          0 0 0 0 0 0
          0 0 0 0 0 0
          0 0 0 0 0 0
          0 0 0 0 0 0
          0 0 0 0 0 0
          0 0 0 0 0 0
          0 0 0 0 0 0
          0 0 0 0 0 0
          0 0 0 0 0 0
          0 0 0 0 0 0
          0 0 0 0 0 0
          0 0 0 0 0 0
          0 0 0 0 0 0
          0 0 0 0 0 0
          0 0 0 0 0 0
          0 0 0 0 0 0
          0 0 0 0 0 0
          0 0 0 0 0 0
          0 0 0 0 0 0
          0 0 0 0 0 0
          0 0 0 0 0 0
          0 0 0 0 0 0
          0 0 0 0 0 0
          0 0 0 0 0 0
          0 0 0 0 0 0
          0 0 0 0 0 0
          0 0 0 0 0 0
          0 0 0 0 0 0
          0 0 0 0 0 0
          0 0 0 0 0 0
          0 0 0 0 0 0
          0 0 0 0 0 0
          0 0 0 0 0 0
          0 0 0 0 0 0
          0 0 0 0 0 0
          0 0 0 0 0 0
          0 0 0 0 0 0
          0 0 0 0 0 0
          0 0 0 0 0 0
          0 0 0 0 0 0
          0 0 0 0 0 0
          0 0 0 0 0 0
          0 0 0 0 0 0
          0 0 0 0 0 0
          0 0 0 0 0 0
          0 0 0 0 0 0
          0 0 0 0 0 0
          0 0 0 0 0 0
          0 0 0 0 0 0
          0 0 0 0 0 0
          0 0 0 0 0 0
          0 0 0 0 0 0
          0 0 0 0 0 0
          0 0 0 0 0 0
          0 0 0 0 0 0
          0 0 0 0 0 0
          0 0 0 0 0 0
          0 0 0 0 0 0
          0 0 0 0 0 0
          0 0 0 0 0 0
          0 0 0 0 0 0
          0 0 0 0 0 0
          0 0 0 0 0 0
          0 0 0 0 0 0
          0 0 0 0 0 0
          0 0 0 0 0 0
          0 0 0 0 0 0
          0 0 0 0 0 0
          0 0 0 0 0 0
          0 0 0 0 0 0
          0 0 0 0 0 0
          0 0 0 0 0 0
          0 0 0 0 0 0
          0 0 0 0 0 0
          0 0 0 0 0 0
          0 0 0 0 0 0
          0 0 0 0 0 0
          0 0 0 0 0 0
          0 0 0 0 0 0
          0 0 0 0 0 0
          0 0 0 0 0 0
          0 0 0 0 0 0
          0 0 0 0 0 0
        </DataArray>
        <DataArray type="Float64" Name="disp_x" format="ascii" RangeMin="0.000002157483313773468" RangeMax="0.000005193954327383151">
          0.000004178911028642463 0.000004211520785142753 0.00000402129344914244 0.000004002178260729955 0.000004178911496787546 0.000004211521307945549
          0.0000040212937972082864 0.000004002178591751806 0.000004178912991959199 0.000004211522880991329 0.000004021294637809273 0.0000040021794629346075
          0.000004681593380817489 0.000004493192312431646 0.000004353027090522731 0.0000044522597596695515 0.00000468159411545922 0.000004493192768906144
          0.0000043530275323847495 0.000004452260205762408 0.00000468159623361347 0.000004493193904126537 0.000004353029010015422 0.000004452261234630285
          0.000003947566451230476 0.000004139685771789782 0.0000039475671555998565 0.0000041396868281596255 0.00000394756941200601 0.000004139690144340028
          0.00000433023013491468 0.000004337252406832883 0.000004527504994113157 0.000004511118451444362 0.000004330230646309538 0.000004337252900649412
          0.000004527505600668333 0.000004511119124960555 0.000004330232139343329 0.00000433725428157931 0.000004527507417645092 0.0000045111214526875944
          0.000004193275792938866 0.000004282227113722486 0.00000419327613612411 0.000004282227423763759 0.000004193277219311824 0.000004282228615391515
          0.000002505766068406137 0.0000025490757449397894 0.0000024443543786875554 0.000002369975510821635 0.000002505764758110097 0.0000025490742913585523
          0.000002444352781868131 0.000002369974151356099 0.0000025057608010903863 0.000002549070088800359 0.000002444348134554085 0.0000023699697573304094
          0.000003033972786442032 0.000003206956604706397 0.0000031851637271124477 0.000003020218228794638 0.0000030339723577114044 0.0000032069562769473277
          0.00000318516339100837 0.0000030202177830382157 0.0000030339710296621205 0.0000032069551849078372 0.000003185162214080679 0.0000030202162066953412
          0.000003985608844082282 0.000004133097300872033 0.000003985609104860472 0.000004133097701813811 0.000003985609901606527 0.000004133098848372463
          0.00000262920524193372 0.0000025964183027291445 0.0000027820857568162035 0.000002804988398106044 0.0000026292045590940917 0.000002596417632899172
          0.00000278208525157642 0.000002804987834839517 0.000002629202368109871 0.000002596415536469434 0.000002782083516075683 0.0000028049860142328757
          0.000004640275983974626 0.000004619776309689798 0.000004801267654140216 0.0000046402769462088 0.000004619777219776029 0.0000048012686545852795
          0.000004640279765097483 0.000004619780003192013 0.000004801272042868666 0.000003326780623433644 0.000003509326047505766 0.0000034579727452639426
          0.000003296923213719837 0.0000033267803943796036 0.000003509325965561549 0.0000034579725999830495 0.0000032969229989008504 0.0000033267797089077175
          0.0000035093255714692682 0.000003457972171923135 0.0000032969220877229184 0.0000028672886525619974 0.000003028446720786972 0.0000030174715814334285
          0.000002856828095063459 0.0000028672879099239886 0.0000030284461354126794 0.000003017470931310674 0.000002856827405499002 0.000002867285616197713
          0.0000030284441777817353 0.000003017469006027934 0.000002856824879696149 0.000004336483371507179 0.000004336483784572652 0.0000043364849968471804
          0.000002634894408868448 0.00000274980103110434 0.0000027092458652648647 0.0000026348932316506976 0.000002749800024047931 0.000002709244689746134
          0.0000026348900382034074 0.0000027497967859009123 0.0000027092412925915637 0.0000028580458898261294 0.0000030240328186855876 0.000002858045231684469
          0.0000030240322601292503 0.000002858043261706123 0.0000030240305997212747 0.0000041432375856576566 0.000004146767928667901 0.000003976691849010512
          0.000003954482327418391 0.000004143237834976721 0.000004146768146698352 0.000003976692028797539 0.000003954482481732983 0.000004143238537856038
          0.000004146768791779052 0.000003976692492042278 0.000003954482996894206 0.0000024142077522672608 0.000002463036800446467 0.0000023190862337985385
          0.0000022333579793366386 0.0000024142069036260813 0.000002463035978429358 0.000002319085428503486 0.0000022333572479832135 0.0000024142043951787808
          0.0000024630335753989147 0.0000023190829897182348 0.0000022333549513095853 0.000004160864129723362 0.000004324585452282299 0.000004130204071606401
          0.000004160864419395467 0.000004324585826493741 0.0000041302043230993015 0.000004160865264798428 0.0000043245868749402215 0.0000041302050073626935
          0.0000021574866711503222 0.00000235872663736475 0.000002157485831980283 0.0000023587258463399096 0.000002157483313773468 0.000002358723361276461
          0.000003446493672382753 0.0000032026001004165983 0.000003207037828502567 0.0000033959142240122446 0.000003446493440349859 0.0000032025996395993763
          0.000003207037397115123 0.00000339591404939095 0.0000034464926877767116 0.0000032025982262470263 0.0000032070360767406024 0.0000033959136241868633
          0.000004158905645271035 0.000004337371907477175 0.000004158905889588709 0.000004337372330367758 0.00000415890665317929 0.000004337373694813136
          0.000002412324128719322 0.0000024030423930127543 0.000002412323074908881 0.000002403041199985268 0.000002412319715458199 0.0000024030375976411053
          0.000003575394592437463 0.0000036541794440595605 0.0000035753944636205165 0.0000036541793377024796 0.000003575394264239341 0.00000365417907745565
          0.000004064533910048285 0.000003972225551285794 0.000003869045869876908 0.000003951739904905328 0.000004064534202223792 0.000003972225800578473
          0.00000386904603330978 0.000003951740144594889 0.000004064535132757736 0.000003972226486076843 0.000003869046404484232 0.000003951740730228747
          0.000002908762826254369 0.000002865911961084489 0.000002908761927138464 0.0000028659110613361206 0.000002908759328647461 0.0000028659086742710818
          0.000002397178226431803 0.000002397177293828488 0.0000023971744939539736 0.0000029913930156703855 0.000003173565367178317 0.0000029913923282388243
          0.000003173564866617652 0.0000029913904372257235 0.0000031735634892423137 0.0000026397712274747675 0.0000026282986371489723 0.0000024693702902650777
          0.0000026397703091378096 0.0000026282975689663434 0.0000024693691266841752 0.0000026397675599299277 0.0000026282943791591494 0.0000024693659650189538
          0.0000025226507198505867 0.000002545268342425432 0.0000023770900324210037 0.0000025226499051488862 0.0000025452674999695808 0.0000023770891663288186
          0.0000025226474443603214 0.0000025452647901064284 0.0000023770864949238135 0.0000026747591638637326 0.0000026747578083437675 0.0000026747530290167433
          0.0000025600318203967768 0.000002560031097352342 0.00000256002943716069 0.000005050129080273822 0.000005090172398725991 0.0000050501302218591925
          0.00000509017352826108 0.0000050501338782527856 0.000005090176942281189 0.000002572739649633087 0.0000025727387505931074 0.0000025727364434870407
          0.0000033196424771744797 0.000003133261278103361 0.000003364026216658928 0.000003319642115926349 0.000003133260682750605 0.0000033640258027524157
          0.000003319641081836864 0.0000031332587878477354 0.000003364024633500829 0.0000033634278112013686 0.0000035288854507215752 0.0000033634275576428592
          0.000003528885321567773 0.0000033634267748416926 0.0000035288848571251405 0.000003879683822931084 0.00000373412251888784 0.0000037168310680764966
          0.000003895645874375829 0.000003879684537791422 0.000003734122844405294 0.0000037168313669982243 0.000003895646597993829 0.0000038796868122747295
          0.0000037341245118746213 0.0000037168321511098843 0.000003895648938746138 0.000004249592859842541 0.000004063128745106081 0.000004040581198471273
          0.0000042306055446577655 0.000004249593531067805 0.00000406312935492885 0.0000040405816220188435 0.000004230606138507515 0.000004249595516807788
          0.000004063131045607694 0.000004040582726295121 0.000004230607951747233 0.000004989017437284094 0.000004804259533416305 0.000004918095485054248
          0.000004989018546899594 0.000004804260443687269 0.00000491809649331181 0.000004989021606520246 0.0000048042629913375545 0.000004918099484116041
          0.0000027874940054514255 0.000002787492946687165 0.0000027874895776561217 0.0000023211431415982765 0.0000023211416856024365 0.0000023211372349398316
          0.0000036274911686140084 0.0000035162006578868406 0.0000036274914190739776 0.0000035162006306516155 0.0000036274914251795787 0.0000035162001000226215
          0.000003874058391174791 0.000004084223576338452 0.000003874058797648587 0.000004084224278017689 0.000003874060220042281 0.0000040842264043234584
          0.0000029527647389379917 0.000002952763742348141 0.0000029527610131112547 0.0000044387817799003255 0.000004586768278537089 0.000004598292660766908
          0.000004418155469456969 0.000004438782442566075 0.0000045867690274193485 0.0000045982934552762955 0.00000441815621190924 0.000004438784460066052
          0.000004586771202349057 0.000004598295879086207 0.000004418158544895693 0.0000047058160770714545 0.000004705816811273115 0.00000470581896173245
          0.000004360900289238663 0.000004360900806977716 0.000004360902320190828 0.0000036422535421876255 0.000003547993246753739 0.000003642253424738009
          0.0000035479930143941134 0.0000036422530685141027 0.0000035479922082709987 0.0000030923861913224458 0.0000030923855132885127 0.0000030923835729157353
          0.0000037221841220909158 0.000003805387724961095 0.0000037221840594930935 0.0000038053877486343333 0.000003722184002482805 0.0000038053880957957452
          0.000002979893228997979 0.000002979892449935302 0.00000297989022449212 0.0000042048629931918175 0.000004081657442618932 0.000004204863388226
          0.0000040816577255073525 0.0000042048644601325975 0.000004081658554349132 0.000004294607959057201 0.000004294608371138755 0.000004294609798201727
          0.00000443330817533264 0.000004433308926462191 0.0000044333111998692956 0.000003933305757409566 0.0000039333059064337005 0.000003933306470876099
          0.0000030002294903814944 0.000002841590023129695 0.000003000228832737384 0.000002841588968179852 0.0000030002271180471386 0.0000028415861782126363
          0.000003780707736183328 0.000003780707692125733 0.000003780707779843452 0.000004710062851256583 0.0000047118100037232995 0.000004710063646882759
          0.00000471181077496356 0.0000047100661378121355 0.0000047118132898185936 0.0000031397158388245098 0.000003253586595790064 0.000003146924490841469
          0.0000031397154402938047 0.000003253586247691102 0.000003146924031895879 0.0000031397143466588505 0.000003253585099334339 0.0000031469230049922228
          0.0000037128299786378653 0.000003946591665891967 0.000003776584907472818 0.0000037128299276632464 0.000003946591808783702 0.0000037765848894708865
          0.0000037128298192244977 0.000003946592238514032 0.0000037765848689818744 0.0000028221709086390522 0.0000026338463111157242 0.000002822169738642365
          0.000002633844722531106 0.000002822166201101047 0.000002633840139421919 0.000005132889464246548 0.000004948651000069518 0.00000494069391578822
          0.000005132890604504103 0.0000049486520311022715 0.000004940694811390022 0.000005132893768436898 0.000004948655332686285 0.0000049406977830108175
          0.000004522743370186162 0.000004507131751893356 0.000004522743875015619 0.00000450713211599962 0.000004522745594424779 0.000004507133149479909
          0.000004332267797074373 0.000004332268823542179 0.000004332271916882879 0.000003969839484174133 0.0000037684654769918554 0.000003969839615107257
          0.000003768465478186402 0.000003969840123688335 0.0000037684656000716642 0.000003567065056021731 0.00000336564093088955 0.000003567064812833867
          0.000003365640626023385 0.000003567064199105727 0.0000033656397684301287 0.0000033378247110956936 0.0000034888873683679135 0.0000033378243837576266
          0.0000034888872144320628 0.0000033378235902248215 0.00000348888674002869 0.0000031942026269786676 0.000003194202085057355 0.00000319420088099252
          0.000004171161877962031 0.00000414715954320162 0.000004171162121556718 0.000004147159679085512 0.0000041711627792172484 0.00000414716039632401
          0.000004372423644706311 0.000004372423934287049 0.000004372425032983983 0.000004611937285242182 0.00000461193796121341 0.00000461194022778943
          0.000004573613486395903 0.000004573613843813526 0.000004573614856215885 0.000004528260637147809 0.000004528261203102671 0.0000045282628283630745
          0.000004450366158607008 0.000004450366609021602 0.0000044503680028207575 0.0000047033652959240305 0.000004774721418420099 0.000004703365812186781
          0.000004774721939274226 0.000004703367336646425 0.00000477472334226707 0.00000407366529415227 0.000004223714769778715 0.00000407366550648336
          0.00000422371513209633 0.000004073666236765992 0.000004223716283924093 0.000003502020199474553 0.000003502019958795366 0.0000035020194097610465
          0.000004272607934946619 0.00000427260863984346 0.000004272610744693108 0.000004348128886173787 0.000004348129249629471 0.000004348130645744251
          0.000002822674009953115 0.00000282267297384374 0.000002822670214802681 0.0000031471987127995408 0.00000314719820263312 0.0000031471966869639287
          0.0000030478326852528403 0.0000030478319548552936 0.0000030478298046762986 0.000003738150794959445 0.0000038149558853864425 0.000003738150731367966
          0.000003814955872683571 0.0000037381505478204093 0.000003814955778867126 0.0000036881345664488924 0.000003688134455003331 0.0000036881342837598303
          0.000003421384875960546 0.000003316883309886111 0.000003421384602805589 0.0000033168829074538588 0.0000034213839572105005 0.0000033168820695050815
          0.000004456967272706834 0.00000466468795149964 0.000004483908301628892 0.0000044569680685635535 0.00000466468896524574 0.000004483909209727767
          0.000004456970562800238 0.000004664691926300963 0.000004483911957550782 0.000004515185493585085 0.0000045151864740014 0.000004515189466317532
          0.000003647399215521134 0.0000036473990871095952 0.0000036473988240969166 0.000004602205410394727 0.000004674107772488604 0.0000046022059689733054
          0.000004674108461365596 0.000004602207421982409 0.000004674110759142779 0.0000038096729186050627 0.000003842804075625206 0.0000038096728407662394
          0.000003842804102200439 0.0000038096729095890115 0.000003842804208036484 0.000003883310851126497 0.000003883310846338198 0.000003883311038977852
          0.000003996996136084104 0.0000040188095649004815 0.00000399699616903738 0.000004018809653625219 0.000003996996543844825 0.000004018810024911318
          0.000003235219634070895 0.000003283366778184333 0.0000034434848558381314 0.0000034007871925141492 0.0000032352192858254445 0.000003283366421180326
          0.0000034434847258663835 0.00000340078703340637 0.000003235218058525844 0.00000328336546910653 0.0000034434841016514268 0.0000034007872524247735
          0.000003848276742992753 0.000003848277013046157 0.000003848278008770739 0.0000033030037816742412 0.000003303003314026834 0.0000033030019070064114
          0.0000027205381838044862 0.00000274366417285025 0.000002720537346905295 0.0000027436631755621178 0.000002720535079036666 0.0000027436606234328653
          0.0000039314017668918215 0.000003931401824898456 0.0000039314021867714 0.000005130185144728169 0.000004962887439213878 0.000005130186284477424
          0.000004962888419520261 0.00000513018935781822 0.000004962891504377697 0.000002497435247089762 0.000002354106461437675 0.0000024974344110083403
          0.0000023541055998030018 0.000002497432065756204 0.0000023541029856432785 0.000004691654801043957 0.0000046916558480009345 0.0000046916589270997645
          0.000003948991096402266 0.000004033660637136447 0.000003948991118381816 0.000004033660714910456 0.000003948991413265672 0.000004033661156577252
          0.0000036557373796036297 0.000003829256467686363 0.000003834653752918133 0.000003648532978537865 0.000003655737396665865 0.000003829256637793563
          0.000003834653955160433 0.000003648533025963129 0.0000036557374461739857 0.000003829257093693745 0.000003834654695088721 0.0000036485333690186497
          0.000002697620862781484 0.0000026976199712976227 0.000002697617555764911 0.0000036285172957306487 0.0000035159066346254527 0.0000036285173120798517
          0.00000351590664821499 0.0000036285173791528925 0.000003515906137143682 0.00000282648735782621 0.000002978539460556419 0.0000028264867205778426
          0.0000029785388669616595 0.000002826484880511212 0.000002978537465597249 0.00000296582963236921 0.000002965829087567173 0.0000029658275806163864
          0.00000475120983723592 0.000004751210579112984 0.000004751212745415274 0.000002676144853081593 0.0000026761440741380394 0.000002676141840637674
          0.0000034696337623255877 0.0000034696334791994587 0.0000034696325028240307 0.0000031936720449811757 0.0000031936716005263792 0.0000031936700703011766
          0.0000026559165639492075 0.000002843205985079555 0.0000026559157134827452 0.0000028432051992785727 0.0000026559135259531286 0.0000028432032600677166
          0.0000036894838128112294 0.0000036894839993802412 0.0000036894845349245564 0.000003167294884524087 0.000003167294274889176 0.0000031672927425119775
          0.000004883890441302767 0.0000048838913364483505 0.000004883894068971879 0.000003610717104735116 0.0000036107169019809567 0.0000036107164112269573
          0.0000033618459473528147 0.000003361845789910138 0.0000033618452386088936 0.000004052696876019516 0.000004052696964741462 0.000004052697459332533
          0.0000031642104021727943 0.0000031482645781278944 0.0000029627884709308847 0.000003164210011045037 0.0000031482640730856045 0.000002962787968473036
          0.0000031642088957237794 0.000003148262874690892 0.0000029627865782151964 0.0000032999640153074448 0.0000032999634827833865 0.000003299962083257161
          0.0000049503168680472675 0.000004838846660177994 0.000004950317793271061 0.0000048388475582766775 0.000004950320849882638 0.000004838849624084789
          0.000003482201498721189 0.000003482201170252303 0.0000034822003949847476 0.000003837549207830218 0.0000038375492729796335 0.0000038375496436859034
          0.0000027613908130928488 0.0000027613901626122155 0.0000027613885193929825 0.0000035210931158159775 0.0000035210930376319265 0.00000352109324952719
          0.000004105887114827016 0.000004299236531812045 0.000004105887954931297 0.000004299237349663212 0.000004105890528496977 0.000004299239707899392
          0.000003676696048942593 0.0000036766959332777115 0.0000036766957356398357 0.000003311081320332388 0.000003311081208976226 0.0000033110810189627435
          0.000004653561170739975 0.000004653561632114287 0.000004653563266873209 0.000005116211527684628 0.000005116212606601654 0.000005116215938066905
          0.00000358498389809854 0.0000035849835934494925 0.0000035849831986776715 0.000004937761301051581 0.000004937762344215142 0.000004937765323086943
          0.000004811931334427261 0.000004765150559282712 0.000004811932145993735 0.000004765151378575284 0.000004811934746489321 0.000004765154109325414
          0.000004561230132118319 0.000004561230732456717 0.000004561232474851907 0.000004881585030532234 0.000004969023980289452 0.000004881585856219768
          0.000004969024864758068 0.000004881588510796916 0.0000049690274761624375 0.000005144493028653273 0.000005144493911546014 0.000005144496155847749
          0.000005193950960039205 0.000005193951840655575 0.000005193954327383151 0.000004742423945405882 0.000004742424562784336 0.00000474242639245148
          0.000004975718288177797 0.000004917201100784849 0.000004975719276833718 0.000004917201806190402 0.000004975722523181036 0.000004917203892359384
          0.0000048552760757498415 0.000004855276744194633 0.000004855279014690777 0.000004738751477756004 0.000004738751905209025 0.000004738753004462876
        </DataArray>
        <DataArray type="Float64" Name="disp_y" format="ascii" RangeMin="-0.0000010037253035186652" RangeMax="0">
          -6.416190844807331e-7 -6.985748119574342e-7 -7.019400359594042e-7 -6.491688339901039e-7 -6.416206592303377e-7 -6.985765007288895e-7
          -7.019417757326863e-7 -6.491704328825684e-7 -6.416255162982654e-7 -6.985816142039113e-7 -7.019469736459544e-7 -6.491752547558734e-7
          -4.0061836432429164e-7 -4.4959105145768e-7 -4.07507433111275e-7 -3.5818482995911085e-7 -4.0061920582733776e-7 -4.495921810064982e-7
          -4.075083500162049e-7 -3.5818550181826474e-7 -4.006216787171818e-7 -4.49595788290057e-7 -4.075111654310588e-7 -3.5818723629179167e-7
          -0.0000010037153370261018 -9.95971385395041e-7 -0.0000010037178253034711 -9.959738349567117e-7 -0.0000010037253035186652 -9.95981278594214e-7
          -1.0674124267387013e-7 -5.229025802638724e-8 -5.157827171354793e-8 -1.0242557885857099e-7 -1.0674151618557214e-7 -5.229029901308474e-8
          -5.157817134071494e-8 -1.0242582181232251e-7 -1.0674255823832294e-7 -5.229024574761673e-8 -5.157738046355945e-8 -1.0242694428538949e-7
          -3.7711082373084426e-7 -3.321523247403711e-7 -3.771116492826514e-7 -3.3215302678903897e-7 -3.771140010662691e-7 -3.321550694733506e-7
          -5.355531752489505e-7 -5.91735289647406e-7 -6.264489808788789e-7 -5.643838167168139e-7 -5.355543690749085e-7 -5.917367775915404e-7
          -6.264503861127985e-7 -5.643850354721911e-7 -5.355577892528983e-7 -5.917408347801977e-7 -6.264549684148253e-7 -5.643887136504561e-7
          -1.672210668293768e-7 -1.9288741130354996e-7 -2.416832397450262e-7 -2.3097047951353254e-7 -1.6722139261373202e-7 -1.928878508430606e-7
          -2.416837593525972e-7 -2.3097098322733676e-7 -1.6722244564237958e-7 -1.9288931552976967e-7 -2.4168519629637247e-7 -2.3097239382663616e-7
          -6.015673729573205e-7 -5.909078214573677e-7 -6.015688517565558e-7 -5.909092211199204e-7 -6.015732234813764e-7 -5.909133467185048e-7
          -1.083555864171809e-7 -5.335083528352791e-8 -5.33093039021044e-8 -1.0747694872977467e-7 -1.0835575372355101e-7 -5.335080596955197e-8
          -5.330940002382114e-8 -1.0747712098652658e-7 -1.0835632222575605e-7 -5.335066894019841e-8 -5.330956164271171e-8 -1.0747771231740432e-7
          -8.63480265772777e-7 -8.068224758038671e-7 -8.016178840397626e-7 -8.634822247700661e-7 -8.06824352364564e-7 -8.016196359921026e-7
          -8.634880612648944e-7 -8.068300057085323e-7 -8.01625000519008e-7 -5.226471206482786e-8 -5.474929930458543e-8 -1.0675335681638814e-7
          -1.0318858620732862e-7 -5.226480173406872e-8 -5.474937988961818e-8 -1.0675358101970183e-7 -1.0318878676131818e-7 -5.226515147255557e-8
          -5.4749513826059946e-8 -1.0675431080984352e-7 -1.0318928042401564e-7 -3.306165707280339e-7 -3.399574582600729e-7 -3.924135891990183e-7
          -3.7887451023743456e-7 -3.3061721074245124e-7 -3.399581851837692e-7 -3.924144520861769e-7 -3.788753399504452e-7 -3.3061905678384556e-7
          -3.3996031120453754e-7 -3.924170364186771e-7 -3.78877966687362e-7 -1.6495071097775532e-7 -1.6495112310645081e-7 -1.6495224756058118e-7
          -5.071613724028501e-7 -5.20484225169592e-7 -5.640440112238756e-7 -5.071624142512642e-7 -5.20485482503108e-7 -5.640455507346557e-7
          -5.071665227653842e-7 -5.204898464765148e-7 -5.640498576032101e-7 -2.7824959280315023e-7 -2.8683939070964887e-7 -2.782500923405432e-7
          -2.8683993345399517e-7 -2.782516125504944e-7 -2.8684167117541615e-7 -1.0862833112450985e-7 -1.6306387059554184e-7 -1.690089715047433e-7
          -1.133154486144165e-7 -1.0862859408231318e-7 -1.6306424172945348e-7 -1.690093674283522e-7 -1.1331569951315163e-7 -1.0862942705432681e-7
          -1.6306537192272914e-7 -1.6901046639834355e-7 -1.1331665318136396e-7 -5.836063052152002e-8 -1.14495133873025e-7 -1.2744458032887335e-7
          -7.644070449191167e-8 -5.836057434906553e-8 -1.1449526740306696e-7 -1.2744476339313309e-7 -7.644067307580748e-8 -5.835986956643893e-8
          -1.1449598262576785e-7 -1.2744556710745214e-7 -7.64407824000793e-8 -2.6969057776363493e-7 -2.8118147126291264e-7 -3.130343757761979e-7
          -2.6969116787191277e-7 -2.811820752771628e-7 -3.130350568313898e-7 -2.696928986339073e-7 -2.8118395384652137e-7 -3.1303700122945215e-7
          0 0 0 0 0 0
          -4.186479731497841e-7 -4.0657357713011636e-7 -3.49014215329719e-7 -3.4674020711995125e-7 -4.1864899477030644e-7 -4.0657448021364746e-7
          -3.490149869551598e-7 -3.4674101655163987e-7 -4.186520624475417e-7 -4.0657693233020205e-7 -3.4901735797997787e-7 -3.46743464868194e-7
          -2.180078628896964e-7 -2.2480784611584156e-7 -2.1800835254651848e-7 -2.2480833213590995e-7 -2.1800985361559634e-7 -2.2480970418368222e-7
          -3.4968079389517963e-7 -4.247772327937688e-7 -3.4968131072776047e-7 -4.247778949287508e-7 -3.4968291796927106e-7 -4.2477984840290694e-7
          -3.319220267973188e-7 -3.831996430442878e-7 -3.3192272882298104e-7 -3.832005733887744e-7 -3.3192474994714456e-7 -3.8320350133029307e-7
          -5.513805354841392e-7 -5.706442734644853e-7 -5.568555658122201e-7 -5.211549612965515e-7 -5.513818350071414e-7 -5.706456569074717e-7
          -5.568569165871582e-7 -5.211562075068969e-7 -5.51385721095884e-7 -5.706497299616241e-7 -5.56860948287744e-7 -5.211600129843352e-7
          -5.421261896279716e-7 -5.85138019474635e-7 -5.421276194973431e-7 -5.851396627586986e-7 -5.421317204441094e-7 -5.85144870408437e-7
          -2.872792151981536e-7 -2.8727967384415075e-7 -2.872811148580481e-7 -4.4388907302228815e-7 -4.622356046847423e-7 -4.438900334133764e-7
          -4.6223667278301164e-7 -4.4389302837081605e-7 -4.6224006534184853e-7 -4.031365765469848e-7 -4.696525003912949e-7 -4.854798462446673e-7
          -4.0313725117703563e-7 -4.696535143219607e-7 -4.85480751905859e-7 -4.031393309839423e-7 -4.6965587846241086e-7 -4.854837661206131e-7
          -2.1872892123701954e-7 -2.7533590042481527e-7 -2.2954822674355057e-7 -2.1872924877810111e-7 -2.753363525123057e-7 -2.295485290759893e-7
          -2.1873013984266896e-7 -2.753377491610775e-7 -2.2954936497728794e-7 -6.090502936541194e-7 -6.090518354422966e-7 -6.090567828865777e-7
          0 0 0 -7.125089258523937e-7 -6.590015219551427e-7 -7.125103891341095e-7
          -6.590029220602132e-7 -7.125149379339435e-7 -6.59007152015013e-7 -3.360593961073357e-7 -3.3605996246331143e-7 -3.3606176062505244e-7
          -5.389026487291795e-7 -5.1703997708762e-7 -4.838899676614135e-7 -5.389039911292148e-7 -5.170412580118095e-7 -4.838911926006618e-7
          -5.38908011999236e-7 -5.170451623024517e-7 -4.83894934683978e-7 -2.914431904605385e-7 -2.77960575607663e-7 -2.9144383108656094e-7
          -2.77961145247367e-7 -2.9144580008704194e-7 -2.7796283836698285e-7 -9.342758151003014e-7 -9.05871165210328e-7 -8.665172502537312e-7
          -8.682371286185113e-7 -9.342782102775575e-7 -9.058734751405749e-7 -8.665196696900243e-7 -8.682394833387835e-7 -9.342854963849004e-7
          -9.058805393765637e-7 -8.665274106565408e-7 -8.682464383450134e-7 -8.164942994295211e-7 -8.154090388401311e-7 -7.587578140217068e-7
          -7.591784890776207e-7 -8.164962287527403e-7 -8.154110625389106e-7 -7.587596957271414e-7 -7.591803009489432e-7 -8.16502107005864e-7
          -8.154170999170182e-7 -7.587653612941304e-7 -7.591855848250973e-7 -7.621796646211395e-7 -7.380871901911808e-7 -6.996664522124947e-7
          -7.62181206992942e-7 -7.380887178709863e-7 -6.996679242284249e-7 -7.621854922686135e-7 -7.380930743249468e-7 -6.996723731255356e-7
          -4.752706720863501e-7 -4.752716905672101e-7 -4.7527452080638974e-7 -5.139738279260661e-7 -5.139748160354526e-7 -5.139773129299128e-7
          -9.26754542989631e-7 -8.752957579989059e-7 -9.267569403394802e-7 -8.752981924627323e-7 -9.267638496562138e-7 -8.753050722257104e-7
          -8.12027554020661e-7 -8.727943741376624e-7 -8.120297484898516e-7 -8.727965101405487e-7 -8.120365705146455e-7 -8.728027501179719e-7
          -4.94456870507822e-7 -4.944579717013741e-7 -4.944612345003692e-7 -6.852756949255624e-7 -7.084924927474581e-7 -7.512382664949261e-7
          -7.564206052951407e-7 -6.852772866866233e-7 -7.084940706784872e-7 -7.512399445409347e-7 -7.564223734786978e-7 -6.852820897051354e-7
          -7.084985456190648e-7 -7.512451867023229e-7 -7.564276518292561e-7 -6.829702123919049e-7 -6.829717056990751e-7 -6.829762068736974e-7
          -6.183484404836947e-7 -6.183498722937846e-7 -6.183541740725909e-7 -4.637919615294463e-7 -5.097389485429219e-7 -4.6379313328670174e-7
          -5.097401957498129e-7 -4.6379667578570566e-7 -5.097437574215578e-7 -5.791195045147321e-7 -5.791209360933902e-7 -5.791253785377274e-7
          -5.355972608288246e-7 -4.942049109597937e-7 -5.355985657553987e-7 -4.94206151405143e-7 -5.356024619065287e-7 -4.942096597955456e-7
          -6.020950522980141e-7 -6.020966879710785e-7 -6.021015517540343e-7 -5.209209404094906e-7 -4.856336004092674e-7 -5.209221425719904e-7
          -4.856347746480876e-7 -5.209257905580777e-7 -4.856383108289357e-7 -5.649592982674042e-7 -5.649605825348078e-7 -5.649642894364351e-7
          -8.135479909002735e-7 -8.135498967174001e-7 -8.135556290226051e-7 -4.5578150543353674e-7 -4.557826451000029e-7 -4.557860279422447e-7
          -6.385690321781828e-7 -6.290811900914208e-7 -6.385707902078724e-7 -6.290828943510657e-7 -6.385761857598954e-7 -6.290882392558979e-7
          -4.2418849315807723e-7 -4.241896213710565e-7 -4.241931893725999e-7 -2.5309881063100146e-7 -3.1809271311373795e-7 -2.530994353982839e-7
          -3.1809344728291697e-7 -2.5310167340103753e-7 -3.1809561323242763e-7 -1.0227413818575515e-7 -1.4992086861794342e-7 -1.3830321441677422e-7
          -1.0227431334034246e-7 -1.4992114284072286e-7 -1.3830345159445986e-7 -1.0227467094781634e-7 -1.4992219118163813e-7 -1.3830425540767854e-7
          -6.920976090947036e-8 -5.642057525536169e-8 -1.284421157860616e-7 -6.920989298104466e-8 -5.6420700506713926e-8 -1.284424154810508e-7
          -6.921021046025976e-8 -5.642093808979463e-8 -1.2844336690350928e-7 -6.786186908984191e-7 -6.560920190062703e-7 -6.786203937069056e-7
          -6.560935696722235e-7 -6.786251290025526e-7 -6.560985076647335e-7 -4.873176247566012e-7 -4.764466532468311e-7 -4.0997539566718535e-7
          -4.873187320487197e-7 -4.76447834567677e-7 -4.0997625841819017e-7 -4.873220986763545e-7 -4.76451643496991e-7 -4.099787313122523e-7
          -2.3738060856603062e-7 -2.9940169657864993e-7 -2.373811883486764e-7 -2.9940236277300855e-7 -2.373828865606545e-7 -2.9940448844130075e-7
          -9.927951768481687e-7 -9.927974017124136e-7 -9.92804068816528e-7 0 0 0
          0 0 0 0 0 0
          0 0 0 -2.4128638893918853e-7 -2.2486185728956857e-7 -2.412869320417998e-7
          -2.2486233553317637e-7 -2.4128838434088897e-7 -2.2486381365029028e-7 -2.9452649223280797e-7 -2.9452712888569724e-7 -2.945291716973405e-7
          0 -5.340855983635587e-8 0 -5.340865459905476e-8 0 -5.3408787154082434e-8
          0 0 0 -6.359278623325425e-7 -6.359292891464106e-7 -6.359336634381925e-7
          0 0 0 -5.844951897953418e-7 -5.84496456653889e-7 -5.845002296814078e-7
          -5.321717541725695e-7 -5.321729252079602e-7 -5.321764275804562e-7 -5.460987800810464e-8 0 -5.460965147017857e-8
          0 -5.460784267250157e-8 0 -4.175151868055641e-7 -4.4840186188167013e-7 -4.175161696172452e-7
          -4.4840295376950263e-7 -4.175191507007515e-7 -4.4840639826440275e-7 -5.606126492955324e-7 -5.606140340688828e-7 -5.606182691645958e-7
          -8.731413800171659e-7 -8.731434504829038e-7 -8.731496529465553e-7 -4.868464751589686e-7 -4.868476604730134e-7 -4.868512079547512e-7
          -4.264516856038603e-7 -4.264525104754108e-7 -4.264552032294517e-7 -6.390349839704642e-7 -6.390367999582217e-7 -6.390418872768803e-7
          -6.977635807654681e-7 -6.977655579066044e-7 -6.977715679706519e-7 -3.051221102995154e-7 -3.5068128626843974e-7 -3.0512273703377385e-7
          -3.506820610614975e-7 -3.0512464683840273e-7 -3.5068431874504124e-7 -2.540295291105223e-7 -2.540300678260214e-7 -2.5403172656618495e-7
          -1.6813233387339614e-7 -2.0409377359913089e-7 -1.6813272598638185e-7 -2.0409424613486262e-7 -1.681338707820914e-7 -2.0409564053485373e-7
          -8.694638422925371e-7 -9.205016359562799e-7 -9.274836630148268e-7 -8.694658452977315e-7 -9.205036658460935e-7 -9.274857327533457e-7
          -8.694718050765113e-7 -9.205097193519022e-7 -9.274919744894935e-7 -9.878145335446216e-7 -9.878166593104196e-7 -9.878229328971524e-7
          -2.0165222565334876e-7 -2.0165266714940692e-7 -2.0165400430059704e-7 -5.006879956245295e-7 -5.53588101081571e-7 -5.006891402723243e-7
          -5.535892389188277e-7 -5.006925285270658e-7 -5.535924765328128e-7 -1.8067489424524363e-7 -2.3236619118499907e-7 -1.8067525659074073e-7
          -2.3236666501783617e-7 -1.806762938057967e-7 -2.3236816047845308e-7 -2.8093704879256583e-7 -2.809376460756021e-7 -2.8093945279740703e-7
          -2.199306921481121e-7 -2.6807172574143473e-7 -2.1993115672742085e-7 -2.6807230933796636e-7 -2.1993261895410125e-7 -2.680740480932252e-7
          -7.349227261153223e-7 -6.917479956412717e-7 -7.13525281242267e-7 -7.56845203485506e-7 -7.349248421022205e-7 -6.917499705429288e-7
          -7.13527220096721e-7 -7.568473705815029e-7 -7.349306897556994e-7 -6.917564510610404e-7 -7.135327657952039e-7 -7.568538344080044e-7
          -7.546879769913691e-7 -7.546899742549342e-7 -7.54695954016486e-7 -5.944127119736398e-7 -5.944142133769549e-7 -5.944184957088672e-7
          -3.274934362762428e-7 -3.669586511052824e-7 -3.2749401409209517e-7 -3.6695930641446124e-7 -3.274954715476129e-7 -3.6696156380792163e-7
          -3.8636417235586037e-7 -3.863651123418891e-7 -3.8636785943948294e-7 -5.452460671531188e-7 -5.35290982785684e-7 -5.452472976526274e-7
          -5.352922158158355e-7 -5.45250982401501e-7 -5.352959191382786e-7 -1.6569644253594783e-7 -1.7651068269960895e-7 -1.6569670199933144e-7
          -1.7651091550027123e-7 -1.6569751512669603e-7 -1.7651156454023935e-7 -9.795662296399079e-7 -9.79568405839729e-7 -9.795749615224868e-7
          -3.2076959310028657e-7 -3.013507203784161e-7 -3.2077026925127794e-7 -3.013513866503018e-7 -3.207723397604201e-7 -3.0135328476077967e-7
          -6.316780781541694e-7 -6.457584377030094e-7 -6.985723759703098e-7 -6.850985604133136e-7 -6.316797443897566e-7 -6.457600518661742e-7
          -6.985741371507486e-7 -6.851003657767578e-7 -6.3168478667939e-7 -6.457649163285156e-7 -6.98579310177161e-7 -6.851058630118644e-7
          -2.730477301082054e-7 -2.730481545600943e-7 -2.7304951137854014e-7 -7.479967796727588e-7 -7.730663018904131e-7 -7.4799878351696e-7
          -7.730685295174586e-7 -7.480047529501126e-7 -7.730750545400952e-7 -1.6469886145304704e-7 -1.0605238240952219e-7 -1.6469918257902747e-7
          -1.060525958020284e-7 -1.6470002963302064e-7 -1.0605322164155383e-7 -5.2768995356517805e-8 -5.276909172113501e-8 -5.276941759619913e-8
          -6.007927898197148e-7 -6.007940750332511e-7 -6.007978842513576e-7 -2.1666513705856477e-7 -2.1666549378028742e-7 -2.1666665834283965e-7
          -6.649541509919227e-7 -6.649559480373659e-7 -6.649612655072757e-7 -7.828638110283916e-7 -7.82866148125325e-7 -7.82872917774852e-7
          -1.6274511449981626e-7 -2.223915982579495e-7 -1.6274538078604781e-7 -2.223919860869049e-7 -1.627461721144624e-7 -2.223932638679853e-7
          -8.121155423785008e-7 -8.121179028456405e-7 -8.121248704060655e-7 -6.753472692911846e-7 -6.75349148535775e-7 -6.753553254209486e-7
          -6.48094296877588e-7 -6.480957295385229e-7 -6.481001535840022e-7 -1.4917229545453195e-7 -1.4917260997756606e-7 -1.4917358804528458e-7
          -8.018268019980345e-7 -8.018291624344131e-7 -8.018367986012132e-7 -3.503043705808056e-7 -3.5030512469709865e-7 -3.5030743770377314e-7
          0 -5.20648018774666e-8 0 0 -5.206487940799229e-8 0
          0 -5.206521912256461e-8 0 -6.46667504820037e-7 -6.46669299213718e-7 -6.466748581401011e-7
          -5.878491497903336e-7 -5.760244599188515e-7 -5.878504186674361e-7 -5.760256566059994e-7 -5.878541798017498e-7 -5.760292013806438e-7
          -6.128530772257928e-7 -6.128546897825851e-7 -6.128596811361222e-7 -5.972549177190559e-7 -5.97256391781066e-7 -5.972607659326774e-7
          0 0 0 -8.119792607692727e-7 -8.119815221616235e-7 -8.119887159384318e-7
          -9.34002822615121e-7 -9.319605423224186e-7 -9.340051824969892e-7 -9.319627331295529e-7 -9.340124324521773e-7 -9.319692807221818e-7
          -5.815324283633593e-7 -5.815338923387432e-7 -5.815382242558748e-7 -8.516843951304453e-7 -8.516868938367145e-7 -8.516939478088198e-7
          -9.41840234970202e-8 -9.418413745453233e-8 -9.418491827836072e-8 -6.02369766488277e-7 -6.023710258129522e-7 -6.02374704451541e-7
          -1.106795035764237e-7 -1.106797435284968e-7 -1.1068052061367781e-7 -7.989848238301786e-7 -7.989864874520697e-7 -7.989915885094123e-7
          -5.370281319627771e-7 -4.801346622198665e-7 -5.370292873484191e-7 -4.801358086274391e-7 -5.370326174868724e-7 -4.801393334590597e-7
          -1.65817782325582e-7 -1.6581825934493002e-7 -1.658196135006178e-7 -2.5648437381053177e-7 -3.2855645300574095e-7 -2.564849242136843e-7
          -3.28557135940411e-7 -2.564869176925875e-7 -3.285591492848938e-7 -4.284486538999002e-7 -4.284495100698839e-7 -4.284521157828706e-7
          -3.7223779525575413e-7 -3.722384241161819e-7 -3.7224010044363445e-7 -1.9994124776019103e-7 -1.9994157720892778e-7 -1.9994225355533833e-7
          0 -7.169930941206061e-8 0 -7.169937136860414e-8 0 -7.169937262307909e-8
          -2.1736101874586174e-7 -2.1736145969097844e-7 -2.1736173221314869e-7 -1.221557010770559e-7 -1.2215615447808191e-7 -1.2215824715616844e-7
        </DataArray>
        <DataArray type="Float64" Name="disp_z" format="ascii" RangeMin="-3.536240367641862e-8" RangeMax="0">
          0 0 0 0 -1.7603870550488755e-8 -1.7593271525373424e-8
          -1.759052590971992e-8 -1.760038658619561e-8 -3.52077071370688e-8 -3.5186502736398086e-8 -3.5181038371491897e-8 -3.520080445397261e-8
          0 0 0 0 -1.7644975607805868e-8 -1.7636609269908556e-8
          -1.7639796147607276e-8 -1.764531004444501e-8 -3.528997712191286e-8 -3.527327711615031e-8 -3.527949215550564e-8 -3.529075302891463e-8
          0 0 -1.7513685157610176e-8 -1.752266819530628e-8 -3.502723525901277e-8 -3.504537206101108e-8
          0 0 0 0 -1.7657631536262845e-8 -1.765924875032688e-8
          -1.7662711378479124e-8 -1.7662181769755625e-8 -3.5315204475101304e-8 -3.531864299476065e-8 -3.532549785687e-8 -3.532424926403297e-8
          0 0 -1.7639960526507112e-8 -1.7644749526930378e-8 -3.527987412706209e-8 -3.528943539371755e-8
          0 0 0 0 -1.7644318853932786e-8 -1.763693661243621e-8
          -1.7634145289769585e-8 -1.7648173428096208e-8 -3.52879468291874e-8 -3.527505220144402e-8 -3.526793827483712e-8 -3.529648296604756e-8
          0 0 0 0 -1.76584515336954e-8 -1.7654531527184324e-8
          -1.7652408147100307e-8 -1.7655759747901725e-8 -3.531685002372128e-8 -3.530897060645491e-8 -3.5304837615770766e-8 -3.531154101542245e-8
          0 0 -1.7608494703814343e-8 -1.7611728909523076e-8 -3.5216986990201e-8 -3.522342636639263e-8
          0 0 0 0 -1.7668457648747024e-8 -1.7670058915576558e-8
          -1.766581072877393e-8 -1.7664340684081005e-8 -3.533680861198608e-8 -3.534026133189532e-8 -3.533168405972331e-8 -3.532868013922657e-8
          0 0 0 -1.7569851498214807e-8 -1.758152457821535e-8 -1.7588832099161514e-8
          -3.513971338224623e-8 -3.516311167959102e-8 -3.517746272762621e-8 0 0 0
          0 -1.7657390754858924e-8 -1.7656220163903023e-8 -1.7655394674988047e-8 -1.765683914771452e-8 -3.5314807315454786e-8
          -3.531252730979445e-8 -3.531064509452076e-8 -3.531363147023686e-8 0 0 0
          0 -1.7653079193738833e-8 -1.7648409800016476e-8 -1.7644163604602166e-8 -1.7649439809449482e-8 -3.5306077159805564e-8
          -3.529686920025403e-8 -3.52884234734916e-8 -3.529874783993022e-8 0 -1.76551717393797e-8 -3.531032144381784e-8
          0 0 0 -1.7645264373776318e-8 -1.7637535256950455e-8 -1.7631061543052295e-8
          -3.529175448002917e-8 -3.527474844357306e-8 -3.52617877776745e-8 0 0 -1.7656456579522478e-8
          -1.765236702340914e-8 -3.53129510973257e-8 -3.5304746029507646e-8 0 0 0
          0 -1.7655751036579812e-8 -1.765378380983251e-8 -1.7652444050467504e-8 -1.76543867010935e-8 -3.5311469890382914e-8
          -3.5307644803679425e-8 -3.530491542243831e-8 -3.530872283418173e-8 0 0 0
          0 -1.7675014983660314e-8 -1.7673008855562868e-8 -1.7676410169353578e-8 -1.7680494129364783e-8 -3.5350130423446604e-8
          -3.5345872741939885e-8 -3.535273614789644e-8 -3.536115011160875e-8 0 0 0
          -1.764790670048773e-8 -1.7649036602621732e-8 -1.764470923711282e-8 -3.529580427819994e-8 -3.5298049779837316e-8 -3.528947063127363e-8
          0 0 -1.768105568021458e-8 -1.7673826370310626e-8 -3.536240367641862e-8 -3.534726849358566e-8
          0 0 0 0 -1.7634879637446665e-8 -1.7639012939684803e-8
          -1.764387361165725e-8 -1.7642291227943184e-8 -3.526974418556956e-8 -3.5277975451235185e-8 -3.528777786438013e-8 -3.528451829559765e-8
          0 0 -1.765108352374019e-8 -1.7652727747686198e-8 -3.5302201825542665e-8 -3.5305456944546415e-8
          0 0 -1.766445307986118e-8 -1.7660304405119975e-8 -3.532880319749795e-8 -3.5320606359929726e-8
          0 0 -1.7643079007484522e-8 -1.7638358891800988e-8 -3.5286136118934635e-8 -3.527683047953987e-8
          0 0 0 0 -1.761683671590106e-8 -1.761325357579611e-8
          -1.7614805874334672e-8 -1.762038643390024e-8 -3.5233658392008714e-8 -3.522651433745896e-8 -3.52296362739747e-8 -3.5240740355710197e-8
          0 0 -1.7629732540146356e-8 -1.7622933157741536e-8 -3.5259777963510166e-8 -3.52459413670769e-8
          0 -1.7669142216930647e-8 -3.533830928508453e-8 0 0 -1.763922078282979e-8
          -1.7633738996995618e-8 -3.527856741366892e-8 -3.526749582811507e-8 0 0 0
          -1.765384182212527e-8 -1.7649233024812933e-8 -1.76525057634621e-8 -3.530767655948277e-8 -3.529830707775673e-8 -3.5305058882651744e-8
          0 0 0 -1.766809905234691e-8 -1.766527185045966e-8 -1.7672029264423513e-8
          -3.5336160739891006e-8 -3.533060838522248e-8 -3.5343995650826543e-8 0 -1.762620310479317e-8 -3.5252590177615126e-8
          0 -1.766980436007853e-8 -3.533964996629438e-8 0 0 -1.761235237949036e-8
          -1.762353116299614e-8 -3.522479094102524e-8 -3.524720115033833e-8 0 -1.7660415203561562e-8 -3.532080536427735e-8
          0 0 0 -1.7619900429181886e-8 -1.7626352240946924e-8 -1.7628111427162824e-8
          -3.523970975600314e-8 -3.525261994460847e-8 -3.5256339473614224e-8 0 0 -1.7647395552024136e-8
          -1.764691630446037e-8 -3.529484958820445e-8 -3.529382380377861e-8 0 0 0
          0 -1.7532629774717162e-8 -1.7536150023924707e-8 -1.754753071159769e-8 -1.7550568784714206e-8 -3.506536627716895e-8
          -3.507225459241751e-8 -3.509542740145612e-8 -3.51011231973751e-8 0 0 0
          0 -1.7570444217779874e-8 -1.7566883658667934e-8 -1.7579215734712498e-8 -1.7582123085533375e-8 -3.514090371847552e-8
          -3.513368783146446e-8 -3.515834388528427e-8 -3.516435369303372e-8 0 0 0
          -1.7602039246088512e-8 -1.760025180053765e-8 -1.7609268228976248e-8 -3.5204058824243354e-8 -3.520057388336922e-8 -3.52182972412883e-8
          0 -1.764208938030719e-8 -3.5284102924368246e-8 0 -1.7656145065154998e-8 -3.5312236806676236e-8
          0 0 -1.7529751991157376e-8 -1.7545760829369475e-8 -3.5058862625009166e-8 -3.509138984699229e-8
          0 0 -1.756484869297787e-8 -1.7554263065376118e-8 -3.5129781917719703e-8 -3.510846717616804e-8
          0 -1.763421165492406e-8 -3.526836187415696e-8 0 0 0
          0 -1.7600584813551405e-8 -1.7600267108098627e-8 -1.7592637989231072e-8 -1.7586773659400483e-8 -3.520114363734593e-8
          -3.520067497583622e-8 -3.518520761964322e-8 -3.5173530090979634e-8 0 -1.760685287964227e-8 -3.521365864846436e-8
          0 -1.7611312952265596e-8 -3.522274288220962e-8 0 0 -1.762700883924939e-8
          -1.7622227050585096e-8 -3.525388762942575e-8 -3.524452287075556e-8 0 -1.76182373098639e-8 -3.523651022829455e-8
          0 0 -1.7617781938602386e-8 -1.7623495466339545e-8 -3.5235598254335376e-8 -3.5247068802779274e-8
          0 -1.7616408031291327e-8 -3.523231565540019e-8 0 0 -1.762272894378099e-8
          -1.7626284652020502e-8 -3.524554852052267e-8 -3.5252573830816155e-8 0 -1.761778639895461e-8 -3.523549945264493e-8
          0 -1.757503993223039e-8 -3.515003842575696e-8 0 -1.7629146335043252e-8 -3.5258346422076645e-8
          0 0 -1.760974177411092e-8 -1.7614542221511406e-8 -3.521991509447142e-8 -3.52292070395832e-8
          0 -1.7632538508432107e-8 -3.526507659712294e-8 0 0 -1.7658389181810153e-8
          -1.7651264055586466e-8 -3.531682635121258e-8 -3.530234196342552e-8 0 0 0
          -1.7658887164709183e-8 -1.76563483671625e-8 -1.7658475275280044e-8 -3.5317718388526855e-8 -3.5312697917663126e-8 -3.531724827411872e-8
          0 0 0 -1.7655242641401974e-8 -1.7656012770170964e-8 -1.765315548753006e-8
          -3.5310523617490725e-8 -3.5312144039930673e-8 -3.530618248302232e-8 0 0 -1.760580262708483e-8
          -1.7618238910897136e-8 -3.52116474508557e-8 -3.5236193013405346e-8 0 0 0
          -1.7649053682732896e-8 -1.7644230741725768e-8 -1.7653134009064092e-8 -3.52981039796446e-8 -3.5288335069337524e-8 -3.5306475856931534e-8
          0 0 -1.7655424694364114e-8 -1.7649397914000208e-8 -3.531106171236903e-8 -3.529881661062447e-8
          0 -1.753011483113456e-8 -3.506010080467214e-8 0 0 -1.765560922360142e-8
          -1.7654820349896503e-8 -3.5311130954247545e-8 -3.5309544046814555e-8 0 0 -1.7655571115876508e-8
          -1.7657460921710434e-8 -3.53111121258262e-8 -3.531490900861329e-8 0 0 -1.7650645743647017e-8
          -1.7650368331120754e-8 -3.5301314127093926e-8 -3.53007196682043e-8 0 -1.764896794055501e-8 -3.5297952011559823e-8
          0 0 -1.7656694576359452e-8 -1.7657055973530034e-8 -3.5313309366140185e-8 -3.531418016904381e-8
          0 -1.7658569220427064e-8 -3.53169579132017e-8 0 -1.7612661190369584e-8 -3.5225175154237664e-8
          0 -1.7661042549531255e-8 -3.532202648968978e-8 0 -1.7618709647865654e-8 -3.5237345506914604e-8
          0 -1.7624678075430614e-8 -3.524936505883055e-8 0 0 -1.7666243879861144e-8
          -1.7662835204576348e-8 -3.533270006505653e-8 -3.5325600457919676e-8 0 0 -1.7634820852193755e-8
          -1.7632522184486502e-8 -3.526962636584278e-8 -3.52650109802752e-8 0 -1.7615161609191827e-8 -3.523028607315313e-8
          0 -1.7557945065906565e-8 -3.5115822655529437e-8 0 -1.7629058026619255e-8 -3.525804618078671e-8
          0 -1.7645221870843104e-8 -3.529028973712182e-8 0 -1.760653928454947e-8 -3.521274871131449e-8
          0 -1.7595119022719576e-8 -3.5189954094938276e-8 0 0 -1.764425763943955e-8
          -1.764060393657835e-8 -3.528844302190719e-8 -3.5281121218856895e-8 0 -1.7647830830808222e-8 -3.529569519340252e-8
          0 0 -1.7653647145006873e-8 -1.765270405248716e-8 -3.5307322703505765e-8 -3.530537751468822e-8
          0 0 0 -1.7563378050635055e-8 -1.7557869570028952e-8 -1.7550788938882138e-8
          -3.5126794501896344e-8 -3.5115705778021735e-8 -3.510164554740554e-8 0 -1.753741117268331e-8 -3.507480547731136e-8
          0 -1.7650912596229515e-8 -3.5301841326683495e-8 0 0 -1.763077581780005e-8
          -1.7626095226895816e-8 -3.5261677881229316e-8 -3.525223788994413e-8 0 0 -1.76515095105006e-8
          -1.764899585648885e-8 -3.530305661476763e-8 -3.5297950787704205e-8 0 -1.764599344546778e-8 -3.529202373529877e-8
          0 0 -1.765007390555469e-8 -1.7647187856580467e-8 -3.530013583271725e-8 -3.529438217028358e-8
          0 0 0 0 -1.758233039733024e-8 -1.7592459422736542e-8
          -1.7586864612279252e-8 -1.757722448808188e-8 -3.516439829383033e-8 -3.5184833786810046e-8 -3.517395056185685e-8 -3.5154273169497754e-8
          0 -1.7578689419837156e-8 -3.51575425393742e-8 0 -1.7612208949012524e-8 -3.5224537672841774e-8
          0 0 -1.765737312195676e-8 -1.7654574377415886e-8 -3.53146526337859e-8 -3.530964142112505e-8
          0 -1.7637329503089306e-8 -3.5274598890132585e-8 0 0 -1.7641119562326725e-8
          -1.7636784298757793e-8 -3.528237971470883e-8 -3.527375343935778e-8 0 0 -1.7670442771845125e-8
          -1.7674100746224322e-8 -3.534094402870069e-8 -3.534818840083101e-8 0 -1.7544805168298733e-8 -3.5089612164306585e-8
          0 0 -1.7643263051587462e-8 -1.7645011908469048e-8 -3.5286545727574495e-8 -3.529003251132383e-8
          0 0 0 0 -1.7602201080482204e-8 -1.7599940767397602e-8
          -1.7589957127724826e-8 -1.7591163539754114e-8 -3.520450561518976e-8 -3.519989653355956e-8 -3.517985742050543e-8 -3.518230738225078e-8
          0 -1.7660609539601495e-8 -3.532120955515629e-8 0 0 -1.7577970683256315e-8
          -1.7573588163467658e-8 -3.5155774240372136e-8 -3.5147575047204e-8 0 0 -1.7662442814739024e-8
          -1.766098400099235e-8 -3.532494416309354e-8 -3.532191387576685e-8 0 -1.7662350427893416e-8 -3.5324751562070666e-8
          0 -1.7622263750867393e-8 -3.5244784850509216e-8 0 -1.766399573474139e-8 -3.532799864944829e-8
          0 -1.75959783135557e-8 -3.5191889866162706e-8 0 -1.7573564566184052e-8 -3.5147589478217765e-8
          0 0 -1.76664832279876e-8 -1.7659792132443356e-8 -3.5333003926680653e-8 -3.531956106480302e-8
          0 -1.756241644213791e-8 -3.512454908225922e-8 0 -1.75989270171379e-8 -3.5198553364733555e-8
          0 -1.7617625241513967e-8 -3.523533714913249e-8 0 -1.7653374212398223e-8 -3.5306811267670924e-8
          0 -1.7565147270851357e-8 -3.5130213125408855e-8 0 -1.7641287528095877e-8 -3.528261702371101e-8
          0 0 0 -1.7659719307370843e-8 -1.7659377102875385e-8 -1.7662552630849007e-8
          -3.5319435024758604e-8 -3.531875306728431e-8 -3.5325092585103384e-8 0 -1.7602730566247586e-8 -3.520542896325313e-8
          0 0 -1.762837610671058e-8 -1.7626795840057238e-8 -3.525660476502942e-8 -3.525323699548711e-8
          0 -1.7606251392530837e-8 -3.5212490563131884e-8 0 -1.760830836298603e-8 -3.521660363130696e-8
          0 -1.7666017713228244e-8 -3.5331913756762545e-8 0 -1.756275721538545e-8 -3.512581170400663e-8
          0 0 -1.753962561336876e-8 -1.7544546187573802e-8 -3.507935316912747e-8 -3.508901777330911e-8
          0 -1.761078784827998e-8 -3.522149684943979e-8 0 -1.7551154487234953e-8 -3.5101740604775974e-8
          0 -1.766661766992475e-8 -3.5333108362858516e-8 0 -1.7632564280973898e-8 -3.526513613704349e-8
          0 -1.765489553981836e-8 -3.530987380777976e-8 0 -1.7594735675448177e-8 -3.518991101271311e-8
          0 0 -1.7631606650687162e-8 -1.7636862338309664e-8 -3.526338513894233e-8 -3.527354176553755e-8
          0 -1.765920970913103e-8 -3.531836424048629e-8 0 0 -1.7663896745354896e-8
          -1.7659150730575315e-8 -3.532802783519027e-8 -3.531821386995978e-8 0 -1.765651260205219e-8 -3.5312940468684215e-8
          0 -1.7661947508246945e-8 -3.532389387879673e-8 0 -1.766136935200353e-8 -3.532256600241863e-8
          0 0 -1.7668637766794778e-8 -1.767075694203816e-8 -3.533699980294734e-8 -3.534166108050044e-8
          0 -1.766375830440222e-8 -3.532734569391129e-8 0 -1.766548612393026e-8 -3.5330831713607884e-8
        </DataArray>
      </PointData>
      <CellData>
        <DataArray type="Int32" Name="libmesh_elem_id" format="ascii" RangeMin="1392" RangeMax="3231">
          1392 1393 1402 1403 1418 1419
          1434 1435 1442 1443 1448 1449
          1454 1455 1478 1479 1500 1501
          1512 1513 1522 1523 1546 1547
          1572 1573 1582 1583 1590 1591
          1608 1609 1614 1615 1616 1617
          1630 1631 1638 1639 1650 1651
          1654 1655 1656 1657 1678 1679
          1682 1683 1684 1685 1704 1705
          1714 1715 1718 1719 1746 1747
          1760 1761 1762 1763 1772 1773
          1790 1791 1794 1795 1802 1803
          1816 1817 1824 1825 1832 1833
          1838 1839 1840 1841 1846 1847
          1848 1849 1852 1853 1856 1857
          1858 1859 1862 1863 1864 1865
          1874 1875 1876 1877 1878 1879
          1882 1883 1888 1889 1904 1905
          1906 1907 1910 1911 1916 1917
          1924 1925 1926 1927 1930 1931
          1936 1937 1946 1947 1950 1951
          1956 1957 1960 1961 1982 1983
          1996 1997 1998 1999 2026 2027
          2028 2029 2038 2039 2046 2047
          2048 2049 2052 2053 2054 2055
          2058 2059 2060 2061 2084 2085
          2088 2089 2096 2097 2102 2103
          2106 2107 2110 2111 2126 2127
          2136 2137 2138 2139 2144 2145
          2148 2149 2154 2155 2158 2159
          2162 2163 2164 2165 2170 2171
          2176 2177 2178 2179 2196 2197
          2200 2201 2202 2203 2204 2205
          2212 2213 2220 2221 2222 2223
          2224 2225 2226 2227 2228 2229
          2232 2233 2236 2237 2246 2247
          2250 2251 2252 2253 2254 2255
          2260 2261 2264 2265 2266 2267
          2274 2275 2282 2283 2308 2309
          2310 2311 2312 2313 2318 2319
          2324 2325 2328 2329 2346 2347
          2350 2351 2364 2365 2368 2369
          2370 2371 2402 2403 2416 2417
          2420 2421 2444 2445 2458 2459
          2462 2463 2466 2467 2468 2469
          2470 2471 2478 2479 2484 2485
          2488 2489 2490 2491 2502 2503
          2504 2505 2510 2511 2512 2513
          2524 2525 2550 2551 2566 2567
          2570 2571 2580 2581 2582 2583
          2602 2603 2608 2609 2616 2617
          2628 2629 2634 2635 2636 2637
          2640 2641 2642 2643 2644 2645
          2650 2651 2666 2667 2668 2669
          2684 2685 2690 2691 2696 2697
          2700 2701 2710 2711 2714 2715
          2716 2717 2726 2727 2750 2751
          2760 2761 2766 2767 2772 2773
          2782 2783 2798 2799 2802 2803
          2810 2811 2826 2827 2830 2831
          2838 2839 2860 2861 2868 2869
          2874 2875 2884 2885 2922 2923
          2928 2929 2934 2935 2938 2939
          2946 2947 2948 2949 2960 2961
          2962 2963 2964 2965 2974 2975
          2978 2979 2994 2995 2998 2999
          3004 3005 3008 3009 3020 3021
          3028 3029 3034 3035 3038 3039
          3040 3041 3042 3043 3050 3051
          3052 3053 3054 3055 3060 3061
          3066 3067 3072 3073 3076 3077
          3082 3083 3086 3087 3096 3097
          3100 3101 3102 3103 3112 3113
          3116 3117 3148 3149 3154 3155
          3158 3159 3166 3167 3182 3183
          3230 3231
        </DataArray>
        <DataArray type="Int32" Name="subdomain_id" format="ascii" RangeMin="107" RangeMax="107">
          107 107 107 107 107 107
          107 107 107 107 107 107
          107 107 107 107 107 107
          107 107 107 107 107 107
          107 107 107 107 107 107
          107 107 107 107 107 107
          107 107 107 107 107 107
          107 107 107 107 107 107
          107 107 107 107 107 107
          107 107 107 107 107 107
          107 107 107 107 107 107
          107 107 107 107 107 107
          107 107 107 107 107 107
          107 107 107 107 107 107
          107 107 107 107 107 107
          107 107 107 107 107 107
          107 107 107 107 107 107
          107 107 107 107 107 107
          107 107 107 107 107 107
          107 107 107 107 107 107
          107 107 107 107 107 107
          107 107 107 107 107 107
          107 107 107 107 107 107
          107 107 107 107 107 107
          107 107 107 107 107 107
          107 107 107 107 107 107
          107 107 107 107 107 107
          107 107 107 107 107 107
          107 107 107 107 107 107
          107 107 107 107 107 107
          107 107 107 107 107 107
          107 107 107 107 107 107
          107 107 107 107 107 107
          107 107 107 107 107 107
          107 107 107 107 107 107
          107 107 107 107 107 107
          107 107 107 107 107 107
          107 107 107 107 107 107
          107 107 107 107 107 107
          107 107 107 107 107 107
          107 107 107 107 107 107
          107 107 107 107 107 107
          107 107 107 107 107 107
          107 107 107 107 107 107
          107 107 107 107 107 107
          107 107 107 107 107 107
          107 107 107 107 107 107
          107 107 107 107 107 107
          107 107 107 107 107 107
          107 107 107 107 107 107
          107 107 107 107 107 107
          107 107 107 107 107 107
          107 107 107 107 107 107
          107 107 107 107 107 107
          107 107 107 107 107 107
          107 107 107 107 107 107
          107 107 107 107 107 107
          107 107 107 107 107 107
          107 107 107 107 107 107
          107 107 107 107 107 107
          107 107 107 107 107 107
          107 107 107 107 107 107
          107 107 107 107 107 107
          107 107 107 107 107 107
          107 107 107 107 107 107
          107 107 107 107 107 107
          107 107 107 107 107 107
          107 107 107 107 107 107
          107 107 107 107 107 107
          107 107 107 107 107 107
          107 107 107 107 107 107
          107 107 107 107 107 107
          107 107 107 107 107 107
          107 107 107 107 107 107
          107 107 107 107 107 107
          107 107
        </DataArray>
        <DataArray type="Int32" Name="processor_id" format="ascii" RangeMin="2" RangeMax="2">
          2 2 2 2 2 2
          2 2 2 2 2 2
          2 2 2 2 2 2
          2 2 2 2 2 2
          2 2 2 2 2 2
          2 2 2 2 2 2
          2 2 2 2 2 2
          2 2 2 2 2 2
          2 2 2 2 2 2
          2 2 2 2 2 2
          2 2 2 2 2 2
          2 2 2 2 2 2
          2 2 2 2 2 2
          2 2 2 2 2 2
          2 2 2 2 2 2
          2 2 2 2 2 2
          2 2 2 2 2 2
          2 2 2 2 2 2
          2 2 2 2 2 2
          2 2 2 2 2 2
          2 2 2 2 2 2
          2 2 2 2 2 2
          2 2 2 2 2 2
          2 2 2 2 2 2
          2 2 2 2 2 2
          2 2 2 2 2 2
          2 2 2 2 2 2
          2 2 2 2 2 2
          2 2 2 2 2 2
          2 2 2 2 2 2
          2 2 2 2 2 2
          2 2 2 2 2 2
          2 2 2 2 2 2
          2 2 2 2 2 2
          2 2 2 2 2 2
          2 2 2 2 2 2
          2 2 2 2 2 2
          2 2 2 2 2 2
          2 2 2 2 2 2
          2 2 2 2 2 2
          2 2 2 2 2 2
          2 2 2 2 2 2
          2 2 2 2 2 2
          2 2 2 2 2 2
          2 2 2 2 2 2
          2 2 2 2 2 2
          2 2 2 2 2 2
          2 2 2 2 2 2
          2 2 2 2 2 2
          2 2 2 2 2 2
          2 2 2 2 2 2
          2 2 2 2 2 2
          2 2 2 2 2 2
          2 2 2 2 2 2
          2 2 2 2 2 2
          2 2 2 2 2 2
          2 2 2 2 2 2
          2 2 2 2 2 2
          2 2 2 2 2 2
          2 2 2 2 2 2
          2 2 2 2 2 2
          2 2 2 2 2 2
          2 2 2 2 2 2
          2 2 2 2 2 2
          2 2 2 2 2 2
          2 2 2 2 2 2
          2 2 2 2 2 2
          2 2 2 2 2 2
          2 2 2 2 2 2
          2 2 2 2 2 2
          2 2 2 2 2 2
          2 2 2 2 2 2
          2 2 2 2 2 2
          2 2 2 2 2 2
          2 2 2 2 2 2
          2 2
        </DataArray>
      </CellData>
      <Points>
        <DataArray type="Float64" Name="Points" NumberOfComponents="3" format="ascii" RangeMin="0.0055128205128194" RangeMax="0.014586579917196396">
          0.010655961336451 0.0054415469453289 0 0.010738296327413 0.0059250363170334 0
          0.010252884061106 0.0059462536680524 0 0.010205117478458 0.0054994523140404 0
          0.010655961336451 0.0054415469453289 0.00015 0.010738296327413 0.0059250363170334 0.00015
          0.010252884061106 0.0059462536680524 0.00015 0.010205117478458 0.0054994523140404 0.00015
          0.010655961336451 0.0054415469453289 0.0003 0.010738296327413 0.0059250363170334 0.0003
          0.010252884061106 0.0059462536680524 0.0003 0.010205117478458 0.0054994523140404 0.0003
          0.011940440807394 0.0034141066074527 0 0.011459595517011 0.003824326979063 0
          0.011102612382238 0.0034627190197861 0 0.011355953963772 0.0030463545109029 0
          0.011940440807394 0.0034141066074527 0.00015 0.011459595517011 0.003824326979063 0.00015
          0.011102612382238 0.0034627190197861 0.00015 0.011355953963772 0.0030463545109029 0.00015
          0.011940440807394 0.0034141066074527 0.0003 0.011459595517011 0.003824326979063 0.0003
          0.011102612382238 0.0034627190197861 0.0003 0.011355953963772 0.0030463545109029 0.0003
          0.010057653370411 0.0084974472595183 0 0.01054988842507 0.0084422245958245 0
          0.010057653370411 0.0084974472595183 0.00015 0.01054988842507 0.0084422245958245 0.00015
          0.010057653370411 0.0084974472595183 0.0003 0.01054988842507 0.0084422245958245 0.0003
          0.011046194733105 0.00090743319272295 0 0.011064186406242 0.00044456569898216 0
          0.011549090679959 0.00043919238601916 0 0.011507246232172 0.00087204304167501 0
          0.011046194733105 0.00090743319272295 0.00015 0.011064186406242 0.00044456569898216 0.00015
          0.011549090679959 0.00043919238601916 0.00015 0.011507246232172 0.00087204304167501 0.00015
          0.011046194733105 0.00090743319272295 0.0003 0.011064186406242 0.00044456569898216 0.0003
          0.011549090679959 0.00043919238601916 0.0003 0.011507246232172 0.00087204304167501 0.0003
          0.010695724673322 0.003201084864495 0 0.010922769205465 0.002821493997395 0
          0.010695724673322 0.003201084864495 0.00015 0.010922769205465 0.002821493997395 0.00015
          0.010695724673322 0.003201084864495 0.0003 0.010922769205465 0.002821493997395 0.0003
          0.0063972422249218 0.0045440807567198 0 0.0065062213292024 0.0050164807168814 0
          0.0062389906493372 0.0053128670028646 0 0.0060512178389602 0.0047929387822649 0
          0.0063972422249218 0.0045440807567198 0.00015 0.0065062213292024 0.0050164807168814 0.00015
          0.0062389906493372 0.0053128670028646 0.00015 0.0060512178389602 0.0047929387822649 0.00015
          0.0063972422249218 0.0045440807567198 0.0003 0.0065062213292024 0.0050164807168814 0.0003
          0.0062389906493372 0.0053128670028646 0.0003 0.0060512178389602 0.0047929387822649 0.0003
          0.0077450758336629 0.0014176167893871 0 0.0081853433575 0.0016343392489207 0
          0.0081296210030831 0.0020475545417094 0 0.0077097822266787 0.0019577759081516 0
          0.0077450758336629 0.0014176167893871 0.00015 0.0081853433575 0.0016343392489207 0.00015
          0.0081296210030831 0.0020475545417094 0.00015 0.0077097822266787 0.0019577759081516 0.00015
          0.0077450758336629 0.0014176167893871 0.0003 0.0081853433575 0.0016343392489207 0.0003
          0.0081296210030831 0.0020475545417094 0.0003 0.0077097822266787 0.0019577759081516 0.0003
          0.010163700921554 0.0050965322104848 0 0.010539876174215 0.0050107335132671 0
          0.010163700921554 0.0050965322104848 0.00015 0.010539876174215 0.0050107335132671 0.00015
          0.010163700921554 0.0050965322104848 0.0003 0.010539876174215 0.0050107335132671 0.0003
          0.0067145785472978 0.00092067788586619 0 0.0066311284750677 0.00045344715700039 0
          0.0071039644964018 0.00045254776362746 0 0.0071622170579096 0.00091220258976311 0
          0.0067145785472978 0.00092067788586619 0.00015 0.0066311284750677 0.00045344715700039 0.00015
          0.0071039644964018 0.00045254776362746 0.00015 0.0071622170579096 0.00091220258976311 0.00015
          0.0067145785472978 0.00092067788586619 0.0003 0.0066311284750677 0.00045344715700039 0.0003
          0.0071039644964018 0.00045254776362746 0.0003 0.0071622170579096 0.00091220258976311 0.0003
          0.011832021157187 0.0073476785459853 0 0.011779780861271 0.0068646395959748 0
          0.012243708910156 0.0068324173193727 0 0.011832021157187 0.0073476785459853 0.00015
          0.011779780861271 0.0068646395959748 0.00015 0.012243708910156 0.0068324173193727 0.00015
          0.011832021157187 0.0073476785459853 0.0003 0.011779780861271 0.0068646395959748 0.0003
          0.012243708910156 0.0068324173193727 0.0003 0.0084907788898463 0.00044286110481525 0
          0.0089555217282148 0.00046389179151574 0 0.0088246864415892 0.00090448805343066 0
          0.0084146790711037 0.00087434414493667 0 0.0084907788898463 0.00044286110481525 0.00015
          0.0089555217282148 0.00046389179151574 0.00015 0.0088246864415892 0.00090448805343066 0.00015
          0.0084146790711037 0.00087434414493667 0.00015 0.0084907788898463 0.00044286110481525 0.0003
          0.0089555217282148 0.00046389179151574 0.0003 0.0088246864415892 0.00090448805343066 0.0003
          0.0084146790711037 0.00087434414493667 0.0003 0.0073198391209489 0.002802975731369 0
          0.007729981097025 0.0028801564362105 0 0.0077015154526268 0.0033237594367458 0
          0.0072927827923603 0.0032114269239825 0 0.0073198391209489 0.002802975731369 0.00015
          0.007729981097025 0.0028801564362105 0.00015 0.0077015154526268 0.0033237594367458 0.00015
          0.0072927827923603 0.0032114269239825 0.00015 0.0073198391209489 0.002802975731369 0.0003
          0.007729981097025 0.0028801564362105 0.0003 0.0077015154526268 0.0033237594367458 0.0003
          0.0072927827923603 0.0032114269239825 0.0003 0.011061956134478 0.0014022262787872 0
          0.011061956134478 0.0014022262787872 0.00015 0.011061956134478 0.0014022262787872 0.0003
          0.0067262777673885 0.0043003855308917 0 0.0070184374453973 0.0044097475846897 0
          0.0069143452336461 0.0047780273607631 0 0.0067262777673885 0.0043003855308917 0.00015
          0.0070184374453973 0.0044097475846897 0.00015 0.0069143452336461 0.0047780273607631 0.00015
          0.0067262777673885 0.0043003855308917 0.0003 0.0070184374453973 0.0044097475846897 0.0003
          0.0069143452336461 0.0047780273607631 0.0003 0.0072966772765568 0.0023596996909359 0
          0.0077191611848381 0.0024307703640478 0 0.0072966772765568 0.0023596996909359 0.00015
          0.0077191611848381 0.0024307703640478 0.00015 0.0072966772765568 0.0023596996909359 0.0003
          0.0077191611848381 0.0024307703640478 0.0003 0.010569749843509 0.00092230265866691 0
          0.010578573679683 0.0013844170604281 0 0.010145320905195 0.0014335884987508 0
          0.01008894187929 0.00096115561381429 0 0.010569749843509 0.00092230265866691 0.00015
          0.010578573679683 0.0013844170604281 0.00015 0.010145320905195 0.0014335884987508 0.00015
          0.01008894187929 0.00096115561381429 0.00015 0.010569749843509 0.00092230265866691 0.0003
          0.010578573679683 0.0013844170604281 0.0003 0.010145320905195 0.0014335884987508 0.0003
          0.01008894187929 0.00096115561381429 0.0003 0.0061669869081239 0.00049673093518566 0
          0.0062913293509889 0.00097410606592609 0 0.0059245902968253 0.0010856763727913 0
          0.0057061681768373 0.00065177476244477 0 0.0061669869081239 0.00049673093518566 0.00015
          0.0062913293509889 0.00097410606592609 0.00015 0.0059245902968253 0.0010856763727913 0.00015
          0.0057061681768373 0.00065177476244477 0.00015 0.0061669869081239 0.00049673093518566 0.0003
          0.0062913293509889 0.00097410606592609 0.0003 0.0059245902968253 0.0010856763727913 0.0003
          0.0057061681768373 0.00065177476244477 0.0003 0.010613957240618 0.0022894151744625 0
          0.011031068838334 0.0023895404946521 0 0.01053554486979 0.0026566023779455 0
          0.010613957240618 0.0022894151744625 0.00015 0.011031068838334 0.0023895404946521 0.00015
          0.01053554486979 0.0026566023779455 0.00015 0.010613957240618 0.0022894151744625 0.0003
          0.011031068838334 0.0023895404946521 0.0003 0.01053554486979 0.0026566023779455 0.0003
          0.0055128205128194 0 0 0.0060256410256386 0 0
          0.0055128205128194 0 0.00015 0.0060256410256386 0 0.00015
          0.0055128205128194 0 0.0003 0.0060256410256386 0 0.0003
          0.0087932726011055 0.003543484648519 0 0.0081725565838686 0.0034418576035907 0
          0.0081844882448281 0.0029554535172717 0 0.0086653225286358 0.0029358056411338 0
          0.0087932726011055 0.003543484648519 0.00015 0.0081725565838686 0.0034418576035907 0.00015
          0.0081844882448281 0.0029554535172717 0.00015 0.0086653225286358 0.0029358056411338 0.00015
          0.0087932726011055 0.003543484648519 0.0003 0.0081725565838686 0.0034418576035907 0.0003
          0.0081844882448281 0.0029554535172717 0.0003 0.0086653225286358 0.0029358056411338 0.0003
          0.010609256891376 0.0018508518753275 0 0.011063963632424 0.0019108783312894 0
          0.010609256891376 0.0018508518753275 0.00015 0.011063963632424 0.0019108783312894 0.00015
          0.010609256891376 0.0018508518753275 0.0003 0.011063963632424 0.0019108783312894 0.0003
          0.0061614658010566 0.0029736343202522 0 0.0061372854142827 0.0036106222238676 0
          0.0061614658010566 0.0029736343202522 0.00015 0.0061372854142827 0.0036106222238676 0.00015
          0.0061614658010566 0.0029736343202522 0.0003 0.0061372854142827 0.0036106222238676 0.0003
          0.0091223832784702 0.0028108558594978 0 0.0093224708097351 0.0032450014434347 0
          0.0091223832784702 0.0028108558594978 0.00015 0.0093224708097351 0.0032450014434347 0.00015
          0.0091223832784702 0.0028108558594978 0.0003 0.0093224708097351 0.0032450014434347 0.0003
          0.010365654248251 0.0046741943492533 0 0.010130092133721 0.0048347586786618 0
          0.0098673679311407 0.0047157860708196 0 0.010078628200493 0.0044157313734999 0
          0.010365654248251 0.0046741943492533 0.00015 0.010130092133721 0.0048347586786618 0.00015
          0.0098673679311407 0.0047157860708196 0.00015 0.010078628200493 0.0044157313734999 0.00015
          0.010365654248251 0.0046741943492533 0.0003 0.010130092133721 0.0048347586786618 0.0003
          0.0098673679311407 0.0047157860708196 0.0003 0.010078628200493 0.0044157313734999 0.0003
          0.0074225055052033 0.0045889494028562 0 0.0073125071067115 0.0049521547682488 0
          0.0074225055052033 0.0045889494028562 0.00015 0.0073125071067115 0.0049521547682488 0.00015
          0.0074225055052033 0.0045889494028562 0.0003 0.0073125071067115 0.0049521547682488 0.0003
          0.0061231952422177 0.002444135475079 0 0.0061231952422177 0.002444135475079 0.00015
          0.0061231952422177 0.002444135475079 0.0003 0.007634491258567 0.0037589111207536 0
          0.0080978935956725 0.0039120786728548 0 0.007634491258567 0.0037589111207536 0.00015
          0.0080978935956725 0.0039120786728548 0.00015 0.007634491258567 0.0037589111207536 0.0003
          0.0080978935956725 0.0039120786728548 0.0003 0.0067400809843091 0.0034207975388345 0
          0.0067100713183769 0.0039836679330495 0 0.0063054236008776 0.0041223407032968 0
          0.0067400809843091 0.0034207975388345 0.00015 0.0067100713183769 0.0039836679330495 0.00015
          0.0063054236008776 0.0041223407032968 0.00015 0.0067400809843091 0.0034207975388345 0.0003
          0.0067100713183769 0.0039836679330495 0.0003 0.0063054236008776 0.0041223407032968 0.0003
          0.0064429727892239 0.0018594619814901 0 0.0065003657821779 0.0023397297588745 0
          0.0060722038988066 0.0019538017587265 0 0.0064429727892239 0.0018594619814901 0.00015
          0.0065003657821779 0.0023397297588745 0.00015 0.0060722038988066 0.0019538017587265 0.00015
          0.0064429727892239 0.0018594619814901 0.0003 0.0065003657821779 0.0023397297588745 0.0003
          0.0060722038988066 0.0019538017587265 0.0003 0.0068255396015086 0.0051581133306003 0
          0.0068255396015086 0.0051581133306003 0.00015 0.0068255396015086 0.0051581133306003 0.0003
          0.0065384615384579 0 0 0.0065384615384579 0 0.00015
          0.0065384615384579 0 0.0003 0.012879713087233 0.0060908484912964 0
          0.012982043505355 0.0056371881930815 0 0.012879713087233 0.0060908484912964 0.00015
          0.012982043505355 0.0056371881930815 0.00015 0.012879713087233 0.0060908484912964 0.0003
          0.012982043505355 0.0056371881930815 0.0003 0.0065699942646101 0.0028542668018424 0
          0.0065699942646101 0.0028542668018424 0.00015 0.0065699942646101 0.0028542668018424 0.0003
          0.0084683943974961 0.0045583446766593 0 0.0079943718437571 0.0043747262241866 0
          0.0085823759797054 0.0040943119694046 0 0.0084683943974961 0.0045583446766593 0.00015
          0.0079943718437571 0.0043747262241866 0.00015 0.0085823759797054 0.0040943119694046 0.00015
          0.0084683943974961 0.0045583446766593 0.0003 0.0079943718437571 0.0043747262241866 0.0003
          0.0085823759797054 0.0040943119694046 0.0003 0.0085830886495109 0.0024681574500846 0
          0.0090044137010858 0.0023542069269131 0 0.0085830886495109 0.0024681574500846 0.00015
          0.0090044137010858 0.0023542069269131 0.00015 0.0085830886495109 0.0024681574500846 0.0003
          0.0090044137010858 0.0023542069269131 0.0003 0.0098857235699117 0.0079055319030787 0
          0.0095144479526816 0.0076594245921199 0 0.0094715724969347 0.0073263583858313 0
          0.0099283521138692 0.0073475677072736 0 0.0098857235699117 0.0079055319030787 0.00015
          0.0095144479526816 0.0076594245921199 0.00015 0.0094715724969347 0.0073263583858313 0.00015
          0.0099283521138692 0.0073475677072736 0.00015 0.0098857235699117 0.0079055319030787 0.0003
          0.0095144479526816 0.0076594245921199 0.0003 0.0094715724969347 0.0073263583858313 0.0003
          0.0099283521138692 0.0073475677072736 0.0003 0.010833716827414 0.0069257207373803 0
          0.010357413059119 0.0069077241183533 0 0.010300982556592 0.0064274708783385 0
          0.010786080808085 0.0064391381968206 0 0.010833716827414 0.0069257207373803 0.00015
          0.010357413059119 0.0069077241183533 0.00015 0.010300982556592 0.0064274708783385 0.00015
          0.010786080808085 0.0064391381968206 0.00015 0.010833716827414 0.0069257207373803 0.0003
          0.010357413059119 0.0069077241183533 0.0003 0.010300982556592 0.0064274708783385 0.0003
          0.010786080808085 0.0064391381968206 0.0003 0.012723582323863 0.006509831652106 0
          0.012251440655851 0.0062918667587536 0 0.012542392069256 0.0059723735377719 0
          0.012723582323863 0.006509831652106 0.00015 0.012251440655851 0.0062918667587536 0.00015
          0.012542392069256 0.0059723735377719 0.00015 0.012723582323863 0.006509831652106 0.0003
          0.012251440655851 0.0062918667587536 0.0003 0.012542392069256 0.0059723735377719 0.0003
          0.0071151184692216 0.0040272738406853 0 0.0071151184692216 0.0040272738406853 0.00015
          0.0071151184692216 0.0040272738406853 0.0003 0.005927800859391 0.0043689372395662 0
          0.005927800859391 0.0043689372395662 0.00015 0.005927800859391 0.0043689372395662 0.0003
          0.0092411258002763 0.0078319639415625 0 0.0089588909882048 0.0073942383853577 0
          0.0092411258002763 0.0078319639415625 0.00015 0.0089588909882048 0.0073942383853577 0.00015
          0.0092411258002763 0.0078319639415625 0.0003 0.0089588909882048 0.0073942383853577 0.0003
          0.009874674666521 0.0068715373563056 0 0.010410157305432 0.007394545582291 0
          0.009874674666521 0.0068715373563056 0.00015 0.010410157305432 0.007394545582291 0.00015
          0.009874674666521 0.0068715373563056 0.0003 0.010410157305432 0.007394545582291 0.0003
          0.0075354000991736 0.004186248288406 0 0.0075354000991736 0.004186248288406 0.00015
          0.0075354000991736 0.004186248288406 0.0003 0.01131847387487 0.0058224977902188 0
          0.011696082283392 0.0060272916092408 0 0.011725204011411 0.0063910302275778 0
          0.011265055974573 0.0064250601080915 0 0.01131847387487 0.0058224977902188 0.00015
          0.011696082283392 0.0060272916092408 0.00015 0.011725204011411 0.0063910302275778 0.00015
          0.011265055974573 0.0064250601080915 0.00015 0.01131847387487 0.0058224977902188 0.0003
          0.011696082283392 0.0060272916092408 0.0003 0.011725204011411 0.0063910302275778 0.0003
          0.011265055974573 0.0064250601080915 0.0003 0.012000241143886 0.0058170880130831 0
          0.012000241143886 0.0058170880130831 0.00015 0.012000241143886 0.0058170880130831 0.0003
          0.011120492592586 0.0052514705902296 0 0.011120492592586 0.0052514705902296 0.00015
          0.011120492592586 0.0052514705902296 0.0003 0.0092910901193945 0.0039260363263486 0
          0.0090503465409481 0.0043132092761106 0 0.0092910901193945 0.0039260363263486 0.00015
          0.0090503465409481 0.0043132092761106 0.00015 0.0092910901193945 0.0039260363263486 0.0003
          0.0090503465409481 0.0043132092761106 0.0003 0.007889027184575 0.0048982243533992 0
          0.007889027184575 0.0048982243533992 0.00015 0.007889027184575 0.0048982243533992 0.0003
          0.0094935553236164 0.004533528646427 0 0.0097061514105808 0.0041851036755216 0
          0.0094935553236164 0.004533528646427 0.00015 0.0097061514105808 0.0041851036755216 0.00015
          0.0094935553236164 0.004533528646427 0.0003 0.0097061514105808 0.0041851036755216 0.0003
          0.007602124101561 0.0050930903063015 0 0.007602124101561 0.0050930903063015 0.00015
          0.007602124101561 0.0050930903063015 0.0003 0.010723762445737 0.0044202706845482 0
          0.010410164583979 0.0041181159817359 0 0.010723762445737 0.0044202706845482 0.00015
          0.010410164583979 0.0041181159817359 0.00015 0.010723762445737 0.0044202706845482 0.0003
          0.010410164583979 0.0041181159817359 0.0003 0.01095205032792 0.0047963590452232 0
          0.01095205032792 0.0047963590452232 0.00015 0.01095205032792 0.0047963590452232 0.0003
          0.011303178752756 0.0069106117689346 0 0.011303178752756 0.0069106117689346 0.00015
          0.011303178752756 0.0069106117689346 0.0003 0.01003253261535 0.0038623502872685 0
          0.01003253261535 0.0038623502872685 0.00015 0.01003253261535 0.0038623502872685 0.0003
          0.0076528923620256 0.0053996878686031 0 0.0072494384034052 0.005322441352826 0
          0.0076528923620256 0.0053996878686031 0.00015 0.0072494384034052 0.005322441352826 0.00015
          0.0076528923620256 0.0053996878686031 0.0003 0.0072494384034052 0.005322441352826 0.0003
          0.0096442187720765 0.0035928190702974 0 0.0096442187720765 0.0035928190702974 0.00015
          0.0096442187720765 0.0035928190702974 0.0003 0.012013949131265 0.002158444108951 0
          0.012018063243501 0.0027123142038817 0 0.012013949131265 0.002158444108951 0.00015
          0.012018063243501 0.0027123142038817 0.00015 0.012013949131265 0.002158444108951 0.0003
          0.012018063243501 0.0027123142038817 0.0003 0.0080144547016537 0.00086684480617367 0
          0.008304219624614 0.0012703006012415 0 0.0080327132462595 0.0011721512048422 0
          0.0080144547016537 0.00086684480617367 0.00015 0.008304219624614 0.0012703006012415 0.00015
          0.0080327132462595 0.0011721512048422 0.00015 0.0080144547016537 0.00086684480617367 0.0003
          0.008304219624614 0.0012703006012415 0.0003 0.0080327132462595 0.0011721512048422 0.0003
          0.0094736490244467 0.0005865877812969 0 0.010068957850501 0.00047856930843549 0
          0.0096358530086744 0.0010887425154837 0 0.0094736490244467 0.0005865877812969 0.00015
          0.010068957850501 0.00047856930843549 0.00015 0.0096358530086744 0.0010887425154837 0.00015
          0.0094736490244467 0.0005865877812969 0.0003 0.010068957850501 0.00047856930843549 0.0003
          0.0096358530086744 0.0010887425154837 0.0003 0.0071984303565192 0.0057392272964834 0
          0.0067200519522164 0.0055550541115669 0 0.0071984303565192 0.0057392272964834 0.00015
          0.0067200519522164 0.0055550541115669 0.00015 0.0071984303565192 0.0057392272964834 0.0003
          0.0067200519522164 0.0055550541115669 0.0003 0.013091675611077 0.0041736873632184 0
          0.012621380555602 0.004071395146678 0 0.012601464682814 0.0035037767307713 0
          0.013091675611077 0.0041736873632184 0.00015 0.012621380555602 0.004071395146678 0.00015
          0.012601464682814 0.0035037767307713 0.00015 0.013091675611077 0.0041736873632184 0.0003
          0.012621380555602 0.004071395146678 0.0003 0.012601464682814 0.0035037767307713 0.0003
          0.01153639784925 0.0020208067996516 0 0.011496246026306 0.0025480504488598 0
          0.01153639784925 0.0020208067996516 0.00015 0.011496246026306 0.0025480504488598 0.00015
          0.01153639784925 0.0020208067996516 0.0003 0.011496246026306 0.0025480504488598 0.0003
          0.011043213382792 0.0084269911709333 0 0.011043213382792 0.0084269911709333 0.00015
          0.011043213382792 0.0084269911709333 0.0003 0.010128205128191 0 0
          0.0096153846153732 0 0 0.010128205128191 0 0.00015
          0.0096153846153732 0 0.00015 0.010128205128191 0 0.0003
          0.0096153846153732 0 0.0003 0.0091025641025551 0 0
          0.0085897435897353 0 0 0.0091025641025551 0 0.00015
          0.0085897435897353 0 0.00015 0.0091025641025551 0 0.0003
          0.0085897435897353 0 0.0003 0.0085182476127008 0.0020437661198126 0
          0.0089029205554566 0.0019047336662455 0 0.0085182476127008 0.0020437661198126 0.00015
          0.0089029205554566 0.0019047336662455 0.00015 0.0085182476127008 0.0020437661198126 0.0003
          0.0089029205554566 0.0019047336662455 0.0003 0.0081522818828449 0.0024947087352937 0
          0.0081522818828449 0.0024947087352937 0.00015 0.0081522818828449 0.0024947087352937 0.0003
          0.010641025641009 0 0 0.010579843756946 0.00045349299099366 0
          0.010641025641009 0 0.00015 0.010579843756946 0.00045349299099366 0.00015
          0.010641025641009 0 0.0003 0.010579843756946 0.00045349299099366 0.0003
          0.011153846153828 0 0 0.011153846153828 0 0.00015
          0.011153846153828 0 0.0003 0.011760912133753 0.0054122119446059 0
          0.011760912133753 0.0054122119446059 0.00015 0.011760912133753 0.0054122119446059 0.0003
          0.011666666666648 0 0 0.011666666666648 0 0.00015
          0.011666666666648 0 0.0003 0.011547825504055 0.0049713459697514 0
          0.011547825504055 0.0049713459697514 0.00015 0.011547825504055 0.0049713459697514 0.0003
          0.011349632014182 0.0045239710214715 0 0.011349632014182 0.0045239710214715 0.00015
          0.011349632014182 0.0045239710214715 0.0003 0.011997463288521 0.00046572766410539 0
          0.012179487179468 0 0 0.011997463288521 0.00046572766410539 0.00015
          0.012179487179468 0 0.00015 0.011997463288521 0.00046572766410539 0.0003
          0.012179487179468 0 0.0003 0.01039056673058 0.0035410773695937 0
          0.010772622187787 0.0038062315725381 0 0.01039056673058 0.0035410773695937 0.00015
          0.010772622187787 0.0038062315725381 0.00015 0.01039056673058 0.0035410773695937 0.0003
          0.010772622187787 0.0038062315725381 0.0003 0.0089323359070786 0.0047421281357296 0
          0.0089323359070786 0.0047421281357296 0.00015 0.0089323359070786 0.0047421281357296 0.0003
          0.010891746765568 0.007407252260552 0 0.010891746765568 0.007407252260552 0.00015
          0.010891746765568 0.007407252260552 0.0003 0.011089383238376 0.0041358143249023 0
          0.011089383238376 0.0041358143249023 0.00015 0.011089383238376 0.0041358143249023 0.0003
          0.007205317033861 0.0036141963404016 0 0.007205317033861 0.0036141963404016 0.00015
          0.007205317033861 0.0036141963404016 0.0003 0.0080269839945158 0.0054023282425744 0
          0.0080269839945158 0.0054023282425744 0.00015 0.0080269839945158 0.0054023282425744 0.0003
          0.0077721363879251 0.0058968168784219 0 0.0077721363879251 0.0058968168784219 0.00015
          0.0077721363879251 0.0058968168784219 0.0003 0.0095370253310475 0.0025850582106885 0
          0.009732219723835 0.0029713438236062 0 0.0095370253310475 0.0025850582106885 0.00015
          0.009732219723835 0.0029713438236062 0.00015 0.0095370253310475 0.0025850582106885 0.0003
          0.009732219723835 0.0029713438236062 0.0003 0.0094100372761059 0.0021522308351028 0
          0.0094100372761059 0.0021522308351028 0.00015 0.0094100372761059 0.0021522308351028 0.0003
          0.0087313387484914 0.001424359608332 0 0.0084651319029022 0.0017289788972556 0
          0.0087313387484914 0.001424359608332 0.00015 0.0084651319029022 0.0017289788972556 0.00015
          0.0087313387484914 0.001424359608332 0.0003 0.0084651319029022 0.0017289788972556 0.0003
          0.011363196701121 0.0073867521895413 0 0.011894488312007 0.0078344841271679 0
          0.011431801070778 0.0078815011129823 0 0.011363196701121 0.0073867521895413 0.00015
          0.011894488312007 0.0078344841271679 0.00015 0.011431801070778 0.0078815011129823 0.00015
          0.011363196701121 0.0073867521895413 0.0003 0.011894488312007 0.0078344841271679 0.0003
          0.011431801070778 0.0078815011129823 0.0003 0.011511795106494 0.0083968566041475 0
          0.011511795106494 0.0083968566041475 0.00015 0.011511795106494 0.0083968566041475 0.0003
          0.0093066157528448 0.0017085494075796 0 0.0093066157528448 0.0017085494075796 0.00015
          0.0093066157528448 0.0017085494075796 0.0003 0.011737204813157 0.0042624504192267 0
          0.011920232844873 0.0047153506313134 0 0.011737204813157 0.0042624504192267 0.00015
          0.011920232844873 0.0047153506313134 0.00015 0.011737204813157 0.0042624504192267 0.0003
          0.011920232844873 0.0047153506313134 0.0003 0.0097199155871303 0.0015315099671301 0
          0.0098040259351994 0.0019696894002764 0 0.0097199155871303 0.0015315099671301 0.00015
          0.0098040259351994 0.0019696894002764 0.00015 0.0097199155871303 0.0015315099671301 0.0003
          0.0098040259351994 0.0019696894002764 0.0003 0.0099068743951204 0.0023814903757239 0
          0.0099068743951204 0.0023814903757239 0.00015 0.0099068743951204 0.0023814903757239 0.0003
          0.010196799496301 0.0018655242590307 0 0.010252080701677 0.0022738797315184 0
          0.010196799496301 0.0018655242590307 0.00015 0.010252080701677 0.0022738797315184 0.00015
          0.010196799496301 0.0018655242590307 0.0003 0.010252080701677 0.0022738797315184 0.0003
          0.0082479601882269 0.0062087007836213 0 0.0083721174281176 0.0058457654542534 0
          0.0087793359412623 0.006030240425184 0 0.0086690881028679 0.0063945203238097 0
          0.0082479601882269 0.0062087007836213 0.00015 0.0083721174281176 0.0058457654542534 0.00015
          0.0087793359412623 0.006030240425184 0.00015 0.0086690881028679 0.0063945203238097 0.00015
          0.0082479601882269 0.0062087007836213 0.0003 0.0083721174281176 0.0058457654542534 0.0003
          0.0087793359412623 0.006030240425184 0.0003 0.0086690881028679 0.0063945203238097 0.0003
          0.0098103305116681 0.0063862496116293 0 0.0098103305116681 0.0063862496116293 0.00015
          0.0098103305116681 0.0063862496116293 0.0003 0.0084248193747317 0.0050261658136402 0
          0.0084248193747317 0.0050261658136402 0.00015 0.0084248193747317 0.0050261658136402 0.0003
          0.0069463016830039 0.0027787422025108 0 0.0070048409545821 0.0031125297586922 0
          0.0069463016830039 0.0027787422025108 0.00015 0.0070048409545821 0.0031125297586922 0.00015
          0.0069463016830039 0.0027787422025108 0.0003 0.0070048409545821 0.0031125297586922 0.0003
          0.010028456835002 0.0032748409090605 0 0.010028456835002 0.0032748409090605 0.00015
          0.010028456835002 0.0032748409090605 0.0003 0.013084530633285 0.0046685927017207 0
          0.012657407202949 0.0045740785705039 0 0.013084530633285 0.0046685927017207 0.00015
          0.012657407202949 0.0045740785705039 0.00015 0.013084530633285 0.0046685927017207 0.0003
          0.012657407202949 0.0045740785705039 0.0003 0.0063788755008874 0.0014091508241809 0
          0.0060137569775388 0.0015029488511318 0 0.0063788755008874 0.0014091508241809 0.00015
          0.0060137569775388 0.0015029488511318 0.00015 0.0063788755008874 0.0014091508241809 0.0003
          0.0060137569775388 0.0015029488511318 0.0003 0.01196380743939 0.0083394019710021 0
          0.01196380743939 0.0083394019710021 0.00015 0.01196380743939 0.0083394019710021 0.0003
          0.010073855840534 0.0027196155419985 0 0.010289681297386 0.0025561678844121 0
          0.010073855840534 0.0027196155419985 0.00015 0.010289681297386 0.0025561678844121 0.00015
          0.010073855840534 0.0027196155419985 0.0003 0.010289681297386 0.0025561678844121 0.0003
          0.0093223919318803 0.0053434698815888 0 0.009764317340127 0.0054658727348424 0
          0.0097769212248058 0.0059119658621614 0 0.0093027527337708 0.0057939169389015 0
          0.0093223919318803 0.0053434698815888 0.00015 0.009764317340127 0.0054658727348424 0.00015
          0.0097769212248058 0.0059119658621614 0.00015 0.0093027527337708 0.0057939169389015 0.00015
          0.0093223919318803 0.0053434698815888 0.0003 0.009764317340127 0.0054658727348424 0.0003
          0.0097769212248058 0.0059119658621614 0.0003 0.0093027527337708 0.0057939169389015 0.0003
          0.0068882925124701 0.0023177669638962 0 0.0068882925124701 0.0023177669638962 0.00015
          0.0068882925124701 0.0023177669638962 0.0003 0.0092499592325966 0.0063238181416562 0
          0.0089620052424248 0.0065330227489775 0 0.0092499592325966 0.0063238181416562 0.00015
          0.0089620052424248 0.0065330227489775 0.00015 0.0092499592325966 0.0063238181416562 0.0003
          0.0089620052424248 0.0065330227489775 0.0003 0.0072168253422346 0.001397514094839 0
          0.0076041066380058 0.00089936619415626 0 0.0072168253422346 0.001397514094839 0.00015
          0.0076041066380058 0.00089936619415626 0.00015 0.0072168253422346 0.001397514094839 0.0003
          0.0076041066380058 0.00089936619415626 0.0003 0.0075718226613923 0.00044755222139025 0
          0.0075718226613923 0.00044755222139025 0.00015 0.0075718226613923 0.00044755222139025 0.0003
          0.012116660000204 0.0051206445675074 0 0.012116660000204 0.0051206445675074 0.00015
          0.012116660000204 0.0051206445675074 0.0003 0.0068338524094732 0.0018398489073113 0
          0.0068338524094732 0.0018398489073113 0.00015 0.0068338524094732 0.0018398489073113 0.0003
          0.0088473960481577 0.0056214227923259 0 0.0088473960481577 0.0056214227923259 0.00015
          0.0088473960481577 0.0056214227923259 0.0003 0.0081402125110085 0.0066115625704341 0
          0.0081402125110085 0.0066115625704341 0.00015 0.0081402125110085 0.0066115625704341 0.0003
          0.0067824993802385 0.0013824026215467 0 0.0072591856110724 0.0018865642034293 0
          0.0067824993802385 0.0013824026215467 0.00015 0.0072591856110724 0.0018865642034293 0.00015
          0.0067824993802385 0.0013824026215467 0.0003 0.0072591856110724 0.0018865642034293 0.0003
          0.0094035295411974 0.0068662830960629 0 0.0094035295411974 0.0068662830960629 0.00015
          0.0094035295411974 0.0068662830960629 0.0003 0.0080770297303238 0.0057078658228848 0
          0.0080770297303238 0.0057078658228848 0.00015 0.0080770297303238 0.0057078658228848 0.0003
          0.012455160230445 0.0055307966461266 0 0.012455160230445 0.0055307966461266 0.00015
          0.012455160230445 0.0055307966461266 0.0003 0.0092134396095011 0.0012639463069257 0
          0.0092134396095011 0.0012639463069257 0.00015 0.0092134396095011 0.0012639463069257 0.0003
          0.0085681017610313 0.0067725899286886 0 0.0085681017610313 0.0067725899286886 0.00015
          0.0085681017610313 0.0067725899286886 0.0003 0.010337781301114 0.0029713007827362 0
          0.010337781301114 0.0029713007827362 0.00015 0.010337781301114 0.0029713007827362 0.0003
          0.0080769230769162 0 0 0.0080362994401078 0.00044130282391618 0
          0.0075641025640979 0 0 0.0080769230769162 0 0.00015
          0.0080362994401078 0.00044130282391618 0.00015 0.0075641025640979 0 0.00015
          0.0080769230769162 0 0.0003 0.0080362994401078 0.00044130282391618 0.0003
          0.0075641025640979 0 0.0003 0.0084157309119158 0.0054663429893237 0
          0.0084157309119158 0.0054663429893237 0.00015 0.0084157309119158 0.0054663429893237 0.0003
          0.012625060394875 0.0050215313919928 0 0.012340535819996 0.0049145470001145 0
          0.012625060394875 0.0050215313919928 0.00015 0.012340535819996 0.0049145470001145 0.00015
          0.012625060394875 0.0050215313919928 0.0003 0.012340535819996 0.0049145470001145 0.0003
          0.0088807280393962 0.0051824777758032 0 0.0088807280393962 0.0051824777758032 0.00015
          0.0088807280393962 0.0051824777758032 0.0003 0.00978640191627 0.0050564284414982 0
          0.00978640191627 0.0050564284414982 0.00015 0.00978640191627 0.0050564284414982 0.0003
          0.007051282051278 0 0 0.007051282051278 0 0.00015
          0.007051282051278 0 0.0003 0.0089738769927721 0.0068608682916542 0
          0.0089738769927721 0.0068608682916542 0.00015 0.0089738769927721 0.0068608682916542 0.0003
          0.010464396561549 0.007914442793445 0 0.010959162019398 0.0079079830093058 0
          0.010464396561549 0.007914442793445 0.00015 0.010959162019398 0.0079079830093058 0.00015
          0.010464396561549 0.007914442793445 0.0003 0.010959162019398 0.0079079830093058 0.0003
          0.0093768424757788 0.0049206652486621 0 0.0093768424757788 0.0049206652486621 0.00015
          0.0093768424757788 0.0049206652486621 0.0003 0.0084364690699339 0.0071912877673881 0
          0.0084364690699339 0.0071912877673881 0.00015 0.0084364690699339 0.0071912877673881 0.0003
          0.011870414872976 0.00080294526771027 0 0.011870414872976 0.00080294526771027 0.00015
          0.011870414872976 0.00080294526771027 0.0003 0.013048655853798 0.0051555709380823 0
          0.013048655853798 0.0051555709380823 0.00015 0.013048655853798 0.0051555709380823 0.0003
          0.0091480378790118 0.00093783666102615 0 0.0091480378790118 0.00093783666102615 0.00015
          0.0091480378790118 0.00093783666102615 0.0003 0.012592651705639 0.0068198098450163 0
          0.012592651705639 0.0068198098450163 0.00015 0.012592651705639 0.0068198098450163 0.0003
          0.012272070002081 0.0045810549534562 0 0.012153081904124 0.0040944528080542 0
          0.012272070002081 0.0045810549534562 0.00015 0.012153081904124 0.0040944528080542 0.00015
          0.012272070002081 0.0045810549534562 0.0003 0.012153081904124 0.0040944528080542 0.0003
          0.011634800364854 0.0014122839921498 0 0.011634800364854 0.0014122839921498 0.00015
          0.011634800364854 0.0014122839921498 0.0003 0.012451479243686 0.0021914486022899 0
          0.012674188674928 0.0028095410694266 0 0.012451479243686 0.0021914486022899 0.00015
          0.012674188674928 0.0028095410694266 0.00015 0.012451479243686 0.0021914486022899 0.0003
          0.012674188674928 0.0028095410694266 0.0003 0.013121586466294 0.0036708577033715 0
          0.013121586466294 0.0036708577033715 0.00015 0.013121586466294 0.0036708577033715 0.0003
          0.013248150362312 0.0031919567697963 0 0.013248150362312 0.0031919567697963 0.00015
          0.013248150362312 0.0031919567697963 0.0003 0.012096711335481 0.0017058387426491 0
          0.012096711335481 0.0017058387426491 0.00015 0.012096711335481 0.0017058387426491 0.0003
          0.012692307692288 0 0 0.012542896420733 0.00061304595643839 0
          0.012692307692288 0 0.00015 0.012542896420733 0.00061304595643839 0.00015
          0.012692307692288 0 0.0003 0.012542896420733 0.00061304595643839 0.0003
          0.012384518900215 0.0018567382086698 0 0.012384518900215 0.0018567382086698 0.00015
          0.012384518900215 0.0018567382086698 0.0003 0.012087580163866 0.0010424427844857 0
          0.012087580163866 0.0010424427844857 0.00015 0.012087580163866 0.0010424427844857 0.0003
          <InformationKey name="L2_NORM_RANGE" location="vtkDataArray" length="2">
            <Value index="0">
              0.0055128205128
            </Value>
            <Value index="1">
              0.014586579917
            </Value>
          </InformationKey>
        </DataArray>
      </Points>
      <Cells>
        <DataArray type="Int64" Name="connectivity" format="ascii" RangeMin="0" RangeMax="773">
          0 1 2 3 4 5
          6 7 4 5 6 7
          8 9 10 11 12 13
          14 15 16 17 18 19
          16 17 18 19 20 21
          22 23 30 31 32 33
          34 35 36 37 34 35
          36 37 38 39 40 41
          15 14 42 43 19 18
          44 45 19 18 44 45
          23 22 46 47 48 49
          50 51 52 53 54 55
          52 53 54 55 56 57
          58 59 60 61 62 63
          64 65 66 67 64 65
          66 67 68 69 70 71
          3 72 73 0 7 74
          75 4 7 74 75 4
          11 76 77 8 78 79
          80 81 82 83 84 85
          82 83 84 85 86 87
          88 89 99 100 101 102
          103 104 105 106 103 104
          105 106 107 108 109 110
          111 112 113 114 115 116
          117 118 115 116 117 118
          119 120 121 122 744 123
          30 33 745 124 34 37
          745 124 34 37 746 125
          38 41 48 126 127 128
          52 129 130 131 52 129
          130 131 56 132 133 134
          135 136 112 111 137 138
          116 115 137 138 116 115
          139 140 120 119 141 142
          143 144 145 146 147 148
          145 146 147 148 149 150
          151 152 153 154 155 156
          157 158 159 160 157 158
          159 160 161 162 163 164
          165 166 43 167 168 169
          45 170 168 169 45 170
          171 172 47 173 174 175
          153 156 176 177 157 160
          176 177 157 160 178 179
          161 164 180 181 182 183
          184 185 186 187 184 185
          186 187 188 189 190 191
          166 165 192 193 169 168
          194 195 169 168 194 195
          172 171 196 197 112 182
          181 113 116 186 185 117
          116 186 185 117 120 190
          189 121 204 205 180 183
          206 207 184 187 206 207
          184 187 208 209 188 191
          210 211 212 213 214 215
          216 217 214 215 216 217
          218 219 220 221 222 223
          128 127 224 225 131 130
          224 225 131 130 226 227
          134 133 154 153 79 78
          158 157 83 82 158 157
          83 82 162 161 87 86
          231 113 181 232 233 117
          185 234 233 117 185 234
          235 121 189 236 237 238
          239 199 240 241 242 201
          240 241 242 201 243 244
          245 203 246 247 228 248
          249 250 229 251 249 250
          229 251 252 253 230 254
          255 49 48 128 256 53
          52 131 256 53 52 131
          257 57 56 134 175 258
          79 153 177 259 83 157
          177 259 83 157 179 260
          87 161 267 237 199 198
          268 240 201 200 268 240
          201 200 269 243 203 202
          270 271 232 272 273 274
          234 275 273 274 234 275
          276 277 236 278 267 198
          228 247 268 200 229 250
          268 200 229 250 269 202
          230 253 183 279 280 204
          187 281 282 206 187 281
          282 206 191 283 284 208
          285 286 287 288 289 290
          291 292 289 290 291 292
          293 294 295 296 297 298
          299 300 301 302 303 304
          301 302 303 304 305 306
          307 308 261 309 310 311
          263 312 313 314 263 312
          313 314 265 315 316 317
          238 318 127 126 241 319
          130 129 241 319 130 129
          244 320 133 132 324 325
          287 286 326 327 291 290
          326 327 291 290 328 329
          295 294 330 298 331 288
          332 302 333 292 332 302
          333 292 334 306 335 296
          318 336 222 127 319 337
          224 130 319 337 224 130
          320 338 226 133 339 340
          341 342 343 344 345 346
          343 344 345 346 347 348
          349 350 300 1 339 342
          304 5 343 346 304 5
          343 346 308 9 347 350
          351 310 341 340 352 313
          345 344 352 313 345 344
          353 316 349 348 354 339
          1 0 355 343 5 4
          355 343 5 4 356 347
          9 8 357 358 272 180
          359 360 275 184 359 360
          275 184 361 362 278 188
          48 239 238 126 52 242
          241 129 52 242 241 129
          56 245 244 132 336 271
          363 222 337 274 364 224
          337 274 364 224 338 277
          365 226 51 321 239 48
          55 322 242 52 55 322
          242 52 59 323 245 56
          366 367 213 212 368 369
          217 216 368 369 217 216
          370 371 221 220 223 222
          363 372 225 224 364 373
          225 224 364 373 227 226
          365 374 375 210 213 376
          377 214 217 378 377 214
          217 378 379 218 221 380
          375 381 73 210 377 382
          75 214 377 382 75 214
          379 383 77 218 381 354
          0 73 382 355 4 75
          382 355 4 75 383 356
          8 77 297 300 342 384
          301 304 346 385 301 304
          346 385 305 308 350 386
          376 213 367 387 378 217
          369 388 378 217 369 388
          380 221 371 389 223 372
          390 391 225 373 392 393
          225 373 392 393 227 374
          394 395 396 357 180 205
          397 359 184 207 397 359
          184 207 398 361 188 209
          387 367 357 396 388 369
          359 397 388 369 359 397
          389 371 361 398 399 747
          748 400 401 749 750 402
          401 749 750 402 403 751
          752 404 405 102 406 407
          408 106 409 410 408 106
          409 410 411 110 412 413
          180 272 232 181 184 275
          234 185 184 275 234 185
          188 278 236 189 414 415
          144 416 417 418 148 419
          417 418 148 419 420 421
          152 422 423 424 255 391
          425 426 256 393 425 426
          256 393 427 428 257 395
          429 430 431 753 432 433
          434 754 432 433 434 754
          435 436 437 755 438 399
          400 439 440 401 402 441
          440 401 402 441 442 403
          404 443 447 415 414 448
          449 418 417 450 449 418
          417 450 451 421 420 452
          453 100 99 454 455 104
          103 456 455 104 103 456
          457 108 107 458 279 459
          460 280 281 461 462 282
          281 461 462 282 283 463
          464 284 279 465 62 459
          281 466 66 461 281 466
          66 461 283 467 70 463
          448 414 100 453 450 417
          104 455 450 417 104 455
          452 420 108 457 468 469
          415 447 470 471 418 449
          470 471 418 449 472 473
          421 451 753 431 748 756
          754 434 750 757 754 434
          750 757 755 437 752 758
          400 748 431 12 402 750
          434 16 402 750 434 16
          404 752 437 20 474 31
          469 468 475 35 471 470
          475 35 471 470 476 39
          473 472 399 438 744 759
          401 440 745 760 401 440
          745 760 403 442 746 761
          339 477 351 340 343 478
          352 344 343 478 352 344
          347 479 353 348 367 366
          358 357 369 368 360 359
          369 368 360 359 371 370
          362 361 480 32 31 474
          481 36 35 475 481 36
          35 475 482 40 39 476
          483 477 339 354 484 478
          343 355 484 478 343 355
          485 479 347 356 486 483
          354 381 487 484 355 382
          487 484 355 382 488 485
          356 383 183 182 465 279
          187 186 466 281 187 186
          466 281 191 190 467 283
          762 763 489 490 764 765
          491 492 764 765 491 492
          766 767 493 494 490 489
          32 480 492 491 36 481
          492 491 36 481 494 493
          40 482 387 495 496 376
          388 497 498 378 388 497
          498 378 389 499 500 380
          501 270 272 358 502 273
          275 360 502 273 275 360
          503 276 278 362 504 331
          298 297 505 333 302 301
          505 333 302 301 506 335
          306 305 507 486 381 375
          508 487 382 377 508 487
          382 377 509 488 383 379
          318 238 237 510 319 241
          240 511 319 241 240 511
          320 244 243 512 50 49
          255 424 54 53 256 426
          54 53 256 426 58 57
          257 428 363 513 390 372
          364 514 392 373 364 514
          392 373 365 515 394 374
          516 423 391 390 517 425
          393 392 517 425 393 392
          518 427 395 394 519 520
          205 204 521 522 207 206
          521 522 207 206 523 524
          209 208 525 519 204 280
          526 521 206 282 526 521
          206 282 527 523 208 284
          528 460 459 529 530 462
          461 531 530 462 461 531
          532 464 463 533 534 90
          535 536 537 93 538 539
          537 93 538 539 540 96
          541 542 546 525 280 460
          547 526 282 462 547 526
          282 462 548 527 284 464
          759 768 747 399 760 769
          749 401 760 769 749 401
          761 770 751 403 507 375
          376 496 508 377 378 498
          508 377 378 498 509 379
          380 500 483 486 549 550
          484 487 551 552 484 487
          551 552 485 488 553 554
          231 232 271 336 233 234
          274 337 233 234 274 337
          235 236 277 338 391 255
          128 223 393 256 131 225
          393 256 131 225 395 257
          134 227 525 546 555 556
          526 547 557 558 526 547
          557 558 527 548 559 560
          519 525 556 561 521 526
          558 562 521 526 558 562
          523 527 560 563 561 556
          564 565 562 558 566 567
          562 558 566 567 563 560
          568 569 570 571 572 573
          574 575 576 577 574 575
          576 577 578 579 580 581
          2 1 300 299 6 5
          304 303 6 5 304 303
          10 9 308 307 582 299
          298 330 583 303 302 332
          583 303 302 332 584 307
          306 334 585 363 271 270
          586 364 274 273 586 364
          274 273 587 365 277 276
          555 416 144 143 557 419
          148 147 557 419 148 147
          559 422 152 151 588 589
          237 267 590 591 240 268
          590 591 240 268 592 593
          243 269 396 594 495 387
          397 595 497 388 397 595
          497 388 398 596 499 389
          594 396 205 520 595 397
          207 522 595 397 207 522
          596 398 209 524 597 598
          430 429 599 600 433 432
          599 600 433 432 601 602
          436 435 603 246 248 604
          605 249 251 606 605 249
          251 606 607 252 254 608
          72 211 210 73 74 215
          214 75 74 215 214 75
          76 219 218 77 536 535
          609 543 539 538 610 544
          539 538 610 544 542 541
          611 545 612 561 565 613
          614 562 567 615 614 562
          567 615 616 563 569 617
          618 619 620 621 622 623
          624 625 622 623 624 625
          626 627 628 629 630 588
          267 247 631 590 268 250
          631 590 268 250 632 592
          269 253 633 634 573 572
          635 636 577 576 635 636
          577 576 637 638 581 580
          60 639 81 640 64 641
          85 642 64 641 85 642
          68 643 89 644 561 612
          520 519 562 614 522 521
          562 614 522 521 563 616
          524 523 510 231 336 318
          511 233 337 319 511 233
          337 319 512 235 338 320
          640 81 80 645 642 85
          84 646 642 85 84 646
          644 89 88 647 550 648
          477 483 552 649 478 484
          552 649 478 484 554 650
          479 485 630 247 246 651
          631 250 249 652 631 250
          249 652 632 253 252 653
          633 572 654 621 635 576
          655 625 635 576 655 625
          637 580 656 629 15 43
          166 439 19 45 169 441
          19 45 169 441 23 47
          172 443 660 639 661 651
          662 641 663 652 662 641
          663 652 664 643 665 653
          666 330 288 287 667 332
          292 291 667 332 292 291
          668 334 296 295 603 660
          651 246 605 662 652 249
          605 662 652 249 607 664
          653 252 571 570 516 669
          575 574 517 670 575 574
          517 670 579 578 518 671
          672 262 261 311 673 264
          263 314 673 264 263 314
          674 266 265 317 416 555
          546 675 419 557 547 676
          419 557 547 676 422 559
          548 677 570 573 678 657
          574 577 679 658 574 577
          679 658 578 581 680 659
          495 42 14 496 497 44
          18 498 497 44 18 498
          499 46 22 500 61 529
          459 62 65 531 461 66
          65 531 461 66 69 533
          463 70 13 507 496 14
          17 508 498 18 17 508
          498 18 21 509 500 22
          114 510 237 589 118 511
          240 591 118 511 240 591
          122 512 243 593 513 669
          516 390 514 670 517 392
          514 670 517 392 515 671
          518 394 594 681 42 495
          595 682 44 497 595 682
          44 497 596 683 46 499
          114 589 588 111 118 591
          590 115 118 591 590 115
          122 593 592 119 510 114
          113 231 511 118 117 233
          511 118 117 233 512 122
          121 235 681 594 520 612
          682 595 522 614 682 595
          522 614 683 596 524 616
          684 685 645 686 687 688
          646 689 687 688 646 689
          690 691 647 692 693 654
          572 571 694 655 576 575
          694 655 576 575 695 656
          580 579 675 546 460 528
          676 547 462 530 676 547
          462 530 677 548 464 532
          439 400 12 15 441 402
          16 19 441 402 16 19
          443 404 20 23 696 672
          648 697 698 673 649 699
          698 673 649 699 700 674
          650 701 702 618 621 654
          703 622 625 655 703 622
          625 655 704 626 629 656
          72 705 212 211 74 706
          216 215 74 706 216 215
          76 707 220 219 182 112
          136 465 186 116 138 466
          186 116 138 466 190 120
          140 467 708 686 645 80
          709 689 646 84 709 689
          646 84 710 692 647 88
          91 341 310 92 94 345
          313 95 94 345 313 95
          97 349 316 98 135 630
          651 661 137 631 652 663
          137 631 652 663 139 632
          653 665 666 287 325 711
          667 291 327 712 667 291
          327 712 668 295 329 713
          444 25 714 715 445 27
          716 717 445 27 716 717
          446 29 718 719 705 720
          366 212 706 721 368 216
          706 721 368 216 707 722
          370 220 331 504 715 714
          333 505 717 716 333 505
          717 716 335 506 719 718
          13 549 486 507 17 551
          487 508 17 551 487 508
          21 553 488 509 571 669
          513 693 575 670 514 694
          575 670 514 694 579 671
          515 695 102 405 685 99
          106 408 688 103 106 408
          688 103 110 411 691 107
          672 351 477 648 673 352
          478 649 673 352 478 649
          674 353 479 650 693 513
          363 585 694 514 364 586
          694 514 364 586 695 515
          365 587 285 714 25 24
          289 716 27 26 289 716
          27 26 293 718 29 28
          143 142 192 564 147 146
          194 566 147 146 194 566
          151 150 196 568 726 489
          763 771 727 491 765 772
          727 491 765 772 728 493
          767 773 534 536 715 504
          537 539 717 505 537 539
          717 505 540 542 719 506
          165 565 564 192 168 567
          566 194 168 567 566 194
          171 569 568 196 78 81
          639 660 82 85 641 662
          82 85 641 662 86 89
          643 664 136 135 661 63
          138 137 663 67 138 137
          663 67 140 139 665 71
          729 262 672 696 730 264
          673 698 730 264 673 698
          731 266 674 700 630 135
          111 588 631 137 115 590
          631 137 115 590 632 139
          119 592 702 585 270 501
          703 586 273 502 703 586
          273 502 704 587 276 503
          585 702 654 693 586 703
          655 694 586 703 655 694
          587 704 656 695 61 406
          528 529 65 409 530 531
          65 409 530 531 69 412
          532 533 414 732 101 100
          417 733 105 104 417 733
          105 104 420 734 109 108
          63 62 465 136 67 66
          466 138 67 66 466 138
          71 70 467 140 501 720
          618 702 502 721 622 703
          502 721 622 703 503 722
          626 704 720 501 358 366
          721 502 360 368 721 502
          360 368 722 503 362 370
          685 684 454 99 688 687
          456 103 688 687 456 103
          691 690 458 107 685 405
          640 645 688 408 642 646
          688 408 642 646 691 411
          644 647 30 141 469 31
          34 145 471 35 34 145
          471 35 38 149 473 39
          598 738 739 430 600 740
          741 433 600 740 741 433
          602 742 743 436 43 42
          681 167 45 44 682 170
          45 44 682 170 47 46
          683 173 678 711 325 723
          679 712 327 724 679 712
          327 724 680 713 329 725
          619 618 720 705 623 622
          721 706 623 622 721 706
          627 626 722 707 102 101
          528 406 106 105 530 409
          106 105 530 409 110 109
          532 412 549 13 12 739
          551 17 16 741 551 17
          16 741 553 21 20 743
          711 678 573 634 712 679
          577 636 712 679 577 636
          713 680 581 638 80 79
          258 708 84 83 259 709
          84 83 259 709 88 87
          260 710 738 598 696 697
          740 600 698 699 740 600
          698 699 742 602 700 701
          714 285 288 331 716 289
          292 333 716 289 292 333
          718 293 296 335 672 311
          310 351 673 314 313 352
          673 314 313 352 674 317
          316 353 430 739 12 431
          433 741 16 434 433 741
          16 434 436 743 20 437
          193 438 439 166 195 440
          441 169 195 440 441 169
          197 442 443 172 489 726
          33 32 491 727 37 36
          491 727 37 36 493 728
          41 40 444 715 536 543
          445 717 539 544 445 717
          539 544 446 719 542 545
          3 619 705 72 7 623
          706 74 7 623 706 74
          11 627 707 76 633 666
          711 634 635 667 712 636
          635 667 712 636 637 668
          713 638 384 534 504 297
          385 537 505 301 385 537
          505 301 386 540 506 305
          726 771 744 33 727 772
          745 37 727 772 745 37
          728 773 746 41 167 613
          565 165 170 615 567 168
          170 615 567 168 173 617
          569 171 675 732 414 416
          676 733 417 419 676 733
          417 419 677 734 420 422
          550 549 739 738 552 551
          741 740 552 551 741 740
          554 553 743 742 732 675
          528 101 733 676 530 105
          733 676 530 105 734 677
          532 109 63 661 639 60
          67 663 641 64 67 663
          641 64 71 665 643 68
          384 91 90 534 385 94
          93 537 385 94 93 537
          386 97 96 540 123 744
          438 193 124 745 440 195
          124 745 440 195 125 746
          442 197 406 61 60 407
          409 65 64 410 409 65
          64 410 412 69 68 413
          154 78 660 603 158 82
          662 605 158 82 662 605
          162 86 664 607 91 384
          342 341 94 385 346 345
          94 385 346 345 97 386
          350 349 405 407 60 640
          408 410 64 642 408 410
          64 642 411 413 68 644
          648 550 738 697 649 552
          740 699 649 552 740 699
          650 554 742 701 735 92
          310 309 736 95 313 312
          736 95 313 312 737 98
          316 315 633 582 330 666
          635 583 332 667 635 583
          332 667 637 584 334 668
          167 681 612 613 170 682
          614 615 170 682 614 615
          173 683 616 617 620 2
          299 582 624 6 303 583
          624 6 303 583 628 10
          307 584 582 633 621 620
          583 635 625 624 583 635
          625 624 584 637 629 628
          141 144 415 469 145 148
          418 471 145 148 418 471
          149 152 421 473 143 564
          556 555 147 566 558 557
          147 566 558 557 151 568
          560 559 2 620 619 3
          6 624 623 7 6 624
          623 7 10 628 627 11
          729 696 598 597 730 698
          600 599 730 698 600 599
          731 700 602 601 141 30
          123 142 145 34 124 146
          145 34 124 146 149 38
          125 150 154 603 604 155
          158 605 606 159 158 605
          606 159 162 607 608 163
          193 192 142 123 195 194
          146 124 195 194 146 124
          197 196 150 125
        </DataArray>
        <DataArray type="Int64" Name="offsets" format="ascii" RangeMin="8" RangeMax="3616">
          8 16 24 32 40 48
          56 64 72 80 88 96
          104 112 120 128 136 144
          152 160 168 176 184 192
          200 208 216 224 232 240
          248 256 264 272 280 288
          296 304 312 320 328 336
          344 352 360 368 376 384
          392 400 408 416 424 432
          440 448 456 464 472 480
          488 496 504 512 520 528
          536 544 552 560 568 576
          584 592 600 608 616 624
          632 640 648 656 664 672
          680 688 696 704 712 720
          728 736 744 752 760 768
          776 784 792 800 808 816
          824 832 840 848 856 864
          872 880 888 896 904 912
          920 928 936 944 952 960
          968 976 984 992 1000 1008
          1016 1024 1032 1040 1048 1056
          1064 1072 1080 1088 1096 1104
          1112 1120 1128 1136 1144 1152
          1160 1168 1176 1184 1192 1200
          1208 1216 1224 1232 1240 1248
          1256 1264 1272 1280 1288 1296
          1304 1312 1320 1328 1336 1344
          1352 1360 1368 1376 1384 1392
          1400 1408 1416 1424 1432 1440
          1448 1456 1464 1472 1480 1488
          1496 1504 1512 1520 1528 1536
          1544 1552 1560 1568 1576 1584
          1592 1600 1608 1616 1624 1632
          1640 1648 1656 1664 1672 1680
          1688 1696 1704 1712 1720 1728
          1736 1744 1752 1760 1768 1776
          1784 1792 1800 1808 1816 1824
          1832 1840 1848 1856 1864 1872
          1880 1888 1896 1904 1912 1920
          1928 1936 1944 1952 1960 1968
          1976 1984 1992 2000 2008 2016
          2024 2032 2040 2048 2056 2064
          2072 2080 2088 2096 2104 2112
          2120 2128 2136 2144 2152 2160
          2168 2176 2184 2192 2200 2208
          2216 2224 2232 2240 2248 2256
          2264 2272 2280 2288 2296 2304
          2312 2320 2328 2336 2344 2352
          2360 2368 2376 2384 2392 2400
          2408 2416 2424 2432 2440 2448
          2456 2464 2472 2480 2488 2496
          2504 2512 2520 2528 2536 2544
          2552 2560 2568 2576 2584 2592
          2600 2608 2616 2624 2632 2640
          2648 2656 2664 2672 2680 2688
          2696 2704 2712 2720 2728 2736
          2744 2752 2760 2768 2776 2784
          2792 2800 2808 2816 2824 2832
          2840 2848 2856 2864 2872 2880
          2888 2896 2904 2912 2920 2928
          2936 2944 2952 2960 2968 2976
          2984 2992 3000 3008 3016 3024
          3032 3040 3048 3056 3064 3072
          3080 3088 3096 3104 3112 3120
          3128 3136 3144 3152 3160 3168
          3176 3184 3192 3200 3208 3216
          3224 3232 3240 3248 3256 3264
          3272 3280 3288 3296 3304 3312
          3320 3328 3336 3344 3352 3360
          3368 3376 3384 3392 3400 3408
          3416 3424 3432 3440 3448 3456
          3464 3472 3480 3488 3496 3504
          3512 3520 3528 3536 3544 3552
          3560 3568 3576 3584 3592 3600
          3608 3616
        </DataArray>
        <DataArray type="UInt8" Name="types" format="ascii" RangeMin="12" RangeMax="12">
          12 12 12 12 12 12
          12 12 12 12 12 12
          12 12 12 12 12 12
          12 12 12 12 12 12
          12 12 12 12 12 12
          12 12 12 12 12 12
          12 12 12 12 12 12
          12 12 12 12 12 12
          12 12 12 12 12 12
          12 12 12 12 12 12
          12 12 12 12 12 12
          12 12 12 12 12 12
          12 12 12 12 12 12
          12 12 12 12 12 12
          12 12 12 12 12 12
          12 12 12 12 12 12
          12 12 12 12 12 12
          12 12 12 12 12 12
          12 12 12 12 12 12
          12 12 12 12 12 12
          12 12 12 12 12 12
          12 12 12 12 12 12
          12 12 12 12 12 12
          12 12 12 12 12 12
          12 12 12 12 12 12
          12 12 12 12 12 12
          12 12 12 12 12 12
          12 12 12 12 12 12
          12 12 12 12 12 12
          12 12 12 12 12 12
          12 12 12 12 12 12
          12 12 12 12 12 12
          12 12 12 12 12 12
          12 12 12 12 12 12
          12 12 12 12 12 12
          12 12 12 12 12 12
          12 12 12 12 12 12
          12 12 12 12 12 12
          12 12 12 12 12 12
          12 12 12 12 12 12
          12 12 12 12 12 12
          12 12 12 12 12 12
          12 12 12 12 12 12
          12 12 12 12 12 12
          12 12 12 12 12 12
          12 12 12 12 12 12
          12 12 12 12 12 12
          12 12 12 12 12 12
          12 12 12 12 12 12
          12 12 12 12 12 12
          12 12 12 12 12 12
          12 12 12 12 12 12
          12 12 12 12 12 12
          12 12 12 12 12 12
          12 12 12 12 12 12
          12 12 12 12 12 12
          12 12 12 12 12 12
          12 12 12 12 12 12
          12 12 12 12 12 12
          12 12 12 12 12 12
          12 12 12 12 12 12
          12 12 12 12 12 12
          12 12 12 12 12 12
          12 12 12 12 12 12
          12 12 12 12 12 12
          12 12 12 12 12 12
          12 12 12 12 12 12
          12 12 12 12 12 12
          12 12 12 12 12 12
          12 12 12 12 12 12
          12 12 12 12 12 12
          12 12 12 12 12 12
          12 12 12 12 12 12
          12 12 12 12 12 12
          12 12 12 12 12 12
          12 12
        </DataArray>
      </Cells>
    </Piece>
  </UnstructuredGrid>
</VTKFile>
