<?xml version="1.0"?>
<VTKFile type="UnstructuredGrid" version="0.1" byte_order="LittleEndian" header_type="UInt32" compressor="vtkZLibDataCompressor">
  <UnstructuredGrid>
    <Piece NumberOfPoints="783" NumberOfCells="456">
      <PointData>
        <DataArray type="Int32" Name="libmesh_node_id" format="ascii" RangeMin="1863" RangeMax="4982">
          1863 1864 1865 1887 1888 1889
          1890 1891 1892 1899 1900 1901
          1902 1903 1904 1905 1906 1907
          1908 1909 1910 1911 1912 1913
          1914 1915 1916 1917 1918 1919
          1926 1927 1928 1929 1930 1931
          1932 1933 1934 1935 1936 1937
          1938 1939 1940 1941 1942 1943
          1944 1945 1946 1950 1951 1952
          1953 1954 1955 1956 1957 1958
          1959 1960 1961 1962 1963 1964
          1965 1966 1967 1968 1969 1970
          1971 1972 1973 1977 1978 1979
          1980 1981 1982 1983 1984 1985
          1986 1987 1988 1989 1990 1991
          1992 1993 1994 1995 1996 1997
          1998 1999 2000 2004 2005 2006
          2007 2008 2009 2010 2011 2012
          2013 2014 2015 2016 2017 2018
          2019 2020 2021 2022 2023 2024
          2025 2026 2027 2031 2032 2033
          2034 2035 2036 2037 2038 2039
          2040 2041 2042 2043 2044 2045
          2046 2047 2048 2049 2050 2051
          2052 2053 2054 2058 2059 2060
          2061 2062 2063 2064 2065 2066
          2067 2068 2069 2070 2071 2072
          2073 2074 2075 2076 2077 2078
          2079 2080 2081 2082 2083 2084
          2085 2086 2087 2088 2089 2090
          2091 2092 2093 2094 2095 2096
          2097 2098 2099 2100 2101 2102
          2103 2104 2105 2106 2107 2108
          2109 2110 2111 2118 2119 2120
          2121 2122 2123 2136 2137 2138
          2139 2140 2141 2142 2143 2144
          2145 2146 2147 2154 2155 2156
          2157 2158 2159 2160 2161 2162
          2163 2165 2167 2169 2170 2171
          2172 2173 2174 2175 2176 2177
          2178 2179 2180 2181 2182 2183
          2209 2213 2217 2232 2233 2234
          2235 2236 2237 2238 2239 2240
          2241 2242 2243 2245 2247 2249
          2310 2311 2312 2313 2314 2315
          2364 2365 2366 2367 2368 2369
          2370 2371 2372 2373 2374 2375
          2574 2575 2576 2577 2578 2579
          2586 2587 2588 2589 2590 2591
          2634 2635 2636 2637 2638 2639
          2640 2641 2642 2673 2674 2675
          2676 2677 2678 2679 2680 2681
          2682 2683 2684 2727 2728 2729
          2730 2731 2732 2733 2734 2735
          2826 2827 2828 2829 2830 2831
          2832 2833 2834 2835 2836 2837
          2874 2875 2876 2877 2878 2879
          2901 2902 2903 2904 2905 2906
          2907 2908 2909 2910 2911 2912
          3003 3004 3005 3006 3007 3008
          3009 3010 3011 3012 3013 3014
          3015 3016 3017 3024 3025 3026
          3027 3028 3029 3030 3031 3032
          3033 3034 3035 3037 3038 3041
          3042 3045 3046 3048 3049 3050
          3051 3052 3053 3105 3106 3107
          3108 3109 3110 3168 3169 3170
          3171 3172 3173 3174 3175 3176
          3177 3178 3179 3228 3229 3230
          3231 3232 3233 3234 3235 3236
          3237 3238 3239 3246 3247 3248
          3249 3250 3251 3264 3265 3266
          3267 3268 3269 3375 3376 3377
          3393 3394 3395 3396 3397 3398
          3423 3424 3425 3426 3427 3428
          3429 3430 3431 3432 3433 3434
          3441 3442 3443 3444 3445 3446
          3465 3466 3467 3468 3469 3470
          3471 3472 3473 3474 3475 3476
          3477 3478 3479 3480 3481 3482
          3516 3517 3518 3546 3547 3548
          3549 3550 3551 3552 3553 3554
          3573 3574 3575 3576 3577 3578
          3600 3601 3602 3663 3664 3665
          3666 3667 3668 3705 3706 3707
          3723 3724 3725 3726 3727 3728
          3729 3730 3731 3732 3733 3734
          3789 3790 3791 3810 3811 3812
          3813 3814 3815 3819 3820 3821
          3840 3841 3842 3843 3844 3845
          3864 3865 3866 3891 3892 3893
          3894 3895 3896 3897 3898 3899
          3933 3934 3935 3936 3937 3938
          3945 3946 3947 3948 3949 3950
          3996 3997 3998 3999 4000 4001
          4002 4003 4004 4005 4006 4007
          4038 4039 4040 4071 4072 4073
          4074 4075 4076 4083 4084 4085
          4110 4111 4112 4113 4114 4115
          4131 4132 4133 4134 4135 4136
          4137 4138 4139 4140 4141 4142
          4143 4144 4145 4239 4240 4241
          4242 4243 4244 4245 4246 4247
          4248 4249 4250 4329 4330 4331
          4332 4333 4334 4356 4357 4358
          4359 4360 4361 4362 4363 4364
          4392 4393 4394 4419 4420 4421
          4446 4447 4448 4449 4450 4451
          4467 4468 4469 4479 4480 4481
          4503 4504 4505 4512 4513 4514
          4524 4525 4526 4542 4543 4544
          4548 4549 4550 4563 4564 4565
          4575 4576 4577 4596 4597 4598
          4632 4633 4634 4674 4675 4676
          4686 4687 4688 4755 4756 4757
          4758 4759 4760 4776 4777 4778
          4824 4825 4826 4827 4828 4829
          4839 4840 4841 4959 4960 4961
          4980 4981 4982 3036 3039 3040
          3043 3044 3047 3609 3693 3610
          3613 3695 3614 3617 3697 3618
          4021 4024 4027 4020 4023 4026
          4009 4008 4013 4012 4017 4016
          3671 4188 3675 4189 3679 4190
          2402 2409 2405 2410 2408 2411
          2389 4395 2393 4396 2397 4397
          2400 2403 2406 3939 4287 3941
          4288 3943 4289 3694 3696 3698
          4599 4380 4600 4384 4601 4388
          4830 4831 4832 4022 4025 4028
          4656 4657 4658
        </DataArray>
        <DataArray type="Float64" Name="resid_x" format="ascii" RangeMin="-0.0010800301436439952" RangeMax="0.001635122308954351">
          0.00016992136246063438 0.0003879143452465428 0.00025032052773710234 0.00018249573321282853 0.0004885966733132463 0.0003243922038276281
          0.00006290070804482184 0.00013737735599761436 0.00015076803919056303 0.00012814735715105385 0.00035004042868092 0.00022123867405143827
          0.000061064030146607 0.00006301087075621936 0.0001035862241329788 -0.00003979755478189517 0.000058368375606576706 0.00015979189908010838
          0.00004282863470406184 0.0001038709396348203 0.00019102318054153855 0.00015892887447899184 0.0002105644817578245 0.0002171116743414636
          0.00010050985516540933 0.0003078831228791046 0.000292049055657273 0.000008954234414382256 0.00003190589485679851 0.00010857145182985306
          0.0003210303069103304 0.0007607305797208141 0.00046654055442196807 0.00002160636874171118 0.000026396035563536202 0.00007378569972438243
          0.0001451714317957098 0.00006311489464128073 0.00015249664785388362 0.00012364824725041856 0.0000020977761079343793 0.00012279998129693936
          0.00012632321454253415 -0.000009937863211906262 0.00011772615894445337 0.00013527447963479489 0.00002319802214412192 0.0001531767800879713
          0.00015819448855047824 0.000045890781265711666 0.0001532723473882669 -0.00006276468007548885 0.00002106537364277017 0.00016704855300275767
          0.0001752551531919444 0.000500136113347871 0.00042255393013812537 0.00008075249251193739 0.00008929373428134824 0.00015207697068175818
          0.00018681826897948284 0.00010662592549870453 0.00018954253433545176 0.00016668816763409922 0.00004228180422849448 0.00016317006289678915
          0.0001877387326252311 0.00006129306306235094 0.00018240597223284638 0.00018595055142345274 0.00006094919198806892 0.00018209048004891315
          0.0001767055061085987 0.00001259155874344664 0.00018879379234548743 -0.00003741459304951178 0.00006126729525313124 0.0002445832798025904
          0.00004855313972296216 0.0001261101186353919 0.00017534453957068763 0.00017548704610526045 0.00016546448002152658 0.00022651046748434212
          0.00017159431456059693 0.000053589937471620885 0.00018458956709155316 0.00017813844038316873 0.000051402773811659586 0.00019317097116022808
          0.0001868800748856536 0.00004444687339910658 0.0001956450111411101 0.000189880241799667 0.000037532914225923975 0.00019706669097763196
          0.00016188098305569554 0.0000014955028384555646 0.00016682527588018914 0.00029108138679490025 0.0006616939570420755 0.0005643560384633872
          0.00014942805765727485 0.0001941883568608027 0.00022842576565818007 0.00020983827656451126 0.0001217125838772759 0.00023616069808563012
          0.00019795026598101728 0.00005529338023890773 0.00021208919305282237 0.00020595292942049426 0.000051700717515590355 0.00021706061697290835
          0.00020945818573459007 0.000041621023157301096 0.00021694482552536698 0.00021524882253487476 0.000045858884631044816 0.00022362083167282165
          0.00018710391067155996 -0.0000034280368068628775 0.0001942478084639987 0.0006383931639444285 0.0013963158019620892 0.0008843867605827782
          0.00014764962598912135 0.00017475444561521059 0.00024669430772439327 0.0002146820391000226 0.000033957344739654616 0.0002325566629406417
          0.00022134271045537446 0.000040416571411849844 0.00022296900025864375 0.00023213662522714174 0.00003320544334073361 0.00023039580822858952
          0.00023296010216933283 0.00002895503211730599 0.00023457155440409494 0.00024066272513723064 0.00004043618017490758 0.0002458054694822742
          0.0002151857452545869 -0.000007739791366478954 0.00022509383886903933 0.000687334334678269 0.0016069909438289898 0.0009779191966519107
          0.00011125445431803271 0.00009622644798579216 0.0001896687537716879 0.0002192413449355335 0.00001289030609175068 0.0002466739912955207
          0.00021423027671430006 -0.000021789616130973855 0.00019353389588738779 0.00023756623986281866 0.000034305167868620146 0.00023375749089904474
          0.00023734714464307416 0.000030408408838500378 0.00023911789791908333 0.00025418258780840475 0.00004439735498928954 0.00026925689123213914
          0.0002552486666131948 -7.693583992107733e-9 0.0002795944399167638 0.00012907262108141637 0.00012404297267298858 -0.00001893883073078584
          -9.992771525801913e-7 0.00013423874166473837 0.00013253303383020665 0.00007895445159356029 0.00022094275886086479 0.0002897674562905017
          0.00028123002639679484 0.00022265077993877114 0.0003452447814789039 0.000044849171040528546 -0.00011341126798647405 -0.00018830404664438305
          0.000012873359922505045 -0.0000351350901528491 -0.00011127629295701325 -0.0001275036956442932 0.00019588650213719916 0.00017207903351046383
          0.00020328350471601753 0.00016910990773189027 0.00033372452187974133 0.00017898866152643578 0.00012485229378711438 0.00004387362558189167
          -0.00005013713659662855 0.00024415315507120283 0.00016126172130670469 0.00032275773542256303 0.0003861357646024466 0.00002188815137316169
          0.00016535272680728852 0.00015940112882883994 0.00024569351201897405 0.00032416295207715606 0.0002334355067046493 0.0002176230965711401
          0.00012898873670606943 0.0003397582769066876 0.00023924500714590617 0.0009259910599226373 0.0006846374606259698 0.001635122308954351
          0.0010846158816946172 0.0008669375381984423 0.0005706957170668048 0.00016980510471498178 0.00015822666718708078 0.00011707328975418818
          0.00012698211398026737 0.0001482494520548272 0.0002498438336544506 0.00031383097362391865 0.000020162748834096078 0.0003180576740549057
          -0.00003116159382909878 -0.00010807220536834805 0.0000047392582058769506 0.00007814194879274261 -0.000008878687489888293 0.00002873697209082593
          0.00016673028946745383 0.00013934354256184278 0.00004787714513776464 -0.000015979237158791904 0.00006427272212938817 0.0000703096678900117
          0.00027853929201260286 0.00007117475661067019 0.00012222759428137664 0.00025445362426035345 0.00001536767574972231 0.00019702668837862092
          0.00032687107850293273 0.0004575586011554833 0.0002910589534454999 0.00019722468897365175 0.00015853127524589894 -0.000007059225775041256
          -0.000020765571588921006 0.00011136589304650002 0.00009458030869913259 0.000002856636832859749 -0.000024369747829933175 0.00032062456999248923
          0.0002680341761287508 0.0001574984734391549 0.00016134360844732853 0.0002895082884961653 0.0004504023578402183 0.00028816603274606223
          0.00004845722847379719 0.0003024591853764136 -0.000039476590921960764 0.00018961568485931224 0.00025248664653121367 0.0004001716722186188
          0.000004581768149325427 -0.000007022641182352629 0.000013620994112173435 -0.000003983952766795085 0.000054612646688489974 0.0000603042190849834
          0.0000873914273880061 0.00004895174699992566 0.000163103654148955 0.00010705804793653684 0.0001323901430887453 0.00016951862329772638
          0.000033248848141376186 0.0002043235788842246 -0.0000070610630906742244 0.00017528630093099906 0.00014843140096809648 0.00024403714358678386
          0.000024601528088474822 0.00004875361918088572 0.000026791203905141003 0.00007366474276349066 0.00017544875761998924 0.0001615412091933166
          0.00007714033606553983 0.00013442388813311723 0.00023934965692262722 0.00007402951614965403 -0.00002521081202555564 0.00035994675790584907
          0.00020563425903263877 0.0003295179867932596 0.00031666387682660613 -7.683036349348527e-7 -0.000005240904416226044 -0.0000024577961585947605
          0.000006053713041076492 -0.0000238663114990878 0.00003361737640972251 0.000012213615781853093 -0.00003699565547687911 -0.00000788389153694169
          0.0000035130350584111625 -0.00003972872562485463 -0.00004596316482086138 0.00007863952725978285 0.000027860017043579433 0.0000486356101765395
          0.00007944824670802486 0.00005289284627130186 0.00013343719371849971 0.00008876021089160302 0.00010582665712455253 0.00017607276479836287
          0.00002449206108856572 -0.0000318142434152513 0.00003165418338302306 0.0000022800226879837737 0.000048772839612354346 -0.000032372562229099344
          0.00009656338004226939 -0.00002150454110427802 0.00006400073435219866 -0.000009559433439054743 0.00005002076862470339 0.000011821348545382193
          0.0001972128441414256 0.000080038495978485 0.00011571066489324267 -0.0000015933376524834841 0.00014425446354859872 0.000103213979012029
          -0.000004675814606169837 0.000012178365794923707 -0.000011946800217543796 -0.00001542507325691389 -0.00003065189485695896 -0.00002659759679435325
          0.00005964924312262809 0.00006292092143622696 0.00001724497962918292 0.000015697661068792 0.00003185588155574237 0.00004896239152518689
          0.00007895386615563993 0.00015624816122139507 0.000014414843282128942 0.00006560461606630597 0.00006297583936376583 0.0000706059206114773
          0.00025816249599497354 0.00013810902722166674 0.00010564590722372813 0.00007143005850718254 0.00004786281568947004 -0.0000019219923594882005
          -0.000029900554157524795 0.00013689442378783667 0.00012116508079040855 -0.000005613292231920752 -0.0000032881226776915184 -0.000023090763254796087
          -0.000007414103539105099 -0.00006085389015586529 -0.00004200522674624452 0.00001711551009364598 0.000032230213783623896 -0.00007787520158508698
          -0.00007129844263831231 -0.000056758539268564334 -0.00009256901047161037 -0.0004968650169558941 -0.0004370593910778542 -0.0010023295085614947
          -0.0009087058994938779 -0.0006660843716912446 -0.0006479368312770628 0.000009396257247828999 0.000007183141946143223 0.00004233401093678424
          -0.000025429361509843318 0.000033809656923011744 -0.0000014307208253683257 0.00010276076732756989 0.00007950067374817849 0.0000731884292902718
          0.00006131176627910406 0.00009958593631048673 0.0000902001619316195 5.616810363484603e-7 -0.000005841020390917606 -0.00000770602267996523
          -0.000022316493636154178 0.00006731842440022007 0.00009024709456939561 0.000042016146413192956 0.00008481232802459715 0.00019020167032302027
          0.00022032696808338414 0.0001881624254123082 0.0002394226313855441 0.00004998809731082687 -0.000006126115251081643 0.00005104890889562341
          0.000221927150283463 0.0002990163517555544 0.00022223181771341416 0.00027298425055377606 0.000292048813137491 0.0005448215986092464
          0.00047318246540761777 0.00024583064814986955 0.00019502468295762299 0.0002490803326948843 0.00032389150112566156 0.00019848073545736256
          0.00023878302413748997 0.0002770137262664285 0.00027416015403458616 0.00004756644182224434 0.00026879871303897573 -0.00007647205344296637
          0.00023094390022748712 0.00028223095536450415 0.00032697098277711945 0.00026625822040848846 0.00016539556574723946 0.0003123095304387036
          0.0003200172944795021 0.00019879109958331753 0.00018046991422471237 0.00004362796716694817 0.00023648688682520458 0.00017687551993317285
          0.00003826863886713383 -0.000014732585248200536 -0.00002152179093783957 -0.0000016444778156987638 0.00005774519206447337 0.00004674507353774615
          0.00003935556777934224 0.000019234079676078153 0.0002191857328055491 0.00023933225656769253 0.000263823683523956 0.00021662932241328647
          0.00006216415573412348 0.00005337591518328466 0.00007193529051097158 0.00006249409576142284 0.00016641228025449095 0.00011221331356670028
          0.00027077087437987757 0.0005177433704091072 0.00006058848524981286 0.0002369836572948536 0.0003257925669859496 0.000019933653410575403
          0.00021937590877563196 0.0003737813165067827 0.00010437882628355766 0.00011396196820534499 0.0001979617915974785 0.00006257138283860542
          0.00011691449657913466 0.00007672252465606988 0.00004107904567041132 0.00020628205071338002 0.00018167136094282554 0.0001092153212822744
          0.0000961564337486065 0.00005220821696327871 0.00009690240355564317 0.00014381974314048307 0.00010665728070824443 0.00013207693320493874
          0.0001041104967072215 0.00011598748077856769 0.00004895643931002169 0.00003873766699236114 0.00010066088965432485 0.00011296223802270688
          0.0001589950991318645 0.00016954513225453383 -0.000010468330263080361 -0.00001843451791305739 0.00015363025435366495 0.00017045208042487658
          -0.0000593899127196984 0.00001839895064437158 -0.00019484815572523573 0.00020586592457849662 0.000026283578220431814 0.0003855613789447432
          0.000005491017537773146 0.0002017712526471982 0.00003174638636038729 0.00016231231356833575 0.0002591071100219722 0.00020537874614667828
          -0.00030976253294756617 -0.00032770623145328415 -0.00021471784791282644 -0.000018098112959830104 -0.0006371227681318814 -0.0006910070335397478
          -0.00044701988624451516 -0.0000415303159120306 -0.00038191121460595667 -0.0003967085848533003 -0.0002999236465193178 -0.00008180910644162154
          0.00016018035820541954 0.00013235931668464929 0.00016391785170410955 0.00004673284098322128 0.00017055083755979084 0.000016406025923565437
          0.00010983019635180113 0.00011197341799062954 0.00019505884080706082 0.0001525091328562489 0.000028529156428813707 0.00014180676578856577
          0.00003647685858965133 0.00006131386861357724 0.000011670972854815886 0.000060958819313061685 0.00005069781151245678 0.00010414887688314778
          -0.00018754629474848628 -0.0003620994586741588 -0.00021135757453283333 -0.000014177290477590532 -0.0006280810754368815 -0.00028925137701474313
          0.00005568239327224944 -0.0009457643653059122 -0.0004945750459173226 -0.000007639005842552393 -0.0006346918624080544 -0.00029639539715553553
          0.00010355389704264084 0.00007070179945101174 0.00003860015420231733 0.000027321964628956863 0.0000534573780583969 0.00004430235967478602
          -0.00013536217200993406 -0.00022944964885862618 -0.00006493622931502685 -0.00026207640276521005 -0.000107463158817378 -0.0002645683634536766
          -0.000002792085495695318 0.000051449723140972736 -0.000013673909964762032 0.000026246208388869263 0.000036611805147579446 0.00006015941230286259
          0.000027497011000576776 0.000031114425822931224 0.00002077147539170099 -0.000024870049550429485 0.000008223353922254262 -0.000012004181133562497
          -0.00033270460675538516 -0.0004045661797049682 -0.0003808407795362623 -0.00003727208331216758 0.00004918623541749767 -0.00011696965803231762
          -0.0006922902740047476 -0.0010266666162488391 -0.0006396005548605643 0.000156659423690364 0.00012062837871740228 0.00009472316909198142
          -0.00031382901297405397 -0.000007732949282690527 -0.00018089034133517146 0.00002500035607244655 0.000005093729122052082 0.00005812128800819494
          0.00016724310900650963 0.00013218980540319336 0.00007082228141097602 0.00006188237076720782 0.00010718136897036601 0.00008487762626474549
          -0.000018186794792540706 -0.000004182470105362768 0.0000149071304794135 0.000030019836456673943 -0.000020675809432046943 -0.00003586427828317085
          -0.0000034161112552055783 0.000029848738663851293 -0.00007587503897710235 -0.0002789913626299878 -0.000027534879373014576 -0.00012357288994113702
          0.00011648908686878734 0.000054939961582789465 0.00010392183479979167 0.00006444977559394438 0.000029253361439884884 0.000011890814638704228
          0.0000899685165340891 0.000054287834951871616 0.00004927323083236956 -0.00023226195628289759 -0.0002738449151027389 -0.0003623278615050296
          -0.0004334220289328172 -0.0002311440413373944 -0.00028398772652638016 0.00010811634181795426 0.00005228081064068135 0.00008942022604019328
          0.00012370143718731796 0.00006718763944357775 0.00006519773778501659 -0.00022861742554702857 -0.0002814952791565517 -0.00022344031858079205
          0.0001263314251438441 0.000003652766795703144 0.00005194645343631343 -0.000004410320570968906 0.000034736591839834574 -0.000010477097240002564
          0.00015907197370257364 0.00013045571932113198 0.00013303686201804332 0.0002062166108434127 0.00010819352620483613 0.0001439677987002952
          0.0001877005915802421 0.00029318033662262266 0.00020235487879149971 0.000042138984208683894 -0.000012310475662857812 0.00008634400585760815
          0.00007964231773449626 0.00007286539903006428 0.00004593891427706609 0.00015188687170386572 0.00008936660880110026 0.00014545588057091052
          0.000050389806771633516 0.00003757182379882096 0.000008947522494473503 0.0002480756559317676 0.0001228310855014847 0.0001444688111269521
          0.00020085015983539733 0.000038145804650557835 0.00014984887676083858 0.00008134244154822667 -0.000014598375884578019 0.00004443567069678522
          0.00023870921709256976 0.000048767263309379416 0.0001708553446095884 0.00024065373557924374 0.000008732757274199088 0.00010774009155589681
          0.0002834655834091926 0.000017146957056013434 0.00013168915839267825 9.21779582885307e-7 -0.000004792810386788915 -0.000019195968595564494
          -0.00012984143142658056 -0.00002345947624693423 -0.000056030392860062506 0.00019741732363431908 0.00016995346890835705 0.00006433928288940294
          0.000035960990580896635 0.0001012103791588892 0.00008680754069922969 0.00021625743259789942 0.00006315985898641685 0.00010456105045220099
          0.0005550526683615331 0.00028949152552382174 0.00009810585475023004 0.000049113397579514384 0.00022903122424011713 0.00010710487873621943
          -0.00022942194823638573 0.00002041250534912109 -0.000049120287529458295 0.0000011647644795331757 -0.00004691632078257513 -0.0000391142610460804
          0.0005050381660147707 0.00026006425779057096 0.00030594774716252715 -0.0005844740223928113 -0.0005269655975270737 -0.0007561056824503254
          -0.0007028443609797819 -0.000496978917058577 -0.00046618254534003256 -0.000017986518312973487 -0.00010163824713549374 0.00000781302533026107
          -0.00004633075126747599 -0.00015279767423681534 -0.0000746233870860813 -0.0002264940089240497 -0.00009470496562391517 -0.0001375998598724948
          -0.00037440926415754916 -0.0005955441616887214 -0.0003046675695541623 -0.0006286629608225347 -0.0005734257020755251 -0.0004935177896121523
          -0.0003175977943943309 -0.00014710438481291277 -0.0007949714538284525 -0.00039704120625394523 -0.000797363215277791 -0.00041278471701433617
          -0.000055468675054903827 -0.0008193670338334513 -0.0005616435862112468 -0.000893060319768324 -0.0010800301436439952 -0.0007695996110452796
          -0.0003908866417754453 -0.00039849152664483967 -0.0004915367982434304 -0.00044381736198761956 -0.0003049704771136419 -0.00029202945056638896
          -0.000019691210772609935 -0.000602504595893727 -0.0003018792206637144 -0.0006824227135844296 -0.0005081059133833499 -0.0004940363266481285
          -0.000361696444411308 -0.0004749660705645198 -0.00031995351189628707 -0.00032231582816777404 -0.0001434294183981777 -0.0007380437201067735
          -0.00014122152599682636 -0.0001669255175977824 -0.0000643042118011472 -0.00004993755906390618 -0.000014404426277536686 -0.00002802153081127301
          0.00008982935375367873 0.00004236243687394392 0.0001943208419739051 0.00005584555859172724 0.0000576402767498152 -0.000027146595314775368
          0.0000668990633556632 0.0001660182826483947 0.0000825899771896843 -0.0005613151734040756 -0.0007062970104492194 -0.00041906927886081746
          0.000019026728958593253 0.00005863592276966756 0.000013251770878852653
        </DataArray>
        <DataArray type="Float64" Name="resid_y" format="ascii" RangeMin="-0.0011873267039655341" RangeMax="0.002180571466947584">
          0.00031281957789979463 0.0005102871137002175 0.0002993480400887878 0.0001983498474092127 0.0005990924244000592 0.0004176881864367127
          0.00006305306646750553 0.0002690896323559108 0.0002780587626866199 0.0007340719469206697 0.0016992824221297442 0.0010025473006212739
          0.0004814595720801229 0.0013075502435780928 0.000929801973054159 0.00048136010815508223 0.0011206948339266276 0.000856037584200442
          0.00046182483094210636 0.00103045898342502 0.0007259584180183826 0.0003976249876595228 0.0008165113863926043 0.000580685608753545
          0.00009659318107859555 0.0002020007706986307 0.0002213631496699106 -0.000002618514194360072 0.000022536288357560136 0.0001209053562919284
          0.000011975917067072461 0.000019304500376599032 0.00020890322137392947 -0.000026519171760344684 -0.0000469518264891583 0.00022377201244275224
          0.00007605692747155585 -0.00006330599488943434 0.00024004163969003345 0.00009025835984224212 -0.000038312494298878286 0.0001790829346410283
          0.00010843931874140664 0.0000023108064660208594 0.00017334037401605523 0.00019573816950086732 0.00006425971882377014 0.00021867885289299054
          0.00019671600250334258 0.00011395061539290312 0.00018975708267106317 0.0009733907050578222 0.002180571466947584 0.0014112175865469562
          0.0006000214584983288 0.0007256378463231239 0.0007874798855980331 0.0004635638839248224 0.00037200884023858016 0.0005703449901450844
          0.00043675256111180144 0.00025943203345783067 0.00048062214403299386 0.00035214009133734125 0.00017412500928153107 0.0003639376032371078
          0.00027493205038670726 0.00009867896173426996 0.0002806961972110656 0.00019208859334811194 0.000009815659235178423 0.0001866048230450561
          0.00014876083409415264 -0.000004178286111260199 0.00015940434047811026 0.00018783524260784779 0.0002769609968275716 0.0004716605600677756
          0.0002646819241516468 -0.00009064099686097171 0.0003911271848750786 0.000357597895060055 -0.00008320156231237524 0.0003708607600914973
          0.00032118625334974504 -0.00003068768792794177 0.00031256980796334766 0.0002748345840282683 -0.000009638043785452008 0.00027032700327428785
          0.00023108446452023076 -0.0000012108555923280757 0.0002270417838770608 0.00018825307834192256 0.000004258149842917627 0.00018449098131642812
          0.00013499991552826107 -0.000010215258445037123 0.0001283434322692789 0.0003191864600959743 0.0002691986271212282 0.0005170883215290245
          0.00038948153307047373 0.000037649370545671246 0.0004740279272532552 0.0004093852844629046 2.0470132345781766e-7 0.0004261733049026259
          0.0003296910151741198 0.0000014872415150073148 0.00032871178803866793 0.0002827890261822858 0.000009886206823930127 0.0002798134087595022
          0.0002354578401120959 0.000009072578544898346 0.00023108581628490318 0.00018799919389084208 0.000002514842388379873 0.00018192012450621645
          0.00015513348612187887 0.00002241638044623434 0.00015132180622239033 0.00044839298527418747 0.000291753940928563 0.00041258311313940865
          0.00039583129123272817 -0.0000015604826951211292 0.000406184126795499 0.0003930072655274758 -0.00000777456916813482 0.0004274992026107663
          0.0003440418564401859 0.00003341289912305728 0.0003427758803186687 0.0002895829917744508 0.00002540851054837895 0.00028458284340963577
          0.00023768115286517885 0.000017188242794882735 0.00023206639572322108 0.00018819251860182837 0.000002615555845311701 0.0001803439566986989
          0.00015768490840432914 0.00001311643441817556 0.00014792460196892676 0.0006064503737279736 0.00034545887389370034 0.0005157458046470276
          0.00041949607076757767 0.0000729253930514262 0.00040452657321216057 0.00039678991841442246 0.000057712986625400864 0.0004542830987969426
          0.00032238532814832244 0.000044481876724900005 0.0003182897536165852 0.0002540342588891742 0.000007598023891219885 0.0002427660083392097
          0.0002091914097555013 0.000002728946407282856 0.00020203725714255938 0.00017303730749628626 -0.0000070373946569474155 0.0001694278481732328
          0.00016250446747103492 0.000004611917938705801 0.00015271119454062648 0.00020010833233146536 0.000160176331650691 0.00001264499918747497
          -0.000038634476973732276 0.00018727165284877778 0.0000772121964589742 0.00003366732204692843 -0.000042485628451036095 0.0003282925241585577
          0.00022795993438771284 0.0000983133725739032 0.00011378924338432614 0.0002604783615224038 0.00003497146017568051 -0.00014521493675956343
          0.0004272906158843534 0.0002851222021045541 0.000101750313527528 -0.00018995780834279996 0.0009900118882655287 0.0005563034888260432
          0.0003493511272525292 0.0002089526934039576 0.0010134202014552077 0.00035771440003024013 -0.000007652932065484175 0.0003648458131316479
          -0.00009746891660817117 0.0005488940414850596 0.00018918657293408997 0.00003187232033013618 0.0004461587204439288 -0.00006963346071076071
          0.0005311945466845158 0.0001385740793798558 0.0005197680624073608 0.00011444247452041534 0.00009515126827587886 -0.000002639538840716431
          0.000050162385322126066 0.0001761675241319545 0.0001169543890927301 0.0010510716992069846 0.0007709176996708311 0.0017866100564810639
          0.0012808953735856665 0.001178235772493541 0.0007027396866225721 0.00021448768740933233 0.0002705385097810419 0.00013089161414567762
          0.00017732225011953223 0.000054794017074597315 0.00014499644782235178 0.00014894647716977988 -0.0000016310331567848113 0.00014925727346883078
          0.0004018718802363706 0.0004998668322484211 0.00041134518884784754 0.0005374888480758309 0.000517431573940106 0.00032787035900240513
          0.0004542847292645612 0.000399173048309805 0.0002269484917929096 0.0003490100010057808 0.0001716747351133939 0.00022593843932570794
          0.00029867027554038306 0.0002534153184568892 0.00021118344185764096 0.00017588921835384394 -0.000018310865403717985 0.00005409568560069307
          0.0001722247627581495 0.0003173782936918071 0.00021383573579441748 0.00007206848769234636 0.00006444063232602382 0.000005521115829437706
          2.588842732166585e-7 0.00005072766012913926 0.00010326348595679491 0.000051858923134626145 0.00007368873847327789 0.00013326276361348005
          0.00017244219516160397 0.00013542760190127928 0.0001311301687815826 0.00020702822430009905 0.000275759608516446 0.00015178041966163944
          0.00012405390281459983 0.0000861482502571495 0.00003926694967806496 0.000008514670029137472 0.0001117025723637241 0.00014104229659392398
          -0.000001424067789806624 -0.000009050423670730473 -0.0000019880646573329497 0.0000018973927639678867 0.000011935577715933496 -0.0000032904290391752578
          0.000015652399401020617 0.0000864651974429656 0.00005371558737245902 0.000023684926502717807 0.0000661438299741808 0.0001250562289714513
          0.00007284625916697401 0.00016732021970640746 0.00006676253027449591 0.00009660005295859548 0.0001233500736778012 0.0001197792596704262
          0.000019187160482703886 -0.00003338786647767364 0.000016354384087220036 0.000013136472576891212 0.00006863610750533836 0.000052195656127256365
          -0.000010346027336590076 0.00012060500225380064 0.00004994819955462387 -0.000017064079016015747 0.00007671182463933612 0.00007577110096539455
          0.000028903491567951536 0.00011463725203368982 0.00008791889163335675 0.00000203544063314548 0.000005917313528124718 0.000015455826752535512
          0.000017379666886883915 -0.000018058099612621586 -0.00002672780410661879 -0.000024283504409881862 -0.0000036760915504245595 -0.00009998048954416514
          -0.00011298803750980219 -0.00013102988367219917 -0.00009707693874051043 0.000034370927146851193 0.000021103109580984658 0.00005246614987958545
          0.000027865067849765918 0.000011303638042213515 0.00004382491529583178 0.00001607425449487443 -0.000008087211581339626 0.000023765363427104627
          -0.00004072694974770891 -0.00007292413889337795 -0.000010800499779299588 0.000009219194437123934 -0.0000974265411779196 -0.0001702034453364542
          -0.000019257159479223185 0.0000282397153514094 -0.00008280997293121789 -0.00010995756387378701 -0.00005609389351558802 -0.00002369730950842197
          0.00015282001794311717 0.00008511932445344136 0.00008179045175364663 0.000041354090328862836 0.0000891399109399088 0.00009898695331958529
          0.000002601532786191546 -0.0000154188407184893 -0.00007182546637543932 0.000007039422801762701 2.2361071727421133e-7 -0.000027760007159163824
          -0.00005243032969693209 0.000017154959783688417 -0.00004293064589079576 -0.00009058405907843778 -0.00013376234289624173 -0.000047155476667394905
          -0.00000706633792307192 0.00010388111135850586 0.00002954225270370564 0.000002119561424862408 0.000009000362525685146 0.00004519991357242355
          0.00012564269739336227 0.00010079657448619495 0.00006713240392898501 -0.000019147965753543716 -0.0000068145456234465496 -0.0000014539144098952433
          -0.000005880077578037518 -0.000030840145564235005 -0.000056037520929030915 8.915765110865254e-7 -0.000040654503565355424 -0.000014620610466205275
          0.000005869584452486767 0.0000032426647401553703 -0.00001930188707483134 -0.00001612733001282382 0.000008323526320092728 -0.00001608950892112741
          -0.00008187321873875247 -0.00006002496689522935 3.6648249913820777e-7 -0.00011343460627419484 -0.00015133317810775524 -0.0002130111788105015
          -0.00024281022173036908 -0.00011111573167542094 -0.00010544661934788974 -0.00003823351251194124 -0.0000312192235651966 -0.000001491442330549958
          0.000004426770679747533 -0.00006486599193209278 -0.00004785481973966499 0.000008952988461295025 -0.000013207675024200921 -0.000009982467876056
          -0.000016694768706807667 -0.000009194215817343726 -0.00002687249961225678 0.000002888723317051589 0.000006051109116883904 0.000008441652778475028
          -0.0000032796244528493675 0.000009055714115685856 0.000011248396647872694 0.000023715936987286912 -0.000041085362463234507 -0.000005718879635342039
          0.00002054710746566754 0.000010503848970742913 -0.000039408153152066874 -0.00008853222508663217 -0.000085184395051556 -0.0001052696759813454
          0.0000999233268446642 0.00016568549734046617 0.00013530459778947 0.0001741636986898054 0.00025151790774810556 0.00035450525822061305
          0.00048649196061668204 0.00034534425168365225 0.0002633506979939741 0.000022671700718152055 0.00010118920571675419 0.00003846886148797801
          0.00008973468559570277 0.00008271183842140095 0.00008334139959048983 0.000016157385838821113 0.00005835342990615118 -0.00001989992103164622
          0.00001205480377706146 0.000045626852697210583 0.00003745110515844183 0.00013537396396492984 0.00013215745358335917 0.0001473741862532546
          -0.000025084242814013558 0.00002560452854989334 -0.000024147390697761006 0.0000698448505039341 0.00007119914506563407 0.00009690113268759001
          -0.00003419741236605246 -0.0000011438966669111844 -0.000005379578157501709 -0.000019274538240517808 0.0000051224763407548 0.00003403222618909678
          0.000009648510441484341 0.000042965860305263504 -9.709027811929949e-8 0.00004718843302202978 0.00006141286429085357 0.0000374631226078663
          0.000005753534082662479 -0.000009493868299719627 -0.000017706811334231715 -0.000013229494931956548 -0.00003113803924961571 -0.00003814707275905799
          0.00009530578918084216 0.00011183766003147917 -0.00002929313120773598 0.00010124072793150961 0.00007973639335513965 -1.9683910406861384e-7
          0.00008390856552367753 0.00010049293332914377 0.00002866374779530111 0.00002347434727121428 0.000041685955256470786 0.000012505358588620064
          -0.000019610250340910962 0.00005626255087841543 0.000003577905739328424 0.000006994853821010172 0.00009340759726378899 0.000036488960313246777
          -0.00002782918733484213 -0.00001555766853908458 -0.000051468185133886346 0.0001048148831926882 0.00007809217138551351 0.00005508562276046545
          0.00007916153218479743 0.00002057911438721298 0.000050276613380967686 -0.0000026786396082490588 0.00007450630149453616 0.00004787024856901627
          0.00005200233722919487 0.0000367717070545049 0.000026739725420412558 0.00003767851988734951 0.00003908202365854492 0.00006087782537001277
          -0.00009119632131717988 -0.00001095080423879147 -0.0001366941243932029 0.0001406451034625042 0.000029572746288543394 0.0002276806031859431
          0.000002674553375558303 0.0000987668458400405 0.00001221912405415318 -0.0006006386608084328 -0.0011873267039655341 -0.00036185631322138354
          -0.00009416401886664684 -0.000059635744304804145 -0.00011223410389722167 0.000015057942385911238 -0.00018479806836903256 -0.00013010284484927387
          -0.000250167019962496 0.00001937851773804039 -0.00007114758605466717 -0.00007946866274011893 -0.00017231378913615258 -0.000023810318837764327
          0.00005901966037008392 0.00008709455081171375 0.00005484028478584379 0.000031828153677124216 -0.000010084181510276041 0.00003884252091296281
          0.000012049580419785239 -0.000008318227685231994 0.000020497283512242725 0.00008578534537061894 0.0000687180372681076 0.00011319599382662165
          -0.0000010360552330675177 -0.0000074565184979766275 -0.000007615677219905033 0.000014400090652316733 0.000025762830092222744 0.000024559507564435312
          -0.0000975125783978549 -0.00019273627458588766 -0.00010341133628535143 -0.00001710493559969081 -0.00008297092074486916 0.00004701810214094611
          0.000010272762250999488 -0.00019015214742184455 0.00010236322468943769 0.000006844868445386124 -0.00015581952519900643 0.000018276144643752067
          -0.000055159462948407845 -0.000026924217125221667 -0.00003647532760894627 -0.000006080842616100479 -0.00005170431520417143 -0.000046399041827654974
          -0.000012806091882235082 -0.0000045293860472424285 -0.00002930444240168209 -0.000036631753274679255 -0.00012705683398983592 -0.00011825663683288218
          -0.0000679938245636072 -0.000028121631248018142 -0.00006113952379001655 -0.000023245337714389303 -0.00012747234404161464 -0.00007306956576388218
          -0.00007449964204879912 -0.00006454468024365972 -0.00001674848348377691 -0.000038722944305461665 -0.00005615237653873624 -0.00004652219740208449
          0.00005745014437966904 0.0002276388975218933 0.00008050376937686148 -0.00007766967217241131 -0.000010810610144062864 -0.000059837877890041996
          5.910835543417037e-7 -0.000009474927271694092 0.000011772677707777221 -0.00004548195042188355 -0.00003065890661556152 -0.000039791723307307236
          -0.0001016212812250325 0.000022474567114502686 -7.935988638220481e-7 0.000009146807975698307 0.000007425791359892686 0.00009542056414356317
          0.00003149890022338588 -0.00007513542734184815 0.000059143090691463236 -0.00003451476610333293 0.000026093935321696432 -0.00003449970099013433
          -0.00009020113323997964 -0.00003657586875988397 -0.0001414650444231183 -0.000002520907474209272 -0.0001040957633138169 -0.00006392835030543872
          -0.00009836068757375013 -0.00002462532453555502 -0.0001241808108354489 -0.0000654382700930635 0.000022327699364131648 0.000003435040748756349
          0.000005230671304898987 -0.000004515460710077801 -0.00003643178394344658 0.00002165849808999712 -0.00002452082068738967 -0.000012458783824963182
          0.000009074012768259948 -0.000018798567631390234 -0.000021582477389446575 -0.00006942179688830888 -0.000035451408686420355 -0.00005207674018817797
          -0.000013882581177643988 -0.00006169374890428736 -0.00005748135569548507 0.000045348737348977625 0.00007517119872156759 0.000055511684962596466
          0.000020122614621156725 0.00003352862920235678 0.000004346280461878238 -0.00009394038776765028 0.00004327958495409581 -0.0000029773783315513447
          -0.00005471748634374232 -0.000010228483465594962 -0.000029303436842785524 -0.000139470460076686 -0.00021958227563975523 -0.00005494124912609928
          -0.00003831085766388062 -0.000013996669134739431 -0.00002990667573242456 -0.000034964665229078595 0.000009186960899245158 -0.000041060505498225625
          0.00022426621845698935 0.00043521997570997173 0.00028579180867256 0.000009396859939440894 1.0025390163870274e-7 0.0000814640923970239
          -0.000010974638032318351 -0.00004662216102207725 -0.000037466040421266916 0.0001225618823312083 0.00009802268136356596 0.00013518279679223394
          -0.000054226023717549726 -0.00009971150388621286 -0.000052879748427114154 0.00021139281537364135 0.0000976644810884511 0.00010364262608630881
          -0.000006311013564151702 -0.00000967082323298507 0.00001169618622191837 -0.00009136238014237526 -0.00003763087929119571 -0.00006095571273824832
          0.00005181684791384991 0.000010494485561392958 0.00001266080258984989 -0.000009563993957750067 -0.000013820180171382479 -0.000021780524949884666
          0.00002388210375986466 -0.000005800918466199179 -0.000016552685609599882 -0.00013508757587172345 -0.00007943159808165238 -0.00008620471389018079
          -0.00017274611777755647 -0.00007897802481316232 -0.00008415571246021131 0.00009076021855811828 0.00012423266291528186 0.00004485845546384898
          0.00006672380744514013 0.0000709190422886535 0.00008142915333248608 0.00013377818722198204 0.000044216089200611874 0.00007940722439997265
          0.00015824433868702817 0.00005524923313643664 0.000022535056774436457 -0.000016001908390451264 0.00007813690187192385 0.000012543064992729357
          -0.0000069365308165772466 0.000027273019921776435 0.000010178183111236687 -0.00000989368492255397 0.000015182122730817565 0.000005129041251006935
          0.0001030931541640516 0.00006225658978447485 0.00005478384451205326 0.000018946790993568108 -0.000055862000442746806 -0.0003055024379997537
          -0.0002603171989141763 -0.00009677099418775592 -0.000058771436767047006 0.000021965264438449095 -0.00011045035600066103 -0.000040856129987207335
          0.00003021925065772868 -0.00019210619079938068 -0.00012013039887556753 -0.0000752747185900765 -0.00014231280320951487 -0.00010805376313721693
          -0.00006651391903725323 -0.0001727947775900969 -0.0000832395808182864 0.00015800445413170772 0.0003686255256632326 0.0002102906776656182
          -0.00007314152642621304 -0.00010299039191039299 -0.0001765344215724999 -0.0001403601141825978 -0.000014316022007543686 0.00005222634696414974
          -0.000025576922662418067 0.000033070036099019234 0.000004386969287967918 -0.0001763954041739263 0.0002225551985952385 0.000023802697197712608
          -0.00007467568623331644 -0.00003811136210862126 -0.00012016739874350091 -0.000047037439769338774 -0.00007022843852221017 -0.00007345098011739964
          0.00003484493853480805 0.00006983720518724187 0.00008367295404907577 0.00018846008331006858 0.0000343139598946024 0.00007629593620658848
          -0.00017465460742753514 -0.00024176402240264766 -0.000172906604308418 0.000497461937420958 0.00004098062829178961 0.0011096707115145488
          0.00015888820093640232 0.0003645473581277807 -0.000002482028380004775 -0.00006497460851475484 -0.00010520615017771406 -0.00011195008219844899
          -0.00006842256694476745 -0.000010388392638647354 -0.00008621479771658141 -0.000024341267713244574 -0.00009254818552487803 -0.00005290508144401018
          -0.00008115860132610828 -0.00010187152048950904 -0.0000817417802611714 -0.00014187379773617295 -0.00024009581511745537 -0.00009476456856375229
          -0.00005924698509253423 -0.000044018507519484606 -0.00005769294342656758
        </DataArray>
        <DataArray type="Float64" Name="resid_z" format="ascii" RangeMin="0" RangeMax="0">
          0 0 0 0 0 0
          0 0 0 0 0 0
          0 0 0 0 0 0
          0 0 0 0 0 0
          0 0 0 0 0 0
          0 0 0 0 0 0
          0 0 0 0 0 0
          0 0 0 0 0 0
          0 0 0 0 0 0
          0 0 0 0 0 0
          0 0 0 0 0 0
          0 0 0 0 0 0
          0 0 0 0 0 0
          0 0 0 0 0 0
          0 0 0 0 0 0
          0 0 0 0 0 0
          0 0 0 0 0 0
          0 0 0 0 0 0
          0 0 0 0 0 0
          0 0 0 0 0 0
          0 0 0 0 0 0
          0 0 0 0 0 0
          0 0 0 0 0 0
          0 0 0 0 0 0
          0 0 0 0 0 0
          0 0 0 0 0 0
          0 0 0 0 0 0
          0 0 0 0 0 0
          0 0 0 0 0 0
          0 0 0 0 0 0
          0 0 0 0 0 0
          0 0 0 0 0 0
          0 0 0 0 0 0
          0 0 0 0 0 0
          0 0 0 0 0 0
          0 0 0 0 0 0
          0 0 0 0 0 0
          0 0 0 0 0 0
          0 0 0 0 0 0
          0 0 0 0 0 0
          0 0 0 0 0 0
          0 0 0 0 0 0
          0 0 0 0 0 0
          0 0 0 0 0 0
          0 0 0 0 0 0
          0 0 0 0 0 0
          0 0 0 0 0 0
          0 0 0 0 0 0
          0 0 0 0 0 0
          0 0 0 0 0 0
          0 0 0 0 0 0
          0 0 0 0 0 0
          0 0 0 0 0 0
          0 0 0 0 0 0
          0 0 0 0 0 0
          0 0 0 0 0 0
          0 0 0 0 0 0
          0 0 0 0 0 0
          0 0 0 0 0 0
          0 0 0 0 0 0
          0 0 0 0 0 0
          0 0 0 0 0 0
          0 0 0 0 0 0
          0 0 0 0 0 0
          0 0 0 0 0 0
          0 0 0 0 0 0
          0 0 0 0 0 0
          0 0 0 0 0 0
          0 0 0 0 0 0
          0 0 0 0 0 0
          0 0 0 0 0 0
          0 0 0 0 0 0
          0 0 0 0 0 0
          0 0 0 0 0 0
          0 0 0 0 0 0
          0 0 0 0 0 0
          0 0 0 0 0 0
          0 0 0 0 0 0
          0 0 0 0 0 0
          0 0 0 0 0 0
          0 0 0 0 0 0
          0 0 0 0 0 0
          0 0 0 0 0 0
          0 0 0 0 0 0
          0 0 0 0 0 0
          0 0 0 0 0 0
          0 0 0 0 0 0
          0 0 0 0 0 0
          0 0 0 0 0 0
          0 0 0 0 0 0
          0 0 0 0 0 0
          0 0 0 0 0 0
          0 0 0 0 0 0
          0 0 0 0 0 0
          0 0 0 0 0 0
          0 0 0 0 0 0
          0 0 0 0 0 0
          0 0 0 0 0 0
          0 0 0 0 0 0
          0 0 0 0 0 0
          0 0 0 0 0 0
          0 0 0 0 0 0
          0 0 0 0 0 0
          0 0 0 0 0 0
          0 0 0 0 0 0
          0 0 0 0 0 0
          0 0 0 0 0 0
          0 0 0 0 0 0
          0 0 0 0 0 0
          0 0 0 0 0 0
          0 0 0 0 0 0
          0 0 0 0 0 0
          0 0 0 0 0 0
          0 0 0 0 0 0
          0 0 0 0 0 0
          0 0 0 0 0 0
          0 0 0 0 0 0
          0 0 0 0 0 0
          0 0 0 0 0 0
          0 0 0 0 0 0
          0 0 0 0 0 0
          0 0 0 0 0 0
          0 0 0 0 0 0
          0 0 0 0 0 0
          0 0 0 0 0 0
          0 0 0 0 0 0
          0 0 0 0 0 0
          0 0 0 0 0 0
          0 0 0 0 0 0
          0 0 0 0 0 0
          0 0 0
        </DataArray>
        <DataArray type="Float64" Name="stress_zz" format="ascii" RangeMin="-366525.7726883201" RangeMax="777443.313311361">
          -11657.872058870074 -11861.783874518387 -12065.6956901667 -12829.528446800592 -12335.440382802626 -11841.352318804662
          -18582.02970439784 -18823.650592883445 -19065.271481369047 52536.082444558255 51840.15373980222 51144.2250350462
          27532.23075579107 28372.437176829902 29212.64359786874 7841.577999792409 8417.35109867089 8993.12419754937
          -4850.079263729965 -4664.720344453913 -4479.36142517786 -10913.657925756575 -10187.930826586038 -9462.203727415497
          -21311.472429011505 -21022.265265178085 -20733.05810134466 -25181.09111575097 -26385.838304977224 -27590.585494203486
          58211.46519240869 57470.85111767694 56730.23704294519 18739.42383328602 19332.03843566353 19924.65303804104
          -5764.661093218349 -5767.534506377997 -5770.407919537643 -18098.91217550562 -18336.69283886376 -18574.473502221907
          -21177.951005979256 -20857.095650155294 -20536.240294331332 -31194.675156603982 -31239.296680659136 -31283.91820471428
          -30725.806170951284 -31700.29456198882 -32674.782953026363 117608.4451853644 121144.15729877554 124679.86941218669
          42264.12477930674 40638.892074710224 39013.6593701137 -9311.266671422587 -9253.89775513436 -9196.52883884613
          -31274.322593390385 -31893.082777444713 -32511.84296149904 -36580.25571350689 -37149.3802560778 -37718.504798648704
          -32767.691030233786 -33043.44503110873 -33319.19903198366 -31199.01950752284 -31087.371751206563 -30975.72399489028
          -30686.739932461198 -31065.922079747874 -31445.104227034557 89992.18404975419 95648.45990549476 101304.73576123534
          -19809.39404625183 -20698.481617593396 -21587.569188934955 -63651.75056126744 -62696.532883706284 -61741.31520614511
          -66605.25063709907 -66753.60321773487 -66901.95579837068 -56589.957946671086 -56692.97706363729 -56795.996180603484
          -41927.777003343144 -42208.85770555308 -42489.938407762995 -26921.197288275394 -26649.204283577565 -26377.21127887974
          -32568.398658548096 -32297.90599593945 -32027.4133333308 -54099.36993733872 -52981.97279541541 -51864.57565349208
          -141153.55782010162 -143775.00554739163 -146396.45327468164 -125887.93716150541 -126956.6379279783 -128025.33869445114
          -98157.26247853441 -99326.28665331787 -100495.31082810134 -68599.65816899788 -68850.81158172929 -69101.96499446068
          -40944.22962812039 -41334.955340679975 -41725.68105323956 -21776.824682368304 -21946.93654783078 -22117.048413293254
          -15940.886918895842 -15149.351782959475 -14357.816647023114 -263593.342530952 -277044.3231968096 -290495.3038626673
          -213134.35448034995 -218685.07785435417 -224235.80122835835 -149668.77976714566 -151013.19286120715 -152357.60595526866
          -86947.8789555462 -89309.9665322045 -91672.05410886281 -40317.989739778044 -41762.92413202181 -43207.858524265575
          -21167.144876956267 -21377.092873163157 -21587.040869370045 -3727.5941975604633 -3886.5582067035184 -4045.522215846573
          -3931.3374543866876 -3165.075101545361 -2398.8127487040338 -265636.8287272253 -252217.2868258983 -238797.7449245713
          -144606.72294271598 -138112.29438355577 -131617.86582439562 -122103.16263063275 -120178.60204042614 -118254.0414502196
          36594.98155071779 37671.96785646342 38748.95416220906 13370.878005758674 12739.451137533717 12108.024269308762
          13436.266715715203 13830.485595865512 14224.70447601582 3659.3452293590963 3610.873627007514 3562.402024655932
          -1317.8654300750572 -1534.6219191371458 -1751.3784081992335 69330.693087499 50636.02626173261 69057.46617286364
          97096.05372486773 71957.19381023364 51636.49189480176 68260.0296737849 97860.87544932181 74583.69453296828
          52636.9575278709 67462.59317470614 98625.69717377593 -211169.83424927696 249315.7286885783 224479.7052835001
          -87375.16911714649 -216111.59140524192 240331.97843521746 203305.5658029971 -91403.38494055746 -221053.34856120683
          231348.22818185663 182131.4263224941 -95431.60076396842 -59131.98008684655 104765.76932092682 -57732.53468577383
          108662.76420267789 -56333.08928470113 112559.75908442895 95539.29879633083 110514.36330094222 97929.86846092573
          115827.39134229018 100320.43812552064 121140.41938363813 18090.913112078317 81513.86776218606 19169.742395208603
          82768.94025110497 20248.57167833889 84024.01274002387 -365642.390478988 406358.22405098507 -366084.081583654
          379505.27803463204 -366525.7726883201 352652.332018279 125690.89326928125 64936.71045625466 125671.55020151101
          61394.743369298376 125652.20713374077 57852.776282342085 208.56872434274055 -1127.695916648187 -2463.960557639114
          543582.4537387086 527707.1696759976 511831.8856132864 777443.313311361 764811.8108728899 752180.3084344189
          119257.97104159807 58968.52015922893 92652.00813297657 59135.21204975837 66046.04522435508 59301.9039402878
          106351.20826802804 104622.28130448496 102893.35434094186 83270.97121446698 84030.74742184977 84790.52362923257
          -3558.303700918168 -3284.783059465077 -3011.2624180119865 -17572.296940376968 -22734.294157748693 -13603.02399598851
          1652.123242485779 -18632.620406494745 -22640.484836230327 -13495.725538509267 1316.7964565930033 -19692.943872612523
          -22546.67551471197 -13388.427081030022 981.4696707002295 923.4672814827754 1046.3703044046433 1169.2733273265121
          16545.10349233084 11668.926984094804 17140.22478591735 11581.122328269332 17735.346079503855 11493.31767244386
          -4867.773575362569 -9297.64613203554 -15348.59523668525 -7100.628485498422 -4961.131803548243 -9716.025982240384
          -15845.024609838012 -7070.787358197352 -5054.490031733917 -10134.40583244523 -16341.453982990774 -7040.94623089628
          -27480.261067842675 -47545.71391021344 -28196.967900404226 -49015.01165801077 -28913.67473296578 -50484.309405808104
          3791.2271947085014 2995.8435421249615 4018.441826778726 3117.1606322119296 4245.656458848951 3238.477722298898
          -15286.981432886805 -15966.710013486063 9619.029604554731 -15548.283659126306 -18196.614546209395 11207.911280743245
          -15809.585885365806 -20426.51907893273 12796.792956931751 -1144.4504200566291 -2032.0541702516853 3125.264389156645
          -3857.9085602078835 -977.8097967019833 -2442.7524747406906 3131.573032707461 -3838.1892984176825 -811.1691733473372
          -2853.4507792296954 3137.881676258278 -3818.4700366274824 -9685.827766035962 -13956.527443603973 -8985.315881784278
          -10264.455584168338 -14513.269665878397 -8885.961441801624 -10843.083402300712 -15070.011888152823 -8786.607001818971
          -2338.062138824015 -8753.882109290747 -3751.5781576900736 3853.5737316582595 -2507.503920942402 -9409.709892686245
          -3999.5257659004155 3856.9385695974697 -2676.945703060789 -10065.53767608174 -4247.473374110758 3860.3034075366795
          -43984.02709198118 -19829.54380351183 -46201.21178781215 -20468.72947816819 -48418.39648364312 -21107.91515282455
          1927.218831279684 -677.4560298167672 40.707449958757934 7660.03111307932 1886.3961934569375 -783.8834300272903
          -174.84077039352383 7550.096027121265 1845.5735556341904 -890.3108302378133 -390.3889907458056 7440.160941163209
          3607.479886552941 4210.978280331581 25654.132088927425 3887.208095001268 5486.016962344409 27442.95060682407
          4166.936303449594 6761.055644357237 29231.76912472071 671.5343802709386 -751.2385890028416 738.5306797919268
          -779.1269524861319 805.5269793129148 -807.0153159694221 5375.576198830329 6510.241889814015 12934.400456173007
          5440.113342801566 5137.742609650969 6236.834449634592 13133.087065865393 5227.873606835199 4899.9090204716085
          5963.427009455169 13331.773675557779 5015.633870868831 -3379.8808748966817 -6168.681335613143 -3526.3825933053477
          -6153.511160793502 -3672.8843117140123 -6138.34098597386 4028.1154586919074 10882.0730387738 4246.650464522376
          11174.437960502682 4465.185470352845 11466.802882231565 -3397.4510640877616 -7206.10767395933 -3615.539009030674
          -7654.235695875864 -3833.626953973587 -8102.363717792395 -9180.846496590426 -5298.868676907976 -9050.504033253357
          -10555.421548527793 -9186.281306246063 -5108.850562917029 -8848.059682693598 -10762.816944557791 -9191.7161159017
          -4918.832448926081 -8645.615332133839 -10970.21234058779 -4154.809005354851 -4062.9978903188426 -3971.1867752828352
          -6141.8412933658465 -5748.004732840569 -5354.168172315289 -3037.804458309868 3583.088622369475 -3065.6479387233976
          4029.0773729242346 -3093.491419136927 4475.066123478994 6173.540881435129 23468.266708347226 6309.963958334261
          25074.31072603781 6446.387035233395 26680.354743728396 24089.202000800517 54817.258528290455 24929.872503789335
          59015.0802988468 25770.543006778153 63212.90206940317 2696.515843377405 3191.9121228670315 3687.308402356658
          -6131.797793781558 4643.459313346969 -6515.494172217934 4579.443072240304 -6899.190550654308 4515.42683113364
          1693.857895809339 8753.578591544912 8243.558581125477 -3738.582962533408 1573.3222750723153 8187.674512301249
          8874.753472731918 -3242.78127542758 1452.7866543352916 7621.770433057585 9505.948364338361 -2746.979588321752
          -10290.620996929258 1692.5174645817192 -10400.497988730658 1599.471366751125 -10510.374980532057 1506.4252689205312
          6034.532851559777 -6661.033973237293 21622.122991761178 5762.023501606008 -7283.738460887916 22488.804420691395
          5489.514151652238 -7906.442948538539 23355.48584962161 -13386.571017879152 -10016.095104758955 -6183.512017279056
          -13270.690462587441 -10227.445877388194 -5894.730980775578 -13154.80990729573 -10438.796650017432 -5605.949944272099
          1620.1164828123692 1587.985893585671 1555.855304358971 -7085.701235172461 -6975.548446389113 -6865.395657605764
          -8742.752251517148 -1052.1502933305956 -9077.430080676355 -1320.376361123459 -9412.107909835559 -1588.6024289163222
          9792.494152707168 9142.35633457535 10401.455337797297 8636.52304382254 11010.416522887428 8130.689753069732
          2746.062050555986 2650.994898223498 2555.92774589101 5599.70455525214 3702.707943886727 5912.867496797626
          3908.6976421071818 6226.030438343111 4114.687340327638 -5779.953103679523 -6341.327354381403 -6902.701605083282
          9761.273708361945 10135.473879236932 10095.570973155487 9943.760675680936 10018.330323174298 10656.447853975382
          10284.166757481082 9989.21184350906 10275.38693798665 11177.42182871383 10472.762541806678 10034.663011337185
          14801.97092517971 14062.199301410696 13322.427677641683 -3961.7734714635476 -2916.700737689621 -3826.3244922144863
          -2873.184344429318 -3690.875512965424 -2829.6679511690154 5591.523286145284 5238.473479828424 4885.4236735115655
          -1668.8817885492022 -1399.344052630824 -1755.0731334531088 -1838.5771201666494 -1841.2644783570154 -2277.8101877024746
          -3616.866076679607 -3755.7178770381215 -3894.5696773966356 2727.544257693929 5519.412167719634 7411.148762420915
          2637.1921692476617 5548.067273229612 7356.554205905835 2546.8400808013944 5576.722378739589 7301.959649390755
          9865.774173495685 14121.514055445628 9719.356194658743 14287.843550942682 9572.938215821801 14454.173046439735
          10035.504709163331 6278.860876049615 10021.893747441982 6311.188042912675 10008.282785720634 6343.515209775735
          3719.685705640399 -9935.274848665507 3784.2436080998514 -10338.175780875168 3848.8015105593054 -10741.07671308483
          9339.575053130118 17887.56220036578 9634.049409735995 18364.27684723191 9928.523766341874 18840.99149409805
          -3273.9765992007005 -3296.7832736213486 -3319.5899480419957 13387.731940643314 13721.150768141262 14054.56959563921
          -2774.868656132523 -2730.0838579180986 -2685.299059703674 -22300.11357986547 -23637.525198701594 -24974.93681753772
          -5301.715392389952 -5517.485787636169 -5733.256182882386 492.42760542873793 608.4671812801347 724.5067571315308
          7413.534099827279 3781.714857841879 7346.13736867241 3730.5798255259724 7278.7406375175415 3679.4447932100657
          -8660.250622234498 -7226.256384743715 -9205.338870741813 -7692.053444720612 -9750.427119249127 -8157.850504697509
          -3713.0302382641444 -3966.8113024625645 -4220.592366660985 7780.845446797908 8133.432283356333 8486.019119914756
          -8.814140646992769 -297.7269670552689 -171.24127984201687 -132.8458211364457 -297.59423113024377 2.0718004338810374
          -256.87750162589873 -297.4614952052198 175.3848807097794 -5008.834576449059 2240.1553307926197 -5231.799894207392
          2392.4916334755376 -5454.765211965725 2544.827936158456 1924.708411797348 2010.6476642937319 2096.5869167901155
          10599.715101521695 10607.115592734734 10614.516083947772 7522.326688754794 7503.6065155264305 7484.886342298067
          3641.7805901694096 3661.1835682979026 3680.586546426398 -541.1665740699249 -492.33636516933495 -443.5061562687446
          -17399.145991261947 -18171.690278610546 -18944.234565959137 -4205.903341999083 -4188.697304456007 -4171.491266912931
          -4210.582522118946 -3755.845459083871 -3301.108396048796 -9957.67740651423 -9519.376248391342 -9081.075090268449
          1894.6517684334847 2315.5242491876693 2736.3967299418546 -7871.689380584443 -7965.34109756066 -8058.992814536876
          1462.9707168253055 1642.8992964833888 1822.8278761414715 2701.4520184777343 3574.881947536497 4448.311876595259
          1534.9819593106376 1303.0966894035719 1071.211419496506 -10568.052677018339 -10712.752977930219 -10857.453278842098
          -3228.2581882693794 -3154.9541927042183 -3081.650197139056 -1655.4817078259828 -1678.2642571306562 -1701.0468064353297
          -1897.963274001022 -1630.9540278890781 -1363.9447817771347 -7004.075351255393 -7784.577253472135 -8565.079155688878
          1366.0653678613098 1085.536911813634 805.0084557659584 1701.8612214155492 23320.22608731063 1834.3799107547122
          24318.299109255262 1966.8986000938755 25316.37213119989 -5454.294167968273 -5119.923934556553 -4785.553701144832
          44623.47391366093 47665.77149231259 45743.84759146098 47783.56583988574 46864.22126926104 47901.36018745889
          15477.929996101107 16302.028847821459 17126.127699541812 7138.109649238184 7097.4200493866 7056.730449535018
          -13581.541114875545 -13722.701362542004 -13863.861610208462 -7499.446220728356 -8134.323462695174 -7535.790093721747
          -8118.884168004339 -7572.133966715141 -8103.444873313503 2122.9208279494906 2371.094256997967 9319.365919559286
          2172.0410331945113 2527.4020021118713 9625.814931888899 2221.1612384395326 2683.709747225775 9932.26394421851
          4441.477293513671 4215.0791037760555 3988.680914038438 2413.38835390914 1840.2050568800423 1267.021759850945
          2779.6670539235038 12367.411007630657 2456.8181033533206 12033.080703149899 2133.969152783138 11698.75039866914
          4225.113227980238 -2584.293641171861 3709.0912932027595 -2979.7980335027655 3193.0693584252804 -3375.3024258336704
          4967.9075961456565 7066.30553557206 4694.235187248707 6717.375476303496 4420.5627783517575 6368.445417034932
          4835.626953857822 7380.92221875352 4472.530950872782 7366.178411527302 4109.434947887742 7351.4346043010855
          2729.17636504872 2711.273746401713 2693.3711277547063 984.1881619370229 2282.2308923261307 710.665580595733
          2203.6310666334 437.1429992544445 2125.0312409406697 667.0541692988609 557.2613663476019 447.46856339634326
          -425.4215244842626 3499.9856607604825 -371.20544909730336 3664.4054944781356 -316.9893737103439 3828.8253281957886
          2643.0885734859226 2663.1589016360845 2683.2292297862464 7433.701277467917 7333.294372111817 7232.8874667557175
          2301.56692354661 2308.1453382459913 2314.7237529453723
        </DataArray>
        <DataArray type="Float64" Name="peeq" format="ascii" RangeMin="0" RangeMax="0">
          0 0 0 0 0 0
          0 0 0 0 0 0
          0 0 0 0 0 0
          0 0 0 0 0 0
          0 0 0 0 0 0
          0 0 0 0 0 0
          0 0 0 0 0 0
          0 0 0 0 0 0
          0 0 0 0 0 0
          0 0 0 0 0 0
          0 0 0 0 0 0
          0 0 0 0 0 0
          0 0 0 0 0 0
          0 0 0 0 0 0
          0 0 0 0 0 0
          0 0 0 0 0 0
          0 0 0 0 0 0
          0 0 0 0 0 0
          0 0 0 0 0 0
          0 0 0 0 0 0
          0 0 0 0 0 0
          0 0 0 0 0 0
          0 0 0 0 0 0
          0 0 0 0 0 0
          0 0 0 0 0 0
          0 0 0 0 0 0
          0 0 0 0 0 0
          0 0 0 0 0 0
          0 0 0 0 0 0
          0 0 0 0 0 0
          0 0 0 0 0 0
          0 0 0 0 0 0
          0 0 0 0 0 0
          0 0 0 0 0 0
          0 0 0 0 0 0
          0 0 0 0 0 0
          0 0 0 0 0 0
          0 0 0 0 0 0
          0 0 0 0 0 0
          0 0 0 0 0 0
          0 0 0 0 0 0
          0 0 0 0 0 0
          0 0 0 0 0 0
          0 0 0 0 0 0
          0 0 0 0 0 0
          0 0 0 0 0 0
          0 0 0 0 0 0
          0 0 0 0 0 0
          0 0 0 0 0 0
          0 0 0 0 0 0
          0 0 0 0 0 0
          0 0 0 0 0 0
          0 0 0 0 0 0
          0 0 0 0 0 0
          0 0 0 0 0 0
          0 0 0 0 0 0
          0 0 0 0 0 0
          0 0 0 0 0 0
          0 0 0 0 0 0
          0 0 0 0 0 0
          0 0 0 0 0 0
          0 0 0 0 0 0
          0 0 0 0 0 0
          0 0 0 0 0 0
          0 0 0 0 0 0
          0 0 0 0 0 0
          0 0 0 0 0 0
          0 0 0 0 0 0
          0 0 0 0 0 0
          0 0 0 0 0 0
          0 0 0 0 0 0
          0 0 0 0 0 0
          0 0 0 0 0 0
          0 0 0 0 0 0
          0 0 0 0 0 0
          0 0 0 0 0 0
          0 0 0 0 0 0
          0 0 0 0 0 0
          0 0 0 0 0 0
          0 0 0 0 0 0
          0 0 0 0 0 0
          0 0 0 0 0 0
          0 0 0 0 0 0
          0 0 0 0 0 0
          0 0 0 0 0 0
          0 0 0 0 0 0
          0 0 0 0 0 0
          0 0 0 0 0 0
          0 0 0 0 0 0
          0 0 0 0 0 0
          0 0 0 0 0 0
          0 0 0 0 0 0
          0 0 0 0 0 0
          0 0 0 0 0 0
          0 0 0 0 0 0
          0 0 0 0 0 0
          0 0 0 0 0 0
          0 0 0 0 0 0
          0 0 0 0 0 0
          0 0 0 0 0 0
          0 0 0 0 0 0
          0 0 0 0 0 0
          0 0 0 0 0 0
          0 0 0 0 0 0
          0 0 0 0 0 0
          0 0 0 0 0 0
          0 0 0 0 0 0
          0 0 0 0 0 0
          0 0 0 0 0 0
          0 0 0 0 0 0
          0 0 0 0 0 0
          0 0 0 0 0 0
          0 0 0 0 0 0
          0 0 0 0 0 0
          0 0 0 0 0 0
          0 0 0 0 0 0
          0 0 0 0 0 0
          0 0 0 0 0 0
          0 0 0 0 0 0
          0 0 0 0 0 0
          0 0 0 0 0 0
          0 0 0 0 0 0
          0 0 0 0 0 0
          0 0 0 0 0 0
          0 0 0 0 0 0
          0 0 0 0 0 0
          0 0 0 0 0 0
          0 0 0 0 0 0
          0 0 0 0 0 0
          0 0 0 0 0 0
          0 0 0
        </DataArray>
        <DataArray type="Float64" Name="pe11" format="ascii" RangeMin="0" RangeMax="0">
          0 0 0 0 0 0
          0 0 0 0 0 0
          0 0 0 0 0 0
          0 0 0 0 0 0
          0 0 0 0 0 0
          0 0 0 0 0 0
          0 0 0 0 0 0
          0 0 0 0 0 0
          0 0 0 0 0 0
          0 0 0 0 0 0
          0 0 0 0 0 0
          0 0 0 0 0 0
          0 0 0 0 0 0
          0 0 0 0 0 0
          0 0 0 0 0 0
          0 0 0 0 0 0
          0 0 0 0 0 0
          0 0 0 0 0 0
          0 0 0 0 0 0
          0 0 0 0 0 0
          0 0 0 0 0 0
          0 0 0 0 0 0
          0 0 0 0 0 0
          0 0 0 0 0 0
          0 0 0 0 0 0
          0 0 0 0 0 0
          0 0 0 0 0 0
          0 0 0 0 0 0
          0 0 0 0 0 0
          0 0 0 0 0 0
          0 0 0 0 0 0
          0 0 0 0 0 0
          0 0 0 0 0 0
          0 0 0 0 0 0
          0 0 0 0 0 0
          0 0 0 0 0 0
          0 0 0 0 0 0
          0 0 0 0 0 0
          0 0 0 0 0 0
          0 0 0 0 0 0
          0 0 0 0 0 0
          0 0 0 0 0 0
          0 0 0 0 0 0
          0 0 0 0 0 0
          0 0 0 0 0 0
          0 0 0 0 0 0
          0 0 0 0 0 0
          0 0 0 0 0 0
          0 0 0 0 0 0
          0 0 0 0 0 0
          0 0 0 0 0 0
          0 0 0 0 0 0
          0 0 0 0 0 0
          0 0 0 0 0 0
          0 0 0 0 0 0
          0 0 0 0 0 0
          0 0 0 0 0 0
          0 0 0 0 0 0
          0 0 0 0 0 0
          0 0 0 0 0 0
          0 0 0 0 0 0
          0 0 0 0 0 0
          0 0 0 0 0 0
          0 0 0 0 0 0
          0 0 0 0 0 0
          0 0 0 0 0 0
          0 0 0 0 0 0
          0 0 0 0 0 0
          0 0 0 0 0 0
          0 0 0 0 0 0
          0 0 0 0 0 0
          0 0 0 0 0 0
          0 0 0 0 0 0
          0 0 0 0 0 0
          0 0 0 0 0 0
          0 0 0 0 0 0
          0 0 0 0 0 0
          0 0 0 0 0 0
          0 0 0 0 0 0
          0 0 0 0 0 0
          0 0 0 0 0 0
          0 0 0 0 0 0
          0 0 0 0 0 0
          0 0 0 0 0 0
          0 0 0 0 0 0
          0 0 0 0 0 0
          0 0 0 0 0 0
          0 0 0 0 0 0
          0 0 0 0 0 0
          0 0 0 0 0 0
          0 0 0 0 0 0
          0 0 0 0 0 0
          0 0 0 0 0 0
          0 0 0 0 0 0
          0 0 0 0 0 0
          0 0 0 0 0 0
          0 0 0 0 0 0
          0 0 0 0 0 0
          0 0 0 0 0 0
          0 0 0 0 0 0
          0 0 0 0 0 0
          0 0 0 0 0 0
          0 0 0 0 0 0
          0 0 0 0 0 0
          0 0 0 0 0 0
          0 0 0 0 0 0
          0 0 0 0 0 0
          0 0 0 0 0 0
          0 0 0 0 0 0
          0 0 0 0 0 0
          0 0 0 0 0 0
          0 0 0 0 0 0
          0 0 0 0 0 0
          0 0 0 0 0 0
          0 0 0 0 0 0
          0 0 0 0 0 0
          0 0 0 0 0 0
          0 0 0 0 0 0
          0 0 0 0 0 0
          0 0 0 0 0 0
          0 0 0 0 0 0
          0 0 0 0 0 0
          0 0 0 0 0 0
          0 0 0 0 0 0
          0 0 0 0 0 0
          0 0 0 0 0 0
          0 0 0 0 0 0
          0 0 0 0 0 0
          0 0 0 0 0 0
          0 0 0 0 0 0
          0 0 0
        </DataArray>
        <DataArray type="Float64" Name="pe22" format="ascii" RangeMin="0" RangeMax="0">
          0 0 0 0 0 0
          0 0 0 0 0 0
          0 0 0 0 0 0
          0 0 0 0 0 0
          0 0 0 0 0 0
          0 0 0 0 0 0
          0 0 0 0 0 0
          0 0 0 0 0 0
          0 0 0 0 0 0
          0 0 0 0 0 0
          0 0 0 0 0 0
          0 0 0 0 0 0
          0 0 0 0 0 0
          0 0 0 0 0 0
          0 0 0 0 0 0
          0 0 0 0 0 0
          0 0 0 0 0 0
          0 0 0 0 0 0
          0 0 0 0 0 0
          0 0 0 0 0 0
          0 0 0 0 0 0
          0 0 0 0 0 0
          0 0 0 0 0 0
          0 0 0 0 0 0
          0 0 0 0 0 0
          0 0 0 0 0 0
          0 0 0 0 0 0
          0 0 0 0 0 0
          0 0 0 0 0 0
          0 0 0 0 0 0
          0 0 0 0 0 0
          0 0 0 0 0 0
          0 0 0 0 0 0
          0 0 0 0 0 0
          0 0 0 0 0 0
          0 0 0 0 0 0
          0 0 0 0 0 0
          0 0 0 0 0 0
          0 0 0 0 0 0
          0 0 0 0 0 0
          0 0 0 0 0 0
          0 0 0 0 0 0
          0 0 0 0 0 0
          0 0 0 0 0 0
          0 0 0 0 0 0
          0 0 0 0 0 0
          0 0 0 0 0 0
          0 0 0 0 0 0
          0 0 0 0 0 0
          0 0 0 0 0 0
          0 0 0 0 0 0
          0 0 0 0 0 0
          0 0 0 0 0 0
          0 0 0 0 0 0
          0 0 0 0 0 0
          0 0 0 0 0 0
          0 0 0 0 0 0
          0 0 0 0 0 0
          0 0 0 0 0 0
          0 0 0 0 0 0
          0 0 0 0 0 0
          0 0 0 0 0 0
          0 0 0 0 0 0
          0 0 0 0 0 0
          0 0 0 0 0 0
          0 0 0 0 0 0
          0 0 0 0 0 0
          0 0 0 0 0 0
          0 0 0 0 0 0
          0 0 0 0 0 0
          0 0 0 0 0 0
          0 0 0 0 0 0
          0 0 0 0 0 0
          0 0 0 0 0 0
          0 0 0 0 0 0
          0 0 0 0 0 0
          0 0 0 0 0 0
          0 0 0 0 0 0
          0 0 0 0 0 0
          0 0 0 0 0 0
          0 0 0 0 0 0
          0 0 0 0 0 0
          0 0 0 0 0 0
          0 0 0 0 0 0
          0 0 0 0 0 0
          0 0 0 0 0 0
          0 0 0 0 0 0
          0 0 0 0 0 0
          0 0 0 0 0 0
          0 0 0 0 0 0
          0 0 0 0 0 0
          0 0 0 0 0 0
          0 0 0 0 0 0
          0 0 0 0 0 0
          0 0 0 0 0 0
          0 0 0 0 0 0
          0 0 0 0 0 0
          0 0 0 0 0 0
          0 0 0 0 0 0
          0 0 0 0 0 0
          0 0 0 0 0 0
          0 0 0 0 0 0
          0 0 0 0 0 0
          0 0 0 0 0 0
          0 0 0 0 0 0
          0 0 0 0 0 0
          0 0 0 0 0 0
          0 0 0 0 0 0
          0 0 0 0 0 0
          0 0 0 0 0 0
          0 0 0 0 0 0
          0 0 0 0 0 0
          0 0 0 0 0 0
          0 0 0 0 0 0
          0 0 0 0 0 0
          0 0 0 0 0 0
          0 0 0 0 0 0
          0 0 0 0 0 0
          0 0 0 0 0 0
          0 0 0 0 0 0
          0 0 0 0 0 0
          0 0 0 0 0 0
          0 0 0 0 0 0
          0 0 0 0 0 0
          0 0 0 0 0 0
          0 0 0 0 0 0
          0 0 0 0 0 0
          0 0 0 0 0 0
          0 0 0 0 0 0
          0 0 0 0 0 0
          0 0 0
        </DataArray>
        <DataArray type="Float64" Name="pe33" format="ascii" RangeMin="0" RangeMax="0">
          0 0 0 0 0 0
          0 0 0 0 0 0
          0 0 0 0 0 0
          0 0 0 0 0 0
          0 0 0 0 0 0
          0 0 0 0 0 0
          0 0 0 0 0 0
          0 0 0 0 0 0
          0 0 0 0 0 0
          0 0 0 0 0 0
          0 0 0 0 0 0
          0 0 0 0 0 0
          0 0 0 0 0 0
          0 0 0 0 0 0
          0 0 0 0 0 0
          0 0 0 0 0 0
          0 0 0 0 0 0
          0 0 0 0 0 0
          0 0 0 0 0 0
          0 0 0 0 0 0
          0 0 0 0 0 0
          0 0 0 0 0 0
          0 0 0 0 0 0
          0 0 0 0 0 0
          0 0 0 0 0 0
          0 0 0 0 0 0
          0 0 0 0 0 0
          0 0 0 0 0 0
          0 0 0 0 0 0
          0 0 0 0 0 0
          0 0 0 0 0 0
          0 0 0 0 0 0
          0 0 0 0 0 0
          0 0 0 0 0 0
          0 0 0 0 0 0
          0 0 0 0 0 0
          0 0 0 0 0 0
          0 0 0 0 0 0
          0 0 0 0 0 0
          0 0 0 0 0 0
          0 0 0 0 0 0
          0 0 0 0 0 0
          0 0 0 0 0 0
          0 0 0 0 0 0
          0 0 0 0 0 0
          0 0 0 0 0 0
          0 0 0 0 0 0
          0 0 0 0 0 0
          0 0 0 0 0 0
          0 0 0 0 0 0
          0 0 0 0 0 0
          0 0 0 0 0 0
          0 0 0 0 0 0
          0 0 0 0 0 0
          0 0 0 0 0 0
          0 0 0 0 0 0
          0 0 0 0 0 0
          0 0 0 0 0 0
          0 0 0 0 0 0
          0 0 0 0 0 0
          0 0 0 0 0 0
          0 0 0 0 0 0
          0 0 0 0 0 0
          0 0 0 0 0 0
          0 0 0 0 0 0
          0 0 0 0 0 0
          0 0 0 0 0 0
          0 0 0 0 0 0
          0 0 0 0 0 0
          0 0 0 0 0 0
          0 0 0 0 0 0
          0 0 0 0 0 0
          0 0 0 0 0 0
          0 0 0 0 0 0
          0 0 0 0 0 0
          0 0 0 0 0 0
          0 0 0 0 0 0
          0 0 0 0 0 0
          0 0 0 0 0 0
          0 0 0 0 0 0
          0 0 0 0 0 0
          0 0 0 0 0 0
          0 0 0 0 0 0
          0 0 0 0 0 0
          0 0 0 0 0 0
          0 0 0 0 0 0
          0 0 0 0 0 0
          0 0 0 0 0 0
          0 0 0 0 0 0
          0 0 0 0 0 0
          0 0 0 0 0 0
          0 0 0 0 0 0
          0 0 0 0 0 0
          0 0 0 0 0 0
          0 0 0 0 0 0
          0 0 0 0 0 0
          0 0 0 0 0 0
          0 0 0 0 0 0
          0 0 0 0 0 0
          0 0 0 0 0 0
          0 0 0 0 0 0
          0 0 0 0 0 0
          0 0 0 0 0 0
          0 0 0 0 0 0
          0 0 0 0 0 0
          0 0 0 0 0 0
          0 0 0 0 0 0
          0 0 0 0 0 0
          0 0 0 0 0 0
          0 0 0 0 0 0
          0 0 0 0 0 0
          0 0 0 0 0 0
          0 0 0 0 0 0
          0 0 0 0 0 0
          0 0 0 0 0 0
          0 0 0 0 0 0
          0 0 0 0 0 0
          0 0 0 0 0 0
          0 0 0 0 0 0
          0 0 0 0 0 0
          0 0 0 0 0 0
          0 0 0 0 0 0
          0 0 0 0 0 0
          0 0 0 0 0 0
          0 0 0 0 0 0
          0 0 0 0 0 0
          0 0 0 0 0 0
          0 0 0 0 0 0
          0 0 0 0 0 0
          0 0 0 0 0 0
          0 0 0
        </DataArray>
        <DataArray type="Float64" Name="disp_x" format="ascii" RangeMin="0.000001875453087282605" RangeMax="0.00001101687624110919">
          0.000004927291367047267 0.000004927280045233137 0.000004927241801472225 0.000004497655513118246 0.0000044976422028094225 0.00000449760222771632
          0.000004936464640083873 0.000004936453078737477 0.0000049364203460486084 0.0000022965679526201018 0.0000022965006950407796 0.0000022962932513356865
          0.000002741380679482849 0.0000027413251824551904 0.0000027411614608170845 0.0000031855789520649165 0.000003185539556419034 0.000003185417751977447
          0.0000036284353128876126 0.0000036284061532523303 0.0000036283186692566488 0.0000040696453534417155 0.00000406962511131342 0.00000406956314447494
          0.000004509203853458849 0.000004509192445905166 0.000004509161505883179 0.000004947294748176055 0.000004947285782194234 0.000004947256974384054
          0.000002308693173835902 0.0000023086110700369213 0.0000023083568500433018 0.0000027557247481054862 0.0000027556622283520666 0.000002755476642633598
          0.000003200967165945289 0.0000032009232543207557 0.00000320079446751658 0.000003643868524601354 0.00000364383869542553 0.0000036437537311281838
          0.000004084423491424416 0.000004084405686038345 0.000004084350619468462 0.000004522897023747935 0.000004522886944404956 0.000004522866464059039
          0.000004959737320639026 0.000004959729827044877 0.000004959708594407027 0.0000018759996562213423 0.000001875857353616391 0.000001875453087282605
          0.000002327201873592423 0.000002327105748924165 0.0000023268098587061903 0.0000027760069329618054 0.0000027759399281839188 0.000002775741262842184
          0.0000032213526963762695 0.000003221310758207418 0.0000032211875500156774 0.00000366323015169399 0.0000036632053634669324 0.0000036631342039226757
          0.0000041021338647353585 0.000004102120734894406 0.0000041020833712138225 0.0000045386975869709934 0.000004538692815323933 0.000004538682556463044
          0.000004973532991206661 0.000004973532062845436 0.0000049735322400676466 0.00000190061859264144 0.0000019004420408153925 0.0000018999419929271983
          0.0000023549524771934477 0.0000023548467518397546 0.000002354518801272986 0.000002803911375162807 0.0000028038462647261997 0.000002803655849805383
          0.0000032474861161266355 0.0000032474526789949917 0.0000032473544537251164 0.0000036866532926315535 0.000003686638406062852 0.0000036865965255999606
          0.000004122564593868132 0.000004122559923729942 0.000004122550427741707 0.000004556219832347909 0.0000045562222497357805 0.000004556228319702154
          0.000004988331845457786 0.000004988338285469808 0.000004988367889903656 0.000001940745994623839 0.000001940544803227545 0.0000019399686375723115
          0.0000023951225799396687 0.000002395019464635207 0.000002394702994815987 0.0000028406225605168206 0.0000028405737893726975 0.000002840431904549688
          0.0000032793855603325126 0.000003279370788727868 0.00000327933059130208 0.0000037135841326293454 0.0000037135857126547575 0.0000037135926968088153
          0.000004144945024675712 0.00000414495338437663 0.000004144984103787441 0.000004574691880506093 0.000004574703440301796 0.000004574739296281586
          0.000005003574348247317 0.000005003588337811908 0.000005003634259889078 0.0000020030246235709732 0.0000020028496770009493 0.0000020022989273325853
          0.0000024495186554088438 0.000002449448586637406 0.0000024492301715431646 0.000002885634714783959 0.0000028856260554769313 0.000002885601367056208
          0.0000033156617485125752 0.000003315681714618652 0.000003315748386101903 0.0000037423445531938345 0.000003742370140224957 0.0000037424447278462245
          0.0000041678086903797055 0.000004167833935586839 0.0000041679177939025754 0.000004592901852536465 0.000004592925722262388 0.00000459299639487358
          0.000005018090450903881 0.000005018113070618853 0.0000050181878480208316 0.000002089223064380128 0.000002089159970557312 0.0000020889818518588996
          0.000002515829736947157 0.0000025158638635190103 0.0000025159406687343395 0.000002935401027438546 0.0000029354608413625015 0.000002935654635218377
          0.0000033523784862449225 0.000003352441901813059 0.0000033526593253729163 0.000003770124458817956 0.0000037701828104608944 0.000003770347160350581
          0.000004188945893282342 0.000004188991022638845 0.000004189141108787975 0.000004609194747416413 0.000004609234244707414 0.000004609349856058373
          0.000005030760499473804 0.000005030790621845153 0.000005030890735556838 0.000003896523299072146 0.000004273269008305974 0.000004326896003689323
          0.00000398722828615371 0.0000038965996489071135 0.000004273332679011552 0.0000043269651697588835 0.0000039873202565527175 0.0000038968434397478685
          0.000004273520156387085 0.000004327165520835766 0.000003987593117346701 0.0000028069296500742564 0.0000028228625600655322 0.00000238795782466769
          0.0000024479887054013125 0.0000028070722599452223 0.0000028231545150880527 0.0000023883916153008132 0.000002448157994478345 0.0000028075044320072762
          0.000002823937307379672 0.0000023896121778202557 0.0000024486616300293885 0.0000031733731575883824 0.0000032699569351119593 0.000003173503501466158
          0.000003270102887039124 0.000003173858517647514 0.000003270586252727466 0.0000036571614864082938 0.0000035135479479783212 0.000003657274637123657
          0.0000035136415618322086 0.0000036576165840787715 0.000003513933102730619 0.0000046530876284369496 0.000004628965579896871 0.000004653136628840823
          0.000004629023270743507 0.000004653302579305144 0.000004629192230126153 0.0000020395691192513263 0.0000020923048232208157 0.0000020397115342218462
          0.0000020928191312276 0.00000204016490773017 0.000002094391384042419 0.000004629880945520347 0.00000421765992033179 0.000004629938297413291
          0.000004217735451188505 0.00000463010409271071 0.0000042179703080057805 0.0000050419010661406306 0.000005041939418727694 0.00000504205900415387
          0.00000228795084748362 0.000002288580052199507 0.0000022906922323602746 0.0000026390805732393076 0.0000026394097917823867 0.0000026407669370147778
          0.0000030167450087644227 0.00000340892237123355 0.0000030169828723793947 0.0000034090784577217536 0.0000030177503933587007 0.0000034095224175525285
          0.0000038095658628470558 0.0000038096666039054776 0.0000038100102828688417 0.000005046248981170957 0.000005046291081304411 0.000005046448453914571
          0.000005767565836260028 0.000005767558100521908 0.000005767537519927605 0.000005411557423399258 0.000005374722602643223 0.000005745496560429147
          0.000005797851542805735 0.000005411577691322143 0.000005374736899505636 0.000005745508796718568 0.0000057978691604961995 0.0000054116475911885575
          0.000005374784916559475 0.000005745544266433696 0.000005797906518437036 0.000006067047178235772 0.0000060670401858232526 0.0000060670187504967104
          0.000005901686459997541 0.000005436709574137332 0.0000059017124550793235 0.000005436735208408253 0.000005901794582832225 0.0000054368173000620204
          0.00000662708196291527 0.0000063186755657733465 0.00000606062860437464 0.000006243191122747768 0.00000662707892957597 0.000006318673432163382
          0.000006060624821490865 0.000006243186681712537 0.000006627069323357094 0.000006318660234959615 0.000006060613700817744 0.000006243171364962787
          0.0000056837827282497745 0.000005335526220615067 0.000005683789516791944 0.000005335533288641508 0.000005683800042915195 0.000005335562640439475
          0.000006553878697114451 0.000006946967920918873 0.00000655387449799518 0.000006946965776691959 0.000006553862849246069 0.0000069469594783982845
          0.000006456358506848844 0.000006296241590082752 0.000006189985207486913 0.0000064563769862796715 0.000006296263323607164 0.000006190005869291585
          0.000006456430780000234 0.000006296336908934862 0.000006190070255160145 0.000008411285399226458 0.000008820041306411666 0.00000896219239859917
          0.000008518871015480257 0.00000841128932013432 0.000008820045281331763 0.000008962196288759537 0.000008518875767706286 0.000008411302449296573
          0.000008820057392578573 0.000008962206804641713 0.000008518891377815442 0.0000069864044386261885 0.000007050776931281242 0.000006691068117134615
          0.000006986401806003295 0.000007050776317291925 0.0000066910673728045195 0.000006986398094176466 0.000007050775093169276 0.00000669106517678918
          0.000008079380730956082 0.000008529312457819623 0.000008696479674004062 0.000008191964757842393 0.000008079380669279005 0.000008529312803224978
          0.000008696480952165134 0.000008191965605439077 0.00000807938153345426 0.000008529313286797132 0.000008696484620730345 0.000008191968870235304
          0.000005314463514439534 0.000005561077233830294 0.0000053144640776110205 0.000005561079308445517 0.0000053144748257985676 0.000005561083271289506
          0.000008183327606848417 0.000008144706080170152 0.000008598640476525888 0.000008629476557652613 0.000008183335798704416 0.000008144712991860587
          0.00000859864702476475 0.00000862948338790406 0.000008183360417713999 0.000008144735126221845 0.000008598665373028684 0.000008629501654172727
          0.000005933380465687805 0.000005407094406025989 0.0000056500517082424895 0.000005933384909214961 0.000005407091586119374 0.000005650051598605496
          0.0000059333991018261144 0.000005407085377169761 0.000005650055159959919 0.000007743536039168635 0.000007718234836848414 0.00000774354524197798
          0.000007718243062971454 0.000007743574317384162 0.00000771826721807136 0.000008550391687257958 0.000008607900836600952 0.00000904100079336609
          0.000009031434776148847 0.000008550400241521652 0.000008607907797045639 0.000009041007510443787 0.000009031441510507096 0.00000855042620550413
          0.000008607930409706289 0.000009041024046592834 0.000009031462359682823 0.000009885331505829875 0.000010097363713927747 0.00000988533714253793
          0.000010097367884908135 0.0000098853565588123 0.000010097380332385665 0.000008633552181926856 0.000008254297454356516 0.00000863355506836655
          0.000008254299018022891 0.000008633566691071058 0.000008254302323466736 0.00000722142364519515 0.000007402914628669575 0.000007221421657109394
          0.000007402912873614288 0.000007221416355536268 0.000007402908070647364 0.0000072438894432437085 0.000006839494014716378 0.000006802357376534199
          0.000007298636107605783 0.000007243895174014307 0.00000683950005282649 0.000006802360077121618 0.000007298639907495738 0.000007243915856678355
          0.000006839512335059889 0.000006802365833357865 0.000007298650895022811 0.00000808263923581648 0.000008082644973029332 0.000008082663062939437
          0.0000056902565177371746 0.000005690250053450838 0.00000569023481661282 0.000006708330834636694 0.000006448990609070456 0.0000067083265060459516
          0.000006448985116460056 0.0000067083135023621894 0.000006448971726283936 0.000006123481439829378 0.0000061624067218493985 0.000006123492311585238
          0.000006162419685183607 0.000006123528572404061 0.0000061624680691694455 0.000006015514774181688 0.000005779530921732487 0.000006015544327970952
          0.0000057795557078320126 0.000006015639736503012 0.000005779655245822388 0.000006061500424180948 0.000006061505532199856 0.0000060615274503578305
          0.000006416204613366084 0.000006468341651706354 0.000006416207665059244 0.000006468349691930969 0.000006416222337761197 0.000006468378564195898
          0.000007706968128245593 0.000007630743665229952 0.000007159381297856675 0.000007270342818872861 0.000007706979042259006 0.000007630757234650433
          0.0000071593961606374135 0.000007270356179702251 0.000007707012310914455 0.000007630794799155642 0.000007159440685968894 0.000007270394331825755
          0.000007149273499108225 0.000007537176879985313 0.000007149273235747716 0.000007537176759803511 0.000007149271882277707 0.00000753717408927921
          0.0000065032133545109944 0.000006709823774792087 0.000006992780599911855 0.000006503234269863778 0.000006709838294036361 0.000006992794922214752
          0.000006503294148240203 0.000006709879045776386 0.000006992850778570597 0.0000067479045033238505 0.000006385364357327726 0.000006354102956289769
          0.000006747904222415526 0.000006385365170731152 0.0000063541028542643245 0.000006747907501796358 0.000006385370511108702 0.000006354102202589163
          0.000007698465473735067 0.000007698466066684867 0.000007698471222994456 0.00000632960019207821 0.000006329596393650843 0.000006329587723385066
          0.000005988576640304312 0.000005986106382830945 0.000005988572522785206 0.000005986104447195285 0.000005988562573435973 0.00000598609841927881
          0.00000652482651618915 0.000006514351714657953 0.000006524840592176702 0.0000065143630109775736 0.000006524892440631304 0.00000651439989307489
          0.000009174082693314965 0.000009174087938740635 0.000009174104554237014 0.00000624424386328565 0.0000065184423043872485 0.0000062442380218069785
          0.000006518437061869476 0.000006244218481989245 0.0000065184263606957055 0.0000069302681814608436 0.000006930263679902517 0.000006930251284759261
          0.000010117494785427195 0.000010153417025547135 0.00000992742920243881 0.00000975805757005975 0.0000101174982865856 0.000010153421342086323
          0.000009927433741082649 0.000009758061442089957 0.000010117511202720791 0.00001015343545650649 0.000009927447207439197 0.00000975807345379273
          0.000007483637701706637 0.000007483650010820378 0.000007483690123040557 0.000007272235986529506 0.000006874335260080389 0.000007272243461572147
          0.00000687434257773704 0.000007272264489094936 0.000006874367256875094 0.000005994456368180068 0.00000599445677287557 0.00000599446444048003
          0.00000675634950201566 0.000007022278125637539 0.000006756345762728509 0.000007022275247364481 0.00000675633567833207 0.000007022266699008241
          0.000009298714888031549 0.000009298715956852436 0.00000929871923645106 0.000008961577686948953 0.000009578543850828804 0.00000945560628597262
          0.00000896158590451562 0.000009578551194387005 0.000009455612496646761 0.000008961607589664775 0.00000957857192293532 0.000009455628633082269
          0.000007895664211666745 0.00000804300888359602 0.000007895663292113166 0.000008043009820785758 0.000007895663568315031 0.00000804301306333141
          0.000009377187193872994 0.000009600801766898739 0.000009377191696810972 0.000009600807191759947 0.000009377202850700625 0.000009600822483361758
          0.000008328838388955388 0.000007878153808946461 0.000008328841443761936 0.000007878156700423379 0.000008328851949081302 0.00000787816150393075
          0.000008544873510013438 0.00000827743063483702 0.000008544876229446558 0.00000827743227164149 0.00000854488773761451 0.000008277436346877232
          0.000009930525148294455 0.000009930530581028442 0.000009930543266793068 0.000009077554989828094 0.00000907756155626235 0.000009077579920009398
          0.000010329117555633983 0.000010329122803712974 0.000010329138223748223 0.000007606870200363859 0.000007606871924080736 0.000007606883475456606
          0.000009677196370273052 0.000009677204694537535 0.000009677222095152101 0.000007064639090070022 0.000007064635499437672 0.000007064624988058269
          0.0000080884764989564 0.000008167366504034188 0.000008088485529587804 0.000008167374851129354 0.000008088514894410709 0.000008167402386408383
          0.000009031109830935783 0.000009030203718852363 0.000009031111453692021 0.000009030206022881472 0.000009031115505242065 0.00000903021297208767
          0.00000899794950529613 0.000008997952159630497 0.000008997958616846012 0.000009496182714457017 0.00000949619165784337 0.000009496216928184866
          0.000007311166755790113 0.000007665796991639165 0.000007591543725490747 0.00000731116389225178 0.00000766579540546325 0.0000075915419118718935
          0.000007311157990898627 0.000007665789803357113 0.00000759153825115111 0.000009440653609933378 0.000009526696015792084 0.000009440655314299025
          0.000009526698377600851 0.000009440656617018588 0.000009526705401323912 0.000007362018064149502 0.0000073620145934369935 0.0000073620055166149
          0.000007975506830622405 0.000007975516252617394 0.000007975548421958554 0.000009630502783807707 0.000009630506366532344 0.000009630516300016768
          0.00000777362095678925 0.000007773619146992026 0.000007773615904870085 0.000007443583980819575 0.000007443581191946903 0.000007443571550504561
          0.000007627011024393063 0.0000076270155120736795 0.000007627030660064739 0.00000767356794127526 0.000007673572763640154 0.000007673591663925225
          0.000005294611477735497 0.000005294601163091668 0.000005294570069554964 0.000005287044515244853 0.000005287035396432392 0.000005287004629588067
          0.000007592025505732757 0.000007592022137124384 0.000007592016436364871 0.000005290355208704552 0.0000052903460761814995 0.000005290317572130463
          0.00000788354385223507 0.000007883541783568169 0.00000788353692305944 0.000005316407695282561 0.000005316400424011809 0.000005316373409903825
          0.000006908836390919625 0.000006908845963358652 0.000006908877924330729 0.000008007765907361386 0.000008007768633769972 0.000008007776361994317
          0.000006910658044380021 0.000006910670247707514 0.000006910708097119255 0.000007306595057990736 0.000007306602160407541 0.000007306629136074161
          0.000007322174920056841 0.00000732218299463518 0.000007322214709136831 0.000008719279489390865 0.00000871928296346129 0.000008719295103565435
          0.000009216653528364266 0.000009216657225666118 0.000009216663648040998 0.000005638216312595594 0.000005648725033866784 0.000005638210198188285
          0.00000564872084958289 0.000005638200088607026 0.000005648717431700114 0.000005645765943620474 0.000005645758064963224 0.000005645743412134991
          0.000005464400625759974 0.000005529379335016862 0.000005464427783887923 0.000005529409577538781 0.000005464490474001792 0.000005529504717633912
          0.000009362387147603294 0.000009362397574101788 0.00000936241795654659 0.00000846819221881429 0.000008468200873676426 0.000008468228716911242
          0.000006839450353403125 0.000006839461212861108 0.000006839502838032915 0.000010289940985627486 0.000010479374432041661 0.000010289948761316499
          0.000010479380382210106 0.000010289965444308938 0.000010479397629760069 0.000009710455023462611 0.000009079376288527116 0.000009345898187975399
          0.000009710456430574317 0.000009079377140362726 0.00000934589789841765 0.000009710461574270052 0.00000907937677659973 0.000009345900929432797
          0.000010205834179475927 0.000010205838723563801 0.00001020585497426086 0.000010591599760509544 0.00001059160768717502 0.000010591620560960656
          0.000010128916727132395 0.000009950003863983296 0.00001012892089235637 0.00000995000837222028 0.000010128935210032817 0.00000995002488176703
          0.000011016868844747837 0.000010728616254245558 0.000011016868635053913 0.000010728624482761587 0.00001101687624110919 0.000010728638085711684
          0.000009981938690272974 0.000010057399058495886 0.000009981942651930116 0.000010057404844178645 0.000009981953586233675 0.000010057417050215157
          0.00001050040857850269 0.000010502507361772714 0.000010500409886341122 0.000010502514281848704 0.000010500418490144136 0.000010502528209652018
          0.000009881135198255812 0.000009881138296686304 0.000009881145229733881 0.00000706054142207902 0.000007625636057264464 0.000007060537510082806
          0.0000076256341084560315 0.000007060526923987692 0.000007625625962253756 0.000008800188109116082 0.000008800187906399562 0.000008800185782481947
          0.000007991739002621188 0.000008095132118469078 0.000007991737287683754 0.00000809513019771302 0.00000799173117835214 0.000008095125152855591
          0.000008286537773380241 0.000008286537265381996 0.000008286535492629068 0.000010415251934472744 0.000010415258378668918 0.000010415273515449834
          0.000008412907416108248 0.000008412906586236744 0.000008412904146060713
        </DataArray>
        <DataArray type="Float64" Name="disp_y" format="ascii" RangeMin="-0.000003841546769723537" RangeMax="-0.0000016957550283570206">
          -0.000002563797588521357 -0.0000025638153564217196 -0.000002563868032738002 -0.0000026832767380709436 -0.000002683297515449864 -0.000002683365996760089
          -0.0000026897276466331143 -0.0000026897478600543374 -0.000002689807635767948 -0.0000027333099550151 -0.0000027333197787017974 -0.0000027333556309023566
          -0.000002756960072546763 -0.0000027569817171562726 -0.0000027570520783623927 -0.00000277608038088883 -0.0000027761087782074344 -0.0000027761964309928935
          -0.000002790899805530395 -0.000002790930046011778 -0.000002791023318866424 -0.00000280201903174663 -0.000002802048943874139 -0.000002802139701574443
          -0.0000028101273700381245 -0.0000028101552314491813 -0.000002810238399527198 -0.0000028158267660494033 -0.000002815851482876038 -0.0000028159239833918615
          -0.0000028603289982267654 -0.000002860356343567849 -0.000002860438973565942 -0.000002885977333458256 -0.000002886016340171544 -0.0000028861329349765147
          -0.000002905526049225097 -0.000002905569608211415 -0.0000029056963200376372 -0.0000029198612796765185 -0.0000029199034989384193 -0.000002920027107266862
          -0.0000029300677927927442 -0.0000029301063300334125 -0.000002930219564929845 -0.0000029371474280041364 -0.0000029371825541924925 -0.000002937282696355221
          -0.00000294185361185627 -0.000002941883532801154 -0.0000029419736683972544 -0.000002955404967142882 -0.000002955432612279586 -0.0000029555244631297496
          -0.000002991007799172666 -0.000002991065087057206 -0.0000029912272644117936 -0.0000030176235039110694 -0.000003017687285269333 -0.000003017873178179166
          -0.0000030365282735229637 -0.000003036590785884452 -0.0000030367707895681458 -0.0000030495167409862046 -0.0000030495725425324997 -0.0000030497344813479457
          -0.0000030582187703946986 -0.0000030582667299983617 -0.000003058405465344837 -0.0000030638815775790957 -0.000003063922641642321 -0.000003064041648215508
          -0.0000030675110660640204 -0.000003067544579286348 -0.0000030676452368677084 -0.000003088007339539643 -0.0000030880819865255333 -0.0000030883135659452736
          -0.0000031257942228382693 -0.0000031258913457309575 -0.0000031261775015249278 -0.00000315156467489636 -0.000003151660051551962 -0.0000031519393610269405
          -0.0000031684039553162402 -0.0000031684873633424535 -0.000003168732591177088 -0.0000031791249344692607 -0.000003179194187310439 -0.0000031793964409218876
          -0.000003185799652759623 -0.0000031858556890190324 -0.0000031860204492072046 -0.0000031898276855281724 -0.000003189873390806461 -0.0000031900051744837052
          -0.0000031920315274950177 -0.0000031920692352225145 -0.0000031921829213704226 -0.000003227273892830821 -0.0000032274363804303394 -0.0000032279034524540896
          -0.0000032639901581492223 -0.0000032641514943368862 -0.0000032646161180480317 -0.0000032864851054439336 -0.0000032866256114968202 -0.000003287027411233392
          -0.000003299816006822937 -0.0000032999227281029817 -0.0000033002326071068235 -0.000003307555082749777 -0.000003307637486282841 -0.0000033078772619504774
          -0.000003311974422704451 -0.0000033120376092453123 -0.000003312220517531352 -0.000003314338384766343 -0.0000033143868543575884 -0.0000033145281862512344
          -0.0000033153860059828627 -0.0000033154255255042415 -0.0000033155387229533702 -0.0000033716805151270613 -0.0000033719969541176387 -0.0000033729389764370405
          -0.0000034027314647541933 -0.000003402982590141625 -0.0000034037108610721257 -0.0000034199789156557443 -0.000003420157525558195 -0.000003420721868832501
          -0.0000034287748519505 -0.000003428906486711487 -0.000003429282406024809 -0.0000034334510353891275 -0.0000034335425789475058 -0.000003433815765890304
          -0.000003435896978641546 -0.0000034359639569828965 -0.0000034361604757782337 -0.00000343692575236482 -0.0000034369739365578802 -0.0000034371153814378134
          -0.0000034371042859805625 -0.000003437140131210612 -0.0000034372484702297075 -0.0000035146247151187995 -0.0000035151032881968544 -0.0000035165790831582753
          -0.000003536993817643803 -0.000003537282429333351 -0.0000035382238946891 -0.000003548915093177533 -0.0000035491178115553503 -0.000003549686984005932
          -0.000003552948944343228 -0.000003553078404636687 -0.0000035534908121024263 -0.000003555807252818722 -0.0000035559002711302156 -0.0000035561689994050882
          -0.0000035569547012288055 -0.000003557016400844533 -0.0000035572025224986314 -0.0000035572968004148027 -0.0000035573417954352363 -0.000003557469900456149
          -0.0000035570144119686303 -0.0000035570460280431725 -0.0000035571283690600645 -0.0000036526456256446838 -0.0000036557715381002494 -0.0000037422810081883453
          -0.000003738145654903835 -0.0000036527098907459403 -0.0000036558217243110634 -0.000003742313007573235 -0.000003738189894966237 -0.000003652919548230397
          -0.000003655957113815408 -0.0000037424087313226454 -0.0000037383068862937824 -0.0000036563719064887145 -0.0000037505349529781076 -0.0000037240350576017918
          -0.0000036379411087463 -0.0000036565935420599563 -0.000003750722795929197 -0.0000037245187928515117 -0.0000036383364307763224 -0.000003657242739994535
          -0.0000037513011618835272 -0.0000037260685724902984 -0.000003639336564857814 -0.00000366118145774079 -0.0000037465895570447042 -0.0000036613207788343154
          -0.00000374667890406129 -0.0000036617392633238735 -0.0000037469415504577085 -0.0000037459949114746435 -0.000003653298392926711 -0.0000037460570589045104
          -0.000003653398148873188 -0.0000037462112363949117 -0.000003653691056378152 -0.0000036713719080438626 -0.000003762492062766694 -0.000003671405470082968
          -0.0000037625201783702975 -0.0000036715172358612223 -0.000003762598688996386 -0.000003618686491712617 -0.0000037008356529599208 -0.0000036194222180513958
          -0.0000037017114891193475 -0.0000036214836241803412 -0.000003704408418596788 -0.000003840211548689601 -0.000003838610838077933 -0.000003840241143650919
          -0.000003838635435733275 -0.000003840291922763808 -0.000003838691288146607 -0.0000036997791037990077 -0.0000036998038599596924 -0.0000036998706141505926
          -0.0000037925810467133186 -0.0000037931535825164948 -0.000003795050612521164 -0.0000038121207252754106 -0.0000038124234564641763 -0.0000038130429684769517
          -0.000003825766587516252 -0.000003831865311908757 -0.000003825883104384435 -0.000003831929099827795 -0.000003826067403606062 -0.0000038320439214776845
          -0.00000383615162856987 -0.000003836184074656382 -0.0000038362920951677056 -0.0000038411525464402845 -0.000003841172766109582 -0.000003841234478928122
          -0.0000023402504738050503 -0.0000023402626424179033 -0.0000023402991420326352 -0.00000345406860565477 -0.0000033304058396551283 -0.0000033314752788473973
          -0.0000034588396291508806 -0.000003454097270079802 -0.000003330435593239766 -0.0000033314996840410213 -0.0000034588621190804804 -0.0000034541746709182817
          -0.0000033305275332985435 -0.000003331573496944729 -0.000003458926487353106 -0.000002209288639292107 -0.0000022092992306458945 -0.000002209329215839303
          -0.0000036008264779484386 -0.0000035830475846392275 -0.000003600844600384343 -0.000003583073107973487 -0.0000036009057791199704 -0.0000035831599186555653
          -0.0000024521882682214434 -0.0000025262576376791466 -0.0000025057232768361136 -0.000002387293722942468 -0.0000024521995316561135 -0.0000025262707044910723
          -0.0000025057368099593648 -0.000002387304622319447 -0.0000024522324299642956 -0.000002526310831526295 -0.0000025057774089616966 -0.0000023873371734772248
          -0.0000032074667588934746 -0.0000032117075526720833 -0.0000032074919930086358 -0.0000032117391809121845 -0.000003207569249502032 -0.000003211835724633571
          -0.000002250872796597081 -0.0000023506560426511437 -0.0000022508830835459175 -0.000002350665669133465 -0.000002250913859497991 -0.00000235069712016149
          -0.0000035648247093412966 -0.0000036799151822845594 -0.000003541281933053726 -0.000003564836159886158 -0.0000036799288067748956 -0.0000035412991228296144
          -0.000003564858081675789 -0.0000036799662311191537 -0.000003541333405987896 -0.000002980548548871475 -0.0000029383681143417294 -0.000003076212968393329
          -0.000003121058760100727 -0.000002980558576017957 -0.000002938378146115744 -0.0000030762221619387934 -0.0000031210686651006985 -0.0000029805884217333888
          -0.0000029384095557892976 -0.000003076248200749726 -0.0000031210958825694587 -0.0000024912736836143586 -0.0000025801609284440143 -0.000002603384936624223
          -0.00000249128499007487 -0.0000025801727074634796 -0.0000026033982389776307 -0.0000024913159139117693 -0.000002580209157342304 -0.0000026034368224435288
          -0.000002280145122295382 -0.000002294038829447399 -0.000002412143036953358 -0.0000024399002919266325 -0.000002280153994363012 -0.0000022940469102713437
          -0.0000024121517517098174 -0.0000024399104686528256 -0.000002280180228918403 -0.0000022940705276120932 -0.000002412179368738312 -0.0000024399417938839174
          -0.0000031279227736859756 -0.0000030959868245258564 -0.000003127954405306325 -0.0000030960117508329618 -0.0000031280354802275977 -0.000003096078678753509
          -0.0000034378802449054897 -0.0000032937735248490872 -0.0000032710584726272415 -0.0000034234037435530827 -0.0000034378891691936556 -0.000003293783871659517
          -0.000003271067592507268 -0.0000034234122804629414 -0.0000034379156412439803 -0.0000032938142652701956 -0.0000032710973402772055 -0.0000034234371371545827
          -0.0000030285806980950013 -0.0000029975681158028428 -0.0000029602108497323687 -0.000003028601569880982 -0.0000029975939717486875 -0.0000029602328522257544
          -0.000003028666674533927 -0.0000029976603255664534 -0.000002960298468553102 -0.0000034519978159302793 -0.0000033116035620805852 -0.000003452007342101923
          -0.000003311614824631411 -0.0000034520369388912088 -0.000003311648545455124 -0.000003703533290220455 -0.0000035691005065503603 -0.0000035655622833585794
          -0.0000036976571337280024 -0.0000037035395192521826 -0.000003569106978991495 -0.0000035655681984714796 -0.0000036976624762771793 -0.0000037035585224645778
          -0.000003569127211803952 -0.000003565583145324766 -0.0000036976778344795964 -0.0000035214855521855885 -0.0000034035977694949414 -0.0000035214910028232888
          -0.000003403603760418808 -0.0000035215073211132172 -0.000003403622520347099 -0.0000025623031129135185 -0.000002567520445621414 -0.000002562312466241096
          -0.00000256753011927753 -0.0000025623419245955472 -0.0000025675601253146146 -0.000002439329917306564 -0.0000025397857810659256 -0.0000024393405354524226
          -0.0000025397966340066184 -0.00000243936862317053 -0.0000025398287195708497 -0.000003040392696883243 -0.000003034324310853502 -0.0000028828983524096157
          -0.0000028744300207004984 -0.0000030404067869378493 -0.000003034340439779426 -0.0000028829138601231512 -0.0000028744436014052363 -0.0000030404490482296694
          -0.000003034387188210132 -0.0000028829628548032883 -0.0000028744827962014566 -0.000003151304863533889 -0.0000031513156178680546 -0.000003151349289868484
          -0.0000025024377193496587 -0.0000025024525499130527 -0.0000025024960633806587 -0.000001925492778392539 -0.000002017420670755469 -0.0000019254999547659614
          -0.0000020174292871593654 -0.000001925523351388618 -0.0000020174544775318394 -0.0000033265554679652486 -0.0000034524524305782525 -0.0000033265767527392827
          -0.000003452469445986505 -0.000003326638820808347 -0.0000034525292739593323 -0.000003841476240432691 -0.000003715944548762129 -0.0000038414866138304735
          -0.000003715958392024252 -0.000003841511489648827 -0.000003715997874084416 -0.0000031898540166491006 -0.000003189876407053951 -0.000003189940760569205
          -0.0000030320088899006462 -0.0000031825875400891637 -0.000003032027826637841 -0.0000031826060966463733 -0.000003032085951219694 -0.000003182664409077695
          -0.000003584042901443403 -0.0000037146354536888103 -0.0000037157062064294285 -0.000003588993541114564 -0.0000035840510899967236 -0.0000037146425132274414
          -0.0000037157155648483183 -0.0000035890023017578845 -0.000003584074864344854 -0.000003714664654260695 -0.000003715740877975408 -0.0000035890295030854384
          -0.0000027099645247864336 -0.000002659714528673593 -0.0000027099776367149933 -0.000002659726101268726 -0.000002710017692726254 -0.0000026597618380661653
          -0.000003840469831840688 -0.000003710660860428584 -0.000003839317960259403 -0.000003840486618575804 -0.0000037106731157152955 -0.000003839327145683287
          -0.000003840548410739895 -0.0000037107142968056237 -0.0000038393502633685226 -0.000002736736443946257 -0.00000288474447304769 -0.0000027436621330159245
          -0.000002736751667172094 -0.0000028847618320235284 -0.00000274367838817694 -0.000002736796238887432 -0.0000028848115349984913 -0.000002743726782493156
          -0.0000027825507390153546 -0.0000027825614098060517 -0.000002782593613796117 -0.000002615689234801864 -0.000002615704818578018 -0.0000026157511747151246
          -0.000002620914523706049 -0.0000027440175978235143 -0.000002620931202233185 -0.0000027440360371428204 -0.0000026209810558433233 -0.000002744091287065861
          -0.000003453627119985279 -0.000003325842528372718 -0.0000034536411326154994 -0.000003325860297231978 -0.0000034536855232897477 -0.0000033259109267943177
          -0.000003247934468543492 -0.000003247942348281295 -0.0000032479670830195285 -0.0000021083560055351584 -0.0000021434473648761374 -0.0000021083648925251944
          -0.0000021434571072874498 -0.0000021083914255738446 -0.000002143484464365475 -0.000001818904029838132 -0.0000018189097764529286 -0.0000018189256196429403
          -0.0000029218108958651158 -0.000003003225884407296 -0.0000030540836950893484 -0.0000029550741336848757 -0.0000029218178487343463 -0.000003003233100754969
          -0.000003054090720558556 -0.000002955082180705255 -0.0000029218400167228516 -0.0000030032527078126694 -0.0000030541116557052826 -0.000002955105523852746
          -0.000003837758328536377 -0.0000038377654796909745 -0.000003837788198397542 -0.0000031843299250873106 -0.0000031843744168610987 -0.0000031843440485924507
          -0.000003184390034135097 -0.000003184385687047969 -0.0000031844371236548116 -0.0000028763052517059672 -0.0000028763261230101363 -0.000002876386216424038
          -0.000002089280120286451 -0.0000021735692632100293 -0.0000020892884209383465 -0.000002173577792253777 -0.0000020893116046153997 -0.0000021736052017588254
          -0.0000024227513972278033 -0.000002422758582501381 -0.000002422777552199463 -0.000003831058480989333 -0.000003661303127174351 -0.000003828146041605271
          -0.000003831063696045968 -0.000003661309077777522 -0.000003828152891292101 -0.000003831081881017736 -0.0000036613257183758077 -0.00000382817538181589
          -0.0000026033943713541076 -0.0000027122415095898222 -0.000002603404575291348 -0.000002712251459032897 -0.000002603436171152041 -0.0000027122815548138196
          -0.0000030145940737629093 -0.00000313250377388518 -0.000003014602363582623 -0.0000031325111091201394 -0.000003014628351001541 -0.0000031325312367155017
          -0.0000028248564478831923 -0.000002897511822215383 -0.00000282486596928079 -0.000002897522595863791 -0.000002824895203495329 -0.0000028975526625603017
          -0.0000026865049640064623 -0.00000265648576342697 -0.000002686513827544512 -0.0000026564945376246735 -0.000002686540323590596 -0.000002656524079752439
          -0.0000032245911424774685 -0.0000032245971741520193 -0.0000032246159925321853 -0.0000034277551703576692 -0.0000034277622705806192 -0.000003427786198452297
          -0.00000329496755362078 -0.0000032949740135921013 -0.0000032949949536315474 -0.000002943135450831158 -0.0000029431470083254894 -0.0000029431805608182214
          -0.0000033382569129612315 -0.000003338263858911906 -0.0000033382860771119355 -0.0000020094241311999423 -0.000002009431732188366 -0.0000020094547629057785
          -0.0000037091954528771047 -0.0000035773431056879644 -0.000003709202311067246 -0.0000035773499783642045 -0.000003709222037297757 -0.0000035773717779037497
          -0.000002469410323713476 -0.0000025688330791441 -0.0000024694182686251143 -0.000002568841335168013 -0.000002469439940463296 -0.0000025688687472551186
          -0.0000027359029011507026 -0.0000027359117066157106 -0.0000027359381862856176 -0.0000034675336967596616 -0.0000034675402837379956 -0.000003467565146317208
          -0.0000022664602519935605 -0.000002177678561264181 -0.000002367280901937549 -0.000002266470189901643 -0.0000021776867135692382 -0.0000023672906487468808
          -0.000002266500975080426 -0.0000021777105107994036 -0.000002367321675181603 -0.000002545316058421171 -0.000002687828346695456 -0.0000025453236534997907
          -0.0000026878369278319445 -0.0000025453485236553028 -0.000002687863136682133 -0.0000020963102955689126 -0.000002096318495506893 -0.000002096339593000016
          -0.000003835868958276456 -0.000003835875493221687 -0.000003835896039190706 -0.000002830777689976841 -0.0000028307848715789986 -0.000002830808208743382
          -0.000002485537612192751 -0.0000024855473037968496 -0.000002485577166705188 -0.0000019182344950250125 -0.000001918241120306323 -0.000001918262311672837
          -0.0000030403405287754315 -0.0000030403529351905818 -0.000003040395276296068 -0.000003173515973072947 -0.000003173528498667783 -0.0000031735668861006037
          -0.0000025220514674096474 -0.0000025220674298497056 -0.0000025221157889131096 -0.000002651654406538511 -0.0000026516731365026763 -0.000002651730064512271
          -0.000002037076184076688 -0.0000020370837919636263 -0.000002037107266023877 -0.0000027746153929858684 -0.0000027746387777760923 -0.000002774706368894875
          -0.000002076014140024447 -0.0000020760215688038927 -0.0000020760448616031646 -0.0000028943823351889986 -0.000002894408332518956 -0.000002894484645701792
          -0.000003327494391744244 -0.000003327509054520231 -0.000003327552614169601 -0.0000030171547908938914 -0.0000030171651436101076 -0.000003017198566587252
          -0.0000034601528076707382 -0.0000034601651935051393 -0.0000034602033529914544 -0.000003322882256223081 -0.00000332289492948996 -0.000003322933238968397
          -0.0000034609153505493104 -0.0000034609267115499935 -0.0000034609603513093193 -0.000002839008526207463 -0.0000028390164438935667 -0.000002839043066431004
          -0.0000028834338747688332 -0.000002883441652266163 -0.0000028834681683255763 -0.0000027538850910247603 -0.0000028732406571652848 -0.0000027539064583933747
          -0.000002873263509985873 -0.0000027539693989463636 -0.0000028733338443868065 -0.0000026303917682885914 -0.000002630410911069243 -0.000002630463214478619
          -0.0000037111782630621114 -0.000003841538523541468 -0.0000037111972818590374 -0.000003841545694386097 -0.0000037112506326046613 -0.000003841546769723537
          -0.0000035609437354866035 -0.0000035609494564009934 -0.0000035609643339601563 -0.000003833635783886183 -0.000003833641639062324 -0.000003833659560079426
          -0.0000035821179920622104 -0.0000035821288980217425 -0.000003582158115036073 -0.0000035625829679626688 -0.000003456681427030821 -0.0000035625904834222793
          -0.0000034566875970551144 -0.0000035626076781465347 -0.000003456703548042852 -0.000002337752597436052 -0.000002318753929826593 -0.000002266572860270397
          -0.0000023377598388374565 -0.0000023187606123348563 -0.0000022665800508582573 -0.000002337781431196371 -0.0000023187808645710075 -0.000002266601280392401
          -0.000003128495810829958 -0.0000031285026430280636 -0.000003128521744637248 -0.000003192005939692175 -0.0000031920125175560133 -0.0000031920340709868474
          -0.0000036902270972477874 -0.000003824905179584682 -0.000003690233734334794 -0.0000038249111547952335 -0.000003690254063906682 -0.000003824931357554282
          -0.0000032644220560664976 -0.0000033633027369256747 -0.0000032644275350456556 -0.0000033633091407247178 -0.0000032644444254175463 -0.000003363323686454539
          -0.0000026567950652659013 -0.0000027980199358017533 -0.0000026568023922851345 -0.0000027980277405839674 -0.0000026568238790651415 -0.0000027980527317006387
          -0.0000027916930472183526 -0.0000029240650722658803 -0.00000279169998937612 -0.000002924071685487663 -0.0000027917211345805078 -0.000002924092884688617
          -0.0000025115236283457306 -0.0000025115304932383106 -0.0000025115520157039825 -0.0000016957550283570206 -0.0000017443633831071387 -0.0000016957598346685478
          -0.0000017443689487126103 -0.000001695774394355035 -0.0000017443864331525748 -0.000002189808775819792 -0.000002189815930493601 -0.0000021898361617494064
          -0.0000019577824241052234 -0.0000018378526075970737 -0.0000019577890452049677 -0.000001837858798310227 -0.0000019578086299915465 -0.0000018378762264503924
          -0.000002130347070728665 -0.000002130354083487745 -0.0000021303745604008626 -0.0000030341182391083432 -0.000003034124924390948 -0.0000030341440618906445
          -0.000002005611990337058 -0.0000020056185954375765 -0.000002005640697468312
        </DataArray>
        <DataArray type="Float64" Name="disp_z" format="ascii" RangeMin="-9.033328807984591e-8" RangeMax="0">
          0 -4.3882208417053145e-8 -8.776481825686259e-8 0 -4.3834520507898195e-8 -8.766467192476607e-8
          0 -4.378016647624324e-8 -8.756336852899729e-8 0 -4.480062715325046e-8 -8.959831403486567e-8
          0 -4.443229662331515e-8 -8.886381963912175e-8 0 -4.4150554653316935e-8 -8.829975839311936e-8
          0 -4.39432457556303e-8 -8.788498690684757e-8 0 -4.379519463343708e-8 -8.75906386052866e-8
          0 -4.36958187931459e-8 -8.738889477737897e-8 0 -4.365883989317665e-8 -8.732000718627684e-8
          0 -4.4695168341877014e-8 -8.938647746262375e-8 0 -4.42633233681029e-8 -8.852778243385024e-8
          0 -4.39541295780828e-8 -8.790861473006629e-8 0 -4.3745044888796456e-8 -8.748966080549649e-8
          0 -4.3607764453157267e-8 -8.72181452615443e-8 0 -4.352461413863691e-8 -8.704484112232513e-8
          0 -4.3511074175815534e-8 -8.702827920163645e-8 0 -4.5161857106234517e-8 -9.033328807984591e-8
          0 -4.4471466910777025e-8 -8.894051474038525e-8 0 -4.3983567403303974e-8 -8.79676010477023e-8
          0 -4.3669587303387406e-8 -8.7339710208185e-8 0 -4.3480001973813245e-8 -8.696008192753712e-8
          0 -4.3374062946515447e-8 -8.674898539720585e-8 0 -4.332313752305762e-8 -8.664593265648944e-8
          0 -4.332319089732608e-8 -8.664505030086329e-8 0 -4.487200135064305e-8 -8.97664368982472e-8
          0 -4.4062813402398055e-8 -8.812133993466809e-8 0 -4.3556582435092274e-8 -8.711492437503129e-8
          0 -4.327789155163167e-8 -8.655638552844065e-8 0 -4.314265399531494e-8 -8.628554225664455e-8
          0 -4.30936285693256e-8 -8.618698672527334e-8 0 -4.309034669772561e-8 -8.618290365372689e-8
          0 -4.311401551385532e-8 -8.622361770911606e-8 0 -4.424323874749858e-8 -8.848606827452062e-8
          0 -4.338001482560259e-8 -8.675054215551464e-8 0 -4.2934209201960186e-8 -8.58624267169269e-8
          0 -4.276174262298661e-8 -8.552159987772802e-8 0 -4.273352534355324e-8 -8.546625971014376e-8
          0 -4.2769010346148505e-8 -8.55354545241283e-8 0 -4.283891051249021e-8 -8.568010691345019e-8
          0 -4.290450119197697e-8 -8.58074172469483e-8 0 -4.3049958002493716e-8 -8.609543198468962e-8
          0 -4.2312020889848234e-8 -8.46300868707344e-8 0 -4.204876420297832e-8 -8.410952090546173e-8
          0 -4.214202821735593e-8 -8.42873672501079e-8 0 -4.226215140157586e-8 -8.452170671038913e-8
          0 -4.242193371383812e-8 -8.484527096352582e-8 0 -4.2574583275429e-8 -8.515115874646726e-8
          0 -4.269717376248641e-8 -8.53935640628323e-8 0 -4.07370900836505e-8 -8.145593294977769e-8
          0 -4.0710162799042036e-8 -8.145147207211192e-8 0 -4.08980047053893e-8 -8.17594219073367e-8
          0 -4.139610405690466e-8 -8.281467089037762e-8 0 -4.1744123821680215e-8 -8.348067190996109e-8
          0 -4.205329751360607e-8 -8.41064811271827e-8 0 -4.232506152875735e-8 -8.465085134614243e-8
          0 -4.251477256803652e-8 -8.502245335761932e-8 0 0 0
          0 -4.1477197815389306e-8 -4.185618812380733e-8 -4.17555085689817e-8 -4.134169147470878e-8 -8.296491462964902e-8
          -8.370994305054374e-8 -8.353076556465424e-8 -8.265557563418355e-8 0 0 0
          0 -3.9777586604461056e-8 -3.86609033377536e-8 -3.698305967955295e-8 -3.902428339806314e-8 -7.961265739946525e-8
          -7.722026732976569e-8 -7.407370999468712e-8 -7.794546264858476e-8 0 0 -4.038566034361504e-8
          -4.006973601695141e-8 -8.079640996810599e-8 -8.010574966632686e-8 0 0 -4.087543429519451e-8
          -4.095069800152684e-8 -8.177551771639053e-8 -8.188296748267174e-8 0 0 -4.2127379121655354e-8
          -4.1941874224840143e-8 -8.425685631121766e-8 -8.38599876520962e-8 0 0 -3.8035188739127385e-8
          -3.491325296076904e-8 -7.607588516395056e-8 -6.968849858444176e-8 0 0 -4.188370634626912e-8
          -4.152153953466466e-8 -8.378007170571036e-8 -8.304616205865034e-8 0 -4.2373277398942966e-8 -8.474695421835341e-8
          0 -3.296538200008447e-8 -6.565721162627432e-8 0 -3.681673762557114e-8 -7.367680493698709e-8
          0 0 -3.9050060075138005e-8 -4.0124340936249913e-8 -7.823899830478197e-8 -8.023972711339304e-8
          0 -4.0951305797676975e-8 -8.190520822399556e-8 0 -4.221861667691169e-8 -8.443702879803912e-8
          0 -4.391287953941226e-8 -8.782496412115531e-8 0 0 0
          0 -4.2826382212978624e-8 -4.297459909196406e-8 -4.303374828144907e-8 -4.290625489125427e-8 -8.565163920073975e-8
          -8.595080998175773e-8 -8.606631695397789e-8 -8.581001531234409e-8 0 -4.3950381203068915e-8 -8.789893063181512e-8
          0 0 -4.279248326874077e-8 -4.267521057876463e-8 -8.55925025943572e-8 -8.535773653230609e-8
          0 0 0 0 -4.379573776727469e-8 -4.378015190864942e-8
          -4.380520284001609e-8 -4.385462266919775e-8 -8.758920306555512e-8 -8.756466225130155e-8 -8.760870102838423e-8 -8.771023094126708e-8
          0 0 -4.317445388838045e-8 -4.315186033196235e-8 -8.634644477402533e-8 -8.630437125202233e-8
          0 0 -4.389683843981847e-8 -4.38299604294124e-8 -8.77945342659955e-8 -8.765973435998791e-8
          0 0 0 -4.298966216514986e-8 -4.292076071544953e-8 -4.2913343014080164e-8
          -8.59776782401985e-8 -8.585019475210868e-8 -8.580970349543802e-8 0 0 0
          0 -4.353957621735068e-8 -4.3588370294154206e-8 -4.353561351065173e-8 -4.349220929662355e-8 -8.707832773626812e-8
          -8.717628187002866e-8 -8.707161367288424e-8 -8.698438481582346e-8 0 0 0
          -4.37750478852791e-8 -4.372736239010108e-8 -4.371213973087007e-8 -8.755661118987653e-8 -8.745384064628799e-8 -8.742220445740896e-8
          0 0 0 0 -4.384431219364267e-8 -4.385083649298657e-8
          -4.3797906004825424e-8 -4.3771287459402994e-8 -8.768755361355066e-8 -8.770688471522076e-8 -8.759448210098256e-8 -8.754143063678767e-8
          0 0 -4.3261858272817905e-8 -4.329789487804203e-8 -8.653013169770969e-8 -8.659818333484321e-8
          0 0 0 0 -4.33230041128281e-8 -4.337970462212299e-8
          -4.343439766621517e-8 -4.337133284310828e-8 -8.664606247589706e-8 -8.675887510112047e-8 -8.68693469623735e-8 -8.674324190023683e-8
          0 0 0 -4.337106961224058e-8 -4.33835922740456e-8 -4.342088015915206e-8
          -8.674309109248411e-8 -8.676153977394834e-8 -8.684280036816444e-8 0 0 -4.326324457451037e-8
          -4.332909572237279e-8 -8.652675350630792e-8 -8.665881163414377e-8 0 0 0
          0 -4.327650885712045e-8 -4.332292732852429e-8 -4.336231389045228e-8 -4.333407033344615e-8 -8.655228726890922e-8
          -8.664563676403403e-8 -8.67270324925512e-8 -8.666903157154726e-8 0 0 -4.345552022769531e-8
          -4.350129359370653e-8 -8.691096680938039e-8 -8.700113203118797e-8 0 0 -4.3731561479168464e-8
          -4.371676847794114e-8 -8.746329296425778e-8 -8.743566439547552e-8 0 0 -4.37852427096123e-8
          -4.3737945451545214e-8 -8.756892399163136e-8 -8.747458396798094e-8 0 0 0
          0 -4.3446939384853545e-8 -4.3422349183446556e-8 -4.352768749630396e-8 -4.355301925603433e-8 -8.689363868125989e-8
          -8.684441061865681e-8 -8.705460249460573e-8 -8.71052071975576e-8 0 -4.344410657027673e-8 -8.688841702117628e-8
          0 -4.3826535702671064e-8 -8.765496219522538e-8 0 0 -4.40165167911711e-8
          -4.3995461917625e-8 -8.80321222824548e-8 -8.799171755065737e-8 0 0 -4.309694026631609e-8
          -4.297179713600621e-8 -8.619674280655829e-8 -8.594594527134636e-8 0 0 -4.269396819534317e-8
          -4.258239916613061e-8 -8.539745443437447e-8 -8.513241569115009e-8 0 -4.321068634265301e-8 -8.641973973046467e-8
          0 0 -4.340987996984743e-8 -4.327118226848348e-8 -8.682111142008664e-8 -8.65428430136293e-8
          0 0 0 0 -4.320467519502683e-8 -4.3150060874346397e-8
          -4.3062974074446095e-8 -4.313314444911838e-8 -8.640909717781581e-8 -8.629956461814306e-8 -8.61273481272799e-8 -8.626653723467834e-8
          0 0 -4.365454565796499e-8 -4.367339148678688e-8 -8.731078201621161e-8 -8.734690750631487e-8
          0 0 0 -4.282457836741273e-8 -4.2981842228175625e-8 -4.297695027128762e-8
          -8.563390978083921e-8 -8.59594272975552e-8 -8.595843493399603e-8 0 0 0
          -4.3634314451430107e-8 -4.3524760841589944e-8 -4.3626316611778504e-8 -8.726823952250093e-8 -8.704931653782975e-8 -8.725365080890203e-8
          0 -4.3608358101342077e-8 -8.72146509614471e-8 0 -4.3717523355551925e-8 -8.74345826059251e-8
          0 0 -4.3726851851630755e-8 -4.3631832735040537e-8 -8.745226119183809e-8 -8.726295885892052e-8
          0 0 -4.306723693221303e-8 -4.316249702952533e-8 -8.613782277932786e-8 -8.632520395353835e-8
          0 -4.3484540892662276e-8 -8.696904247246293e-8 0 0 -4.397338788305231e-8
          -4.3945516249145755e-8 -8.79458613526713e-8 -8.789110808988981e-8 0 -4.404026070831747e-8 -8.808214610731196e-8
          0 0 0 0 -4.3649845874172575e-8 -4.362507778196672e-8
          -4.359805302320111e-8 -4.362213004859097e-8 -8.729951156510761e-8 -8.724768218330226e-8 -8.719690068984947e-8 -8.724491163400472e-8
          0 -4.308084348976634e-8 -8.615961510602341e-8 0 0 -4.3357762720598265e-8
          -4.331867951923683e-8 -8.671542102863261e-8 -8.663669508084203e-8 0 -4.3516491080254074e-8 -8.703188142570096e-8
          0 0 -4.39563999375255e-8 -4.3915075290978066e-8 -8.791316622502258e-8 -8.783051076194668e-8
          0 -4.380269278154384e-8 -8.760630386187427e-8 0 0 0
          -4.3290998286811047e-8 -4.339112804580915e-8 -4.333040595885239e-8 -8.658110128665764e-8 -8.678253678655891e-8 -8.665837653057794e-8
          0 0 -4.37008102833343e-8 -4.365086049322441e-8 -8.74024981943276e-8 -8.730407133052385e-8
          0 0 -4.3576218661306855e-8 -4.355041399392231e-8 -8.715295866113066e-8 -8.710018559229286e-8
          0 0 -4.360867545949295e-8 -4.356419792747079e-8 -8.72174220140627e-8 -8.712809261496092e-8
          0 0 -4.367303249659281e-8 -4.367383331279622e-8 -8.734527782237296e-8 -8.734553746907284e-8
          0 -4.354891763122619e-8 -8.709714129597003e-8 0 -4.340068392382031e-8 -8.680080277957211e-8
          0 -4.3548684194723485e-8 -8.709630221657888e-8 0 -4.3542826067229924e-8 -8.709117713255219e-8
          0 -4.350137702141528e-8 -8.700402077211644e-8 0 -4.396654349879191e-8 -8.793239651815305e-8
          0 0 -4.321836603220597e-8 -4.3268083537747037e-8 -8.6437221225398e-8 -8.653577689500833e-8
          0 0 -4.37858081767001e-8 -4.37508204671131e-8 -8.757283442121954e-8 -8.750223005689094e-8
          0 -4.3677844527387845e-8 -8.735498603542017e-8 0 -4.343052721696444e-8 -8.686197409282271e-8
          0 0 0 -4.3862667569434625e-8 -4.388867585944336e-8 -4.381099819927085e-8
          -8.772495417840267e-8 -8.777788245601843e-8 -8.762333977945932e-8 0 0 -4.376217353219858e-8
          -4.370670835605732e-8 -8.752352224367798e-8 -8.741325199342682e-8 0 -4.3925439949789124e-8 -8.785139645829025e-8
          0 -4.3162858434660815e-8 -8.63251308838292e-8 0 -4.3657947159489024e-8 -8.731634649075473e-8
          0 -4.3755079126575e-8 -8.751119036325157e-8 0 -4.398342479083755e-8 -8.79672614370364e-8
          0 -4.348157604399538e-8 -8.69615343918685e-8 0 -4.3398633348461945e-8 -8.679770488010378e-8
          0 -4.384587072307655e-8 -8.768935288988426e-8 0 -4.374900790502869e-8 -8.749587013426089e-8
          0 -4.393336253882555e-8 -8.786328339648479e-8 0 -4.363508632597708e-8 -8.72654665305014e-8
          0 -4.391861519183569e-8 -8.783863430644344e-8 0 -4.350483785476752e-8 -8.700828923461398e-8
          0 -4.3222376352247335e-8 -8.644427107879003e-8 0 -4.3508706986589475e-8 -8.701707704807789e-8
          0 -4.3139316460679305e-8 -8.627849706980505e-8 0 -4.327694615225401e-8 -8.655391900258274e-8
          0 -4.320170782303106e-8 -8.64036686562831e-8 0 -4.363150988500781e-8 -8.726651190001072e-8
          0 -4.3624945151989065e-8 -8.724991317454622e-8 0 0 -4.3636413266015465e-8
          -4.351089864043348e-8 -8.727696918404535e-8 -8.702554304412687e-8 0 -4.3737328843710184e-8 -8.747552181452061e-8
          0 0 -4.251067676927541e-8 -4.250143585108919e-8 -8.502490408328984e-8 -8.501173154848622e-8
          0 -4.3381395661875654e-8 -8.67587574119622e-8 0 -4.322970629094603e-8 -8.645904339950009e-8
          0 -4.3060329992149847e-8 -8.611740623653275e-8 0 0 -4.347765725020068e-8
          -4.351822967674485e-8 -8.695535111949462e-8 -8.703782925555336e-8 0 0 0
          -4.383369906583511e-8 -4.382570346161328e-8 -4.384450363125407e-8 -8.766764089258681e-8 -8.764934259789057e-8 -8.76896319345839e-8
          0 -4.359638112622648e-8 -8.719400020569043e-8 0 -4.360192255299989e-8 -8.720514028753057e-8
          0 0 -4.3430696707788946e-8 -4.336934839747792e-8 -8.686165900946367e-8 -8.673900302839017e-8
          0 0 -4.3600022911510035e-8 -4.355971936673396e-8 -8.719929838045566e-8 -8.712066032441453e-8
          0 0 -4.3740250375291924e-8 -4.369310562234873e-8 -8.74814170309633e-8 -8.738686100603543e-8
          0 0 -4.371814584772874e-8 -4.3677187584765406e-8 -8.743634124736253e-8 -8.735484923750446e-8
          0 -4.3779084020180326e-8 -8.75584740022022e-8 0 0 -4.405695518493363e-8
          -4.4021063898608854e-8 -8.811513365963147e-8 -8.804075609927057e-8 0 -4.3873199208346784e-8 -8.774605030857394e-8
          0 0 -4.3956025052327166e-8 -4.398111253728956e-8 -8.791296438755966e-8 -8.796176726755936e-8
          0 -4.389044779978919e-8 -8.777913516993444e-8 0 -4.363751202544671e-8 -8.72754045929798e-8
          0 -4.393026214891486e-8 -8.786056469679498e-8
        </DataArray>
      </PointData>
      <CellData>
        <DataArray type="Int32" Name="libmesh_elem_id" format="ascii" RangeMin="1184" RangeMax="3139">
          1184 1185 1192 1193 1194 1195
          1196 1197 1198 1199 1200 1201
          1202 1203 1210 1211 1212 1213
          1214 1215 1216 1217 1218 1219
          1220 1221 1226 1227 1228 1229
          1230 1231 1232 1233 1234 1235
          1236 1237 1238 1239 1244 1245
          1246 1247 1248 1249 1250 1251
          1252 1253 1254 1255 1256 1257
          1262 1263 1264 1265 1266 1267
          1268 1269 1270 1271 1272 1273
          1274 1275 1280 1281 1282 1283
          1284 1285 1286 1287 1288 1289
          1290 1291 1292 1293 1294 1295
          1296 1297 1298 1299 1302 1303
          1308 1309 1310 1311 1312 1313
          1318 1319 1320 1321 1322 1323
          1324 1325 1332 1333 1334 1335
          1336 1337 1340 1341 1342 1343
          1346 1347 1350 1351 1352 1353
          1354 1355 1362 1363 1364 1365
          1368 1369 1370 1371 1382 1383
          1396 1397 1408 1409 1452 1453
          1456 1457 1468 1469 1476 1477
          1486 1487 1510 1511 1518 1519
          1532 1533 1558 1559 1560 1561
          1564 1565 1566 1567 1570 1571
          1586 1587 1602 1603 1618 1619
          1622 1623 1628 1629 1634 1635
          1680 1681 1686 1687 1696 1697
          1700 1701 1708 1709 1710 1711
          1728 1729 1740 1741 1750 1751
          1754 1755 1764 1765 1766 1767
          1782 1783 1804 1805 1814 1815
          1836 1837 1868 1869 1880 1881
          1884 1885 1890 1891 1900 1901
          1908 1909 1918 1919 1928 1929
          1948 1949 1952 1953 1968 1969
          1970 1971 1972 1973 1986 1987
          2004 2005 2006 2007 2008 2009
          2014 2015 2018 2019 2020 2021
          2030 2031 2040 2041 2044 2045
          2050 2051 2062 2063 2064 2065
          2068 2069 2082 2083 2092 2093
          2120 2121 2128 2129 2130 2131
          2134 2135 2146 2147 2160 2161
          2180 2181 2184 2185 2186 2187
          2208 2209 2214 2215 2216 2217
          2230 2231 2234 2235 2248 2249
          2262 2263 2270 2271 2276 2277
          2286 2287 2292 2293 2294 2295
          2296 2297 2302 2303 2304 2305
          2314 2315 2316 2317 2320 2321
          2330 2331 2332 2333 2344 2345
          2354 2355 2362 2363 2366 2367
          2374 2375 2382 2383 2390 2391
          2400 2401 2404 2405 2408 2409
          2410 2411 2412 2413 2414 2415
          2430 2431 2440 2441 2448 2449
          2456 2457 2460 2461 2474 2475
          2486 2487 2494 2495 2498 2499
          2500 2501 2506 2507 2520 2521
          2522 2523 2564 2565 2572 2573
          2578 2579 2586 2587 2592 2593
          2596 2597 2600 2601 2620 2621
          2624 2625 2658 2659 2660 2661
          2670 2671 2688 2689 2694 2695
          2722 2723 2754 2755 2764 2765
          2778 2779 2780 2781 2796 2797
          2824 2825 2832 2833 2846 2847
          2848 2849 2862 2863 2870 2871
          2878 2879 2880 2881 2886 2887
          2902 2903 2930 2931 2940 2941
          2958 2959 2968 2969 2988 2989
          3062 3063 3064 3065 3090 3091
          3106 3107 3132 3133 3138 3139
        </DataArray>
        <DataArray type="Int32" Name="subdomain_id" format="ascii" RangeMin="105" RangeMax="143">
          105 105 105 105 105 105
          105 105 105 105 105 105
          105 105 105 105 105 105
          105 105 105 105 105 105
          105 105 105 105 105 105
          105 105 105 105 105 105
          105 105 105 105 105 105
          105 105 105 105 105 105
          105 105 105 105 105 105
          105 105 105 105 105 105
          105 105 105 105 105 105
          105 105 105 105 105 105
          105 105 105 105 105 105
          105 105 105 105 106 106
          106 106 106 106 106 106
          106 106 106 106 106 106
          106 106 106 106 106 106
          106 106 106 106 106 106
          106 106 106 106 106 106
          106 106 106 106 106 106
          106 106 143 143 143 143
          143 143 143 143 107 107
          107 107 107 107 107 107
          107 107 107 107 107 107
          107 107 107 107 107 107
          107 107 107 107 107 107
          107 107 107 107 107 107
          107 107 107 107 107 107
          107 107 107 107 107 107
          107 107 107 107 107 107
          107 107 107 107 107 107
          107 107 107 107 107 107
          107 107 107 107 107 107
          107 107 107 107 107 107
          107 107 107 107 107 107
          107 107 107 107 107 107
          107 107 107 107 107 107
          107 107 107 107 107 107
          107 107 107 107 107 107
          107 107 107 107 107 107
          107 107 107 107 107 107
          107 107 107 107 107 107
          107 107 107 107 107 107
          107 107 107 107 107 107
          107 107 107 107 107 107
          107 107 107 107 107 107
          107 107 107 107 107 107
          107 107 107 107 107 107
          107 107 107 107 107 107
          107 107 107 107 107 107
          107 107 107 107 107 107
          107 107 107 107 107 107
          107 107 107 107 107 107
          107 107 107 107 107 107
          107 107 107 107 107 107
          107 107 107 107 107 107
          107 107 107 107 107 107
          107 107 107 107 107 107
          107 107 107 107 107 107
          107 107 107 107 107 107
          107 107 107 107 107 107
          107 107 107 107 107 107
          107 107 107 107 107 107
          107 107 107 107 107 107
          107 107 107 107 107 107
          107 107 107 107 107 107
          107 107 107 107 107 107
          107 107 107 107 107 107
          107 107 107 107 107 107
          107 107 107 107 107 107
          107 107 107 107 107 107
          107 107 107 107 107 107
          107 107 107 107 107 107
          107 107 107 107 107 107
          107 107 107 107 107 107
          107 107 107 107 107 107
        </DataArray>
        <DataArray type="Int32" Name="processor_id" format="ascii" RangeMin="4" RangeMax="4">
          4 4 4 4 4 4
          4 4 4 4 4 4
          4 4 4 4 4 4
          4 4 4 4 4 4
          4 4 4 4 4 4
          4 4 4 4 4 4
          4 4 4 4 4 4
          4 4 4 4 4 4
          4 4 4 4 4 4
          4 4 4 4 4 4
          4 4 4 4 4 4
          4 4 4 4 4 4
          4 4 4 4 4 4
          4 4 4 4 4 4
          4 4 4 4 4 4
          4 4 4 4 4 4
          4 4 4 4 4 4
          4 4 4 4 4 4
          4 4 4 4 4 4
          4 4 4 4 4 4
          4 4 4 4 4 4
          4 4 4 4 4 4
          4 4 4 4 4 4
          4 4 4 4 4 4
          4 4 4 4 4 4
          4 4 4 4 4 4
          4 4 4 4 4 4
          4 4 4 4 4 4
          4 4 4 4 4 4
          4 4 4 4 4 4
          4 4 4 4 4 4
          4 4 4 4 4 4
          4 4 4 4 4 4
          4 4 4 4 4 4
          4 4 4 4 4 4
          4 4 4 4 4 4
          4 4 4 4 4 4
          4 4 4 4 4 4
          4 4 4 4 4 4
          4 4 4 4 4 4
          4 4 4 4 4 4
          4 4 4 4 4 4
          4 4 4 4 4 4
          4 4 4 4 4 4
          4 4 4 4 4 4
          4 4 4 4 4 4
          4 4 4 4 4 4
          4 4 4 4 4 4
          4 4 4 4 4 4
          4 4 4 4 4 4
          4 4 4 4 4 4
          4 4 4 4 4 4
          4 4 4 4 4 4
          4 4 4 4 4 4
          4 4 4 4 4 4
          4 4 4 4 4 4
          4 4 4 4 4 4
          4 4 4 4 4 4
          4 4 4 4 4 4
          4 4 4 4 4 4
          4 4 4 4 4 4
          4 4 4 4 4 4
          4 4 4 4 4 4
          4 4 4 4 4 4
          4 4 4 4 4 4
          4 4 4 4 4 4
          4 4 4 4 4 4
          4 4 4 4 4 4
          4 4 4 4 4 4
          4 4 4 4 4 4
          4 4 4 4 4 4
          4 4 4 4 4 4
          4 4 4 4 4 4
          4 4 4 4 4 4
          4 4 4 4 4 4
          4 4 4 4 4 4
        </DataArray>
      </CellData>
      <Points>
        <DataArray type="Float64" Name="Points" NumberOfComponents="3" format="ascii" RangeMin="0.009206309225653747" RangeMax="0.01648243122598367">
          0.005 0.0086896551724064 0 0.005 0.0086896551724064 0.00015
          0.005 0.0086896551724064 0.0003 0.0045555555555561 0.0091034482758539 0
          0.0045555555555561 0.0091034482758539 0.00015 0.0045555555555561 0.0091034482758539 0.0003
          0.005 0.0091034482758539 0 0.005 0.0091034482758539 0.00015
          0.005 0.0091034482758539 0.0003 0.0023333333333353 0.0095172413793029 0
          0.0023333333333353 0.0095172413793029 0.00015 0.0023333333333353 0.0095172413793029 0.0003
          0.0027777777777802 0.0095172413793029 0 0.0027777777777802 0.0095172413793029 0.00015
          0.0027777777777802 0.0095172413793029 0.0003 0.0032222222222248 0.0095172413793029 0
          0.0032222222222248 0.0095172413793029 0.00015 0.0032222222222248 0.0095172413793029 0.0003
          0.0036666666666675 0.0095172413793029 0 0.0036666666666675 0.0095172413793029 0.00015
          0.0036666666666675 0.0095172413793029 0.0003 0.0041111111111126 0.0095172413793029 0
          0.0041111111111126 0.0095172413793029 0.00015 0.0041111111111126 0.0095172413793029 0.0003
          0.0045555555555561 0.0095172413793029 0 0.0045555555555561 0.0095172413793029 0.00015
          0.0045555555555561 0.0095172413793029 0.0003 0.005 0.0095172413793029 0
          0.005 0.0095172413793029 0.00015 0.005 0.0095172413793029 0.0003
          0.0023333333333355 0.0099310344827529 0 0.0023333333333355 0.0099310344827529 0.00015
          0.0023333333333355 0.0099310344827529 0.0003 0.0027777777777806 0.0099310344827529 0
          0.0027777777777806 0.0099310344827529 0.00015 0.0027777777777806 0.0099310344827529 0.0003
          0.0032222222222251 0.0099310344827529 0 0.0032222222222251 0.0099310344827529 0.00015
          0.0032222222222251 0.0099310344827529 0.0003 0.0036666666666677 0.0099310344827529 0
          0.0036666666666677 0.0099310344827529 0.00015 0.0036666666666677 0.0099310344827529 0.0003
          0.0041111111111127 0.0099310344827529 0 0.0041111111111127 0.0099310344827529 0.00015
          0.0041111111111127 0.0099310344827529 0.0003 0.0045555555555561 0.0099310344827529 0
          0.0045555555555561 0.0099310344827529 0.00015 0.0045555555555561 0.0099310344827529 0.0003
          0.005 0.0099310344827529 0 0.005 0.0099310344827529 0.00015
          0.005 0.0099310344827529 0.0003 0.0018888888888904 0.010344827586203 0
          0.0018888888888904 0.010344827586203 0.00015 0.0018888888888904 0.010344827586203 0.0003
          0.0023333333333357 0.010344827586203 0 0.0023333333333357 0.010344827586203 0.00015
          0.0023333333333357 0.010344827586203 0.0003 0.0027777777777809 0.010344827586203 0
          0.0027777777777809 0.010344827586203 0.00015 0.0027777777777809 0.010344827586203 0.0003
          0.0032222222222255 0.010344827586203 0 0.0032222222222255 0.010344827586203 0.00015
          0.0032222222222255 0.010344827586203 0.0003 0.0036666666666679 0.010344827586203 0
          0.0036666666666679 0.010344827586203 0.00015 0.0036666666666679 0.010344827586203 0.0003
          0.0041111111111129 0.010344827586203 0 0.0041111111111129 0.010344827586203 0.00015
          0.0041111111111129 0.010344827586203 0.0003 0.0045555555555562 0.010344827586203 0
          0.0045555555555562 0.010344827586203 0.00015 0.0045555555555562 0.010344827586203 0.0003
          0.005 0.010344827586203 0 0.005 0.010344827586203 0.00015
          0.005 0.010344827586203 0.0003 0.0018888888888905 0.010758620689653 0
          0.0018888888888905 0.010758620689653 0.00015 0.0018888888888905 0.010758620689653 0.0003
          0.0023333333333359 0.010758620689653 0 0.0023333333333359 0.010758620689653 0.00015
          0.0023333333333359 0.010758620689653 0.0003 0.0027777777777812 0.010758620689653 0
          0.0027777777777812 0.010758620689653 0.00015 0.0027777777777812 0.010758620689653 0.0003
          0.0032222222222258 0.010758620689653 0 0.0032222222222258 0.010758620689653 0.00015
          0.0032222222222258 0.010758620689653 0.0003 0.0036666666666681 0.010758620689653 0
          0.0036666666666681 0.010758620689653 0.00015 0.0036666666666681 0.010758620689653 0.0003
          0.004111111111113 0.010758620689653 0 0.004111111111113 0.010758620689653 0.00015
          0.004111111111113 0.010758620689653 0.0003 0.0045555555555562 0.010758620689653 0
          0.0045555555555562 0.010758620689653 0.00015 0.0045555555555562 0.010758620689653 0.0003
          0.005 0.010758620689653 0 0.005 0.010758620689653 0.00015
          0.005 0.010758620689653 0.0003 0.0018888888888907 0.0111724137931 0
          0.0018888888888907 0.0111724137931 0.00015 0.0018888888888907 0.0111724137931 0.0003
          0.002333333333336 0.0111724137931 0 0.002333333333336 0.0111724137931 0.00015
          0.002333333333336 0.0111724137931 0.0003 0.0027777777777815 0.0111724137931 0
          0.0027777777777815 0.0111724137931 0.00015 0.0027777777777815 0.0111724137931 0.0003
          0.0032222222222261 0.0111724137931 0 0.0032222222222261 0.0111724137931 0.00015
          0.0032222222222261 0.0111724137931 0.0003 0.0036666666666682 0.0111724137931 0
          0.0036666666666682 0.0111724137931 0.00015 0.0036666666666682 0.0111724137931 0.0003
          0.0041111111111132 0.0111724137931 0 0.0041111111111132 0.0111724137931 0.00015
          0.0041111111111132 0.0111724137931 0.0003 0.0045555555555562 0.0111724137931 0
          0.0045555555555562 0.0111724137931 0.00015 0.0045555555555562 0.0111724137931 0.0003
          0.005 0.0111724137931 0 0.005 0.0111724137931 0.00015
          0.005 0.0111724137931 0.0003 0.0018888888888908 0.01158620689655 0
          0.0018888888888908 0.01158620689655 0.00015 0.0018888888888908 0.01158620689655 0.0003
          0.0023333333333362 0.01158620689655 0 0.0023333333333362 0.01158620689655 0.00015
          0.0023333333333362 0.01158620689655 0.0003 0.0027777777777818 0.01158620689655 0
          0.0027777777777818 0.01158620689655 0.00015 0.0027777777777818 0.01158620689655 0.0003
          0.0032222222222264 0.01158620689655 0 0.0032222222222264 0.01158620689655 0.00015
          0.0032222222222264 0.01158620689655 0.0003 0.0036666666666684 0.01158620689655 0
          0.0036666666666684 0.01158620689655 0.00015 0.0036666666666684 0.01158620689655 0.0003
          0.0041111111111133 0.01158620689655 0 0.0041111111111133 0.01158620689655 0.00015
          0.0041111111111133 0.01158620689655 0.0003 0.0045555555555563 0.01158620689655 0
          0.0045555555555563 0.01158620689655 0.00015 0.0045555555555563 0.01158620689655 0.0003
          0.005 0.01158620689655 0 0.005 0.01158620689655 0.00015
          0.005 0.01158620689655 0.0003 0.0018888888888909 0.012 0
          0.0018888888888909 0.012 0.00015 0.0018888888888909 0.012 0.0003
          0.0023333333333364 0.012 0 0.0023333333333364 0.012 0.00015
          0.0023333333333364 0.012 0.0003 0.0027777777777821 0.012 0
          0.0027777777777821 0.012 0.00015 0.0027777777777821 0.012 0.0003
          0.0032222222222267 0.012 0 0.0032222222222267 0.012 0.00015
          0.0032222222222267 0.012 0.0003 0.0036666666666686 0.012 0
          0.0036666666666686 0.012 0.00015 0.0036666666666686 0.012 0.0003
          0.0041111111111135 0.012 0 0.0041111111111135 0.012 0.00015
          0.0041111111111135 0.012 0.0003 0.0045555555555563 0.012 0
          0.0045555555555563 0.012 0.00015 0.0045555555555563 0.012 0.0003
          0.005 0.012 0 0.005 0.012 0.00015
          0.005 0.012 0.0003 0.0037820013226837 0.012336480560236 0
          0.004185794034024 0.012345264070133 0 0.0042342826387353 0.012652901224832 0
          0.0038676442772706 0.012640465852933 0 0.0037820013226837 0.012336480560236 0.00015
          0.004185794034024 0.012345264070133 0.00015 0.0042342826387353 0.012652901224832 0.00015
          0.0038676442772706 0.012640465852933 0.00015 0.0037820013226837 0.012336480560236 0.0003
          0.004185794034024 0.012345264070133 0.0003 0.0042342826387353 0.012652901224832 0.0003
          0.0038676442772706 0.012640465852933 0.0003 0.0025889714655165 0.012382221976315 0
          0.0025681692138844 0.01272809974993 0 0.0020604062010233 0.012679406151259 0
          0.0021948734460593 0.012348192846391 0 0.0025889714655165 0.012382221976315 0.00015
          0.0025681692138844 0.01272809974993 0.00015 0.0020604062010233 0.012679406151259 0.00015
          0.0021948734460593 0.012348192846391 0.00015 0.0025889714655165 0.012382221976315 0.0003
          0.0025681692138844 0.01272809974993 0.0003 0.0020604062010233 0.012679406151259 0.0003
          0.0021948734460593 0.012348192846391 0.0003 0.0029921846324185 0.012381457466683 0
          0.0030781171064664 0.012687491868191 0 0.0029921846324185 0.012381457466683 0.00015
          0.0030781171064664 0.012687491868191 0.00015 0.0029921846324185 0.012381457466683 0.0003
          0.0030781171064664 0.012687491868191 0.0003 0.0035064061826528 0.012674722493539 0
          0.0033673902656471 0.012343623774248 0 0.0035064061826528 0.012674722493539 0.00015
          0.0033673902656471 0.012343623774248 0.00015 0.0035064061826528 0.012674722493539 0.0003
          0.0033673902656471 0.012343623774248 0.0003 0.0045893247731344 0.012399526217393 0
          0.004557077400537 0.01272310643902 0 0.0045893247731344 0.012399526217393 0.00015
          0.004557077400537 0.01272310643902 0.00015 0.0045893247731344 0.012399526217393 0.0003
          0.004557077400537 0.01272310643902 0.0003 0.0017386847932316 0.012348636106575 0
          0.001702980389272 0.012655949584096 0 0.0017386847932316 0.012348636106575 0.00015
          0.001702980389272 0.012655949584096 0.00015 0.0017386847932316 0.012348636106575 0.0003
          0.001702980389272 0.012655949584096 0.0003 0.0045555555555563 0.013 0
          0.0041111111111135 0.013 0 0.0045555555555563 0.013 0.00015
          0.0041111111111135 0.013 0.00015 0.0045555555555563 0.013 0.0003
          0.0041111111111135 0.013 0.0003 0.005 0.012499999999989 0
          0.005 0.012499999999989 0.00015 0.005 0.012499999999989 0.0003
          0.0018888888888909 0.013 0 0.0018888888888909 0.013 0.00015
          0.0018888888888909 0.013 0.0003 0.0023333333333364 0.013 0
          0.0023333333333364 0.013 0.00015 0.0023333333333364 0.013 0.0003
          0.0027777777777821 0.013 0 0.0032222222222267 0.013 0
          0.0027777777777821 0.013 0.00015 0.0032222222222267 0.013 0.00015
          0.0027777777777821 0.013 0.0003 0.0032222222222267 0.013 0.0003
          0.0036666666666686 0.013 0 0.0036666666666686 0.013 0.00015
          0.0036666666666686 0.013 0.0003 0.005 0.013 0
          0.005 0.013 0.00015 0.005 0.013 0.0003
          0.0058653844060618 0.0079194158644502 0 0.0058653844060618 0.0079194158644502 0.00015
          0.0058653844060618 0.0079194158644502 0.0003 0.0054092385319303 0.011645775400863 0
          0.0053833488776842 0.01122289251627 0 0.0057681451700529 0.011227839215398 0
          0.0058121034548515 0.011664867476358 0 0.0054092385319303 0.011645775400863 0.00015
          0.0053833488776842 0.01122289251627 0.00015 0.0057681451700529 0.011227839215398 0.00015
          0.0058121034548515 0.011664867476358 0.00015 0.0054092385319303 0.011645775400863 0.0003
          0.0053833488776842 0.01122289251627 0.0003 0.0057681451700529 0.011227839215398 0.0003
          0.0058121034548515 0.011664867476358 0.0003 0.0061750164335738 0.0074760206739226 0
          0.0061750164335738 0.0074760206739226 0.00015 0.0061750164335738 0.0074760206739226 0.0003
          0.0059117305299751 0.012157336766967 0 0.005424823391927 0.012092657417535 0
          0.0059117305299751 0.012157336766967 0.00015 0.005424823391927 0.012092657417535 0.00015
          0.0059117305299751 0.012157336766967 0.0003 0.005424823391927 0.012092657417535 0.0003
          0.0067343691031854 0.0082749920647978 0 0.0064165220606644 0.0085260954574503 0
          0.0061549788754448 0.0084621147205563 0 0.0063465715243025 0.0080645757596712 0
          0.0067343691031854 0.0082749920647978 0.00015 0.0064165220606644 0.0085260954574503 0.00015
          0.0061549788754448 0.0084621147205563 0.00015 0.0063465715243025 0.0080645757596712 0.00015
          0.0067343691031854 0.0082749920647978 0.0003 0.0064165220606644 0.0085260954574503 0.0003
          0.0061549788754448 0.0084621147205563 0.0003 0.0063465715243025 0.0080645757596712 0.0003
          0.0057156085606184 0.010806935576218 0 0.0053556270258422 0.010821833746382 0
          0.0057156085606184 0.010806935576218 0.00015 0.0053556270258422 0.010821833746382 0.00015
          0.0057156085606184 0.010806935576218 0.0003 0.0053556270258422 0.010821833746382 0.0003
          0.0066683322798844 0.007604545062767 0 0.0070645065688863 0.0079329639302151 0
          0.0066683322798844 0.007604545062767 0.00015 0.0070645065688863 0.0079329639302151 0.00015
          0.0066683322798844 0.007604545062767 0.0003 0.0070645065688863 0.0079329639302151 0.0003
          0.0064939459679252 0.012038015964773 0 0.0063228400853618 0.012437164584428 0
          0.0062168099714575 0.011953445524179 0 0.0064939459679252 0.012038015964773 0.00015
          0.0063228400853618 0.012437164584428 0.00015 0.0062168099714575 0.011953445524179 0.00015
          0.0064939459679252 0.012038015964773 0.0003 0.0063228400853618 0.012437164584428 0.0003
          0.0062168099714575 0.011953445524179 0.0003 0.0085394683783431 0.010062707851298 0
          0.0089610661825476 0.0099263712092025 0 0.0091044702108566 0.010399281799278 0
          0.0086466489465924 0.010543823526793 0 0.0085394683783431 0.010062707851298 0.00015
          0.0089610661825476 0.0099263712092025 0.00015 0.0091044702108566 0.010399281799278 0.00015
          0.0086466489465924 0.010543823526793 0.00015 0.0085394683783431 0.010062707851298 0.0003
          0.0089610661825476 0.0099263712092025 0.0003 0.0091044702108566 0.010399281799278 0.0003
          0.0086466489465924 0.010543823526793 0.0003 0.0070988195317831 0.0084027120924791 0
          0.0071605082668525 0.0086998196459927 0 0.0067922174506807 0.0087792626202703 0
          0.0070988195317831 0.0084027120924791 0.00015 0.0071605082668525 0.0086998196459927 0.00015
          0.0067922174506807 0.0087792626202703 0.00015 0.0070988195317831 0.0084027120924791 0.0003
          0.0071605082668525 0.0086998196459927 0.0003 0.0067922174506807 0.0087792626202703 0.0003
          0.0082212914374119 0.0076937845711927 0 0.0086800066977864 0.007743247126247 0
          0.0088477729813042 0.00814241905886 0 0.0083314775318771 0.0082316914297717 0
          0.0082212914374119 0.0076937845711927 0.00015 0.0086800066977864 0.007743247126247 0.00015
          0.0088477729813042 0.00814241905886 0.00015 0.0083314775318771 0.0082316914297717 0.00015
          0.0082212914374119 0.0076937845711927 0.0003 0.0086800066977864 0.007743247126247 0.0003
          0.0088477729813042 0.00814241905886 0.0003 0.0083314775318771 0.0082316914297717 0.0003
          0.0053430701544214 0.010541301697294 0 0.0055999206723275 0.01043253025418 0
          0.0053430701544214 0.010541301697294 0.00015 0.0055999206723275 0.01043253025418 0.00015
          0.0053430701544214 0.010541301697294 0.0003 0.0055999206723275 0.01043253025418 0.0003
          0.0082934157409751 0.011625007594535 0 0.0082561968973057 0.011128478524087 0
          0.0087259762319724 0.011059252375005 0 0.0087558560903097 0.01158375342748 0
          0.0082934157409751 0.011625007594535 0.00015 0.0082561968973057 0.011128478524087 0.00015
          0.0087259762319724 0.011059252375005 0.00015 0.0087558560903097 0.01158375342748 0.00015
          0.0082934157409751 0.011625007594535 0.0003 0.0082561968973057 0.011128478524087 0.0003
          0.0087259762319724 0.011059252375005 0.0003 0.0087558560903097 0.01158375342748 0.0003
          0.0059886023840467 0.010204624020488 0 0.005451541046517 0.010106162675601 0
          0.0057038380696848 0.0099786893665285 0 0.0059886023840467 0.010204624020488 0.00015
          0.005451541046517 0.010106162675601 0.00015 0.0057038380696848 0.0099786893665285 0.00015
          0.0059886023840467 0.010204624020488 0.0003 0.005451541046517 0.010106162675601 0.0003
          0.0057038380696848 0.0099786893665285 0.0003 0.0078369912454539 0.011665931946432 0
          0.0078144148304188 0.011182309200361 0 0.0078369912454539 0.011665931946432 0.00015
          0.0078144148304188 0.011182309200361 0.00015 0.0078369912454539 0.011665931946432 0.0003
          0.0078144148304188 0.011182309200361 0.0003 0.0086735759699153 0.012550377000034 0
          0.0087327775394086 0.012086203404192 0 0.0091819131238462 0.012082911785298 0
          0.0091730578335362 0.01253941989127 0 0.0086735759699153 0.012550377000034 0.00015
          0.0087327775394086 0.012086203404192 0.00015 0.0091819131238462 0.012082911785298 0.00015
          0.0091730578335362 0.01253941989127 0.00015 0.0086735759699153 0.012550377000034 0.0003
          0.0087327775394086 0.012086203404192 0.0003 0.0091819131238462 0.012082911785298 0.0003
          0.0091730578335362 0.01253941989127 0.0003 0.010056105947498 0.011950542930398 0
          0.010274327777913 0.011549885364188 0 0.010056105947498 0.011950542930398 0.00015
          0.010274327777913 0.011549885364188 0.00015 0.010056105947498 0.011950542930398 0.0003
          0.010274327777913 0.011549885364188 0.0003 0.0087795014641276 0.0086485955844896 0
          0.0083912374962093 0.008661976024637 0 0.0087795014641276 0.0086485955844896 0.00015
          0.0083912374962093 0.008661976024637 0.00015 0.0087795014641276 0.0086485955844896 0.0003
          0.0083912374962093 0.008661976024637 0.0003 0.0073407145553935 0.0082277946262138 0
          0.0075218701602762 0.0085641736532836 0 0.0073407145553935 0.0082277946262138 0.00015
          0.0075218701602762 0.0085641736532836 0.00015 0.0073407145553935 0.0082277946262138 0.0003
          0.0075218701602762 0.0085641736532836 0.0003 0.0073357310625303 0.010250124356937 0
          0.0069197896843151 0.010226005241683 0 0.0068905371289043 0.0097153304797672 0
          0.0074001182371208 0.0096888945892578 0 0.0073357310625303 0.010250124356937 0.00015
          0.0069197896843151 0.010226005241683 0.00015 0.0068905371289043 0.0097153304797672 0.00015
          0.0074001182371208 0.0096888945892578 0.00015 0.0073357310625303 0.010250124356937 0.0003
          0.0069197896843151 0.010226005241683 0.0003 0.0068905371289043 0.0097153304797672 0.0003
          0.0074001182371208 0.0096888945892578 0.0003 0.0081958803856553 0.010639401227375 0
          0.0081958803856553 0.010639401227375 0.00015 0.0081958803856553 0.010639401227375 0.0003
          0.0057785311780113 0.0084598603588589 0 0.0057785311780113 0.0084598603588589 0.00015
          0.0057785311780113 0.0084598603588589 0.0003 0.0068354780286894 0.0065149558629347 0
          0.0065694481807909 0.0068273110654121 0 0.0068354780286894 0.0065149558629347 0.00015
          0.0065694481807909 0.0068273110654121 0.00015 0.0068354780286894 0.0065149558629347 0.0003
          0.0065694481807909 0.0068273110654121 0.0003 0.0061608287914901 0.011213609336371 0
          0.0061928612734976 0.011646193292464 0 0.0061608287914901 0.011213609336371 0.00015
          0.0061928612734976 0.011646193292464 0.00015 0.0061608287914901 0.011213609336371 0.0003
          0.0061928612734976 0.011646193292464 0.0003 0.0060256410256453 0.013 0
          0.0057791181770977 0.012558961975135 0 0.0060256410256453 0.013 0.00015
          0.0057791181770977 0.012558961975135 0.00015 0.0060256410256453 0.013 0.0003
          0.0057791181770977 0.012558961975135 0.0003 0.0061071771839093 0.010748184383761 0
          0.0061071771839093 0.010748184383761 0.00015 0.0061071771839093 0.010748184383761 0.0003
          0.0064845320073614 0.010216336118065 0 0.0065278935143817 0.010725783571784 0
          0.0064845320073614 0.010216336118065 0.00015 0.0065278935143817 0.010725783571784 0.00015
          0.0064845320073614 0.010216336118065 0.0003 0.0065278935143817 0.010725783571784 0.0003
          0.0077968354342878 0.012121840026842 0 0.0077167513193965 0.012573751507337 0
          0.0072251022123942 0.012571145425366 0 0.0073422863282366 0.012132364188728 0
          0.0077968354342878 0.012121840026842 0.00015 0.0077167513193965 0.012573751507337 0.00015
          0.0072251022123942 0.012571145425366 0.00015 0.0073422863282366 0.012132364188728 0.00015
          0.0077968354342878 0.012121840026842 0.0003 0.0077167513193965 0.012573751507337 0.0003
          0.0072251022123942 0.012571145425366 0.0003 0.0073422863282366 0.012132364188728 0.0003
          0.0072550033809581 0.0091349332579085 0 0.0076541519095837 0.0089672912460138 0
          0.0072550033809581 0.0091349332579085 0.00015 0.0076541519095837 0.0089672912460138 0.00015
          0.0072550033809581 0.0091349332579085 0.0003 0.0076541519095837 0.0089672912460138 0.0003
          0.0065384615384679 0.013 0 0.0067552646820212 0.012548340065985 0
          0.007051282051287 0.013 0 0.0065384615384679 0.013 0.00015
          0.0067552646820212 0.012548340065985 0.00015 0.007051282051287 0.013 0.00015
          0.0065384615384679 0.013 0.0003 0.0067552646820212 0.012548340065985 0.0003
          0.007051282051287 0.013 0.0003 0.0068431084681841 0.0092248064360522 0
          0.0064629827835734 0.0097214310503871 0 0.0064401841603361 0.009249995775159 0
          0.0068431084681841 0.0092248064360522 0.00015 0.0064629827835734 0.0097214310503871 0.00015
          0.0064401841603361 0.009249995775159 0.00015 0.0068431084681841 0.0092248064360522 0.0003
          0.0064629827835734 0.0097214310503871 0.0003 0.0064401841603361 0.009249995775159 0.0003
          0.0078142698619037 0.0093821750433109 0 0.0078142698619037 0.0093821750433109 0.00015
          0.0078142698619037 0.0093821750433109 0.0003 0.0064227954769353 0.0088235452462607 0
          0.0064227954769353 0.0088235452462607 0.00015 0.0064227954769353 0.0088235452462607 0.0003
          0.0060749446210727 0.008846093909968 0 0.0060643722245677 0.0092551370126649 0
          0.0060749446210727 0.008846093909968 0.00015 0.0060643722245677 0.0092551370126649 0.00015
          0.0060749446210727 0.008846093909968 0.0003 0.0060643722245677 0.0092551370126649 0.0003
          0.0065702926001918 0.011654169374977 0 0.006566373886869 0.011214840249119 0
          0.0065702926001918 0.011654169374977 0.00015 0.006566373886869 0.011214840249119 0.00015
          0.0065702926001918 0.011654169374977 0.0003 0.006566373886869 0.011214840249119 0.0003
          0.0093206781870799 0.010991873758601 0 0.0093206781870799 0.010991873758601 0.00015
          0.0093206781870799 0.010991873758601 0.0003 0.0063586074578252 0.0071353312088165 0
          0.0066361392369192 0.0072470897144222 0 0.0063586074578252 0.0071353312088165 0.00015
          0.0066361392369192 0.0072470897144222 0.00015 0.0063586074578252 0.0071353312088165 0.0003
          0.0066361392369192 0.0072470897144222 0.0003 0.0070635342364542 0.0061542378287001 0
          0.0070635342364542 0.0061542378287001 0.00015 0.0070635342364542 0.0061542378287001 0.0003
          0.010295501843898 0.0098988447327244 0 0.010331968632679 0.010177975560165 0
          0.0100990439633 0.010345969653311 0 0.0099255608427027 0.010003443747144 0
          0.010295501843898 0.0098988447327244 0.00015 0.010331968632679 0.010177975560165 0.00015
          0.0100990439633 0.010345969653311 0.00015 0.0099255608427027 0.010003443747144 0.00015
          0.010295501843898 0.0098988447327244 0.0003 0.010331968632679 0.010177975560165 0.0003
          0.0100990439633 0.010345969653311 0.0003 0.0099255608427027 0.010003443747144 0.0003
          0.0075641025641077 0.013 0 0.0075641025641077 0.013 0.00015
          0.0075641025641077 0.013 0.0003 0.007358052416256 0.010740056955422 0
          0.0069470918478694 0.010735576046615 0 0.007358052416256 0.010740056955422 0.00015
          0.0069470918478694 0.010735576046615 0.00015 0.007358052416256 0.010740056955422 0.0003
          0.0069470918478694 0.010735576046615 0.0003 0.0060634003212644 0.00969554800092 0
          0.0060634003212644 0.00969554800092 0.00015 0.0060634003212644 0.00969554800092 0.0003
          0.0068797309840753 0.0070620910964483 0 0.0071475509773245 0.0073405239650904 0
          0.0068797309840753 0.0070620910964483 0.00015 0.0071475509773245 0.0073405239650904 0.00015
          0.0068797309840753 0.0070620910964483 0.0003 0.0071475509773245 0.0073405239650904 0.0003
          0.0094632087818517 0.0081862945076399 0 0.0094632087818517 0.0081862945076399 0.00015
          0.0094632087818517 0.0081862945076399 0.0003 0.0091025641025756 0.013 0
          0.0097400134531557 0.012425583162504 0 0.0096153846153981 0.013 0
          0.0091025641025756 0.013 0.00015 0.0097400134531557 0.012425583162504 0.00015
          0.0096153846153981 0.013 0.00015 0.0091025641025756 0.013 0.0003
          0.0097400134531557 0.012425583162504 0.0003 0.0096153846153981 0.013 0.0003
          0.0080231150782377 0.0087799001252051 0 0.0081700325353194 0.0091480386714452 0
          0.0080231150782377 0.0087799001252051 0.00015 0.0081700325353194 0.0091480386714452 0.00015
          0.0080231150782377 0.0087799001252051 0.0003 0.0081700325353194 0.0091480386714452 0.0003
          0.0095329104644106 0.010197774343332 0 0.0097620082938393 0.010606176712681 0
          0.0095329104644106 0.010197774343332 0.00015 0.0097620082938393 0.010606176712681 0.00015
          0.0095329104644106 0.010197774343332 0.0003 0.0097620082938393 0.010606176712681 0.0003
          0.008459458524824 0.0095324383395712 0 0.0079941048127097 0.0097727986382514 0
          0.008459458524824 0.0095324383395712 0.00015 0.0079941048127097 0.0097727986382514 0.00015
          0.008459458524824 0.0095324383395712 0.0003 0.0079941048127097 0.0097727986382514 0.0003
          0.0086852410268287 0.0090671784981495 0 0.0084121010432185 0.0089624922946051 0
          0.0086852410268287 0.0090671784981495 0.00015 0.0084121010432185 0.0089624922946051 0.00015
          0.0086852410268287 0.0090671784981495 0.0003 0.0084121010432185 0.0089624922946051 0.0003
          0.010101546658348 0.010930204106287 0 0.010101546658348 0.010930204106287 0.00015
          0.010101546658348 0.010930204106287 0.0003 0.009219770580739 0.01160836207586 0
          0.009219770580739 0.01160836207586 0.00015 0.009219770580739 0.01160836207586 0.0003
          0.010512959331867 0.011182607317474 0 0.010512959331867 0.011182607317474 0.00015
          0.010512959331867 0.011182607317474 0.0003 0.0077135351973544 0.0099243016659867 0
          0.0077135351973544 0.0099243016659867 0.00015 0.0077135351973544 0.0099243016659867 0.0003
          0.0098399724462143 0.011314297129672 0 0.0098399724462143 0.011314297129672 0.00015
          0.0098399724462143 0.011314297129672 0.0003 0.0071955324717728 0.0067909271139751 0
          0.0071955324717728 0.0067909271139751 0.00015 0.0071955324717728 0.0067909271139751 0.0003
          0.0081933420545987 0.012561933470251 0 0.0082754308174791 0.012106448253662 0
          0.0081933420545987 0.012561933470251 0.00015 0.0082754308174791 0.012106448253662 0.00015
          0.0081933420545987 0.012561933470251 0.0003 0.0082754308174791 0.012106448253662 0.0003
          0.0091885294783446 0.0083400759786555 0 0.009185366627384 0.008676208234384 0
          0.0091885294783446 0.0083400759786555 0.00015 0.009185366627384 0.008676208234384 0.00015
          0.0091885294783446 0.0083400759786555 0.0003 0.009185366627384 0.008676208234384 0.0003
          0.0091484396571168 0.0092413935725907 0 0.0091484396571168 0.0092413935725907 0.00015
          0.0091484396571168 0.0092413935725907 0.0003 0.0096530361744126 0.011754958706862 0
          0.0096530361744126 0.011754958706862 0.00015 0.0096530361744126 0.011754958706862 0.0003
          0.0074385983748104 0.0076487872335333 0 0.0078026145042184 0.0073499712891003 0
          0.0077209126941719 0.0079857422349365 0 0.0074385983748104 0.0076487872335333 0.00015
          0.0078026145042184 0.0073499712891003 0.00015 0.0077209126941719 0.0079857422349365 0.00015
          0.0074385983748104 0.0076487872335333 0.0003 0.0078026145042184 0.0073499712891003 0.0003
          0.0077209126941719 0.0079857422349365 0.0003 0.0096060866574151 0.0086034051599073 0
          0.0096917093907041 0.0090884547689663 0 0.0096060866574151 0.0086034051599073 0.00015
          0.0096917093907041 0.0090884547689663 0.00015 0.0096060866574151 0.0086034051599073 0.0003
          0.0096917093907041 0.0090884547689663 0.0003 0.0074956671905203 0.0070789212715492 0
          0.0074956671905203 0.0070789212715492 0.00015 0.0074956671905203 0.0070789212715492 0.0003
          0.0080769230769304 0.013 0 0.0080769230769304 0.013 0.00015
          0.0080769230769304 0.013 0.0003 0.0097960013481072 0.0095766790072516 0
          0.0097960013481072 0.0095766790072516 0.00015 0.0097960013481072 0.0095766790072516 0.0003
          0.0079025965714766 0.0083828176281282 0 0.0079025965714766 0.0083828176281282 0.00015
          0.0079025965714766 0.0083828176281282 0.0003 0.0075832963246375 0.0064815260672887 0
          0.0075832963246375 0.0064815260672887 0.00015 0.0075832963246375 0.0064815260672887 0.0003
          0.0077301559610225 0.010254379585944 0 0.0077301559610225 0.010254379585944 0.00015
          0.0077301559610225 0.010254379585944 0.0003 0.0077729216102883 0.010708725243031 0
          0.0077729216102883 0.010708725243031 0.00015 0.0077729216102883 0.010708725243031 0.0003
          0.0053754057810206 0.0085370600870078 0 0.0053754057810206 0.0085370600870078 0.00015
          0.0053754057810206 0.0085370600870078 0.0003 0.0053590367872451 0.0089652268696161 0
          0.0053590367872451 0.0089652268696161 0.00015 0.0053590367872451 0.0089652268696161 0.0003
          0.0077314143265107 0.0068791993815975 0 0.0077314143265107 0.0068791993815975 0.00015
          0.0077314143265107 0.0068791993815975 0.0003 0.0053527694027008 0.0093707431616054 0
          0.0053527694027008 0.0093707431616054 0.00015 0.0053527694027008 0.0093707431616054 0.0003
          0.0080272182678723 0.0070086219794164 0 0.0080272182678723 0.0070086219794164 0.00015
          0.0080272182678723 0.0070086219794164 0.0003 0.0053686841699875 0.0097656204902227 0
          0.0053686841699875 0.0097656204902227 0.00015 0.0053686841699875 0.0097656204902227 0.0003
          0.0069753270353201 0.011225035595701 0 0.0069753270353201 0.011225035595701 0.00015
          0.0069753270353201 0.011225035595701 0.0003 0.0081230348422786 0.010180774741819 0
          0.0081230348422786 0.010180774741819 0.00015 0.0081230348422786 0.010180774741819 0.0003
          0.0069714542407681 0.011681487349241 0 0.0069714542407681 0.011681487349241 0.00015
          0.0069714542407681 0.011681487349241 0.0003 0.0073877269320336 0.011214628569732 0
          0.0073877269320336 0.011214628569732 0.00015 0.0073877269320336 0.011214628569732 0.0003
          0.0073992085993983 0.011689991378362 0 0.0073992085993983 0.011689991378362 0.00015
          0.0073992085993983 0.011689991378362 0.0003 0.0088599825232994 0.0095868605102716 0
          0.0088599825232994 0.0095868605102716 0.00015 0.0088599825232994 0.0095868605102716 0.0003
          0.0093698999071837 0.0097470513643601 0 0.0093698999071837 0.0097470513643601 0.00015
          0.0093698999071837 0.0097470513643601 0.0003 0.005708830284701 0.0092938500467527 0
          0.005710003284826 0.0096895337898706 0 0.005708830284701 0.0092938500467527 0.00015
          0.005710003284826 0.0096895337898706 0.00015 0.005708830284701 0.0092938500467527 0.0003
          0.005710003284826 0.0096895337898706 0.0003 0.0057253261942579 0.008884797777202 0
          0.0057253261942579 0.008884797777202 0.00015 0.0057253261942579 0.008884797777202 0.0003
          0.0054465956081518 0.012540682824845 0 0.0055128205128226 0.013 0
          0.0054465956081518 0.012540682824845 0.00015 0.0055128205128226 0.013 0.00015
          0.0054465956081518 0.012540682824845 0.0003 0.0055128205128226 0.013 0.0003
          0.0095150035075373 0.012074113937236 0 0.0095150035075373 0.012074113937236 0.00015
          0.0095150035075373 0.012074113937236 0.0003 0.008589743589753 0.013 0
          0.008589743589753 0.013 0.00015 0.008589743589753 0.013 0.0003
          0.0068932543961937 0.012102712522565 0 0.0068932543961937 0.012102712522565 0.00015
          0.0068932543961937 0.012102712522565 0.0003 0.010475172867508 0.012102844227475 0
          0.010669582432454 0.011743114144408 0 0.010475172867508 0.012102844227475 0.00015
          0.010669582432454 0.011743114144408 0.00015 0.010475172867508 0.012102844227475 0.0003
          0.010669582432454 0.011743114144408 0.0003 0.0098857235699117 0.0079055319030787 0
          0.0092411258002763 0.0078319639415625 0 0.0095144479526816 0.0076594245921199 0
          0.0098857235699117 0.0079055319030787 0.00015 0.0092411258002763 0.0078319639415625 0.00015
          0.0095144479526816 0.0076594245921199 0.00015 0.0098857235699117 0.0079055319030787 0.0003
          0.0092411258002763 0.0078319639415625 0.0003 0.0095144479526816 0.0076594245921199 0.0003
          0.010385522435479 0.010608007769118 0 0.010385522435479 0.010608007769118 0.00015
          0.010385522435479 0.010608007769118 0.0003 0.010783127360108 0.010836567412064 0
          0.010783127360108 0.010836567412064 0.00015 0.010783127360108 0.010836567412064 0.0003
          0.010310686327751 0.012539165738252 0 0.010128205128219 0.013 0
          0.010310686327751 0.012539165738252 0.00015 0.010128205128219 0.013 0.00015
          0.010310686327751 0.012539165738252 0.0003 0.010128205128219 0.013 0.0003
          0.011222013645511 0.011097826594996 0 0.010925822172272 0.011428925131881 0
          0.011222013645511 0.011097826594996 0.00015 0.010925822172272 0.011428925131881 0.00015
          0.011222013645511 0.011097826594996 0.0003 0.010925822172272 0.011428925131881 0.0003
          0.010158980545183 0.0089928081418126 0 0.010234809282542 0.0094751596931164 0
          0.010158980545183 0.0089928081418126 0.00015 0.010234809282542 0.0094751596931164 0.00015
          0.010158980545183 0.0089928081418126 0.0003 0.010234809282542 0.0094751596931164 0.0003
          0.010689703280164 0.0094649590365737 0 0.010691300612525 0.0099168298135774 0
          0.010689703280164 0.0094649590365737 0.00015 0.010691300612525 0.0099168298135774 0.00015
          0.010689703280164 0.0094649590365737 0.0003 0.010691300612525 0.0099168298135774 0.0003
          0.010057653370411 0.0084974472595183 0 0.010057653370411 0.0084974472595183 0.00015
          0.010057653370411 0.0084974472595183 0.0003 0.0071984303565192 0.0057392272964834 0
          0.0077721363879251 0.0058968168784219 0 0.0071984303565192 0.0057392272964834 0.00015
          0.0077721363879251 0.0058968168784219 0.00015 0.0071984303565192 0.0057392272964834 0.0003
          0.0077721363879251 0.0058968168784219 0.0003 0.0089588909882048 0.0073942383853577 0
          0.0089588909882048 0.0073942383853577 0.00015 0.0089588909882048 0.0073942383853577 0.0003
          0.0081402125110085 0.0066115625704341 0 0.0082479601882269 0.0062087007836213 0
          0.0081402125110085 0.0066115625704341 0.00015 0.0082479601882269 0.0062087007836213 0.00015
          0.0081402125110085 0.0066115625704341 0.0003 0.0082479601882269 0.0062087007836213 0.0003
          0.0084364690699339 0.0071912877673881 0 0.0084364690699339 0.0071912877673881 0.00015
          0.0084364690699339 0.0071912877673881 0.0003 0.010601303654319 0.010290632654442 0
          0.010601303654319 0.010290632654442 0.00015 0.010601303654319 0.010290632654442 0.0003
          0.0085681017610313 0.0067725899286886 0 0.0085681017610313 0.0067725899286886 0.00015
          0.0085681017610313 0.0067725899286886 0.0003
          <InformationKey name="L2_NORM_RANGE" location="vtkDataArray" length="2">
            <Value index="0">
              0.0092063092257
            </Value>
            <Value index="1">
              0.016482431226
            </Value>
          </InformationKey>
        </DataArray>
      </Points>
      <Cells>
        <DataArray type="Int64" Name="connectivity" format="ascii" RangeMin="0" RangeMax="782">
          27 24 3 6 28 25
          4 7 28 25 4 7
          29 26 5 8 33 30
          9 12 34 31 10 13
          34 31 10 13 35 32
          11 14 36 33 12 15
          37 34 13 16 37 34
          13 16 38 35 14 17
          39 36 15 18 40 37
          16 19 40 37 16 19
          41 38 17 20 42 39
          18 21 43 40 19 22
          43 40 19 22 44 41
          20 23 45 42 21 24
          46 43 22 25 46 43
          22 25 47 44 23 26
          48 45 24 27 49 46
          25 28 49 46 25 28
          50 47 26 29 57 54
          30 33 58 55 31 34
          58 55 31 34 59 56
          32 35 60 57 33 36
          61 58 34 37 61 58
          34 37 62 59 35 38
          63 60 36 39 64 61
          37 40 64 61 37 40
          65 62 38 41 66 63
          39 42 67 64 40 43
          67 64 40 43 68 65
          41 44 69 66 42 45
          70 67 43 46 70 67
          43 46 71 68 44 47
          72 69 45 48 73 70
          46 49 73 70 46 49
          74 71 47 50 78 75
          51 54 79 76 52 55
          79 76 52 55 80 77
          53 56 81 78 54 57
          82 79 55 58 82 79
          55 58 83 80 56 59
          84 81 57 60 85 82
          58 61 85 82 58 61
          86 83 59 62 87 84
          60 63 88 85 61 64
          88 85 61 64 89 86
          62 65 90 87 63 66
          91 88 64 67 91 88
          64 67 92 89 65 68
          93 90 66 69 94 91
          67 70 94 91 67 70
          95 92 68 71 96 93
          69 72 97 94 70 73
          97 94 70 73 98 95
          71 74 102 99 75 78
          103 100 76 79 103 100
          76 79 104 101 77 80
          105 102 78 81 106 103
          79 82 106 103 79 82
          107 104 80 83 108 105
          81 84 109 106 82 85
          109 106 82 85 110 107
          83 86 111 108 84 87
          112 109 85 88 112 109
          85 88 113 110 86 89
          114 111 87 90 115 112
          88 91 115 112 88 91
          116 113 89 92 117 114
          90 93 118 115 91 94
          118 115 91 94 119 116
          92 95 120 117 93 96
          121 118 94 97 121 118
          94 97 122 119 95 98
          126 123 99 102 127 124
          100 103 127 124 100 103
          128 125 101 104 129 126
          102 105 130 127 103 106
          130 127 103 106 131 128
          104 107 132 129 105 108
          133 130 106 109 133 130
          106 109 134 131 107 110
          135 132 108 111 136 133
          109 112 136 133 109 112
          137 134 110 113 138 135
          111 114 139 136 112 115
          139 136 112 115 140 137
          113 116 141 138 114 117
          142 139 115 118 142 139
          115 118 143 140 116 119
          144 141 117 120 145 142
          118 121 145 142 118 121
          146 143 119 122 150 147
          123 126 151 148 124 127
          151 148 124 127 152 149
          125 128 153 150 126 129
          154 151 127 130 154 151
          127 130 155 152 128 131
          156 153 129 132 157 154
          130 133 157 154 130 133
          158 155 131 134 159 156
          132 135 160 157 133 136
          160 157 133 136 161 158
          134 137 162 159 135 138
          163 160 136 139 163 160
          136 139 164 161 137 140
          165 162 138 141 166 163
          139 142 166 163 139 142
          167 164 140 143 168 165
          141 144 169 166 142 145
          169 166 142 145 170 167
          143 146 171 172 173 174
          175 176 177 178 175 176
          177 178 179 180 181 182
          183 184 185 186 187 188
          189 190 187 188 189 190
          191 192 193 194 183 195
          196 184 187 197 198 188
          187 197 198 188 191 199
          200 192 201 202 171 174
          203 204 175 178 203 204
          175 178 205 206 179 182
          173 172 207 208 177 176
          209 210 177 176 209 210
          181 180 211 212 202 201
          196 195 204 203 198 197
          204 203 198 197 206 205
          200 199 213 186 185 214
          215 190 189 216 215 190
          189 216 217 194 193 218
          162 172 171 159 163 176
          175 160 163 176 175 160
          164 180 179 161 173 208
          219 220 177 210 221 222
          177 210 221 222 181 212
          223 224 159 171 202 156
          160 175 204 157 160 175
          204 157 161 179 206 158
          168 225 207 165 169 226
          209 166 169 226 209 166
          170 227 211 167 185 184
          231 228 189 188 232 229
          189 188 232 229 193 192
          233 230 234 184 196 235
          236 188 198 237 236 188
          198 237 238 192 200 239
          183 186 150 153 187 190
          151 154 187 190 151 154
          191 194 152 155 201 240
          235 196 203 241 237 198
          203 241 237 198 205 242
          239 200 174 220 240 201
          178 222 241 203 178 222
          241 203 182 224 242 205
          165 207 172 162 166 209
          176 163 166 209 176 163
          167 211 180 164 208 207
          225 243 210 209 226 244
          210 209 226 244 212 211
          227 245 195 153 156 202
          197 154 157 204 197 154
          157 204 199 155 158 206
          147 150 186 213 148 151
          190 215 148 151 190 215
          149 152 194 217 183 195
          153 187 197 154 187 197
          154 191 199 155 173 174
          220 177 178 222 177 178
          222 181 182 224 234 184
          231 236 188 232 236 188
          232 238 192 233 243 208
          219 244 210 221 244 210
          221 245 212 223 249 250
          251 252 253 254 255 256
          253 254 255 256 257 258
          259 260 264 265 249 252
          266 267 253 256 266 267
          253 256 268 269 257 260
          270 271 272 273 274 275
          276 277 274 275 276 277
          278 279 280 281 282 251
          250 283 284 255 254 285
          284 255 254 285 286 259
          258 287 273 288 289 270
          277 290 291 274 277 290
          291 274 281 292 293 278
          294 295 264 296 297 298
          266 299 297 298 266 299
          300 301 268 302 303 304
          305 306 307 308 309 310
          307 308 309 310 311 312
          313 314 270 315 316 317
          274 318 319 320 274 318
          319 320 278 321 322 323
          324 325 326 327 328 329
          330 331 328 329 330 331
          332 333 334 335 283 336
          337 282 285 338 339 284
          285 338 339 284 287 340
          341 286 342 343 344 345
          346 347 348 349 346 347
          348 349 350 351 352 353
          354 337 355 356 357 339
          358 359 357 339 358 359
          360 341 361 362 343 342
          363 364 347 346 365 366
          347 346 365 366 351 350
          367 368 369 370 371 372
          373 374 375 376 373 374
          375 376 377 378 379 380
          711 381 382 712 713 383
          384 714 713 383 384 714
          715 385 386 716 327 326
          387 388 331 330 389 390
          331 330 389 390 335 334
          391 392 393 394 316 315
          395 396 319 318 395 396
          319 318 397 398 322 321
          399 400 401 402 403 404
          405 406 403 404 405 406
          407 408 409 410 306 344
          343 411 310 348 347 412
          310 348 347 412 314 352
          351 413 414 246 273 272
          415 247 277 276 415 247
          277 276 416 248 281 280
          423 424 252 251 425 426
          256 255 425 426 256 255
          427 428 260 259 429 430
          264 295 431 432 266 298
          431 432 266 298 433 434
          268 301 282 337 354 435
          284 339 357 436 284 339
          357 436 286 341 360 437
          354 438 439 435 357 440
          441 436 357 440 441 436
          360 442 443 437 444 445
          446 447 448 449 450 451
          448 449 450 451 452 453
          454 455 456 316 394 457
          458 319 396 459 458 319
          396 459 460 322 398 461
          462 463 446 464 465 466
          450 467 465 466 450 467
          468 469 454 470 471 401
          472 473 474 405 475 476
          474 405 475 476 477 409
          478 479 402 456 457 480
          406 458 459 481 406 458
          459 481 410 460 461 482
          471 456 402 401 474 458
          406 405 474 458 406 405
          477 460 410 409 473 483
          317 471 476 484 320 474
          476 484 320 474 479 485
          323 477 486 483 473 487
          488 484 476 489 488 484
          476 489 490 485 479 491
          483 271 270 317 484 275
          274 320 484 275 274 320
          485 279 278 323 492 424
          423 493 494 426 425 495
          494 426 425 495 496 428
          427 497 498 344 306 305
          499 348 310 309 499 348
          310 309 500 352 314 313
          501 502 288 261 503 504
          290 262 503 504 290 262
          505 506 292 263 429 295
          463 462 431 298 466 465
          431 298 466 465 433 301
          469 468 510 511 512 513
          514 515 516 517 514 515
          516 517 518 519 520 521
          464 446 445 522 467 450
          449 523 467 450 449 523
          470 454 453 524 525 526
          400 399 527 528 404 403
          527 528 404 403 529 530
          408 407 487 473 472 531
          489 476 475 532 489 476
          475 532 491 479 478 533
          288 273 246 261 290 277
          247 262 290 277 247 262
          292 281 248 263 435 439
          493 423 436 441 495 425
          436 441 495 425 437 443
          497 427 288 502 534 535
          290 504 536 537 290 504
          536 537 292 506 538 539
          717 540 718 719 720 541
          721 722 720 541 721 722
          723 542 724 725 543 372
          544 545 546 376 547 548
          546 376 547 548 549 380
          550 551 480 457 552 553
          481 459 554 555 481 459
          554 555 482 461 556 557
          558 559 498 305 560 561
          499 309 560 561 499 309
          562 563 500 313 400 526
          439 438 404 528 441 440
          404 528 441 440 408 530
          443 442 564 565 480 553
          566 567 481 555 566 567
          481 555 568 569 482 557
          570 564 553 571 572 566
          555 573 572 566 555 573
          574 568 557 575 726 576
          559 512 727 577 561 516
          727 577 561 516 728 578
          563 520 579 345 344 498
          580 349 348 499 580 349
          348 499 581 353 352 500
          729 582 576 726 730 583
          577 727 730 583 577 727
          731 584 578 728 438 354
          531 472 440 357 532 475
          440 357 532 475 442 360
          533 478 438 472 401 400
          440 475 405 404 440 475
          405 404 442 478 409 408
          565 585 402 480 567 586
          406 481 567 586 406 481
          569 587 410 482 545 544
          732 733 548 547 734 735
          548 547 734 735 551 550
          736 737 534 502 501 418
          536 504 503 420 536 504
          503 420 538 506 505 422
          251 282 435 423 255 284
          436 425 255 284 436 425
          259 286 437 427 576 588
          498 559 577 589 499 561
          577 589 499 561 578 590
          500 563 591 534 418 417
          592 536 420 419 592 536
          420 419 593 538 422 421
          369 594 595 370 373 596
          597 374 373 596 597 374
          377 598 599 378 326 600
          601 387 330 602 603 389
          330 602 603 389 334 604
          605 391 606 570 387 601
          607 572 389 603 607 572
          389 603 608 574 391 605
          317 316 456 471 320 319
          458 474 320 319 458 474
          323 322 460 477 483 486
          272 271 484 488 276 275
          484 488 276 275 485 490
          280 279 582 729 738 739
          583 730 740 741 583 730
          740 741 584 731 742 743
          588 382 381 609 589 384
          383 610 589 384 383 610
          590 386 385 611 612 613
          324 614 615 616 328 617
          615 616 328 617 618 619
          332 620 382 582 739 712
          384 583 741 714 384 583
          741 714 386 584 743 716
          582 382 588 576 583 384
          589 577 583 384 589 577
          584 386 590 578 595 342
          345 370 597 346 349 374
          597 346 349 374 599 350
          353 378 621 622 606 601
          623 624 607 603 623 624
          607 603 625 626 608 605
          609 579 498 588 610 580
          499 589 610 580 499 589
          611 581 500 590 540 621
          601 600 541 623 603 602
          541 623 603 602 542 625
          605 604 591 627 535 534
          592 628 537 536 592 628
          537 536 593 629 539 538
          594 630 522 445 596 631
          523 449 596 631 523 449
          598 632 524 453 744 745
          633 622 746 747 634 624
          746 747 634 624 748 749
          635 626 324 327 636 614
          328 331 637 617 328 331
          637 617 332 335 638 620
          745 750 751 510 747 752
          753 514 747 752 753 514
          749 754 755 518 639 591
          417 507 640 592 419 508
          640 592 419 508 641 593
          421 509 371 370 345 579
          375 374 349 580 375 374
          349 580 379 378 353 581
          642 399 402 585 643 403
          406 586 643 403 406 586
          644 407 410 587 645 525
          399 642 646 527 403 643
          646 527 403 643 647 529
          407 644 326 718 540 600
          330 721 541 602 330 721
          541 602 334 724 542 604
          621 540 717 756 623 541
          720 757 623 541 720 757
          625 542 723 758 639 507
          759 760 640 508 761 762
          640 508 761 762 641 509
          763 764 388 387 570 571
          390 389 572 573 390 389
          572 573 392 391 574 575
          648 651 6 0 649 652
          7 1 649 652 7 1
          650 653 8 2 613 612
          535 627 616 615 537 628
          616 615 537 628 619 618
          539 629 627 591 639 654
          628 592 640 655 628 592
          640 655 629 593 641 656
          612 289 288 535 615 291
          290 537 615 291 290 537
          618 293 292 539 651 657
          27 6 652 658 28 7
          652 658 28 7 653 659
          29 8 756 744 622 621
          757 746 624 623 757 746
          624 623 758 748 626 625
          660 613 627 654 661 616
          628 655 661 616 628 655
          662 619 629 656 657 663
          48 27 658 664 49 28
          658 664 49 28 659 665
          50 29 666 493 439 526
          667 495 441 528 667 495
          441 528 668 497 443 530
          669 565 564 303 670 567
          566 307 670 567 566 307
          671 569 568 311 663 355
          72 48 664 358 73 49
          664 358 73 49 665 361
          74 50 672 492 493 666
          673 494 495 667 673 494
          495 667 674 496 497 668
          144 249 265 168 145 253
          267 169 145 253 267 169
          146 257 269 170 411 669
          303 306 412 670 307 310
          412 670 307 310 413 671
          311 314 765 718 326 325
          766 721 330 329 766 721
          330 329 767 724 334 333
          525 645 364 675 527 646
          366 676 527 646 366 676
          529 647 368 677 768 639
          760 769 770 640 762 771
          770 640 762 771 772 641
          764 773 669 411 645 642
          670 412 646 643 670 412
          646 643 671 413 647 644
          639 768 660 654 640 770
          661 655 640 770 661 655
          641 772 662 656 642 585
          565 669 643 586 567 670
          643 586 567 670 644 587
          569 671 393 315 270 289
          395 318 274 291 395 318
          274 291 397 321 278 293
          675 364 363 678 676 366
          365 679 676 366 365 679
          677 368 367 680 552 636
          327 388 554 637 331 390
          554 637 331 390 556 638
          335 392 675 678 672 666
          676 679 673 667 676 679
          673 667 677 680 674 668
          666 526 525 675 667 528
          527 676 667 528 527 676
          668 530 529 677 250 120
          96 283 254 121 97 285
          254 121 97 285 258 122
          98 287 444 447 678 363
          448 451 679 365 448 451
          679 365 452 455 680 367
          614 636 394 393 617 637
          396 395 617 637 396 395
          620 638 398 397 249 144
          120 250 253 145 121 254
          253 145 121 254 257 146
          122 258 564 681 304 303
          566 682 308 307 566 682
          308 307 568 683 312 311
          364 645 411 343 366 646
          412 347 366 646 412 347
          368 647 413 351 72 355
          337 336 73 358 339 338
          73 358 339 338 74 361
          341 340 304 681 606 684
          308 682 607 685 308 682
          607 685 312 683 608 686
          636 552 457 394 637 554
          459 396 637 554 459 396
          638 556 461 398 72 336
          283 96 73 338 285 97
          73 338 285 97 74 340
          287 98 289 612 614 393
          291 615 617 395 291 615
          617 395 293 618 620 397
          687 487 531 688 689 489
          532 690 689 489 532 690
          691 491 533 692 688 531
          354 356 690 532 357 359
          690 532 357 359 692 533
          360 362 388 571 553 552
          390 573 555 554 390 573
          555 554 392 575 557 556
          693 486 487 687 694 488
          489 689 694 488 489 689
          695 490 491 691 564 570
          606 681 566 572 607 682
          566 572 607 682 568 574
          608 683 414 272 486 693
          415 276 488 694 415 276
          488 694 416 280 490 695
          225 696 697 243 226 698
          699 244 226 698 699 244
          227 700 701 245 774 324
          613 660 775 328 616 661
          775 328 616 661 776 332
          619 662 544 702 609 381
          547 703 610 383 547 703
          610 383 550 704 611 385
          688 356 355 663 690 359
          358 664 690 359 358 664
          692 362 361 665 324 774
          765 325 328 775 766 329
          328 775 766 329 332 776
          767 333 684 558 305 304
          685 560 309 308 685 560
          309 308 686 562 313 312
          544 372 371 702 547 376
          375 703 547 376 375 703
          550 380 379 704 711 732
          544 381 713 734 547 383
          713 734 547 383 715 736
          550 385 513 512 559 558
          517 516 561 560 517 516
          561 560 521 520 563 562
          777 726 512 511 778 727
          516 515 778 727 516 515
          779 728 520 519 777 511
          510 751 778 515 514 753
          778 515 514 753 779 519
          518 755 294 296 424 492
          297 299 426 494 297 299
          426 494 300 302 428 496
          369 705 630 594 373 706
          631 596 373 706 631 596
          377 707 632 598 633 513
          558 684 634 517 560 685
          634 517 560 685 635 521
          562 686 684 606 622 633
          685 607 624 634 685 607
          624 634 686 608 626 635
          708 672 678 447 709 673
          679 451 709 673 679 451
          710 674 680 455 513 633
          745 510 517 634 747 514
          517 634 747 514 521 635
          749 518 774 660 768 780
          775 661 770 781 775 661
          770 781 776 662 772 782
          702 371 579 609 703 375
          580 610 703 375 580 610
          704 379 581 611 687 688
          663 657 689 690 664 658
          689 690 664 658 691 692
          665 659 696 265 264 430
          698 267 266 432 698 267
          266 432 700 269 268 434
          696 430 429 697 698 432
          431 699 698 432 431 699
          700 434 433 701 264 252
          424 296 266 256 426 299
          266 256 426 299 268 260
          428 302 708 294 492 672
          709 297 494 673 709 297
          494 673 710 300 496 674
          447 446 463 708 451 450
          466 709 451 450 466 709
          455 454 469 710 693 687
          657 651 694 689 658 652
          694 689 658 652 695 691
          659 653 595 594 445 444
          597 596 449 448 597 596
          449 448 599 598 453 452
          696 225 168 265 698 226
          169 267 698 226 169 267
          700 227 170 269 705 369
          372 543 706 373 376 546
          706 373 376 546 707 377
          380 549 414 693 651 648
          415 694 652 649 415 694
          652 649 416 695 653 650
          444 363 342 595 448 365
          346 597 448 365 346 597
          452 367 350 599 708 463
          295 294 709 466 298 297
          709 466 298 297 710 469
          301 300
        </DataArray>
        <DataArray type="Int64" Name="offsets" format="ascii" RangeMin="8" RangeMax="3632">
          8 16 24 32 40 48
          56 64 72 80 88 96
          104 112 120 128 136 144
          152 160 168 176 184 192
          200 208 216 224 232 240
          248 256 264 272 280 288
          296 304 312 320 328 336
          344 352 360 368 376 384
          392 400 408 416 424 432
          440 448 456 464 472 480
          488 496 504 512 520 528
          536 544 552 560 568 576
          584 592 600 608 616 624
          632 640 648 656 664 672
          680 688 696 704 712 720
          728 736 744 752 760 768
          776 784 792 800 808 816
          824 832 840 848 856 864
          872 880 888 896 904 912
          920 928 936 944 952 960
          968 976 982 988 994 1000
          1006 1012 1018 1024 1032 1040
          1048 1056 1064 1072 1080 1088
          1096 1104 1112 1120 1128 1136
          1144 1152 1160 1168 1176 1184
          1192 1200 1208 1216 1224 1232
          1240 1248 1256 1264 1272 1280
          1288 1296 1304 1312 1320 1328
          1336 1344 1352 1360 1368 1376
          1384 1392 1400 1408 1416 1424
          1432 1440 1448 1456 1464 1472
          1480 1488 1496 1504 1512 1520
          1528 1536 1544 1552 1560 1568
          1576 1584 1592 1600 1608 1616
          1624 1632 1640 1648 1656 1664
          1672 1680 1688 1696 1704 1712
          1720 1728 1736 1744 1752 1760
          1768 1776 1784 1792 1800 1808
          1816 1824 1832 1840 1848 1856
          1864 1872 1880 1888 1896 1904
          1912 1920 1928 1936 1944 1952
          1960 1968 1976 1984 1992 2000
          2008 2016 2024 2032 2040 2048
          2056 2064 2072 2080 2088 2096
          2104 2112 2120 2128 2136 2144
          2152 2160 2168 2176 2184 2192
          2200 2208 2216 2224 2232 2240
          2248 2256 2264 2272 2280 2288
          2296 2304 2312 2320 2328 2336
          2344 2352 2360 2368 2376 2384
          2392 2400 2408 2416 2424 2432
          2440 2448 2456 2464 2472 2480
          2488 2496 2504 2512 2520 2528
          2536 2544 2552 2560 2568 2576
          2584 2592 2600 2608 2616 2624
          2632 2640 2648 2656 2664 2672
          2680 2688 2696 2704 2712 2720
          2728 2736 2744 2752 2760 2768
          2776 2784 2792 2800 2808 2816
          2824 2832 2840 2848 2856 2864
          2872 2880 2888 2896 2904 2912
          2920 2928 2936 2944 2952 2960
          2968 2976 2984 2992 3000 3008
          3016 3024 3032 3040 3048 3056
          3064 3072 3080 3088 3096 3104
          3112 3120 3128 3136 3144 3152
          3160 3168 3176 3184 3192 3200
          3208 3216 3224 3232 3240 3248
          3256 3264 3272 3280 3288 3296
          3304 3312 3320 3328 3336 3344
          3352 3360 3368 3376 3384 3392
          3400 3408 3416 3424 3432 3440
          3448 3456 3464 3472 3480 3488
          3496 3504 3512 3520 3528 3536
          3544 3552 3560 3568 3576 3584
          3592 3600 3608 3616 3624 3632
        </DataArray>
        <DataArray type="UInt8" Name="types" format="ascii" RangeMin="12" RangeMax="13">
          12 12 12 12 12 12
          12 12 12 12 12 12
          12 12 12 12 12 12
          12 12 12 12 12 12
          12 12 12 12 12 12
          12 12 12 12 12 12
          12 12 12 12 12 12
          12 12 12 12 12 12
          12 12 12 12 12 12
          12 12 12 12 12 12
          12 12 12 12 12 12
          12 12 12 12 12 12
          12 12 12 12 12 12
          12 12 12 12 12 12
          12 12 12 12 12 12
          12 12 12 12 12 12
          12 12 12 12 12 12
          12 12 12 12 12 12
          12 12 12 12 12 12
          12 12 12 12 12 12
          12 12 13 13 13 13
          13 13 13 13 12 12
          12 12 12 12 12 12
          12 12 12 12 12 12
          12 12 12 12 12 12
          12 12 12 12 12 12
          12 12 12 12 12 12
          12 12 12 12 12 12
          12 12 12 12 12 12
          12 12 12 12 12 12
          12 12 12 12 12 12
          12 12 12 12 12 12
          12 12 12 12 12 12
          12 12 12 12 12 12
          12 12 12 12 12 12
          12 12 12 12 12 12
          12 12 12 12 12 12
          12 12 12 12 12 12
          12 12 12 12 12 12
          12 12 12 12 12 12
          12 12 12 12 12 12
          12 12 12 12 12 12
          12 12 12 12 12 12
          12 12 12 12 12 12
          12 12 12 12 12 12
          12 12 12 12 12 12
          12 12 12 12 12 12
          12 12 12 12 12 12
          12 12 12 12 12 12
          12 12 12 12 12 12
          12 12 12 12 12 12
          12 12 12 12 12 12
          12 12 12 12 12 12
          12 12 12 12 12 12
          12 12 12 12 12 12
          12 12 12 12 12 12
          12 12 12 12 12 12
          12 12 12 12 12 12
          12 12 12 12 12 12
          12 12 12 12 12 12
          12 12 12 12 12 12
          12 12 12 12 12 12
          12 12 12 12 12 12
          12 12 12 12 12 12
          12 12 12 12 12 12
          12 12 12 12 12 12
          12 12 12 12 12 12
          12 12 12 12 12 12
          12 12 12 12 12 12
          12 12 12 12 12 12
          12 12 12 12 12 12
          12 12 12 12 12 12
          12 12 12 12 12 12
          12 12 12 12 12 12
          12 12 12 12 12 12
          12 12 12 12 12 12
        </DataArray>
      </Cells>
    </Piece>
  </UnstructuredGrid>
</VTKFile>
