<?xml version="1.0"?>
<VTKFile type="UnstructuredGrid" version="0.1" byte_order="LittleEndian" header_type="UInt32" compressor="vtkZLibDataCompressor">
  <UnstructuredGrid>
    <Piece NumberOfPoints="798" NumberOfCells="454">
      <PointData>
        <DataArray type="Int32" Name="libmesh_node_id" format="ascii" RangeMin="2250" RangeMax="5441">
          2250 2251 2252 2253 2254 2255
          2256 2257 2258 2259 2260 2261
          2274 2275 2276 2277 2278 2279
          2280 2281 2282 2283 2284 2285
          2298 2299 2300 2301 2302 2303
          2304 2305 2306 2307 2308 2309
          2328 2329 2330 2331 2332 2333
          2334 2335 2336 2337 2338 2339
          2352 2353 2354 2355 2356 2357
          2358 2359 2360 2361 2362 2363
          2376 2377 2378 2379 2380 2381
          2382 2383 2384 2385 2386 2387
          2424 2425 2426 2427 2428 2429
          2430 2431 2432 2445 2446 2447
          2448 2449 2450 2451 2452 2453
          2454 2455 2456 2457 2458 2459
          2460 2461 2462 2481 2482 2483
          2484 2485 2486 2493 2494 2495
          2496 2497 2498 2535 2536 2537
          2538 2539 2540 2541 2542 2543
          2544 2545 2546 2547 2548 2549
          2562 2563 2564 2565 2566 2567
          2568 2569 2570 2571 2572 2573
          2604 2605 2606 2607 2608 2609
          2610 2611 2612 2615 2619 2623
          2625 2626 2627 2628 2629 2630
          2631 2632 2633 2664 2665 2666
          2667 2668 2669 2670 2671 2672
          2787 2788 2789 2790 2791 2792
          2793 2794 2795 2820 2821 2822
          2823 2824 2825 2850 2851 2854
          2855 2858 2859 2880 2882 2884
          2886 2887 2888 2889 2890 2891
          2892 2893 2894 2895 2896 2897
          2898 2899 2900 2928 2929 2930
          2931 2932 2933 2934 2935 2936
          2937 2938 2939 2972 2975 2978
          2979 2980 2981 2982 2983 2984
          2985 2986 2987 2988 2989 2990
          3078 3079 3080 3111 3112 3113
          3114 3115 3116 3129 3130 3131
          3132 3133 3134 3135 3136 3137
          3138 3139 3140 3141 3142 3143
          3144 3145 3146 3147 3148 3149
          3150 3151 3152 3153 3154 3155
          3156 3157 3158 3159 3160 3161
          3162 3163 3164 3165 3166 3167
          3186 3188 3189 3191 3192 3194
          3259 3261 3263 3342 3343 3344
          3345 3346 3347 3435 3436 3437
          3438 3439 3440 3447 3448 3449
          3450 3451 3452 3513 3514 3515
          3519 3520 3521 3522 3523 3524
          3537 3538 3539 3540 3541 3542
          3714 3715 3716 3717 3718 3719
          3720 3721 3722 3792 3793 3794
          3822 3823 3824 3825 3826 3827
          3828 3829 3830 3831 3832 3833
          3855 3856 3857 3858 3859 3860
          3867 3868 3869 3870 3871 3872
          3873 3874 3875 3876 3877 3878
          3879 3880 3881 3883 3886 3889
          3921 3922 3923 3957 3961 3965
          4065 4066 4067 4077 4078 4079
          4086 4087 4088 4119 4120 4121
          4191 4192 4193 4206 4207 4210
          4211 4214 4215 4224 4225 4226
          4227 4228 4229 4251 4252 4253
          4260 4261 4262 4263 4264 4265
          4275 4276 4277 4278 4279 4280
          4296 4297 4298 4347 4348 4349
          4401 4402 4403 4404 4405 4406
          4407 4408 4409 4410 4411 4412
          4413 4414 4415 4431 4432 4433
          4452 4453 4454 4461 4462 4463
          4464 4465 4466 4533 4534 4535
          4551 4552 4553 4554 4555 4556
          4557 4558 4559 4560 4561 4562
          4590 4591 4592 4593 4594 4595
          4608 4609 4610 4617 4618 4619
          4620 4621 4622 4623 4624 4625
          4626 4627 4628 4629 4630 4631
          4665 4666 4667 4668 4669 4670
          4680 4681 4682 4683 4684 4685
          4719 4720 4721 4728 4729 4730
          4731 4732 4733 4734 4735 4736
          4752 4753 4754 4761 4762 4763
          4764 4765 4766 4767 4768 4769
          4773 4774 4775 4785 4786 4787
          4869 4870 4871 4881 4882 4883
          4887 4888 4889 4890 4891 4892
          4893 4894 4895 4917 4918 4919
          4920 4921 4922 4926 4927 4928
          4929 4930 4931 4962 4963 4964
          4965 4966 4967 4971 4972 4973
          4974 4975 4976 4995 4996 4997
          4998 4999 5000 5001 5002 5003
          5004 5005 5006 5022 5023 5024
          5031 5032 5033 5037 5038 5039
          5046 5047 5048 5049 5050 5051
          5052 5053 5054 5058 5059 5060
          5064 5065 5066 5067 5068 5069
          5070 5071 5072 5076 5077 5078
          5082 5083 5084 5085 5086 5087
          5091 5092 5093 5097 5098 5099
          5100 5101 5102 5106 5107 5108
          5109 5110 5111 5112 5113 5114
          5115 5116 5117 5118 5119 5120
          5121 5122 5123 5124 5125 5126
          5127 5128 5129 5130 5131 5132
          5133 5134 5135 5136 5137 5138
          5139 5140 5141 5142 5143 5144
          5145 5146 5147 5148 5149 5150
          5154 5155 5156 5157 5158 5159
          5163 5164 5165 5166 5167 5168
          5172 5173 5174 5175 5176 5177
          5181 5182 5183 5184 5185 5186
          5190 5191 5192 5193 5194 5195
          5196 5197 5198 5199 5200 5201
          5250 5251 5252 5277 5278 5279
          5304 5305 5306 5331 5332 5333
          2852 2853 2856 2857 2860 2861
          2970 2644 2971 2973 2647 2974
          2976 2650 2977 3187 3190 3193
          4662 4663 4664 3270 3271 3272
          5151 5152 5153 5160 5161 5162
          5169 5170 5171 5178 5179 5180
          5187 5188 5189 5202 5203 5204
          5205 5206 5207 5253 5254 5255
          5280 5281 5282 5307 5308 5309
          5334 5335 5336 5358 5359 5360
          5361 5362 5363 5385 5386 5387
          5412 5413 5414 5439 5440 5441
        </DataArray>
        <DataArray type="Float64" Name="resid_x" format="ascii" RangeMin="-0.000491102683358946" RangeMax="0.0005469649494500572">
          -0.0000034174678953391435 -0.00000301952710390907 -0.0000029298441166225597 -0.0000022740947365207376 -0.000005782564995282513 -0.000005976942768715077
          -0.000005242152708057057 -0.000004501825558334005 -0.000011025478022563817 -0.000011185075091901808 -0.000010293486299328691 -0.000010215369617316838
          -0.000003562636146092757 -0.0000027238485376113175 -0.0000028568441829968094 -0.0000019737058924995665 -0.000004389021507122948 -0.000005173654828105612
          -0.000004736753905332236 -0.000006387199740887084 -0.000018196306241335947 -0.000018061236496391686 -0.000019109030494735002 -0.000022284001959471667
          0.00000580660626825491 2.1616261358659017e-7 0.0000023716762433956262 0.00003441983776930613 0.000017579754467256237 0.000006204549013233418
          0.00001256732429322227 0.00007237726661113442 0.000005226587395767979 -0.0000074496963833325935 -0.000009099690991387632 0.000020729847462597206
          8.976371939084515e-7 -0.000003257156115932247 -0.000001986010791488191 0.0000053278282519109155 0.000006148053503629569 -0.00000253865180788182
          -9.95759593891421e-7 0.000014437243778697706 -0.0000013680958312889402 -0.000005137535162624829 -8.474424184612417e-7 0.000004810596965221237
          -0.00000334861029038791 -0.0000021551407565212344 -0.00000171988314878746 -0.000001142939936471521 -0.000004268703838405941 -0.0000021925713125092727
          -0.000007257616357225771 -0.000007004560437451346 -0.000024437729390758278 -0.000023051299742782305 -0.000026196193401162304 -0.00002742752198292564
          -0.00000341558124716812 -0.000002461972956169234 -0.0000020947132486348607 -0.0000024763684884909765 -0.000004285110565049877 -0.000003871410681366427
          -0.000002007240093249152 -0.000004964017370490126 -0.000015000096552419961 -0.000016733844904859296 -0.000013908676975038503 -0.00001577180781042742
          -0.000010975069894447742 -0.0000046988180757434606 -0.0000057173073166882915 -0.000005139064700010465 -0.000002863183992563023 -0.000004962021843191167
          -0.00001680052003094623 -0.000012860965081795683 -0.00001645653556492377 -0.000009941783285949413 -0.000005040858317428842 -0.000004793917792511593
          -0.0000027698320250735264 -0.000015585528637451773 -0.000010832051418052657 0.0000014833114339030118 -0.000002076875109391363 -0.0000017661879190278285
          0.0000033953583485901717 0.000008123160183393097 6.955311206424675e-7 0.000001536833478699151 0.000008228887999450762 -0.000002503101782735939
          -0.000010361689946669639 -0.00001677909817354717 -0.000021303336698252906 -0.000004175183957233486 -0.0000015161094957250043 -0.000002314181353657574
          -0.000002857085358964895 -0.000004677649822593111 -0.0000021264411107502212 -0.00001077426338347287 -0.000005234945303911331 -0.0000035768143480385817
          -0.0000022257181839790974 -0.000010467759791410458 -0.000006946445239908172 -0.000011316424030294314 -0.000005129110031809603 -0.0000024169980341604003
          0.000001031045381960638 -2.0181605320246376e-7 4.251102194707812e-7 -0.000019078911353442862 -0.000020919835818311583 -0.000027936074738388328
          -0.000008061983676976858 -0.000005136080156731282 -0.000006015436429973597 -0.0000051374400755754834 -0.000014388524806951963 -0.000014810056282232864
          -0.0000041173019087459295 -0.00000551164208206778 -0.0000056608712122319105 -0.000005310773949940284 -0.0000015015709928789533 -0.0000011444059211385138
          -0.0000017205321238833449 5.8410932224362e-7 0.000011256321938768465 0.000010882305468529196 0.000006768914283750149 0.000009354669944894312
          -0.000009472480871242084 -0.000018259706674683684 -0.000008611311996142845 -5.030191325694489e-7 -0.000008468153994467542 -0.000002600595067514533
          -0.00001244509524145343 -0.00001993067767402934 -0.0000175922885499169 0.000007554303368184634 0.000012759433442255386 0.000010614602049763278
          0.0000023425931057197147 0.000006630111062833066 0.0000010663907201724498 8.478278861190347e-7 0.0000018538688713043427 -9.257077998592322e-7
          0.000008339194136119943 0.000021339931292274628 0.000008036629173036047 -0.000009781497004479611 -0.000004318471717779104 -0.000008690804450761647
          8.640592236153211e-7 -7.180990158062173e-8 -0.0000020654180814538847 -0.000010995755047482625 -0.000005120294140903425 -0.000010051099233798766
          -0.000010396099300091777 -0.000006027330986313473 -0.000008017805897431174 -0.000006340180495723047 -0.000004361607740310802 -0.000008100222757434494
          -0.00001460098060190873 -0.000011474905660335821 -0.000012875839341397466 -0.000007805858168064006 -0.00000651918339533708 -0.000006410801326572901
          -0.000003861176518515919 -0.000009957837197926978 -0.0000082471928126715 -4.16749293519203e-7 -7.078761257162114e-7 0.0000060946718853926996
          0.000011615827638422616 0.000013096685922864282 0.000020440858332193557 -0.000012822238199206026 -0.000023058619468052655 -0.00001683085044934529
          -0.000006211816648615809 -0.00000408776363403085 -0.000002717460081402834 -0.000003941928397699357 -0.000025580727825325056 -0.000026184266391338085
          -0.000004969476198102285 -0.000009352378103510972 -0.0000023766520593770935 -0.000002918333704027276 -0.000004560896405436665 -0.000008343454863446453
          -0.000016196124319911576 -0.000006425433370704781 -0.000016142404112962083 -0.0000035893618592908183 -0.00000267052579383531 -0.000002308335469880518
          -0.0000018522836193746173 -0.000005638690994125284 -0.000006222304350878005 -0.000003970977010769872 -0.000006621863282374463 -0.000017424066193427734
          -0.000020656486849457423 -0.00002054821975994159 -0.00001941425293439103 0.000037472697590246185 0.00008330444904647294 0.000048860590865729137
          0.00003654519655249544 0.000014628502697178192 0.00006534039593386609 0.00003089410765699796 0.00004277456353474207 0.00002960526053019663
          -0.000008658359537117022 -0.000008668092407848604 -0.000007067058917953339 -0.000008661377495222666 -0.000010736386191867453 -0.000010025705430294352
          -0.000014207569225987982 -0.0000028227921053947114 -0.000018654737696799373 0.000006429717211986485 0.000005537725900062185 0.000003089387526244991
          -2.486026076109482e-7 0.000008375953709283124 0.000018369274874530106 0.000011673698844472113 0.00000782687493483536 0.00001620956518522121
          -0.000006299319770697309 0.0000033327973447683235 0.0000020740766135673994 0.000014468574443426974 -0.00000925156780606784 0.000009915349868716561
          0.000005701970619220731 0.000013237550505529327 0.0000017272244199340037 -0.000020240157393658365 -0.000013776209053989463 -0.000007453018882497275
          -0.000005465935661641552 -0.000015015124953610126 -0.000009412793560925614 -0.000013958406352987396 -0.000005238330449852668 -0.000002116162535426014
          -0.00000952302325973875 -0.000009358929314196018 -0.0000051643220837505055 -0.000008753776012060399 0.0000016996750509257197 -0.00001830050893847357
          -0.000022361134646153857 -0.000027843559009088636 -0.000024526701357441283 3.721686083757447e-7 -0.0000015271977398256809 0.0000014649328292648534
          -0.000010123620526769628 -0.000012704429088294944 -0.000006976245925827129 -0.000010317073639853902 -0.000011867237602825043 -0.000017635619532052615
          0.000019859933449772882 0.000029440013529224984 0.000011498564612466566 0.00005193955430549124 0.000020943912567794598 0.00002421271657659929
          0.00002770195041446044 0.000029141052622527752 0.000015484256617348535 -0.0000012692516315748748 -0.000004339183672041891 -0.000002909715732357654
          -0.0000037366325379428744 -0.0000033411095259339163 -0.000005693483106639086 -0.000006760469643277145 -0.000006424240736713216 -0.000003837996537449373
          -0.0000060771859642372306 -0.00000924121878954215 -0.00000740826646428161 0.0000017472572202414938 0.000004521738211193949 -0.0000027285904664609006
          0.000003458797189992424 0.0000020287926614237506 0.000007992157704750369 0.000014763976407206059 0.00000847261369951724 0.000011631691704039326
          -0.00001616755076994103 -0.000013952903666236693 -0.000005371579534063642 -0.00001078295151257791 -0.000018215016973188725 -0.000014857484125219145
          0.00001973100840446662 0.000011521384148061031 0.000023779361655762443 0.000008802258059326107 0.000011966503061344724 0.00000487198363607888
          -0.000005556154942298885 -0.000011844178296804841 -0.000005086981369584187 -0.000003410664326575219 -0.000006630543617491824 -0.000004657066811297739
          -0.000009846978064664835 -0.000015012826258820056 -0.000009343775341785765 -0.000011599916893922924 -0.0000037092559119766833 -0.000014632577926665391
          -0.000019605718079462875 -0.000017537855825366933 -0.000007033134834744104 -0.000007022639528564412 -0.00001880089750661007 -0.00002036246217596016
          -0.000004717676880261479 -0.000006263782370119486 -0.0000032034785280021794 -0.000001693703543415026 -0.000002418482671018296 -0.00000617324450002954
          -0.00001466408565331534 -0.000008382468114298547 0.000013581389942229904 0.000001606913020424372 -0.000014618102081032092 -0.000010077917912632017
          -0.000010295182243824641 -0.000007171247684123472 -0.00000536230444625474 -0.000005454888939659952 -0.00001219525566265034 -0.0000073965641185225195
          -0.000022189609507172747 -0.000014572019745029419 -0.000017455463356075285 -0.00003588732071513334 -0.000005768905646907907 -0.000017370031622832016
          -0.000024553969475427095 -0.000012875694694325368 -0.0000161757094594428 -0.000024930136007128567 -0.00003775971509512033 -0.00002404590649618399
          -0.00001971989769389282 -0.0000046335993304502665 -0.000018931745372929853 -0.000018539468399803027 -0.000026190372423684494 -0.000015914771884339984
          -0.000012817051068370056 -0.000006763771228102122 -0.000010378665652011065 0.0000028403830967249633 -0.0000015973395772750365 -8.59827664623225e-7
          -0.000008517426556498009 -0.000004984688988018959 -0.000008490209467248988 -0.000013578869321850817 -0.000015996335323009703 -0.000013236300745678165
          -0.000011658796035707297 -0.000005152341368219737 -0.00001000541407902844 -0.000002023967068165433 -0.0000012653706704668366 -7.1819192370981e-7
          -4.277263698782008e-8 -0.0000040470677471482475 -0.000006887985882109149 -0.0000035235061011107405 -0.0000046236315049963395 -0.000003425859988137603
          -0.000003986955201540354 -0.000005021513851843906 -0.00000752883096977186 -0.000006138450964865427 -0.000004742003009816642 -0.00000713881216896084
          -0.000004488307851602258 -0.000006213851156733341 -0.0000034315882051494384 -0.000003038662661936087 -0.000005727782716569152 -0.000007389929636669734
          0.000013481875431153867 0.000030572284764218693 0.000029228675564318962 0.00005928211315975318 0.000019601546184411234 0.00003325271982923539
          -0.0000017589943004381325 0.000007762253417809006 0.0000010928049638536663 -0.000019727852033746274 -0.000020893799872467866 -0.000014358624766508399
          -0.000020317374063161253 -0.000008192073149171364 -0.00001634701359609636 -0.0000028133251297468576 -0.000029196306673640038 -0.000022127634009994068
          -0.000007399589770695769 -0.000007156077832970453 -0.000006345821517594885 -0.000006016735186076261 -0.000012054466479227699 -0.000013099661175353106
          -0.000007968421577242424 -0.000005461843673781885 -0.000006632618033020066 -0.000004842286010164898 -0.000001166265020557944 -0.0000043347488916101184
          0.000007352891992606914 -0.0000021433592241049126 4.3735705057557084e-7 -0.000011201731295207296 -0.000007430632465554865 -0.000007508884970253149
          -0.000005579505234276638 -0.000013546810115672159 -0.000009243928473345875 -0.000004282359824747672 -7.750747490486987e-7 -0.000003037948249406952
          -0.000008650720571434789 -0.00001546288588771816 -0.0000036342772908870558 -0.0000032292360931940323 -0.000007462215271925032 -0.000009931536413265718
          -0.0000032289314642053313 -0.000004192117402768147 -0.000013333267506077107 -0.000023032473956074995 -0.00001606417866151233 -0.000012057894096528798
          -0.000019320482816720386 -0.000007547935820806373 -0.00001283419999964508 -0.000002218460237735087 -0.000024221632354937128 -0.000013721956143797343
          -0.00003142265220068552 -0.000013271010258275595 -0.000024498784550797126 -0.000012748500608505964 -0.00002343185104569656 -0.0000056919876461059005
          -0.000014157467700837145 -0.000017494273795826132 -0.000023923176031948046 -1.2502562229954606e-7 1.2917826408553879e-7 -6.971464432403707e-7
          -3.8993220119465377e-7 8.531105195608291e-7 0.000002145106586137757 0.000010428496621806005 -0.000002917911754440894 7.412617519797493e-7
          0.000005192525784125657 -0.000004076780894979315 -0.0000015026816491126027 -0.000004797926018929033 0.0000019520563228070387 -0.0000041208992708763326
          -0.00001096873401817966 -0.000007431731789298013 -0.0000028815896162548427 -0.0000031966492863855223 -0.000006821626605590936 -0.000005559010482825144
          -2.625151286905769e-7 -9.567935497778457e-7 -0.0000028688833894063848 -0.0000013323817604771193 0.000014244160999488109 0.00000996247149342988
          -6.436691890598922e-7 0.000007975586947317481 0.000006835888807010804 0.000005024864606184565 0.000018159254255412094 0.00001602438804537698
          0.0000015120477829810852 -0.0000028069406250996742 -0.0000013657018325674564 -0.000007475545882318357 -0.000006036909428352999 -0.000012253552765795206
          -0.000004963523101864098 -0.000006497995438836668 -0.000008720847621157546 -0.000012219769609078668 -0.00001223114599491204 -0.000016908947002347574
          -0.000013981504105142761 -0.000010335844024655927 -0.00001671476635412006 0.0000022813700919499524 -2.399590581791955e-7 0.000002124951891335769
          7.754088278133509e-7 0.000012519418055134679 0.000001958160781967422 -0.000017732875308595908 -0.000012463407392360182 -0.000014122382240966402
          -0.000022815482437765766 -0.00001481385242563249 -0.000009702715668691297 -0.000008454611797992229 -0.00001665943959827665 -0.000012242840178755543
          -3.023633432519546e-7 5.539059051429263e-7 0.0000016390168902091773 -0.000010549775666390815 -0.000015657656991852065 -0.000003550768852278452
          -0.000009197126629612029 -0.000006763700577394616 -0.000012059462018987332 -0.000019941027421310764 -0.000018861161937167026 -0.000008155088712324954
          -0.000010989471754374591 -0.000015581711701795342 -0.000012455410297818048 0.000005346323399546549 0.000011912882401432512 -0.0000014850278260425398
          0.0000026222341968917817 -9.651845602753895e-7 0.000005161468718206663 6.004992134656106e-7 3.6470032505064864e-7 0.000006363454917668321
          0.0000034630518288558676 0.000009670561965435809 0.000005141266964159286 -0.00003310288456637167 -0.000012039076044967345 -0.000009719095629190377
          -0.000012878008736727509 -0.000007320922449149947 -0.000004183217732212086 -0.00002470419991063011 -0.000013904872137260327 -0.000013779290858995097
          0.000011176475437579825 4.828119551936183e-7 0.000004057269346935399 -0.000018511201296700364 -0.000010556717000120841 -0.000016785396538043784
          -0.00001632126574913073 -0.0000057060550253673625 -0.000012993483938572581 0.00001896814294077842 0.000016954320734896555 0.000016458165346122655
          -0.0000074448077147515335 -0.00001111006038323481 -0.000025049333299165255 -0.000004132775861087623 -0.000007975325945430711 -0.000008463709870065728
          -0.00001557860221801377 -0.000015206574585757693 -0.00002340704602499244 -0.000019424389321454072 -0.00001191100036690429 -0.000016792462931736196
          0.000008153146806133549 5.540160410433259e-7 0.00000355422436948416 0.000018223954131535436 0.00003071533691922923 0.00000450806162444195
          0.000016272566835340285 0.000005734682122060519 0.0000146791238417876 -0.000013599735465330554 -0.000004482428785923531 -0.000013260514463819817
          -0.000031401427350807865 -0.000009791952288229488 -0.00001771462298849613 -0.00001872357047449924 -0.000004727870951626301 -0.000015993558085902748
          -0.00001135842946853316 -0.000003921457840228015 -0.000013126519294637262 -0.000011489992109758873 4.146890488776478e-7 -0.000005847206806297578
          0.0000020326228256095646 0.00002453121623702259 0.0000033349581070041268 0.00004185707918580306 0.000013978739935360807 0.0000918238268869942
          0.000044843521781245954 0.00005037873447211183 0.000021198778302533583 0.00005165872967882734 0.00002071435091277607 0.00010036034526450521
          0.000045057381536928176 0.00008740433030141048 0.00003883905640300611 0.00005799321858734885 0.000023634676548311973 0.00010056608298114611
          0.00004386066798112154 0.00010760284945821041 0.000047662208601195744 0.000053819217598061186 0.00008740925185435344 0.00006611966285507975
          0.0000630448984919596 0.00009937940136062196 0.00009312748121992342 0.00006972573882357835 0.00010221116751107928 0.00011643189832444278
          0.00006579751138513501 0.00007985273753963185 0.00006495870948697302 0.00007446806535860162 0.00009534890516960104 0.00009214670963686444
          0.00008115113676598895 0.00010476939522074957 0.00011947332698181157 0.00006514049177130943 0.00007068093410911302 0.00004622754633043513
          0.00008156858561658709 0.00009792867718605436 0.00008187953194394026 0.00008919510894322968 0.00010256877351988436 0.00011079043179673675
          0.00006101137705893933 0.00009399261446141338 0.00005188889506868577 0.00008783216926389059 0.00009675928060826067 0.00008186905802176625
          0.000029122888076216213 0.00004054111774998148 -0.000011983540448845531 0.00007724904947803424 0.00007866894163743865 0.000017136008757745458
          -0.00003187399223048004 -0.00008015747650524929 -0.00012561730841564867 0.000025015799934635652 -0.000015548965262901504 -0.00009466134863611586
          -0.00015041947487404173 -0.00031598301021595887 -0.00033239542229868135 -0.00012515946216673512 -0.00030939746007696556 -0.0003550736893034312
          0.00027937036721237263 0.000546732617946688 0.0001201735796536596 0.0001526172308707885 0.00027513475769413986 -0.0000661953873333232
          0.00007563991130687953 0.00003184577781301101 0.0001233467839147906 0.00005466381182106517 0.00011930802212400948 0.00005101410826036101
          0.00009267834438286826 0.00013502079236360487 0.0001292957902450098 0.00010897710421531315 0.00015132576597842728 0.00013658311360220665
          0.00012244336930766764 0.00016552836114680503 0.00013856493848507512 0.000124643007599623 0.00016912493149501273 0.0001200278576565239
          0.000022547441369091814 -6.188735546253099e-7 0.000008332783519193754 -0.000007858036839003546 0.00002211590120637652 0.000007046445310798788
          0.00005557464526351197 0.00001768308084937331 0.000037612357061789226 0.000004955465104927725 0.000017338640486030954 0.00005452049891552235
          0.000020299062247097766 0.00004523591713478936 0.00003619635732832194 0.00003208704348844904 0.00004144394818528241 0.000020057128284456383
          0.000024779657427309587 -0.0000024186450513496993 0.000011454137452959756 0.0000226787479866708 0.0000329375524374953 0.000019610924820501197
          0.00007043744177170908 0.00006564864514402302 -0.000002066414141133066 0.00003954179532605906 0.000006535357904624561 -0.00004395248585709055
          -0.000013493344280135489 -0.00008927120039459169 -0.00011794659809893915 -0.00007992155243030652 -0.00021331073668307 -0.0002144386107136853
          0.00029025988604303166 0.0005469649494500572 0.00020137111002149766 0.000046973959790364006 0.00001814583607906428 0.00010659400831158905
          0.00004672663021487722 0.00014754214239687258 0.0000630284097749012 0.00006258526458324809 0.00012216317862723258 0.00016020835921182197
          0.00007711703237234246 0.00014264852142886753 0.00017307494789164934 0.00009230078387290064 0.00016758241506664717 0.00018752713235592466
          0.00010143411548746428 0.00018206762287320544 0.00020158603261499763 0.00010461414092155508 0.00014708035302035682 0.00010380569679302454
          0.00010845851433138876 0.000193412468796339 0.0002213390165222151 0.0000575172302461624 0.00010006376939486472 0.00003755588137721588
          -0.000027351398466990418 -0.00007420664590895854 -0.00013142063427373785 -0.00023607458858521113 -0.000491102683358946 -0.00036349361500676025
        </DataArray>
        <DataArray type="Float64" Name="resid_y" format="ascii" RangeMin="-2.0924417960559056" RangeMax="0.00003371296631859977">
          -1.1454389484306937e-7 -2.0136214045566453e-8 -7.003634655087382e-7 -5.284573750376567e-7 0.000001828472731076232 0.000001987755222921262
          -0.0000012715574984603281 0.000003772307146016063 0.000005386958375897324 0.00000403270375777141 0.0000029731625644795374 0.0000070220597369018145
          -5.980339463770509e-7 -2.978772596883006e-7 -4.0327785096744284e-7 4.514869862831672e-7 -0.0000019931405907660724 -0.0000010950740929951963
          -0.0000016175874747517693 -0.000001158279912968907 -0.000003928168980701224 -0.000001820169172873226 -0.0000018963341067226858 -0.0000037237321727154327
          -0.0000037229206327205056 -6.08310759819819e-8 -0.0000012154546008280587 -0.000005150330470660158 -0.000008768558500238388 -0.0000030307899236692304
          -0.000006867693935985741 -0.000011938854868998039 -0.000021799638494496287 -0.000011264925487503019 -0.000013071166885980645 -0.00003155607756105683
          -0.000008387762242091385 -1.4928243403412866e-7 -0.0000030261270682879066 -0.000005355359838780591 -0.000016278190088953905 6.122912238355066e-7
          -0.0000062465569818925815 -0.000011320722641101899 -0.000007422318287791073 0.0000027585145258909177 -0.0000011408541913515008 -0.000005401162750046443
          -2.6426611331176186e-7 -5.459514667571774e-7 -6.934187543258807e-8 -3.96918442398253e-7 -0.0000011853451861582043 -0.0000015032382526744548
          1.8208046323464622e-7 -0.0000037757137598994073 -0.000002057948044018043 -0.000001721625704262375 -0.00000144513613055397 -0.0000028280523443752204
          -3.324953534128254e-7 -7.44555868111528e-7 -0.0000016333194272381488 -0.000002175823525405081 8.259390983176434e-7 -0.0000012273103264315646
          8.725838729897392e-7 0.0000015402354735273571 0.000007786871132655238 0.000005566853494687503 0.000008839503007208004 0.00001065375597833658
          -0.0000053066260617476435 -0.0000033164918486483508 -0.0000017927710704024324 -0.000004770271144045879 -0.0000025371907464363797 -0.0000021382732517810643
          -0.0000059827804174059085 -0.000005129119589518394 -0.0000046276891531374376 -6.81136399137308e-7 -0.000001702724584811549 -0.0000013153710560576213
          -8.425335093781988e-7 0.0000023302787379536572 0.000004204816409914339 -0.000004633093138001199 -0.0000014646800328421694 -8.418838516044413e-7
          -5.83992720987192e-7 -0.000009914850216244386 -0.000003280434041269542 -0.000004112941876646681 -0.00000441059892125617 -0.000016367671674621942
          -0.000007727686871419892 -0.000006315362427303239 -0.000013181357963132356 0.0000022107720463928476 -0.000001947281126513968 3.317143537316658e-7
          -0.0000027446931613363257 0.000002783140947345067 8.485001850933385e-7 -7.68940085063563e-7 -0.0000013760763207006088 -0.0000010124735377106675
          -0.0000011795922406875048 -0.0000016492484085847692 -5.680699909395293e-7 -0.000007076380367183454 -0.000004196721040523876 -0.00000468790708367528
          -0.000003386142255721713 -0.0000017611994647670492 -0.0000032610914387498635 -0.000009007009664744106 -0.0000024028834770470353 -0.000005924567551204851
          -3.312165745804341e-7 -1.5538510567537737e-7 0.0000016925709446467818 0.00000278372862249493 0.000009794135583031383 0.000009344733574670082
          -0.000003049319862322153 -0.0000012070549607820502 -2.0163501065519063e-7 9.092754779012335e-7 -0.000008086194223849708 -0.000003717120696959675
          -0.000008211871654926345 -0.000007715007914169038 -0.00002412552296002235 -0.000018840781398000994 -0.000020506639445536448 -0.000022965666240394676
          -0.000002964951824408618 -8.127228113864737e-7 0.000004027536288066236 -0.000003133590643304013 -0.0000019698388607804207 5.887082148436917e-7
          -0.000006548378396087351 -0.000004516233136388215 -0.000005426413516571027 -0.000002133904417753879 -0.000008863845321907537 -0.000004227314099158885
          -0.0000025511911911409862 -0.000016953883768596606 -0.0000019661540781520936 -0.0000053919738111970344 -0.00001275850208624571 -0.0000031284644197090983
          -0.000015695528670086473 -0.00002593923482193186 -0.000012950140796143261 -0.000005171480344179358 -0.000004166623940649039 -0.000006008486389319501
          -0.000005539124659337258 -0.000003741665626860735 -0.0000019921087324598075 -0.000009120503563678217 -0.000008543740724328841 -0.000008125595812702446
          0.000005144587410623076 5.923877673666075e-7 0.0000011634576258176543 0.0000019369673456099898 3.391597210612718e-7 0.000004922202048495208
          0.000006873680262725612 0.000005272615244517401 0.000008942353206654527 0.0000019326437959363285 0.0000024036892967670143 0.0000015345220508765703
          0.0000052240033738019595 0.000005228327166554615 0.000007503398003331531 -0.000019835234124250534 -0.000016831439728901 -0.000040754448192341364
          -0.0000365807427849113 -0.00003747164841939876 -0.00003668549663927989 0.0000035115495729902933 0.0000049349720681766615 0.000001468973366924517
          -0.000003726851752344773 -0.0000013076531434827454 -0.0000021914391373639708 -3.33879560200645e-7 -0.000001262153454403836 -0.0000032457732932617
          -0.000002030936839793329 -0.0000012556835991333823 -0.0000021073126762263805 -0.00000194666799656568 -0.000004445017798455908 -0.0000059928730260774485
          0.0000010937584268683707 -3.886191448515281e-7 -0.000002325481376649766 -8.090425705591098e-8 -1.4043164859277313e-7 -5.921871938478762e-7
          -1.2251129677745554e-7 9.478558413659327e-7 5.311721301762273e-7 -0.0000016489531180323425 0.0000010664853867248247 0.000003164907292175362
          0.0000022090172746031672 0.0000025456158209060525 0.000004034276662180994 -0.000042881317073195646 -0.00008629064948212362 -0.00006376203378016809
          -0.00004341071155078424 -0.00002754834475419271 -0.00005507046846742192 -0.000052835657646237155 -0.00004650739188061248 -0.000040060702593686104
          9.54025272379734e-7 0.000005699418024343074 7.89307831030369e-7 0.000007606703716384056 0.000004725552299083332 0.000007112700341433374
          -0.000003883165721398074 -0.000005147386567913581 -0.000004706503570317544 -0.00000605276683697531 -0.000010688160321202511 -0.000008273359141927616
          -0.000009775506392709077 -0.00001870687427403539 -0.00003419051424859848 -0.00001912154166576127 -0.000013634632237247146 -0.00003234672511745473
          -0.000015450824405544017 -0.000011680767230629746 -0.0000073905509369587286 -0.00004692752949204959 -0.000028275387672957453 -0.00001981325264852063
          -0.000012327647928703223 -0.000030286910170942982 -0.000019712738565047516 -0.000003708472540241148 -0.000002196153705932846 -0.000004053272193646484
          2.6911916972682803e-8 -0.000004272379511401081 -0.0000019400081039122608 3.542340842321856e-7 0.0000015131720053074282 5.964535271241189e-8
          5.663570471013245e-7 -0.0000010070345036750084 -6.618282836490241e-7 -0.000004155893139123901 -0.000007059327812251534 -0.000002093416359122413
          -0.0000024565578767357654 -0.000005990829142737963 -0.00001017707240641365 -4.526131562919769e-7 -0.0000022239616498612863 2.7096236096882387e-7
          0.000008443638152845143 0.000013250881654290614 0.000004497681853003754 0.000006469882453261772 0.000005275264232345971 0.000006774872714363639
          -0.000022163721842743088 -0.000020466899304519108 -0.0000164275035862034 -0.000029275583248375425 -0.000016697446996025676 -0.00001483022029780557
          -0.00001955947424930253 -0.00002498437737245493 -0.000014029249074309176 -0.0000020257316068611475 0.0000022698781475365137 -0.0000016433546467138627
          6.37547175979386e-7 -9.4796504584993e-7 0.000002224580397246212 0.000006162692320682214 0.000005780027447808284 0.000001759782851827249
          0.0000017915536730519696 0.000004594070513215184 0.00000270700125901786 -8.066622313339031e-7 -0.000006132405960011106 -0.0000022177036505081904
          -0.000017049899575516392 -0.0000018868947782336998 -0.000009848231057516671 -0.000014292830351172103 -0.000016708282000949546 -0.00001277972287556722
          7.145934381308505e-7 -0.0000016614136683981706 -0.0000011898319700852367 -2.3142639215059657e-7 7.227977259285923e-7 -6.72432801648859e-7
          -0.000007992275306141342 -0.0000046920793487872405 -0.000019261716234096247 -0.000010236049551352877 -0.000011917907541518676 -0.000007758281114950832
          0.000001474489934243789 0.000007051368421023829 0.0000023004588248238395 -5.361815710713119e-7 0.000003153297633576302 -7.277464200740325e-7
          8.305470290473349e-7 0.000007017207460810471 1.541485026698361e-7 0.000004819947240972816 0.000001171811207716783 0.0000034211166519398234
          0.00000725032504790904 -0.0000022014328749965506 0.000001991409194764676 -0.000002346190809507376 0.000005631148400696978 8.91311126266503e-7
          -0.000005363543217888622 -0.000004735155751500741 -0.000004564851101659939 -0.000004583746786170073 -0.000007422141892518552 -0.00000880468011910801
          -0.000007958968572946423 -0.000006184617359406008 -0.000004197406875294796 -0.0000031936890565326115 -0.000015431474596400152 -0.000008016303037899908
          0.000005337216635994957 0.0000030216962500460853 0.0000029813012886225135 0.0000010411470158198932 0.000008050239166629107 0.0000023005237717380056
          0.000001573289996603059 0.000005247927743288333 0.0000056729818783901945 0.0000017147787468689557 0.000003159099350069812 0.0000034737915336549574
          -4.228797624303629e-7 0.0000029026815625745467 8.684929179540724e-7 0.0000035550917405497567 0.000007163092558709963 0.0000036700773138565942
          -0.0000032133044019430623 -0.0000033549017554104776 -0.000001299689114268865 -0.000006348237805373254 -0.000013260133753065229 -0.000006214742684248348
          0.000004196323958534625 9.661828889078253e-7 0.000001732917006449456 -0.000007346128196999979 -0.000004184366404806628 -0.00000475358702033829
          0.0000046718760051724095 0.0000025014998343859257 0.000004519908557370535 0.000008329554035666365 0.000013036144365856633 0.000007399323163194502
          0.0000014265952645049068 2.0274827880820134e-8 -5.709738091878858e-7 -0.0086088213581497 0.0000036917984771421553 -0.017229174787885587
          0.000003902091366608795 -0.00886475432523965 0.000003912075745690982 -0.01185684577543275 0.0000036382716181969366 -0.02371551431789579
          0.0000011415510980956195 -0.012016816024395499 0.0000019292659305149285 0.000002089470885771605 0.0000018908786716016757 0.0000018488342930535195
          -0.015581077238372345 0.000002971609572575626 -0.03117539857839241 2.757038909690507e-7 -0.015656134469098706 0.0000014604222850385373
          -0.00003024486641060864 -0.000044632219823981245 -0.00001819139495828903 -0.000027765326604145546 -0.000022172126731626052 -0.00002907541443225581
          -0.000010192833741345941 -0.000006971043708031699 -0.00001564807935147683 0.00000711252546916404 0.000009821810819868413 0.000005554472671781552
          -0.000001912491116792814 -0.0000035771571736537 -0.00000325458380992516 -0.000002687872578246986 -0.0000038516695125001554 -2.530065545541804e-7
          -0.029139606916777118 -0.034526229066610306 -0.058290000525892685 -0.06906802026721237 -0.02926920024334725 -0.03470072567793465
          2.78587090210905e-7 0.0000010222386998114813 5.092574360491403e-7 -0.00001005576944043858 -0.00001814512708926165 -0.000008930863520511048
          -0.000009096317320149427 -0.000004103253270146268 -0.000005537392626712295 -3.752752544879806e-7 -0.024175733630043113 -2.80220205543108e-7
          -0.048361644460300536 0.0000018690811353951065 -0.02428201109230188 -0.000010901410321291494 -0.000004709770329722196 -0.000009883621649942054
          -0.07695697443088362 -0.000004914737698195892 -4.613846009277056e-7 -0.06851386460592787 -0.1539867350599546 -0.000004585382238974506
          -1.3410955947840142e-7 -0.1370992832868413 -0.07773956182402775 -0.000002371600697388676 -5.702662786571944e-7 -0.06923507397049908
          -9.198394302495361e-7 5.944535414539875e-7 8.683514373455936e-7 5.825731741217199e-7 0.0000017112186454747158 3.4629935075081164e-7
          -0.000004754577560515949 -0.000003986266395049343 -0.000002849430653310836 0.000004142810516832851 -0.000001397144990721022 0.0000016446702539585356
          -0.000003615261487920074 -0.000002064914607156909 -0.000004068462122468197 -0.000018825254124620744 -0.000013723463631425126 -0.000006916289533855265
          -0.000006903514926371451 -0.000010595619054388876 -0.000011091111201920467 -0.0000038100016566851302 -0.000002910433218514946 -0.000006453780708261941
          -0.000011888148257234443 -0.000006245406512749019 -0.000007892562343389531 -0.000005142156586784852 -0.0000031711607183376733 -0.000009336623602473892
          0.000001658402528451411 -0.019666288996847928 -1.2187532157613423e-7 -0.03934448779267856 0.0000016196309613799448 -0.01973776107860674
          -0.000012176991556214767 -0.000003735756704419113 -0.000007774717265533748 -0.00001052719679250913 -0.000022032876802857704 -0.00001827203247203868
          -0.000007403280484680197 -0.0000229610809161368 -0.000011713473253162354 -0.000013118284197033425 -0.00003170930287481333 -0.000023113680587452667
          -0.000012021526705444097 -0.000005046434539815459 -0.000007554374922932872 -0.04647575493380411 -0.05306320393662981 2.203241043254034e-7
          -0.09297085836885005 -0.10615383788397727 -0.0000018367621087665709 -0.046958252844655976 -0.05380830918212859 -3.656525226145013e-7
          -0.08593666832300932 -0.17195505405525385 -0.08676528984209797 -0.000015116628591493875 -0.000007809155819812896 -0.000012903664188199104
          -0.00001439037057288095 -0.000009011134436937018 -0.00001820461705534515 -0.04037376828862799 -0.0807680088896314 -0.04060513386151571
          -0.000006002815860980948 -0.06064347536665294 -0.0000025663808704765034 -0.12132197690390085 -0.0000010831966852781205 -0.06137733993704394
          -0.000008500269036884611 -0.000005804136067322219 -0.000012849894368061054 0.000005371643053990807 0.000005381151380308077 -0.0000010343114368333711
          4.901790230330688e-7 0.000001242922944025282 0.0000025261761078653605 2.3844738308419905e-7 -0.0000019130462068604748 4.5440517074980813e-7
          -0.000002376300673165299 -3.0442731612650986e-7 -3.431802695734454e-7 -0.000014390578056109465 -0.000015945189219809808 -0.000004759232191575008
          -0.000007109594666598884 -0.0000061380606448946384 -0.000010924073155643699 -0.000013011770106329673 -0.000012867658381321423 -0.00001006316052637804
          -0.000007423877952231206 -0.000018958350356240022 -0.000013425861812549345 -0.000004104019280623539 -0.10561577181880519 -0.11633227569321275
          -0.0000014088815638302332 -0.211302536761644 -0.23280999095461746 -0.0000015269052423827478 -0.10649118215945674 -0.11727652969748559
          -0.000020784300933704425 -0.00000401423491623587 -0.000007552407352562351 -0.12750711487281033 -0.25526047329413176 -0.12845441659937556
          -0.09554475991421 -0.1911592628880646 -0.09637767450879081 -0.000022270046859201864 -0.000011383182900392974 -0.00002264815422467481
          -0.151042667905542 -0.16430699772122045 -0.0000061891223294419095 -0.3024218096699446 -0.3288300279880547 -0.0000030811179837914038
          -0.15195107835295954 -0.16574296232279606 -0.0000030151727771210446 -0.1384114541935885 -0.27704897888112845 -0.13934383114068674
          -0.00001807041135925072 -0.000005427781329694209 -0.000007879582205255059 -0.00002991081852153632 -0.00003488063233980654 -0.000014326840916428774
          -0.000037881372584536166 -0.00001400019434243116 -0.000028398857289280155 -0.17704711121719072 -0.3540617315023736 -0.17828193093101313
          -0.000008072061299296829 -0.0000023982906205144428 -0.0000034614296997304006 -0.000002799194875932609 -7.053148019797728e-7 -0.000002947989987359123
          -0.19030597435163 -0.3803211193516792 -0.19245159556808986 -0.20791252390508208 -0.4151934095697925 -0.2134962941206297
          -0.4898653995178959 -0.9797210523738817 -0.49421193778820277 -0.000010336699830637563 -0.8586676083180405 -0.000009960158025457133
          -1.7173714810721574 -0.00002279189139287041 -0.8584053764434075 -0.000005994620865812372 -0.9836768266796326 -0.000007973653306403428
          -1.9674381485986217 -0.00001690513762053758 -0.9850223488107033 -5.21148688537032e-7 -1.0453427746903037 -3.502906851249321e-7
          -2.0907837805259155 -0.000011177533864037414 -1.0471674450493196 -0.00003804316509092853 -0.000029295456876687886 -0.00003874022381522568
          -0.000022827316874862724 -0.00001987083389232147 -0.000030429753922978087 -0.000008919674133522904 -0.000004345694100682529 -0.000020986966836389342
          -0.00005267731339120285 -0.00004563118771927499 -0.00004767535550231905 -0.00003750660261792049 -0.00003412974222172238 -0.00004152495591758232
          -0.00001786722263263929 -0.00001223604998212835 -0.000030240005632231615 -0.00007351135947075704 -0.00010086426626809697 -0.00006391176555253786
          -0.00005836429522709796 -0.00007093901734156471 -0.000054647908690808045 -0.00002934949446609103 -0.000029727505545973365 -0.00004161486265252812
          -0.00006786576200779049 -0.00009679728732958637 -0.00006526819551788687 -0.00004161676932890046 -0.000054110063580914414 -0.0000562935863224201
          -0.00008566667886200641 -0.00013533470778270829 -0.00008388923206426036 -0.00006276454938192177 -0.00010052005348260007 -0.0000788429266038726
          -0.00010591714768393157 -0.00018037016342464796 -0.00010586017924241187 -0.00010257991160067537 -0.00018962620731832747 -0.00012050899102089563
          -0.00010385558218578561 -0.00018089383119190838 -0.00010501501339904573 -0.00015842772120344684 -0.00030240052701746567 -0.00017790515400728513
          -0.00004618905891501379 -0.00006896080205388844 -0.00004139834324809466 -0.00010346761267254756 -0.0001977015849200514 -0.00011447447099471875
          0.0000015652211594607834 -1.0461672840870233 0.0000064633838314787084 -2.0924417960559056 -0.000003288972903914278 -1.0481565126072732
          -0.0000012745624499155284 0.000010654091437745095 -0.0000060519747070442165 -0.000005416586186801631 0.000010291815750407274 -0.000010086541012643835
          -0.000011788318962757671 0.0000015006598292899298 -0.000017386415127829125 -0.00002789687682136499 -0.00003157165116274285 -0.00002912524938214478
          -0.000045735921977707594 -0.000031804156511383574 -0.00003780809018205655 -0.00004227492198888294 -0.00003773244023241862 -0.000045237100131906294
          -0.00008459129463567194 -0.00004528443061813797 -0.00005692206318746486 -0.00010526739998495405 -0.00006656220843306859 -0.00006502773731438538
          -0.00006140557728701035 -0.00005048277463616524 -0.00004025847616467154 -0.00004621085064531426 -0.00005840679432430468 -0.00003680993281558395
          -0.000056829413402958995 -0.00005256298835104589 -0.000046921586784612335 -0.00005178351455120689 -0.00005977809582791149 -0.0000427186868990348
          -0.00007321081692028032 -0.00011483070639124217 -0.00006983220275018354 -0.00007648947806593309 -0.00013265478133850372 -0.00008797138976679442
          -0.00008704174522505825 -0.0001505576901588146 -0.0000990755738715654 -0.00006603417730938199 -0.00009954435418113583 -0.0000732694908309739
          -0.00003079047257668194 -0.00003614642673274715 -0.000025838445856796177 0.000004497612115406113 -1.002040526744933 0.00000881290617044117
          -2.0041905776597377 5.649479137836977e-7 -1.0042492502693927 -1.0915487524965073e-7 0.00001307281349793854 0.0000019994151047586506
          -0.0000011462426064978715 0.000023914962841820042 0.000006415739526033359 -0.0000026818032344833043 0.000028579860145816482 0.000005782783383589951
          -0.000002608879179577528 0.00003371296631859977 -0.0000012054399736172172 -0.00004847690008258354 -0.0000749268360356048 -0.00005285699553136958
          -0.000024246827831753137 -0.000005900061174735072 -0.000028338380039016897 -0.00009186900780089324 -0.00016235446726087233 -0.00010196524574990207
          -0.00022231196054955937 -0.0004096989676831697 -0.0002333622635766197 -0.00019986828317608563 -0.0003612321040074029 -0.00020187234853541458
        </DataArray>
        <DataArray type="Float64" Name="resid_z" format="ascii" RangeMin="0" RangeMax="0">
          0 0 0 0 0 0
          0 0 0 0 0 0
          0 0 0 0 0 0
          0 0 0 0 0 0
          0 0 0 0 0 0
          0 0 0 0 0 0
          0 0 0 0 0 0
          0 0 0 0 0 0
          0 0 0 0 0 0
          0 0 0 0 0 0
          0 0 0 0 0 0
          0 0 0 0 0 0
          0 0 0 0 0 0
          0 0 0 0 0 0
          0 0 0 0 0 0
          0 0 0 0 0 0
          0 0 0 0 0 0
          0 0 0 0 0 0
          0 0 0 0 0 0
          0 0 0 0 0 0
          0 0 0 0 0 0
          0 0 0 0 0 0
          0 0 0 0 0 0
          0 0 0 0 0 0
          0 0 0 0 0 0
          0 0 0 0 0 0
          0 0 0 0 0 0
          0 0 0 0 0 0
          0 0 0 0 0 0
          0 0 0 0 0 0
          0 0 0 0 0 0
          0 0 0 0 0 0
          0 0 0 0 0 0
          0 0 0 0 0 0
          0 0 0 0 0 0
          0 0 0 0 0 0
          0 0 0 0 0 0
          0 0 0 0 0 0
          0 0 0 0 0 0
          0 0 0 0 0 0
          0 0 0 0 0 0
          0 0 0 0 0 0
          0 0 0 0 0 0
          0 0 0 0 0 0
          0 0 0 0 0 0
          0 0 0 0 0 0
          0 0 0 0 0 0
          0 0 0 0 0 0
          0 0 0 0 0 0
          0 0 0 0 0 0
          0 0 0 0 0 0
          0 0 0 0 0 0
          0 0 0 0 0 0
          0 0 0 0 0 0
          0 0 0 0 0 0
          0 0 0 0 0 0
          0 0 0 0 0 0
          0 0 0 0 0 0
          0 0 0 0 0 0
          0 0 0 0 0 0
          0 0 0 0 0 0
          0 0 0 0 0 0
          0 0 0 0 0 0
          0 0 0 0 0 0
          0 0 0 0 0 0
          0 0 0 0 0 0
          0 0 0 0 0 0
          0 0 0 0 0 0
          0 0 0 0 0 0
          0 0 0 0 0 0
          0 0 0 0 0 0
          0 0 0 0 0 0
          0 0 0 0 0 0
          0 0 0 0 0 0
          0 0 0 0 0 0
          0 0 0 0 0 0
          0 0 0 0 0 0
          0 0 0 0 0 0
          0 0 0 0 0 0
          0 0 0 0 0 0
          0 0 0 0 0 0
          0 0 0 0 0 0
          0 0 0 0 0 0
          0 0 0 0 0 0
          0 0 0 0 0 0
          0 0 0 0 0 0
          0 0 0 0 0 0
          0 0 0 0 0 0
          0 0 0 0 0 0
          0 0 0 0 0 0
          0 0 0 0 0 0
          0 0 0 0 0 0
          0 0 0 0 0 0
          0 0 0 0 0 0
          0 0 0 0 0 0
          0 0 0 0 0 0
          0 0 0 0 0 0
          0 0 0 0 0 0
          0 0 0 0 0 0
          0 0 0 0 0 0
          0 0 0 0 0 0
          0 0 0 0 0 0
          0 0 0 0 0 0
          0 0 0 0 0 0
          0 0 0 0 0 0
          0 0 0 0 0 0
          0 0 0 0 0 0
          0 0 0 0 0 0
          0 0 0 0 0 0
          0 0 0 0 0 0
          0 0 0 0 0 0
          0 0 0 0 0 0
          0 0 0 0 0 0
          0 0 0 0 0 0
          0 0 0 0 0 0
          0 0 0 0 0 0
          0 0 0 0 0 0
          0 0 0 0 0 0
          0 0 0 0 0 0
          0 0 0 0 0 0
          0 0 0 0 0 0
          0 0 0 0 0 0
          0 0 0 0 0 0
          0 0 0 0 0 0
          0 0 0 0 0 0
          0 0 0 0 0 0
          0 0 0 0 0 0
          0 0 0 0 0 0
          0 0 0 0 0 0
          0 0 0 0 0 0
          0 0 0 0 0 0
          0 0 0 0 0 0
          0 0 0 0 0 0
        </DataArray>
        <DataArray type="Float64" Name="stress_zz" format="ascii" RangeMin="-281999.6894704877" RangeMax="211372.9537829885">
          2139.071092724096 -25.097851494161205 1695.797775084331 2302.5844400675096 2221.2954247186453 -13.540712374630715
          1826.6613486255258 2383.4662479210547 2303.5197567131945 -1.983573255100282 1957.5249221667211 2464.3480557745997
          2634.9601984458004 1759.2809733139366 2490.3034281595483 3296.4565417301815 2612.092080826953 1684.2302864571207
          2840.551493883592 3412.5527477365986 2589.2239632081055 1609.1795996003052 3190.799559607636 3528.648953743016
          2842.0724783160276 -40795.24563967503 -7948.452547903104 42389.06795674853 2291.4785260978433 -41859.23551466886
          -7680.707606806322 41885.57920336968 1740.884573879659 -42923.225389662686 -7412.962665709536 41382.09044999084
          -3606.7500196783744 -3565.7253172587816 -2162.6368688373745 -255.29086655182533 -3638.0720035014456 -3603.1578509105284
          -2250.0099564985157 -225.285625551473 -3669.3939873245167 -3640.5903845622756 -2337.383044159656 -195.28038455112096
          6931.139594233173 390.8247285339821 1428.9223314287374 6938.804741368212 6784.140140703612 162.13300563505578
          1302.7507944588172 6815.346124139349 6637.140687174051 -66.5587172638706 1176.5792574888965 6691.887506910485
          2167.330053903147 1369.0360635159673 -687.7173486754933 -1638.1934851283324 2177.990424129282 1382.4299964901693
          -665.2485908549382 -1702.2076965994427 2188.650794355418 1395.8239294643713 -642.779833034383 -1766.2219080705527
          3136.15751229143 75.21514435974746 628.8612382205298 3061.6534482643274 36.61852623567236 662.7569656711898
          2987.1493842372242 -1.9780918884028438 696.6526931218498 -1951.5874661905666 -3615.985027512935 -1988.6139652418585
          -3704.4282500848294 -2025.6404642931502 -3792.871472656725 3457.5360192212347 -4770.945691132587 8068.333399472925
          -4733.585850410733 3284.2466673794756 -4890.073605239724 8538.607173387443 -4679.045938793968 3110.9573155377157
          -5009.20151934686 9008.880947301961 -4624.506027177205 772.7070982955539 -1461.573659787076 842.6270022220011
          -1490.1573804779002 912.5469061484484 -1518.7411011687245 -1582.7715791229903 -2480.736622405198 -1581.9930902702492
          -2546.9323025006083 -1581.2146014175078 -2613.127982596018 15781.927944740395 18190.87321218814 7908.834784581059
          16368.647479807443 19002.034401897305 8226.793275592438 16955.36701487449 19813.19559160646 8544.751766603815
          -1986.5138075032196 1329.8212906192348 -2035.301727021479 1353.4219851405803 -2084.0896465397386 1377.022679661926
          4272.384730943407 595.5244351375327 789.9597898977984 10201.4337153036 4191.184494875413 581.7947988135992
          804.4888211301559 10366.632874693121 4109.984258807417 568.0651624896659 819.0178523625137 10531.832034082643
          3649.559979300923 4073.093013995368 5867.020255122128 3767.8870806345794 4151.881546430408 6131.551978019739
          3886.2141819682356 4230.670078865447 6396.083700917353 144.32301643179426 143.66137148909675 142.99972654639924
          -5204.016017906838 262.0759478590629 -5599.296282468644 -5238.369428459603 259.72279635319364 -5756.722839303573
          -5272.722839012368 257.36964484732454 -5914.149396138503 -5316.465680641178 -6629.658535032864 -3524.507331097583
          -5390.650782459684 -6714.426439988742 -3544.242078273456 -5464.835884278191 -6799.194344944619 -3563.976825449329
          -1744.2001304491778 -1070.882638858775 -1041.462189228691 -1747.8252132746513 -1095.1488891364525 -1103.253156148613
          -1751.450296100125 -1119.41513941413 -1165.0441230685356 2576.775100746162 814.7643736770548 2687.411608879766
          824.6194960823029 2798.04811701337 834.474618487551 12426.37633969423 -9560.791141841697 12499.114288891022
          -9674.69883598734 12571.852238087817 -9788.606530132982 -913.5077797467402 -892.9321262384303 -872.35647273012
          639.3685515476782 -18311.651468624674 660.3983809358961 -19174.215239296776 681.4282103241135 -20036.779009968883
          -1872.736458276123 -716.8393319325178 -1872.264158137633 -712.542998158666 -1871.7918579991433 -708.2466643848144
          1857.920066785606 1940.548442261401 2023.1768177371957 2532.2143739290004 2156.087247150399 3097.6556178839455
          3008.274656749239 2475.3886930660997 2162.1001148598248 3107.3573472066173 2924.504677142292 2418.5630122031985
          2168.11298256925 3117.059076529289 2840.734697535345 48220.798301726856 48311.23369901981 48401.669096312755
          56876.75396408436 58248.71523526825 56869.63815415336 58157.74759029335 56862.522344222365 58066.77994531846
          107.96347077749238 1147.1405153132803 53.450116580094964 1117.9832640180255 -1.0632376173027325 1088.826012722771
          -2052.570980534074 -2034.4721958576968 -2016.373411181317 11929.807252255008 4686.991377822515 12211.141009640356
          4682.518783188219 12492.474767025702 4678.046188553923 -400.098159286591 7454.583935827126 14385.853464739645
          4062.0418964458318 -526.1542327144 7385.251433934026 14482.935948033575 4135.16720120285 -652.2103061422094
          7315.918932040923 14580.018431327502 4208.29250595987 -4118.30371882355 -9311.21232490878 -4122.3200148331725
          -9667.575291151523 -4126.336310842795 -10023.938257394266 -22283.865079921743 -487.2075861390267 2780.119254232558
          -10942.270840195071 -23341.870729211816 -667.410568191 3183.488794693939 -11109.73612947192 -24399.876378501896
          -847.6135502429738 3586.8583351553225 -11277.201418748764 699.2380647187869 726.9388283079717 754.6395918971564
          3665.604775755625 3850.891865126423 3753.2467463519106 3883.185689530221 3840.8887169481973 3915.47951393402
          -1905.4362018716251 -1826.8453735025837 -1904.9742408057418 -1813.8380099652898 -1904.5122797398585 -1800.8306464279958
          2221.1334628052978 2266.700867836624 2312.268272867951 -171.144592204972 -1734.4477434027772 -172.29003706573732
          -1691.8869316288205 -173.43548192650275 -1649.326119854864 -74.28571086527245 703.1782055435127 -6.709223249201614
          889.7847115122064 60.86726436686939 1076.3912174809002 672.4869869100446 -1498.2083056346355 759.6025784815952
          -1531.575792830729 846.7181700531457 -1564.9432800268214 4522.6039628030685 4701.955159425979 4881.30635604889
          678.973941697466 -2728.396979833779 680.0477464036765 -3029.823102970459 681.1215511098872 -3331.2492261071397
          1591.650766966584 -884.5179857638009 1666.3592285581883 -901.0161548302635 1741.0676901497927 -917.514323896726
          -835.6262496523332 -2620.24126973403 -3065.566638668577 -848.5534087407606 -2666.059906229556 -3051.2931664381995
          -861.4805678291882 -2711.878542725082 -3037.019694207823 691.9658793748405 763.1329634717491 834.3000475686576
          4199.360288845288 -1200.3371643883859 4320.365994804874 -1298.6242496915702 4441.37170076446 -1396.9113349947547
          -2604.6271574822304 -2022.0905494693802 -2591.4837579548953 -2041.837853819459 -2578.3403584275593 -2061.585158169538
          5614.4112825827615 9576.583996509326 5753.317587157022 10164.552321805199 5892.2238917312825 10752.520647101073
          673.5103548307076 1572.4956351592039 712.9049252012449 1667.167583040043 752.2994955717824 1761.8395309208815
          -896.0360584459708 -591.0368669710531 -200.30446516676272 -914.9262313417936 -567.0961242577565 -167.23708442675695
          -933.8164042376166 -543.1553815444602 -134.1697036867514 -2283.9172661587368 -2403.75878063404 -2523.6002951093437
          -3767.3630722963017 -3806.0576465722625 -3844.7522208482224 -2187.841782343491 -2208.5885582863925 -2229.3353342292944
          -2298.898988108149 -2412.372677643902 -2525.8463671796544 -887.7562438939788 -836.5599141647158 -785.3635844354528
          -1311.4675291848534 -1378.5399161009605 -1445.6123030170672 -608.364116215924 -586.2054984559283 -564.0468806959327
          84.79201095381745 125.75534407551882 166.7186771972203 2178.3830704918955 39.01926808908547 2282.4653955362223
          -7.942813949148876 2386.547720580549 -54.90489598738323 -664.1418787530466 -876.2594684499146 -636.9925534735763
          -947.2583057184384 -609.843228194106 -1018.2571429869622 -2247.2640287574786 -2308.1572682978695 -2369.050507838261
          -323.96745847894533 -948.1979873837538 -253.2506119565149 -996.3379804079929 -182.53376543408447 -1044.477973432232
          68932.26299812215 67843.35145284905 69229.82711650291 68164.10040701424 69527.39123488369 68484.84936117943
          15074.054336204534 15197.470514533303 15320.88669286208 -1509.642333330087 -1554.0308141268363 -1598.4192949235864
          -6496.299039355181 888.0322672711509 -7011.263217225121 804.7748523907053 -7526.2273950950585 721.5174375102596
          2964.790779011465 3289.931614858458 3038.8940184514395 3422.9144669172997 3112.997257891413 3555.897318976141
          -2371.747829994321 -2330.3165913441444 -2288.8853526939683 -1238.083360840419 -1190.953943082926 -1143.824525325433
          440.3386046720395 447.66178219466127 454.98495971728306 1279.7846934024556 2117.5594832762526 1241.1662956921232
          2192.7755127803302 1202.5478979817908 2267.991542284408 -3746.425403772336 -3748.601237060537 -3750.7770703487386
          12952.590541985806 6836.426074954968 6716.204316958789 11091.364939251485 13356.060356305003 6705.760862218199
          6519.122047236587 11474.492766364656 13759.530170624199 6575.09564948143 6322.039777514385 11857.620593477825
          353.8795411406486 -2503.2905948383464 343.7658302491677 -2604.108715932472 333.65211935768684 -2704.9268370265977
          3115.6629955949206 2989.67893084734 2863.694866099758 2256.4361533077667 2579.6634329531 2045.433755977756
          2394.467040070756 1834.4313586477442 2209.270647188412 -2389.215497208735 5452.816464649715 -2476.086922706588
          5395.616741637454 -2562.9583482044413 5338.417018625192 -4388.219219030111 -4470.923612307069 -4553.628005584025
          -4349.143987032321 -4356.673535052452 -4364.2030830725835 -8728.370203183284 -8775.731120776478 -8823.092038369672
          229.5926353334042 893.2207448165661 203.84215833072503 980.7565867783154 178.09168132804587 1068.292428740065
          -204.72782953353476 -263.48153727196166 -322.2352450103883 -23260.791925571022 -29638.84745188452 -15076.259855255288
          -23351.496608729565 -30210.100186603242 -15107.141134567335 -23442.20129188811 -30781.35292132196 -15138.02241387938
          12229.268018423136 12334.199229391352 12439.13044035957 1371.5564236463122 4595.006169092284 -469.8566550210811
          1629.1462268317596 4959.9233214352935 -637.8143845229852 1886.7360300172068 5324.840473778304 -805.7721140248891
          13616.440125432644 13978.468192461369 14340.496259490094 -1755.6549170754672 -1673.5096046157723 -1591.3642921560772
          14638.712937883445 14323.014590183082 14007.316242482724 1952.93740329408 2116.5603042329176 2280.183205171755
          5119.119394560655 8204.381811554333 4858.435570305088 8540.965082453034 4597.751746049522 8877.548353351736
          943.5273263117997 875.5715323821007 807.6157384524013 -460.98485666462227 1932.4710969009657 -501.34416203348667
          1904.8652914858894 -541.7034674023507 1877.2594860708134 3428.2267198608015 -924.7761521899821 3468.7866660961627
          -895.5920097815648 3509.3466123315243 -866.407867373148 6672.984910174666 623.9278397785797 6610.589325291582
          722.9550156564733 6548.193740408498 821.9821915343674 20534.136193228536 11950.819435810126 20642.977340357887
          12225.552455547218 20751.818487487235 12500.28547528431 6782.728618411616 12001.79142475131 10117.317015284072
          6629.019089292177 12361.478253008561 10780.229183349475 6475.30956017274 12721.165081265812 11443.141351414877
          4937.440847435837 5320.042602921934 5702.644358408032 10546.45822779142 11051.82643823804 11557.194648684665
          13513.597925443835 13825.26149768561 14136.925069927383 40617.727580797866 40835.13167960915 41052.53577842044
          23688.051450115803 23248.674762957413 3347.648790024183 25202.80128488089 23205.628829705565 2028.5954335434456
          26717.551119645974 23162.582896453718 709.5420770627079 13636.235666308252 14291.399626371898 14946.563586435546
          -9870.26091223357 -9914.707057960119 -9959.153203686667 56.50063724919346 35533.89034354763 -114.21702366646332
          35656.435886496896 -284.9346845821201 35778.98142944617 18784.278206840358 19920.16015149847 21056.04209615658
          -1297.8588454540793 -2754.7026501238483 -4211.546454793619 24545.610482783843 21586.003102046376 18626.3957213089
          -13521.113469059237 -13474.312724659887 -13427.511980260537 23983.537165618687 21297.050490099722 18610.563814580753
          87396.6314347913 87188.12421570832 86979.61699662534 34404.229031548995 39940.906980297674 34511.46622555487
          40090.120216404895 34618.70341956074 40239.33345251211 5549.1632609132885 2245.43899363769 5478.638694656751
          2122.913748988525 5408.114128400213 2000.3885043393602 -3925.80070274222 -5247.30797133409 -3878.2245047025444
          -5185.333660997865 -3830.648306662869 -5123.359350661641 31587.39352629093 31575.761626947686 31564.129727604442
          11339.499694936383 11324.505824122893 11309.511953309402 474.07320680998237 466.01099411149437 457.94878141300615
          38208.60726509795 38184.93435934002 38161.26145358209 19667.340540434787 19670.291484574303 19673.242428713813
          8474.513432738371 8534.552072690722 8594.59071264307 46056.077707666715 46080.79864697081 46105.51958627491
          32972.32140796806 32933.78755677891 32895.25370558975 21484.58197030684 21369.89123579727 21255.200501287694
          50266.79310287032 50299.62450041886 50332.45589796741 43365.98662435509 43654.80338661291 43943.62014887073
          65588.89637925179 65569.36305940946 65549.82973956713 64112.19918361909 63841.3085373224 63570.4178910257
          74249.88026958812 74275.75451830942 74301.6287670307 151156.61897098337 150825.4411447711 150494.26331855875
          -96847.77289869785 -96359.6899184096 -95871.60693812135 -25375.72678497809 -24925.788043671084 -24475.84930236409
          -271115.02618705854 -270389.7716031268 -269664.517019195 -281999.6894704877 -281955.63241262204 -281911.5753547564
          -11978.329231157008 -12793.801760795614 -12002.698914811215 -12847.35269129282 -12027.068598465423 -12900.903621790025
          -9165.742690087836 -9222.18281600313 -9278.622941918422 -3443.5086263920334 -3374.347190673064 -3305.1857549540946
          6976.8467601969 6697.642951620053 6418.439143043205 29188.733072207986 29619.833664399783 30050.934256591587
          18804.91938057897 15425.269434655926 19015.832614786086 15363.764259726991 19226.745848993203 15302.25908479806
          36122.05424699412 -12865.839104931763 21086.254505108132 36317.31504256625 -12959.867469917192 20939.44998782107
          36512.57583813839 -13053.895834902623 20792.645470534015 315.16651550559254 274.1552216996747 233.14392789375734
          9376.663287450927 9372.174541946122 9367.685796441318 2988.542036796418 2980.0414571371944 2971.5408774779703
          52723.88700861813 52707.749286284066 52691.61156395002 48178.431319219846 48300.298828252984 48422.16633728611
          -62.98188363921872 -54.13967142400725 -45.29745920880123 -119002.57189781012 -119093.02435796196 -119183.47681811379
          -196967.91455221927 -196882.23069468598 -196796.54683715265 -16057.198734630085 -15945.365415916896 -16038.492485889763
          -15935.87367145135 -16019.786237149441 -15926.381926985807 -14601.667855803655 -14641.513489752908 -14681.359123702165
          -9887.315704672665 -9785.724237787028 -9684.13277090139 -68.42799033033839 -357.98685733615025 -647.5457243419622
          24515.76470792092 25032.627625083373 25549.490542245825 49214.32072396339 48569.84095202718 47925.36118009098
          52151.26589552909 51445.47148613329 50739.67707673751 211372.9537829885 210690.6034056394 210008.25302829035
          57266.713822917285 57843.289287043786 58419.864751170295 -254489.22252211103 -254936.95387102687 -255384.6852199427
        </DataArray>
        <DataArray type="Float64" Name="peeq" format="ascii" RangeMin="0" RangeMax="0">
          0 0 0 0 0 0
          0 0 0 0 0 0
          0 0 0 0 0 0
          0 0 0 0 0 0
          0 0 0 0 0 0
          0 0 0 0 0 0
          0 0 0 0 0 0
          0 0 0 0 0 0
          0 0 0 0 0 0
          0 0 0 0 0 0
          0 0 0 0 0 0
          0 0 0 0 0 0
          0 0 0 0 0 0
          0 0 0 0 0 0
          0 0 0 0 0 0
          0 0 0 0 0 0
          0 0 0 0 0 0
          0 0 0 0 0 0
          0 0 0 0 0 0
          0 0 0 0 0 0
          0 0 0 0 0 0
          0 0 0 0 0 0
          0 0 0 0 0 0
          0 0 0 0 0 0
          0 0 0 0 0 0
          0 0 0 0 0 0
          0 0 0 0 0 0
          0 0 0 0 0 0
          0 0 0 0 0 0
          0 0 0 0 0 0
          0 0 0 0 0 0
          0 0 0 0 0 0
          0 0 0 0 0 0
          0 0 0 0 0 0
          0 0 0 0 0 0
          0 0 0 0 0 0
          0 0 0 0 0 0
          0 0 0 0 0 0
          0 0 0 0 0 0
          0 0 0 0 0 0
          0 0 0 0 0 0
          0 0 0 0 0 0
          0 0 0 0 0 0
          0 0 0 0 0 0
          0 0 0 0 0 0
          0 0 0 0 0 0
          0 0 0 0 0 0
          0 0 0 0 0 0
          0 0 0 0 0 0
          0 0 0 0 0 0
          0 0 0 0 0 0
          0 0 0 0 0 0
          0 0 0 0 0 0
          0 0 0 0 0 0
          0 0 0 0 0 0
          0 0 0 0 0 0
          0 0 0 0 0 0
          0 0 0 0 0 0
          0 0 0 0 0 0
          0 0 0 0 0 0
          0 0 0 0 0 0
          0 0 0 0 0 0
          0 0 0 0 0 0
          0 0 0 0 0 0
          0 0 0 0 0 0
          0 0 0 0 0 0
          0 0 0 0 0 0
          0 0 0 0 0 0
          0 0 0 0 0 0
          0 0 0 0 0 0
          0 0 0 0 0 0
          0 0 0 0 0 0
          0 0 0 0 0 0
          0 0 0 0 0 0
          0 0 0 0 0 0
          0 0 0 0 0 0
          0 0 0 0 0 0
          0 0 0 0 0 0
          0 0 0 0 0 0
          0 0 0 0 0 0
          0 0 0 0 0 0
          0 0 0 0 0 0
          0 0 0 0 0 0
          0 0 0 0 0 0
          0 0 0 0 0 0
          0 0 0 0 0 0
          0 0 0 0 0 0
          0 0 0 0 0 0
          0 0 0 0 0 0
          0 0 0 0 0 0
          0 0 0 0 0 0
          0 0 0 0 0 0
          0 0 0 0 0 0
          0 0 0 0 0 0
          0 0 0 0 0 0
          0 0 0 0 0 0
          0 0 0 0 0 0
          0 0 0 0 0 0
          0 0 0 0 0 0
          0 0 0 0 0 0
          0 0 0 0 0 0
          0 0 0 0 0 0
          0 0 0 0 0 0
          0 0 0 0 0 0
          0 0 0 0 0 0
          0 0 0 0 0 0
          0 0 0 0 0 0
          0 0 0 0 0 0
          0 0 0 0 0 0
          0 0 0 0 0 0
          0 0 0 0 0 0
          0 0 0 0 0 0
          0 0 0 0 0 0
          0 0 0 0 0 0
          0 0 0 0 0 0
          0 0 0 0 0 0
          0 0 0 0 0 0
          0 0 0 0 0 0
          0 0 0 0 0 0
          0 0 0 0 0 0
          0 0 0 0 0 0
          0 0 0 0 0 0
          0 0 0 0 0 0
          0 0 0 0 0 0
          0 0 0 0 0 0
          0 0 0 0 0 0
          0 0 0 0 0 0
          0 0 0 0 0 0
          0 0 0 0 0 0
          0 0 0 0 0 0
          0 0 0 0 0 0
          0 0 0 0 0 0
          0 0 0 0 0 0
        </DataArray>
        <DataArray type="Float64" Name="pe11" format="ascii" RangeMin="0" RangeMax="0">
          0 0 0 0 0 0
          0 0 0 0 0 0
          0 0 0 0 0 0
          0 0 0 0 0 0
          0 0 0 0 0 0
          0 0 0 0 0 0
          0 0 0 0 0 0
          0 0 0 0 0 0
          0 0 0 0 0 0
          0 0 0 0 0 0
          0 0 0 0 0 0
          0 0 0 0 0 0
          0 0 0 0 0 0
          0 0 0 0 0 0
          0 0 0 0 0 0
          0 0 0 0 0 0
          0 0 0 0 0 0
          0 0 0 0 0 0
          0 0 0 0 0 0
          0 0 0 0 0 0
          0 0 0 0 0 0
          0 0 0 0 0 0
          0 0 0 0 0 0
          0 0 0 0 0 0
          0 0 0 0 0 0
          0 0 0 0 0 0
          0 0 0 0 0 0
          0 0 0 0 0 0
          0 0 0 0 0 0
          0 0 0 0 0 0
          0 0 0 0 0 0
          0 0 0 0 0 0
          0 0 0 0 0 0
          0 0 0 0 0 0
          0 0 0 0 0 0
          0 0 0 0 0 0
          0 0 0 0 0 0
          0 0 0 0 0 0
          0 0 0 0 0 0
          0 0 0 0 0 0
          0 0 0 0 0 0
          0 0 0 0 0 0
          0 0 0 0 0 0
          0 0 0 0 0 0
          0 0 0 0 0 0
          0 0 0 0 0 0
          0 0 0 0 0 0
          0 0 0 0 0 0
          0 0 0 0 0 0
          0 0 0 0 0 0
          0 0 0 0 0 0
          0 0 0 0 0 0
          0 0 0 0 0 0
          0 0 0 0 0 0
          0 0 0 0 0 0
          0 0 0 0 0 0
          0 0 0 0 0 0
          0 0 0 0 0 0
          0 0 0 0 0 0
          0 0 0 0 0 0
          0 0 0 0 0 0
          0 0 0 0 0 0
          0 0 0 0 0 0
          0 0 0 0 0 0
          0 0 0 0 0 0
          0 0 0 0 0 0
          0 0 0 0 0 0
          0 0 0 0 0 0
          0 0 0 0 0 0
          0 0 0 0 0 0
          0 0 0 0 0 0
          0 0 0 0 0 0
          0 0 0 0 0 0
          0 0 0 0 0 0
          0 0 0 0 0 0
          0 0 0 0 0 0
          0 0 0 0 0 0
          0 0 0 0 0 0
          0 0 0 0 0 0
          0 0 0 0 0 0
          0 0 0 0 0 0
          0 0 0 0 0 0
          0 0 0 0 0 0
          0 0 0 0 0 0
          0 0 0 0 0 0
          0 0 0 0 0 0
          0 0 0 0 0 0
          0 0 0 0 0 0
          0 0 0 0 0 0
          0 0 0 0 0 0
          0 0 0 0 0 0
          0 0 0 0 0 0
          0 0 0 0 0 0
          0 0 0 0 0 0
          0 0 0 0 0 0
          0 0 0 0 0 0
          0 0 0 0 0 0
          0 0 0 0 0 0
          0 0 0 0 0 0
          0 0 0 0 0 0
          0 0 0 0 0 0
          0 0 0 0 0 0
          0 0 0 0 0 0
          0 0 0 0 0 0
          0 0 0 0 0 0
          0 0 0 0 0 0
          0 0 0 0 0 0
          0 0 0 0 0 0
          0 0 0 0 0 0
          0 0 0 0 0 0
          0 0 0 0 0 0
          0 0 0 0 0 0
          0 0 0 0 0 0
          0 0 0 0 0 0
          0 0 0 0 0 0
          0 0 0 0 0 0
          0 0 0 0 0 0
          0 0 0 0 0 0
          0 0 0 0 0 0
          0 0 0 0 0 0
          0 0 0 0 0 0
          0 0 0 0 0 0
          0 0 0 0 0 0
          0 0 0 0 0 0
          0 0 0 0 0 0
          0 0 0 0 0 0
          0 0 0 0 0 0
          0 0 0 0 0 0
          0 0 0 0 0 0
          0 0 0 0 0 0
          0 0 0 0 0 0
          0 0 0 0 0 0
          0 0 0 0 0 0
        </DataArray>
        <DataArray type="Float64" Name="pe22" format="ascii" RangeMin="0" RangeMax="0">
          0 0 0 0 0 0
          0 0 0 0 0 0
          0 0 0 0 0 0
          0 0 0 0 0 0
          0 0 0 0 0 0
          0 0 0 0 0 0
          0 0 0 0 0 0
          0 0 0 0 0 0
          0 0 0 0 0 0
          0 0 0 0 0 0
          0 0 0 0 0 0
          0 0 0 0 0 0
          0 0 0 0 0 0
          0 0 0 0 0 0
          0 0 0 0 0 0
          0 0 0 0 0 0
          0 0 0 0 0 0
          0 0 0 0 0 0
          0 0 0 0 0 0
          0 0 0 0 0 0
          0 0 0 0 0 0
          0 0 0 0 0 0
          0 0 0 0 0 0
          0 0 0 0 0 0
          0 0 0 0 0 0
          0 0 0 0 0 0
          0 0 0 0 0 0
          0 0 0 0 0 0
          0 0 0 0 0 0
          0 0 0 0 0 0
          0 0 0 0 0 0
          0 0 0 0 0 0
          0 0 0 0 0 0
          0 0 0 0 0 0
          0 0 0 0 0 0
          0 0 0 0 0 0
          0 0 0 0 0 0
          0 0 0 0 0 0
          0 0 0 0 0 0
          0 0 0 0 0 0
          0 0 0 0 0 0
          0 0 0 0 0 0
          0 0 0 0 0 0
          0 0 0 0 0 0
          0 0 0 0 0 0
          0 0 0 0 0 0
          0 0 0 0 0 0
          0 0 0 0 0 0
          0 0 0 0 0 0
          0 0 0 0 0 0
          0 0 0 0 0 0
          0 0 0 0 0 0
          0 0 0 0 0 0
          0 0 0 0 0 0
          0 0 0 0 0 0
          0 0 0 0 0 0
          0 0 0 0 0 0
          0 0 0 0 0 0
          0 0 0 0 0 0
          0 0 0 0 0 0
          0 0 0 0 0 0
          0 0 0 0 0 0
          0 0 0 0 0 0
          0 0 0 0 0 0
          0 0 0 0 0 0
          0 0 0 0 0 0
          0 0 0 0 0 0
          0 0 0 0 0 0
          0 0 0 0 0 0
          0 0 0 0 0 0
          0 0 0 0 0 0
          0 0 0 0 0 0
          0 0 0 0 0 0
          0 0 0 0 0 0
          0 0 0 0 0 0
          0 0 0 0 0 0
          0 0 0 0 0 0
          0 0 0 0 0 0
          0 0 0 0 0 0
          0 0 0 0 0 0
          0 0 0 0 0 0
          0 0 0 0 0 0
          0 0 0 0 0 0
          0 0 0 0 0 0
          0 0 0 0 0 0
          0 0 0 0 0 0
          0 0 0 0 0 0
          0 0 0 0 0 0
          0 0 0 0 0 0
          0 0 0 0 0 0
          0 0 0 0 0 0
          0 0 0 0 0 0
          0 0 0 0 0 0
          0 0 0 0 0 0
          0 0 0 0 0 0
          0 0 0 0 0 0
          0 0 0 0 0 0
          0 0 0 0 0 0
          0 0 0 0 0 0
          0 0 0 0 0 0
          0 0 0 0 0 0
          0 0 0 0 0 0
          0 0 0 0 0 0
          0 0 0 0 0 0
          0 0 0 0 0 0
          0 0 0 0 0 0
          0 0 0 0 0 0
          0 0 0 0 0 0
          0 0 0 0 0 0
          0 0 0 0 0 0
          0 0 0 0 0 0
          0 0 0 0 0 0
          0 0 0 0 0 0
          0 0 0 0 0 0
          0 0 0 0 0 0
          0 0 0 0 0 0
          0 0 0 0 0 0
          0 0 0 0 0 0
          0 0 0 0 0 0
          0 0 0 0 0 0
          0 0 0 0 0 0
          0 0 0 0 0 0
          0 0 0 0 0 0
          0 0 0 0 0 0
          0 0 0 0 0 0
          0 0 0 0 0 0
          0 0 0 0 0 0
          0 0 0 0 0 0
          0 0 0 0 0 0
          0 0 0 0 0 0
          0 0 0 0 0 0
          0 0 0 0 0 0
          0 0 0 0 0 0
        </DataArray>
        <DataArray type="Float64" Name="pe33" format="ascii" RangeMin="0" RangeMax="0">
          0 0 0 0 0 0
          0 0 0 0 0 0
          0 0 0 0 0 0
          0 0 0 0 0 0
          0 0 0 0 0 0
          0 0 0 0 0 0
          0 0 0 0 0 0
          0 0 0 0 0 0
          0 0 0 0 0 0
          0 0 0 0 0 0
          0 0 0 0 0 0
          0 0 0 0 0 0
          0 0 0 0 0 0
          0 0 0 0 0 0
          0 0 0 0 0 0
          0 0 0 0 0 0
          0 0 0 0 0 0
          0 0 0 0 0 0
          0 0 0 0 0 0
          0 0 0 0 0 0
          0 0 0 0 0 0
          0 0 0 0 0 0
          0 0 0 0 0 0
          0 0 0 0 0 0
          0 0 0 0 0 0
          0 0 0 0 0 0
          0 0 0 0 0 0
          0 0 0 0 0 0
          0 0 0 0 0 0
          0 0 0 0 0 0
          0 0 0 0 0 0
          0 0 0 0 0 0
          0 0 0 0 0 0
          0 0 0 0 0 0
          0 0 0 0 0 0
          0 0 0 0 0 0
          0 0 0 0 0 0
          0 0 0 0 0 0
          0 0 0 0 0 0
          0 0 0 0 0 0
          0 0 0 0 0 0
          0 0 0 0 0 0
          0 0 0 0 0 0
          0 0 0 0 0 0
          0 0 0 0 0 0
          0 0 0 0 0 0
          0 0 0 0 0 0
          0 0 0 0 0 0
          0 0 0 0 0 0
          0 0 0 0 0 0
          0 0 0 0 0 0
          0 0 0 0 0 0
          0 0 0 0 0 0
          0 0 0 0 0 0
          0 0 0 0 0 0
          0 0 0 0 0 0
          0 0 0 0 0 0
          0 0 0 0 0 0
          0 0 0 0 0 0
          0 0 0 0 0 0
          0 0 0 0 0 0
          0 0 0 0 0 0
          0 0 0 0 0 0
          0 0 0 0 0 0
          0 0 0 0 0 0
          0 0 0 0 0 0
          0 0 0 0 0 0
          0 0 0 0 0 0
          0 0 0 0 0 0
          0 0 0 0 0 0
          0 0 0 0 0 0
          0 0 0 0 0 0
          0 0 0 0 0 0
          0 0 0 0 0 0
          0 0 0 0 0 0
          0 0 0 0 0 0
          0 0 0 0 0 0
          0 0 0 0 0 0
          0 0 0 0 0 0
          0 0 0 0 0 0
          0 0 0 0 0 0
          0 0 0 0 0 0
          0 0 0 0 0 0
          0 0 0 0 0 0
          0 0 0 0 0 0
          0 0 0 0 0 0
          0 0 0 0 0 0
          0 0 0 0 0 0
          0 0 0 0 0 0
          0 0 0 0 0 0
          0 0 0 0 0 0
          0 0 0 0 0 0
          0 0 0 0 0 0
          0 0 0 0 0 0
          0 0 0 0 0 0
          0 0 0 0 0 0
          0 0 0 0 0 0
          0 0 0 0 0 0
          0 0 0 0 0 0
          0 0 0 0 0 0
          0 0 0 0 0 0
          0 0 0 0 0 0
          0 0 0 0 0 0
          0 0 0 0 0 0
          0 0 0 0 0 0
          0 0 0 0 0 0
          0 0 0 0 0 0
          0 0 0 0 0 0
          0 0 0 0 0 0
          0 0 0 0 0 0
          0 0 0 0 0 0
          0 0 0 0 0 0
          0 0 0 0 0 0
          0 0 0 0 0 0
          0 0 0 0 0 0
          0 0 0 0 0 0
          0 0 0 0 0 0
          0 0 0 0 0 0
          0 0 0 0 0 0
          0 0 0 0 0 0
          0 0 0 0 0 0
          0 0 0 0 0 0
          0 0 0 0 0 0
          0 0 0 0 0 0
          0 0 0 0 0 0
          0 0 0 0 0 0
          0 0 0 0 0 0
          0 0 0 0 0 0
          0 0 0 0 0 0
          0 0 0 0 0 0
          0 0 0 0 0 0
          0 0 0 0 0 0
          0 0 0 0 0 0
        </DataArray>
        <DataArray type="Float64" Name="disp_x" format="ascii" RangeMin="0.000006841839790743248" RangeMax="0.00001954496294518565">
          0.000007626537281960437 0.000007425947937486637 0.000007273020136749548 0.00000751720591523789 0.000007626538555072457 0.000007425949006283136
          0.000007273020942124589 0.000007517207106226718 0.0000076265422994333446 0.0000074259529426462865 0.000007273023072647264 0.000007517210692594589
          0.000010317226119404172 0.00001001452930534438 0.000010140104638832141 0.000010431712643199657 0.000010317228709554706 0.000010014531570989514
          0.000010140106868654598 0.000010431715342643402 0.000010317237134292594 0.000010014537645663381 0.000010140113235069243 0.000010431723908074895
          0.000013903562728825999 0.000013744834133785 0.000013890581905285775 0.000014589015959555814 0.000013903560611831807 0.000013744835595907633
          0.000013890580907998639 0.000014589014166936521 0.000013903550315003584 0.000013744842064283391 0.000013890574307212381 0.00001458900799540473
          0.000008308176257021721 0.00000859141890826075 0.000008822797601337534 0.000008558005098632754 0.000008308178129253878 0.000008591420867717567
          0.000008822799773874742 0.000008558007050066343 0.000008308183580876526 0.0000085914273130776 0.000008822806296395034 0.00000855801272218114
          0.000011555831519039923 0.000011471605758285388 0.0000111551589059439 0.00001124447180387152 0.000011555834112742508 0.000011471608379535481
          0.000011155161855931887 0.000011244474480376382 0.000011555842162469632 0.00001147161647630257 0.00001115517087078828 0.000011244482544946873
          0.000008735911440008794 0.000009057672376525184 0.000008910012759386112 0.000008583101361823812 0.000008735913199169944 0.000009057674600987867
          0.00000891001494100294 0.000008583103042264483 0.000008735918107099764 0.000009057681614607389 0.000008910021379496448 0.000008583108090872716
          0.000010645808386388483 0.000010520355717971471 0.000010189275608039292 0.000010645810946692521 0.00001052035867691304 0.000010189278336203732
          0.000010645818010862034 0.000010520367198560884 0.000010189286988198026 0.000009401802909192698 0.000009296183598015848 0.000009401805326495852
          0.000009296186097105432 0.000009401812450864813 0.000009296193708512244 0.000012431488456982439 0.000011997789862983759 0.000012098546236820646
          0.00001256577373732926 0.00001243149104677243 0.000011997792434760323 0.000012098548671094874 0.000012565776799327657 0.000012431499433401138
          0.000011997798896955058 0.000012098555182359729 0.000012565787434122268 0.000008819296613864375 0.000009051847013511482 0.000008819298761150684
          0.000009051849145992675 0.00000881930495600969 0.000009051854959513225 0.000009734847005834668 0.000009617810271377496 0.000009734849269628972
          0.000009617812711339942 0.00000973485548738811 0.000009617819775393811 0.000013496344513042737 0.000013626931914889707 0.00001396952341840269
          0.000013496344556373717 0.000013626933599475361 0.000013969531780357404 0.000013496341392146599 0.00001362692203600817 0.000013969583484318199
          0.000008306520252051828 0.000008452700178641386 0.000008306521954319975 0.000008452701750348662 0.000008306526914569663 0.000008452706352145766
          0.000011149319726896659 0.000010784522045151022 0.000010920286098247978 0.000011256405271610876 0.000011149323186428883 0.000010784525205807717
          0.000010920289057025867 0.000011256408044952995 0.000011149333611697293 0.000010784534737350894 0.000010920298249734872 0.000011256414284060178
          0.00001099942980806911 0.00001074750413870909 0.000011082602118225728 0.000010999432693715296 0.000010747506730872114 0.000011082605388493747
          0.000010999440893427925 0.000010747513982794052 0.00001108261459614515 0.000009133631844197902 0.000009133634435625067 0.000009133642239001444
          0.000010447391005436494 0.00001058741742123433 0.000010282257846759158 0.000010447393759156012 0.000010587421266506293 0.000010282261133391067
          0.000010447401194307168 0.000010587432817573152 0.000010282270654435517 0.0000114416481859316 0.000011224253751732388 0.000010867722861749163
          0.00001144165192956299 0.000011224256851413754 0.000010867726177425691 0.00001144166327944152 0.000011224265873869927 0.0000108677366284685
          0.000008131834975191689 0.000007914206199453507 0.000008062771130089804 0.000008131836791167576 0.000007914207704267665 0.000008062772809270835
          0.00000813184237723834 0.00000791421245690699 0.000008062777560556173 0.000007860380146047183 0.000007802068321388785 0.000007860381703213681
          0.000007802069853185914 0.000007860386268032982 0.000007802074542469058 0.000011835147707523522 0.000012286407983367646 0.000011835153089012856
          0.000012286414039479282 0.000011835169169376388 0.000012286433055929037 0.000006841839790743248 0.000006841840614760332 0.000006841843251879008
          0.000012130671660377589 0.000012448108126690844 0.000012130676066592195 0.000012448112254824985 0.000012130690812784446 0.000012448127948691933
          0.000009934917886966167 0.000010059867333298755 0.000009934920550693973 0.000010059870027037095 0.000009934928607799423 0.00001005987807568645
          0.000009872991815014045 0.000009872994321668848 0.000009873001457060162 0.000008931409349003241 0.000009227158787944314 0.000009198076678575848
          0.000008893073676934109 0.000008931411267198355 0.000009227161017885174 0.000009198078973402095 0.000008893075524712316 0.000008931417227160911
          0.000009227167452618683 0.000009198085654680538 0.000008893081144826321 0.000014648070291643612 0.000014648075243929518 0.000014648089980191718
          0.00001462241634968972 0.00001399324173793287 0.000014622419628908764 0.000013993245447677546 0.000014622429190295252 0.000013993256408826056
          0.000007749894795546678 0.000007891445277373116 0.000007749896183168275 0.000007891446796028443 0.000007749899919908615 0.000007891451914772057
          0.00001142288335077823 0.000011422886892379544 0.000011422899605184018 0.000011589182878487992 0.000011590787907265693 0.000011589187200399674
          0.000011590792336152397 0.000011589201440666784 0.000011590805816235215 0.000011045335654998328 0.000011337869267668719 0.000011412347806535224
          0.000011006847803324168 0.000011045339257644723 0.000011337872728906871 0.000011412351847541626 0.00001100685129826907 0.00001104535105379918
          0.000011337881337112877 0.000011412364919522363 0.000011006860472072632 0.000011755551588547 0.00001174246995585789 0.000011755553497748775
          0.00001174247313416328 0.00001175555597394554 0.000011742484039620475 0.000012674775509231567 0.000012736199218102689 0.000012991896933656046
          0.00001285247960777464 0.000012674777221528055 0.000012736200476051509 0.000012991899583952075 0.000012852480486507788 0.000012674778277155356
          0.000012736199850849668 0.000012991910383316689 0.000012852480757210585 0.00000935456243431336 0.000009354564732685082 0.000009354571515393306
          0.000008559627588702781 0.000008836933989165767 0.000008559629279562522 0.000008836935907911957 0.000008559634725406964 0.000008836941467094129
          0.000010611140419741699 0.000010618569464108028 0.000010611144216750804 0.00001061857342642448 0.000010611156331963077 0.000010618585381489185
          0.000010233946432673621 0.000010233949961260391 0.000010233960763561465 0.000009504334562558768 0.000009203570889272345 0.000009504337119787765
          0.000009203573394390367 0.000009504344785554317 0.000009203581463016889 0.000008615191201745527 0.000008986289925554418 0.000008615193054508331
          0.000008986292273743263 0.000008615198225048668 0.000008986299800728574 0.000009691226237625736 0.000009576727797199246 0.00000969122915994857
          0.000009576730566781193 0.000009691237789683126 0.00000957673887870135 0.000010191772207153072 0.000010191775459858911 0.000010191785544656043
          0.000009550989882177309 0.000009805679316526765 0.000009550992383250259 0.000009805681621553488 0.000009551000231581836 0.000009805688511350043
          0.000009865776283495552 0.00000990286186208869 0.000009865778834876115 0.000009902864809625354 0.000009865785495370485 0.000009902873420480458
          0.0000081829610418369 0.000008381625481568171 0.000008395309434191959 0.000008182962910606189 0.000008381627349212118 0.000008395311367765676
          0.000008182968740336473 0.000008381632894280032 0.000008395316726424552 0.000007940712462261837 0.000007940714071116168 0.000007940718908466491
          0.000009153156047484098 0.000009513928005672146 0.000009153158444172845 0.000009513930674655899 0.000009153165132631948 0.000009513939247158082
          0.000010257038310417159 0.000010381682610905966 0.000010257041259906047 0.000010381685593881066 0.00001025704978640253 0.000010381694570734647
          0.000013296137313189584 0.000012927222685538996 0.000013296142977450855 0.00001292722462675292 0.000013296164977464476 0.000012927225629115928
          0.00000816949102367092 0.000008366688535830623 0.000008169492635125362 0.00000836669021924552 0.000008169497448029525 0.000008366694379069803
          0.0000074535830952215816 0.00000771503703191916 0.000007790999987951314 0.000007453584373820854 0.000007715038332543211 0.000007791001339492084
          0.000007453588299348075 0.000007715041617391075 0.000007791004949507122 0.000007322402382973009 0.000007322403660040647 0.000007322407681282285
          0.000009860960876910757 0.000009860963210086764 0.000009860968758649767 0.000007716826681465069 0.00000771682803743382 0.00000771683144916164
          0.0000075494949227525484 0.000007549496188569737 0.00000754949923439063 0.000009818945954118362 0.000009818948751478638 0.000009818957139965653
          0.000008084533109025655 0.000008084534689264631 0.000008084539558452917 0.000007113644222675235 0.0000071136452517131195 0.0000071136479645353205
          0.000008052500358067959 0.000008052502086972301 0.0000080525072253662 0.000007463587815971118 0.000007375809793036623 0.000007463589260297064
          0.000007375810839275118 0.000007463594076536926 0.000007375813928978204 0.000007764972596621113 0.000007751192719450318 0.000007764974203510292
          0.000007751194064198684 0.000007764979201302496 0.000007751198005145382 0.000007108127562647967 0.000007108128307178347 0.000007108129934866731
          0.000008066152544102982 0.000008061002448395678 0.0000080661540184361 0.00000806100392587318 0.000008066158326979515 0.000008061007962643538
          0.000014001357081510552 0.00001460163599425575 0.000014001357361353878 0.000014601639312958995 0.000014001358259895913 0.000014601650444480235
          0.000012958948720920868 0.00001295895094556468 0.000012958955817821445 0.000007282930864341463 0.0000072829321788537286 0.00000728293555805518
          0.000012469602018983457 0.000012168871970152576 0.000012469604274247795 0.000012168875429785669 0.000012469612901710587 0.000012168884866201068
          0.000008968392161356502 0.000009268631968092142 0.000008968394139886733 0.000009268634217327745 0.000008968399758140979 0.000009268640718254643
          0.000008247623506030619 0.000008247625442350802 0.000008247631332859847 0.000007992174948676344 0.000007992176627971257 0.000007992181545473669
          0.00001013378585043324 0.000010133788989094118 0.00001013379969434715 0.000008637261051188455 0.000008667885721762168 0.000008637262877389065
          0.000008667887511885336 0.000008637268180112902 0.000008667892640121196 0.000010716928960644816 0.000010716932214335871 0.000010716941798361927
          0.000011062809870536075 0.000010945611392753801 0.000010644604576347896 0.000010764822925244945 0.000011062812365247573 0.000010945614169629348
          0.000010644607152439956 0.00001076482530940993 0.000011062819618869992 0.000010945622311440812 0.000010644614861868556 0.00001076483220713398
          0.000009533586037786143 0.00000981333771100617 0.000009533588726962858 0.00000981333992692904 0.000009533597094543974 0.000009813347855621241
          0.000011801066737105128 0.000011801069153962063 0.0000118010750588842 0.000010540943780736987 0.00001084353229054614 0.000010540946642538303
          0.000010843535083237583 0.00001054095494217421 0.000010843543277953667 0.0000110540574386032 0.000011365825465887117 0.000011054060694228231
          0.000011365828490978533 0.000011054070859889097 0.000011365838151495162 0.00001000329349708537 0.000010003296707633308 0.000010003307413462373
          0.000010134710181649431 0.00001013471322654018 0.000010134722838098259 0.000011781502333823802 0.000011781505498660757 0.000011781515792327092
          0.000008352674714698536 0.000008367131147606123 0.00000835267634180178 0.000008367132825509497 0.000008352681327492472 0.00000836713751909168
          0.000011542080238078703 0.000011542083338350292 0.000011542091559000758 0.000012419593586231723 0.00001269369651091841 0.000012065810159048559
          0.00001241959975183568 0.000012693700096974051 0.000012065815325080293 0.000012419621158471355 0.000012693710152252208 0.000012065830310727219
          0.000011579129717269573 0.000011579133269761485 0.000011579143394156953 0.000009868210752319131 0.000010167489197831774 0.0000100453486061966
          0.000009868213047599838 0.000010167491263361706 0.000010045350622774564 0.0000098682181937163 0.000010167497327584851 0.000010045356279876125
          0.000011360297136377477 0.000011360299855795055 0.000011360307660689412 0.00001058706247030757 0.000010587065589924727 0.000010587075314552624
          0.000013413407444589624 0.000013413411691777837 0.00001341342695703955 0.0000095685771245293 0.000009568579646932894 0.000009568586733959084
          0.000010359115032766278 0.000010466371111507015 0.000010359117724844488 0.00001046637352317257 0.000010359124867341976 0.000010466380827378026
          0.00001205346901159853 0.000012053471922500928 0.000012053480811253255 0.000008353706213164065 0.000008613060432510806 0.000008353707846548443
          0.000008613062290928267 0.000008353712253688733 0.00000861306763780568 0.00001025295030544239 0.000010064831968129455 0.000010252952688499144
          0.000010064834447083702 0.000010252961440797162 0.000010064839622461163 0.000011767419616359154 0.000011918325327684857 0.000011767423115480564
          0.000011918329945700776 0.000011767433874804375 0.00001191834490239156 0.000012988610610809763 0.000012590454143092782 0.000012988614492046692
          0.000012590457955459195 0.00001298862760086102 0.000012590469452694144 0.000011856882196024595 0.000011953568183722235 0.000012249255685889383
          0.000011856885178590687 0.000011953571025231384 0.000012249258418977458 0.000011856893636855898 0.000011953579286274872 0.000012249266735168569
          0.000012242294128269625 0.000012242297394189487 0.000012242304340535787 0.000012544235215270484 0.000012544237166327144 0.000012544241903872263
          0.000011657232191723275 0.000011657235121078693 0.000011657243196438057 0.000013454749087043864 0.000013454750912796201 0.000013454755979562032
          0.000013131903116995481 0.00001342446017661873 0.000013304606097602249 0.000013131906019686108 0.000013424461436137146 0.000013304606856563052
          0.000013131913032264157 0.000013424465467701626 0.000013304618170966423 0.000012838435017889949 0.000012838436647766872 0.000012838441316493984
          0.000012648527431822499 0.000012648531145336789 0.000012648547342464034 0.000012929612872427402 0.000013406086334217653 0.000012929612850359993
          0.000013406089203448663 0.000012929607937954217 0.000013406099348410427 0.000013716096737640737 0.000013716099864260985 0.000013716104032822232
          0.00001322499760119594 0.000013224998840278838 0.000013224999411806392 0.000014243725890121412 0.000014243725155307374 0.000014243716795868064
          0.00001400668059046074 0.000014006682071035847 0.000014006695046482297 0.000014296244787167981 0.000014296232359214323 0.000014296167559713278
          0.000014583889066981086 0.000014583887287318924 0.00001458388650346674 0.000015519201823175046 0.00001551304078569737 0.000015519202122978482
          0.000015513042550395616 0.000015519203741599843 0.00001551304745068869 0.000016436418060129985 0.000016428817805062923 0.00001643641239766836
          0.000016428810362620912 0.0000164363950159086 0.000016428787495562093 0.000017339678789818683 0.000017330568431804988 0.00001733966939292506
          0.00001733055926406007 0.00001733964142775176 0.000017330532214105362 0.00001553696208849449 0.000015536962066800728 0.000015536961642996687
          0.000016459007949824958 0.000016459003396889797 0.000016458989739507054 0.00001736688999370721 0.000017366881594648367 0.000017366856522125255
          0.00001556527296327021 0.000015565275292355827 0.000015565282604004343 0.00001649572658562677 0.000016495724185985766 0.0000164957168308181
          0.000017411900560943448 0.000017411893809312692 0.000017411873738153395 0.000015601995178370645 0.000015602000731349315 0.00001560201769157811
          0.00001654490305631674 0.000016544903900526025 0.000016544906256548534 0.000017473926065352193 0.00001747392229015102 0.000017473911170616477
          0.000016603376026398187 0.000016603382035866606 0.00001660339986084456 0.000017551166706262467 0.000017551167822303263 0.000017551171529001667
          0.00001666538177795219 0.00001666539574907654 0.000016665437178676328 0.000017639723798486974 0.000017639732646506205 0.000017639759087282132
          0.000016720538264821447 0.00001672056478443618 0.00001672064482634549 0.000017731238545814897 0.000017731262338524476 0.000017731335489093368
          0.00001674993296046782 0.00001674997683994658 0.00001675010689414027 0.000017808137696178637 0.000017808176770700663 0.000017808289419664568
          0.00001671929609062122 0.000016719389472617172 0.000016719674341595937 0.000017825044376611892 0.00001782516526742789 0.000017825538369634266
          0.000018194828337103918 0.000018178388562213934 0.00001819481353220054 0.00001817837349432896 0.00001819476902097858 0.000018178328038181133
          0.00001823226315104389 0.00001823224871607243 0.000018232205370839774 0.000018291054222001815 0.00001829104066369693 0.0000182909999859244
          0.000018371630400760575 0.000018371618356756167 0.00001837158215672748 0.000018474183648763663 0.000018474174471952358 0.000018474147076828384
          0.000012539220690620251 0.000012034317610205548 0.00001253922537888721 0.00001203432168634987 0.000012539239101304128 0.000012034333070355554
          0.000014675025771251033 0.000013980753600234956 0.00001397151562003989 0.000014675033444722277 0.000013980759025334997 0.000013971519194268435
          0.000014675056894443346 0.000013980774436667293 0.000013971529489914132 0.000011007670869559522 0.000011007675034890891 0.00001100768768716509
          0.000011521538683700887 0.00001152154343133707 0.00001152155814807851 0.000013187826940178594 0.000013187832712043861 0.000013187850225666197
          0.000015643248276376433 0.000015643258270062843 0.000015643288474266694 0.000015682845211005256 0.000015682861422885605 0.00001568291061134534
          0.00001571110539501197 0.000015711127755907896 0.00001571119489906642 0.00001571399367764412 0.000015714022881820915 0.000015714109913284534
          0.000015676218146082107 0.00001567625040375306 0.000015676347349375263 0.0000190388493391854 0.000019015693282458443 0.00001903882966164266
          0.00001901567368656387 0.000019038770696341062 0.000019015615004700212 0.000019085833274251884 0.0000190858132393355 0.00001908575317664817
          0.000019157723176487613 0.00001915770264567421 0.000019157641137770783 0.000019256324248616018 0.000019256303051982113 0.00001925623942325697
          0.00001938423758436084 0.00001938421591075458 0.000019384151166925866 0.00001859801167581745 0.00001859800688517698 0.000018597992105523465
          0.00001954496294518565 0.00001954493955828197 0.000019544869025013173 0.000018740020651183058 0.000018740026262963057 0.000018740044049718368
          0.000018891637522761506 0.000018891651380717427 0.00001889169088835923 0.000019030686218410687 0.000019030741230044986 0.000019030911194250497
        </DataArray>
        <DataArray type="Float64" Name="disp_y" format="ascii" RangeMin="-0.0000020088215492095245" RangeMax="0">
          -2.6006588220032686e-7 -2.9639479001286736e-7 -2.3858243833194677e-7 -1.939412138520867e-7 -2.600662457301237e-7 -2.963949716746892e-7
          -2.385829470089923e-7 -1.9394176048921278e-7 -2.6006659311040445e-7 -2.9639519769332143e-7 -2.3858442400424656e-7 -1.939440488405833e-7
          -2.9361894914690336e-7 -2.6265114295647776e-7 -1.924557768504324e-7 -2.1533343198345e-7 -2.936191566615589e-7 -2.626514985787516e-7
          -1.9245639500962943e-7 -2.1533381340988652e-7 -2.936193047670974e-7 -2.6265423909457516e-7 -1.924562601975366e-7 -2.1533449949488593e-7
          -3.347674585682032e-7 -2.5457326654462643e-7 -1.8033681458639437e-7 -2.0751607599384205e-7 -3.3476935186714543e-7 -2.545680817228568e-7
          -1.8033464418485571e-7 -2.075139052706594e-7 -3.347813673363477e-7 -2.5454165843065583e-7 -1.8032432393218218e-7 -2.075077605620912e-7
          -6.935105934662321e-7 -6.39815703967866e-7 -7.054459692722752e-7 -7.684929752027122e-7 -6.935118969232688e-7 -6.398166061066748e-7
          -7.054474144613013e-7 -7.684949276673905e-7 -6.935151326207678e-7 -6.398192887379521e-7 -7.05451969919551e-7 -7.685015131332745e-7
          -8.28733597906909e-8 -1.6893628649044018e-7 -1.6337820589696413e-7 -8.008077124134443e-8 -8.287216604001068e-8 -1.6893617598543035e-7
          -1.6337841237785553e-7 -8.007968584460332e-8 -8.286694225402622e-8 -1.6893702505754063e-7 -1.633806541925931e-7 -8.00742634626859e-8
          -3.1859537201124113e-7 -3.520775344999118e-7 -4.591269565053772e-7 -3.9848934476556306e-7 -3.1859564501454984e-7 -3.520777758472269e-7
          -4.59127807577653e-7 -3.9848992301269655e-7 -3.1859653441180146e-7 -3.520780547683011e-7 -4.591308211590759e-7 -3.984913035935698e-7
          -3.215208950999767e-7 -4.0817245723291797e-7 -3.7447659975893903e-7 -3.215209504341461e-7 -4.081726160614451e-7 -3.744768400386122e-7
          -3.2152177593584866e-7 -4.0817317236317464e-7 -3.744772929992321e-7 -3.842338264698015e-7 -4.764667176051478e-7 -3.842341359650782e-7
          -4.764675442549954e-7 -3.8423462477803887e-7 -4.7647028891971903e-7 -4.22832837580533e-7 -3.5845348856283125e-7 -2.638713725443061e-7
          -2.6733695512134465e-7 -4.22832796546684e-7 -3.5845189817103097e-7 -2.638707790410007e-7 -2.67337897567521e-7 -4.228330118122257e-7
          -3.5844507992866895e-7 -2.638670240708019e-7 -2.673414589249813e-7 -5.811918380680173e-7 -6.342976864588746e-7 -5.81192725504488e-7
          -6.342986583867494e-7 -5.811941829661333e-7 -6.34301455942094e-7 -4.2000338569164973e-7 -5.080690871481504e-7 -4.200037109652201e-7
          -5.080699603206895e-7 -4.2000447468790715e-7 -5.080727744947367e-7 -1.5731451954953373e-7 -7.76437722940179e-8 -8.596142276260901e-8
          -1.573133903019934e-7 -7.764221754215381e-8 -8.59638010464395e-8 -1.5731162347191626e-7 -7.763872763907058e-8 -8.597878522651136e-8
          -3.522194584211337e-7 -2.814910708000003e-7 -3.522199538624241e-7 -2.8149134574105496e-7 -3.5222146041137983e-7 -2.814919320875822e-7
          -7.989444674350503e-7 -7.631595770905103e-7 -6.63127991960586e-7 -6.961062748437794e-7 -7.989443836088977e-7 -7.631604376274534e-7
          -6.6312912551466e-7 -6.961068440413443e-7 -7.989427495813665e-7 -7.631634892766993e-7 -6.631321571807491e-7 -6.961090023020907e-7
          -3.4697920664583105e-7 -2.355923095491946e-7 -2.5274657026042937e-7 -3.469787629748737e-7 -2.3559279673221772e-7 -2.52747169493739e-7
          -3.4697715470015595e-7 -2.355935113097082e-7 -2.5274910054158403e-7 -7.90252881423102e-7 -7.902544260886288e-7 -7.902589843817872e-7
          -7.156775047639037e-7 -8.843320207846042e-7 -7.988666377264764e-7 -7.156781552853284e-7 -8.843332196675359e-7 -7.988681245998771e-7
          -7.156795076907597e-7 -8.843368007166039e-7 -7.988724528724248e-7 -3.710395177060115e-7 -4.791705060210957e-7 -4.4157945377988975e-7
          -3.7103912677687344e-7 -4.791707555374786e-7 -4.41579136897183e-7 -3.7103734959765283e-7 -4.791713362490724e-7 -4.415774525278008e-7
          -4.207514098699595e-7 -3.70575174982202e-7 -3.1244330430086656e-7 -4.2075239074459426e-7 -3.705759068206442e-7 -3.1244367886242635e-7
          -4.207551900158694e-7 -3.705785796406788e-7 -3.1244483245099996e-7 -2.373095095048259e-7 -1.6652868670764877e-7 -2.3730995421571363e-7
          -1.6652924329239106e-7 -2.3731113414016967e-7 -1.665320437383849e-7 -9.501695356673477e-7 -8.67031860062765e-7 -9.501701433007672e-7
          -8.670355512499064e-7 -9.501713071336331e-7 -8.670486825702083e-7 -2.487241035427363e-7 -2.4872485472725693e-7 -2.4872692089048217e-7
          -1.6894557049446688e-7 -1.5861749619378763e-7 -1.689466486314118e-7 -1.5861775507203534e-7 -1.6895404653676518e-7 -1.586215831025091e-7
          -5.433729305728833e-7 -4.5803281536407205e-7 -5.433737927120865e-7 -4.580333098229799e-7 -5.433761482140352e-7 -4.580349620330926e-7
          -3.3698145106887083e-7 -3.3698187394353976e-7 -3.3698284674412897e-7 -7.768771506449123e-8 -8.134328276984938e-8 -1.6688787081224523e-7
          -1.5632079437383826e-7 -7.76877241720532e-8 -8.134329007134939e-8 -1.6688834660620548e-7 -1.5632113814551442e-7 -7.768731986971405e-8
          -8.13428023756996e-8 -1.6689038273867585e-7 -1.563224906047614e-7 -8.492461100546064e-7 -8.492408576836258e-7 -8.4922497843769e-7
          -6.304600009559039e-7 -6.593452181243238e-7 -6.304555580654333e-7 -6.593399503926879e-7 -6.304427011324521e-7 -6.593241738564992e-7
          -3.1878034523844473e-7 -2.886503026157569e-7 -3.187806438315334e-7 -2.8865070873841416e-7 -3.1878155044202945e-7 -2.8865071336798883e-7
          -2.5985400909984827e-7 -2.598540282845243e-7 -2.59854025061736e-7 -7.006328703434178e-7 -8.28872948629858e-7 -7.006330264969613e-7
          -8.288733185666293e-7 -7.006322438296897e-7 -8.288744166101353e-7 -9.096514952424572e-7 -9.220578968949598e-7 -0.000001007606305954853
          -0.0000010261911332470991 -9.096526954283524e-7 -9.220594533630623e-7 -0.000001007607298565727 -0.0000010261927484485003 -9.096565107055356e-7
          -9.220667321989011e-7 -0.0000010076097789280032 -0.0000010261978343030557 -2.585731517733724e-7 -3.262543826902676e-7 -2.5857277120425454e-7
          -3.2625381822240637e-7 -2.585700605689577e-7 -3.262544767015483e-7 -1.3996263683423322e-7 -7.748565022878083e-8 -7.855550296457231e-8
          -1.8237896054910524e-7 -1.3996094690531465e-7 -7.748208200775628e-8 -7.855206009595056e-8 -1.823799888544993e-7 -1.3995572680521104e-7
          -7.746903087466989e-8 -7.853775177520951e-8 -1.8238428784154027e-7 -6.808703026767322e-7 -6.808715694734141e-7 -6.808753414788736e-7
          -2.1310914831234082e-7 -2.3648220106720275e-7 -2.131096806211118e-7 -2.3648273893356336e-7 -2.1311088201479293e-7 -2.364842944970897e-7
          -0.0000010266332025074903 -0.000001150107705086164 -0.0000010266347690288864 -0.0000011501096229094059 -0.0000010266398482964441 -0.0000011501156833904774
          -0.0000010266536816094388 -0.0000010266548620227123 -0.0000010266577100588116 -5.939886180004542e-7 -5.591784622347014e-7 -5.939898430087509e-7
          -5.591795533674694e-7 -5.939938699406726e-7 -5.591827417615554e-7 -5.242421404979735e-7 -5.366494168784888e-7 -5.242432275005754e-7
          -5.366504401227093e-7 -5.242469737485853e-7 -5.366536813521754e-7 -7.180849429066076e-7 -8.1071487707374e-7 -7.180858895775195e-7
          -8.107159576043252e-7 -7.180886929218628e-7 -8.107187949924959e-7 -9.200378083527912e-7 -9.200396218324668e-7 -9.200449088398989e-7
          -2.7573099430455927e-7 -2.3382916148991022e-7 -2.757314687486806e-7 -2.338297489491335e-7 -2.7573303358784207e-7 -2.3383191904693968e-7
          -9.193671182090999e-7 -8.32038085270104e-7 -9.193688041072272e-7 -8.320396274028349e-7 -9.193736114518313e-7 -8.320439539541186e-7
          -5.341514015475403e-7 -4.702548818536601e-7 -5.823103035052483e-7 -5.341525214306623e-7 -4.7025602171097663e-7 -5.823113035446787e-7
          -5.341558168382588e-7 -4.7025973193225225e-7 -5.823138915631908e-7 -4.858149337040401e-7 -4.858160132281508e-7 -4.858191896704568e-7
          -2.580673711499082e-7 -1.6795580031941347e-7 -2.5806775707409505e-7 -1.6795607530349038e-7 -2.5806870305456844e-7 -1.6795738607593669e-7
          -5.815623481972208e-7 -4.942788324832693e-7 -5.815631633232121e-7 -4.942793572985876e-7 -5.815656918221402e-7 -4.942809383293198e-7
          -2.5994417055109893e-7 -3.1634367049917643e-7 -2.5994370732413805e-7 -3.16342884235638e-7 -2.599435388090264e-7 -3.1633832347549544e-7
          -2.3320023767058567e-7 -1.9370298749351226e-7 -2.3320069953493836e-7 -1.9370344471775107e-7 -2.3320182472172834e-7 -1.9370534943736043e-7
          -4.928427801387085e-7 -4.260919036838017e-7 -5.583725355643576e-7 -4.928438262883683e-7 -4.260930086195733e-7 -5.583735475269391e-7
          -4.928469331480461e-7 -4.260966750721777e-7 -5.58376130749805e-7 -3.847300876075135e-7 -3.847308810305479e-7 -3.847338358991372e-7
          -1.5865077203270405e-7 -1.5865122491185625e-7 -1.5865192244570066e-7 -6.426905674524907e-7 -6.426918299997337e-7 -6.426957292384198e-7
          -3.5806507246727694e-7 -3.5806574007751684e-7 -3.580673791980813e-7 -6.301792064169679e-7 -6.301802858005128e-7 -6.30183872725456e-7
          -1.500453829179128e-7 -1.5004577633193517e-7 -1.500471138210279e-7 -2.9991171317049795e-7 -2.999122321432465e-7 -2.9991333967975647e-7
          -5.990136975549003e-7 -5.990147905602842e-7 -5.990182037902445e-7 0 -1.0755009932488299e-7 0
          -1.0755017650300293e-7 0 -1.0755015604285278e-7 0 -8.467023910789439e-8 0
          -8.467045767288129e-8 0 -8.46705447445845e-8 -1.8323401875994867e-7 -1.8323469396727712e-7 -1.832377878738204e-7
          0 -7.584746308977671e-8 0 -7.584753257958666e-8 0 -7.584722882079497e-8
          -4.785424961199699e-7 -4.1723125196687024e-7 -4.785413370678181e-7 -4.172276310318773e-7 -4.785359970917543e-7 -4.1721623132079034e-7
          -4.0840426387125384e-7 -4.0840285280273344e-7 -4.0839758001057207e-7 -3.26043600376072e-7 -3.260442387554737e-7 -3.260446190183958e-7
          -7.837328884207493e-8 -8.160072227622645e-8 -7.837047062642579e-8 -8.159954021472023e-8 -7.835608282546762e-8 -8.159369035056364e-8
          0 0 0 0 0 0
          -6.220657732165478e-7 -6.220666683242343e-7 -6.22070011013884e-7 -6.714577492018598e-7 -6.714589548118016e-7 -6.714622843133352e-7
          -8.504432627185994e-7 -8.504451640148679e-7 -8.504545171801336e-7 -7.331981625549738e-8 0 -7.331986915268433e-8
          0 -7.331952952908115e-8 0 -5.318238000001464e-7 -5.318245607679048e-7 -5.318275088607742e-7
          0 -7.530858635176251e-8 -6.937273563691408e-8 0 0 -7.530765598985891e-8
          -6.937197592461534e-8 0 0 -7.530291573163058e-8 -6.936737945565011e-8 0
          -8.087841209961599e-8 -7.405398692121597e-8 -8.087823772295352e-8 -7.40536244684337e-8 -8.087727179141025e-8 -7.405166053507258e-8
          -1.7028600570814608e-7 -1.7028558501052105e-7 -1.7028544250539365e-7 -1.4118868565640024e-7 -1.5353833793547564e-7 -1.4118863372572798e-7
          -1.5353843764164356e-7 -1.4119024622217746e-7 -1.5354043725222352e-7 -5.701283830873785e-7 -6.059450265960602e-7 -5.701293487178396e-7
          -6.059463665727759e-7 -5.701330553893755e-7 -6.059506751782956e-7 -7.527612802620985e-7 -7.527622227138173e-7 -7.527643716623169e-7
          -6.692407536415361e-7 -6.692414779942752e-7 -6.692439394641569e-7 -4.4415241848901e-7 -4.441528588234343e-7 -4.4415559405181865e-7
          -7.247503542871752e-8 0 -7.247507717497995e-8 0 -7.24747558133398e-8 0
          -5.25227010021369e-7 -5.252281210659962e-7 -5.252313275271707e-7 -6.89504315834085e-7 -7.673139284963283e-7 -7.60703408129045e-7
          -6.895009219516384e-7 -7.673132537909739e-7 -7.607026890804096e-7 -6.894874812203382e-7 -7.673126076959596e-7 -7.60699902356219e-7
          -6.301083880196734e-7 -6.301091017551893e-7 -6.301155164138012e-7 0 0 -6.383055805664052e-8
          0 0 -6.383043403183127e-8 0 0 -6.382667092401574e-8
          0 0 0 -6.229715354191554e-7 -6.229721541764326e-7 -6.229741185448112e-7
          -3.8485862074567205e-7 -3.8485834219488374e-7 -3.8485748209352815e-7 0 0 0
          -6.456406352252324e-8 0 -6.456363443739215e-8 0 -6.456033003012782e-8 0
          -5.154672912393591e-7 -5.15468397982631e-7 -5.154722517540377e-7 -1.4270523149521408e-7 -1.4535098301441135e-7 -1.4270561575356494e-7
          -1.4535137308779456e-7 -1.4270690403063663e-7 -1.4535307318828912e-7 -1.2735804198264145e-7 -1.1452377103464601e-7 -1.2735818153237057e-7
          -1.145229516589935e-7 -1.273603640307591e-7 -1.1452675551313674e-7 -5.847133534726087e-7 -6.638689164340655e-7 -5.847139756156104e-7
          -6.638679420298196e-7 -5.847148509855946e-7 -6.638655327123564e-7 -5.320201350192461e-7 -5.544925743062576e-7 -5.320193394732742e-7
          -5.54491740021371e-7 -5.320183082038479e-7 -5.544901896825532e-7 -8.308132317626911e-8 0 0
          -8.308034893810662e-8 0 0 -8.307598588895338e-8 0 0
          -6.038294249575768e-7 -6.038280900594266e-7 -6.038253741577332e-7 0 0 0
          0 0 0 -5.155753367274861e-7 -5.155751481623014e-7 -5.155754481369587e-7
          0 0 -7.3132107374332e-8 0 0 -7.313017504293547e-8
          0 0 -7.311424483518914e-8 0 0 0
          -6.337764527739798e-7 -6.337737174493111e-7 -6.337630701669952e-7 -6.531055588659814e-7 -6.69411951671006e-7 -6.531020517723411e-7
          -6.694096002995877e-7 -6.530902640833839e-7 -6.694024584368989e-7 0 0 0
          -1.3214009354695399e-7 -1.3213878628626678e-7 -1.3214403830801279e-7 -8.478557543762068e-8 -8.478601363886847e-8 -8.478422971958596e-8
          0 0 0 0 0 0
          0 0 0 -1.970852740758307e-7 0 -1.9708316661850651e-7
          0 -1.9707688689131794e-7 0 -1.8696369147882065e-7 0 -1.869604154030176e-7
          0 -1.8695058703464812e-7 0 -1.7875903969574638e-7 0 -1.7875501074095533e-7
          0 -1.7874293805832374e-7 0 -3.9578617266171755e-7 -3.957810810690595e-7 -3.957658602116815e-7
          -3.752276325695769e-7 -3.752210094182502e-7 -3.752011542832803e-7 -3.58250392203242e-7 -3.582421310832987e-7 -3.5821729791468883e-7
          -5.980797225256141e-7 -5.980728365932792e-7 -5.980522586677996e-7 -5.663037515238774e-7 -5.662935945870323e-7 -5.662631273836036e-7
          -5.394527762443687e-7 -5.394398414442699e-7 -5.394012532425036e-7 -8.059437776962608e-7 -8.059345058836376e-7 -8.059067222712455e-7
          -7.6218290386111e-7 -7.62169272569181e-7 -7.621284856307858e-7 -7.238600473200344e-7 -7.238416101901805e-7 -7.23785824825215e-7
          -9.655367377161126e-7 -9.655193999308925e-7 -9.654673143315676e-7 -9.138500677055085e-7 -9.138262311189645e-7 -9.137558689049843e-7
          -0.000001180021868823042 -0.0000011800016163999498 -0.0000011799411341865656 -0.0000011132342296034112 -0.0000011131990393239029 -0.0000011130914888656004
          -0.000001410311053967813 -0.0000014102888747292811 -0.0000014102219534746444 -0.0000013278294447471693 -0.00000132779764600638 -0.0000013277045079049363
          -0.0000016611862733114296 -0.0000016611665846348834 -0.000001661108444532761 -0.0000015671659751521448 -0.0000015670969666628452 -0.000001566891173027072
          -0.0000019308664939992485 -0.0000019308519409712264 -0.0000019308093674589665 -0.0000018424416875660605 -0.000001842321121189408 -0.0000018419536751170486
          -1.7483282632803738e-7 0 -1.7482825894802298e-7 0 -1.7481460792634e-7 0
          -3.4976199364787216e-7 -3.497525523090259e-7 -3.4972408061281533e-7 -5.251214316299672e-7 -5.251063975156869e-7 -5.250617211835097e-7
          -7.017395978163617e-7 -7.017174112165823e-7 -7.016497955060437e-7 -8.813468412684209e-7 -8.813177795341114e-7 -8.812329802523209e-7
          -9.840070439537035e-7 -0.0000010651058763882902 -9.840087076801899e-7 -0.0000010651060871168168 -9.840142941156573e-7 -0.000001065105763883184
          -0.0000010756147275836422 -0.00000106287292861515 -8.589829386241269e-7 -0.0000010756090341114857 -0.0000010628695973592038 -8.589778575802912e-7
          -0.0000010755922792673149 -0.0000010628602253225773 -8.589622038691912e-7 -0.0000011508947697265102 -0.0000011508957678009055 -0.0000011508979141198991
          -0.000001150956681734503 -0.0000011509583123476474 -0.000001150963722344759 -8.701354319267296e-7 -8.701342616147144e-7 -8.701308153985114e-7
          -0.0000010219239835988144 -0.0000010219136187402456 -0.0000010218823977659174 -0.0000012489075624235463 -0.0000012488972024729703 -0.000001248866564322644
          -0.0000014896127300001987 -0.0000014896026370315806 -0.0000014895717058210128 -0.0000017446789584901734 -0.000001744681485492651 -0.0000017446899004459203
          -0.0000020087535577813817 -0.0000020087706151090038 -0.0000020088215492095245 -1.7676111052201492e-7 0 -1.767563955565939e-7
          0 -1.7674228556276312e-7 0 -3.531622674778909e-7 -3.531525543955496e-7 -3.531232843723981e-7
          -5.289603769913212e-7 -5.289446903812066e-7 -5.288980739938332e-7 -7.043454047242711e-7 -7.043219028270093e-7 -7.042503451343574e-7
          -8.803804649312749e-7 -8.803489567390052e-7 -8.802569036045355e-7 -0.000001067374738473726 -0.0000010673257217586473 -0.0000010671742659046702
          -0.0000010599442400607145 -0.000001059890434902195 -0.000001059724573054911 -0.0000012659731623661242 -0.000001265933499502038 -0.0000012658195819689468
          -0.0000014904351152760563 -0.0000014903171296673617 -0.0000014899641845326743 -0.0000017655584886274548 -0.000001765329437107788 -0.0000017646305460179836
        </DataArray>
        <DataArray type="Float64" Name="disp_z" format="ascii" RangeMin="-6.818919421472647e-8" RangeMax="0">
          0 0 0 0 -2.6502537670107088e-8 -2.649586086176661e-8
          -2.649269877609364e-8 -2.650006601916939e-8 -5.300580738557513e-8 -5.29914655977796e-8 -5.2985730059929357e-8 -5.2999705389793227e-8
          0 0 0 0 -2.6625341326609934e-8 -2.6607942530245484e-8
          -2.661578711897457e-8 -2.6633779894750202e-8 -5.325079979807268e-8 -5.3215279940243785e-8 -5.323226817977313e-8 -5.326782392607719e-8
          0 0 0 0 -2.6876698945872953e-8 -2.694112052780268e-8
          -2.6794975780242138e-8 -2.6795707722416593e-8 -5.375152695388595e-8 -5.389507973841049e-8 -5.358219901066675e-8 -5.3589252122958835e-8
          0 0 0 0 -2.6497825293942476e-8 -2.6515439939389053e-8
          -2.6522505971471676e-8 -2.6499025763571826e-8 -5.2995093588958193e-8 -5.303071411690226e-8 -5.304534281884755e-8 -5.2997958087594757e-8
          0 0 0 0 -2.6709604363403467e-8 -2.6703129833487553e-8
          -2.6681636548757266e-8 -2.668939061626069e-8 -5.342061435414683e-8 -5.3404874394375285e-8 -5.336237751838422e-8 -5.337996135575934e-8
          0 0 0 0 -2.6540586912481022e-8 -2.6553461894042238e-8
          -2.654305040724553e-8 -2.653395500819892e-8 -5.308134460014441e-8 -5.31065494308218e-8 -5.3086280928745104e-8 -5.3068038887170306e-8
          0 0 0 -2.66456403063747e-8 -2.663672882634242e-8 -2.661687556015806e-8
          -5.329128842901441e-8 -5.327346226905954e-8 -5.3234055538479875e-8 0 0 -2.6574437999444324e-8
          -2.6564291858102294e-8 -5.314919568434317e-8 -5.312854018003902e-8 0 0 0
          0 -2.6776049861678544e-8 -2.6748600569512563e-8 -2.6721187800149966e-8 -2.6772132072081556e-8 -5.355237016371152e-8
          -5.349790872227217e-8 -5.344097993183366e-8 -5.354381306497897e-8 0 0 -2.652862234414405e-8
          -2.6537917644000482e-8 -5.305753395684971e-8 -5.307579795053265e-8 0 0 -2.6589517916592636e-8
          -2.6578474778950226e-8 -5.317916449762541e-8 -5.315653189693571e-8 0 0 0
          -2.6802646075840946e-8 -2.6817248528682752e-8 -2.6823064010102845e-8 -5.360150635102019e-8 -5.364420047832795e-8 -5.363884685800267e-8
          0 0 -2.6523603277470258e-8 -2.6530662708391375e-8 -5.304681721149317e-8 -5.306127898248193e-8
          0 0 0 0 -2.6664515632504117e-8 -2.6633807127225692e-8
          -2.6654515322623743e-8 -2.6668906234277175e-8 -5.332941146614594e-8 -5.3266961812529167e-8 -5.3309483609747304e-8 -5.3338394917167445e-8
          0 0 0 -2.666284308247708e-8 -2.665327195445597e-8 -2.6670578865369297e-8
          -5.332554198997483e-8 -5.330703888689821e-8 -5.3341970031534096e-8 0 -2.6525607863499644e-8 -5.305125473329408e-8
          0 0 0 -2.66182183800559e-8 -2.661238135399525e-8 -2.6605399187547988e-8
          -5.323631778527299e-8 -5.322479779389552e-8 -5.321155048890197e-8 0 0 0
          -2.6699823166436185e-8 -2.6693244051745165e-8 -2.6662545321873313e-8 -5.339906947177915e-8 -5.338709920794513e-8 -5.332507061152992e-8
          0 0 0 -2.651277419751902e-8 -2.6508388972320356e-8 -2.6517545824325596e-8
          -5.3025416509951633e-8 -5.301676526261562e-8 -5.303550169340887e-8 0 0 -2.650889509930172e-8
          -2.651141509307057e-8 -5.30176052687446e-8 -5.302265275953776e-8 0 0 -2.6713087431178972e-8
          -2.6778920166111875e-8 -5.342660842079065e-8 -5.355687548162206e-8 0 -2.648553632978948e-8 -5.297106055038888e-8
          0 0 -2.6740121786177927e-8 -2.6792710543735933e-8 -5.347995567814438e-8 -5.358620443794481e-8
          0 0 -2.6594095138061457e-8 -2.660579723251587e-8 -5.318815471275335e-8 -5.321160413986971e-8
          0 -2.6595215060968737e-8 -5.318995261904943e-8 0 0 0
          0 -2.6557005383171145e-8 -2.6571336979615032e-8 -2.6566315227818973e-8 -2.655341146685565e-8 -5.311421033426872e-8
          -5.314318143760088e-8 -5.31325815618173e-8 -5.310670942503524e-8 0 -2.7029189865557525e-8 -5.405801978168803e-8
          0 0 -2.6933410159417343e-8 -2.69166190368178e-8 -5.386604809707083e-8 -5.383444718730994e-8
          0 0 -2.6505269192855166e-8 -2.6510169681506998e-8 -5.301040643973578e-8 -5.3020194385540066e-8
          0 -2.6700475810686946e-8 -5.3400879832742457e-8 0 0 -2.6688493025050254e-8
          -2.67006422102817e-8 -5.33758374422746e-8 -5.340145507589268e-8 0 0 0
          0 -2.665276250783149e-8 -2.667205539902058e-8 -2.666077489565865e-8 -2.6630432791122846e-8 -5.3305201728277235e-8
          -5.33447921374983e-8 -5.3320835727021205e-8 -5.326105580613417e-8 0 0 -2.672824440791441e-8
          -2.6729829305577975e-8 -5.3457865077065746e-8 -5.346024169627221e-8 0 0 0
          0 -2.6804988199657293e-8 -2.6782074452855506e-8 -2.6779151665872525e-8 -2.6803816557454386e-8 -5.360795541352121e-8
          -5.3567720625035714e-8 -5.355406852241937e-8 -5.36084985219627e-8 0 -2.6546076165531992e-8 -5.309177588701415e-8
          0 0 -2.6535619292081664e-8 -2.6547858563235983e-8 -5.3071118326841616e-8 -5.3096127747426987e-8
          0 0 -2.660128567432496e-8 -2.6581031815314073e-8 -5.3202638304412677e-8 -5.31615968119932e-8
          0 -2.6567575489850787e-8 -5.31354673254393e-8 0 0 -2.656505535481852e-8
          -2.6551422045575544e-8 -5.3130192878368264e-8 -5.3103252034636345e-8 0 0 -2.6522852076076262e-8
          -2.6537827729387635e-8 -5.304557691277299e-8 -5.307474865856507e-8 0 0 -2.6563365440166602e-8
          -2.6551322373492654e-8 -5.312706118319524e-8 -5.3102730907630607e-8 0 -2.6569787493963824e-8 -5.313894579892251e-8
          0 0 -2.65830857735352e-8 -2.6605145015733917e-8 -5.316600008392249e-8 -5.321240634322369e-8
          0 0 -2.6555169531773554e-8 -2.6569299656377514e-8 -5.311066239572027e-8 -5.313863922413264e-8
          0 0 0 -2.650547278169613e-8 -2.6520611682879353e-8 -2.651069436903152e-8
          -5.301094901710115e-8 -5.304125759862354e-8 -5.302154256554352e-8 0 -2.649892308190418e-8 -5.299796202900773e-8
          0 0 -2.6559617886674964e-8 -2.658530585134981e-8 -5.3119348645851736e-8 -5.317008499888433e-8
          0 0 -2.6612017182680286e-8 -2.662532045638354e-8 -5.3224105765655135e-8 -5.3250593558484534e-8
          0 0 -2.6805343181647315e-8 -2.678493693536961e-8 -5.360858512986863e-8 -5.3570708106411396e-8
          0 0 -2.652206827574846e-8 -2.6529920356359954e-8 -5.3044187870377584e-8 -5.3059747369059364e-8
          0 0 0 -2.6485383507260393e-8 -2.6497401765650503e-8 -2.6489247693528097e-8
          -5.2970662508747274e-8 -5.2994693904795536e-8 -5.2978477019104626e-8 0 -2.649252107325113e-8 -5.29854697313934e-8
          0 -2.6605471410276747e-8 -5.321024728807841e-8 0 -2.6481277677518897e-8 -5.296247743795556e-8
          0 -2.6499593544302222e-8 -5.299907442965117e-8 0 -2.6580235970922368e-8 -5.316072906297028e-8
          0 -2.6523001277262033e-8 -5.304603778263453e-8 0 -2.648864255073277e-8 -5.297706237239149e-8
          0 -2.6494957125531632e-8 -5.2990149562180635e-8 0 0 -2.6499598670159584e-8
          -2.6502778563994338e-8 -5.299879918621285e-8 -5.30057801543167e-8 0 0 -2.6511931986124447e-8
          -2.651461913579379e-8 -5.3023434406676986e-8 -5.302975869071504e-8 0 -2.6494884090262143e-8 -5.298958461013938e-8
          0 0 -2.65216379115569e-8 -2.6522786853780805e-8 -5.3043131871093096e-8 -5.304541487449947e-8
          0 0 -2.684818358875231e-8 -2.6859641918307496e-8 -5.369782403371105e-8 -5.371989385268083e-8
          0 -2.680880328881464e-8 -5.361924837479205e-8 0 -2.649220106042828e-8 -5.298411997033718e-8
          0 0 -2.6771723350869023e-8 -2.6750487939773907e-8 -5.3541780809029855e-8 -5.350186197394622e-8
          0 0 -2.655586561191032e-8 -2.6569289786956895e-8 -5.311155653808501e-8 -5.313817190292339e-8
          0 -2.6501338696478067e-8 -5.300291306431734e-8 0 -2.6485933688381183e-8 -5.29716330002324e-8
          0 -2.6582507640181237e-8 -5.316510543115694e-8 0 0 -2.654435596062432e-8
          -2.6543079324334226e-8 -5.3088953242961847e-8 -5.308578709960697e-8 0 -2.6647020709129078e-8 -5.329382777639571e-8
          0 0 0 0 -2.6658796267933404e-8 -2.6670713373466093e-8
          -2.665116020285676e-8 -2.6641570129308056e-8 -5.331618405864888e-8 -5.3343093645891597e-8 -5.33037072164867e-8 -5.328137563577002e-8
          0 0 -2.6587611398841198e-8 -2.6608862500733446e-8 -5.31752264653993e-8 -5.321919392268241e-8
          0 -2.6720529174917763e-8 -5.344063280708933e-8 0 0 -2.664293281110552e-8
          -2.6660768475903534e-8 -5.3284850644364236e-8 -5.332038829864847e-8 0 0 -2.6668030840208172e-8
          -2.6688435487033357e-8 -5.333521339643232e-8 -5.33771872077988e-8 0 -2.658261362572909e-8 -5.316450905585757e-8
          0 -2.6598114919725283e-8 -5.319613037655799e-8 0 -2.6730759746531643e-8 -5.3460559499842414e-8
          0 0 -2.653319525392058e-8 -2.6532260525817337e-8 -5.306651649215555e-8 -5.306450336928529e-8
          0 -2.6706985531995292e-8 -5.341384827174682e-8 0 0 0
          -2.6783998995015006e-8 -2.6867199512606445e-8 -2.675972322180226e-8 -5.3565021496243815e-8 -5.3736254892341e-8 -5.3519442310226664e-8
          0 -2.669932188843853e-8 -5.339958053854564e-8 0 0 0
          -2.6599262479541003e-8 -2.6607778182714626e-8 -2.6619860838626606e-8 -5.3197099871335347e-8 -5.321126761495656e-8 -5.3243705983809523e-8
          0 -2.6675921071081646e-8 -5.335051978889172e-8 0 -2.663083050078558e-8 -5.326179004021031e-8
          0 -2.6827751809886457e-8 -5.3652568289985156e-8 0 -2.6585643573452726e-8 -5.317092762102438e-8
          0 0 -2.663548776826099e-8 -2.662570049290233e-8 -5.32734849629532e-8 -5.324939432780802e-8
          0 -2.6742569106215332e-8 -5.3484638255872106e-8 0 0 -2.653254365995179e-8
          -2.6541340997438876e-8 -5.306511035486963e-8 -5.3082486387446483e-8 0 0 -2.662290279743991e-8
          -2.6611683626861303e-8 -5.3244928589063076e-8 -5.321865731147433e-8 0 0 -2.6718946646209173e-8
          -2.67351820302606e-8 -5.343841338973902e-8 -5.347112112904316e-8 0 0 -2.681338081119074e-8
          -2.677362383739073e-8 -5.36268274495891e-8 -5.354655123316156e-8 0 0 0
          -2.6728293325319706e-8 -2.6713477735287867e-8 -2.673275831442939e-8 -5.3458219356925054e-8 -5.3425327620088904e-8 -5.34645070539654e-8
          0 -2.675217658094722e-8 -5.350580980803384e-8 0 -2.6747706973085086e-8 -5.349611033994524e-8
          0 -2.6695321907092925e-8 -5.338957068112127e-8 0 -2.6846492115263564e-8 -5.369382150325181e-8
          0 0 0 -2.6769131887700414e-8 -2.6785400902760548e-8 -2.6826066331589873e-8
          -5.354063879518939e-8 -5.35681477615918e-8 -5.3652865323323875e-8 0 -2.6756143808036064e-8 -5.3512155304411534e-8
          0 -2.6808505213219488e-8 -5.361744485864148e-8 0 0 -2.682996933960825e-8
          -2.683410429765478e-8 -5.365991287564632e-8 -5.3666668069092325e-8 0 -2.6793552210551593e-8 -5.3587184461673674e-8
          0 -2.6828495783514932e-8 -5.365943569329663e-8 0 -2.699475074228045e-8 -5.402350680126471e-8
          0 -2.6817106136991944e-8 -5.3620555853740556e-8 0 -2.681191310877555e-8 -5.3606549515736375e-8
          0 -2.6724658288452534e-8 -5.344685423142892e-8 0 0 -2.6838625280980157e-8
          -2.684721146245758e-8 -5.3678145628472344e-8 -5.369603357420774e-8 0 0 -2.675568812672733e-8
          -2.6718378748106417e-8 -5.351081476350455e-8 -5.3435715776845985e-8 0 0 -2.660096293541365e-8
          -2.6563502437135952e-8 -5.320219556640456e-8 -5.312756528289954e-8 0 -2.6918000638049117e-8 -5.383602039407396e-8
          0 -2.6848854248223572e-8 -5.369755590624136e-8 0 -2.6719266663111927e-8 -5.343862520512162e-8
          0 -2.7027384934034154e-8 -5.4055040603883725e-8 0 -2.7011653090832447e-8 -5.4023030432925147e-8
          0 -2.6922248094111168e-8 -5.3844787533382005e-8 0 -2.7185253790590708e-8 -5.437097254220793e-8
          0 -2.7239812085603453e-8 -5.447934282576017e-8 0 -2.7222128980700932e-8 -5.444401522820738e-8
          0 -2.7537514005950223e-8 -5.50746864154923e-8 0 -2.7633619305932666e-8 -5.526845572799898e-8
          0 -2.7902454964070838e-8 -5.5804712173782775e-8 0 -2.8172284944278573e-8 -5.634248818641498e-8
          0 -2.8309033428227065e-8 -5.661785262972927e-8 0 -2.8910700497380397e-8 -5.7824546516221646e-8
          0 -2.873525495443584e-8 -5.7471800968601554e-8 0 -2.9624801700734103e-8 -5.924894707171625e-8
          0 -2.9037520195745566e-8 -5.8078809060013266e-8 0 -3.165134687096303e-8 -6.330895020768375e-8
          0 0 -2.6336855915552367e-8 -2.629504723604249e-8 -5.267360860484061e-8 -5.258979696542855e-8
          0 -2.6469704141007457e-8 -5.2939209990926744e-8 0 -2.670314409247343e-8 -5.340649641843985e-8
          0 -2.705653191954878e-8 -5.411208316486301e-8 0 -2.756081957245048e-8 -5.512379899254087e-8
          0 0 -2.6767374003287164e-8 -2.674128539071288e-8 -5.353406852445824e-8 -5.3483743327571515e-8
          0 0 0 -2.7135638876656743e-8 -2.706488999493067e-8 -2.6994613697549648e-8
          -5.427101583266863e-8 -5.4130760889622855e-8 -5.398950001872969e-8 0 -2.6619720966010692e-8 -5.323970020317648e-8
          0 -2.666833761062793e-8 -5.3336400772975484e-8 0 -2.6876328590173343e-8 -5.37523831646722e-8
          0 -2.7375410102073777e-8 -5.4751049114940026e-8 0 -2.757744324100265e-8 -5.5155858554327334e-8
          0 -2.7769469078554268e-8 -5.55384960090801e-8 0 -2.786970373227284e-8 -5.573808466676084e-8
          0 -2.7626878645865793e-8 -5.525373872789362e-8 0 0 -2.597347003612573e-8
          -2.5932489206076823e-8 -5.1947052652965436e-8 -5.186508911603856e-8 0 -2.6107903656441108e-8 -5.221575992782236e-8
          0 -2.6349287015623955e-8 -5.269893165498137e-8 0 -2.6721621550551928e-8 -5.344236160519233e-8
          0 -2.72637320892735e-8 -5.4529803668688095e-8 0 -2.8250178299392747e-8 -5.649554830314153e-8
          0 -2.802420268554634e-8 -5.6043388655444284e-8 0 -2.930266656230618e-8 -5.8611765923474326e-8
          0 -3.028733133170041e-8 -6.057387508026264e-8 0 -3.408897488014709e-8 -6.818919421472647e-8
        </DataArray>
      </PointData>
      <CellData>
        <DataArray type="Int32" Name="libmesh_elem_id" format="ascii" RangeMin="1386" RangeMax="3465">
          1386 1387 1390 1391 1394 1395
          1400 1401 1406 1407 1410 1411
          1420 1421 1424 1425 1426 1427
          1432 1433 1436 1437 1444 1445
          1446 1447 1450 1451 1462 1463
          1466 1467 1474 1475 1498 1499
          1504 1505 1508 1509 1514 1515
          1524 1525 1526 1527 1530 1531
          1540 1541 1550 1551 1552 1553
          1554 1555 1578 1579 1588 1589
          1592 1593 1594 1595 1596 1597
          1598 1599 1600 1601 1606 1607
          1662 1663 1698 1699 1702 1703
          1712 1713 1726 1727 1730 1731
          1734 1735 1748 1749 1752 1753
          1774 1775 1778 1779 1834 1835
          1854 1855 1872 1873 1892 1893
          1894 1895 1896 1897 1902 1903
          1914 1915 1920 1921 1922 1923
          1932 1933 1942 1943 1944 1945
          1988 1989 2000 2001 2010 2011
          2024 2025 2070 2071 2100 2101
          2112 2113 2132 2133 2140 2141
          2150 2151 2166 2167 2206 2207
          2218 2219 2238 2239 2242 2243
          2244 2245 2256 2257 2258 2259
          2268 2269 2278 2279 2284 2285
          2306 2307 2334 2335 2340 2341
          2360 2361 2372 2373 2392 2393
          2396 2397 2398 2399 2418 2419
          2422 2423 2426 2427 2432 2433
          2434 2435 2436 2437 2476 2477
          2480 2481 2482 2483 2518 2519
          2534 2535 2540 2541 2542 2543
          2546 2547 2556 2557 2562 2563
          2568 2569 2574 2575 2584 2585
          2588 2589 2598 2599 2612 2613
          2638 2639 2656 2657 2664 2665
          2678 2679 2682 2683 2702 2703
          2704 2705 2708 2709 2720 2721
          2724 2725 2734 2735 2738 2739
          2742 2743 2746 2747 2774 2775
          2788 2789 2790 2791 2804 2805
          2806 2807 2834 2835 2840 2841
          2844 2845 2850 2851 2854 2855
          2858 2859 2872 2873 2888 2889
          2892 2893 2896 2897 2908 2909
          2912 2913 2916 2917 2918 2919
          2924 2925 2932 2933 2944 2945
          2972 2973 2984 2985 2996 2997
          3000 3001 3002 3003 3022 3023
          3024 3025 3030 3031 3032 3033
          3044 3045 3048 3049 3080 3081
          3092 3093 3108 3109 3120 3121
          3130 3131 3136 3137 3140 3141
          3142 3143 3146 3147 3150 3151
          3160 3161 3162 3163 3164 3165
          3170 3171 3172 3173 3174 3175
          3178 3179 3186 3187 3188 3189
          3198 3199 3216 3217 3218 3219
          3228 3229 3232 3233 3238 3239
          3242 3243 3246 3247 3250 3251
          3256 3257 3260 3261 3262 3263
          3266 3267 3268 3269 3270 3271
          3272 3273 3274 3275 3276 3277
          3278 3279 3280 3281 3282 3283
          3284 3285 3286 3287 3288 3289
          3290 3291 3292 3293 3294 3295
          3298 3299 3300 3301 3304 3305
          3306 3307 3310 3311 3312 3313
          3316 3317 3318 3319 3320 3321
          3322 3323 3338 3339 3340 3341
          3356 3357 3358 3359 3374 3375
          3376 3377 3392 3393 3394 3395
          3410 3411 3412 3413 3428 3429
          3446 3447 3464 3465
        </DataArray>
        <DataArray type="Int32" Name="subdomain_id" format="ascii" RangeMin="107" RangeMax="109">
          107 107 107 107 107 107
          107 107 107 107 107 107
          107 107 107 107 107 107
          107 107 107 107 107 107
          107 107 107 107 107 107
          107 107 107 107 107 107
          107 107 107 107 107 107
          107 107 107 107 107 107
          107 107 107 107 107 107
          107 107 107 107 107 107
          107 107 107 107 107 107
          107 107 107 107 107 107
          107 107 107 107 107 107
          107 107 107 107 107 107
          107 107 107 107 107 107
          107 107 107 107 107 107
          107 107 107 107 107 107
          107 107 107 107 107 107
          107 107 107 107 107 107
          107 107 107 107 107 107
          107 107 107 107 107 107
          107 107 107 107 107 107
          107 107 107 107 107 107
          107 107 107 107 107 107
          107 107 107 107 107 107
          107 107 107 107 107 107
          107 107 107 107 107 107
          107 107 107 107 107 107
          107 107 107 107 107 107
          107 107 107 107 107 107
          107 107 107 107 107 107
          107 107 107 107 107 107
          107 107 107 107 107 107
          107 107 107 107 107 107
          107 107 107 107 107 107
          107 107 107 107 107 107
          107 107 107 107 107 107
          107 107 107 107 107 107
          107 107 107 107 107 107
          107 107 107 107 107 107
          107 107 107 107 107 107
          107 107 107 107 107 107
          107 107 107 107 107 107
          107 107 107 107 107 107
          107 107 107 107 107 107
          107 107 107 107 107 107
          107 107 107 107 107 107
          107 107 107 107 107 107
          107 107 107 107 107 107
          107 107 107 107 107 107
          107 107 107 107 107 107
          107 107 107 107 107 107
          107 107 107 107 107 107
          107 107 107 107 107 107
          107 107 107 107 107 107
          107 107 107 107 107 107
          107 107 107 107 107 107
          107 107 107 107 107 107
          107 107 107 107 107 107
          107 107 107 107 107 107
          107 107 107 107 107 107
          107 107 107 107 107 107
          107 107 107 107 107 107
          108 108 108 108 108 108
          108 108 108 108 108 108
          108 108 108 108 108 108
          108 108 108 108 108 108
          108 108 108 108 108 108
          108 108 108 108 108 108
          108 108 108 108 108 108
          108 108 108 108 109 109
          109 109 109 109 109 109
          109 109 109 109 109 109
          109 109 109 109 109 109
          109 109 109 109 109 109
          109 109 109 109
        </DataArray>
        <DataArray type="Int32" Name="processor_id" format="ascii" RangeMin="1" RangeMax="1">
          1 1 1 1 1 1
          1 1 1 1 1 1
          1 1 1 1 1 1
          1 1 1 1 1 1
          1 1 1 1 1 1
          1 1 1 1 1 1
          1 1 1 1 1 1
          1 1 1 1 1 1
          1 1 1 1 1 1
          1 1 1 1 1 1
          1 1 1 1 1 1
          1 1 1 1 1 1
          1 1 1 1 1 1
          1 1 1 1 1 1
          1 1 1 1 1 1
          1 1 1 1 1 1
          1 1 1 1 1 1
          1 1 1 1 1 1
          1 1 1 1 1 1
          1 1 1 1 1 1
          1 1 1 1 1 1
          1 1 1 1 1 1
          1 1 1 1 1 1
          1 1 1 1 1 1
          1 1 1 1 1 1
          1 1 1 1 1 1
          1 1 1 1 1 1
          1 1 1 1 1 1
          1 1 1 1 1 1
          1 1 1 1 1 1
          1 1 1 1 1 1
          1 1 1 1 1 1
          1 1 1 1 1 1
          1 1 1 1 1 1
          1 1 1 1 1 1
          1 1 1 1 1 1
          1 1 1 1 1 1
          1 1 1 1 1 1
          1 1 1 1 1 1
          1 1 1 1 1 1
          1 1 1 1 1 1
          1 1 1 1 1 1
          1 1 1 1 1 1
          1 1 1 1 1 1
          1 1 1 1 1 1
          1 1 1 1 1 1
          1 1 1 1 1 1
          1 1 1 1 1 1
          1 1 1 1 1 1
          1 1 1 1 1 1
          1 1 1 1 1 1
          1 1 1 1 1 1
          1 1 1 1 1 1
          1 1 1 1 1 1
          1 1 1 1 1 1
          1 1 1 1 1 1
          1 1 1 1 1 1
          1 1 1 1 1 1
          1 1 1 1 1 1
          1 1 1 1 1 1
          1 1 1 1 1 1
          1 1 1 1 1 1
          1 1 1 1 1 1
          1 1 1 1 1 1
          1 1 1 1 1 1
          1 1 1 1 1 1
          1 1 1 1 1 1
          1 1 1 1 1 1
          1 1 1 1 1 1
          1 1 1 1 1 1
          1 1 1 1 1 1
          1 1 1 1 1 1
          1 1 1 1 1 1
          1 1 1 1 1 1
          1 1 1 1 1 1
          1 1 1 1
        </DataArray>
      </CellData>
      <Points>
        <DataArray type="Float64" Name="Points" NumberOfComponents="3" format="ascii" RangeMin="0.011720201602553146" RangeMax="0.03445906060790294">
          0.012969222910182 0.0014853020742274 0 0.012627852011276 0.0016898182928561 0
          0.01236786906931 0.0013587217336166 0 0.012783325134333 0.0011067100297067 0
          0.012969222910182 0.0014853020742274 0.00015 0.012627852011276 0.0016898182928561 0.00015
          0.01236786906931 0.0013587217336166 0.00015 0.012783325134333 0.0011067100297067 0.00015
          0.012969222910182 0.0014853020742274 0.0003 0.012627852011276 0.0016898182928561 0.0003
          0.01236786906931 0.0013587217336166 0.0003 0.012783325134333 0.0011067100297067 0.0003
          0.017563073004652 0.0017425656775748 0 0.017044554764736 0.0015497457581888 0
          0.017260149731535 0.0011385367421141 0 0.017760141546291 0.0012815461285561 0
          0.017563073004652 0.0017425656775748 0.00015 0.017044554764736 0.0015497457581888 0.00015
          0.017260149731535 0.0011385367421141 0.00015 0.017760141546291 0.0012815461285561 0.00015
          0.017563073004652 0.0017425656775748 0.0003 0.017044554764736 0.0015497457581888 0.0003
          0.017260149731535 0.0011385367421141 0.0003 0.017760141546291 0.0012815461285561 0.0003
          0.023776898874178 0.0022456328082928 0 0.023504823460796 0.0016933718681226 0
          0.023764932341086 0.0012053538973125 0 0.025 0.0014444444444417 0
          0.023776898874178 0.0022456328082928 0.00015 0.023504823460796 0.0016933718681226 0.00015
          0.023764932341086 0.0012053538973125 0.00015 0.025 0.0014444444444417 0.00015
          0.023776898874178 0.0022456328082928 0.0003 0.023504823460796 0.0016933718681226 0.0003
          0.023764932341086 0.0012053538973125 0.0003 0.025 0.0014444444444417 0.0003
          0.014128459199836 0.0039835282877348 0 0.014611363502717 0.0036877867763913 0
          0.015005639561329 0.0040763460944633 0 0.014554004584986 0.0044253882271801 0
          0.014128459199836 0.0039835282877348 0.00015 0.014611363502717 0.0036877867763913 0.00015
          0.015005639561329 0.0040763460944633 0.00015 0.014554004584986 0.0044253882271801 0.00015
          0.014128459199836 0.0039835282877348 0.0003 0.014611363502717 0.0036877867763913 0.0003
          0.015005639561329 0.0040763460944633 0.0003 0.014554004584986 0.0044253882271801 0.0003
          0.019696280766899 0.00050763342021358 0 0.019550033943553 0.0010320458815065 0
          0.01900444612813 0.00098950685152215 0 0.019158982336274 0.00048623495360749 0
          0.019696280766899 0.00050763342021358 0.00015 0.019550033943553 0.0010320458815065 0.00015
          0.01900444612813 0.00098950685152215 0.00015 0.019158982336274 0.00048623495360749 0.00015
          0.019696280766899 0.00050763342021358 0.0003 0.019550033943553 0.0010320458815065 0.0003
          0.01900444612813 0.00098950685152215 0.0003 0.019158982336274 0.00048623495360749 0.0003
          0.014859009547347 0.0018414606933245 0 0.015407964407671 0.0020438178723745 0
          0.01515544156871 0.0026588338800995 0 0.014598102610542 0.0022982704245768 0
          0.014859009547347 0.0018414606933245 0.00015 0.015407964407671 0.0020438178723745 0.00015
          0.01515544156871 0.0026588338800995 0.00015 0.014598102610542 0.0022982704245768 0.00015
          0.014859009547347 0.0018414606933245 0.0003 0.015407964407671 0.0020438178723745 0.0003
          0.01515544156871 0.0026588338800995 0.0003 0.014598102610542 0.0022982704245768 0.0003
          0.018126604709057 0.0019215066283495 0 0.017910174904861 0.0024312076221655 0
          0.017342980714859 0.0022157520731189 0 0.018126604709057 0.0019215066283495 0.00015
          0.017910174904861 0.0024312076221655 0.00015 0.017342980714859 0.0022157520731189 0.00015
          0.018126604709057 0.0019215066283495 0.0003 0.017910174904861 0.0024312076221655 0.0003
          0.017342980714859 0.0022157520731189 0.0003 0.015995561521593 0.0022418351865966 0
          0.01581460170494 0.0027743126456578 0 0.015995561521593 0.0022418351865966 0.00015
          0.01581460170494 0.0027743126456578 0.00015 0.015995561521593 0.0022418351865966 0.0003
          0.01581460170494 0.0027743126456578 0.0003 0.021203243478062 0.0026574159093233 0
          0.020454986610371 0.0022211941162512 0 0.020632218270446 0.001642443645643 0
          0.021442904813338 0.0016925342242502 0 0.021203243478062 0.0026574159093233 0.00015
          0.020454986610371 0.0022211941162512 0.00015 0.020632218270446 0.001642443645643 0.00015
          0.021442904813338 0.0016925342242502 0.00015 0.021203243478062 0.0026574159093233 0.0003
          0.020454986610371 0.0022211941162512 0.0003 0.020632218270446 0.001642443645643 0.0003
          0.021442904813338 0.0016925342242502 0.0003 0.015000171033694 0.0033600360828681 0
          0.015396645228865 0.0036775895732469 0 0.015000171033694 0.0033600360828681 0.00015
          0.015396645228865 0.0036775895732469 0.00015 0.015000171033694 0.0033600360828681 0.0003
          0.015396645228865 0.0036775895732469 0.0003 0.016564676280502 0.0024636417082771 0
          0.016363912484153 0.0029730068966809 0 0.016564676280502 0.0024636417082771 0.00015
          0.016363912484153 0.0029730068966809 0.00015 0.016564676280502 0.0024636417082771 0.0003
          0.016363912484153 0.0029730068966809 0.0003 0.023072410624366 0.001035238244058 0
          0.023303887517976 0.00051385162283572 0 0.023907474886085 0.00057797945625648 0
          0.023072410624366 0.001035238244058 0.00015 0.023303887517976 0.00051385162283572 0.00015
          0.023907474886085 0.00057797945625648 0.00015 0.023072410624366 0.001035238244058 0.0003
          0.023303887517976 0.00051385162283572 0.0003 0.023907474886085 0.00057797945625648 0.0003
          0.014126846853415 0.0020250855845452 0 0.014376196219822 0.0016213258676016 0
          0.014126846853415 0.0020250855845452 0.00015 0.014376196219822 0.0016213258676016 0.00015
          0.014126846853415 0.0020250855845452 0.0003 0.014376196219822 0.0016213258676016 0.0003
          0.018981322625637 0.0048047339747308 0 0.018357141436072 0.0045551651420339 0
          0.018591751365599 0.0039752866369835 0 0.01916753543825 0.0042045163914746 0
          0.018981322625637 0.0048047339747308 0.00015 0.018357141436072 0.0045551651420339 0.00015
          0.018591751365599 0.0039752866369835 0.00015 0.01916753543825 0.0042045163914746 0.00015
          0.018981322625637 0.0048047339747308 0.0003 0.018357141436072 0.0045551651420339 0.0003
          0.018591751365599 0.0039752866369835 0.0003 0.01916753543825 0.0042045163914746 0.0003
          0.018733892370512 0.0020905204418308 0 0.018302277235643 0.001411928503633 0
          0.018878430913296 0.0015272195647153 0 0.018733892370512 0.0020905204418308 0.00015
          0.018302277235643 0.001411928503633 0.00015 0.018878430913296 0.0015272195647153 0.00015
          0.018733892370512 0.0020905204418308 0.0003 0.018302277235643 0.001411928503633 0.0003
          0.018878430913296 0.0015272195647153 0.0003 0.015535554193674 0.0045828394817383 0
          0.015535554193674 0.0045828394817383 0.00015 0.015535554193674 0.0045828394817383 0.0003
          0.017780760549951 0.0042442262797048 0 0.018018112537919 0.0052480329433742 0
          0.017497318700769 0.0047182001999379 0 0.017780760549951 0.0042442262797048 0.00015
          0.018018112537919 0.0052480329433742 0.00015 0.017497318700769 0.0047182001999379 0.00015
          0.017780760549951 0.0042442262797048 0.0003 0.018018112537919 0.0052480329433742 0.0003
          0.017497318700769 0.0047182001999379 0.0003 0.019494677591535 0.00226139088066 0
          0.019117853172676 0.0029004952170283 0 0.018505903140776 0.002650294613165 0
          0.019494677591535 0.00226139088066 0.00015 0.019117853172676 0.0029004952170283 0.00015
          0.018505903140776 0.002650294613165 0.00015 0.019494677591535 0.00226139088066 0.0003
          0.019117853172676 0.0029004952170283 0.0003 0.018505903140776 0.002650294613165 0.0003
          0.013829014690192 0.0024142080164891 0 0.013458574547778 0.0021218274131508 0
          0.013711742209243 0.0017918189860839 0 0.013829014690192 0.0024142080164891 0.00015
          0.013458574547778 0.0021218274131508 0.00015 0.013711742209243 0.0017918189860839 0.00015
          0.013829014690192 0.0024142080164891 0.0003 0.013458574547778 0.0021218274131508 0.0003
          0.013711742209243 0.0017918189860839 0.0003 0.0133672983588 0.0013583262253912 0
          0.013268156677071 0.00095273786274694 0 0.0133672983588 0.0013583262253912 0.00015
          0.013268156677071 0.00095273786274694 0.00015 0.0133672983588 0.0013583262253912 0.0003
          0.013268156677071 0.00095273786274694 0.0003 0.020151989638292 0.0057951577471947 0
          0.020929132214341 0.005368110675239 0 0.020151989638292 0.0057951577471947 0.00015
          0.020929132214341 0.005368110675239 0.00015 0.020151989638292 0.0057951577471947 0.0003
          0.020929132214341 0.005368110675239 0.0003 0.011634800364854 0.0014122839921498 0
          0.011634800364854 0.0014122839921498 0.00015 0.011634800364854 0.0014122839921498 0.0003
          0.020690070611507 0.0010537467946972 0 0.021241463234904 0.0010007048777636 0
          0.020690070611507 0.0010537467946972 0.00015 0.021241463234904 0.0010007048777636 0.00015
          0.020690070611507 0.0010537467946972 0.0003 0.021241463234904 0.0010007048777636 0.0003
          0.01690585017332 0.0031962434076044 0 0.017120511962154 0.0027019865785896 0
          0.01690585017332 0.0031962434076044 0.00015 0.017120511962154 0.0027019865785896 0.00015
          0.01690585017332 0.0031962434076044 0.0003 0.017120511962154 0.0027019865785896 0.0003
          0.016801656731456 0.0019822328720047 0 0.016801656731456 0.0019822328720047 0.00015
          0.016801656731456 0.0019822328720047 0.0003 0.015193226280812 0.00045041659473928 0
          0.015698309574236 0.00047366638839958 0 0.015648437383567 0.00097128418016613 0
          0.015127663000402 0.00090574444628299 0 0.015193226280812 0.00045041659473928 0.00015
          0.015698309574236 0.00047366638839958 0.00015 0.015648437383567 0.00097128418016613 0.00015
          0.015127663000402 0.00090574444628299 0.00015 0.015193226280812 0.00045041659473928 0.0003
          0.015698309574236 0.00047366638839958 0.0003 0.015648437383567 0.00097128418016613 0.0003
          0.015127663000402 0.00090574444628299 0.0003 0.025 0.0057777777777625 0
          0.025 0.0057777777777625 0.00015 0.025 0.0057777777777625 0.0003
          0.025 0.0043333333333224 0 0.023896353247243 0.0043894596145303 0
          0.025 0.0043333333333224 0.00015 0.023896353247243 0.0043894596145303 0.00015
          0.025 0.0043333333333224 0.0003 0.023896353247243 0.0043894596145303 0.0003
          0.013179014717582 0.001822526704721 0 0.013420070576712 0.0016525675047962 0
          0.013179014717582 0.001822526704721 0.00015 0.013420070576712 0.0016525675047962 0.00015
          0.013179014717582 0.001822526704721 0.0003 0.013420070576712 0.0016525675047962 0.0003
          0.01946472134525 0.0015844882179861 0 0.01946472134525 0.0015844882179861 0.00015
          0.01946472134525 0.0015844882179861 0.0003 0.019738918970445 0.0042679072806348 0
          0.019737200842686 0.0050366958134185 0 0.019738918970445 0.0042679072806348 0.00015
          0.019737200842686 0.0050366958134185 0.00015 0.019738918970445 0.0042679072806348 0.0003
          0.019737200842686 0.0050366958134185 0.0003 0.018801022408002 0.0054477015438504 0
          0.019301386887175 0.0055580415356932 0 0.019427042946373 0.0060730727381959 0
          0.018733542944404 0.0061279994653871 0 0.018801022408002 0.0054477015438504 0.00015
          0.019301386887175 0.0055580415356932 0.00015 0.019427042946373 0.0060730727381959 0.00015
          0.018733542944404 0.0061279994653871 0.00015 0.018801022408002 0.0054477015438504 0.0003
          0.019301386887175 0.0055580415356932 0.0003 0.019427042946373 0.0060730727381959 0.0003
          0.018733542944404 0.0061279994653871 0.0003 0.020038894590203 0.0015918984718873 0
          0.020014763899096 0.0020069766457038 0 0.020038894590203 0.0015918984718873 0.00015
          0.020014763899096 0.0020069766457038 0.00015 0.020038894590203 0.0015918984718873 0.0003
          0.020014763899096 0.0020069766457038 0.0003 0.02163606673442 0.0008902471917336 0
          0.021744201350165 0.00049421716196859 0 0.022190644598282 0.0005058615377216 0
          0.021944604947084 0.0011684672971015 0 0.02163606673442 0.0008902471917336 0.00015
          0.021744201350165 0.00049421716196859 0.00015 0.022190644598282 0.0005058615377216 0.00015
          0.021944604947084 0.0011684672971015 0.00015 0.02163606673442 0.0008902471917336 0.0003
          0.021744201350165 0.00049421716196859 0.0003 0.022190644598282 0.0005058615377216 0.0003
          0.021944604947084 0.0011684672971015 0.0003 0.015913060403389 0.0039637658470315 0
          0.015913060403389 0.0039637658470315 0.00015 0.015913060403389 0.0039637658470315 0.0003
          0.014558693053864 0.0012292895498017 0 0.015031644896308 0.0013689537442351 0
          0.014558693053864 0.0012292895498017 0.00015 0.015031644896308 0.0013689537442351 0.00015
          0.014558693053864 0.0012292895498017 0.0003 0.015031644896308 0.0013689537442351 0.0003
          0.018057579772584 0.0060827128421873 0 0.018070157245618 0.0068021820766994 0
          0.018057579772584 0.0060827128421873 0.00015 0.018070157245618 0.0068021820766994 0.00015
          0.018057579772584 0.0060827128421873 0.0003 0.018070157245618 0.0068021820766994 0.0003
          0.017413401850906 0.0060417176080878 0 0.017413401850906 0.0060417176080878 0.00015
          0.017413401850906 0.0060417176080878 0.0003 0.016169389215855 0.0034677229039223 0
          0.015655980876909 0.003250339095381 0 0.016169389215855 0.0034677229039223 0.00015
          0.015655980876909 0.003250339095381 0.00015 0.016169389215855 0.0034677229039223 0.0003
          0.015655980876909 0.003250339095381 0.0003 0.014652329158707 0.0030238496825634 0
          0.015285307382498 0.0031101507370722 0 0.014652329158707 0.0030238496825634 0.00015
          0.015285307382498 0.0031101507370722 0.00015 0.014652329158707 0.0030238496825634 0.0003
          0.015285307382498 0.0031101507370722 0.0003 0.016487808895433 0.0042010147125967 0
          0.016291762387835 0.0047307906783276 0 0.016487808895433 0.0042010147125967 0.00015
          0.016291762387835 0.0047307906783276 0.00015 0.016487808895433 0.0042010147125967 0.0003
          0.016291762387835 0.0047307906783276 0.0003 0.017341722495578 0.0054175123203669 0
          0.017341722495578 0.0054175123203669 0.00015 0.017341722495578 0.0054175123203669 0.0003
          0.016251164393845 0.0016133033435965 0 0.016687160352932 0.001374608348519 0
          0.016251164393845 0.0016133033435965 0.00015 0.016687160352932 0.001374608348519 0.00015
          0.016251164393845 0.0016133033435965 0.0003 0.016687160352932 0.001374608348519 0.0003
          0.01678493258985 0.0053840721103251 0 0.016848637368385 0.0048798435935376 0
          0.01678493258985 0.0053840721103251 0.00015 0.016848637368385 0.0048798435935376 0.00015
          0.01678493258985 0.0053840721103251 0.0003 0.016848637368385 0.0048798435935376 0.0003
          0.013915703094631 0.0030656560250288 0 0.01425441565673 0.0027053116394345 0
          0.014277331184122 0.0033493109511997 0 0.013915703094631 0.0030656560250288 0.00015
          0.01425441565673 0.0027053116394345 0.00015 0.014277331184122 0.0033493109511997 0.00015
          0.013915703094631 0.0030656560250288 0.0003 0.01425441565673 0.0027053116394345 0.0003
          0.014277331184122 0.0033493109511997 0.0003 0.013503308513005 0.0027817056572273 0
          0.013503308513005 0.0027817056572273 0.00015 0.013503308513005 0.0027817056572273 0.0003
          0.015571407447371 0.001500509245043 0 0.016188320748251 0.0009824473909215 0
          0.015571407447371 0.001500509245043 0.00015 0.016188320748251 0.0009824473909215 0.00015
          0.015571407447371 0.001500509245043 0.0003 0.016188320748251 0.0009824473909215 0.0003
          0.017456683820944 0.0034405145363726 0 0.017671289470578 0.0029336357035204 0
          0.017456683820944 0.0034405145363726 0.00015 0.017671289470578 0.0029336357035204 0.00015
          0.017456683820944 0.0034405145363726 0.0003 0.017671289470578 0.0029336357035204 0.0003
          0.022716879195272 0.001694170750475 0 0.022069698771397 0.0020298487038736 0
          0.022716879195272 0.001694170750475 0.00015 0.022069698771397 0.0020298487038736 0.00015
          0.022716879195272 0.001694170750475 0.0003 0.022069698771397 0.0020298487038736 0.0003
          0.013893710777701 0.0013389894450257 0 0.014229820502632 0.0011148528015907 0
          0.013893710777701 0.0013389894450257 0.00015 0.014229820502632 0.0011148528015907 0.00015
          0.013893710777701 0.0013389894450257 0.0003 0.014229820502632 0.0011148528015907 0.0003
          0.012674188674928 0.0028095410694266 0 0.013119330518162 0.0024349279719224 0
          0.013248150362312 0.0031919567697963 0 0.012674188674928 0.0028095410694266 0.00015
          0.013119330518162 0.0024349279719224 0.00015 0.013248150362312 0.0031919567697963 0.00015
          0.012674188674928 0.0028095410694266 0.0003 0.013119330518162 0.0024349279719224 0.0003
          0.013248150362312 0.0031919567697963 0.0003 0.012451479243686 0.0021914486022899 0
          0.012451479243686 0.0021914486022899 0.00015 0.012451479243686 0.0021914486022899 0.0003
          0.016782084774574 0.00093367828557597 0 0.016782084774574 0.00093367828557597 0.00015
          0.016782084774574 0.00093367828557597 0.0003 0.013121586466294 0.0036708577033715 0
          0.013121586466294 0.0036708577033715 0.00015 0.013121586466294 0.0036708577033715 0.0003
          0.012837862818801 0.0020433604618052 0 0.012837862818801 0.0020433604618052 0.00015
          0.012837862818801 0.0020433604618052 0.0003 0.016706746155521 0.0036970402910047 0
          0.016706746155521 0.0036970402910047 0.00015 0.016706746155521 0.0036970402910047 0.0003
          0.013749164985008 0.00086088989331873 0 0.013749164985008 0.00086088989331873 0.00015
          0.013749164985008 0.00086088989331873 0.0003 0.012096711335481 0.0017058387426491 0
          0.012096711335481 0.0017058387426491 0.00015 0.012096711335481 0.0017058387426491 0.0003
          0.013693266362936 0.0034326845509566 0 0.013693266362936 0.0034326845509566 0.00015
          0.013693266362936 0.0034326845509566 0.0003 0.012692307692288 0 0
          0.012542896420733 0.00061304595643839 0 0.012692307692288 0 0.00015
          0.012542896420733 0.00061304595643839 0.00015 0.012692307692288 0 0.0003
          0.012542896420733 0.00061304595643839 0.0003 0.013205128205107 0 0
          0.013181655749567 0.00048421972568225 0 0.013205128205107 0 0.00015
          0.013181655749567 0.00048421972568225 0.00015 0.013205128205107 0 0.0003
          0.013181655749567 0.00048421972568225 0.0003 0.012087580163866 0.0010424427844857 0
          0.012087580163866 0.0010424427844857 0.00015 0.012087580163866 0.0010424427844857 0.0003
          0.013717948717925 0 0 0.013709151553936 0.00043508888993868 0
          0.013717948717925 0 0.00015 0.013709151553936 0.00043508888993868 0.00015
          0.013717948717925 0 0.0003 0.013709151553936 0.00043508888993868 0.0003
          0.023934294716764 0.0032087575652495 0 0.025 0.0028888888888822 0
          0.023934294716764 0.0032087575652495 0.00015 0.025 0.0028888888888822 0.00015
          0.023934294716764 0.0032087575652495 0.0003 0.025 0.0028888888888822 0.0003
          0.022119784948444 0.002618759724243 0 0.022119784948444 0.002618759724243 0.00015
          0.022119784948444 0.002618759724243 0.0003 0.012384518900215 0.0018567382086698 0
          0.012384518900215 0.0018567382086698 0.00015 0.012384518900215 0.0018567382086698 0.0003
          0.021279978971931 0.00049482730399591 0 0.020757556768826 0.00050973095909409 0
          0.021279978971931 0.00049482730399591 0.00015 0.020757556768826 0.00050973095909409 0.00015
          0.021279978971931 0.00049482730399591 0.0003 0.020757556768826 0.00050973095909409 0.0003
          0.015256410256382 0 0 0.015769230769205 0 0
          0.015256410256382 0 0.00015 0.015769230769205 0 0.00015
          0.015256410256382 0 0.0003 0.015769230769205 0 0.0003
          0.014025581742285 0.0035717972510793 0 0.014025581742285 0.0035717972510793 0.00015
          0.014025581742285 0.0035717972510793 0.0003 0.013590285783394 0.0038446716816234 0
          0.013590285783394 0.0038446716816234 0.00015 0.013590285783394 0.0038446716816234 0.0003
          0.017243082343815 0.0050067004105205 0 0.017243082343815 0.0050067004105205 0.00015
          0.017243082343815 0.0050067004105205 0.0003 0.014691316585943 0.00042340821879555 0
          0.014743589743561 0 0 0.014691316585943 0.00042340821879555 0.00015
          0.014743589743561 0 0.00015 0.014691316585943 0.00042340821879555 0.0003
          0.014743589743561 0 0.0003 0.018245486290569 0.0031782516753476 0
          0.018245486290569 0.0031782516753476 0.00015 0.018245486290569 0.0031782516753476 0.0003
          0.018846153846135 0 0 0.018644197304734 0.00045373129675669 0
          0.01812656348281 0.00041497632726255 0 0.018333333333313 0 0
          0.018846153846135 0 0.00015 0.018644197304734 0.00045373129675669 0.00015
          0.01812656348281 0.00041497632726255 0.00015 0.018333333333313 0 0.00015
          0.018846153846135 0 0.0003 0.018644197304734 0.00045373129675669 0.0003
          0.01812656348281 0.00041497632726255 0.0003 0.018333333333313 0 0.0003
          0.016222123693441 0.00047331176344161 0 0.016700854199337 0.00043557402690065 0
          0.016222123693441 0.00047331176344161 0.00015 0.016700854199337 0.00043557402690065 0.00015
          0.016222123693441 0.00047331176344161 0.0003 0.016700854199337 0.00043557402690065 0.0003
          0.020119253581834 0.0010505613075795 0 0.020119253581834 0.0010505613075795 0.00015
          0.020119253581834 0.0010505613075795 0.0003 0.017948162073368 0.00084248305268282 0
          0.018468108748109 0.00092264731154686 0 0.017948162073368 0.00084248305268282 0.00015
          0.018468108748109 0.00092264731154686 0.00015 0.017948162073368 0.00084248305268282 0.0003
          0.018468108748109 0.00092264731154686 0.0003 0.018823294200687 0.0034327213803771 0
          0.019357958441624 0.0036753812238739 0 0.018823294200687 0.0034327213803771 0.00015
          0.019357958441624 0.0036753812238739 0.00015 0.018823294200687 0.0034327213803771 0.0003
          0.019357958441624 0.0036753812238739 0.0003 0.017020820655581 0.0044256808272369 0
          0.017020820655581 0.0044256808272369 0.00015 0.017020820655581 0.0044256808272369 0.0003
          0.017246333426457 0.0039469397271967 0 0.017246333426457 0.0039469397271967 0.00015
          0.017246333426457 0.0039469397271967 0.0003 0.020078691259254 0.0027314397537426 0
          0.020078691259254 0.0027314397537426 0.00015 0.020078691259254 0.0027314397537426 0.0003
          0.014206101807249 0.00041708713844452 0 0.014230769230743 0 0
          0.014206101807249 0.00041708713844452 0.00015 0.014230769230743 0 0.00015
          0.014206101807249 0.00041708713844452 0.0003 0.014230769230743 0 0.0003
          0.019663480844036 0.0032045589214632 0 0.019663480844036 0.0032045589214632 0.00015
          0.019663480844036 0.0032045589214632 0.0003 0.021168425648455 0.0043064684914555 0
          0.021635594211814 0.0048272474453844 0 0.020555573714582 0.0046911399787169 0
          0.021168425648455 0.0043064684914555 0.00015 0.021635594211814 0.0048272474453844 0.00015
          0.020555573714582 0.0046911399787169 0.00015 0.021168425648455 0.0043064684914555 0.0003
          0.021635594211814 0.0048272474453844 0.0003 0.020555573714582 0.0046911399787169 0.0003
          0.019723975353689 0.0038421555098755 0 0.019723975353689 0.0038421555098755 0.00015
          0.019723975353689 0.0038421555098755 0.0003 0.01679487179485 0 0
          0.017307692307672 0 0 0.017098243235352 0.00037703288126221 0
          0.01679487179485 0 0.00015 0.017307692307672 0 0.00015
          0.017098243235352 0.00037703288126221 0.00015 0.01679487179485 0 0.0003
          0.017307692307672 0 0.0003 0.017098243235352 0.00037703288126221 0.0003
          0.019358974358957 0 0 0.019358974358957 0 0.00015
          0.019358974358957 0 0.0003 0.018021318366412 0.0037089471112668 0
          0.018021318366412 0.0037089471112668 0.00015 0.018021318366412 0.0037089471112668 0.0003
          0.022914230268928 0.0025172233828488 0 0.022914230268928 0.0025172233828488 0.00015
          0.022914230268928 0.0025172233828488 0.0003 0.016282051282027 0 0
          0.016282051282027 0 0.00015 0.016282051282027 0 0.0003
          0.017636327566636 0.00038375181151782 0 0.017820512820494 0 0
          0.017636327566636 0.00038375181151782 0.00015 0.017820512820494 0 0.00015
          0.017636327566636 0.00038375181151782 0.0003 0.017820512820494 0 0.0003
          0.020545307319607 0.0031941956482125 0 0.020545307319607 0.0031941956482125 0.00015
          0.020545307319607 0.0031941956482125 0.0003 0.014207774647908 0.00082121811907846 0
          0.014649951203035 0.00083908958777153 0 0.014207774647908 0.00082121811907846 0.00015
          0.014649951203035 0.00083908958777153 0.00015 0.014207774647908 0.00082121811907846 0.0003
          0.014649951203035 0.00083908958777153 0.0003 0.017453973974276 0.00075538641526017 0
          0.017131504825278 0.00067680946789985 0 0.017453973974276 0.00075538641526017 0.00015
          0.017131504825278 0.00067680946789985 0.00015 0.017453973974276 0.00075538641526017 0.0003
          0.017131504825278 0.00067680946789985 0.0003 0.020049549059284 0.0035870308776452 0
          0.020306231316884 0.0040846257713005 0 0.020049549059284 0.0035870308776452 0.00015
          0.020306231316884 0.0040846257713005 0.00015 0.020049549059284 0.0035870308776452 0.0003
          0.020306231316884 0.0040846257713005 0.0003 0.022163023796879 0.0034061119862663 0
          0.021471654866651 0.0034951402573089 0 0.022163023796879 0.0034061119862663 0.00015
          0.021471654866651 0.0034951402573089 0.00015 0.022163023796879 0.0034061119862663 0.0003
          0.021471654866651 0.0034951402573089 0.0003 0.020216848120139 0.00051365536395203 0
          0.020384615384602 0 0 0.020897435897425 0 0
          0.020216848120139 0.00051365536395203 0.00015 0.020384615384602 0 0.00015
          0.020897435897425 0 0.00015 0.020216848120139 0.00051365536395203 0.0003
          0.020384615384602 0 0.0003 0.020897435897425 0 0.0003
          0.020867240059882 0.0037570922548429 0 0.020867240059882 0.0037570922548429 0.00015
          0.020867240059882 0.0037570922548429 0.0003 0.021410256410247 0 0
          0.021410256410247 0 0.00015 0.021410256410247 0 0.0003
          0.01987179487178 0 0 0.01987179487178 0 0.00015
          0.01987179487178 0 0.0003 0.022975084693504 0.003367305376383 0
          0.022975084693504 0.003367305376383 0.00015 0.022975084693504 0.003367305376383 0.0003
          0.022435897435893 0 0 0.022948717948713 0 0
          0.022737844672879 0.00047743690091317 0 0.022435897435893 0 0.00015
          0.022948717948713 0 0.00015 0.022737844672879 0.00047743690091317 0.00015
          0.022435897435893 0 0.0003 0.022948717948713 0 0.0003
          0.022737844672879 0.00047743690091317 0.0003 0.02192307692307 0 0
          0.02192307692307 0 0.00015 0.02192307692307 0 0.0003
          0.021567010772127 0.0039949981403974 0 0.021567010772127 0.0039949981403974 0.00015
          0.021567010772127 0.0039949981403974 0.0003 0.02205136800235 0.0041574599345453 0
          0.022874799944018 0.0043411431204517 0 0.02205136800235 0.0041574599345453 0.00015
          0.022874799944018 0.0043411431204517 0.00015 0.02205136800235 0.0041574599345453 0.0003
          0.022874799944018 0.0043411431204517 0.0003 0.023461538461532 0 0
          0.023461538461532 0 0.00015 0.023461538461532 0 0.0003
          0.022597273609822 0.0008601076908125 0 0.022597273609822 0.0008601076908125 0.00015
          0.022597273609822 0.0008601076908125 0.0003 0.024392416230449 0.00057909033861659 0
          0.024392416230449 0.00057909033861659 0.00015 0.024392416230449 0.00057909033861659 0.0003
          0.023974358974355 0 0 0.023974358974355 0 0.00015
          0.023974358974355 0 0.0003 0.024487179487177 0 0
          0.024487179487177 0 0.00015 0.024487179487177 0 0.0003
          0.025 0 0 0.025 0 0.00015
          0.025 0 0.0003 0.026666666666664 0.0014444444444417 0
          0.026666666666663 0 0 0.026666666666664 0.0014444444444417 0.00015
          0.026666666666663 0 0.00015 0.026666666666664 0.0014444444444417 0.0003
          0.026666666666663 0 0.0003 0.028333333333331 0.0014444444444417 0
          0.02833333333333 0 0 0.028333333333331 0.0014444444444417 0.00015
          0.02833333333333 0 0.00015 0.028333333333331 0.0014444444444417 0.0003
          0.02833333333333 0 0.0003 0.03 0.0014444444444417 0
          0.03 0 0 0.03 0.0014444444444417 0.00015
          0.03 0 0.00015 0.03 0.0014444444444417 0.0003
          0.03 0 0.0003 0.026666666666665 0.0028888888888822 0
          0.026666666666665 0.0028888888888822 0.00015 0.026666666666665 0.0028888888888822 0.0003
          0.028333333333331 0.0028888888888822 0 0.028333333333331 0.0028888888888822 0.00015
          0.028333333333331 0.0028888888888822 0.0003 0.03 0.0028888888888822 0
          0.03 0.0028888888888822 0.00015 0.03 0.0028888888888822 0.0003
          0.026666666666666 0.0043333333333224 0 0.026666666666666 0.0043333333333224 0.00015
          0.026666666666666 0.0043333333333224 0.0003 0.028333333333332 0.0043333333333224 0
          0.028333333333332 0.0043333333333224 0.00015 0.028333333333332 0.0043333333333224 0.0003
          0.03 0.0043333333333224 0 0.03 0.0043333333333224 0.00015
          0.03 0.0043333333333224 0.0003 0.026666666666666 0.0057777777777625 0
          0.026666666666666 0.0057777777777625 0.00015 0.026666666666666 0.0057777777777625 0.0003
          0.028333333333333 0.0057777777777625 0 0.028333333333333 0.0057777777777625 0.00015
          0.028333333333333 0.0057777777777625 0.0003 0.03 0.0057777777777625 0
          0.03 0.0057777777777625 0.00015 0.03 0.0057777777777625 0.0003
          0.028333333333334 0.0072222222222063 0 0.028333333333334 0.0072222222222063 0.00015
          0.028333333333334 0.0072222222222063 0.0003 0.03 0.0072222222222063 0
          0.03 0.0072222222222063 0.00015 0.03 0.0072222222222063 0.0003
          0.028333333333334 0.0086666666666559 0 0.028333333333334 0.0086666666666559 0.00015
          0.028333333333334 0.0086666666666559 0.0003 0.03 0.0086666666666559 0
          0.03 0.0086666666666559 0.00015 0.03 0.0086666666666559 0.0003
          0.028333333333335 0.010111111111103 0 0.028333333333335 0.010111111111103 0.00015
          0.028333333333335 0.010111111111103 0.0003 0.03 0.010111111111103 0
          0.03 0.010111111111103 0.00015 0.03 0.010111111111103 0.0003
          0.028333333333336 0.011555555555552 0 0.028333333333336 0.011555555555552 0.00015
          0.028333333333336 0.011555555555552 0.0003 0.03 0.011555555555552 0
          0.03 0.011555555555552 0.00015 0.03 0.011555555555552 0.0003
          0.028333333333337 0.013 0 0.028333333333337 0.013 0.00015
          0.028333333333337 0.013 0.0003 0.03 0.013 0
          0.03 0.013 0.00015 0.03 0.013 0.0003
          0.031601181467612 0.0014508094753802 0 0.03158989866902 0 0
          0.031601181467612 0.0014508094753802 0.00015 0.03158989866902 0 0.00015
          0.031601181467612 0.0014508094753802 0.0003 0.03158989866902 0 0.0003
          0.031612464266204 0.0029016189507591 0 0.031612464266204 0.0029016189507591 0.00015
          0.031612464266204 0.0029016189507591 0.0003 0.031623747064796 0.0043524284261377 0
          0.031623747064796 0.0043524284261377 0.00015 0.031623747064796 0.0043524284261377 0.0003
          0.031635029863388 0.0058032379015163 0 0.031635029863388 0.0058032379015163 0.00015
          0.031635029863388 0.0058032379015163 0.0003 0.031646312661979 0.0072540473768985 0
          0.031646312661979 0.0072540473768985 0.00015 0.031646312661979 0.0072540473768985 0.0003
          0.021356284292895 0.0061182113295331 0 0.020489019208248 0.0065103794253073 0
          0.021356284292895 0.0061182113295331 0.00015 0.020489019208248 0.0065103794253073 0.00015
          0.021356284292895 0.0061182113295331 0.0003 0.020489019208248 0.0065103794253073 0.0003
          0.025 0.0072222222222063 0 0.023816654948859 0.0069324696013164 0
          0.023829479378086 0.0056593315311521 0 0.025 0.0072222222222063 0.00015
          0.023816654948859 0.0069324696013164 0.00015 0.023829479378086 0.0056593315311521 0.00015
          0.025 0.0072222222222063 0.0003 0.023816654948859 0.0069324696013164 0.0003
          0.023829479378086 0.0056593315311521 0.0003 0.018734278863615 0.0068564365277259 0
          0.018734278863615 0.0068564365277259 0.00015 0.018734278863615 0.0068564365277259 0.0003
          0.019611341590458 0.0069319215290848 0 0.019611341590458 0.0069319215290848 0.00015
          0.019611341590458 0.0069319215290848 0.0003 0.022477642087048 0.0055533155338694 0
          0.022477642087048 0.0055533155338694 0.00015 0.022477642087048 0.0055533155338694 0.0003
          0.026666666666667 0.0072222222222063 0 0.026666666666667 0.0072222222222063 0.00015
          0.026666666666667 0.0072222222222063 0.0003 0.026666666666668 0.0086666666666559 0
          0.026666666666668 0.0086666666666559 0.00015 0.026666666666668 0.0086666666666559 0.0003
          0.026666666666669 0.010111111111103 0 0.026666666666669 0.010111111111103 0.00015
          0.026666666666669 0.010111111111103 0.0003 0.026666666666669 0.011555555555552 0
          0.026666666666669 0.011555555555552 0.00015 0.026666666666669 0.011555555555552 0.0003
          0.02666666666667 0.013 0 0.02666666666667 0.013 0.00015
          0.02666666666667 0.013 0.0003 0.033201501647561 0.0014698753983525 0
          0.033179797338052 0 0 0.033201501647561 0.0014698753983525 0.00015
          0.033179797338052 0 0.00015 0.033201501647561 0.0014698753983525 0.0003
          0.033179797338052 0 0.0003 0.033223205957069 0.0029397507967035 0
          0.033223205957069 0.0029397507967035 0.00015 0.033223205957069 0.0029397507967035 0.0003
          0.033244910266578 0.0044096261950543 0 0.033244910266578 0.0044096261950543 0.00015
          0.033244910266578 0.0044096261950543 0.0003 0.033266614576087 0.0058795015934051 0
          0.033266614576087 0.0058795015934051 0.00015 0.033266614576087 0.0058795015934051 0.0003
          0.033288318885596 0.0073493769917596 0 0.033288318885596 0.0073493769917596 0.00015
          0.033288318885596 0.0073493769917596 0.0003 0.031657595460571 0.0087048568522863 0
          0.031657595460571 0.0087048568522863 0.00015 0.031657595460571 0.0087048568522863 0.0003
          0.033310023195106 0.0088192523901195 0 0.033310023195106 0.0088192523901195 0.00015
          0.033310023195106 0.0088192523901195 0.0003 0.031668878259163 0.010155666327672 0
          0.031668878259163 0.010155666327672 0.00015 0.031668878259163 0.010155666327672 0.0003
          0.031680161057755 0.011606475803059 0 0.031680161057755 0.011606475803059 0.00015
          0.031680161057755 0.011606475803059 0.0003 0.031691443856347 0.013057285278446 0
          0.031691443856347 0.013057285278446 0.00015 0.031691443856347 0.013057285278446 0.0003
          <InformationKey name="L2_NORM_RANGE" location="vtkDataArray" length="2">
            <Value index="0">
              0.011720201603
            </Value>
            <Value index="1">
              0.034459060608
            </Value>
          </InformationKey>
        </DataArray>
      </Points>
      <Cells>
        <DataArray type="Int64" Name="connectivity" format="ascii" RangeMin="0" RangeMax="797">
          0 1 2 3 4 5
          6 7 4 5 6 7
          8 9 10 11 12 13
          14 15 16 17 18 19
          16 17 18 19 20 21
          22 23 24 25 26 27
          28 29 30 31 28 29
          30 31 32 33 34 35
          36 37 38 39 40 41
          42 43 40 41 42 43
          44 45 46 47 48 49
          50 51 52 53 54 55
          52 53 54 55 56 57
          58 59 60 61 62 63
          64 65 66 67 64 65
          66 67 68 69 70 71
          72 73 74 12 75 76
          77 16 75 76 77 16
          78 79 80 20 61 81
          82 62 65 83 84 66
          65 83 84 66 69 85
          86 70 87 88 89 90
          91 92 93 94 91 92
          93 94 95 96 97 98
          37 99 100 38 41 101
          102 42 41 101 102 42
          45 103 104 46 81 105
          106 82 83 107 108 84
          83 107 108 84 85 109
          110 86 26 111 112 113
          30 114 115 116 30 114
          115 116 34 117 118 119
          63 120 121 60 67 122
          123 64 67 122 123 64
          71 124 125 68 126 127
          128 129 130 131 132 133
          130 131 132 133 134 135
          136 137 138 72 139 140
          141 75 142 143 141 75
          142 143 144 78 145 146
          150 127 151 152 153 131
          154 155 153 131 154 155
          156 135 157 158 159 160
          161 138 162 163 164 141
          162 163 164 141 165 166
          167 144 120 168 169 170
          122 171 172 173 122 171
          172 173 124 174 175 176
          15 139 72 12 19 142
          75 16 19 142 75 16
          23 145 78 20 177 0
          3 178 179 4 7 180
          179 4 7 180 181 8
          11 182 183 184 726 727
          185 186 728 729 185 186
          728 729 187 188 730 731
          192 193 90 89 194 195
          94 93 194 195 94 93
          196 197 98 97 198 106
          105 199 200 108 107 201
          200 108 107 201 202 110
          109 203 204 13 12 74
          205 17 16 77 205 17
          16 77 206 21 20 80
          207 208 209 210 211 212
          213 214 211 212 213 214
          215 216 217 218 732 733
          734 219 735 736 737 220
          735 736 737 220 738 739
          740 221 222 219 734 223
          224 220 737 225 224 220
          737 225 226 221 740 227
          228 229 170 169 230 231
          173 172 230 231 173 172
          232 233 176 175 234 140
          50 49 235 143 54 53
          235 143 54 53 236 146
          58 57 129 237 238 126
          133 239 240 130 133 239
          240 130 137 241 242 134
          243 244 245 246 247 248
          249 250 247 248 249 250
          251 252 253 254 255 256
          159 234 257 258 162 235
          257 258 162 235 259 260
          165 236 261 262 263 264
          265 266 267 268 265 266
          267 268 269 270 271 272
          273 147 38 100 274 148
          42 102 274 148 42 102
          275 149 46 104 121 276
          277 60 123 278 279 64
          123 278 279 64 125 280
          281 68 282 246 741 283
          284 250 742 285 284 250
          742 285 286 254 743 287
          291 292 82 106 293 294
          84 108 293 294 84 108
          295 296 86 110 99 297
          62 298 101 299 66 300
          101 299 66 300 103 301
          70 302 303 304 147 273
          305 306 148 274 305 306
          148 274 307 308 149 275
          105 204 74 199 107 205
          77 201 107 205 77 201
          109 206 80 203 288 309
          151 282 289 310 154 284
          289 310 154 284 290 311
          157 286 312 313 13 204
          314 315 17 205 314 315
          17 205 316 317 21 206
          99 298 292 100 101 300
          294 102 101 300 294 102
          103 302 296 104 292 298
          62 82 294 300 66 84
          294 300 66 84 296 302
          70 86 151 127 126 243
          154 131 130 247 154 131
          130 247 157 135 134 251
          246 282 151 243 250 284
          154 247 250 284 154 247
          254 286 157 251 100 292
          291 273 102 294 293 274
          102 294 293 274 104 296
          295 275 324 325 297 326
          327 328 299 329 327 328
          299 329 330 331 301 332
          325 63 62 297 328 67
          66 299 328 67 66 299
          331 71 70 301 333 168
          325 324 334 171 328 327
          334 171 328 327 335 174
          331 330 168 120 63 325
          171 122 67 328 171 122
          67 328 174 124 71 331
          312 336 209 337 314 338
          213 339 314 338 213 339
          316 340 217 341 88 256
          255 89 92 258 257 93
          92 258 257 93 96 260
          259 97 342 198 199 343
          344 200 201 345 344 200
          201 345 346 202 203 347
          90 264 348 349 94 268
          350 351 94 268 350 351
          98 272 352 353 354 355
          276 121 356 357 278 123
          356 357 278 123 358 359
          280 125 360 361 333 362
          363 364 334 365 363 364
          334 365 366 367 335 368
          336 277 210 209 338 279
          214 213 338 279 214 213
          340 281 218 217 73 72
          138 161 76 75 141 164
          76 75 141 164 79 78
          144 167 372 14 13 313
          373 18 17 315 373 18
          17 315 374 22 21 317
          168 333 361 169 171 334
          364 172 171 334 364 172
          174 335 367 175 378 361
          360 369 379 364 363 370
          379 364 363 370 380 367
          366 371 381 291 106 198
          382 293 108 200 382 293
          108 200 383 295 110 202
          354 177 178 384 356 179
          180 385 356 179 180 385
          358 181 182 386 37 326
          297 99 41 329 299 101
          41 329 299 101 45 332
          301 103 324 390 362 333
          327 391 365 334 327 391
          365 334 330 392 368 335
          394 393 399 400 396 395
          401 402 396 395 401 402
          398 397 403 404 2 387
          189 405 6 388 190 406
          6 388 190 406 10 389
          191 407 400 399 408 409
          402 401 410 411 402 401
          410 411 404 403 412 413
          414 24 27 415 416 28
          31 417 416 28 31 417
          418 32 35 419 420 87
          90 349 421 91 94 351
          421 91 94 351 422 95
          98 353 199 74 73 343
          201 77 76 345 201 77
          76 345 203 80 79 347
          336 61 60 277 338 65
          64 279 338 65 64 279
          340 69 68 281 426 193
          192 427 428 195 194 429
          428 195 194 429 430 197
          196 431 207 432 433 208
          211 434 435 212 211 434
          435 212 215 436 437 216
          326 438 390 324 329 439
          391 327 329 439 391 327
          332 440 392 330 441 375
          362 390 442 376 365 391
          442 376 365 391 443 377
          368 392 381 303 273 291
          382 305 274 293 382 305
          274 293 383 307 275 295
          348 111 26 25 350 114
          30 29 350 114 30 29
          352 117 34 33 319 444
          309 318 321 445 310 320
          321 445 310 320 323 446
          311 322 432 207 447 448
          434 211 449 450 434 211
          449 450 436 215 451 452
          238 244 243 126 240 248
          247 130 240 248 247 130
          242 252 251 134 140 234
          159 138 143 235 162 141
          143 235 162 141 146 236
          165 144 161 453 343 73
          164 454 345 76 164 454
          345 76 167 455 347 79
          456 457 458 459 460 461
          462 463 460 461 462 463
          464 465 466 467 61 336
          312 81 65 338 314 83
          65 338 314 83 69 340
          316 85 81 312 204 105
          83 314 205 107 83 314
          205 107 85 316 206 109
          468 469 372 337 470 471
          373 339 470 471 373 339
          472 473 374 341 468 337
          209 208 470 339 213 212
          470 339 213 212 472 341
          217 216 474 255 234 49
          475 257 235 53 475 257
          235 53 476 259 236 57
          372 313 312 337 373 315
          314 339 373 315 314 339
          374 317 316 341 152 151
          309 444 155 154 310 445
          155 154 310 445 158 157
          311 446 477 478 139 15
          479 480 142 19 479 480
          142 19 481 482 145 23
          483 484 129 128 485 486
          133 132 485 486 133 132
          487 488 137 136 489 319
          304 303 490 321 306 305
          490 321 306 305 491 323
          308 307 744 741 246 245
          745 742 250 249 745 742
          250 249 746 743 254 253
          492 381 198 342 493 382
          200 344 493 382 200 344
          494 383 202 346 88 495
          159 256 92 496 162 258
          92 496 162 258 96 497
          165 260 498 499 448 447
          500 501 450 449 500 501
          450 449 502 503 452 451
          223 414 415 222 225 416
          417 224 225 416 417 224
          227 418 419 226 354 121
          120 170 356 123 122 173
          356 123 122 173 358 125
          124 176 394 3 2 405
          396 7 6 406 396 7
          6 406 398 11 10 407
          453 161 160 483 454 164
          163 485 454 164 163 485
          455 167 166 487 495 504
          160 159 496 505 163 162
          496 505 163 162 497 506
          166 165 492 489 303 381
          493 490 305 382 493 490
          305 382 494 491 307 383
          264 90 193 261 268 94
          195 265 268 94 195 265
          272 98 197 269 507 508
          184 509 510 511 186 512
          510 511 186 512 513 514
          188 515 237 129 484 516
          239 133 486 517 239 133
          486 517 241 137 488 518
          469 519 520 521 471 522
          523 524 471 522 523 524
          473 525 526 527 457 456
          528 51 461 460 529 55
          461 460 529 55 465 464
          530 59 531 342 343 453
          532 344 345 454 532 344
          345 454 533 346 347 455
          238 183 245 244 240 185
          249 248 240 185 249 248
          242 187 253 252 1 378
          369 423 5 379 370 424
          5 379 370 424 9 380
          371 425 504 484 483 160
          505 486 485 163 505 486
          485 163 506 488 487 166
          453 483 128 531 454 485
          132 532 454 485 132 532
          455 487 136 533 747 726
          184 508 748 728 186 511
          748 728 186 511 749 730
          188 514 478 457 51 50
          480 461 55 54 480 461
          55 54 482 465 59 58
          400 409 384 178 402 411
          385 180 402 411 385 180
          404 413 386 182 420 349
          348 534 421 351 350 535
          421 351 350 535 422 353
          352 536 468 537 519 469
          470 538 522 471 470 538
          522 471 472 539 525 473
          509 184 183 238 512 186
          185 240 512 186 185 240
          515 188 187 242 170 229
          177 354 173 231 179 356
          173 231 179 356 176 233
          181 358 499 498 409 408
          501 500 411 410 501 500
          411 410 503 502 413 412
          540 541 459 458 542 543
          463 462 542 543 463 462
          544 545 467 466 87 546
          495 88 91 547 496 92
          91 547 496 92 95 548
          497 96 228 169 361 378
          230 172 364 379 230 172
          364 379 232 175 367 380
          549 550 276 355 551 552
          278 357 551 552 278 357
          553 554 280 359 478 50
          140 139 480 54 143 142
          480 54 143 142 482 58
          146 145 540 555 556 521
          542 557 558 524 542 557
          558 524 544 559 560 527
          36 441 390 438 40 442
          391 439 40 442 391 439
          44 443 392 440 561 562
          237 516 563 564 239 517
          563 564 239 517 565 566
          241 518 152 444 319 489
          155 445 321 490 155 445
          321 490 158 446 323 491
          567 568 87 420 569 570
          91 421 569 570 91 421
          571 572 95 422 150 492
          342 531 153 493 344 532
          153 493 344 532 156 494
          346 533 477 15 14 555
          479 19 18 557 479 19
          18 557 481 23 22 559
          531 128 127 150 532 132
          131 153 532 132 131 153
          533 136 135 156 24 534
          348 25 28 535 350 29
          28 535 350 29 32 536
          352 33 504 495 546 561
          505 496 547 563 505 496
          547 563 506 497 548 565
          474 192 89 255 475 194
          93 257 475 194 93 257
          476 196 97 259 573 574
          575 427 576 577 578 429
          576 577 578 429 579 580
          581 431 546 582 562 561
          547 583 564 563 547 583
          564 563 548 584 566 565
          561 516 484 504 563 517
          486 505 563 517 486 505
          565 518 488 506 555 540
          458 477 557 542 462 479
          557 542 462 479 559 544
          466 481 550 210 277 276
          552 214 279 278 552 214
          279 278 554 218 281 280
          744 245 183 727 745 249
          185 729 745 249 185 729
          746 253 187 731 210 550
          447 207 214 552 449 211
          214 552 449 211 218 554
          451 215 427 575 585 426
          429 578 586 428 429 578
          586 428 431 581 587 430
          150 152 489 492 153 155
          490 493 153 155 490 493
          156 158 491 494 48 588
          574 573 52 589 577 576
          52 589 577 576 56 590
          580 579 573 474 49 48
          576 475 53 52 576 475
          53 52 579 476 57 56
          562 509 238 237 564 512
          240 239 564 512 240 239
          566 515 242 241 372 556
          555 14 373 558 557 18
          373 558 557 18 374 560
          559 22 534 591 567 420
          535 592 569 421 535 592
          569 421 536 593 571 422
          521 556 372 469 524 558
          373 471 524 558 373 471
          527 560 374 473 178 3
          394 400 180 7 396 402
          180 7 396 402 182 11
          398 404 263 594 595 596
          267 597 598 599 267 597
          598 599 271 600 601 602
          549 355 354 384 551 357
          356 385 551 357 356 385
          553 359 358 386 0 228
          378 1 4 230 379 5
          4 230 379 5 8 232
          380 9 426 585 603 262
          428 586 604 266 428 586
          604 266 430 587 605 270
          582 546 87 568 583 547
          91 570 583 547 91 570
          584 548 95 572 474 573
          427 192 475 576 429 194
          475 576 429 194 476 579
          431 196 262 603 594 263
          266 604 597 267 266 604
          597 267 270 605 600 271
          537 468 208 433 538 470
          212 435 538 470 212 435
          539 472 216 437 36 438
          326 37 40 439 329 41
          40 439 329 41 44 440
          332 45 541 540 521 520
          543 542 524 523 543 542
          524 523 545 544 527 526
          1 423 387 2 5 424
          388 6 5 424 388 6
          9 425 389 10 498 447
          550 549 500 449 552 551
          500 449 552 551 502 451
          554 553 228 0 177 229
          230 4 179 231 230 4
          179 231 232 8 181 233
          507 582 568 606 510 583
          570 607 510 583 570 607
          513 584 572 608 588 48
          51 528 589 52 55 529
          589 52 55 529 590 56
          59 530 609 567 591 610
          611 569 592 612 611 569
          592 612 613 571 593 614
          596 595 615 112 599 598
          616 115 599 598 616 115
          602 601 617 118 414 591
          534 24 416 592 535 28
          416 592 535 28 418 593
          536 32 262 261 193 426
          266 265 195 428 266 265
          195 428 270 269 197 430
          223 610 591 414 225 612
          592 416 225 612 592 416
          227 614 593 418 477 458
          457 478 479 462 461 480
          479 462 461 480 481 466
          465 482 610 747 508 609
          612 748 511 611 612 748
          511 611 614 749 514 613
          549 384 409 498 551 385
          411 500 551 385 411 500
          553 386 413 502 223 734
          747 610 225 737 748 612
          225 737 748 612 227 740
          749 614 596 618 264 263
          599 619 268 267 599 619
          268 267 602 620 272 271
          507 606 609 508 510 607
          611 511 510 607 611 511
          513 608 613 514 582 507
          509 562 583 510 512 564
          583 510 512 564 584 513
          515 566 113 621 27 26
          116 622 31 30 116 622
          31 30 119 623 35 34
          112 615 624 113 115 616
          625 116 115 616 625 116
          118 617 626 119 609 606
          568 567 611 607 570 569
          611 607 570 569 613 608
          572 571 112 111 618 596
          115 114 619 599 115 114
          619 599 118 117 620 602
          113 624 627 621 116 625
          628 622 116 625 628 622
          119 626 629 623 111 348
          264 618 114 350 268 619
          114 350 268 619 117 352
          272 620 27 621 627 630
          31 622 628 631 31 622
          628 631 35 623 629 632
          633 27 630 634 635 31
          631 636 635 31 631 636
          637 35 632 638 639 633
          634 640 641 635 636 642
          641 635 636 642 643 637
          638 644 645 639 640 646
          647 641 642 648 647 641
          642 648 649 643 644 650
          651 415 27 633 652 417
          31 635 652 417 31 635
          653 419 35 637 654 651
          633 639 655 652 635 641
          655 652 635 641 656 653
          637 643 657 654 639 645
          658 655 641 647 658 655
          641 647 659 656 643 649
          660 222 415 651 661 224
          417 652 661 224 417 652
          662 226 419 653 663 660
          651 654 664 661 652 655
          664 661 652 655 665 662
          653 656 666 663 654 657
          667 664 655 658 667 664
          655 658 668 665 656 659
          669 219 222 660 670 220
          224 661 670 220 224 661
          671 221 226 662 672 669
          660 663 673 670 661 664
          673 670 661 664 674 671
          662 665 675 672 663 666
          676 673 664 667 676 673
          664 667 677 674 665 668
          750 732 219 669 751 735
          220 670 751 735 220 670
          752 738 221 671 678 750
          669 672 679 751 670 673
          679 751 670 673 680 752
          671 674 681 678 672 675
          682 679 673 676 682 679
          673 676 683 680 674 677
          684 753 750 678 685 754
          751 679 685 754 751 679
          686 755 752 680 687 684
          678 681 688 685 679 682
          688 685 679 682 689 686
          680 683 690 756 753 684
          691 757 754 685 691 757
          754 685 692 758 755 686
          693 690 684 687 694 691
          685 688 694 691 685 688
          695 692 686 689 696 759
          756 690 697 760 757 691
          697 760 757 691 698 761
          758 692 699 696 690 693
          700 697 691 694 700 697
          691 694 701 698 692 695
          702 762 759 696 703 763
          760 697 703 763 760 697
          704 764 761 698 705 702
          696 699 706 703 697 700
          706 703 697 700 707 704
          698 701 708 645 646 709
          710 647 648 711 710 647
          648 711 712 649 650 713
          765 708 709 766 767 710
          711 768 767 710 711 768
          769 712 713 770 714 657
          645 708 715 658 647 710
          715 658 647 710 716 659
          649 712 771 714 708 765
          772 715 710 767 772 715
          710 767 773 716 712 769
          717 666 657 714 718 667
          658 715 718 667 658 715
          719 668 659 716 774 717
          714 771 775 718 715 772
          775 718 715 772 776 719
          716 773 720 675 666 717
          721 676 667 718 721 676
          667 718 722 677 668 719
          777 720 717 774 778 721
          718 775 778 721 718 775
          779 722 719 776 723 681
          675 720 724 682 676 721
          724 682 676 721 725 683
          677 722 780 723 720 777
          781 724 721 778 781 724
          721 778 782 725 722 779
          783 687 681 723 784 688
          682 724 784 688 682 724
          785 689 683 725 786 783
          723 780 787 784 724 781
          787 784 724 781 788 785
          725 782 789 693 687 783
          790 694 688 784 790 694
          688 784 791 695 689 785
          792 699 693 789 793 700
          694 790 793 700 694 790
          794 701 695 791 795 705
          699 792 796 706 700 793
          796 706 700 793 797 707
          701 794
        </DataArray>
        <DataArray type="Int64" Name="offsets" format="ascii" RangeMin="8" RangeMax="3632">
          8 16 24 32 40 48
          56 64 72 80 88 96
          104 112 120 128 136 144
          152 160 168 176 184 192
          200 208 216 224 232 240
          248 256 264 272 280 288
          296 304 312 320 328 336
          344 352 360 368 376 384
          392 400 408 416 424 432
          440 448 456 464 472 480
          488 496 504 512 520 528
          536 544 552 560 568 576
          584 592 600 608 616 624
          632 640 648 656 664 672
          680 688 696 704 712 720
          728 736 744 752 760 768
          776 784 792 800 808 816
          824 832 840 848 856 864
          872 880 888 896 904 912
          920 928 936 944 952 960
          968 976 984 992 1000 1008
          1016 1024 1032 1040 1048 1056
          1064 1072 1080 1088 1096 1104
          1112 1120 1128 1136 1144 1152
          1160 1168 1176 1184 1192 1200
          1208 1216 1224 1232 1240 1248
          1256 1264 1272 1280 1288 1296
          1304 1312 1320 1328 1336 1344
          1352 1360 1368 1376 1384 1392
          1400 1408 1416 1424 1432 1440
          1448 1456 1464 1472 1480 1488
          1496 1504 1512 1520 1528 1536
          1544 1552 1560 1568 1576 1584
          1592 1600 1608 1616 1624 1632
          1640 1648 1656 1664 1672 1680
          1688 1696 1704 1712 1720 1728
          1736 1744 1752 1760 1768 1776
          1784 1792 1800 1808 1816 1824
          1832 1840 1848 1856 1864 1872
          1880 1888 1896 1904 1912 1920
          1928 1936 1944 1952 1960 1968
          1976 1984 1992 2000 2008 2016
          2024 2032 2040 2048 2056 2064
          2072 2080 2088 2096 2104 2112
          2120 2128 2136 2144 2152 2160
          2168 2176 2184 2192 2200 2208
          2216 2224 2232 2240 2248 2256
          2264 2272 2280 2288 2296 2304
          2312 2320 2328 2336 2344 2352
          2360 2368 2376 2384 2392 2400
          2408 2416 2424 2432 2440 2448
          2456 2464 2472 2480 2488 2496
          2504 2512 2520 2528 2536 2544
          2552 2560 2568 2576 2584 2592
          2600 2608 2616 2624 2632 2640
          2648 2656 2664 2672 2680 2688
          2696 2704 2712 2720 2728 2736
          2744 2752 2760 2768 2776 2784
          2792 2800 2808 2816 2824 2832
          2840 2848 2856 2864 2872 2880
          2888 2896 2904 2912 2920 2928
          2936 2944 2952 2960 2968 2976
          2984 2992 3000 3008 3016 3024
          3032 3040 3048 3056 3064 3072
          3080 3088 3096 3104 3112 3120
          3128 3136 3144 3152 3160 3168
          3176 3184 3192 3200 3208 3216
          3224 3232 3240 3248 3256 3264
          3272 3280 3288 3296 3304 3312
          3320 3328 3336 3344 3352 3360
          3368 3376 3384 3392 3400 3408
          3416 3424 3432 3440 3448 3456
          3464 3472 3480 3488 3496 3504
          3512 3520 3528 3536 3544 3552
          3560 3568 3576 3584 3592 3600
          3608 3616 3624 3632
        </DataArray>
        <DataArray type="UInt8" Name="types" format="ascii" RangeMin="12" RangeMax="12">
          12 12 12 12 12 12
          12 12 12 12 12 12
          12 12 12 12 12 12
          12 12 12 12 12 12
          12 12 12 12 12 12
          12 12 12 12 12 12
          12 12 12 12 12 12
          12 12 12 12 12 12
          12 12 12 12 12 12
          12 12 12 12 12 12
          12 12 12 12 12 12
          12 12 12 12 12 12
          12 12 12 12 12 12
          12 12 12 12 12 12
          12 12 12 12 12 12
          12 12 12 12 12 12
          12 12 12 12 12 12
          12 12 12 12 12 12
          12 12 12 12 12 12
          12 12 12 12 12 12
          12 12 12 12 12 12
          12 12 12 12 12 12
          12 12 12 12 12 12
          12 12 12 12 12 12
          12 12 12 12 12 12
          12 12 12 12 12 12
          12 12 12 12 12 12
          12 12 12 12 12 12
          12 12 12 12 12 12
          12 12 12 12 12 12
          12 12 12 12 12 12
          12 12 12 12 12 12
          12 12 12 12 12 12
          12 12 12 12 12 12
          12 12 12 12 12 12
          12 12 12 12 12 12
          12 12 12 12 12 12
          12 12 12 12 12 12
          12 12 12 12 12 12
          12 12 12 12 12 12
          12 12 12 12 12 12
          12 12 12 12 12 12
          12 12 12 12 12 12
          12 12 12 12 12 12
          12 12 12 12 12 12
          12 12 12 12 12 12
          12 12 12 12 12 12
          12 12 12 12 12 12
          12 12 12 12 12 12
          12 12 12 12 12 12
          12 12 12 12 12 12
          12 12 12 12 12 12
          12 12 12 12 12 12
          12 12 12 12 12 12
          12 12 12 12 12 12
          12 12 12 12 12 12
          12 12 12 12 12 12
          12 12 12 12 12 12
          12 12 12 12 12 12
          12 12 12 12 12 12
          12 12 12 12 12 12
          12 12 12 12 12 12
          12 12 12 12 12 12
          12 12 12 12 12 12
          12 12 12 12 12 12
          12 12 12 12 12 12
          12 12 12 12 12 12
          12 12 12 12 12 12
          12 12 12 12 12 12
          12 12 12 12 12 12
          12 12 12 12 12 12
          12 12 12 12 12 12
          12 12 12 12 12 12
          12 12 12 12 12 12
          12 12 12 12 12 12
          12 12 12 12
        </DataArray>
      </Cells>
    </Piece>
  </UnstructuredGrid>
</VTKFile>
