<?xml version="1.0"?>
<VTKFile type="UnstructuredGrid" version="0.1" byte_order="LittleEndian" header_type="UInt32" compressor="vtkZLibDataCompressor">
  <UnstructuredGrid>
    <Piece NumberOfPoints="774" NumberOfCells="452">
      <PointData>
        <DataArray type="Int32" Name="libmesh_node_id" format="ascii" RangeMin="2286" RangeMax="4991">
          2286 2287 2288 2289 2290 2291
          2292 2293 2294 2295 2296 2297
          2340 2341 2342 2343 2344 2345
          2346 2347 2348 2349 2350 2351
          2400 2401 2403 2404 2406 2407
          2412 2413 2414 2415 2416 2417
          2418 2419 2420 2421 2422 2423
          2487 2488 2489 2490 2491 2492
          2523 2524 2525 2526 2527 2528
          2529 2530 2531 2532 2533 2534
          2550 2551 2552 2553 2554 2555
          2556 2557 2558 2559 2560 2561
          2580 2581 2582 2583 2584 2585
          2685 2686 2687 2688 2689 2690
          2691 2692 2693 2694 2695 2696
          2698 2699 2700 2702 2703 2704
          2706 2707 2708 2796 2797 2798
          2799 2800 2801 2802 2803 2804
          2805 2806 2807 2838 2839 2840
          2841 2842 2843 2844 2845 2846
          2847 2848 2849 2881 2883 2885
          2949 2950 2951 2952 2953 2954
          2955 2956 2957 3054 3055 3056
          3057 3058 3059 3093 3094 3095
          3096 3097 3098 3099 3100 3101
          3102 3103 3104 3117 3118 3119
          3120 3121 3122 3123 3124 3125
          3126 3127 3128 3195 3196 3197
          3198 3199 3200 3201 3202 3203
          3210 3211 3212 3213 3214 3215
          3216 3217 3218 3219 3220 3221
          3222 3223 3224 3225 3226 3227
          3252 3253 3254 3255 3256 3257
          3300 3301 3302 3303 3304 3305
          3306 3307 3308 3309 3310 3311
          3318 3319 3320 3321 3322 3323
          3324 3325 3326 3327 3328 3329
          3330 3331 3332 3333 3334 3335
          3366 3367 3368 3378 3379 3380
          3381 3382 3383 3384 3385 3386
          3387 3388 3389 3390 3391 3392
          3453 3454 3455 3456 3457 3458
          3459 3460 3461 3483 3484 3485
          3492 3493 3494 3525 3526 3528
          3529 3531 3532 3543 3544 3545
          3564 3565 3566 3567 3568 3569
          3570 3571 3572 3588 3589 3590
          3591 3592 3593 3609 3610 3611
          3612 3613 3614 3615 3616 3617
          3618 3619 3620 3630 3631 3632
          3633 3634 3635 3636 3637 3638
          3639 3640 3641 3654 3655 3656
          3657 3658 3659 3660 3661 3662
          3684 3685 3686 3687 3689 3691
          3693 3694 3695 3696 3697 3698
          3708 3709 3710 3711 3712 3713
          3735 3736 3737 3738 3739 3740
          3741 3742 3743 3744 3745 3746
          3747 3748 3749 3762 3763 3764
          3771 3772 3773 3774 3775 3776
          3777 3778 3779 3786 3787 3788
          3795 3796 3797 3798 3799 3800
          3801 3802 3803 3804 3805 3806
          3807 3808 3809 3816 3817 3818
          3834 3835 3836 3837 3838 3839
          3846 3847 3848 3849 3850 3851
          3861 3862 3863 3882 3884 3885
          3887 3888 3890 3900 3901 3902
          3903 3904 3905 3906 3907 3908
          3924 3925 3926 3927 3928 3929
          3930 3931 3932 3939 3940 3941
          3942 3943 3944 3954 3955 3956
          3958 3959 3960 3962 3963 3964
          3969 3970 3971 3972 3973 3974
          3993 3994 3995 4032 4033 4034
          4035 4036 4037 4053 4054 4055
          4056 4057 4058 4059 4060 4061
          4062 4063 4064 4089 4090 4091
          4104 4105 4106 4107 4108 4109
          4116 4117 4118 4128 4129 4130
          4167 4168 4169 4170 4171 4172
          4185 4186 4187 4208 4209 4212
          4213 4216 4217 4233 4234 4235
          4236 4237 4238 4254 4255 4256
          4257 4258 4259 4269 4270 4271
          4272 4273 4274 4284 4285 4286
          4287 4288 4289 4290 4291 4292
          4293 4294 4295 4302 4303 4304
          4314 4315 4316 4317 4318 4319
          4320 4321 4322 4323 4324 4325
          4326 4327 4328 4338 4339 4340
          4344 4345 4346 4350 4351 4352
          4353 4354 4355 4365 4366 4367
          4368 4369 4370 4371 4372 4373
          4374 4375 4376 4377 4378 4379
          4380 4381 4382 4383 4384 4385
          4386 4387 4388 4389 4390 4391
          4398 4399 4400 4416 4417 4418
          4422 4423 4424 4425 4426 4427
          4428 4429 4430 4434 4435 4436
          4437 4438 4439 4440 4441 4442
          4443 4444 4445 4458 4459 4460
          4482 4483 4484 4485 4486 4487
          4488 4489 4490 4491 4492 4493
          4494 4495 4496 4497 4498 4499
          4500 4501 4502 4506 4507 4508
          4509 4510 4511 4518 4519 4520
          4521 4522 4523 4545 4546 4547
          4566 4567 4568 4569 4570 4571
          4572 4573 4574 4599 4600 4601
          4602 4603 4604 4605 4606 4607
          4611 4612 4613 4647 4648 4649
          4650 4651 4652 4653 4654 4655
          4656 4657 4658 4677 4678 4679
          4689 4690 4691 4692 4693 4694
          4695 4696 4697 4716 4717 4718
          4743 4744 4745 4746 4747 4748
          4749 4750 4751 4779 4780 4781
          4788 4789 4790 4800 4801 4802
          4803 4804 4805 4806 4807 4808
          4809 4810 4811 4830 4831 4832
          4872 4873 4874 4902 4903 4904
          4923 4924 4925 4968 4969 4970
          4986 4987 4988 4989 4990 4991
          2880 2882 2884 3883 3873 3886
          3876 3889 3879 3957 3961 3965
          3875 3878 3881 4119 4120 4121
          4206 4207 4210 4211 4214 4215
          4347 4348 4349 4251 4252 4253
        </DataArray>
        <DataArray type="Float64" Name="resid_x" format="ascii" RangeMin="-0.18156555799584595" RangeMax="0.20821794194895915">
          0.0002914741689306055 0.0011283639711052729 0.0003369122431502447 0.0012836327272394144 -0.0008087435718842073 0.001541226280924235
          -0.0036556688967630535 -0.0017008513470750941 -0.01203086778219653 -0.013515019992645705 -0.014490986373080439 -0.011510661995862037
          -0.002253369203131683 -0.005965913497302466 0.0013810424524316744 0.006461227475027087 -0.012010107534123016 0.004884765945337932
          -0.0010569696573599074 0.006376700187470163 -0.022410006940043026 -0.00381194328301504 -0.010678134540878625 -0.010838507865312152
          -0.015677084790375773 -0.004228114852806719 -0.022791374699547617 -0.003868760942934202 -0.02214997885293979 -0.01178454903951387
          -0.00015181219220483655 0.0036536460256932912 0.002595938382503604 0.002130833726438297 -0.0077315610413428715 0.0012933230107430305
          0.0009195712390486221 -0.013296383980198279 -0.007186809401326322 -0.0031526549241744917 -0.0035066936995962195 -0.013553810004801825
          -0.0030310998395450817 0.00010381580605312024 0.0007779520617701152 0.0061334434300510665 -0.0054250716893073925 -0.004009149628501518
          0.00015153996370198541 0.0006453933341503681 -0.002704899568021446 -0.0020422644728679273 0.0002710681800213166 0.00022079041248246334
          -0.006811113139809422 -0.0075254068166294985 0.0017399236603976576 0.0017774479483052552 0.00144565132774499 -0.004464606322729381
          0.001891203234973382 -0.00003392365688337229 0.0007379645006553304 0.00010792255738234502 0.00311463702404291 0.0012451329789064935
          0.0013388090651922369 -0.001210011290541324 -0.009090509832466065 -0.004495519953919835 -0.005582257650514677 -0.008634890209657797
          0.00007236845180091933 0.000019023044802501943 -0.0003657479281979903 -0.0005314498964796854 -0.00661801320963562 -0.009135859226992338
          0.000278143965284805 0.0007101556615012328 0.0007217024466532607 0.0005010111801659889 0.000900169859599842 0.0020735078192108958
          0.0034751266248802537 0.002838240905354006 -0.009694098443854493 -0.011147597286760735 -0.007044851626549331 -0.00646618330822335
          -0.006344462190094546 -0.010005960359739774 -0.0017153974489856338 -0.017097754591659964 -0.009759320740405641 0.0007603106437690244
          -0.020356008440245432 -0.020448829568340265 -0.01419594788987677 0.0020695666159245008 0.000730057410006868 0.0012656441620491066
          0.003457563356249249 0.0027164824313610225 0.0034722866248175777 0.0032984764236090314 0.001971924056637153 -0.006357830466000358
          -0.00004631074147143366 -0.002747868307735324 -0.0057754670285881105 0.0008282725970438776 0.0009160685344671293 0.0001575294657225612
          -0.0005647834333384338 0.0016613688257232084 0.0005896889935330663 -0.0008679905443456093 -0.003404565223217748 -0.004907005438448131
          -0.005959869033874021 -0.006295828403886539 -0.006619033254306572 -0.00866636313138347 -0.011706634271434702 -0.006383297545324851
          -0.002193728088517588 -0.0019143084044976888 -0.0017040229410567598 -0.0023038071263989934 -0.00398990224558915 -0.0017035990630915876
          -0.0018829967291900118 -0.002996094675326688 -0.001789357327400154 0.0003597308638356722 -0.00033524281597063776 0.0020920181463512932
          0.001516567027707083 -0.005691543754830164 -0.006050838372319234 -0.00913090793635174 -0.004300116181441993 -0.003969526427503034
          -0.0035911696252215464 -0.007241702554568796 0.0008863175538857959 0.0012975774513646066 -0.0032538844688767554 -0.009131393502131324
          -0.002185655048527302 0.0005835387337507214 -0.0016562513685034475 0.002119334668217121 0.0019399673540672069 0.0033759383634333062
          0.0035446412198396615 0.001288498699182128 0.0018978205547504068 0.007278446495032398 0.007377718195794358 -0.015506285935589226
          -0.011437813189281165 -0.009259603366135849 -0.016910603926508117 -0.0027758099708043993 -0.004053548690880149 -0.0017227913586150834
          -0.00622993530171545 -0.009224233941786508 -0.00037641256154508085 -0.0067465041810610415 -0.01331936474763129 -0.0038866252314226912
          0.0012063262255006535 0.001593886330751637 0.0021019674005273714 0.002039974779993514 -0.012565683990271026 -0.007997528710554924
          0.00003277971664417123 -0.0008219564188740591 -0.0013723694021541277 0.00040637156119061046 -0.00021161242396861013 -0.0011866500321309204
          -0.0010787253761157523 0.000054054363143762885 -0.006663459681230499 -0.008053836786754864 -0.007886303606486678 -0.005268397676113423
          -0.006097148795393359 -0.012375800962752592 -0.005279671193247459 -0.01340193380467003 -0.004889928175569658 -0.010532698710118638
          0.00051756325404817 -0.0006858283340314131 -0.0008252562235924188 -0.002353727454377008 -0.006906482549076998 -0.005170911105748743
          -0.003152442372263309 -0.0034945735684095425 -0.0007865896616747747 -0.0015912593969993338 -0.0024329788691002108 -0.003508697042108544
          0.00039620518438487906 -0.0011424296369053621 0.00010183235879424046 0.0014976853746115903 -0.00047177017564847823 -0.0035035875455249332
          -0.0010560282131519827 -0.0000831096928672892 -0.00640457683466078 -0.005115924756465162 -0.004385922852169877 -0.0061391630221967475
          -0.003015024524339327 -0.0015459595197881981 -0.0029153493788827145 -0.0019202643998594837 -0.0029739469806739915 -0.0025192431320197883
          0.0018584055511574604 0.0029347706532831808 -0.006431265857056445 -0.002333931115120258 -0.002838525353339172 -0.0025243176953382296
          -0.0030616885901970647 -0.005553743485995799 -0.007844048285719829 -0.0018675963395233808 -0.0016126931621585072 -0.0010162013228365296
          -0.0017393802536336267 -0.0018944620290222147 -0.0035057187202784945 -0.005935769119957968 -0.002794320194412947 -0.0035248102715987883
          -0.00007473138949620761 -0.0007329792798813628 0.002904753371616664 -0.0013943275001810918 -0.0018512049682142262 0.005313002613579698
          -0.009943771701550475 -0.008783072379296541 -0.006822076711284097 -0.003880899935783333 -0.0015270450019340132 -0.00023523200748254425
          0.001953490225264254 0.0022773316896094187 -0.005896942917170023 -0.005417504728420397 -0.026422365110859047 -0.015246686483546767
          -0.038821607224232224 -0.017087725153091426 -0.025243089704716226 -0.0011645164661047147 -0.003295636965855664 -0.0082984177660812
          -0.0001928905438903783 -0.0023930821620519183 -0.001853057142665815 -0.0004791078744816879 -0.0015367453651817797 0.0002489878250644395
          -0.0058646816876364305 -0.005961797148006376 -0.006830886377369616 -0.001090641758316302 -0.0003825202948908313 -0.0013750058790558128
          0.0015690899495175437 -0.006400356156601283 -0.0015565848130174587 -0.0040684477908516925 -0.0002695735540763078 0.0012713774824328894
          0.00005179600245242 -0.008112785652560461 -0.00255681970869448 0.0005836623591921608 -0.004224252021003849 -0.021334607465220756
          -0.008796416820222475 -0.012541676926382195 -0.017395963169719586 0.0019815997866405866 -0.0015814125229116627 -0.0032227621862519484
          0.00067497552606266 0.0025941000395190983 -0.004115455749047925 -0.00417545062760194 -0.00174107020264902 -0.01293665051753301
          -0.017314930288047314 -0.01648882853991296 -0.01692154583564598 -0.0025650312918452656 0.006549169220670947 0.004931977617996353
          -0.00942714432251357 0.011757623489110802 0.0022800405429634907 -0.017698886491530175 -0.00795688238735437 -0.010323266102518325
          -0.004626575446138759 -0.003628961030076816 -0.0029388179670473136 -0.0013929774762262426 -0.002908779484513957 -0.004314275045233629
          -0.011514695423487709 -0.007613027593494692 -0.01732605334229831 -0.009828670577860521 -0.015438557861964242 -0.015493185476431748
          -0.007097239403727862 -0.00925311571392129 -0.0037419657916686333 -0.002155634519563243 -0.015575103300737858 -0.015729402551750482
          -0.008185587047280674 -0.004327083418718569 -0.0041467225679725495 -0.002633261641969309 -0.0028339544337202816 -0.0031033401881384037
          -0.003919706412377266 0.0048966452457313014 0.0008542038320535073 0.00798763429836935 -0.004944631859288506 -0.016520191534906026
          -0.006265596091958647 -0.009807703097933995 -0.019246914030891737 -0.011267656196227271 -0.0016934783777182716 -0.012312298730570603
          -0.005740353273950172 0.001202221321807695 -0.01238296584068399 -0.00005143295370091394 -0.001301029373394158 0.002249107879757295
          -0.00015414649820399973 -0.002793200180149391 -0.0055423123661277884 -0.005779903225098693 -0.005385140287759604 -0.005122211075512695
          -0.0018162219358179854 -0.0007954318991467701 -0.00025286888984688005 0.0014564319629979394 -0.004254763349104351 -0.0035283763798972245
          -0.0032913091439992215 -0.0018046011851708954 -0.0013379837561462438 -0.0018533498847247143 -0.0007454689559160954 -0.0014397076663865138
          0.00020278273431717508 -0.008814869847614482 -0.006816543834754718 -0.0074827028320463285 -0.0019620063250850306 -0.009649633520607215
          -0.0068926460644593845 -0.0020055393977180813 -0.016654838829653684 -0.0014717331449392024 0.001655740424622687 -0.004329806442679218
          -0.0011932404823635778 -0.0019729074784045064 -0.000313231454653895 -0.001385499209337615 0.00005309195405533984 -0.001781160385890157
          -0.003301957889795787 0.0018165199210206928 -0.0024797092181230163 -0.017017265051234354 -0.01805274255345246 -0.040381059465712354
          -0.029501957890804675 -0.02547141286076826 -0.01722119400591282 0.0006250961303102542 -0.0008181901974122496 -0.00028887154569101625
          0.004164326536388874 0.0010652134778981193 0.0010201881669056334 -0.004077883207921573 -0.003654699513589321 -0.0029951715601423956
          -0.0012979951891753938 0.0006263695868513608 -0.010460728077442027 0.009396955624014325 0.007779306580101064 -0.013048948159616103
          0.0058545159725573725 -0.0003879855300210622 -0.0055342060719452135 -0.00705226591504049 -0.005013277057984489 -0.010871202342885411
          -0.0054018187721336375 -0.002338587849540108 0.0015469525915356996 -0.03278673428641099 -0.0021334648276667423 -0.021953880066676312
          -0.07245931222243485 -0.008585742278262032 -0.034576350115440135 -0.04219544617429882 -0.0232436645781684 -0.02878290247750659
          -0.026825716784278697 -0.011175769446063022 -0.034462423428054834 0.0018650185880257908 -0.013450826860440301 -0.006297290086219931
          -0.009579542976155153 -0.007297793573066258 -0.015652349413119993 0.002406252258491115 -0.00020059381467429915 0.010617020593579163
          0.0014241561503247624 0.00235105226082144 0.0007674081696444901 -0.001994905078811726 -0.00223708253978927 0.0023118504540082796
          -0.00008452975368999915 0.00007743547703142895 -0.0023878138672568383 -0.0008823889712443744 0.00015316157689015952 -0.00024383574598996205
          0.0014009145542628332 -0.005511553764596666 -0.0024165687500641297 -0.003406115173392621 -0.0012437820932493793 -0.006501445104024839
          0.0035466333501803504 -0.009367718905591182 0.010054328194742723 -0.006281237989271382 0.0050449173075444165 -0.012272809387818384
          -0.005567029462239859 0.0038782605559779526 -0.0005840611924874395 -0.005219819417066063 0.005589637265993375 -0.012850059219124965
          -0.00005213649111990293 0.004069019382118455 0.00007996022338208064 -0.008646389440194469 -0.0012675555398944383 -0.012891784803422901
          -0.01597729373033463 -0.0028033879617437307 -0.0032827846420369067 0.03800550775266531 -0.0044621875262880195 0.13819117963494465
          0.023455781131041853 0.09966858713739635 0.02879273511064362 -0.004133464453352942 -0.00747637739599849 0.0005835727203937768
          -0.0018103265870914598 -0.00460738263698901 -0.00862195880977179 -0.003436660447851736 -0.001062314357245242 -0.006418528296525672
          -0.006531518388976032 -0.0015000804946394553 -0.016451110891050114 -0.0156936455002068 -0.001488767504289612 -0.005467713102978777
          -0.004229520864816649 -0.0004066850047239612 -0.003275188321237188 -0.0033348916940596496 -0.003167214741056412 -0.001965124489866632
          -0.0053934238128485745 -0.007224822276487686 -0.004122380993484498 -0.0025474321004752554 -0.0030177329015455 -0.0005356498282260702
          -0.00033440179934185466 -0.001862283910595508 -0.002308476031390505 -0.0019390912267667204 0.0039869097966169775 0.0007215467045194046
          0.001633288409467415 -0.0013256600018536346 0.004381875529127832 -0.001426182806559595 -0.003913945654212991 -0.004093669754431151
          -0.00657368696089744 -0.011629725406328006 0.00008348430314253363 -0.002457704826960949 -0.029613822016067104 0.002954047443104457
          -0.0152496645792084 -0.0284483581314543 -0.012633826642611368 -0.0039648722245582135 -0.006256869020599076 -0.017526079578315645
          -0.006578015478389432 0.0008717718147552844 0.0014912222803422637 -0.00548658581671102 -0.010001377359915686 0.009937751925050087
          0.001137742128728192 -0.012321006104419219 -0.011053633139508356 -0.004949107322367752 -0.0014762670196422079 0.00024587003291909326
          0.00302621969074357 -0.0027729013734543173 0.000892880755162917 -0.0034549833008978847 0.0010682727523740887 -0.000643298335325504
          -0.008097317100965284 -0.007213081252701148 0.0014146712321494448 -0.0015716774590499583 -0.0014489711381591164 -0.002898354437083306
          -0.003384988367818309 -0.0008709866004088518 0.00014952320253014406 -0.00038115599908072895 -0.006949589643063803 -0.0005754125011794287
          -0.0014813136415541273 -0.0021323888123800927 -0.006984583394494592 -0.004283005247984306 -0.008092255365940382 -0.006416422877138395
          -0.005552188178896245 -0.0007783883289498306 -0.013651840408437366 -0.005882494479733769 -0.004579909658218639 -0.007440176485816963
          -0.0015718190136277954 -0.002960236256768667 0.0006283374218272186 -0.0015975922113762309 -0.004953013941288553 -0.0033314450204837698
          -0.004110840421909623 0.0022521652420856852 -0.0019989312977780616 -0.007710482358243453 0.020405248812599197 0.002055105961346726
          0.030741306924707335 0.009655764098592812 -0.001577057504568824 0.001142778519435339 0.0027706627793904204 0.0007817167679524673
          0.0056517876360793196 -0.009758319602245713 -0.007677547358856174 -0.01834453001222336 -0.03728231407689542 -0.030663436607992978
          -0.004475851928430252 -0.004984038496953835 -0.00008346247088386605 -0.0024706374987857327 -0.000598004024027432 -0.0022883439565247743
          -0.00017298049405223281 -0.002498519370684349 -0.005208630568457551 -0.002491327122870146 0.00019929508989946498 -0.0028145504172245595
          -0.0023697359756633674 -0.0025111611876029727 -0.006555014314055363 -0.009641199230330244 -0.011440236125293879 -0.010124355330026091
          -0.001060235163723 0.0007494479715575153 -0.006770284538776927 -0.006909197039883352 -0.0015172145564577022 -0.0020454894439172477
          -0.0008632405189530346 -0.013769085776306866 -0.004347516619544578 0.0017972151464551445 0.003093227101110152 0.0032549551373444174
          0.0042809446470730705 -0.006712404300441399 -0.006798158707362667 0.0031400453367860237 0.0032219804546480546 -0.00771506973532432
          -0.008926917774481291 0.0033429714067483296 -0.00844548349594798 -0.0007057540567050324 0.0002761665312931427 -0.00781544968561132
          -0.005917334731440516 -0.004394476801994784 -0.00972431712607058 -0.007428027904529344 -0.012773808685988541 -0.009066737086129706
          0.0008499180709291565 -0.0014323596867820143 0.0024746699236688485 -0.00045623287011054003 -0.007696356049223141 -0.0074523195176974255
          -0.007503273986326775 -0.0035801098279204524 -0.013224041363024241 -0.00393807441046512 -0.0026954990936145506 -0.0019031052593234676
          -0.006189832177504018 0.005149430644205921 -0.01584228848985969 -0.008729267918072381 0.000047418005933330676 0.0013181498757521837
          -0.004180398811968189 -0.0057434364804809235 -0.007850436546502415 -0.005698134289116363 0.0009453569253475846 -0.0019160218566209863
          -0.0023243473976783946 -0.0025758723612767653 0.0005501384865285175 -0.0006477224580851981 0.001837743436417405 0.00019618987654634878
          -0.002457544727328731 -0.004577894654832271 -0.0048634909230118595 -0.005054240504183127 -0.0011373998537820285 -0.00520298571968425
          -0.004923056986799956 -0.010908940009275447 -0.003579133927614997 -0.0039553582641866925 -0.015205630806093495 -0.01025179318883751
          -0.005279135525440459 -0.000833585567858286 -0.006903320077944031 -0.004586082149701021 -0.0027986507903823288 -0.006518079184056891
          0.0011796973712359105 0.001497615455740231 -0.004729617799608121 -0.006488346608904294 -0.002853703419756659 -0.009319536753726876
          -0.005797790596192343 -0.01132634359303708 0.0026281790902071833 -0.005293773430496529 -0.011542395977316211 -0.015696870961765086
          -0.004550808933598827 -0.000749154051183254 -0.005323167620402636 -0.00662652518394502 -0.008397581287466593 -0.00912661595677644
          0.027568412030151812 0.15330668992560326 0.05004602595609442 -0.02978347196297193 -0.03935066339460036 -0.01574159524204255
          -0.006172604905114287 -0.0010820295632507637 -0.0053705899931628664 -0.019396884870281905 -0.028850771007238762 -0.01895777865283632
          -0.014105671502832262 -0.013526427739364966 0.005982633163490014 0.006437024440066441 -0.0010640542091246985 -0.0006673652730784241
          -0.006095789308774968 -0.02240139545165576 -0.012928416442447244 -0.002720414149443684 -0.020145354490262335 -0.009275142071540898
          -0.05067230538686118 -0.029332960159656807 -0.05612453960577568 0.002228758051600277 0.009731313693404964 0.0013082752327715497
          -0.036693444672630804 -0.047731264953597474 -0.027534273992262825 -0.012561245269523624 -0.013507941074243135 -0.009689045258328477
          0.12131093069697574 0.017308523637620254 0.17425952291625713 -0.18156555799584595 0.0110671628143022 -0.16152934155538823
          -0.020034801070456965 -0.018284975119236435 -0.006881718363070277 0.10771935975363967 0.20821794194895915 0.1388873014883334
        </DataArray>
        <DataArray type="Float64" Name="resid_y" format="ascii" RangeMin="-1.2646367556623597" RangeMax="0.9367195262915486">
          -0.0006697999216168093 -0.0007926516824718899 -0.0005061344544503577 -0.0011098588512978846 -0.0005028586339956287 -0.0003920425012508
          0.0014937872352913106 0.00031868743608354233 0.0035252763241125362 0.004943698148638209 0.005377183127560248 0.004617252147918027
          -0.005538136704905328 -0.0013099646944934873 -0.0022591403865464266 -0.0039593295776909065 -0.021171894046359857 -0.007002256259996481
          -0.003933512867299399 -0.004679369827721824 -0.009291417063020335 -0.004909321932681149 0.0009567427859134559 0.002615175842635431
          0.009280575174797856 0.006862025901785029 0.012029901779452401 0.014431959617641377 0.007282742291966182 0.00786709895312615
          -0.0018577177457527877 -0.0008210499342584388 -0.005479142833262396 0.0023200414603063158 -0.0060599718785100815 0.0011874601742746238
          -0.002218072479162614 -0.003038059576046803 -0.0022046436491743038 0.0009976406380911296 -0.0024340115313771227 -0.002147883607756834
          -0.0016857920117618747 -0.0025077858119330887 -0.0015890373179405087 -0.0004856754594915469 0.0017368912940420311 0.002545922097191733
          0.001647155293499472 0.00016925016029145645 0.005195708775656116 0.0027929591771093942 0.002902609675129647 0.001143555338556923
          0.01156226597146992 0.00542253335920867 0.0017040709286369748 0.0010809361868290845 0.006048567920868941 0.0028463613759030504
          0.0002116737619231035 0.0001729190219652288 -0.00044114831554453726 -0.0003166880189925947 0.0005916431346830175 0.0004354733452582027
          0.0006512408984911677 0.0005826824205320547 0.0016914790278233505 0.001083361042346076 0.0022509048243263274 0.002158670089320136
          0.0016972242506242963 0.0030224366383171247 0.001161466152460655 0.0018656288499806738 0.0031846202858080153 0.003754843881210959
          0.00018704175289308012 0.00023071362030724352 -0.0006314497958952447 -0.0006333412102474956 0.000300290685291027 0.0010514502681531201
          -0.0008745092384109254 -0.0006974571657152873 0.0005151215011892085 0.0008237399919899246 0.00010991102846191758 0.000517426600726234
          -0.0019021273997185117 0.010964311884845646 0.009822128013968257 -0.0009634656840440958 0.009507783397756597 0.012577136941567035
          0.007333719442939868 0.008039448793132231 0.007031802669508785 -0.0016828570363519868 -0.0006691871617598849 0.0007492601542074123
          -0.0010508435078515621 -0.001467177413587123 0.000523203229627088 0.0011788480502001875 -0.0016952080636746247 0.0007019896198027786
          0.0005061863503750402 0.0011800313160630765 -0.0000643182528084485 -0.0000960263363758429 0.00003642294721907871 -0.00019946443166116157
          0.0003276554211732244 0.0005166971727175174 0.001168551009884139 0.0011343330744967572 0.0017069587087552573 0.001967017849115932
          0.0028903185489662364 0.0031601789608678432 0.0022862942581744483 -0.005216499630782922 -0.0053797451652026615 0.00014858330591980412
          0.00172663998417745 0.0004921200596118003 0.0018473798761704519 0.0014345289214217627 0.0012410720902965855 0.005443207094424252
          0.0013144170155775653 0.0024578453296606184 0.004982748123079472 0.0015547578720223054 0.004322108327418389 0.0008156122410742928
          0.003941491952168183 0.0015239316768614342 0.0033458836302276 0.0029737561268591284 0.003107152705917937 -0.00007318163722654092
          0.0006710309821144622 0.0016998270707607732 0.005286339684493296 0.0008232804312935035 0.0010615657258543632 -0.0015262266861014728
          0.0030410262394441334 0.0019665660194489246 -0.0006763831179502633 -0.0007229986504713182 -0.000370543202003526 0.00037960714851145716
          0.00002325091865607032 -0.0001679242873549036 -0.0002664902428145266 0.0003883398422745432 0.00036941613576857435 0.0011008224697321989
          0.00022916385578020115 0.00025559852315285014 0.0008044914076010823 -0.0001494964096083462 0.00006635284428996302 0.0008556877741498908
          0.0010045954058764406 -0.0036782953032587495 0.004855799625841789 0.0022837621168761424 -0.0012087798779330527 0.0030538691872643367
          -0.6181326910668365 -0.469489251541634 -1.2646367556623597 -0.9563642512872519 -0.6469760748416432 -0.6141270136783933
          0.00013237608938523882 -0.0006641889549266825 0.00024915593486143917 -0.0006911506324650731 0.0005689376659472195 -0.0007580736507395505
          0.0017779146505494947 0.00012288938803734113 0.00554604943604961 0.003524444675729932 0.004712669617962864 0.003302876589010316
          0.0001780749152657246 0.0021051558082720995 -0.001687663903183645 0.002078690520674817 -0.0003555284880560339 0.0010173947124422766
          -0.00022623540267061037 -0.003430822993470195 -0.001135038497264873 -0.006174734853559127 0.000451515266897351 -0.0011727898056365649
          0.0017394926305142194 0.0017560481255332328 0.0001800550267255438 0.001093271704822707 0.0027231651090573322 0.0042380425032801095
          0.001097350044722556 0.0012765826041046258 -0.00031047964035080255 -0.00026208925746033784 -0.00005879988276580317 0.002228108230035636
          0.0004362612867952198 0.0012345406852758006 0.0016216874535534553 0.002900285729384 0.0025665621050153242 0.0027021171970895014
          0.0012746798523045055 0.0006548236141517977 0.002797287804571724 0.003496617545857117 0.004186731373540975 0.00435888018901591
          0.0006455386150303055 0.0009617040166016722 0.0004463339728728033 0.0035287234872698053 0.0035639225119021567 0.003166510158263372
          0.0024460503478502538 0.0036553973431045356 0.004078637924148101 0.00048236855006757867 0.0008701079325133809 -0.0008434399298346135
          -0.000196995111935128 0.00022282829720555314 -0.0016450621187250047 0.0011215239077561612 0.0015720228119452534 0.0013517752009703232
          0.0016237026090832885 0.001344536211373204 0.0003029332766796289 0.002902048321457129 0.00215702262491535 0.0006259344314234472
          0.0015955288601539053 0.0009951936470175005 0.0003735670321224349 0.00400197262950569 0.004657160710730357 0.0032115499210473297
          -0.44272085516547066 -0.8869065968434457 -0.511561370784275 0.0029653255974504966 0.011120415384393463 0.00805141244648444
          0.01090947625551518 0.008219134001414247 0.0061701057715559116 0.0012257099562669183 0.00016703413604773898 0.001142291139935303
          0.0007612167457810848 0.004304805023109259 0.004011529456597579 0.0008775044750328753 0.002115922272685089 0.005401631331580975
          0.0026602389124555648 0.00357362483101209 0.006656543629163625 0.0027077957894051097 0.0012052476533063287 0.0023214565055958702
          -0.0010861279842899717 0.002753418450725992 0.0009150104142312612 0.00355234120419598 0.002191795885171488 0.000055208625570124514
          -0.0010675386028179412 0.006967625333298533 0.0053692825826369694 0.00040858058562531774 -0.0006161401927657351 0.007133041704093068
          0.0045823718607138075 0.003494489113464283 0.0028303796151514793 0.0003161035322807315 0.0013739328136069262 0.003382706708827121
          0.0015541861550375513 0.0006848893571935744 0.0003221046310530884 0.0024426997734046108 0.004250347570055435 0.004228023162211769
          0.0031371077606509035 0.005230973141942097 0.00784334306096568 -0.0018714637457068195 -0.000774443766068833 -0.0006994619249933443
          0.001104147721203333 0.0018556131468639991 0.0024682468699344373 0.004465625542221685 0.007800924680296528 0.004652270243401729
          0.003850243780715218 0.002875448230337224 0.0024762250819370113 0.0009364522301543721 0.0010704336806494075 0.0014429113137286176
          0.007278258906811302 0.006031800135182341 0.011121933174846665 0.010472220420314426 0.006147065955904696 0.00691727850207402
          0.006680924567357194 0.0070983780334781255 0.0034068367233338614 0.004993011056376617 0.004734069292365695 0.006289200665035466
          0.007118845578876449 0.004784126783719495 0.0036066921827398457 0.0005337245858082484 -0.0010093219886103972 0.0010492693506586326
          0.0020915452448884153 -0.0011997338486373077 -0.000160300646986751 0.000608393737329016 0.00464916922863623 0.004149612719386797
          0.002919616794982767 0.005525731844282233 0.008837543577619067 0.0034402040192988703 0.002898094279726593 0.0066045404021810306
          0.0024496246872806327 -0.0013460288845882629 0.0031601293982713857 0.0011460633325003355 0.0015839144686943113 0.0013040562417868384
          0.002468057660297285 0.004294189802258097 0.00444922257575725 0.004245903923434297 0.003597215751217492 0.004807497503076741
          0.00048159009291290356 0.0006819404550534869 0.0007031976725998257 0.002071423508221759 0.0037506487527385335 0.004315842664744579
          0.0024560285545656146 0.002386979365929437 0.0025295226114970537 0.0021772460713915393 0.002925314600066481 -0.0006324382768485293
          0.0011027665114894947 0.0022262187219454985 0.0025707481063876603 0.002965439376240178 -0.00295564002249973 0.0009779987015463149
          0.0054920094943463615 0.00354441881481532 0.005862313728785318 0.002029677432969862 -0.00040558104804011563 0.002520378826994546
          0.0018480199725199181 0.003933997685219695 0.00121511830137154 0.00424530434332257 0.001725288059911692 0.0033667764827219754
          0.0035259041763965604 0.0011409494734721803 0.0035059815974674696 -0.0064530605080403425 -0.005332428530346073 -0.01291284428069453
          -0.012037709832217192 -0.002284280729321242 -0.007207664958093218 0.0011054909207335872 0.0022414225212886996 0.001805505910388444
          0.0006971355226602083 0.0016204369937123653 0.001775779799315258 0.0006638985130825725 0.0007502593667288449 0.0009494531036070841
          -0.0019906676370153586 -0.002881902745599796 0.001516560287890413 -0.00015242999188702644 -0.0002173732229032166 0.00350689141933155
          0.0037659693585030546 0.0028374443864723764 0.0015866807231583145 0.009372521289222502 0.008120736525270122 0.014980043198332016
          0.01379704085018596 0.007089945305670642 0.007064651493028373 -0.0028782495683363635 0.003107548620575648 0.004636135032741406
          -0.005353148668137561 0.0038548319379225343 0.005209324500931145 0.0017671915679257355 0.006537291828959221 0.002830039749494778
          0.00451649820040359 0.0022327279819204654 0.010954704429244094 -0.0016486418457409072 0.007402770544911119 -0.0010286293629399035
          0.010830144456650648 0.014833446031431163 0.007760475800438427 0.2938717459442861 0.27644182989376576 0.6022341061040927
          0.5624835166157736 0.3691221703127539 0.34803287376374786 0.08494230398462022 -0.06649738304155955 0.182473695650441
          -0.11778240068006723 0.18741298758974706 0.045052478366795434 0.0010457012281379907 0.0007891143079374035 0.001077254476525652
          -0.0017311204948243092 0.0020116414103809876 -0.00018105441549810114 0.003717851650397258 0.0020121641901950094 0.003057138637254486
          0.29029615270756687 -0.00057394310298578 0.588105832913185 0.001162303375153384 0.3087861729727298 0.003565669647467684
          0.24279532517413088 0.4770475719443146 0.18644440895791253 0.004042485967918702 0.0004719244932862854 0.0028110607707738933
          0.23017826153798732 0.43332435361215005 0.08366215580543535 0.0032660458403241943 0.002363602804624193 0.0055423411667665234
          0.0017835363777939407 -0.0018120881711241738 0.0018972630972426824 -0.04579640790730005 0.4987556718155489 -0.10123564351653666
          0.9367195262915486 -0.043398528337085795 0.3374206132564265 0.0037658294256066593 0.005048765508784581 -0.00001298182711101381
          0.0005059734550561523 0.001538034184838749 0.0019207836147533686 0.002933045347125518 0.0009454426592758747 0.002941828046804984
          0.0051337037905611616 0.0025476663574717784 0.006240211025786924 0.004527363282121832 -0.0007619996443072874 0.001399607838122957
          0.005478045487100541 0.004101087329528644 0.0031188126751440504 0.002938595677173028 0.002378205528261068 0.0022186293077511854
          0.007192008030767472 0.01149291669332464 0.006610569421202528 0.003012063210462615 0.002536265413245309 0.00225940874273263
          0.0010970500573428965 0.0023514658336002275 0.0027000470778771324 0.001870449875372368 0.001059076154383512 0.0026392612043984603
          0.0007511450835865074 0.0015264128341461042 -0.0006736534926762468 0.0029600712215678976 0.0004374975658029377 0.002695887517256912
          0.0042456623888968426 0.0026522628906281986 -0.00021364224846220914 0.002960774482698658 0.00785155135952309 0.00288221479191042
          0.007741981844343049 0.009745295089583939 0.007761466064548417 0.012942463430395817 0.01793693321344239 0.010616898958727888
          0.0029927113114993284 0.002617500583555858 0.0014612128983432678 -0.001757629198058358 0.0010554357278588222 -0.007528081416428273
          -0.00047341400693132196 -0.004034176869290279 0.0006062138398414407 0.004131831108004122 0.00278547828860351 0.002239157790037971
          0.0010633280509734222 0.00021959573835952928 0.0006423283881113184 0.0020765228423812454 0.0007309949039154273 0.0017459087488854719
          0.0018141525836662675 0.0017964499351493246 0.0011381132897163304 0.0023418564872548647 0.0012519606364797958 0.0016287980321025158
          0.0022511331070980134 0.0011431889767584205 0.0010579930580000077 0.00034960717623895056 0.005348877341568858 0.002850516364586435
          0.003060085472873845 0.002876699406119246 0.004605213823594467 0.0031372609173987154 0.003996452949462534 0.003731947993260945
          0.004347234587888882 0.0013208211009061444 0.00429671214487376 0.004118384338058084 0.0022250875955998617 0.0033469463736570115
          0.0020925823966032597 0.001880163620901265 0.0025185997701885343 0.0010086606886979266 0.002555961988953026 0.0011861667001239057
          0.0029981683655136426 0.0005888451493437641 0.002534654841111761 0.010138189192713351 -0.00032929174706955444 0.016319418479107256
          -0.0037283958249302307 0.004619767436052441 -0.0007867938269661839 0.001656919797619838 0.0007930921573463534 0.0022600979484804218
          0.0008001004576780324 0.0011961412739689425 0.0002672732915661724 0.012610678335425007 0.025070040866691734 0.014230042012349065
          0.003548050428485036 0.002099476988793536 0.002641359478353922 0.0023910124651524978 0.002344597041188279 0.0011534205711222628
          0.0005688129768474381 0.0008962582979611389 0.003285282318559346 0.0014741649205883833 0.0010579121479344644 0.0015520383894424006
          0.0029969183245959485 0.003962446038683898 0.002866551248382365 0.003545019091687529 0.005231010709879941 0.004998583278957802
          0.0014595114193013403 0.001056155499846223 0.0018704854128004378 0.004023535739759082 0.0007570264858189346 0.0029327479169829057
          0.0011496066879607414 0.00523217760214742 0.0015889528078369408 0.0008256716939573638 0.0009519098922352587 0.0006260803062032583
          0.0002539795253826971 0.0015601353713324828 0.0007686663013697914 0.0007385838629116459 0.00016230342030426614 -0.00003724751583744634
          0.00026571746987232026 -0.004125413346789411 0.0003745868656078455 0.0007998705656138139 0.00019124123504071777 0.0010585323025963378
          0.0045358590704333845 0.004554406423985774 0.00428239810913042 0.0063718796165636304 0.00927358802576339 0.004947837710008396
          0.0009273455196608937 0.001696638566930031 0.00045448359787880754 0.0003736645826942775 0.0009288275624222408 0.0013703087505173017
          0.005694544923754152 0.002609029684937758 0.004068795601668063 0.0032372426984667024 0.0022119308588814945 0.001829992652136181
          0.004932815707295701 0.004273557002954065 0.004580460619864946 0.0020995439208990746 0.002160521903262151 0.0002836669408042697
          0.0045724645348314 0.006228037141853049 0.004197936677350272 0.0031947330471573804 0.001967670734518201 0.00245221893025295
          -0.09589696446257284 0.0007825856210931237 -0.1313311931502309 -0.17627140067393948 0.0005146221205910573 -0.2520681437107161
          -0.015603009402038126 0.0005258172848447429 -0.08226200101140596 0.0034724519391649 0.00032073428767309675 0.0013947926102552133
          0.0031772454061460564 0.00026510383384965863 0.004125066943774458 -0.001017350339305098 0.004198899659209179 0.001920808179185926
          0.0037092984628407377 -0.0002707666472921977 0.001982220733639073 0.00633164668840458 0.005916449240179922 0.004508420788003842
          -0.2806639443834634 -0.5591602326900683 -0.27988885015645515 0.003813925317360925 0.0003158489702389661 0.001924822501622389
          0.0044355638605131364 0.002914057722033181 0.00031593297352910943 0.000001404824940876015 0.0030926723579378645 0.004454544134814831
          0.0063570081641274034 0.004217435204519032 0.004020093595544769 0.004284107704783855 0.006080635982078655 0.003673198216338963
          0.01952232178282165 0.01115427453830918 0.021152297384394753 0.0038292636558003024 -0.0016542634847489454 -0.00027266321058241894
          -0.0009693251361381494 0.00045434156012480464 0.002274374060007911 0.010450836105253644 0.015521543907629332 0.007376326333466542
          0.0017963822525551565 0.003693838264006266 -0.00407895667292707 -0.0017498218462868725 -0.002701878294687793 -0.00042180708765549024
          -0.00001840767414301725 -0.0056779154818217825 -0.009836162952646235 0.010074545142532254 0.024678635084838335 0.021341366180075594
          0.04310160123127088 0.006362698879319728 0.012824699640675813 0.01064190943314372 0.009536704128930595 -0.00501236545723753
          0.002065322390038357 -0.008930344505673454 -0.014816183586778046 0.0260544743167076 0.045073522435303215 0.019995371837996267
          0.44002886499124827 0.02130348149947493 0.7836172605256142 0.027321352310203884 0.2633688387486329 0.010314531419857553
          0.003161949829146443 0.016463239714788552 0.011824966576188492 0.0016837519725632633 0.05520749283146059 -0.0004653661740477155
        </DataArray>
        <DataArray type="Float64" Name="resid_z" format="ascii" RangeMin="0" RangeMax="0">
          0 0 0 0 0 0
          0 0 0 0 0 0
          0 0 0 0 0 0
          0 0 0 0 0 0
          0 0 0 0 0 0
          0 0 0 0 0 0
          0 0 0 0 0 0
          0 0 0 0 0 0
          0 0 0 0 0 0
          0 0 0 0 0 0
          0 0 0 0 0 0
          0 0 0 0 0 0
          0 0 0 0 0 0
          0 0 0 0 0 0
          0 0 0 0 0 0
          0 0 0 0 0 0
          0 0 0 0 0 0
          0 0 0 0 0 0
          0 0 0 0 0 0
          0 0 0 0 0 0
          0 0 0 0 0 0
          0 0 0 0 0 0
          0 0 0 0 0 0
          0 0 0 0 0 0
          0 0 0 0 0 0
          0 0 0 0 0 0
          0 0 0 0 0 0
          0 0 0 0 0 0
          0 0 0 0 0 0
          0 0 0 0 0 0
          0 0 0 0 0 0
          0 0 0 0 0 0
          0 0 0 0 0 0
          0 0 0 0 0 0
          0 0 0 0 0 0
          0 0 0 0 0 0
          0 0 0 0 0 0
          0 0 0 0 0 0
          0 0 0 0 0 0
          0 0 0 0 0 0
          0 0 0 0 0 0
          0 0 0 0 0 0
          0 0 0 0 0 0
          0 0 0 0 0 0
          0 0 0 0 0 0
          0 0 0 0 0 0
          0 0 0 0 0 0
          0 0 0 0 0 0
          0 0 0 0 0 0
          0 0 0 0 0 0
          0 0 0 0 0 0
          0 0 0 0 0 0
          0 0 0 0 0 0
          0 0 0 0 0 0
          0 0 0 0 0 0
          0 0 0 0 0 0
          0 0 0 0 0 0
          0 0 0 0 0 0
          0 0 0 0 0 0
          0 0 0 0 0 0
          0 0 0 0 0 0
          0 0 0 0 0 0
          0 0 0 0 0 0
          0 0 0 0 0 0
          0 0 0 0 0 0
          0 0 0 0 0 0
          0 0 0 0 0 0
          0 0 0 0 0 0
          0 0 0 0 0 0
          0 0 0 0 0 0
          0 0 0 0 0 0
          0 0 0 0 0 0
          0 0 0 0 0 0
          0 0 0 0 0 0
          0 0 0 0 0 0
          0 0 0 0 0 0
          0 0 0 0 0 0
          0 0 0 0 0 0
          0 0 0 0 0 0
          0 0 0 0 0 0
          0 0 0 0 0 0
          0 0 0 0 0 0
          0 0 0 0 0 0
          0 0 0 0 0 0
          0 0 0 0 0 0
          0 0 0 0 0 0
          0 0 0 0 0 0
          0 0 0 0 0 0
          0 0 0 0 0 0
          0 0 0 0 0 0
          0 0 0 0 0 0
          0 0 0 0 0 0
          0 0 0 0 0 0
          0 0 0 0 0 0
          0 0 0 0 0 0
          0 0 0 0 0 0
          0 0 0 0 0 0
          0 0 0 0 0 0
          0 0 0 0 0 0
          0 0 0 0 0 0
          0 0 0 0 0 0
          0 0 0 0 0 0
          0 0 0 0 0 0
          0 0 0 0 0 0
          0 0 0 0 0 0
          0 0 0 0 0 0
          0 0 0 0 0 0
          0 0 0 0 0 0
          0 0 0 0 0 0
          0 0 0 0 0 0
          0 0 0 0 0 0
          0 0 0 0 0 0
          0 0 0 0 0 0
          0 0 0 0 0 0
          0 0 0 0 0 0
          0 0 0 0 0 0
          0 0 0 0 0 0
          0 0 0 0 0 0
          0 0 0 0 0 0
          0 0 0 0 0 0
          0 0 0 0 0 0
          0 0 0 0 0 0
          0 0 0 0 0 0
          0 0 0 0 0 0
          0 0 0 0 0 0
          0 0 0 0 0 0
          0 0 0 0 0 0
          0 0 0 0 0 0
          0 0 0 0 0 0
        </DataArray>
        <DataArray type="Float64" Name="stress_zz" format="ascii" RangeMin="-6757476.112290979" RangeMax="6767185.629653649">
          -1076767.8024042135 -276644.21684945 -988566.8696087897 -2301496.743444152 -1194487.5349595929 -349255.1911472809
          -992720.1888522786 -2311348.7515659477 -1312207.2675149727 -421866.16544511187 -996873.5080957676 -2321200.759687743
          325745.8850351171 260033.55436381017 390187.1882331909 140144.12035721674 300447.9292749999 237942.52623860375
          381705.74204021494 124515.59980246346 275149.97351488273 215851.49811339733 373224.29584723886 108887.07924771018
          -1422826.1660073306 -504674.03163789003 -1515208.2435171974 -451889.643589308 -1607590.3210270642 -399105.25554072583
          -2093693.285898202 -616103.7271737966 -85810.93018792903 -2551778.335323249 -2104169.411759048 -637770.7432225496
          -236603.91104474495 -2889085.7648231257 -2114645.5376198934 -659437.7592713025 -387396.8919015608 -3226393.1943230033
          460470.62758617266 929944.1645548246 395595.7913215064 875337.692471136 330720.95505684015 820731.2203874472
          1919536.6042223636 4068087.722204774 4104087.4192534946 1127398.1746966247 1960757.7926800293 4419819.937938759
          4033659.860973701 832577.389934221 2001978.9811376953 4771552.1536727445 3963232.3026939086 537756.6051718171
          2407750.3034916082 2625451.676430949 1988390.9597701202 2222287.212591253 2518745.936681888 2606011.4705222864
          2109209.2265103776 2402605.926178765 2629741.5698721684 2586571.2646136237 2230027.4932506345 2582924.639766277
          -3274370.8929855176 -1922569.9237853312 -3311443.0063673435 -2032437.3452723993 -3348515.1197491693 -2142304.766759468
          -726878.3578142249 3471186.153135852 5013114.390385592 2840158.5317493575 -733775.7314408345 3644548.794386615
          4922107.332031027 2821022.5658650477 -740673.105067444 3817911.4356373777 4831100.2736764625 2801886.599980739
          1723329.789728866 1803576.7748209764 3619169.2496688766 1677820.0845687161 1724748.3146443511 3747987.860567704
          1632310.3794085663 1645919.854467726 3876806.471466531 3516450.328417277 2960618.935808945 1573081.8934831326
          3420350.1117333747 3392907.283403329 2997596.5974731157 1641569.227537875 3286697.387860637 3269364.238389381
          3034574.2591372854 1710056.5615926178 3153044.6639879 472095.6983580607 9581.243557848444 575279.7942677522
          -49717.59612628679 338198.57010520593 120543.77566466462 676774.7098551617 -181557.19610049698 204301.4418523512
          231506.30777148082 778269.6254425715 -313396.79607470724 -201590.37933695246 -141671.54023731413 -81752.70113767582
          2059305.9553264847 2935438.9403694863 1307252.9111747881 2116352.8156942767 3066756.740487587 1475003.3617889876
          2173399.6760620694 3198074.540605688 1642753.8124031876 1749638.2378497995 503723.2815962285 1646555.5688434453
          619154.3719651892 1543472.899837091 734585.4623341502 601021.66764371 1524197.5647202828 2535350.977253629
          2431372.3821993456 666006.412393405 1582221.569208035 2541805.7326263604 2479409.30923855 730991.1571430999
          1640245.5736957875 2548260.4879990914 2527446.2362777553 -321367.26590143936 -4593170.4560525045 -5835148.321274095
          -3668130.849614729 -626242.1282592543 -4964010.304770333 -6296312.216782538 -4151895.9814456357 -931116.9906170692
          -5334850.153488161 -6757476.112290979 -4635661.113276542 3210367.829794469 988380.2661523441 2952155.012403005
          3264810.0429360797 1041717.959364433 3038273.2282889476 3319252.25607769 1095055.652576522 3124391.4441748895
          -3273536.5358377495 5465584.312948293 -3152122.801353169 5423962.869253521 -3030709.0668685897 5382341.42555875
          276219.2903078349 1015912.822721086 -1090430.8473881278 -791995.5018790371 241098.37736759102 1046779.6908489058
          -1128243.7054913337 -945726.3692325414 205977.46442734712 1077646.5589767257 -1166056.56359454 -1099457.2365860455
          2321218.1508467016 1034755.0734301858 2353530.0912742345 1136167.666026026 2385842.031701768 1237580.2586218666
          -505050.30459269864 -871592.8460584802 -447277.10352077027 -886616.0352378351 -389503.90244884184 -901639.2244171897
          1494711.03234466 1708931.2594757548 1401211.889848345 1757098.6632040488 1307712.7473520304 1805266.0669323427
          -2509665.6100149956 -3339914.7783079073 -3563580.2467566305 -2349324.090773277 -2577569.5193844833 -3415590.2152392045
          -3573750.832629745 -2326423.5977331838 -2645473.428753971 -3491265.6521705016 -3583921.4185028593 -2303523.10469309
          1872779.880426368 -2867210.8943960425 1919689.090085907 -3281042.143135764 1966598.299745446 -3694873.3918754854
          -1061233.3741419127 -1064149.0593685876 -1067064.7445952622 1679411.2580204415 2361682.5782960374 1688664.021081441
          2386705.4036454903 1697916.7841424404 2411728.228994944 604829.5516848275 1173194.1641670563 190453.8648127783
          638074.9654817827 1187173.9798969852 25368.61125199357 671320.3792787378 1201153.7956269141 -139716.64230879117
          -1466319.0763838738 -1429289.3001001698 -2702016.5218577404 -1382458.1886311308 -1286839.3668862805 -2683662.5624582167
          -1298597.3008783883 -1144389.433672391 -2665308.6030586925 2859427.6287632044 3149827.437220915 3440227.245678625
          5958866.552511345 6363026.0910824975 6767185.629653649 -32216.551296961552 418745.8912941974 -131102.9255111601
          420693.97000376147 -229989.29972535878 422642.0487133254 -160090.58417419723 88604.91728545766 337300.4187451124
          -2489243.6684286105 1233744.2965119127 -31995.126351096435 -2495382.4793050843 1308052.0444027926 -81584.23524056445
          -2501521.290181559 1382359.7922936722 -131173.34413003252 -232796.01178451427 927080.9626098395 -421609.11917919153
          737900.9369927724 -610422.2265738688 548720.9113757052 -1341015.8868389602 -1411818.236575095 -1938245.2768964705
          -1696465.4725618626 -1475309.9337942074 -1536526.6307342213 -2056280.0710372597 -1843572.88101446 -1609603.9807494543
          -1661235.0248933472 -2174314.8651780486 -1990680.2894670572 1097462.843823453 -100687.04379047263 164954.55173178518
          1226294.3978278092 1053259.404035022 -73824.41821029625 168282.26231363614 1150261.6488282771 1009055.9642465911
          -46961.79263011989 171609.97289548704 1074228.899828745 1766415.3571975352 1011073.2087439208 -376639.8430126983
          1815061.5665499142 981274.7375512555 -547795.3145868751 1863707.775902293 951476.2663585905 -718950.7861610521
          3046796.2722699484 3164226.8477875055 3281657.4233050616 189214.3633367098 6584.293949744228 -176045.77543722134
          -516648.1033632908 -1496107.4664261523 -456082.14911518485 -1341205.6710904252 -395516.19486707915 -1186303.8757546975
          -182537.74660322978 -500670.19543416396 -213048.73986899268 -452927.0852935392 -243559.73313475566 -405183.9751529145
          4343282.927959479 4465106.783597249 4586930.63923502 568129.762956154 174678.4201858292 1731599.7810430445
          1752764.054601878 617024.0030356152 151455.14954485217 1744586.694009898 1838640.4424390078 665918.2431150767
          128231.87890387513 1757573.6069767517 1924516.8302761381 -285058.6034136349 -315840.35300849576 -346622.10260335647
          -34304.851470655005 16076.563453114883 66457.97837688483 -2113684.4286849387 -3987189.426749018 -2126296.472085587
          -4077228.9731599446 -2138908.5154862353 -4167268.5195708713 -934228.0126831684 -1033316.6064956288 -1132405.2003080891
          -4185205.427481074 -2682950.1168869794 -4192204.848344058 -2627558.9790640282 -4199204.269207043 -2572167.8412410766
          -4470759.065699329 -5300660.14425531 -6130561.222811292 -1425055.2906253624 -1127145.4622179843 -1395432.236800347
          -1104183.122717761 -1365809.1829753313 -1081220.7832175377 -1028195.5104047938 -1016133.2610133558 -1004071.0116219182
          1014628.2190594932 997098.2445001465 979568.2699407996 -1070457.8983819888 -1044356.9587322753 -1018256.0190825621
          -3669558.301454228 -2490455.0737084607 -4119414.7365794806 -2867212.942552848 -4569271.171704733 -3243970.811397235
          -111371.7401670916 -27037.129177269097 57297.481812553364 -1880560.3046287003 -749244.7486291783 -2068876.8737394635
          -845879.4016244704 -2257193.4428502265 -942514.0546197623 4523907.872824707 1400715.352254857 2409734.1564493724
          4472446.08455972 1283620.6803727348 2227551.4309965447 4420984.296294732 1166526.0084906127 2045368.7055437167
          2129055.1338370396 1831573.6662413299 2142172.777724174 2140415.60099511 1820455.1287138583 2109720.992154127
          2151776.0681531797 1809336.5911863868 2077269.20658408 1807980.0478908422 3969041.311492916 1842499.548279505
          4182184.275485619 1877019.0486681676 4395327.239478322 1109636.0970134102 727338.3826362095 739152.6990586894
          1243476.064045481 767621.1941580778 764181.6168427502 1377316.0310775514 807904.0056799463 789210.534626811
          -1175296.2084247926 -699868.1393547589 -1276130.7977215024 -701378.5281668127 -1376965.3870182117 -702888.9169788668
          738211.3180370468 717828.5103536567 697445.7026702669 1082768.6828705415 2208030.319199821 1029269.685882794
          2235175.706015546 975770.6888950466 2262321.09283127 3065902.7505527944 2621593.1176417163 3047811.4959677784
          2472891.65456032 3029720.241382763 2324190.191478924 -25899.046687422902 387530.1953679578 -258816.9559048037
          201683.68985587585 -491734.8651221844 15837.184343794128 -1057273.6818878462 -987760.995143971 -918248.3084000959
          837398.9799913445 297019.55323648837 914863.6193807176 354896.93160196964 992328.2587700908 412774.30996745086
          1192093.197734537 1235301.2839138936 1278509.3700932502 756696.3154527451 872119.6893484526 987543.0632441601
          1799748.4676070758 1981322.839972005 2162897.212336934 950739.3912408636 1145034.6745855152 1339329.9579301667
          -493552.5007039865 -395257.89824313944 -296963.29578229226 -1723119.0381937507 1123861.8733712197 -1870320.6139220018
          1423665.7312468553 -2017522.189650253 1723469.589122491 -36061.03351699661 -282467.5186928241 -68098.74130750398
          -264148.8885732981 -100136.44909801133 -245830.25845377217 -3831102.4042073013 -3884376.757051365 -3937651.1098954286
          608840.0121496598 631571.5519504849 654303.09175131 -721694.1278882808 -659857.9451733592 -598021.7624584379
          1673958.143904474 1645392.867377973 1616827.5908514715 385061.79858967033 816533.5148960344 1248005.2312023982
          -1612816.826990592 -1593232.9260523666 -1573649.025114141 2809335.5561962645 1937234.39727683 2834997.1927227825
          2045658.4257044576 2860658.8292492996 2154082.4541320857 2058575.309124925 2058637.470488872 2058699.6318528191
          992911.0753702264 1466977.3361372482 958131.4313482707 1281313.9299383622 923351.7873263151 1095650.523739477
          1539211.8965915216 894574.5492321893 1265980.2001068443 1498988.535058248 890664.8552413956 1234696.8729991482
          1458765.1735249746 886755.1612506018 1203413.545891452 809242.249151522 795496.6711404952 781751.0931294684
          1724727.3005810687 1739394.3303698776 1754061.3601586858 781541.0009779164 1676245.5741355997 809990.3126087827
          1786421.7279047042 838439.6242396489 1896597.8816738087 2305273.334645047 3080080.223119934 2346094.41281625
          3132298.128809852 2386915.490987453 3184516.034499771 3894820.4027022966 4047461.22060684 4200102.038511384
          3201157.7337483866 4279299.118009559 3178372.191771314 4437142.448765711 3155586.6497942405 4594985.779521863
          -4745443.735422586 688667.9164596396 -2414515.7205001772 -4101860.886845878 -4879554.080955316 1129629.1848838972
          -2367953.7882388914 -4041221.0321811577 -5013664.426488047 1570590.4533081548 -2321391.8559776056 -3980581.1775164376
          -878809.5849652886 -813540.3607279689 -748271.136490649 -2291791.007580784 -2187800.884882364 -2083810.7621839447
          480268.3308728655 13543.094022972859 361826.874165835 -240427.98316865964 243385.41745880444 -494399.06036029215
          276292.2940320014 343112.2930611413 409932.29209028115 -105986.43371939952 89099.32045766225 10956.969485113019
          -74819.58739202213 127900.37268962554 -238738.4952417066 -2296957.726126481 -3375468.457991636 -2294653.3971703844
          -3570605.7404122553 -2292349.0682142884 -3765743.022832874 776134.5107557271 860391.7490664516 944648.987377176
          3357310.0908808545 4477980.50628226 3590531.295038079 4785526.323978588 3823752.499195303 5093072.141674916
          -4230876.357199462 -3754859.8418173753 -2568942.5520881764 -3589633.4709488032 -4288322.551238725 -3669128.0116480696
          -2499898.30605889 -3727980.807921957 -4345768.745277987 -3583396.181478763 -2430854.0600296035 -3866328.144895111
          353880.7204980196 345832.73900999466 337784.7575219695 -3133135.7023565955 -4709075.1192413 -3168242.3280560384
          -4539577.1738552945 -3203348.9537554802 -4370079.228469289 459333.6107084594 4030099.965812223 447150.87753267016
          4232503.300702369 434968.1443568808 4434906.635592515 3962821.571232242 4095280.1291259415 4227738.687019642
          1683859.514230537 1699750.5137283865 1715641.5132262362 -88168.8334844553 -145755.44969962945 -203342.06591480356
          -2473107.296637267 -2556826.8256627847 -2640546.354688303 -4081748.6379730934 -4198931.976708293 -4316115.315443493
          -1339622.131251432 651125.5504224184 -1347532.50559016 530882.2407640326 -1355442.8799288878 410638.9311056465
          -2022959.264455875 -2124480.621502629 -2226001.978549384 2276114.7963291607 3061942.5376818664 3847770.279034573
          982338.415478471 934745.1947879223 887151.9740973739 1225940.1803878648 1171374.2162071024 1116808.2520263405
          -5425910.316968808 -5452110.492394284 -5478310.667819761 1647712.8177405465 1710317.8066320273 1772922.7955235075
          3426883.058717499 3300368.0401806645 4886731.720209168 3373192.8124673897 3313409.2225119546 4931132.858574661
          3319502.56621728 3326450.4048432447 4975533.996940154 570305.893175544 1061647.9610371767 1552990.0288988093
          -67808.6041067923 1040604.7983464053 -281358.44508779823 730271.178522131 -494908.28606880415 419937.5586978568
          -3715788.256833502 -3799520.246605289 -3883252.2363770767 -3979686.7469698745 -3960617.3001985 -3941547.853427125
          5949838.989492194 5911939.811642028 5874040.633791862 -5393238.4387688665 -5316499.241121678 -5239760.04347449
          128454.19389507778 850393.3086290003 209732.631561732 886661.3655767455 291011.06922838633 922929.4225244906
          -4686308.401739373 -4723791.242994767 -4761274.0842501605 -2887808.031169703 -3007953.946518788 -3128099.861867873
          -3833049.830934124 -4366342.7390321335 -4899635.647130143 -111453.63950656861 -72323.70408556459 -33193.76866456051
          936241.9957446639 920064.5377384098 903887.079732156 3939371.435281442 4241917.906404837 4544464.3775282325
          1316269.463747161 1106329.6644678917 1126944.6696776138 1046819.9706809788 937619.8756080667 987310.2768940661
          -1299038.5942917257 -1389249.2446724188 -1479459.8950531124 -667681.2259185489 -211175.5282821203 -708869.6373640643
          -254306.48994316542 -750058.0488095798 -297437.45160421054 1448526.4423806837 1435839.1665771445 1423151.890773605
          636132.3341428731 550675.3116835462 465218.28922421933 -600220.2216272358 -568597.8501047429 -536975.4785822502
          -2064148.8088456064 -3468381.0854531312 -1762358.1965400886 -3334216.654358794 -1460567.584234571 -3200052.2232644567
          150180.5241854232 176868.36472157435 203556.20525772552 -2887107.0910219364 -2933874.9600791633 -2980642.8291363902
        </DataArray>
        <DataArray type="Float64" Name="peeq" format="ascii" RangeMin="0.0028908620457202545" RangeMax="0.011373357591458109">
          0.0067530357216781835 0.006659113762867978 0.005980230121340672 0.006203561767127854 0.006752429978883426 0.006658271218931323
          0.005979610630555373 0.006203279688607543 0.006751824236088668 0.006657428674994668 0.005978991139770074 0.0062029976100872325
          0.00868656954983461 0.008338536457066278 0.00829594866113015 0.008623787755632672 0.008684500265935691 0.008338706264242731
          0.008296933051635978 0.008623235616568478 0.00868243098203677 0.008338876071419185 0.008297917442141804 0.008622683477504287
          0.004723867279951636 0.005390295050353263 0.004722949957935831 0.005390160734285356 0.004722032635920026 0.005390026418217451
          0.009796272831334909 0.009921993297696592 0.009241229863492389 0.009299977213293203 0.009795717471128285 0.009920497792429081
          0.009238924003241984 0.009296720779913026 0.009795162110921664 0.009919002287161572 0.009236618142991579 0.00929346434653285
          0.008339953049796595 0.008684274243040257 0.008342525508102775 0.008685668391971896 0.008345097966408954 0.008687062540903533
          0.006789978532906431 0.006488997089126948 0.006561728210291098 0.006898237497306199 0.006788682220307105 0.006491874068195998
          0.006558661518649185 0.0068886641689725634 0.0067873859077077795 0.006494751047265049 0.006555594827007271 0.006879090840638929
          0.009492992631095173 0.010125725571532077 0.009690168331827578 0.009141332793138555 0.00949059670496305 0.010119444224487049
          0.009685853987240532 0.009139848717852853 0.009488200778830927 0.010113162877442019 0.009681539642653487 0.00913836464256715
          0.006423723530180863 0.00684825574168867 0.00642425094591476 0.006848221129160479 0.006424778361648659 0.00684818651663229
          0.007287143833284144 0.006983021798290735 0.008325306765028294 0.008413996184224852 0.007279802991169338 0.006976055487532131
          0.008320254257060625 0.008410003911288315 0.007272462149054532 0.006969089176773527 0.008315201749092959 0.008406011638351779
          0.007802781854033261 0.00787034506247292 0.008392596471613605 0.007800848039095596 0.007868564661699733 0.008391464874066203
          0.007798914224157929 0.007866784260926546 0.0083903332765188 0.010937208524467416 0.011279178246359272 0.011107550965808526
          0.010818375287614012 0.010927887361254187 0.011271638138240236 0.011098927396654934 0.010808659480539343 0.010918566198040956
          0.0112640980301212 0.011090303827501344 0.010798943673464676 0.008089817018139423 0.00848440362611892 0.007977886753888722
          0.007786197078532047 0.008087506191217803 0.008483265119958231 0.00797794498768948 0.007785392210402401 0.008085195364296185
          0.008482126613797544 0.00797800322149024 0.0077845873422727535 0.009552497479780018 0.009552383425816019 0.00955226937185202
          0.006902840801395042 0.006705661541612781 0.0064270441323315336 0.0069037004120837695 0.006707365968294024 0.006430074404856812
          0.006904560022772496 0.006709070394975265 0.006433104677382092 0.008306741690849918 0.008869064631955192 0.008303174498704933
          0.008867408484938902 0.008299607306559948 0.008865752337922608 0.010303504449028118 0.00993791797896961 0.010271988545802418
          0.010721920418585253 0.010304669085655476 0.009940402321824922 0.010274017014536597 0.010721746424404714 0.010305833722282835
          0.009942886664680238 0.01027604548327078 0.010721572430224174 0.0055225560613458135 0.00606226302618675 0.004826141432441279
          0.003903589079665255 0.005513453641658346 0.006051553139262991 0.00481718895766878 0.003903728270466872 0.005504351221970878
          0.0060408432523392334 0.004808236482896281 0.0039038674612684884 0.00914262464136392 0.008958902214236867 0.008815549798261768
          0.009146082814964299 0.008960068252967569 0.008819543419742266 0.009149540988564676 0.00896123429169827 0.008823537041222764
          0.0030887650414025435 0.0052270906353601545 0.0030972565780561733 0.005219105469132046 0.0031057481147098026 0.005211120302903936
          0.00804225698485501 0.008085438496456866 0.008771795042464475 0.00901542119699002 0.008038406209411323 0.008083443064033344
          0.008767909732695787 0.009008118191199756 0.008034555433967637 0.008081447631609822 0.008764024422927098 0.009000815185409494
          0.009525008968609413 0.009246601797305853 0.009528287631409803 0.009247379268310298 0.009531566294210193 0.00924815673931474
          0.006422810355472513 0.0066962342493460895 0.00641645420944929 0.00668878260106137 0.006410098063426066 0.006681330952776654
          0.009218769317467426 0.00845962223764763 0.009213338638005617 0.008458308309769616 0.009207907958543808 0.0084569943818916
          0.006897319433270614 0.006581463618482413 0.0064992495964964845 0.0069162203349606615 0.006898542628479524 0.006582976708574165
          0.006501304106649247 0.006918682822140615 0.006899765823688434 0.006584489798665917 0.006503358616802007 0.006921145309320569
          0.006346925973223469 0.0060141282330220805 0.006348487480504164 0.006014070082107135 0.006350048987784858 0.006014011931192189
          0.006080693078986195 0.0060739513164885985 0.006067209553991003 0.007381632779538003 0.007302370260890954 0.007383399062340703
          0.0073032128834978095 0.007385165345143403 0.007304055506104665 0.007174758178308008 0.007047734466651207 0.006976615212617531
          0.007173412653078319 0.007046749701491849 0.006970255064329588 0.007172067127848632 0.00704576493633249 0.006963894916041646
          0.006634636011395922 0.006804224140872033 0.005694420245846478 0.006628407750897155 0.006800963767629623 0.005686660548972618
          0.0066221794903983874 0.0067977033943872125 0.0056789008520987585 0.006098602251837556 0.0061038588451420035 0.006109115438446451
          0.006824870791638282 0.006817952841239797 0.006811034890841311 0.00941031197008035 0.009512450781749053 0.00940534400064548
          0.009506356813659446 0.009400376031210609 0.009500262845569842 0.006966657663625187 0.0069649270051522 0.006963196346679213
          0.006185805488730776 0.006475981880235217 0.007071528944534282 0.0061888475933771754 0.006479829077111132 0.007070546900590757
          0.006191889698023577 0.006483676273987049 0.007069564856647233 0.009673564314484852 0.009910441342980449 0.00966405975979608
          0.009901376694767393 0.009654555205107305 0.009892312046554337 0.004596105765499621 0.004061986540406377 0.004075638716218638
          0.004785726726497684 0.004594623291402615 0.004061746326905683 0.004076513675638427 0.004784659551216989 0.004593140817305608
          0.00406150611340499 0.004077388635058216 0.004783592375936295 0.006459940251322848 0.005645893516961998 0.005793379984668925
          0.006572393690172601 0.006459592273945646 0.005645743643145478 0.005792766604892515 0.006571436352952355 0.0064592442965684446
          0.005645593769328958 0.005792153225116106 0.006570479015732108 0.009103861017450539 0.008608341817088661 0.009115206132289935
          0.009100983093797758 0.008606343543681977 0.009111022147487324 0.009098105170144977 0.008604345270275293 0.009106838162684712
          0.0069937170039927644 0.006995301480265752 0.006996885956538741 0.006876292353904907 0.006865905130970965 0.0068555179080370225
          0.003581836870476625 0.0033181234621185987 0.0035852518002798275 0.003322879772885386 0.0035886667300830304 0.003327636083652173
          0.004862873920020555 0.00552411533083612 0.004862636240449466 0.005524414112734459 0.004862398560878377 0.005524712894632798
          0.006788401583502799 0.006791217171347384 0.006794032759191966 0.007420076911057877 0.007897497897674416 0.007876724422514051
          0.007256294372471693 0.007421695123240563 0.007898595230535287 0.007876316407186439 0.007256360356206597 0.0074233133354232456
          0.007899692563396158 0.007875908391858828 0.0072564263399415 0.008406944893369088 0.008405967881785553 0.00840499087020202
          0.0073119864890950565 0.007313808961797062 0.007315631434499068 0.007357691891155811 0.006735626629694082 0.007357251868230615
          0.0067346584049984655 0.0073568118453054155 0.0067336901803028495 0.005662060654849795 0.005667585955236332 0.00567311125562287
          0.006518150548879983 0.007015607081629673 0.006519104061976794 0.007018005801916828 0.006520057575073604 0.007020404522203984
          0.005580430896717794 0.005581057940809551 0.005581684984901307 0.007347807195478642 0.007376206040476006 0.007349583939056272
          0.007378671689738651 0.007351360682633901 0.007381137339001294 0.007332613948427457 0.007334084886969142 0.007335555825510829
          0.0072154129648538 0.007214355101035339 0.0072132972372168785 0.007484220505069173 0.007487729739524674 0.007491238973980175
          0.005107417418882876 0.005553170339490682 0.005108381567977037 0.005554310902076283 0.005109345717071198 0.005555451464661886
          0.007822052476990813 0.007824392265638427 0.007826732054286044 0.008754691820677127 0.008749532614801934 0.008751930357965653
          0.008746958351805088 0.008749168895254181 0.008744384088808243 0.010223876688257185 0.010567279889639705 0.010194734957720842
          0.01021752116012803 0.010558333249582108 0.0101889456522257 0.010211165631998871 0.010549386609524513 0.010183156346730561
          0.011264296659672187 0.0110212470994343 0.010942789238181847 0.011259611739766523 0.01101940777332538 0.01093951350648204
          0.011254926819860862 0.01101756844721646 0.010936237774782235 0.005013134399199192 0.005815001446665016 0.005017464568672152
          0.005820394241505618 0.005021794738145112 0.00582578703634622 0.009178509310976201 0.009001628017119616 0.008855188084701584
          0.0091761292227124 0.008997565588633537 0.008852897113328106 0.0091737491344486 0.008993503160147458 0.008850606141954629
          0.0089758309956929 0.008815759929094114 0.00897298389448352 0.008814279505650568 0.008970136793274144 0.00881279908220702
          0.006083900743250771 0.006083863139351246 0.0060838255354517205 0.011115375896719827 0.011373357591458109 0.011113103361589998
          0.01136923605073632 0.011110830826460171 0.011365114510014531 0.011334865731799725 0.010980362632658735 0.011327934356827643
          0.01097138748053076 0.011321002981855564 0.010962412328402787 0.010141967039794572 0.010454748011793491 0.010131867181744072
          0.01044407820072511 0.01012176732369357 0.010433408389656729 0.00930951612037079 0.009305164088566896 0.009300812056763006
          0.010623453384602435 0.010544793141768757 0.010622155674503534 0.010544344027234183 0.010620857964404632 0.010543894912699608
          0.009945361058878612 0.009942998894736094 0.009940636730593576 0.008114733871729896 0.00811633839857148 0.00811794292541307
          0.00916313164485395 0.009161214905866315 0.00915929816687868 0.007905220095953838 0.007908251243786002 0.007911282391618165
          0.007868166058758444 0.00787062551851103 0.007873084978263615 0.008528035702216472 0.008357648569343273 0.00852993441328508
          0.008360807267218322 0.008531833124353686 0.00836396596509337 0.007932110479430356 0.007850302494436136 0.007935618469444728
          0.007852627730449663 0.0079391264594591 0.00785495296646319 0.006002146735730143 0.006003049147074942 0.006003951558419741
          0.006327057601197011 0.006327389587829418 0.006327721574461826 0.00784643678640319 0.007848541162257647 0.007850645538112103
          0.007380299530433238 0.007381151637571792 0.007382003744710345 0.0048071699333345165 0.004815472978854925 0.0048237760243753335
          0.0042758279325500834 0.0042800246065263685 0.004284221280502653 0.009337019050068087 0.008680552547881481 0.009337069953952384
          0.008684021384075407 0.009337120857836681 0.008687490220269337 0.009991496794104368 0.009988148967757614 0.00998480114141086
          0.010783460747779682 0.010410342552258305 0.01077333321092775 0.01040008249394637 0.010763205674075819 0.010389822435634435
          0.007114936199497813 0.0076798218675479335 0.006961497144118886 0.007113691191234036 0.0076786081447522084 0.006961015662076248
          0.00711244618297026 0.0076773944219564825 0.00696053418003361 0.006786553032897111 0.006787262356304809 0.006787971679712507
          0.010565528819085537 0.010559603458072725 0.010553678097059913 0.008406786250175406 0.008489341770524305 0.008406967496472456
          0.008489213440156611 0.008407148742769509 0.008489085109788918 0.010489995117020727 0.009940185018949652 0.010489194371378237
          0.009942087303504899 0.01048839362573575 0.009943989588060146 0.009370752912230534 0.009375185685243047 0.009379618458255558
          0.0097722892239403 0.00930033133772464 0.009776146486312498 0.009305635385959762 0.009780003748684696 0.009310939434194884
          0.003588781953222339 0.004023856200151852 0.0039912788364152504 0.0035105697714138467 0.0035967137167198272 0.004034168620807956
          0.003998277248683115 0.0035185172156958653 0.0036046454802173156 0.004044481041464059 0.004005275660950977 0.0035264646599778827
          0.005028932165604494 0.005029197805068367 0.005029463444532239 0.005353181029702973 0.005360511084400604 0.0053678411390982355
          0.007562635966135841 0.007551053576352745 0.007560388837005415 0.007549633012984311 0.007558141707874989 0.007548212449615878
          0.008180117109945545 0.008184808683670323 0.008189500257395099 0.009357225618785131 0.009178795031667143 0.009353660278257424
          0.009172413322771987 0.009350094937729715 0.00916603161387683 0.006422411306799745 0.005307783209402525 0.006412865394629421
          0.005298382006140281 0.006403319482459099 0.005288980802878035 0.007490552008059943 0.007491112068370749 0.0074916721286815546
          0.008859105187458884 0.008972073786884078 0.008865224098587438 0.008978124049824388 0.008871343009715994 0.0089841743127647
          0.00538569334083347 0.0057178040184297655 0.0053304785349753605 0.004846670146360215 0.005385986161237348 0.005718433579104564
          0.005330922124643419 0.004847184414173342 0.0053862789816412245 0.0057190631397793625 0.0053313657143114765 0.004847698681986472
          0.007587510344461198 0.007583770457316294 0.0075800305701713925 0.004260665127495982 0.00365900230293005 0.004262746093144143
          0.0036644384412269702 0.004264827058792305 0.0036698745795238903 0.008478178979880202 0.00938989705690231 0.00847440801633954
          0.009387135318004091 0.008470637052798876 0.00938437357910587 0.009438615950201281 0.009434135049594805 0.009429654148988331
          0.008711332797693752 0.00870855493020648 0.008705777062719206 0.007596506430801001 0.0075907468298744354 0.007584987228947869
          0.0046037884092470765 0.004608199389197095 0.004612610369147113 0.003196313575486504 0.003201775097790489 0.0032072366200944728
          0.007509353832037678 0.008452236220451189 0.007502139855214262 0.008448204568053405 0.007494925878390848 0.008444172915655622
          0.0041334205635290555 0.004134790197740137 0.004136159831951218 0.004314236545273063 0.00432224201473785 0.004330247484202637
          0.009075854585693635 0.009070628884538507 0.009065403183383378 0.010967717114580751 0.010960732584913029 0.010953748055245308
          0.003198144932381926 0.003204112701936894 0.003210080471491861 0.008504917396200956 0.008509985419278391 0.008515053442355822
          0.010360247887006256 0.010311091231772934 0.009466703759728301 0.010352944881877213 0.010304059279123014 0.00946126506132008
          0.010345641876748173 0.010297027326473095 0.009455826362911857 0.004614749507004103 0.004625050203127525 0.004635350899250945
          0.009273741749727709 0.009039496322217266 0.009266276335373648 0.009032657681218454 0.009258810921019588 0.00902581904021964
          0.005264871233605417 0.005267611297045287 0.005270351360485158 0.006113228811284355 0.006114363984489852 0.006115499157695349
          0.008278101424298311 0.0082723917013987 0.008266681978499087 0.0035314376676072855 0.0035365081477593168 0.0035415786279113476
          0.005432923776367905 0.006191611192347616 0.005433197457443113 0.006192102473164913 0.005433471138518322 0.00619259375398221
          0.00596403616030418 0.005964479687612621 0.005964923214921062 0.0028908620457202545 0.0028947777457377986 0.0028986934457553423
          0.008828575382152861 0.008827348950728528 0.008826122519304194 0.009492330757983303 0.009486946840471107 0.009481562922958911
          0.01117248107351595 0.01116570152692649 0.01115892198033703 0.008772995247564546 0.008771843227534127 0.008770691207503711
          0.00891792797284142 0.008781438391059083 0.008912538037896038 0.008778002183741083 0.008907148102950657 0.008774565976423083
          0.009049647859294963 0.009046287753766443 0.009042927648237923 0.00853455350506134 0.008658826506836035 0.008535951863279673
          0.008658578161589743 0.008537350221498007 0.008658329816343452 0.008984976172262918 0.008983378766910905 0.008981781361558892
          0.008736357836200423 0.008736449833185132 0.008736541830169841 0.008600426769648097 0.008600060693328096 0.008599694617008097
          0.007745568573376876 0.007844117605070255 0.007754007787819166 0.00785182672669479 0.007762447002261457 0.007859535848319325
          0.008440840009451903 0.008444168499874108 0.008447496990296314 0.00846563534926208 0.00846736382219874 0.008469092295135398
        </DataArray>
        <DataArray type="Float64" Name="pe11" format="ascii" RangeMin="0.002889952604709528" RangeMax="0.011369791349553782">
          0.006752171380241036 0.006658441292086483 0.005979398395279981 0.00620213936203644 0.006751540272435119 0.006657585614660597
          0.00597875447510523 0.00620180509330322 0.006750909164629201 0.006656729937234714 0.005978110554930479 0.006201470824569998
          0.008684676987219284 0.008336320289228764 0.008291636446071674 0.008619485392522956 0.008682556591173623 0.008336429647503274
          0.008292556351161788 0.008618867454134918 0.00868043619512796 0.008336539005777787 0.008293476256251903 0.008618249515746877
          0.004723282317121975 0.00538972231347876 0.004722356123572635 0.005389578965788868 0.004721429930023296 0.005389435618098977
          0.00978903296801304 0.009914726830120263 0.009234954460431634 0.009294367556139244 0.009788320134899463 0.009913082440272048
          0.009232576074741724 0.009290921545812991 0.009787607301785885 0.009911438050423833 0.009230197689051818 0.009287475535486738
          0.008332691920384579 0.008677110768800334 0.008335212872792664 0.008678461257830263 0.008337733825200751 0.00867981174686019
          0.006786523035690742 0.006483847076136841 0.0065574476164703644 0.006896762573323198 0.0067851554007356055 0.006486709500359337
          0.006554296241368126 0.006887040265793802 0.006783787765780469 0.00648957192458183 0.0065511448662658915 0.006877317958264406
          0.009489831126083148 0.010121674277031882 0.009684992263124814 0.009138088199420894 0.009487453652823734 0.010115368165179042
          0.009680704663655912 0.009136643876705318 0.00948507617956432 0.010109062053326203 0.009676417064187006 0.009135199553989743
          0.0064211435425833765 0.006846628960034206 0.006421573708158861 0.006846543285260998 0.006422003873734346 0.006846457610487788
          0.007281547734295046 0.006977252826570119 0.008322049997348712 0.0084111438764244 0.007274372027558537 0.006970357947234037
          0.008317041152441473 0.008407208090444023 0.0072671963208220305 0.006963463067897957 0.008312032307534236 0.008403272304463645
          0.00780203908415422 0.007869622876657628 0.00839165563625627 0.007800121086814963 0.007867850620242929 0.008390516045146828
          0.007798203089475707 0.00786607836382823 0.008389376454037386 0.010936286445849482 0.01127729525500441 0.011104496629357523
          0.010816184291769178 0.010926967064077324 0.01126968920880527 0.011095809278193477 0.01080644446401348 0.010917647682305165
          0.011262083162606133 0.011087121927029427 0.010796704636257787 0.008087075349813828 0.008478787602802428 0.007970862816341557
          0.007782823326435368 0.008084807195202126 0.008477696979931412 0.00797100584027215 0.0077820621969282265 0.008082539040590427
          0.008476606357060398 0.007971148864202743 0.007781301067421084 0.009544899051858452 0.009544676391858613 0.009544453731858776
          0.006899065454683332 0.006699887815895849 0.006420314075573615 0.0068998874093107775 0.006701612992699716 0.006423317441482266
          0.006900709363938222 0.006703338169503582 0.006426320807390917 0.008304822320469574 0.008865316126464936 0.008301270720126026
          0.00886368308968337 0.008297719119782478 0.008862050052901803 0.010294973708927917 0.009928398430382653 0.010261803234406746
          0.010713213396069622 0.010296007779577815 0.009930793213929754 0.010263745583594315 0.010712924749180557 0.010297041850227713
          0.009933187997476858 0.010265687932781885 0.010712636102291492 0.005514761893973028 0.006054040169813864 0.004814366812708205
          0.0038935713347957603 0.0055057603053517735 0.006043563284013021 0.004805284785630123 0.003893466903263417 0.005496758716730518
          0.006033086398212177 0.004796202758552041 0.003893362471731074 0.009132333517174383 0.008951652457072088 0.00880521050659426
          0.009135781492957183 0.008952779123978802 0.008809205768369126 0.009139229468739985 0.008953905790885517 0.008813201030143991
          0.003082467737574068 0.005220778983461035 0.0030906491888564084 0.0052127096556959214 0.003098830640138749 0.005204640327930808
          0.008029433738632276 0.008075495445624496 0.008763258538315884 0.009003259431201116 0.008025461278550406 0.00807353713476095
          0.008759405847451683 0.008995905181776937 0.008021488818468534 0.008071578823897403 0.008755553156587482 0.008988550932352762
          0.009514954409698208 0.009239275520965175 0.009518186908836653 0.00924000031757036 0.009521419407975094 0.009240725114175544
          0.0064191723381528815 0.006693862475145401 0.00641264987764434 0.006686292983781325 0.0064061274171358 0.006678723492417249
          0.009204913938424155 0.008445896533438812 0.009199332662565616 0.008444406677694808 0.009193751386707076 0.008442916821950804
          0.006894025792373808 0.0065777090485580865 0.006492695650777636 0.006909822844267046 0.006895165463854094 0.006579094376636031
          0.006494564163620393 0.006912154527360469 0.006896305135334377 0.006580479704713974 0.0064964326764631476 0.0069144862104538905
          0.0063371303979655865 0.006003248332316732 0.006338812903916318 0.006003113490794364 0.00634049540986705 0.006002978649271998
          0.006075639804316859 0.006068695713112597 0.006061751621908334 0.007373723738606895 0.007291569066349269 0.007375642554380433
          0.007292515430100053 0.007377561370153971 0.007293461793850836 0.0071731194101139805 0.007045196835212307 0.006975035561607649
          0.007171738119870627 0.007044183909844535 0.0069685420018356856 0.007170356829627272 0.007043170984476762 0.006962048442063724
          0.006630264754278237 0.006801372126389058 0.005687663347807395 0.006623980298467774 0.0067980039665058705 0.0056797079250381615
          0.006617695842657309 0.006794635806622682 0.00567175250226893 0.006090212838260391 0.006095520044501294 0.0061008272507421975
          0.006819898938410901 0.006812941127706729 0.0068059833170025594 0.009409210691958625 0.009511407840762683 0.00940427184207902
          0.009505342756772832 0.009399332992199413 0.009499277672782983 0.006964892215797819 0.006963067723394723 0.006961243230991627
          0.006171776150790348 0.006463687299241621 0.007058536034723294 0.006174890211075091 0.006467773861319438 0.007057496658832203
          0.006178004271359834 0.006471860423397254 0.007056457282941113 0.009664076378980294 0.009899720577155352 0.009654579654784032
          0.009890572256941545 0.009645082930587773 0.009881423936727736 0.004595426606228839 0.004061348364363748 0.004075013567832206
          0.004784951146221276 0.004593934519852334 0.004061105912813359 0.004075882660982011 0.004783867758839519 0.0045924424334758285
          0.00406086346126297 0.004076751754131813 0.00478278437145776 0.006459311874253247 0.00564517898533363 0.005792707866002722
          0.006571726721230391 0.006458964426720017 0.0056450212536672964 0.005792082825672418 0.006570762094504567 0.006458616979186788
          0.005644863522000964 0.005791457785342114 0.006569797467778744 0.009102692463002686 0.008607346907398223 0.009114405109318149
          0.009099808824241336 0.00860534461716914 0.009110222996864549 0.009096925185479984 0.008603342326940057 0.009106040884410945
          0.006988546374197458 0.006990233987570085 0.006991921600942711 0.0068749652756719985 0.006864415785527914 0.006853866295383831
          0.003580957778549927 0.0033175288355329624 0.0035843544952446657 0.0033222857053954793 0.0035877512119394045 0.0033270425752579963
          0.004862094976385455 0.005523351791351824 0.004861835621499429 0.005523638126653214 0.004861576266613405 0.005523924461954605
          0.006779781446647882 0.006782814930981195 0.006785848415314507 0.00741928896270416 0.007896429078881472 0.007875865195249954
          0.0072556245187131805 0.007420891064303678 0.007897511992721346 0.007875450285734352 0.007255675407596364 0.007422493165903198
          0.007898594906561217 0.007875035376218751 0.007255726296479548 0.008406020127735156 0.008405036743164084 0.00840405335859301
          0.007311177358615979 0.007312987747691326 0.0073147981367666735 0.007345184650101969 0.006722248389935392 0.007344544380300464
          0.006721074619720042 0.007343904110498959 0.006719900849504693 0.005649311009332269 0.005655068392622363 0.005660825775912455
          0.0065076119988799145 0.00700529368924362 0.006508320405646078 0.007007505816344456 0.00650902881241224 0.007009717943445294
          0.005568450075950547 0.005569027908954014 0.005569605741957483 0.007345031506936868 0.007370850983670316 0.007346774796239968
          0.007373252968704997 0.007348518085543068 0.0073756549537396755 0.007331192714956358 0.007332646284505624 0.0073340998540548895
          0.0072147926875808545 0.007213737182572298 0.007212681677563741 0.007475207755228341 0.007478610248052667 0.007482012740876993
          0.00509301257070345 0.005540466516197449 0.005093864537022738 0.005541568248652182 0.005094716503342027 0.005542669981106916
          0.007810625068693398 0.007812822403699213 0.007815019738705027 0.00875178728122299 0.008747131969134877 0.008748916141911643
          0.00874447883195567 0.008746045002600296 0.008741825694776459 0.010221428705701457 0.010564033563093081 0.010191303609345845
          0.010215076415906035 0.010555042568299687 0.010185500642793116 0.010208724126110617 0.010546051573506294 0.010179697676240386
          0.011259730057478266 0.011014374793199626 0.01093526964857924 0.0112549293614257 0.011012377261980148 0.010931896530731356
          0.011250128665373135 0.011010379730760668 0.010928523412883476 0.004998091230763106 0.005804078270937036 0.005002628033638018
          0.005809602599319976 0.00500716483651293 0.0058151269277029165 0.009176707794198435 0.009000693283550094 0.008853774348719139
          0.009174315348711236 0.008996625797687584 0.008851473363909929 0.009171922903224036 0.008992558311825069 0.008849172379100718
          0.008971477218871919 0.008811460166623663 0.00896853585109008 0.008809905024591785 0.008965594483308238 0.008808349882559905
          0.00608325158327302 0.006083193038233627 0.006083134493194233 0.011109472180857248 0.011369791349553782 0.01110700787721075
          0.01136552522017538 0.011104543573564253 0.011361259090796976 0.01133346132965408 0.01097976299160381 0.011326462154191263
          0.010970806407121034 0.011319462978728448 0.010961849822638255 0.010135241565144677 0.010446809065215995 0.01012511919211768
          0.010436082775661507 0.010114996819090684 0.01042535648610702 0.009302796638115049 0.009298490572022783 0.009294184505930518
          0.010615612300317684 0.0105369720020396 0.01061412467128436 0.010536354764831096 0.010612637042251037 0.010535737527622593
          0.009937371298462599 0.009934875201293755 0.009932379104124912 0.00811395383298951 0.008115549878571052 0.008117145924152594
          0.009155264197906163 0.009153367783686247 0.00915147136946633 0.00790442250580797 0.007907441322901044 0.00791046013999412
          0.007866917460243641 0.00786936088126026 0.007871804302276878 0.008521486701779966 0.008349233602083766 0.008523413200877544
          0.008352588641600545 0.008525339699975123 0.008355943681117325 0.007924432929432325 0.007845854154460668 0.007927876992791748
          0.007848130903910865 0.007931321056151172 0.00785040765336106 0.005989419134448122 0.005990163073757608 0.005990907013067096
          0.006326404056278313 0.006326733075200937 0.00632706209412356 0.007844157396613467 0.007846229502797829 0.007848301608982193
          0.007376181236689235 0.007377111902501335 0.007378042568313436 0.004793943126088588 0.00480240100485227 0.004810858883615951
          0.004262306248207835 0.004266482667956028 0.004270659087704222 0.00932360703555549 0.008667468375920214 0.009323542872178542
          0.008670815833073057 0.009323478708801593 0.008674163290225901 0.009979991407223568 0.009976557811794018 0.009973124216364468
          0.010778592908084608 0.010405667179071544 0.010768404959351979 0.010395341173001914 0.010758217010619348 0.010385015166932283
          0.007114223748055673 0.007679199576418798 0.006960784989348223 0.00711298743129091 0.007677999188382219 0.0069603019953447896
          0.007111751114526146 0.007676798800345642 0.0069598190013413575 0.006785919069228586 0.006786612012367202 0.006787304955505819
          0.010556384934366437 0.010550391209272314 0.010544397484178195 0.008405671539367924 0.008488603606553322 0.008405811715303994
          0.008488442510913297 0.008405951891240064 0.008488281415273267 0.01048007224052595 0.00992811105873308 0.010479192864427812
          0.009929978288927357 0.010478313488329677 0.009931845519121633 0.009357150579595701 0.009361584768828894 0.009366018958062085
          0.009760751367706395 0.009287706536418108 0.009764573611259233 0.009293036354956772 0.009768395854812071 0.009298366173495437
          0.003582423779502188 0.004015961258842186 0.003986038800152696 0.0035075316398726136 0.0035903405973845134 0.004026471543586828
          0.003993167969889992 0.0035155204328424284 0.003598257415266839 0.00403698182833147 0.004000297139627288 0.0035235092258122437
          0.005027970157114467 0.005028207294754627 0.005028444432394787 0.005339413245036178 0.005346958340259104 0.005354503435482031
          0.007561418860241588 0.0075495561588788075 0.007559180599693457 0.007548150481774016 0.007556942339145324 0.007546744804669224
          0.008169322025526253 0.00817392392972003 0.008178525833913809 0.009355964351978566 0.009177965734635793 0.009352398751635207
          0.009171595634514258 0.009348833151291846 0.009165225534392717 0.006416243682515511 0.005299578657426233 0.006406779989227789
          0.005290014084589088 0.006397316295940067 0.0052804495117519425 0.007490028844901454 0.007490587933637302 0.0074911470223731486
          0.008846140584640252 0.00895940889374435 0.008852252577144731 0.008965503100401511 0.008858364569649209 0.008971597307058673
          0.005378895685740362 0.0057145249218837 0.005328743391023131 0.0048427499296290625 0.005379053439501558 0.005715069752468862
          0.005329144520450039 0.004843211214512092 0.005379211193262753 0.005715614583054024 0.005329545649876945 0.004843672499395121
          0.007586033992865012 0.0075822844641616136 0.007578534935458216 0.004258727037767051 0.003657646912317843 0.0042607911851583035
          0.0036630865350931563 0.004262855332549558 0.003668526157868469 0.008475783355729034 0.009387699829479991 0.008472060439546271
          0.009384947981332766 0.008468337523363506 0.00938219613318554 0.00943701917771066 0.009432580655484753 0.009428142133258849
          0.00871065829604226 0.008707857024237937 0.008705055752433615 0.007594098080673387 0.007588357760102857 0.007582617439532327
          0.004596271588247762 0.0046007726118612235 0.004605273635474687 0.0031912061685583967 0.0031966457237257743 0.003202085278893152
          0.007505553595336549 0.008450155266816814 0.007498435396909133 0.008446151909086704 0.007491317198481717 0.008442148551356592
          0.004132765030265307 0.004134114606252698 0.0041354641822400895 0.004302068308184771 0.004310105992212504 0.004318143676240237
          0.009075162007506448 0.009069935017664338 0.009064708027822225 0.010961372084994496 0.01095432103628236 0.010947269987570223
          0.0031969045759020075 0.0032028891127110965 0.0032088736495201864 0.008494540479228341 0.008499575146022717 0.008504609812817096
          0.010359400116274353 0.010310039709582362 0.009465195684860483 0.01035215954029865 0.010303044424944051 0.009459820387953127
          0.010344918964322946 0.010296049140305737 0.009454445091045772 0.0046036091706599825 0.004614227377692959 0.004624845584725935
          0.009273007292260507 0.009038848512905482 0.009265549970593052 0.009031986720045284 0.009258092648925593 0.009025124927185085
          0.00525420923476118 0.005256885407891203 0.005259561581021225 0.006107927599089416 0.006108904676236871 0.006109881753384326
          0.008274999663739764 0.008269310150207945 0.008263620636676124 0.0035308566445964836 0.0035359365968809175 0.003541016549165351
          0.005432284039619343 0.006190938878398076 0.005432543044808093 0.006191415934217031 0.005432802049996843 0.0061918929900359855
          0.005954602414517067 0.005954825943952559 0.00595504947338805 0.002889952604709528 0.0028938956530692246 0.002897838701428921
          0.008823489856914675 0.008822085306556782 0.00882068075619889 0.009491203157591853 0.00948583933377858 0.009480475509965308
          0.011168310036087903 0.011161451396560794 0.011154592757033685 0.008771959870030759 0.008770769821453998 0.008769579772877236
          0.008917250865392292 0.008780585348049784 0.008911841141782346 0.008777119186487605 0.008906431418172399 0.008773653024925427
          0.00904453011646891 0.009041045057802961 0.009037559999137013 0.008531378649978213 0.008656365956741555 0.008532751399654225
          0.008656103513131076 0.008534124149330236 0.008655841069520599 0.008982256261413846 0.008980662549925418 0.008979068838436988
          0.008732775983015228 0.00873288367898303 0.008732991374950833 0.00859657061783306 0.00859617248070238 0.0085957743435717
          0.007738685489118301 0.007838897355835203 0.007747327083000783 0.007846701851867699 0.007755968676883267 0.007854506347900195
          0.00843668937517566 0.008440037512844622 0.008443385650513585 0.008460975141742795 0.008462630786051164 0.008464286430359534
        </DataArray>
        <DataArray type="Float64" Name="pe22" format="ascii" RangeMin="-0.005907947709113523" RangeMax="-0.0014625664732048054">
          -0.0033568087702730625 -0.00330494507938016 -0.0029728776074845133 -0.0030941245596955557 -0.003356352765287508 -0.003304460386032584
          -0.002971923788334657 -0.003093548948140617 -0.003355896760301953 -0.0033039756926850077 -0.002970969969184801 -0.0030929733365856783
          -0.00444551839529276 -0.004267753337815503 -0.004288271886078134 -0.0044721024021786146 -0.004445184171914399 -0.004268142142204525
          -0.004288534033668352 -0.004471895391285042 -0.004444849948536038 -0.004268530946593546 -0.00428879618125857 -0.00447168838039147
          -0.0023327081232525156 -0.002659423397173042 -0.0023321106432493684 -0.0026589178604022714 -0.002331513163246221 -0.002658412323631501
          -0.0051843454109738 -0.005268278983314743 -0.00488657843658085 -0.004896761913501706 -0.005186738692382377 -0.00527013227185021
          -0.004886700337993683 -0.004898856454826428 -0.005189131973790954 -0.005271985560385677 -0.004886822239406515 -0.0049009509961511506
          -0.004354997028004442 -0.004558323680076833 -0.004355212160689046 -0.0045580206031836535 -0.0043554272933736485 -0.004557717526290473
          -0.003546995124579634 -0.0034337168918026095 -0.003439657640464841 -0.0035338015021727396 -0.0035489821795559187 -0.0034361890348104528
          -0.0034420418310362627 -0.0035349636461709457 -0.0035509692345322016 -0.003438661177818296 -0.003444426021607684 -0.003536125790169152
          -0.004720106443978501 -0.005087545595668849 -0.004872177693352454 -0.004572927394932299 -0.004721716666953278 -0.005089312682016348
          -0.004874394631558591 -0.004574834417518614 -0.004723326889928056 -0.0050910797683638475 -0.004876611569764729 -0.00457674144010493
          -0.003212316484868674 -0.0034220691847991172 -0.0032121450500879733 -0.0034215850371104193 -0.003211973615307272 -0.00342110088942172
          -0.0034375428160880505 -0.003288840144949003 -0.00400477829930227 -0.004061821349458591 -0.00343858663024787 -0.003287434628698587
          -0.004004945714518504 -0.004062638238036468 -0.0034396304444076885 -0.003286029112448171 -0.004005113129734737 -0.004063455126614344
          -0.0038645799825988555 -0.003897939837145827 -0.004134667215346631 -0.003865715266708071 -0.003898488624719829 -0.004134496883549345
          -0.0038668505508172874 -0.0038990374122938316 -0.00413432655175206 -0.005451377294586545 -0.005727865112604422 -0.005635824336161072
          -0.005421675630379635 -0.0054533222782892216 -0.005730192356461339 -0.0056378628269088595 -0.005423301129752629 -0.005455267261991897
          -0.005732519600318257 -0.005639901317656646 -0.005424926629125622 -0.004086264440240525 -0.0043266870498763 -0.004123529452821131
          -0.003990478320004399 -0.004087632683319336 -0.004329400260627314 -0.004125472714297737 -0.003992072122804423 -0.004089000926398148
          -0.004332113471378326 -0.004127415975774344 -0.003993665925604448 -0.005054041888728234 -0.00505521776781404 -0.005056393646899846
          -0.0036230786256654193 -0.0035523837501438464 -0.0034250656103937223 -0.0036255687701639908 -0.003553564930814396 -0.003427464223347379
          -0.003628058914662561 -0.0035547461114849447 -0.0034298628363010355 -0.004143008366704951 -0.004479687334002473 -0.00414408369495532
          -0.004482071546104298 -0.004145159023205689 -0.004484455758206125 -0.005463049816340631 -0.0052690736135396835 -0.005424600651925026
          -0.005653413680805823 -0.00546591574652088 -0.005271163504236857 -0.0054273057628168 -0.005656480513230354 -0.005468781676701128
          -0.005273253394934032 -0.005430010873708575 -0.005659547345654886 -0.0025634079892647194 -0.0028063766907230267 -0.0022049177403407443
          -0.0018050135586715852 -0.0025605482465076244 -0.002806290864051534 -0.0022022318887986118 -0.0018030801996069153 -0.0025576885037505302
          -0.002806205037380041 -0.00219954603725648 -0.0018011468405422456 -0.004858267749496672 -0.004718137529199907 -0.004676929522118
          -0.00485753416573532 -0.004717602825983716 -0.00467613058971213 -0.004856800581973967 -0.004717068122767527 -0.004675331657306262
          -0.0014642484653426284 -0.002452024790639016 -0.001463407469273717 -0.002446365726518181 -0.0014625664732048054 -0.0024407066623973457
          -0.004138837112592288 -0.004180381555595483 -0.0044712538582695254 -0.004595974863986383 -0.004138209582665128 -0.004181245136448343
          -0.004473605958057649 -0.004597079232507404 -0.004137582052737969 -0.004182108717301203 -0.004475958057845774 -0.004598183601028425
          -0.005055192169119138 -0.004883253782807144 -0.0050559116009177675 -0.00488320831432695 -0.005056631032716396 -0.004883162845846756
          -0.003150699881025191 -0.003334266850649566 -0.0031507225407774618 -0.003335826158854867 -0.0031507452005297334 -0.003337385467060168
          -0.0047402900872506575 -0.0043812323645113305 -0.00474113841771516 -0.004380539473066158 -0.0047419867481796624 -0.004379846581620986
          -0.003466865246301059 -0.003297325555116098 -0.003268681049529378 -0.003498520464290309 -0.0034661605873257794 -0.0032971676549117014
          -0.0032683797132845214 -0.003497822061176539 -0.0034654559283504994 -0.003297009754707305 -0.003268078377039666 -0.003497123658062769
          -0.0033747252687267976 -0.003197616410270329 -0.0033750197918786832 -0.0031999936791076763 -0.0033753143150305693 -0.003202370947945023
          -0.0029351685814979715 -0.002934049623533927 -0.0029329306655698816 -0.003863310524649409 -0.003823923354840956 -0.0038637576649574257
          -0.003823602297190706 -0.003864204805265442 -0.0038232812395404547 -0.0036413164278854765 -0.0036477436024014848 -0.003564241958709412
          -0.0036431024270677003 -0.00365037374090589 -0.003566496369940899 -0.0036448884262499266 -0.003653003879410297 -0.0035687507811723866
          -0.0031697437493617728 -0.003307697920878116 -0.0026991673770013873 -0.003168819764180411 -0.003307417916161305 -0.0026970076967048626
          -0.003167895778999049 -0.003307137911444494 -0.002694848016408339 -0.0032650556736276174 -0.0032685487835470207 -0.0032720418934664235
          -0.003233276108614006 -0.003229723813617782 -0.003226171518621558 -0.0046621732577446055 -0.004715271043304553 -0.004663664262171818
          -0.004716673686664741 -0.00466515526659903 -0.004718076330024928 -0.0034482291964448445 -0.0034487341496772183 -0.003449239102909593
          -0.003205882739069552 -0.0034094147780574964 -0.0036525027933502407 -0.003206435429566262 -0.0034094768019540607 -0.003652330275921004
          -0.0032069881200629717 -0.0034095388258506246 -0.0036521577584917664 -0.004887879315696958 -0.005050311406894419 -0.004890307829166433
          -0.005052751194429436 -0.004892736342635908 -0.005055190981964453 -0.002265278474168759 -0.0020082682467768447 -0.002018001419715577
          -0.0023502770954749656 -0.002264228616016473 -0.0020069612575090105 -0.0020166366134009546 -0.002349056989124552 -0.0022631787578641883
          -0.002005654268241176 -0.0020152718070863317 -0.0023478368827741392 -0.003205344576823968 -0.0027843916866824494 -0.002868848369461915
          -0.0032653276729781924 -0.003205906381240538 -0.0027838255920944925 -0.002867937308814429 -0.0032652548412824955 -0.0032064681856571065
          -0.0027832594975065357 -0.0028670262481669427 -0.0032651820095867994 -0.00450186773448598 -0.004258091014855946 -0.004526393590149305
          -0.004502209300398584 -0.004258780987758532 -0.004527866155049778 -0.004502550866311187 -0.004259470960661119 -0.004529338719950252
          -0.003663965790874721 -0.0036650057976674037 -0.0036660458044600872 -0.00347923811869897 -0.0034807217054834277 -0.003482205292267887
          -0.0017769579038605615 -0.0016675915386139522 -0.0017763135347214866 -0.0016669122901913718 -0.0017756691655824116 -0.0016662330417687912
          -0.0023934062756433816 -0.0027208522047245946 -0.002391724427012844 -0.0027204084026252458 -0.002390042578382306 -0.0027199646005258973
          -0.0035880525917397553 -0.003587588962076287 -0.0035871253324128195 -0.0036891885969151323 -0.003912889614126975 -0.0038951340277990944
          -0.0036089828988233237 -0.0036893500554310865 -0.003913437536721101 -0.0038955876550670065 -0.0036094857177261653 -0.0036895115139470407
          -0.003913985459315227 -0.003896041282334919 -0.0036099885366290066 -0.004182196236672057 -0.004182960139796058 -0.004183724042920058
          -0.003650307216916301 -0.0036500021176591904 -0.0036496970184020797 -0.0037540030183196246 -0.00342246925414649 -0.0037535293384780427
          -0.003422453833801285 -0.0037530556586364613 -0.00342243841345608 -0.0029919498560064843 -0.0029928219490258216 -0.0029936940420451585
          -0.0032895801679569906 -0.003560273813040362 -0.0032893188291230314 -0.0035601856586422783 -0.003289057490289073 -0.0035600975042441945
          -0.002936752104668837 -0.0029387407327658445 -0.0029407293608628513 -0.003722328355461474 -0.003763789154590978 -0.0037216049275840346
          -0.003763104994829055 -0.003720881499706595 -0.0037624208350671307 -0.0036888635710530895 -0.003688197579777171 -0.0036875315885012533
          -0.003588851110025507 -0.0035900331803889497 -0.0035912152507523924 -0.003838070938986011 -0.0038379477201943256 -0.00383782450140264
          -0.0027218342946832737 -0.002964211607774348 -0.0027223268050643543 -0.002966820203245351 -0.0027228193154454354 -0.0029694287987163544
          -0.004037098608056372 -0.004036585310350215 -0.004036072012644057 -0.004539890842710992 -0.004508355447762999 -0.0045405995434647725
          -0.004508517539358852 -0.004541308244218554 -0.004508679630954704 -0.005075060145057557 -0.005317428870433679 -0.005096769643265906
          -0.005076680990657032 -0.0053190052067882704 -0.00509840472787887 -0.005078301836256506 -0.005320581543142863 -0.005100039812491834
          -0.0058291524677939 -0.005803195403627164 -0.0056953230445574415 -0.005832245366055172 -0.00580680387547056 -0.005698460364504509
          -0.0058353382643164435 -0.005810412347313956 -0.0057015976844515745 -0.0027211102743546537 -0.0031377440490384565 -0.0027216906863337074
          -0.003140852680851792 -0.0027222710983127616 -0.003143961312665128 -0.004619502361671879 -0.0045266399280079585 -0.004503353931724473
          -0.004620077688559512 -0.004526643780968438 -0.004503153907865693 -0.004620653015447144 -0.004526647633928918 -0.004502953884006914
          -0.004685661798561016 -0.004580838352299235 -0.00468547004907857 -0.004580667632587124 -0.004685278299596125 -0.004580496912875013
          -0.0030054404989685317 -0.0030046629747221987 -0.003003885450475866 -0.005850517694671597 -0.005900984024153194 -0.005854550912403217
          -0.005904465866633359 -0.005858584130134837 -0.005907947709113523 -0.005756715000169111 -0.005455882359017062 -0.005759487476225623
          -0.005458285308141057 -0.005762259952282136 -0.005460688257265053 -0.005104485731788913 -0.005308428499391251 -0.005107122567607474
          -0.005311291661937905 -0.005109759403426034 -0.0053141548244845585 -0.004711370223526694 -0.0047139989130704964 -0.004716627602614301
          -0.005650166439644508 -0.00560026761137681 -0.005653524234105248 -0.00560353503038716 -0.00565688202856599 -0.005606802449397508
          -0.005298724608735917 -0.00529959764006753 -0.005300470671399143 -0.004057997461199446 -0.004058166712949056 -0.004058335964698666
          -0.004883245213402533 -0.004880881726060773 -0.004878518238719013 -0.0039746760493041405 -0.003974433200724551 -0.003974190352144963
          -0.003985971828148034 -0.00398587667002142 -0.003985781511894804 -0.004517745330916797 -0.004473361001803643 -0.004518309138333353
          -0.004470585585373698 -0.004518872945749909 -0.004467810168943754 -0.004110900548061245 -0.004036328934965803 -0.004111033831253178
          -0.004036473121473139 -0.004111167114445112 -0.0040366173079804755 -0.0030599401257335474 -0.003059449421105818 -0.0030589587164780866
          -0.0031330792336789655 -0.003133406590515296 -0.0031337339473516256 -0.004000907156132879 -0.00400118111634195 -0.004001455076551022
          -0.0038233228910526046 -0.0038248845904203773 -0.00382644628978815 -0.002581415121346832 -0.002580728901413311 -0.0025800426814797913
          -0.0023098089790807744 -0.0023087056370676476 -0.0023076022950545214 -0.004872853531552101 -0.004548344412718622 -0.004873608462356912
          -0.004548247793309509 -0.004874363393161722 -0.004548151173900395 -0.005177251502942463 -0.005179354147411634 -0.005181456791880806
          -0.0054611522260746516 -0.005234038963682294 -0.005463300063232623 -0.005236075804096984 -0.005465447900390597 -0.005238112644511675
          -0.003530493971374283 -0.003809137060456239 -0.0034529422451023213 -0.003531538254595144 -0.0038106853022552125 -0.003453421869753819
          -0.0035325825378160047 -0.0038122335440541858 -0.0034539014944053167 -0.0033704603296214847 -0.0033702318934360673 -0.0033700034572506504
          -0.005447622971904335 -0.0054503603250759146 -0.005453097678247493 -0.004267729928455745 -0.004277739795074503 -0.004268225140460239
          -0.004278054223570919 -0.004268720352464734 -0.004278368652067334 -0.005485513338900223 -0.0052244018655653954 -0.005488393837285448
          -0.005226236054628663 -0.005491274335670673 -0.0052280702436919325 -0.004957578357487712 -0.004957815465684766 -0.00495805257388182
          -0.005174835426565144 -0.004950642946667967 -0.0051763794575177624 -0.004950381093206416 -0.005177923488470381 -0.004950119239744866
          -0.0018813128751920076 -0.0021348258413219556 -0.0020461599857228897 -0.0017891247044602484 -0.001880834731096524 -0.0021329953984828842
          -0.0020438985740762017 -0.0017882540543765204 -0.00188035658700104 -0.0021311649556438137 -0.0020416371624295136 -0.0017873834042927928
          -0.002494176331591522 -0.0024922596606327444 -0.0024903429896739673 -0.0028057231329481464 -0.002805302381222001 -0.002804881629495855
          -0.003775613506810593 -0.0038270265338344774 -0.0037761234945422367 -0.003827972710269481 -0.0037766334822738803 -0.0038289188867044834
          -0.004270197290269438 -0.0042701877078752705 -0.004270178125481104 -0.004678166033782177 -0.004576115751767388 -0.004679287333140082
          -0.004577146355603145 -0.0046804086324979885 -0.0045781769594389005 -0.003017624514827579 -0.0024712465530502795 -0.0030169532012949913
          -0.002467859580237713 -0.0030162818877624035 -0.002464472607425147 -0.003728357624481364 -0.003729187951822379 -0.0037300182791633945
          -0.004698028000024737 -0.0047860425243236296 -0.004697704589722176 -0.004785113280877398 -0.004697381179419615 -0.004784184037431167
          -0.0027151984609505037 -0.0028660580963382294 -0.002659379335890834 -0.0024396108711013014 -0.0027129563058885748 -0.002864930557911373
          -0.00265775208825669 -0.0024368235347032355 -0.0027107141508266467 -0.0028638030194845163 -0.002656124840622546 -0.0024340361983051697
          -0.0037305814374631236 -0.003730824851239151 -0.003731068265015178 -0.0021289716429958396 -0.0018328696333522743 -0.0021265206743671617
          -0.0018313111222510346 -0.0021240697057384847 -0.001829752611149795 -0.004132708113202798 -0.004620250457809119 -0.004133801273542403
          -0.004621650779847441 -0.004134894433882006 -0.004623051101885762 -0.00462244308204171 -0.004624423273255876 -0.0046264034644700434
          -0.004366686140925204 -0.0043667244178368 -0.004366762694748397 -0.0036841641532191095 -0.0036845005419469377 -0.003684836930674765
          -0.002375590867370483 -0.00237212910738118 -0.002368667347391877 -0.0016769430180681795 -0.0016757364321382264 -0.0016745298462082735
          -0.003592240135728823 -0.0041676278253099976 -0.0035931536300587135 -0.004168759225376848 -0.0035940671243886043 -0.004169890625443698
          -0.0020456297118712583 -0.0020436851319017616 -0.0020417405519322644 -0.0023426861614919033 -0.002340990540043372 -0.0023392949185948395
          -0.004521203654413773 -0.004521939224641437 -0.004522674794869101 -0.005626163809562791 -0.005628947743166734 -0.005631731676770675
          -0.0016413187080929529 -0.0016401883480450998 -0.0016390579879972471 -0.004482392835092101 -0.0044824356222870005 -0.004482478409481898
          -0.005094676640752129 -0.005088714306343846 -0.004623285278295862 -0.005097404494482477 -0.00509090236466428 -0.0046257030154571695
          -0.005100132348212825 -0.005093090422984714 -0.004628120752618478 -0.002455101200104725 -0.002452738943692731 -0.0024503766872807373
          -0.0046183459767430955 -0.004515410572118971 -0.004619303643737933 -0.004515971755251621 -0.004620261310732771 -0.004516532938384271
          -0.0027013416430049265 -0.002699017750327169 -0.002696693857649412 -0.0030700942945510856 -0.003069525145753261 -0.003068955996955437
          -0.003984840834941667 -0.003984467831832766 -0.003984094828723866 -0.0017765678557159356 -0.0017754498697950868 -0.0017743318838742386
          -0.0026799508105528154 -0.0030615934049483488 -0.0026793031742786896 -0.003061165633508997 -0.002678655538004564 -0.003060737862069644
          -0.0030082831115250588 -0.003007161304421318 -0.0030060394973175763 -0.0014793508242772278 -0.0014777098616727134 -0.0014760688990681993
          -0.0046414243364685985 -0.00464457772377874 -0.004647731111088881 -0.004725610641332248 -0.004726804804813726 -0.004727998968295207
          -0.005712954566438399 -0.00571559405797721 -0.00571823354951602 -0.004316261683127448 -0.004315806503963536 -0.004315351324799626
          -0.004465511470070171 -0.004436054132559178 -0.0044663119976406 -0.004436233732921956 -0.004467112525211029 -0.004436413333284735
          -0.004756368796858929 -0.004756475688725092 -0.004756582580591256 -0.0044436918527413 -0.004456742592049118 -0.004445005735986567
          -0.004457461625377914 -0.004446319619231833 -0.004458180658706711 -0.004560460023554733 -0.004560731916442112 -0.00456100380932949
          -0.0044686649519440225 -0.004468967202980939 -0.004469269454017855 -0.004497451536076634 -0.004497193931323983 -0.0044969363265713325
          -0.004130393366336232 -0.004138861103332151 -0.0041304066913740636 -0.004140315354496377 -0.0041304200164118945 -0.004141769605660603
          -0.004427998077487171 -0.0044286396884754935 -0.004429281299463817 -0.004447036825232609 -0.004448685417451966 -0.004450334009671323
        </DataArray>
        <DataArray type="Float64" Name="pe33" format="ascii" RangeMin="-0.005576746329484968" RangeMax="-0.0014106017804322991">
          -0.003395362609967973 -0.0033534962127063214 -0.0030065207877954673 -0.003108014802340883 -0.00339518750714761 -0.003353125228628013
          -0.0030068306867705725 -0.0031082561451626013 -0.0033950124043272472 -0.0033527542445497046 -0.0030071405857456774 -0.0031084974879843196
          -0.004239158591926526 -0.00406856695141326 -0.004003364559993538 -0.004147382990344343 -0.004237372419259223 -0.00406828750529875
          -0.004004022317493436 -0.004146972062849874 -0.004235586246591922 -0.0040680080591842405 -0.004004680074993333 -0.0041465611353554074
          -0.0023905741938694603 -0.0027302989163057187 -0.0023902454803232673 -0.0027306611053865976 -0.0023899167667770747 -0.0027310232944674764
          -0.0046046875570392425 -0.0046464478468055195 -0.004348376023850782 -0.0043976056426375375 -0.004601581442517087 -0.004642950168421837
          -0.004345875736748041 -0.004392065090986563 -0.004598475327994931 -0.004639452490038155 -0.004343375449645299 -0.004386524539335587
          -0.0039776948923801346 -0.004118787088723501 -0.003980000712103619 -0.004120440654646608 -0.003982306531827103 -0.004122094220569716
          -0.0032395279111111083 -0.00305013018433423 -0.003117789976005522 -0.0033629610711504573 -0.0032361732211796867 -0.0030505204655488813
          -0.003112254410331864 -0.003352076619622855 -0.003232818531248265 -0.003050910746763533 -0.003106718844658206 -0.0033411921680952523
          -0.004769724682104645 -0.005034128681363032 -0.0048128145697723616 -0.004565160804488593 -0.004765736985870454 -0.005026055483162694
          -0.00480631003209732 -0.0045618094591867026 -0.004761749289636263 -0.005017982284962356 -0.004799805494422278 -0.004558458113884812
          -0.0032088270577147015 -0.0034245597752350877 -0.003209428658070887 -0.003424958248150577 -0.0032100302584270727 -0.003425356721066066
          -0.0038440049182069955 -0.0036884126816211144 -0.004317271698046441 -0.004349322526965807 -0.0038357853973106674 -0.0036829233185354496
          -0.00431209543792297 -0.004344569852407553 -0.00382756587641434 -0.0036774339554497843 -0.004306919177799498 -0.0043398171778493
          -0.003937459101555364 -0.0039716830395118 -0.004256988420909638 -0.003934405820106892 -0.0039693619955231 -0.004256019161597482
          -0.003931352538658421 -0.003967040951534399 -0.004255049902285326 -0.0054849091512629376 -0.005549430142399985 -0.005468672293196449
          -0.005394508661389543 -0.005473644785788101 -0.00553949685234393 -0.005457946451284616 -0.0053831433342608525 -0.005462380420313266
          -0.0055295635622878755 -0.005447220609372782 -0.005371778007132164 -0.004000810909573302 -0.004152100552926126 -0.0038473333635204244
          -0.003792345006430966 -0.003997174511882789 -0.004148296719304096 -0.003845533125974412 -0.0037899900741238004 -0.003993538114192275
          -0.004144492885682069 -0.003843732888428398 -0.003787635141816635 -0.004490857163130218 -0.004489458624044573 -0.004488060084958927
          -0.003275986829017912 -0.003147504065752002 -0.0029952484651798914 -0.003274318639146786 -0.003148048061885319 -0.002995853218134886
          -0.0032726504492756603 -0.003148592058018636 -0.0029964579710898814 -0.004161813953764624 -0.004385628792462462 -0.004157187025170705
          -0.0043816115435790694 -0.004152560096576786 -0.004377594294695677 -0.004831923892587287 -0.004659324816842971 -0.004837202582481721
          -0.0050597997152638 -0.004830092033056935 -0.004659629709692898 -0.004836439820777515 -0.005056444235950202 -0.004828260173526583
          -0.004659934602542824 -0.00483567705907331 -0.0050530887566366065 -0.002951353904708307 -0.003247663479090836 -0.0026094490723674603
          -0.0020885577761241745 -0.0029452120588441474 -0.0032372724199614864 -0.0026030528968315108 -0.0020903867036565016 -0.0029390702129799876
          -0.003226881360832136 -0.002596656721295561 -0.0020922156311888288 -0.00427406576767771 -0.004233514927872179 -0.004128280984476259
          -0.004278247327221865 -0.004235176297995085 -0.004133075178656993 -0.004282428886766019 -0.004236837668117991 -0.004137869372837728
          -0.0016182192722314394 -0.0027687541928220175 -0.0016272417195826918 -0.00276634392917774 -0.001636264166933944 -0.0027639336655334626
          -0.0038905966260399877 -0.003895113890029014 -0.004292004680046359 -0.004407284567214732 -0.0038872516958852756 -0.003892291998312608
          -0.004285799889394033 -0.004398825949269533 -0.0038839067657305652 -0.0038894701065962014 -0.004279595098741706 -0.0043903673313243335
          -0.00445976224057907 -0.004356021738158029 -0.004462275307918885 -0.004356792003243408 -0.0044647883752587 -0.004357562268328787
          -0.0032684724571276904 -0.0033595956244958356 -0.0032619273368668777 -0.0033504668249264577 -0.0032553822166060654 -0.0033413380253570794
          -0.004464623851173496 -0.00406466416892748 -0.0044581942448504545 -0.004063867204628648 -0.004451764638527414 -0.004063070240329816
          -0.0034271605460727485 -0.0032803834934419887 -0.003224014601248258 -0.0034113023799767377 -0.0034290048765283124 -0.0032819267217243276
          -0.003226184450335869 -0.003414332466183929 -0.003430849206983875 -0.0032834699500066673 -0.0032283542994234805 -0.0034173625523911204
          -0.0029624051292387885 -0.002805631922046403 -0.0029637931120376345 -0.0028031198116866885 -0.0029651810948364806 -0.002800607701326974
          -0.0031404712228188868 -0.0031346460895786687 -0.0031288209563384503 -0.003510413213957485 -0.003467645711508313 -0.0035118848894230073
          -0.0034689131329093473 -0.003513356564888529 -0.003470180554310382 -0.003531802982228504 -0.0033974532328108226 -0.003410793602898237
          -0.0035286356928029257 -0.0033938101689386427 -0.0034020456318947867 -0.0035254684033773466 -0.0033901671050664637 -0.003393297660891336
          -0.003460521004916465 -0.003493674205510941 -0.0029884959708060075 -0.0034551605342873623 -0.003490586050344564 -0.002982700228333299
          -0.00344980006365826 -0.003487497895178187 -0.0029769044858605903 -0.0028251571646327727 -0.002826971260954273 -0.0028287853572757727
          -0.0035866228297968946 -0.003583217314088948 -0.003579811798381002 -0.004747037434214017 -0.004796136797458128 -0.004740607579907199
          -0.00478866907010809 -0.004734177725600379 -0.0047812013427580525 -0.003516663019352974 -0.0035143335737175038 -0.0035120041280820337
          -0.002965893411720796 -0.0030542725211841247 -0.003406033241373053 -0.0029684547815088283 -0.0030582970593653765 -0.0034051663829111995
          -0.002971016151296861 -0.003062321597546629 -0.0034042995244493463 -0.0047761970632833346 -0.004849409170260933 -0.004764271825617598
          -0.004837821062512107 -0.004752346587951862 -0.004826232954763282 -0.00233014813206008 -0.002053080117586903 -0.0020570121481166288
          -0.002434674050746311 -0.0023297059038358595 -0.0020541446553043485 -0.0020592460475810552 -0.0024348107697149657 -0.0023292636756116394
          -0.0020552091930217935 -0.0020614799470454817 -0.002434947488683621 -0.003253967297429279 -0.0028607872986511802 -0.0029238594965408063
          -0.003306399048252199 -0.003253058045479481 -0.002861195661572803 -0.0029241455168579887 -0.003305507253222071 -0.003252148793529682
          -0.002861604024494427 -0.00292443153717517 -0.0033046154581919435 -0.0046008247285167034 -0.004349255892542274 -0.004588011519168842
          -0.0045975995238427495 -0.0043465636294106064 -0.004582356841814767 -0.004594374319168796 -0.004343871366278939 -0.004576702164460693
          -0.0033245805833227366 -0.00332522818990268 -0.0033258757964826236 -0.0033957271569730265 -0.003383694080044485 -0.0033716610031159435
          -0.0018039998746893651 -0.0016499372969190095 -0.0018080409605231787 -0.0016553734152041071 -0.0018120820463569925 -0.0016608095334892047
          -0.002468688700742073 -0.0028024995866272285 -0.0024701111944865862 -0.0028032297240279686 -0.002471533688231099 -0.002803959861428708
          -0.0031917288549081282 -0.003195225968904908 -0.003198723082901687 -0.0037301003657890255 -0.003983539464754496 -0.003980731167450858
          -0.003646641619889856 -0.0037315410088725907 -0.0039840744560002425 -0.003979862630667345 -0.0036461896898701985 -0.003732981651956157
          -0.0039846094472459894 -0.003978994093883833 -0.00364573775985054 -0.004223823891063098 -0.004222076603368024 -0.004220329315672951
          -0.0036608701416996786 -0.003662985630032136 -0.003665101118364593 -0.0035911816317823423 -0.003299779135788901 -0.0035910150418224196
          -0.0032986207859187567 -0.0035908484518624964 -0.0032974624360486114 -0.0026573611533257844 -0.00266224644359654 -0.0026671317338672965
          -0.003218031830922923 -0.003445019876203257 -0.0032190015765230454 -0.003447320157702178 -0.0032199713221231665 -0.003449620439201098
          -0.002631697971281708 -0.002630287176188169 -0.0026288763810946307 -0.0036227031514753935 -0.003607061829079339 -0.003625169868655933
          -0.0036101479738759414 -0.0036276365858364723 -0.0036132341186725448 -0.0036423291439032683 -0.0036444487047284516 -0.0036465682655536353
          -0.003625941577555348 -0.0036237040021833483 -0.0036214664268113483 -0.00363713681624233 -0.003640662527858341 -0.0036441882394743527
          -0.0023711782760201744 -0.002576254908423101 -0.0023715377319583827 -0.0025747480454068315 -0.0023718971878965906 -0.0025732411823905614
          -0.0037735264606370235 -0.003776237093348997 -0.0037789477260609704 -0.004211896438511996 -0.004238776521371879 -0.0042083165984468695
          -0.0042359612925968165 -0.004204736758381742 -0.004233146063821754 -0.005146368560643898 -0.005246604692659402 -0.005094533966079936
          -0.005138395425249004 -0.005236037361511415 -0.005087095914914245 -0.00513042228985411 -0.00522547003036343 -0.005079657863748553
          -0.005430577589684366 -0.005211179389572463 -0.005239946604021796 -0.005422683995370528 -0.005205573386509588 -0.005233436166226848
          -0.005414790401056692 -0.0051999673834467125 -0.005226925728431901 -0.002276980956408451 -0.002666334221898577 -0.0022809373473043097
          -0.0026687499184681832 -0.002284893738200168 -0.0026711656150377886 -0.004557205432526553 -0.004474053355542135 -0.004350420416994665
          -0.004554237660151722 -0.004469982016719143 -0.004348319456044235 -0.004551269887776892 -0.004465910677896152 -0.004346218495093805
          -0.0042858154203109025 -0.00423062181432443 -0.0042830658020115075 -0.004229237392004661 -0.0042803161837121125 -0.00422785296968489
          -0.003077811084304487 -0.0030785300635114273 -0.003079249042718368 -0.005258954486185653 -0.005468807325400589 -0.005252456964807535
          -0.005461059353542021 -0.005245959443429418 -0.005453311381683453 -0.005576746329484968 -0.005523880632586747 -0.00556697467796564
          -0.005512521098979973 -0.005557203026446313 -0.005501161565373199 -0.005030755833355764 -0.0051383805658247435 -0.005017996624510206
          -0.005124791113723602 -0.005005237415664648 -0.005111201661622459 -0.004591426414588352 -0.0045844916589522855 -0.004577556903316217
          -0.004965445860673174 -0.004936704390662789 -0.004960600437179112 -0.004932819734443936 -0.0049557550136850505 -0.004928935078225084
          -0.004638646689726682 -0.0046352775612262245 -0.004631908432725767 -0.0040559563717900635 -0.0040573831656219965 -0.004058809959453929
          -0.004272018984503632 -0.004272486057625474 -0.004272953130747315 -0.003929746456503829 -0.003933008122176493 -0.003936269787849157
          -0.003880945632095606 -0.0038834842112388398 -0.003886022790382073 -0.004003741370863166 -0.0038758726002801223 -0.004005104062544188
          -0.0038820030562268454 -0.00400646675422521 -0.0038881335121735694 -0.0038135323813710794 -0.0038095252194948644 -0.0038168431615385693
          -0.0038116577824377253 -0.0038201539417060592 -0.0038137903453805857 -0.0029294790087145742 -0.002930713652651791 -0.002931948296589008
          -0.0031933248225993463 -0.0031933264846856404 -0.0031933281467719345 -0.0038432502404805884 -0.003845048386455879 -0.003846846532431169
          -0.0035528583456366303 -0.003552227312080958 -0.003551596278525286 -0.0022125280047417552 -0.002221672103438957 -0.002230816202136159
          -0.001952497269127059 -0.0019577770308883795 -0.0019630567926497006 -0.004450753504003388 -0.004119123963201593 -0.00444993440982163
          -0.004122568039763548 -0.004449115315639873 -0.004126012116325503 -0.004802739904281106 -0.004797203664382385 -0.004791667424483665
          -0.005317440682009954 -0.005171628215389249 -0.005305104896119352 -0.005159265368904926 -0.005292769110228752 -0.005146902522420604
          -0.00358372977668139 -0.0038700625159625583 -0.0035078427442459003 -0.0035814491766957665 -0.0038673138861270067 -0.0035068801255909708
          -0.003579168576710143 -0.003864565256291455 -0.0035059175069360416 -0.003415458739607101 -0.003416380118931134 -0.0034173014982551674
          -0.005108761962462101 -0.005100030884196402 -0.005091299805930703 -0.004137941610912178 -0.004210863811478819 -0.004137586574843753
          -0.0042103882873423745 -0.004137231538775329 -0.004209912763205931 -0.004994558901625727 -0.004703709193167687 -0.004990799027142365
          -0.004703742234298692 -0.004987039152659006 -0.0047037752754296985 -0.004399572222107989 -0.004403769303144127 -0.004407966384180265
          -0.004585915941141251 -0.004337063589750141 -0.0045881941537414695 -0.004342655261750356 -0.004590472366341689 -0.004348246933750572
          -0.0017011109043101797 -0.0018811354175202303 -0.0019398788144298058 -0.001718406935412365 -0.0017095058662879889 -0.0018934761451039426
          -0.0019492693958137893 -0.0017272663784659076 -0.001717900828265798 -0.0019058168726876555 -0.0019586599771977734 -0.0017361258215194506
          -0.002533793825522944 -0.002535947634121881 -0.0025381014427208184 -0.0025336901120880306 -0.0025416559590371035 -0.0025496218059861764
          -0.0037858053534309947 -0.0037225296250443297 -0.003783057105151219 -0.0037201777715045337 -0.003780308856871444 -0.0037178259179647386
          -0.003899124735256816 -0.00390373622184476 -0.0039083477084327035 -0.004677798318196386 -0.004601849982868404 -0.004673111418495122
          -0.004594449278911111 -0.004668424518793858 -0.004587048574953817 -0.0033986191676879324 -0.0028283321043759534 -0.003389826787932798
          -0.0028221545043513744 -0.0033810344081776633 -0.0028159769043267953 -0.00376167122042009 -0.0037613999818149222 -0.003761128743209755
          -0.0041481125846155155 -0.00417336636942072 -0.004154547987422555 -0.004180389819524112 -0.0041609833902295935 -0.004187413269627505
          -0.0026636972247898586 -0.0028484668255454705 -0.0026693640551322976 -0.0024031390585277606 -0.0026660971336129814 -0.0028501391945574893
          -0.0026713924321933487 -0.0024063876798088558 -0.0026684970424361056 -0.002851811563569507 -0.002673420809254399 -0.002409636301089951
          -0.003855452555401889 -0.003851459612922462 -0.003847466670443035 -0.002129755394771211 -0.0018247772789655684 -0.0021342705107911413
          -0.0018317754128421208 -0.0021387856268110716 -0.0018387735467186733 -0.004343075242526236 -0.004767449371670871 -0.0043382591660038675
          -0.004763297201485324 -0.004333443089481499 -0.004759145031299775 -0.0048145760956689486 -0.0048081573822288766 -0.0048017386687888046
          -0.004343972155117055 -0.004341132606401138 -0.0043382930576852195 -0.0039099339274542766 -0.003903857218155919 -0.0038977805088575616
          -0.002220680720877277 -0.002228643504480043 -0.0022366062880828093 -0.001514263150490217 -0.0015209092915875477 -0.0015275554326848783
          -0.003913313459607726 -0.004282527441506815 -0.0039052817668504183 -0.004277392683709855 -0.0038972500740931115 -0.004272257925912893
          -0.0020871353183940485 -0.0020904294743509366 -0.002093723630307824 -0.0019593821466928666 -0.0019691154521691324 -0.001978848757645398
          -0.004553958353092673 -0.004547995793022898 -0.0045420332329531255 -0.0053352082754317045 -0.005325373293115626 -0.005315538310799549
          -0.0015555858678090537 -0.0015627007646659965 -0.001569815661522939 -0.004012147644136237 -0.004017139523735717 -0.004022131403335198
          -0.005264723475522224 -0.005221325403238515 -0.004841910406564624 -0.00525475504581617 -0.005212142060279768 -0.004834117372495958
          -0.005244786616110117 -0.005202958717321021 -0.004826324338427293 -0.0021485079705552573 -0.0021614884340002273 -0.0021744688974451973
          -0.00465466131551741 -0.004523437940786509 -0.004646246326855117 -0.004516014964793661 -0.004637831338192823 -0.004508591988800812
          -0.002552867591756254 -0.0025578676575640333 -0.002562867723371812 -0.0030378333045383296 -0.0030393795304836085 -0.0030409257564288886
          -0.004290158828798097 -0.004284842318375177 -0.004279525807952257 -0.0017542887888805474 -0.0017604867270858298 -0.0017666846652911123
          -0.0027523332290665275 -0.003129345473449726 -0.002753239870529403 -0.003130250300708034 -0.002754146511992279 -0.0031311551279663416
          -0.002946319302992009 -0.0029476646395312405 -0.0029490099760704717 -0.0014106017804322991 -0.0014161857913965103 -0.0014217698023607217
          -0.004182065520446074 -0.004177507582778041 -0.004172949645110008 -0.004765592516259604 -0.004759034528964853 -0.004752476541670101
          -0.005455355469649502 -0.005445857338583583 -0.005436359207517665 -0.004455698186903311 -0.004454963317490459 -0.00445422844807761
          -0.00445173939532212 -0.004344531215490605 -0.004445529144141745 -0.004340885453565649 -0.004439318892961369 -0.0043372396916406914
          -0.0042881613196099795 -0.004284569369077869 -0.004280977418545757 -0.004087686797236913 -0.0041996233646924355 -0.004087745663667658
          -0.004198641887753161 -0.004087804530098403 -0.004197660410813887 -0.004421796237859111 -0.004419930633483304 -0.004418065029107498
          -0.0042641110310712065 -0.004263916476002092 -0.004263721920932978 -0.004099119081756424 -0.004098978549378397 -0.004098838017000369
          -0.003608292122782068 -0.00370003625250305 -0.003616920391626719 -0.0037063864973713194 -0.0036255486604713704 -0.0037127367422395904
          -0.0040086912976884876 -0.0040113978243691275 -0.004014104351049769 -0.004013938316510183 -0.004013945368599196 -0.004013952420688208
        </DataArray>
        <DataArray type="Float64" Name="disp_x" format="ascii" RangeMin="0.000008603395909871932" RangeMax="0.00008758560032777766">
          0.000060627113569500064 0.00006119457745788884 0.00005749306616080703 0.0000571051907250918 0.00006063303421376431 0.00006120198391928808
          0.00005750066777394735 0.00005711180902984472 0.00006065091310817596 0.00006122301773873528 0.00005752526778288545 0.00005713364525228284
          0.00007407726947521229 0.000068809475513332 0.00006577288866356187 0.00006870191092992693 0.00007407942075514948 0.0000688141104376377
          0.00006577615251337534 0.00006870399031112714 0.00007408627383988666 0.00006882866481547697 0.00006578608415532585 0.0000687107568638262
          0.00005921285936256456 0.00006222726410813975 0.000059220899833154195 0.00006223472658520952 0.00005924289650160653 0.00006225671311107313
          0.00006738181515601635 0.00006779051536674682 0.00007312035665056954 0.00007241786637587455 0.00006737749819955733 0.00006778337990197888
          0.00007311192050254658 0.00007241054614429078 0.00006736259097931453 0.00006776487820785211 0.00007308693443075598 0.0000723953068051903
          0.00006207645712234076 0.00006461675754903794 0.00006207876223971458 0.00006461874899998092 0.00006208520397777379 0.00006462337623917298
          0.000027665173453704203 0.000030835921303045984 0.000030251894997060132 0.0000260666389245478 0.000027660529596645505 0.00003082977799730675
          0.000030243224916119876 0.000026063190338690977 0.000027644028974806388 0.00003080880908803411 0.00003021601306725411 0.000026050678285240623
          0.000028245997587246528 0.00003364540864607079 0.00003390765282239528 0.000029180512738233475 0.00002825445223883065 0.000033652042427845175
          0.000033913858524694335 0.00002918797257040612 0.00002828209605737621 0.00003367498484311305 0.0000339360967905084 0.000029206769714387217
          0.0000567956536444257 0.00005979536025526723 0.00005680116482890887 0.000059800629493898634 0.00005681825799635604 0.00005981636650180917
          0.000017282695778708437 0.000016043978658337575 0.00002032515786308825 0.000021406225991059777 0.000017295205157266663 0.000016058754537604466
          0.000020338352487846265 0.00002141719688070364 0.000017335084357201504 0.00001610751019271706 0.000020376290909375673 0.000021447991185981937
          0.00007098921735829772 0.0000703227737168886 0.00007473548090640107 0.00007099667417520866 0.00007033006969796407 0.00007474300062328461
          0.00007101930918962238 0.00007035157435205319 0.00007475864674931332 0.00003588339758318452 0.000041730839453570094 0.00004040534671102375
          0.000035264885936770193 0.000035887557664119456 0.00004173026558684485 0.00004040602924904237 0.00003526992435817579 0.00003589868455006838
          0.000041728903492073045 0.000040407493326470794 0.00003528435411057266 0.00002786707758044469 0.00003210922169437955 0.00003339155398935062
          0.0000291961221653291 0.00002787349253636294 0.00003211429709349597 0.00003339452608745254 0.000029200355965918446 0.000027890532514303163
          0.000032129122433165863 0.000033404960916060874 0.000029209848567764105 0.00006729061625165294 0.00006728743189632266 0.00006727829085033652
          0.000029179155293631375 0.00003204738958454098 0.000032863563378847744 0.00002917601965882878 0.00003204510925035624 0.00003286017955440452
          0.00002916727717376866 0.00003203689232731812 0.00003285086280595456 0.00002612667098466175 0.00003055593138294952 0.000026134283654822257
          0.00003056237536385342 0.000026156741178186616 0.000030581470137139116 0.00006194664895410507 0.0000619292443891196 0.00005695286465728161
          0.00005621807035942599 0.00006194133898291805 0.00006192545745364105 0.00005694750570980646 0.00005621197791699698 0.00006192460876146394
          0.00006191309798470016 0.00005693159846234674 0.00005619371877200132 0.000012554418466978285 0.000013952585977468652 0.000011577142146297253
          0.000009854781003547988 0.000012574267582042195 0.000013971250166800978 0.000011599765953207004 0.000009879967206576392 0.000012629280443890201
          0.000014021963628769126 0.000011671032606945256 0.000009956725329055397 0.00006187677923758634 0.00006611873235118168 0.00006084644494919253
          0.00006187572943212753 0.00006611916671708417 0.00006084646680941965 0.0000618733666373709 0.00006612048268429188 0.000060848300929054405
          0.000008603395909871932 0.000011424493297680725 0.000008626849737637615 0.000011447264455075798 0.000008701319129095061 0.000011508103126039742
          0.00004431163946183043 0.000038199126093883705 0.000036895596705591505 0.00004181004426342034 0.00004431166687465394 0.000038201843593976
          0.000036899336311761216 0.000041810194524584016 0.000044311653394035644 0.00003821036944714116 0.00003691190380506751 0.00004181080601369533
          0.00006207174760371686 0.0000668916486076062 0.00006206916425039404 0.00006689077996402977 0.00006205933100999656 0.00006688706191196084
          0.000018623268012325923 0.00002103276104482479 0.00001863057935086032 0.00002103624575471149 0.000018649262342664116 0.000021046692325246094
          0.000046393100818058635 0.00004895661979367772 0.00004638943904629698 0.00004895365937599361 0.00004637665760142598 0.000048943559344900945
          0.00005845175474366518 0.00005654355397252094 0.00005446711647858258 0.000056122473021229874 0.000058456266723313755 0.0000565480919734718
          0.0000544704402808363 0.00005612534408439366 0.00005846943113133159 0.00005656202372462502 0.00005448136851315339 0.00005613500896834263
          0.00003598021599421331 0.00003661915220705068 0.00003597769370344037 0.00003661551998700294 0.00003596899508256635 0.00003660884878361124
          0.000016387664020273954 0.000016398886221614998 0.00001643263028806297 0.000034397588645348166 0.00003894141025008541 0.000034399164302606026
          0.000038943652046614215 0.00003440272950899482 0.000038949507472730277 0.000025175938190259624 0.0000275552335189183 0.000024811639835346628
          0.000025178351193895066 0.000027553770865904213 0.000024810764094662326 0.000025187450336961767 0.000027547312623032797 0.000024808797230375686
          0.00001699082517473134 0.000018956786789627826 0.000014497549265366675 0.000017004489971318772 0.000018967105040892955 0.000014512804794896204
          0.000017045426975085507 0.00001899759316442666 0.000014558999200017204 0.00003393501036302408 0.00003393070506229208 0.000033919526730555
          0.0000151218125177596 0.000015138085343491146 0.000015191708157361755 0.0000813400372847817 0.00008266799379559432 0.00008134528892000264
          0.00008267166737625759 0.00008135901309459978 0.00008268265793973097 0.00002140347516916834 0.00002141046484478633 0.000021432267207693635
          0.000043687100484907115 0.000039540791565035826 0.000043522421327188376 0.00004368975645989027 0.000039541599678702515 0.000043524820371347316
          0.000043697149911300426 0.00003954632619783893 0.00004353280977974004 0.00003992129786504893 0.00004443908073974132 0.00003992331161552518
          0.000044436205919533886 0.00003992927165846434 0.000044426938469058586 0.000057000651436798706 0.00005453123122638431 0.0000537633013597414
          0.00005643187375214764 0.00005700894649463713 0.00005454097699766987 0.0000537729417279602 0.00005644079139147059 0.00005703444678136179
          0.00005456989278930751 0.00005380446129475891 0.000056466777646672484 0.00006223359969012733 0.00005870943366755643 0.0000579889982571504
          0.00006164199826069133 0.00006224253688811707 0.00005871817977833557 0.00005799765061431152 0.00006165021958827872 0.00006226935505331938
          0.000058745778936575086 0.00005802610068319959 0.00006167361705538269 0.00007947543341900248 0.00007466348410796068 0.00007781556343400835
          0.0000794813264984996 0.00007467064588327578 0.0000778221552347612 0.00007950194293831846 0.00007469442741313598 0.0000778408779789246
          0.00003113345963210982 0.0000311321060985495 0.00003112708032928507 0.000022891854283128038 0.000022892932994963948 0.000022899059051464733
          0.00005341800959167499 0.00005132569050576685 0.00005342751466818519 0.000051333172722170406 0.00005345657408164822 0.00005135647521903729
          0.0000555206901762304 0.000059593284377644714 0.000055530084474690134 0.0000596020368960037 0.000055557308366245126 0.00005962651602891561
          0.000035242727128967076 0.000035242297283686545 0.00003524122794043172 0.0000660162828959965 0.00006941377845786099 0.00006966517081957087
          0.00006560490434712551 0.00006602333915714534 0.00006942202674520538 0.00006967342130619286 0.00006561281920653508 0.00006604572985026136
          0.00006944649750730895 0.00006969895246844963 0.00006563478505750589 0.00007234490091478107 0.0000723543687310197 0.00007237900898355456
          0.0000645794104432155 0.00006458542452021016 0.00006460057110389715 0.00004934146003954477 0.000047764989272754344 0.000049340815061261456
          0.00004776687933451034 0.000049337836975599164 0.00004777232398615833 0.00004056216647704289 0.00004056022409797633 0.00004055104499185363
          0.00005148350434616388 0.00005301641776809139 0.00005148575430552069 0.000053017628941375215 0.000051491252096868404 0.000053020044072448304
          0.00003924647132701319 0.00003924300176130116 0.000039229591195771245 0.00006156142467230463 0.00005897194638023509 0.00006156568925007299
          0.00005897511953807158 0.00006157770521565467 0.000058984092725304766 0.00006333844168066616 0.00006334371477938171 0.00006335817616917912
          0.00006607209282709158 0.00006608078738158707 0.00006610706388468347 0.00005572578037044581 0.000055727252113321644 0.00005573166772481894
          0.000040657455349672147 0.00003767721584539065 0.000040652505823954035 0.00003767337403751397 0.000040633255374194355 0.00003766599102332642
          0.000052219252974924526 0.00005221792416864149 0.000052213381105422695 0.0000764052694549081 0.00007576539496899161 0.00007640231167827091
          0.00007576519735166182 0.00007639367698778346 0.00007576428078127616 0.000030465377884185474 0.00003445819875581176 0.00003110611671586068
          0.000030473336063566828 0.00003446501573705766 0.000031114393726194254 0.000030502544631056122 0.00003448084130357164 0.00003113964298628509
          0.00004839960771168449 0.000055886390624571534 0.00005071625777392362 0.000048395966173159836 0.000055880669493825464 0.00005071145621880465
          0.00004838527318911759 0.00005586404703088137 0.00005069475739462911 0.00003905938515764237 0.00003507441885211693 0.00003905423814317224
          0.00003506687947070173 0.00003904110760471306 0.00003504204255135299 0.00008499382670994733 0.00008019445336971992 0.00008065336350045435
          0.00008499451611150526 0.000080196476479612 0.00008065465181051607 0.0000849972523990939 0.00008020173524847438 0.00008065778742679437
          0.00007168659200618112 0.0000706989465107146 0.0000716856545178589 0.00007070030975777414 0.00007168429940224258 0.00007070275780967371
          0.00006566362797440725 0.00006567150537864429 0.0000656955680222953 0.00005658573056773631 0.00005005746620236091 0.00005658003487405335
          0.000050053497702553687 0.000056562447543180356 0.000050041734635432745 0.000043483031132829953 0.00003700494632260742 0.000043482101849154105
          0.00003700809810221562 0.00004347681130495569 0.000037017710016641606 0.00003829685587902292 0.000042598291652047864 0.00003830060807007124
          0.00004259761320890316 0.0000383140228239574 0.0000425928146873577 0.000035288012437132926 0.00003529345055957437 0.00003530990192047758
          0.00006289795849831459 0.00006214101565009586 0.00006289157075445091 0.0000621354172926408 0.00006286942383023904 0.00006211586793762666
          0.00006887907639923982 0.00006887133718441495 0.0000688472505144378 0.00007021411647310326 0.00007022279277173065 0.00007024809570528259
          0.00007443252070998705 0.0000744235490999608 0.00007439294314065947 0.00006853166224983701 0.0000685388424078879 0.00006855966420260296
          0.00006706333269452515 0.00006706951417679011 0.00006708723693611776 0.00007772102129092865 0.00007951651145522363 0.00007771278005145597
          0.00007950921305030171 0.000077682139070096 0.00007948610494068122 0.000059011958314656235 0.00006237327743214225 0.00005901401584616746
          0.00006237693033162138 0.000059019478376722585 0.00006238654657060099 0.00004745389584164916 0.000047457450694071395 0.00004746771936224196
          0.00006308706262881851 0.00006309614802275682 0.00006312398582084902 0.00006500409668940075 0.00006500924108019377 0.00006502381383893411
          0.00003006739114996806 0.00003006907780506155 0.000030074222492223986 0.00004298489031561477 0.000042981717050909637 0.00004296795945299487
          0.000042967928075109165 0.00004296540944284334 0.00004295656139557197 0.00005056230949511084 0.00005278923313682189 0.00005055678779351754
          0.00005278538018366662 0.00005053840729359384 0.000052773885620066836 0.000048805839169309695 0.000048800119591978526 0.00004878186748038811
          0.00003982878877911183 0.00003710916742422785 0.00003982980830870709 0.00003711375392061902 0.00003983365964055367 0.00003712607181921088
          0.00006687472485477421 0.00007187708481352432 0.00006790915155973362 0.00006688388483525558 0.00007188519234935925 0.00006791784365450621
          0.0000669098013108654 0.00007191028577722955 0.00006794355486791752 0.00006924208561865061 0.00006924997344621807 0.00006927329764841523
          0.000047183122769302054 0.00004717834218019959 0.00004716205380275558 0.00007100756548539474 0.00007229724151478619 0.00007101396011597535
          0.00007230553943447791 0.00007103173988515842 0.00007233025310155303 0.00005197691514390193 0.00005315657257911472 0.00005197103418052913
          0.00005315080914896905 0.00005195326207904846 0.000053132975617171264 0.000054413589971632524 0.000054408706931039774 0.000054392714807796596
          0.0000575400217559148 0.00005808106944664748 0.00005753586494237466 0.000058078470968296306 0.00005752190854882842 0.00005806909857586884
          0.00004615802484225877 0.000045985318452127536 0.00004841952711064965 0.00004849578962326533 0.00004615863603099521 0.000045986752007613356
          0.00004842624970895566 0.00004850123201440513 0.0000461595591322677 0.00004599402785277277 0.00004844744933519049 0.00004851418840196835
          0.00005469274093053123 0.00005470193175020585 0.000054727487324276825 0.0000444961665365734 0.00004449799308565342 0.00004450475165700127
          0.000024336750379771224 0.0000262089060057016 0.000024343702183747397 0.0000262137472239225 0.000024368824699661458 0.000026228102328148163
          0.000055705104947195116 0.00005570458727383888 0.00005570236721099628 0.00008449688378937934 0.0000800299120510241 0.00008449775758608648
          0.00008003316336620085 0.0000844997135021969 0.00008004108381778929 0.00001536857377531001 0.000012958496800357077 0.000015384262842015623
          0.000012977721986986016 0.000015431423918102802 0.000013035338573086616 0.00007300179170365977 0.00007300990741618504 0.00007303455100811939
          0.00005617672507088488 0.00005839435626479184 0.00005617488420881465 0.00005839315659851839 0.000056165896397831554 0.00005838869897101119
          0.00005082634471854872 0.000053904922860055835 0.000054186555071429574 0.00005110229552290734 0.00005083238895546356 0.0000539115947825327
          0.00005419445912651667 0.00005110978632078885 0.000050850630136500714 0.00005393123646233139 0.00005421713368517456 0.00005113123723620766
          0.000022191768209615856 0.00002220116307571643 0.000022229312079307736 0.00005131219813005879 0.000050101544031422146 0.000051320715893060954
          0.0000501088621796837 0.000051346714302293454 0.000050133433690829325 0.000022788196936473472 0.00002592739356739202 0.000022798279854834267
          0.00002593769220942743 0.000022826007766579736 0.000025967172088391653 0.00002514909749144455 0.000025159701049650613 0.000025190758467965203
          0.00007387477747792106 0.00007388336616139786 0.00007390964554038594 0.00002024646495614694 0.000020257482366505933 0.000020292691688429028
          0.000048190616728820314 0.00004819778732988511 0.00004821966505598366 0.00004647966582703702 0.00004648170028773116 0.00004648778919600969
          0.00001868267047990492 0.000024387282298920634 0.000018694585850196884 0.000024395644471876252 0.000018731313634803605 0.00002441992115655469
          0.000052813439600067405 0.0000528228115169286 0.000052849652582055066 0.00004411238105357025 0.000044111193435125493 0.000044103070424110555
          0.00007706768290214622 0.00007707481777958495 0.00007709695219498904 0.00004559853526777383 0.000045595726334893584 0.000045587300981377885
          0.000048622304537134425 0.00004862702325754664 0.0000486418661842743 0.00005873372628207496 0.000058734323064833203 0.000058735309662055213
          0.000030774628263135845 0.000030406261018207692 0.000024940231670230053 0.000030782458422613446 0.00003041458114713119 0.000024951565574327862
          0.00003080746437980866 0.000030439341357948758 0.000024985386130290853 0.00004541756266961493 0.00004541988343446281 0.00004542992937054506
          0.00007928133897901232 0.00007637191315670871 0.00007928650016213863 0.00007637872162338143 0.0000792981495010465 0.00007639977073617676
          0.00004775858503297731 0.00004776428676775331 0.00004778065386026398 0.0000539350692871098 0.000053940526057927845 0.00005395559247163107
          0.00001966539225955998 0.0000196798424701353 0.00001972293057306615 0.00005062279910849794 0.000050630903816741455 0.00005065458820211065
          0.00006070325754479407 0.00006420817325257435 0.000060711557982442106 0.00006421672635695422 0.00006073507298837039 0.00006424273524791024
          0.00005087045666129161 0.0000508748777539461 0.00005088738987083915 0.00004874105170644207 0.00004874600911390732 0.000048758343198183424
          0.00007625235751241068 0.00007624538701698022 0.00007621858826828694 0.00008374487459218263 0.00008374703837310309 0.0000837511269018153
          0.00004450937159814674 0.00004450743616150047 0.00004450102527172258 0.00007816951660562581 0.00007817607590784326 0.00007819671176278031
          0.00007599378608526551 0.00007537793552060119 0.00007600076729570914 0.00007538293623433163 0.00007602111067487708 0.00007539548524289374
          0.00007343531970563689 0.0000734298484955857 0.00007341388228675988 0.00008074308801740266 0.00008224802973102533 0.00008073981641214335
          0.0000822462785193793 0.00008072770244644779 0.00008224185724564363 0.00008580707370424593 0.0000858075019452469 0.00008580872107879149
          0.00008758560032777766 0.00008758510911132118 0.00008758209682353357 0.00007778263625204749 0.00007777734979571202 0.00007775817023228572
          0.00008419903198575347 0.00008282940907173634 0.00008419436661541881 0.00008282255450827048 0.00008418622961650732 0.00008280563079258675
          0.00008043643378832803 0.00008043296000582353 0.00008041978089726981 0.00007835940364399621 0.00007835230214615183 0.00007832464647374082
        </DataArray>
        <DataArray type="Float64" Name="disp_y" format="ascii" RangeMin="-0.00003909393823543798" RangeMax="0">
          -0.000027037892793025702 -0.000028803929721028356 -0.000028885271166818765 -0.000027361852388452733 -0.00002703995330865603 -0.000028805809489806183
          -0.00002888814251716923 -0.000027365222284933244 -0.00002704638598557181 -0.000028811585773651213 -0.0000288969343606875 -0.000027375929392758403
          -0.000016861908110882803 -0.000019541376688443846 -0.000018351406236863373 -0.00001598035285533764 -0.00001686188102185476 -0.00001954278946467616
          -0.000018353515169886976 -0.00001598216256523865 -0.000016861084129966784 -0.000019546878105726118 -0.000018360378369403185 -0.000015987513081743492
          -0.000036208997440038844 -0.000037055058547215514 -0.00003621071419750098 -0.000037056566043363087 -0.0000362150658137013 -0.000037060493861870636
          -0.000005181913949114282 -0.0000025600891159653625 -0.0000023208429656065503 -0.0000046248555156131105 -0.000005183768512910246 -0.0000025609657256916123
          -0.0000023203094903938872 -0.00000462464570442633 -0.000005189349054273096 -0.0000025619637380978837 -0.0000023164882692981762 -0.000004627150810105134
          -0.000017634950080898043 -0.00001549899469770795 -0.000017638050856132524 -0.000015501434960877482 -0.000017647731808601553 -0.000015509309651588716
          -0.00001628386220401415 -0.000018620438428763256 -0.000018504837091342844 -0.000015506882864678734 -0.00001628686139395994 -0.00001862488366672336
          -0.00001850892605185876 -0.0000155085340753946 -0.000016298906964270443 -0.00001863807004042068 -0.00001852056800684411 -0.00001551385009579244
          -0.000007346695613683802 -0.00000913305877029064 -0.00001126451482578139 -0.000009970517414760772 -0.000007349467329530181 -0.000009137400161432177
          -0.00001126977975131956 -0.000009974402957459477 -0.000007358167993580155 -0.000009151802122836653 -0.000011285887278775557 -0.000009985868290591782
          -0.000025942711131907992 -0.00002546956887924668 -0.000025946360418285005 -0.00002547210357596949 -0.000025957594043775236 -0.00002547850454282984
          -0.0000034673661297800562 -0.0000016539307309490954 -0.000001984630319434975 -0.000004052825211085936 -0.0000034664253766413015 -0.0000016524255059752328
          -0.00000198533017404889 -0.000004053780111393239 -0.000003465598310250297 -0.0000016474160611821451 -0.0000019857520258461546 -0.000004057469045212931
          -0.000034787561868818755 -0.000032700982033398816 -0.000032697776676527734 -0.00003478930980369565 -0.00003270263020432313 -0.00003269960685544681
          -0.00003479631583444009 -0.00003270566153470703 -0.00003270421616105774 -0.000002558822448578153 -0.0000028313000333540965 -0.000005475773225003618
          -0.000005032653354763497 -0.000002560258359793119 -0.0000028324961259456003 -0.00000547824380931617 -0.0000050351805378965044 -0.000002564567228003282
          -0.0000028378540304985626 -0.0000054858025089641686 -0.000005042589916849812 -0.00001293066542725186 -0.000014536862226901698 -0.00001652304904869658
          -0.000014654847527611525 -0.000012935621431514997 -0.0000145434622687486 -0.000016531226946884786 -0.00001466056268039834 -0.000012950862401786397
          -0.000014564044302363149 -0.000016554943158294582 -0.00001467918479966568 -0.000007894508018044091 -0.000007897335681960362 -0.000007906819015816415
          -0.000016826352071424428 -0.00001856366493708701 -0.000019585499682693063 -0.000016830327056613173 -0.00001857000226079824 -0.000019591149711086582
          -0.00001684407584159449 -0.000018586909428546824 -0.000019609464723783854 -0.000010866714302630354 -0.000012337180042075838 -0.000010870819599626893
          -0.00001234238462078833 -0.000010883421383815462 -0.000012357033602125218 -0.000005565299000393376 -0.00000823799693199173 -0.000008783307119675185
          -0.0000059832084424146765 -0.000005568421112622244 -0.000008242664304803344 -0.000008788592236954813 -0.000005987241879263359 -0.000005579050620141585
          -0.000008255980397767254 -0.000008804209443846846 -0.000005999688494775183 -0.0000014430149828852472 -0.000002999539925151388 -0.0000027293353038040733
          -0.0000014301650193622592 -0.0000014417142166570257 -0.0000029986917901336722 -0.000002727588322663883 -0.0000014274641533176587 -0.000001429808801701253
          -0.000002994739433365111 -0.0000027279150105126423 -0.000001422256845045546 -0.000013155073167845716 -0.000013172063174291207 -0.000015144580644836682
          -0.000013159582921466905 -0.000013174903013052635 -0.000015148637691400129 -0.00001317335817633885 -0.000013181710716711353 -0.000015160111272553213
          0 0 0 0 0 0
          -0.000019853369337094963 -0.000018284916040453998 -0.000016019264713066412 -0.000016728679887354755 -0.000019862758181899665 -0.000018294671646140964
          -0.000016027555059014394 -0.000016737757123429258 -0.000019891188759811895 -0.000018325874121242005 -0.000016053207125586173 -0.000016766330346628994
          -0.000010807103834977466 -0.000010639652960045409 -0.000010812062204158373 -0.000010642592295432383 -0.00001082734265189433 -0.000010652063378200809
          -0.000009130759632766888 -0.000011336811021784786 -0.000009128727872655831 -0.00001133545685484773 -0.000009122406337646861 -0.000011330648669060436
          -0.000016502743098123713 -0.000018723141957424426 -0.00001651173305507982 -0.000018731218192385482 -0.00001653931170244302 -0.000018756629709140376
          -0.000024281832071449285 -0.00002499587317850342 -0.000024670175473391106 -0.000023448473931600466 -0.00002428488898129368 -0.00002499965932446647
          -0.000024675196609923996 -0.00002345263730263685 -0.000024293087811965235 -0.000025010934978660727 -0.000024689547092443502 -0.000023464696394648017
          -0.000020848804528856903 -0.000021809813912383763 -0.00002085511527821952 -0.000021816522784284093 -0.00002087187368072715 -0.000021833072122558982
          -0.000007178705006881571 -0.000007176642071936141 -0.000007170960735463019 -0.000018234935345150452 -0.00002021192395514196 -0.000018243445445721377
          -0.000020221846934724594 -0.000018269805610407083 -0.00002025150068277679 -0.000013339933020487638 -0.00001547458543975314 -0.000014126506028257254
          -0.00001334232044786607 -0.000015477856386392252 -0.000014128591421573827 -0.00001334826101498193 -0.000015488565814503606 -0.000014134277268859802
          -0.000006299510418606719 -0.00000820795521338535 -0.000005466422584272245 -0.0000063004252330560755 -0.000008208481091546949 -0.000005464736876029557
          -0.000006302448483737034 -0.000008211919709268404 -0.000005459010594017459 -0.000020656469983760924 -0.00002066224368546716 -0.000020678846594233936
          0 0 0 -0.000029102066781996183 -0.000026763366189428408 -0.000029103227882062517
          -0.000026763128272917147 -0.00002910717003842361 -0.000026761509406601733 -0.000010398291482899033 -0.00001039920431540147 -0.000010402309067700696
          -0.00002350767206955479 -0.0000218263016246847 -0.0000219119556968185 -0.000023517772764308468 -0.000021834750950183227 -0.000021921389221472624
          -0.000023548600831285243 -0.000021860725198906163 -0.000021948762092012327 -0.000014217275929173051 -0.000014017570775252796 -0.000014225063938748295
          -0.000014025432597127911 -0.000014248849914052915 -0.000014048876806724279 -0.000034272079759718456 -0.000033010838648000476 -0.00003216811161443445
          -0.00003283145675870909 -0.000034273369031418076 -0.00003301234048673219 -0.000032169613846111274 -0.00003283275399239728 -0.000034277570919078856
          -0.000033016020337778096 -0.00003217453595893029 -0.000032836542395067156 -0.000032474243045018086 -0.00003205176732704896 -0.000030480856261499113
          -0.00003069507348546049 -0.00003247628217161677 -0.00003205387888768085 -0.00003048338162504459 -0.000030696897996647507 -0.000032483157211057907
          -0.00003206109102237558 -0.00003049061275672899 -0.0000307020291400793 -0.000031240987213704765 -0.000030272151190116125 -0.000028647467640892087
          -0.00003124237657783392 -0.000030273457170368205 -0.00002864825455970644 -0.000031250009609617065 -0.000030279070812603224 -0.000028651098384003788
          -0.000017424237258099334 -0.000017430456790800176 -0.000017449843291048115 -0.000013211749285754146 -0.000013212122463663159 -0.000013209610791199582
          -0.00003292630042506106 -0.00003150399846758842 -0.000032927126582278464 -0.00003150560985642062 -0.000032928841599517765 -0.00003151134759065288
          -0.00003148512642713621 -0.000033628309511467085 -0.00003148739190954864 -0.0000336306642162686 -0.00003149153142873162 -0.00003363732093164012
          -0.000019669771950404042 -0.000019677306310086817 -0.000019701197837951394 -0.00002829543271135915 -0.000029092629004653673 -0.0000306533254623734
          -0.000030704409169642764 -0.000028296435869948832 -0.00002909333500090557 -0.00003065408024225649 -0.00003070526244094295 -0.000028299085726389344
          -0.000029095857252558726 -0.00003065649211004826 -0.00003070713130092401 -0.000028146114118461447 -0.000028147026873080706 -0.000028147819574645566
          -0.00002609697592926938 -0.000026098377613348776 -0.00002610179491658517 -0.000021759467566822455 -0.000023213913345731375 -0.000021766783668712566
          -0.000023222145435941213 -0.00002178792500866438 -0.000023248106844702267 -0.000023451441104620725 -0.00002346071993791023 -0.000023486074181212214
          -0.000024105411095109015 -0.0000227263587105836 -0.000024112170433312566 -0.00002273201057324069 -0.000024131578251850892 -0.000022749635242832425
          -0.00002322441185647143 -0.0000232333619320889 -0.000023255122613793423 -0.000023002956336500026 -0.000022023123093477962 -0.000023005936868998627
          -0.0000220267685112382 -0.00002301369800299375 -0.0000220376696870261 -0.000024354097266248703 -0.00002435641523230965 -0.0000243625743303372
          -0.00003266916063090797 -0.000032670805818423006 -0.000032674071543956095 -0.000021241659977198175 -0.000021246472083780077 -0.00002126054778364414
          -0.0000243741591951979 -0.00002291268194035755 -0.000024382190091227005 -0.000022920885399568042 -0.000024411660617642994 -0.000022947644649388103
          -0.00002029599951890152 -0.000020302285319305955 -0.00002031946939734906 -0.000010628916805387528 -0.00001333257023580385 -0.000010627295613533149
          -0.000013332012950210093 -0.000010622513348287938 -0.000013331619460334902 -0.000004712223215196763 -0.000007228322256281727 -0.000006381868211162549
          -0.00000471524038322329 -0.000007231696548989702 -0.000006384997370206969 -0.0000047215260380308195 -0.000007243114913902048 -0.000006394490091582853
          -0.0000037153119706066486 -0.0000029992839658706685 -0.000006823175634785883 -0.000003717466975132353 -0.000003001629031306346 -0.000006827274324537019
          -0.0000037230259773398363 -0.000003010057525906763 -0.0000068394863352095725 -0.000024093117967332844 -0.000021659409894682565 -0.000024101644329886356
          -0.000021666608800336128 -0.00002413184742238522 -0.000021685608376221227 -0.000019282636448143034 -0.000019180264739341783 -0.000016426695327641315
          -0.00001927957032779044 -0.000019177752774160616 -0.000016424068172512524 -0.00001927066333411501 -0.000019169273134882335 -0.000016416848182389534
          -0.000010618165554949531 -0.000013310132044077788 -0.000010619005952788665 -0.000013311595141979811 -0.000010622186731170957 -0.000013315578922878713
          -0.00003795458249914099 -0.000037956833834179784 -0.000037962880739748026 0 0 0
          0 0 0 0 0 0
          0 0 0 -0.000011837753841795489 -0.000011439904424182682 -0.000011843125924796532
          -0.000011445794115289134 -0.00001186103198089297 -0.000011461770757078953 -0.000013637230862896088 -0.000013644104397439944 -0.000013662066302534017
          0 -0.000002765520583910954 0 -0.0000027672241122323214 0 -0.0000027725612914264745
          0 0 0 -0.0000263990434520739 -0.00002639972906143975 -0.00002640042778468001
          0 0 0 -0.000024621850084511254 -0.00002462299629603631 -0.00002462594600931122
          -0.000022853559630739356 -0.000022855490893345217 -0.00002286183136638062 -0.0000023251453556893403 0 -0.0000023241096695639462
          0 -0.0000023126572797681696 0 -0.00001954105111236841 -0.000020331764185362792 -0.00001954522674268808
          -0.000020334908109883703 -0.000019557093025579104 -0.000020344077159405246 -0.0000246920260223945 -0.00002470126667040658 -0.000024730230923961287
          -0.00003423044225263846 -0.00003423316014808541 -0.00003424086239764017 -0.000021425566425703103 -0.000021428331109385778 -0.000021435850922240856
          -0.000016073761005834412 -0.000016080200976781135 -0.000016099649381467625 -0.00002534018261349079 -0.000025348345176565294 -0.000025378319418287952
          -0.000026227291758422477 -0.000026235646031684788 -0.000026257797543033513 -0.000015417104613192466 -0.000017352550531777026 -0.00001542455518545694
          -0.000017359116732698416 -0.000015446794875797803 -0.00001737896432734033 -0.000013056906074933876 -0.000013064127815291997 -0.000013085455953076431
          -0.000008528406311557554 -0.000010010545187064841 -0.000008532288880055255 -0.00001001512117843549 -0.000008542067549529965 -0.000010026833446131697
          -0.00003460219433157842 -0.00003689434173297307 -0.0000365929692770023 -0.0000346045223398656 -0.00003689751464502611 -0.000036596028537566095
          -0.00003461176174524023 -0.000036906380225097435 -0.000036605087624051006 -0.00003865871024999607 -0.00003866220877893107 -0.00003867260569558395
          -0.000010497378383859721 -0.000010503249716175437 -0.000010520565708334526 -0.00002121381779371633 -0.00002310840163835698 -0.000021214794406492927
          -0.000023109200994312253 -0.000021218698350443658 -0.000023112281201999808 -0.000009480040084388529 -0.000011993539184252876 -0.000009485790601202814
          -0.000012000418177684155 -0.00000950349950466788 -0.000012020951335366046 -0.000014219729694002821 -0.000014226245134023591 -0.000014246923290994226
          -0.000011221709717606248 -0.000013410594656502009 -0.000011227925057410517 -0.000013416197725825181 -0.00001124700352614438 -0.000013435533923999904
          -0.000027926478023704665 -0.000027273391129498982 -0.000028300046083076947 -0.000028970000106227712 -0.0000279316047272582 -0.00002727952853032718
          -0.00002830518411241911 -0.000028974256401802402 -0.000027946041384679842 -0.000027293713121747 -0.000028321742105672688 -0.00002898693526931083
          -0.000030083910937476377 -0.00003008705645271862 -0.000030096427863401028 -0.00002500370273882897 -0.00002501398183005734 -0.000025047529507193083
          -0.000011537086529747838 -0.000013130517264265003 -0.000011540609778267171 -0.000013134132428785042 -0.000011549267980207988 -0.000013146055709563282
          -0.00001863963433837906 -0.000018644916190872365 -0.00001866013893738249 -0.00002177623633142507 -0.000021619534569419256 -0.000021773713827204045
          -0.000021617853028649402 -0.000021765896059317833 -0.00002160979274133097 -0.000004587673922825818 -0.000004013441812954421 -0.000004588015357920803
          -0.000004012070793064608 -0.000004590740670763111 -0.000004010300019014884 -0.00003907680034034336 -0.00003908043435254053 -0.00003909393823543798
          -0.00001589439048274897 -0.000014862792664621076 -0.000015900288170458667 -0.000014868097740815972 -0.000015916229517962237 -0.00001488346146427233
          -0.000026820627676641386 -0.000027279302566712313 -0.00002868268144880409 -0.000028124766785854857 -0.000026826995418198884 -0.00002728438293219263
          -0.0000286870523113681 -0.00002813022360089701 -0.000026846333596947734 -0.000027299292673451186 -0.000028700309773327405 -0.000028146270380419583
          -0.000009442899852436744 -0.000009445430444508511 -0.000009453339232776526 -0.00002950736580616449 -0.000029648911554114307 -0.000029511388425929945
          -0.00002965276336921581 -0.00002952400547931429 -0.000029663580054917256 -0.0000063171051980474445 -0.0000045670505141821355 -0.000006319234272681393
          -0.000004568999432533607 -0.0000063237144365744895 -0.00000457568088860197 -0.00000225801733912049 -0.0000022591890536876424 -0.000002264736079963411
          -0.00002481506826626849 -0.000024815281986530208 -0.00002481644643559159 -0.000007329128767535214 -0.000007331062660897326 -0.000007337762095009148
          -0.00002731704096211737 -0.000027324034064589675 -0.00002734588053775422 -0.00002859334943800329 -0.000028598369890239704 -0.000028615671343800338
          -0.000005368919155523746 -0.000008622629857082243 -0.0000053701026195985956 -0.000008625554352970291 -0.000005373353920613652 -0.000008634443885192917
          -0.00003099014595892429 -0.000030992664591900065 -0.000031000141405840075 -0.00002632597105850143 -0.00002633438079338994 -0.000026354604782429386
          -0.00002653712169273422 -0.000026537557971610945 -0.000026538108563919657 -0.000007810802640181373 -0.000007814920485487622 -0.000007828418453119974
          -0.00002961224651044815 -0.00002961539469016791 -0.000029623556071716557 -0.00001692280062039829 -0.000016927264591220474 -0.00001693905666818963
          0 -0.000002407583800457911 0 0 -0.0000024088043995660163 0
          0 -0.000002413395457857639 0 -0.000026335961975724255 -0.000026343975985312704 -0.000026370037556435138
          -0.000023866960309628602 -0.00002359868227607921 -0.000023866145389578223 -0.000023598782638532266 -0.000023865191242228894 -0.000023598404910083588
          -0.000026079080142919552 -0.000026088075925362712 -0.00002611396818240794 -0.0000259011571474038 -0.000025906366996278198 -0.00002592199347191171
          0 0 0 -0.000030384879742602733 -0.000030388187306953454 -0.00003039701002496821
          -0.00003530085024057988 -0.00003605338718928333 -0.00003530290662512233 -0.00003605583982654632 -0.000035308480680050195 -0.00003606372959635228
          -0.00002547017634893198 -0.000025477129523113277 -0.00002549810764803369 -0.000030207008098393908 -0.00003020892891700408 -0.000030215152649156615
          -0.000004028815675938713 -0.00000402755678660039 -0.0000040241355726900845 -0.00002427252040904168 -0.000024271309916740598 -0.000024266132507885016
          -0.0000058080650536975466 -0.000005811330578692611 -0.000005819064527540357 -0.00003272306921751472 -0.000032725013043605275 -0.00003273011259319758
          -0.000022050645222881357 -0.000019853823594096257 -0.000022050430624981522 -0.000019852942883132223 -0.00002204746432726726 -0.000019849346552875825
          -0.0000073762468383527414 -0.000007377402436557429 -0.000007379462385746852 -0.000010206142377483315 -0.000012939866640608507 -0.000010203602014942832
          -0.000012937124015967002 -0.00001019446565359501 -0.000012928654598676768 -0.0000167566291071684 -0.000016753320788751137 -0.00001674340900306805
          -0.000014324178725041338 -0.000014320929159844856 -0.000014309588079107419 -0.000008290647526479593 -0.000008288428134970802 -0.00000827992607308676
          0 -0.0000028032955959238276 0 -0.000002801400910384823 0 -0.0000027957635661474606
          -0.000008670040171835544 -0.00000866743857337596 -0.000008658129950861264 -0.000005067299393120284 -0.000005065426251739152 -0.0000050652378527367915
        </DataArray>
        <DataArray type="Float64" Name="disp_z" format="ascii" RangeMin="-0.0000018044063282993342" RangeMax="0">
          0 0 0 0 -5.71741104691683e-7 -5.608247554453161e-7
          -5.064375381887378e-7 -5.215452357041114e-7 -0.0000011431108464851829 -0.0000011214646783604394 -0.0000010128133089485044 -0.0000010430774512622398
          0 0 0 0 -6.92855919991942e-7 -6.681048808709746e-7
          -6.537942917055818e-7 -6.757154614085697e-7 -0.0000013853427835171386 -0.0000013356316971960797 -0.0000013078717042377412 -0.000001351319099482076
          0 0 -4.2125400180160747e-7 -4.6491859051805105e-7 -8.420876124626095e-7 -9.300276518581742e-7
          0 0 0 0 -7.431020139309572e-7 -7.579383597157293e-7
          -7.242516029984541e-7 -7.175382144884061e-7 -0.0000014855010159686334 -0.0000015147386517339145 -0.0000014481078639807394 -0.0000014319313529006072
          0 0 -6.502534799541114e-7 -6.724755772200088e-7 -0.0000013011570202909095 -0.0000013449390542927882
          0 0 0 0 -5.457337489842434e-7 -4.96483564622712e-7
          -5.253228474861833e-7 -5.787881614310097e-7 -0.000001090606813169541 -9.939115099616234e-7 -0.0000010487417280285666 -0.0000011534395669196563
          0 0 0 0 -7.680224703770384e-7 -8.183155289543365e-7
          -7.704219900984639e-7 -7.376393816540906e-7 -0.000001535315257386284 -0.0000016344629686974697 -0.0000015395970131826158 -0.0000014748092557570042
          0 0 -5.378807528925276e-7 -5.721436826355872e-7 -0.0000010756452724007487 -0.000001144067904815417
          0 0 0 0 -6.424893999320601e-7 -6.216708013345371e-7
          -7.156231246247054e-7 -7.163210331235877e-7 -0.000001281885563696901 -0.0000012429216717800535 -0.0000014293705043435822 -0.0000014315939226868782
          0 0 0 -6.486479614532016e-7 -6.620890674827846e-7 -6.9209601069771e-7
          -0.0000012959981376079442 -0.0000013230182020377324 -0.0000013850422908436143 0 0 0
          0 -8.838048229763859e-7 -8.907892610397073e-7 -8.784808702905741e-7 -8.774082900091622e-7 -0.0000017634838965465094
          -0.0000017784684000603195 -0.0000017538530099818064 -0.000001751265543266237 0 0 0
          0 -6.638557038252707e-7 -6.795933506823993e-7 -6.323515767371933e-7 -6.234581255516063e-7 -0.0000013265424150205055
          -0.0000013580327897301892 -0.0000012643356815640628 -0.0000012452206309841733 0 -7.323829477331729e-7 -0.0000014640761745004297
          0 0 0 -5.423033147648198e-7 -5.247505604334987e-7 -5.028562755224267e-7
          -0.0000010843046643314456 -0.0000010496827533432674 -0.0000010078133279260193 0 0 -6.840913096291316e-7
          -7.162942019833416e-7 -0.000001366396722832669 -0.0000014313778404534538 0 0 0
          0 -7.792877425047032e-7 -7.528174639813997e-7 -7.806222106317954e-7 -8.122809694046368e-7 -0.000001558107487073464
          -0.0000015061319908352485 -0.0000015611803997074653 -0.0000016237377001895746 0 0 0
          0 -5.076613627176465e-7 -5.626967368896644e-7 -4.7333582922221966e-7 -4.0015494937054213e-7 -0.0000010115789814053422
          -0.0000011195628504395444 -9.449705865282637e-7 -8.003427869198016e-7 0 0 0
          -6.891093456136865e-7 -6.880765325205205e-7 -6.69511494647033e-7 -0.0000013797232795813225 -0.0000013769394279216429 -0.0000013409758637568698
          0 0 -3.0495081986812083e-7 -4.4445490944060076e-7 -6.153095538419107e-7 -8.866226303641845e-7
          0 0 0 0 -6.420115098318881e-7 -6.419063194121009e-7
          -7.084356715900977e-7 -7.286938554663353e-7 -0.0000012827845085231624 -0.0000012827463924572904 -0.0000014144508618378072 -0.0000014542177620741944
          0 0 -7.205791834047688e-7 -6.986098006616857e-7 -0.0000014421287838034567 -0.000001397965363137708
          0 0 -5.498015313723987e-7 -5.669007342130643e-7 -0.0000010984377797387644 -0.000001131371238265207
          0 0 -7.328983870252199e-7 -6.586298208786182e-7 -0.0000014636795119652992 -0.0000013170516329644048
          0 0 0 0 -5.710955111826437e-7 -5.494978393942145e-7
          -5.393048280979592e-7 -5.645882239630546e-7 -0.0000011427243604916691 -0.0000010996501910614945 -0.0000010794460262477515 -0.0000011303756516754388
          0 0 -4.939381293730006e-7 -4.793480079879562e-7 -9.882668150516152e-7 -9.556075522396168e-7
          0 -5.335358105437445e-7 -0.0000010652581228413361 0 0 -5.825605571336695e-7
          -5.692018503507123e-7 -0.0000011657225037074268 -0.0000011392524550929581 0 0 0
          -5.87999275760268e-7 -5.695562539818644e-7 -5.769529007006509e-7 -0.000001174786669316717 -0.0000011378982189353438 -0.0000011503618643677925
          0 0 0 -5.803733976122219e-7 -5.852879229186938e-7 -5.103206933865342e-7
          -0.000001159402470147906 -0.0000011701130903371685 -0.0000010193084014243663 0 -4.692673098126922e-7 -9.402880972141034e-7
          0 -5.811831733194079e-7 -0.000001162462670875649 0 0 -7.698529249059422e-7
          -7.855989570955396e-7 -0.0000015365628656267998 -0.0000015684245343261013 0 -5.767054929841506e-7 -0.0000011531630590764515
          0 0 0 -5.046094145859769e-7 -5.105613011675567e-7 -5.6554362659423e-7
          -0.0000010094223838534765 -0.0000010230609602969948 -0.000001130612113613406 0 0 -7.806542565187102e-7
          -7.90447294945502e-7 -0.000001556819106436981 -0.0000015764386523368793 0 0 0
          0 -4.120885997199439e-7 -3.655288948559326e-7 -3.666007044508858e-7 -4.31784855649527e-7 -8.236529343734587e-7
          -7.299866663800589e-7 -7.337956221961045e-7 -8.634505787205712e-7 0 0 0
          0 -5.464957577975509e-7 -4.866744862568611e-7 -4.951594386426461e-7 -5.583102140580202e-7 -0.0000010926303960180385
          -9.734788115353113e-7 -9.903086173954298e-7 -0.0000011160542433633392 0 0 0
          -7.503590915939112e-7 -7.128441336179989e-7 -7.578559533307165e-7 -0.0000015003435666597359 -0.000001424361609729598 -0.0000015149812921046952
          0 -5.507064579101697e-7 -0.0000011019603022094 0 -5.691283706629258e-7 -0.000001134009488112969
          0 0 -3.295034769702141e-7 -2.9509410313571796e-7 -6.619305539164882e-7 -5.926386962083079e-7
          0 0 -4.2605693140699576e-7 -4.7485094276129333e-7 -8.524184609138226e-7 -9.498402522794464e-7
          0 -5.255496045491029e-7 -0.0000010533334159403518 0 0 0
          0 -6.111926722858657e-7 -6.628978961207385e-7 -6.493935052732728e-7 -5.958014569151111e-7 -0.0000012228771198626015
          -0.000001327644689473613 -0.0000012984806422489062 -0.0000011914973788536664 0 -6.881705001468625e-7 -0.0000013748302000028666
          0 -6.013680866431254e-7 -0.0000012034056350614694 0 0 -5.984013371993951e-7
          -5.566159120163769e-7 -0.0000011965847181720239 -0.0000011118126705553488 0 -4.4669724816270335e-7 -8.942044295242854e-7
          0 0 -5.379373888127162e-7 -5.675148088027915e-7 -0.0000010759904817722626 -0.0000011360301360950115
          0 -4.7202048913659204e-7 -9.453488181282559e-7 0 0 -5.974465968701772e-7
          -5.958327400650699e-7 -0.000001195727949719163 -0.0000011926847187303157 0 -6.020725238126917e-7 -0.0000012049679180797433
          0 -6.02576573072594e-7 -0.000001204209701601612 0 -5.978766895656835e-7 -0.0000011969830707190208
          0 0 -4.2079675183938586e-7 -4.465404750107753e-7 -8.407423726876695e-7 -8.904394112137727e-7
          0 -6.141628461364087e-7 -0.0000012297563240838154 0 0 -6.961243967903507e-7
          -6.931434368843954e-7 -0.0000013898770241838268 -0.000001385096480344683 0 0 0
          -8.298302003831132e-7 -8.444801019506121e-7 -8.34701007092236e-7 -0.0000016568523608105787 -0.0000016842381227926995 -0.0000016683186959419956
          0 0 0 -8.740122379060072e-7 -8.441858696626557e-7 -8.461140816348536e-7
          -0.000001745593825824652 -0.0000016864653515973097 -0.0000016899518827393743 0 0 -3.8200527495535906e-7
          -4.5316561222752823e-7 -7.659793097126211e-7 -9.080606941433787e-7 0 0 0
          -7.388222682112154e-7 -7.266910626783971e-7 -7.086624271087333e-7 -0.0000014770981079213815 -0.0000014520342121062127 -0.0000014167858912644444
          0 0 -6.994719928652492e-7 -6.888186588126744e-7 -0.0000013978160424594467 -0.0000013770897436141773
          0 -5.181416505757579e-7 -0.0000010366970916619943 0 0 -8.496957885548477e-7
          -8.759541372293637e-7 -0.000001696853139970844 -0.0000017498194177141292 0 0 -9.035868943552624e-7
          -9.011265756438105e-7 -0.0000018044063282993342 -0.0000017985808191693433 0 0 -8.239664966731111e-7
          -8.393778296648329e-7 -0.0000016430342151507423 -0.00000167370501067796 0 -7.500909368853983e-7 -0.0000014983224885532209
          0 0 -7.95743153959891e-7 -8.013527382722828e-7 -0.0000015899116452009194 -0.0000016017969728565185
          0 -7.395894679811074e-7 -0.0000014774864066110028 0 -6.64146527121292e-7 -0.0000013296006445130006
          0 -6.805920762279236e-7 -0.0000013617428296531254 0 -6.383046757068485e-7 -0.00000127846736969258
          0 -6.379044662411209e-7 -0.0000012769968278872808 0 0 -6.559078437694088e-7
          -5.946748312650047e-7 -0.0000013109788999183553 -0.0000011934899368258376 0 0 -6.236426808406184e-7
          -6.244619442560172e-7 -0.000001248241191003819 -0.0000012496529167307268 0 -4.941719707041945e-7 -9.886472092078189e-7
          0 -5.374618408774479e-7 -0.000001075325335300775 0 -6.287473243342784e-7 -0.0000012581425425924553
          0 -5.913097431245431e-7 -0.000001182501360661605 0 -3.6963047159890383e-7 -7.43847881384414e-7
          0 -3.442787746574343e-7 -6.905330503125806e-7 0 0 -7.196125232428441e-7
          -6.679198985095884e-7 -0.000001438974882673003 -0.0000013372653245436241 0 -7.779298070572543e-7 -0.0000015542377535064356
          0 0 -8.561421452908698e-7 -8.398264454002821e-7 -0.000001708614504049412 -0.0000016757168144777214
          0 0 0 -5.964945690248622e-7 -6.390105510740568e-7 -5.841133334536856e-7
          -0.0000011916871255050524 -0.0000012769365379288643 -0.000001167859030611314 0 -5.707368398118995e-7 -0.0000011416534851852111
          0 -8.231340116816589e-7 -0.0000016435555641014356 0 0 -6.80104956972877e-7
          -6.832485837124152e-7 -0.000001360019060084597 -0.0000013667548922272956 0 0 -8.038603808153544e-7
          -7.597104002760161e-7 -0.0000016067799907340075 -0.0000015198299017611537 0 -7.08836510271114e-7 -0.0000014195550088538236
          0 0 -7.413006488881689e-7 -6.977855327667732e-7 -0.0000014830631615394839 -0.00000139816733751868
          0 0 0 0 -3.124735924593507e-7 -3.2452738164489196e-7
          -3.369421063532392e-7 -3.07893086019988e-7 -6.279879686822915e-7 -6.548883202525171e-7 -6.76235210009001e-7 -6.198007317331452e-7
          0 -4.3138964302888263e-7 -8.635881716083758e-7 0 -4.268348090540066e-7 -8.567690214201331e-7
          0 0 -6.302993677321228e-7 -6.243719679611588e-7 -0.000001259604135043789 -0.0000012496777353719265
          0 -6.339164116555517e-7 -0.0000012697982948609284 0 0 -7.604173705066296e-7
          -7.546443767478056e-7 -0.000001519740282163667 -0.0000015062092799695797 0 0 -5.741771225424018e-7
          -4.877411518267303e-7 -0.0000011450076801552622 -9.733451334434654e-7 0 -6.208979851841632e-7 -0.0000012418587779400706
          0 0 -6.685629806455466e-7 -6.673271739203939e-7 -0.000001340129343274121 -0.000001336465087663382
          0 0 0 0 -4.53541477319718e-7 -4.810609075591127e-7
          -4.539846701311401e-7 -4.1866442191096436e-7 -9.075665258183842e-7 -9.627443446858513e-7 -9.08832864119211e-7 -8.378462223324016e-7
          0 -6.375676414959144e-7 -0.0000012741206056899724 0 0 -3.7720973771787395e-7
          -3.2662137584877535e-7 -7.558598795931995e-7 -6.548077037363416e-7 0 0 -7.126664109656385e-7
          -7.605826206022914e-7 -0.0000014241244456073672 -0.0000015204029968825655 0 -7.815462444753597e-7 -0.000001561311316744437
          0 -7.06936572615135e-7 -0.0000014132674014273807 0 -6.497175495391143e-7 -0.000001297111020312676
          0 -3.8571430076961563e-7 -7.737152708173342e-7 0 -2.7381994191025157e-7 -5.484854714372904e-7
          0 0 -6.533440999986258e-7 -7.112757946500026e-7 -0.0000013038973437628185 -0.0000014205359568605768
          0 -3.702939406329374e-7 -7.415299332892682e-7 0 -3.2194399795245057e-7 -6.437530761362106e-7
          0 -7.435800388603395e-7 -0.0000014850009636621409 0 -8.659288674039817e-7 -0.0000017284701639907443
          0 -2.852974970940197e-7 -5.732342605279929e-7 0 -6.511222547668948e-7 -0.0000013037890884122648
          0 0 0 -8.578405502998416e-7 -8.453730056594592e-7 -7.865150123297295e-7
          -0.0000017123940199105891 -0.0000016882090334142277 -0.000001570037855189641 0 -3.6262377374763964e-7 -7.320064907952048e-7
          0 0 -7.65490857359799e-7 -7.453944451791842e-7 -0.0000015277874195495815 -0.000001488217146615934
          0 -4.333686376263033e-7 -8.680912207957887e-7 0 -5.116258579884573e-7 -0.0000010236665957799919
          0 -6.988853768444285e-7 -0.0000013956832692900887 0 -3.1898445286590507e-7 -6.402169552312814e-7
          0 0 -4.681757474328816e-7 -5.262728324200987e-7 -9.36842052734948e-7 -0.0000010532076550727454
          0 -4.991299968360182e-7 -9.987881565490888e-7 0 -2.662232992663995e-7 -5.33993974944288e-7
          0 -7.110601076732457e-7 -0.0000014209575448216988 0 -7.733329109799251e-7 -0.0000015443806316948712
          0 -8.815451904660679e-7 -0.0000017604402432807168 0 -7.054640170895214e-7 -0.000001410055552141562
          0 0 -7.301550160101767e-7 -7.107245416543269e-7 -0.0000014573717112211027 -0.000001420250997644462
          0 -7.059686975112037e-7 -0.0000014108939025144584 0 0 -6.66607972285038e-7
          -6.868465881378961e-7 -0.00000133337982174821 -0.0000013732679332149893 0 -7.231730581038603e-7 -0.0000014455680079927053
          0 -6.952133568234271e-7 -0.0000013904476265287345 0 -6.707205581717423e-7 -0.000001340803960488605
          0 0 -5.782755544638355e-7 -5.929516951764413e-7 -0.0000011606488091519254 -0.0000011900644886011543
          0 -6.530606578694671e-7 -0.000001307767643300683 0 -6.557948467224205e-7 -0.0000013097738270838276
        </DataArray>
      </PointData>
      <CellData>
        <DataArray type="Int32" Name="libmesh_elem_id" format="ascii" RangeMin="1392" RangeMax="3231">
          1392 1393 1402 1403 1418 1419
          1434 1435 1442 1443 1448 1449
          1454 1455 1478 1479 1500 1501
          1512 1513 1522 1523 1546 1547
          1572 1573 1582 1583 1590 1591
          1608 1609 1614 1615 1616 1617
          1630 1631 1638 1639 1650 1651
          1654 1655 1656 1657 1678 1679
          1682 1683 1684 1685 1704 1705
          1714 1715 1718 1719 1746 1747
          1760 1761 1762 1763 1772 1773
          1790 1791 1794 1795 1802 1803
          1816 1817 1824 1825 1832 1833
          1838 1839 1840 1841 1846 1847
          1848 1849 1852 1853 1856 1857
          1858 1859 1862 1863 1864 1865
          1874 1875 1876 1877 1878 1879
          1882 1883 1888 1889 1904 1905
          1906 1907 1910 1911 1916 1917
          1924 1925 1926 1927 1930 1931
          1936 1937 1946 1947 1950 1951
          1956 1957 1960 1961 1982 1983
          1996 1997 1998 1999 2026 2027
          2028 2029 2038 2039 2046 2047
          2048 2049 2052 2053 2054 2055
          2058 2059 2060 2061 2084 2085
          2088 2089 2096 2097 2102 2103
          2106 2107 2110 2111 2126 2127
          2136 2137 2138 2139 2144 2145
          2148 2149 2154 2155 2158 2159
          2162 2163 2164 2165 2170 2171
          2176 2177 2178 2179 2196 2197
          2200 2201 2202 2203 2204 2205
          2212 2213 2220 2221 2222 2223
          2224 2225 2226 2227 2228 2229
          2232 2233 2236 2237 2246 2247
          2250 2251 2252 2253 2254 2255
          2260 2261 2264 2265 2266 2267
          2274 2275 2282 2283 2308 2309
          2310 2311 2312 2313 2318 2319
          2324 2325 2328 2329 2346 2347
          2350 2351 2364 2365 2368 2369
          2370 2371 2402 2403 2416 2417
          2420 2421 2444 2445 2458 2459
          2462 2463 2466 2467 2468 2469
          2470 2471 2478 2479 2484 2485
          2488 2489 2490 2491 2502 2503
          2504 2505 2510 2511 2512 2513
          2524 2525 2550 2551 2566 2567
          2570 2571 2580 2581 2582 2583
          2602 2603 2608 2609 2616 2617
          2628 2629 2634 2635 2636 2637
          2640 2641 2642 2643 2644 2645
          2650 2651 2666 2667 2668 2669
          2684 2685 2690 2691 2696 2697
          2700 2701 2710 2711 2714 2715
          2716 2717 2726 2727 2750 2751
          2760 2761 2766 2767 2772 2773
          2782 2783 2798 2799 2802 2803
          2810 2811 2826 2827 2830 2831
          2838 2839 2860 2861 2868 2869
          2874 2875 2884 2885 2922 2923
          2928 2929 2934 2935 2938 2939
          2946 2947 2948 2949 2960 2961
          2962 2963 2964 2965 2974 2975
          2978 2979 2994 2995 2998 2999
          3004 3005 3008 3009 3020 3021
          3028 3029 3034 3035 3038 3039
          3040 3041 3042 3043 3050 3051
          3052 3053 3054 3055 3060 3061
          3066 3067 3072 3073 3076 3077
          3082 3083 3086 3087 3096 3097
          3100 3101 3102 3103 3112 3113
          3116 3117 3148 3149 3154 3155
          3158 3159 3166 3167 3182 3183
          3230 3231
        </DataArray>
        <DataArray type="Int32" Name="subdomain_id" format="ascii" RangeMin="107" RangeMax="107">
          107 107 107 107 107 107
          107 107 107 107 107 107
          107 107 107 107 107 107
          107 107 107 107 107 107
          107 107 107 107 107 107
          107 107 107 107 107 107
          107 107 107 107 107 107
          107 107 107 107 107 107
          107 107 107 107 107 107
          107 107 107 107 107 107
          107 107 107 107 107 107
          107 107 107 107 107 107
          107 107 107 107 107 107
          107 107 107 107 107 107
          107 107 107 107 107 107
          107 107 107 107 107 107
          107 107 107 107 107 107
          107 107 107 107 107 107
          107 107 107 107 107 107
          107 107 107 107 107 107
          107 107 107 107 107 107
          107 107 107 107 107 107
          107 107 107 107 107 107
          107 107 107 107 107 107
          107 107 107 107 107 107
          107 107 107 107 107 107
          107 107 107 107 107 107
          107 107 107 107 107 107
          107 107 107 107 107 107
          107 107 107 107 107 107
          107 107 107 107 107 107
          107 107 107 107 107 107
          107 107 107 107 107 107
          107 107 107 107 107 107
          107 107 107 107 107 107
          107 107 107 107 107 107
          107 107 107 107 107 107
          107 107 107 107 107 107
          107 107 107 107 107 107
          107 107 107 107 107 107
          107 107 107 107 107 107
          107 107 107 107 107 107
          107 107 107 107 107 107
          107 107 107 107 107 107
          107 107 107 107 107 107
          107 107 107 107 107 107
          107 107 107 107 107 107
          107 107 107 107 107 107
          107 107 107 107 107 107
          107 107 107 107 107 107
          107 107 107 107 107 107
          107 107 107 107 107 107
          107 107 107 107 107 107
          107 107 107 107 107 107
          107 107 107 107 107 107
          107 107 107 107 107 107
          107 107 107 107 107 107
          107 107 107 107 107 107
          107 107 107 107 107 107
          107 107 107 107 107 107
          107 107 107 107 107 107
          107 107 107 107 107 107
          107 107 107 107 107 107
          107 107 107 107 107 107
          107 107 107 107 107 107
          107 107 107 107 107 107
          107 107 107 107 107 107
          107 107 107 107 107 107
          107 107 107 107 107 107
          107 107 107 107 107 107
          107 107 107 107 107 107
          107 107 107 107 107 107
          107 107 107 107 107 107
          107 107 107 107 107 107
          107 107 107 107 107 107
          107 107
        </DataArray>
        <DataArray type="Int32" Name="processor_id" format="ascii" RangeMin="2" RangeMax="2">
          2 2 2 2 2 2
          2 2 2 2 2 2
          2 2 2 2 2 2
          2 2 2 2 2 2
          2 2 2 2 2 2
          2 2 2 2 2 2
          2 2 2 2 2 2
          2 2 2 2 2 2
          2 2 2 2 2 2
          2 2 2 2 2 2
          2 2 2 2 2 2
          2 2 2 2 2 2
          2 2 2 2 2 2
          2 2 2 2 2 2
          2 2 2 2 2 2
          2 2 2 2 2 2
          2 2 2 2 2 2
          2 2 2 2 2 2
          2 2 2 2 2 2
          2 2 2 2 2 2
          2 2 2 2 2 2
          2 2 2 2 2 2
          2 2 2 2 2 2
          2 2 2 2 2 2
          2 2 2 2 2 2
          2 2 2 2 2 2
          2 2 2 2 2 2
          2 2 2 2 2 2
          2 2 2 2 2 2
          2 2 2 2 2 2
          2 2 2 2 2 2
          2 2 2 2 2 2
          2 2 2 2 2 2
          2 2 2 2 2 2
          2 2 2 2 2 2
          2 2 2 2 2 2
          2 2 2 2 2 2
          2 2 2 2 2 2
          2 2 2 2 2 2
          2 2 2 2 2 2
          2 2 2 2 2 2
          2 2 2 2 2 2
          2 2 2 2 2 2
          2 2 2 2 2 2
          2 2 2 2 2 2
          2 2 2 2 2 2
          2 2 2 2 2 2
          2 2 2 2 2 2
          2 2 2 2 2 2
          2 2 2 2 2 2
          2 2 2 2 2 2
          2 2 2 2 2 2
          2 2 2 2 2 2
          2 2 2 2 2 2
          2 2 2 2 2 2
          2 2 2 2 2 2
          2 2 2 2 2 2
          2 2 2 2 2 2
          2 2 2 2 2 2
          2 2 2 2 2 2
          2 2 2 2 2 2
          2 2 2 2 2 2
          2 2 2 2 2 2
          2 2 2 2 2 2
          2 2 2 2 2 2
          2 2 2 2 2 2
          2 2 2 2 2 2
          2 2 2 2 2 2
          2 2 2 2 2 2
          2 2 2 2 2 2
          2 2 2 2 2 2
          2 2 2 2 2 2
          2 2 2 2 2 2
          2 2 2 2 2 2
          2 2 2 2 2 2
          2 2
        </DataArray>
      </CellData>
      <Points>
        <DataArray type="Float64" Name="Points" NumberOfComponents="3" format="ascii" RangeMin="0.0055128205128194" RangeMax="0.014586579917196396">
          0.010655961336451 0.0054415469453289 0 0.010738296327413 0.0059250363170334 0
          0.010252884061106 0.0059462536680524 0 0.010205117478458 0.0054994523140404 0
          0.010655961336451 0.0054415469453289 0.00015 0.010738296327413 0.0059250363170334 0.00015
          0.010252884061106 0.0059462536680524 0.00015 0.010205117478458 0.0054994523140404 0.00015
          0.010655961336451 0.0054415469453289 0.0003 0.010738296327413 0.0059250363170334 0.0003
          0.010252884061106 0.0059462536680524 0.0003 0.010205117478458 0.0054994523140404 0.0003
          0.011940440807394 0.0034141066074527 0 0.011459595517011 0.003824326979063 0
          0.011102612382238 0.0034627190197861 0 0.011355953963772 0.0030463545109029 0
          0.011940440807394 0.0034141066074527 0.00015 0.011459595517011 0.003824326979063 0.00015
          0.011102612382238 0.0034627190197861 0.00015 0.011355953963772 0.0030463545109029 0.00015
          0.011940440807394 0.0034141066074527 0.0003 0.011459595517011 0.003824326979063 0.0003
          0.011102612382238 0.0034627190197861 0.0003 0.011355953963772 0.0030463545109029 0.0003
          0.010057653370411 0.0084974472595183 0 0.01054988842507 0.0084422245958245 0
          0.010057653370411 0.0084974472595183 0.00015 0.01054988842507 0.0084422245958245 0.00015
          0.010057653370411 0.0084974472595183 0.0003 0.01054988842507 0.0084422245958245 0.0003
          0.011046194733105 0.00090743319272295 0 0.011064186406242 0.00044456569898216 0
          0.011549090679959 0.00043919238601916 0 0.011507246232172 0.00087204304167501 0
          0.011046194733105 0.00090743319272295 0.00015 0.011064186406242 0.00044456569898216 0.00015
          0.011549090679959 0.00043919238601916 0.00015 0.011507246232172 0.00087204304167501 0.00015
          0.011046194733105 0.00090743319272295 0.0003 0.011064186406242 0.00044456569898216 0.0003
          0.011549090679959 0.00043919238601916 0.0003 0.011507246232172 0.00087204304167501 0.0003
          0.010695724673322 0.003201084864495 0 0.010922769205465 0.002821493997395 0
          0.010695724673322 0.003201084864495 0.00015 0.010922769205465 0.002821493997395 0.00015
          0.010695724673322 0.003201084864495 0.0003 0.010922769205465 0.002821493997395 0.0003
          0.0063972422249218 0.0045440807567198 0 0.0065062213292024 0.0050164807168814 0
          0.0062389906493372 0.0053128670028646 0 0.0060512178389602 0.0047929387822649 0
          0.0063972422249218 0.0045440807567198 0.00015 0.0065062213292024 0.0050164807168814 0.00015
          0.0062389906493372 0.0053128670028646 0.00015 0.0060512178389602 0.0047929387822649 0.00015
          0.0063972422249218 0.0045440807567198 0.0003 0.0065062213292024 0.0050164807168814 0.0003
          0.0062389906493372 0.0053128670028646 0.0003 0.0060512178389602 0.0047929387822649 0.0003
          0.0077450758336629 0.0014176167893871 0 0.0081853433575 0.0016343392489207 0
          0.0081296210030831 0.0020475545417094 0 0.0077097822266787 0.0019577759081516 0
          0.0077450758336629 0.0014176167893871 0.00015 0.0081853433575 0.0016343392489207 0.00015
          0.0081296210030831 0.0020475545417094 0.00015 0.0077097822266787 0.0019577759081516 0.00015
          0.0077450758336629 0.0014176167893871 0.0003 0.0081853433575 0.0016343392489207 0.0003
          0.0081296210030831 0.0020475545417094 0.0003 0.0077097822266787 0.0019577759081516 0.0003
          0.010163700921554 0.0050965322104848 0 0.010539876174215 0.0050107335132671 0
          0.010163700921554 0.0050965322104848 0.00015 0.010539876174215 0.0050107335132671 0.00015
          0.010163700921554 0.0050965322104848 0.0003 0.010539876174215 0.0050107335132671 0.0003
          0.0067145785472978 0.00092067788586619 0 0.0066311284750677 0.00045344715700039 0
          0.0071039644964018 0.00045254776362746 0 0.0071622170579096 0.00091220258976311 0
          0.0067145785472978 0.00092067788586619 0.00015 0.0066311284750677 0.00045344715700039 0.00015
          0.0071039644964018 0.00045254776362746 0.00015 0.0071622170579096 0.00091220258976311 0.00015
          0.0067145785472978 0.00092067788586619 0.0003 0.0066311284750677 0.00045344715700039 0.0003
          0.0071039644964018 0.00045254776362746 0.0003 0.0071622170579096 0.00091220258976311 0.0003
          0.011832021157187 0.0073476785459853 0 0.011779780861271 0.0068646395959748 0
          0.012243708910156 0.0068324173193727 0 0.011832021157187 0.0073476785459853 0.00015
          0.011779780861271 0.0068646395959748 0.00015 0.012243708910156 0.0068324173193727 0.00015
          0.011832021157187 0.0073476785459853 0.0003 0.011779780861271 0.0068646395959748 0.0003
          0.012243708910156 0.0068324173193727 0.0003 0.0084907788898463 0.00044286110481525 0
          0.0089555217282148 0.00046389179151574 0 0.0088246864415892 0.00090448805343066 0
          0.0084146790711037 0.00087434414493667 0 0.0084907788898463 0.00044286110481525 0.00015
          0.0089555217282148 0.00046389179151574 0.00015 0.0088246864415892 0.00090448805343066 0.00015
          0.0084146790711037 0.00087434414493667 0.00015 0.0084907788898463 0.00044286110481525 0.0003
          0.0089555217282148 0.00046389179151574 0.0003 0.0088246864415892 0.00090448805343066 0.0003
          0.0084146790711037 0.00087434414493667 0.0003 0.0073198391209489 0.002802975731369 0
          0.007729981097025 0.0028801564362105 0 0.0077015154526268 0.0033237594367458 0
          0.0072927827923603 0.0032114269239825 0 0.0073198391209489 0.002802975731369 0.00015
          0.007729981097025 0.0028801564362105 0.00015 0.0077015154526268 0.0033237594367458 0.00015
          0.0072927827923603 0.0032114269239825 0.00015 0.0073198391209489 0.002802975731369 0.0003
          0.007729981097025 0.0028801564362105 0.0003 0.0077015154526268 0.0033237594367458 0.0003
          0.0072927827923603 0.0032114269239825 0.0003 0.011061956134478 0.0014022262787872 0
          0.011061956134478 0.0014022262787872 0.00015 0.011061956134478 0.0014022262787872 0.0003
          0.0067262777673885 0.0043003855308917 0 0.0070184374453973 0.0044097475846897 0
          0.0069143452336461 0.0047780273607631 0 0.0067262777673885 0.0043003855308917 0.00015
          0.0070184374453973 0.0044097475846897 0.00015 0.0069143452336461 0.0047780273607631 0.00015
          0.0067262777673885 0.0043003855308917 0.0003 0.0070184374453973 0.0044097475846897 0.0003
          0.0069143452336461 0.0047780273607631 0.0003 0.0072966772765568 0.0023596996909359 0
          0.0077191611848381 0.0024307703640478 0 0.0072966772765568 0.0023596996909359 0.00015
          0.0077191611848381 0.0024307703640478 0.00015 0.0072966772765568 0.0023596996909359 0.0003
          0.0077191611848381 0.0024307703640478 0.0003 0.010569749843509 0.00092230265866691 0
          0.010578573679683 0.0013844170604281 0 0.010145320905195 0.0014335884987508 0
          0.01008894187929 0.00096115561381429 0 0.010569749843509 0.00092230265866691 0.00015
          0.010578573679683 0.0013844170604281 0.00015 0.010145320905195 0.0014335884987508 0.00015
          0.01008894187929 0.00096115561381429 0.00015 0.010569749843509 0.00092230265866691 0.0003
          0.010578573679683 0.0013844170604281 0.0003 0.010145320905195 0.0014335884987508 0.0003
          0.01008894187929 0.00096115561381429 0.0003 0.0061669869081239 0.00049673093518566 0
          0.0062913293509889 0.00097410606592609 0 0.0059245902968253 0.0010856763727913 0
          0.0057061681768373 0.00065177476244477 0 0.0061669869081239 0.00049673093518566 0.00015
          0.0062913293509889 0.00097410606592609 0.00015 0.0059245902968253 0.0010856763727913 0.00015
          0.0057061681768373 0.00065177476244477 0.00015 0.0061669869081239 0.00049673093518566 0.0003
          0.0062913293509889 0.00097410606592609 0.0003 0.0059245902968253 0.0010856763727913 0.0003
          0.0057061681768373 0.00065177476244477 0.0003 0.010613957240618 0.0022894151744625 0
          0.011031068838334 0.0023895404946521 0 0.01053554486979 0.0026566023779455 0
          0.010613957240618 0.0022894151744625 0.00015 0.011031068838334 0.0023895404946521 0.00015
          0.01053554486979 0.0026566023779455 0.00015 0.010613957240618 0.0022894151744625 0.0003
          0.011031068838334 0.0023895404946521 0.0003 0.01053554486979 0.0026566023779455 0.0003
          0.0055128205128194 0 0 0.0060256410256386 0 0
          0.0055128205128194 0 0.00015 0.0060256410256386 0 0.00015
          0.0055128205128194 0 0.0003 0.0060256410256386 0 0.0003
          0.0087932726011055 0.003543484648519 0 0.0081725565838686 0.0034418576035907 0
          0.0081844882448281 0.0029554535172717 0 0.0086653225286358 0.0029358056411338 0
          0.0087932726011055 0.003543484648519 0.00015 0.0081725565838686 0.0034418576035907 0.00015
          0.0081844882448281 0.0029554535172717 0.00015 0.0086653225286358 0.0029358056411338 0.00015
          0.0087932726011055 0.003543484648519 0.0003 0.0081725565838686 0.0034418576035907 0.0003
          0.0081844882448281 0.0029554535172717 0.0003 0.0086653225286358 0.0029358056411338 0.0003
          0.010609256891376 0.0018508518753275 0 0.011063963632424 0.0019108783312894 0
          0.010609256891376 0.0018508518753275 0.00015 0.011063963632424 0.0019108783312894 0.00015
          0.010609256891376 0.0018508518753275 0.0003 0.011063963632424 0.0019108783312894 0.0003
          0.0061614658010566 0.0029736343202522 0 0.0061372854142827 0.0036106222238676 0
          0.0061614658010566 0.0029736343202522 0.00015 0.0061372854142827 0.0036106222238676 0.00015
          0.0061614658010566 0.0029736343202522 0.0003 0.0061372854142827 0.0036106222238676 0.0003
          0.0091223832784702 0.0028108558594978 0 0.0093224708097351 0.0032450014434347 0
          0.0091223832784702 0.0028108558594978 0.00015 0.0093224708097351 0.0032450014434347 0.00015
          0.0091223832784702 0.0028108558594978 0.0003 0.0093224708097351 0.0032450014434347 0.0003
          0.010365654248251 0.0046741943492533 0 0.010130092133721 0.0048347586786618 0
          0.0098673679311407 0.0047157860708196 0 0.010078628200493 0.0044157313734999 0
          0.010365654248251 0.0046741943492533 0.00015 0.010130092133721 0.0048347586786618 0.00015
          0.0098673679311407 0.0047157860708196 0.00015 0.010078628200493 0.0044157313734999 0.00015
          0.010365654248251 0.0046741943492533 0.0003 0.010130092133721 0.0048347586786618 0.0003
          0.0098673679311407 0.0047157860708196 0.0003 0.010078628200493 0.0044157313734999 0.0003
          0.0074225055052033 0.0045889494028562 0 0.0073125071067115 0.0049521547682488 0
          0.0074225055052033 0.0045889494028562 0.00015 0.0073125071067115 0.0049521547682488 0.00015
          0.0074225055052033 0.0045889494028562 0.0003 0.0073125071067115 0.0049521547682488 0.0003
          0.0061231952422177 0.002444135475079 0 0.0061231952422177 0.002444135475079 0.00015
          0.0061231952422177 0.002444135475079 0.0003 0.007634491258567 0.0037589111207536 0
          0.0080978935956725 0.0039120786728548 0 0.007634491258567 0.0037589111207536 0.00015
          0.0080978935956725 0.0039120786728548 0.00015 0.007634491258567 0.0037589111207536 0.0003
          0.0080978935956725 0.0039120786728548 0.0003 0.0067400809843091 0.0034207975388345 0
          0.0067100713183769 0.0039836679330495 0 0.0063054236008776 0.0041223407032968 0
          0.0067400809843091 0.0034207975388345 0.00015 0.0067100713183769 0.0039836679330495 0.00015
          0.0063054236008776 0.0041223407032968 0.00015 0.0067400809843091 0.0034207975388345 0.0003
          0.0067100713183769 0.0039836679330495 0.0003 0.0063054236008776 0.0041223407032968 0.0003
          0.0064429727892239 0.0018594619814901 0 0.0065003657821779 0.0023397297588745 0
          0.0060722038988066 0.0019538017587265 0 0.0064429727892239 0.0018594619814901 0.00015
          0.0065003657821779 0.0023397297588745 0.00015 0.0060722038988066 0.0019538017587265 0.00015
          0.0064429727892239 0.0018594619814901 0.0003 0.0065003657821779 0.0023397297588745 0.0003
          0.0060722038988066 0.0019538017587265 0.0003 0.0068255396015086 0.0051581133306003 0
          0.0068255396015086 0.0051581133306003 0.00015 0.0068255396015086 0.0051581133306003 0.0003
          0.0065384615384579 0 0 0.0065384615384579 0 0.00015
          0.0065384615384579 0 0.0003 0.012879713087233 0.0060908484912964 0
          0.012982043505355 0.0056371881930815 0 0.012879713087233 0.0060908484912964 0.00015
          0.012982043505355 0.0056371881930815 0.00015 0.012879713087233 0.0060908484912964 0.0003
          0.012982043505355 0.0056371881930815 0.0003 0.0065699942646101 0.0028542668018424 0
          0.0065699942646101 0.0028542668018424 0.00015 0.0065699942646101 0.0028542668018424 0.0003
          0.0084683943974961 0.0045583446766593 0 0.0079943718437571 0.0043747262241866 0
          0.0085823759797054 0.0040943119694046 0 0.0084683943974961 0.0045583446766593 0.00015
          0.0079943718437571 0.0043747262241866 0.00015 0.0085823759797054 0.0040943119694046 0.00015
          0.0084683943974961 0.0045583446766593 0.0003 0.0079943718437571 0.0043747262241866 0.0003
          0.0085823759797054 0.0040943119694046 0.0003 0.0085830886495109 0.0024681574500846 0
          0.0090044137010858 0.0023542069269131 0 0.0085830886495109 0.0024681574500846 0.00015
          0.0090044137010858 0.0023542069269131 0.00015 0.0085830886495109 0.0024681574500846 0.0003
          0.0090044137010858 0.0023542069269131 0.0003 0.0098857235699117 0.0079055319030787 0
          0.0095144479526816 0.0076594245921199 0 0.0094715724969347 0.0073263583858313 0
          0.0099283521138692 0.0073475677072736 0 0.0098857235699117 0.0079055319030787 0.00015
          0.0095144479526816 0.0076594245921199 0.00015 0.0094715724969347 0.0073263583858313 0.00015
          0.0099283521138692 0.0073475677072736 0.00015 0.0098857235699117 0.0079055319030787 0.0003
          0.0095144479526816 0.0076594245921199 0.0003 0.0094715724969347 0.0073263583858313 0.0003
          0.0099283521138692 0.0073475677072736 0.0003 0.010833716827414 0.0069257207373803 0
          0.010357413059119 0.0069077241183533 0 0.010300982556592 0.0064274708783385 0
          0.010786080808085 0.0064391381968206 0 0.010833716827414 0.0069257207373803 0.00015
          0.010357413059119 0.0069077241183533 0.00015 0.010300982556592 0.0064274708783385 0.00015
          0.010786080808085 0.0064391381968206 0.00015 0.010833716827414 0.0069257207373803 0.0003
          0.010357413059119 0.0069077241183533 0.0003 0.010300982556592 0.0064274708783385 0.0003
          0.010786080808085 0.0064391381968206 0.0003 0.012723582323863 0.006509831652106 0
          0.012251440655851 0.0062918667587536 0 0.012542392069256 0.0059723735377719 0
          0.012723582323863 0.006509831652106 0.00015 0.012251440655851 0.0062918667587536 0.00015
          0.012542392069256 0.0059723735377719 0.00015 0.012723582323863 0.006509831652106 0.0003
          0.012251440655851 0.0062918667587536 0.0003 0.012542392069256 0.0059723735377719 0.0003
          0.0071151184692216 0.0040272738406853 0 0.0071151184692216 0.0040272738406853 0.00015
          0.0071151184692216 0.0040272738406853 0.0003 0.005927800859391 0.0043689372395662 0
          0.005927800859391 0.0043689372395662 0.00015 0.005927800859391 0.0043689372395662 0.0003
          0.0092411258002763 0.0078319639415625 0 0.0089588909882048 0.0073942383853577 0
          0.0092411258002763 0.0078319639415625 0.00015 0.0089588909882048 0.0073942383853577 0.00015
          0.0092411258002763 0.0078319639415625 0.0003 0.0089588909882048 0.0073942383853577 0.0003
          0.009874674666521 0.0068715373563056 0 0.010410157305432 0.007394545582291 0
          0.009874674666521 0.0068715373563056 0.00015 0.010410157305432 0.007394545582291 0.00015
          0.009874674666521 0.0068715373563056 0.0003 0.010410157305432 0.007394545582291 0.0003
          0.0075354000991736 0.004186248288406 0 0.0075354000991736 0.004186248288406 0.00015
          0.0075354000991736 0.004186248288406 0.0003 0.01131847387487 0.0058224977902188 0
          0.011696082283392 0.0060272916092408 0 0.011725204011411 0.0063910302275778 0
          0.011265055974573 0.0064250601080915 0 0.01131847387487 0.0058224977902188 0.00015
          0.011696082283392 0.0060272916092408 0.00015 0.011725204011411 0.0063910302275778 0.00015
          0.011265055974573 0.0064250601080915 0.00015 0.01131847387487 0.0058224977902188 0.0003
          0.011696082283392 0.0060272916092408 0.0003 0.011725204011411 0.0063910302275778 0.0003
          0.011265055974573 0.0064250601080915 0.0003 0.012000241143886 0.0058170880130831 0
          0.012000241143886 0.0058170880130831 0.00015 0.012000241143886 0.0058170880130831 0.0003
          0.011120492592586 0.0052514705902296 0 0.011120492592586 0.0052514705902296 0.00015
          0.011120492592586 0.0052514705902296 0.0003 0.0092910901193945 0.0039260363263486 0
          0.0090503465409481 0.0043132092761106 0 0.0092910901193945 0.0039260363263486 0.00015
          0.0090503465409481 0.0043132092761106 0.00015 0.0092910901193945 0.0039260363263486 0.0003
          0.0090503465409481 0.0043132092761106 0.0003 0.007889027184575 0.0048982243533992 0
          0.007889027184575 0.0048982243533992 0.00015 0.007889027184575 0.0048982243533992 0.0003
          0.0094935553236164 0.004533528646427 0 0.0097061514105808 0.0041851036755216 0
          0.0094935553236164 0.004533528646427 0.00015 0.0097061514105808 0.0041851036755216 0.00015
          0.0094935553236164 0.004533528646427 0.0003 0.0097061514105808 0.0041851036755216 0.0003
          0.007602124101561 0.0050930903063015 0 0.007602124101561 0.0050930903063015 0.00015
          0.007602124101561 0.0050930903063015 0.0003 0.010723762445737 0.0044202706845482 0
          0.010410164583979 0.0041181159817359 0 0.010723762445737 0.0044202706845482 0.00015
          0.010410164583979 0.0041181159817359 0.00015 0.010723762445737 0.0044202706845482 0.0003
          0.010410164583979 0.0041181159817359 0.0003 0.01095205032792 0.0047963590452232 0
          0.01095205032792 0.0047963590452232 0.00015 0.01095205032792 0.0047963590452232 0.0003
          0.011303178752756 0.0069106117689346 0 0.011303178752756 0.0069106117689346 0.00015
          0.011303178752756 0.0069106117689346 0.0003 0.01003253261535 0.0038623502872685 0
          0.01003253261535 0.0038623502872685 0.00015 0.01003253261535 0.0038623502872685 0.0003
          0.0076528923620256 0.0053996878686031 0 0.0072494384034052 0.005322441352826 0
          0.0076528923620256 0.0053996878686031 0.00015 0.0072494384034052 0.005322441352826 0.00015
          0.0076528923620256 0.0053996878686031 0.0003 0.0072494384034052 0.005322441352826 0.0003
          0.0096442187720765 0.0035928190702974 0 0.0096442187720765 0.0035928190702974 0.00015
          0.0096442187720765 0.0035928190702974 0.0003 0.012013949131265 0.002158444108951 0
          0.012018063243501 0.0027123142038817 0 0.012013949131265 0.002158444108951 0.00015
          0.012018063243501 0.0027123142038817 0.00015 0.012013949131265 0.002158444108951 0.0003
          0.012018063243501 0.0027123142038817 0.0003 0.0080144547016537 0.00086684480617367 0
          0.008304219624614 0.0012703006012415 0 0.0080327132462595 0.0011721512048422 0
          0.0080144547016537 0.00086684480617367 0.00015 0.008304219624614 0.0012703006012415 0.00015
          0.0080327132462595 0.0011721512048422 0.00015 0.0080144547016537 0.00086684480617367 0.0003
          0.008304219624614 0.0012703006012415 0.0003 0.0080327132462595 0.0011721512048422 0.0003
          0.0094736490244467 0.0005865877812969 0 0.010068957850501 0.00047856930843549 0
          0.0096358530086744 0.0010887425154837 0 0.0094736490244467 0.0005865877812969 0.00015
          0.010068957850501 0.00047856930843549 0.00015 0.0096358530086744 0.0010887425154837 0.00015
          0.0094736490244467 0.0005865877812969 0.0003 0.010068957850501 0.00047856930843549 0.0003
          0.0096358530086744 0.0010887425154837 0.0003 0.0071984303565192 0.0057392272964834 0
          0.0067200519522164 0.0055550541115669 0 0.0071984303565192 0.0057392272964834 0.00015
          0.0067200519522164 0.0055550541115669 0.00015 0.0071984303565192 0.0057392272964834 0.0003
          0.0067200519522164 0.0055550541115669 0.0003 0.013091675611077 0.0041736873632184 0
          0.012621380555602 0.004071395146678 0 0.012601464682814 0.0035037767307713 0
          0.013091675611077 0.0041736873632184 0.00015 0.012621380555602 0.004071395146678 0.00015
          0.012601464682814 0.0035037767307713 0.00015 0.013091675611077 0.0041736873632184 0.0003
          0.012621380555602 0.004071395146678 0.0003 0.012601464682814 0.0035037767307713 0.0003
          0.01153639784925 0.0020208067996516 0 0.011496246026306 0.0025480504488598 0
          0.01153639784925 0.0020208067996516 0.00015 0.011496246026306 0.0025480504488598 0.00015
          0.01153639784925 0.0020208067996516 0.0003 0.011496246026306 0.0025480504488598 0.0003
          0.011043213382792 0.0084269911709333 0 0.011043213382792 0.0084269911709333 0.00015
          0.011043213382792 0.0084269911709333 0.0003 0.010128205128191 0 0
          0.0096153846153732 0 0 0.010128205128191 0 0.00015
          0.0096153846153732 0 0.00015 0.010128205128191 0 0.0003
          0.0096153846153732 0 0.0003 0.0091025641025551 0 0
          0.0085897435897353 0 0 0.0091025641025551 0 0.00015
          0.0085897435897353 0 0.00015 0.0091025641025551 0 0.0003
          0.0085897435897353 0 0.0003 0.0085182476127008 0.0020437661198126 0
          0.0089029205554566 0.0019047336662455 0 0.0085182476127008 0.0020437661198126 0.00015
          0.0089029205554566 0.0019047336662455 0.00015 0.0085182476127008 0.0020437661198126 0.0003
          0.0089029205554566 0.0019047336662455 0.0003 0.0081522818828449 0.0024947087352937 0
          0.0081522818828449 0.0024947087352937 0.00015 0.0081522818828449 0.0024947087352937 0.0003
          0.010641025641009 0 0 0.010579843756946 0.00045349299099366 0
          0.010641025641009 0 0.00015 0.010579843756946 0.00045349299099366 0.00015
          0.010641025641009 0 0.0003 0.010579843756946 0.00045349299099366 0.0003
          0.011153846153828 0 0 0.011153846153828 0 0.00015
          0.011153846153828 0 0.0003 0.011760912133753 0.0054122119446059 0
          0.011760912133753 0.0054122119446059 0.00015 0.011760912133753 0.0054122119446059 0.0003
          0.011666666666648 0 0 0.011666666666648 0 0.00015
          0.011666666666648 0 0.0003 0.011547825504055 0.0049713459697514 0
          0.011547825504055 0.0049713459697514 0.00015 0.011547825504055 0.0049713459697514 0.0003
          0.011349632014182 0.0045239710214715 0 0.011349632014182 0.0045239710214715 0.00015
          0.011349632014182 0.0045239710214715 0.0003 0.011997463288521 0.00046572766410539 0
          0.012179487179468 0 0 0.011997463288521 0.00046572766410539 0.00015
          0.012179487179468 0 0.00015 0.011997463288521 0.00046572766410539 0.0003
          0.012179487179468 0 0.0003 0.01039056673058 0.0035410773695937 0
          0.010772622187787 0.0038062315725381 0 0.01039056673058 0.0035410773695937 0.00015
          0.010772622187787 0.0038062315725381 0.00015 0.01039056673058 0.0035410773695937 0.0003
          0.010772622187787 0.0038062315725381 0.0003 0.0089323359070786 0.0047421281357296 0
          0.0089323359070786 0.0047421281357296 0.00015 0.0089323359070786 0.0047421281357296 0.0003
          0.010891746765568 0.007407252260552 0 0.010891746765568 0.007407252260552 0.00015
          0.010891746765568 0.007407252260552 0.0003 0.011089383238376 0.0041358143249023 0
          0.011089383238376 0.0041358143249023 0.00015 0.011089383238376 0.0041358143249023 0.0003
          0.007205317033861 0.0036141963404016 0 0.007205317033861 0.0036141963404016 0.00015
          0.007205317033861 0.0036141963404016 0.0003 0.0080269839945158 0.0054023282425744 0
          0.0080269839945158 0.0054023282425744 0.00015 0.0080269839945158 0.0054023282425744 0.0003
          0.0077721363879251 0.0058968168784219 0 0.0077721363879251 0.0058968168784219 0.00015
          0.0077721363879251 0.0058968168784219 0.0003 0.0095370253310475 0.0025850582106885 0
          0.009732219723835 0.0029713438236062 0 0.0095370253310475 0.0025850582106885 0.00015
          0.009732219723835 0.0029713438236062 0.00015 0.0095370253310475 0.0025850582106885 0.0003
          0.009732219723835 0.0029713438236062 0.0003 0.0094100372761059 0.0021522308351028 0
          0.0094100372761059 0.0021522308351028 0.00015 0.0094100372761059 0.0021522308351028 0.0003
          0.0087313387484914 0.001424359608332 0 0.0084651319029022 0.0017289788972556 0
          0.0087313387484914 0.001424359608332 0.00015 0.0084651319029022 0.0017289788972556 0.00015
          0.0087313387484914 0.001424359608332 0.0003 0.0084651319029022 0.0017289788972556 0.0003
          0.011363196701121 0.0073867521895413 0 0.011894488312007 0.0078344841271679 0
          0.011431801070778 0.0078815011129823 0 0.011363196701121 0.0073867521895413 0.00015
          0.011894488312007 0.0078344841271679 0.00015 0.011431801070778 0.0078815011129823 0.00015
          0.011363196701121 0.0073867521895413 0.0003 0.011894488312007 0.0078344841271679 0.0003
          0.011431801070778 0.0078815011129823 0.0003 0.011511795106494 0.0083968566041475 0
          0.011511795106494 0.0083968566041475 0.00015 0.011511795106494 0.0083968566041475 0.0003
          0.0093066157528448 0.0017085494075796 0 0.0093066157528448 0.0017085494075796 0.00015
          0.0093066157528448 0.0017085494075796 0.0003 0.011737204813157 0.0042624504192267 0
          0.011920232844873 0.0047153506313134 0 0.011737204813157 0.0042624504192267 0.00015
          0.011920232844873 0.0047153506313134 0.00015 0.011737204813157 0.0042624504192267 0.0003
          0.011920232844873 0.0047153506313134 0.0003 0.0097199155871303 0.0015315099671301 0
          0.0098040259351994 0.0019696894002764 0 0.0097199155871303 0.0015315099671301 0.00015
          0.0098040259351994 0.0019696894002764 0.00015 0.0097199155871303 0.0015315099671301 0.0003
          0.0098040259351994 0.0019696894002764 0.0003 0.0099068743951204 0.0023814903757239 0
          0.0099068743951204 0.0023814903757239 0.00015 0.0099068743951204 0.0023814903757239 0.0003
          0.010196799496301 0.0018655242590307 0 0.010252080701677 0.0022738797315184 0
          0.010196799496301 0.0018655242590307 0.00015 0.010252080701677 0.0022738797315184 0.00015
          0.010196799496301 0.0018655242590307 0.0003 0.010252080701677 0.0022738797315184 0.0003
          0.0082479601882269 0.0062087007836213 0 0.0083721174281176 0.0058457654542534 0
          0.0087793359412623 0.006030240425184 0 0.0086690881028679 0.0063945203238097 0
          0.0082479601882269 0.0062087007836213 0.00015 0.0083721174281176 0.0058457654542534 0.00015
          0.0087793359412623 0.006030240425184 0.00015 0.0086690881028679 0.0063945203238097 0.00015
          0.0082479601882269 0.0062087007836213 0.0003 0.0083721174281176 0.0058457654542534 0.0003
          0.0087793359412623 0.006030240425184 0.0003 0.0086690881028679 0.0063945203238097 0.0003
          0.0098103305116681 0.0063862496116293 0 0.0098103305116681 0.0063862496116293 0.00015
          0.0098103305116681 0.0063862496116293 0.0003 0.0084248193747317 0.0050261658136402 0
          0.0084248193747317 0.0050261658136402 0.00015 0.0084248193747317 0.0050261658136402 0.0003
          0.0069463016830039 0.0027787422025108 0 0.0070048409545821 0.0031125297586922 0
          0.0069463016830039 0.0027787422025108 0.00015 0.0070048409545821 0.0031125297586922 0.00015
          0.0069463016830039 0.0027787422025108 0.0003 0.0070048409545821 0.0031125297586922 0.0003
          0.010028456835002 0.0032748409090605 0 0.010028456835002 0.0032748409090605 0.00015
          0.010028456835002 0.0032748409090605 0.0003 0.013084530633285 0.0046685927017207 0
          0.012657407202949 0.0045740785705039 0 0.013084530633285 0.0046685927017207 0.00015
          0.012657407202949 0.0045740785705039 0.00015 0.013084530633285 0.0046685927017207 0.0003
          0.012657407202949 0.0045740785705039 0.0003 0.0063788755008874 0.0014091508241809 0
          0.0060137569775388 0.0015029488511318 0 0.0063788755008874 0.0014091508241809 0.00015
          0.0060137569775388 0.0015029488511318 0.00015 0.0063788755008874 0.0014091508241809 0.0003
          0.0060137569775388 0.0015029488511318 0.0003 0.01196380743939 0.0083394019710021 0
          0.01196380743939 0.0083394019710021 0.00015 0.01196380743939 0.0083394019710021 0.0003
          0.010073855840534 0.0027196155419985 0 0.010289681297386 0.0025561678844121 0
          0.010073855840534 0.0027196155419985 0.00015 0.010289681297386 0.0025561678844121 0.00015
          0.010073855840534 0.0027196155419985 0.0003 0.010289681297386 0.0025561678844121 0.0003
          0.0093223919318803 0.0053434698815888 0 0.009764317340127 0.0054658727348424 0
          0.0097769212248058 0.0059119658621614 0 0.0093027527337708 0.0057939169389015 0
          0.0093223919318803 0.0053434698815888 0.00015 0.009764317340127 0.0054658727348424 0.00015
          0.0097769212248058 0.0059119658621614 0.00015 0.0093027527337708 0.0057939169389015 0.00015
          0.0093223919318803 0.0053434698815888 0.0003 0.009764317340127 0.0054658727348424 0.0003
          0.0097769212248058 0.0059119658621614 0.0003 0.0093027527337708 0.0057939169389015 0.0003
          0.0068882925124701 0.0023177669638962 0 0.0068882925124701 0.0023177669638962 0.00015
          0.0068882925124701 0.0023177669638962 0.0003 0.0092499592325966 0.0063238181416562 0
          0.0089620052424248 0.0065330227489775 0 0.0092499592325966 0.0063238181416562 0.00015
          0.0089620052424248 0.0065330227489775 0.00015 0.0092499592325966 0.0063238181416562 0.0003
          0.0089620052424248 0.0065330227489775 0.0003 0.0072168253422346 0.001397514094839 0
          0.0076041066380058 0.00089936619415626 0 0.0072168253422346 0.001397514094839 0.00015
          0.0076041066380058 0.00089936619415626 0.00015 0.0072168253422346 0.001397514094839 0.0003
          0.0076041066380058 0.00089936619415626 0.0003 0.0075718226613923 0.00044755222139025 0
          0.0075718226613923 0.00044755222139025 0.00015 0.0075718226613923 0.00044755222139025 0.0003
          0.012116660000204 0.0051206445675074 0 0.012116660000204 0.0051206445675074 0.00015
          0.012116660000204 0.0051206445675074 0.0003 0.0068338524094732 0.0018398489073113 0
          0.0068338524094732 0.0018398489073113 0.00015 0.0068338524094732 0.0018398489073113 0.0003
          0.0088473960481577 0.0056214227923259 0 0.0088473960481577 0.0056214227923259 0.00015
          0.0088473960481577 0.0056214227923259 0.0003 0.0081402125110085 0.0066115625704341 0
          0.0081402125110085 0.0066115625704341 0.00015 0.0081402125110085 0.0066115625704341 0.0003
          0.0067824993802385 0.0013824026215467 0 0.0072591856110724 0.0018865642034293 0
          0.0067824993802385 0.0013824026215467 0.00015 0.0072591856110724 0.0018865642034293 0.00015
          0.0067824993802385 0.0013824026215467 0.0003 0.0072591856110724 0.0018865642034293 0.0003
          0.0094035295411974 0.0068662830960629 0 0.0094035295411974 0.0068662830960629 0.00015
          0.0094035295411974 0.0068662830960629 0.0003 0.0080770297303238 0.0057078658228848 0
          0.0080770297303238 0.0057078658228848 0.00015 0.0080770297303238 0.0057078658228848 0.0003
          0.012455160230445 0.0055307966461266 0 0.012455160230445 0.0055307966461266 0.00015
          0.012455160230445 0.0055307966461266 0.0003 0.0092134396095011 0.0012639463069257 0
          0.0092134396095011 0.0012639463069257 0.00015 0.0092134396095011 0.0012639463069257 0.0003
          0.0085681017610313 0.0067725899286886 0 0.0085681017610313 0.0067725899286886 0.00015
          0.0085681017610313 0.0067725899286886 0.0003 0.010337781301114 0.0029713007827362 0
          0.010337781301114 0.0029713007827362 0.00015 0.010337781301114 0.0029713007827362 0.0003
          0.0080769230769162 0 0 0.0080362994401078 0.00044130282391618 0
          0.0075641025640979 0 0 0.0080769230769162 0 0.00015
          0.0080362994401078 0.00044130282391618 0.00015 0.0075641025640979 0 0.00015
          0.0080769230769162 0 0.0003 0.0080362994401078 0.00044130282391618 0.0003
          0.0075641025640979 0 0.0003 0.0084157309119158 0.0054663429893237 0
          0.0084157309119158 0.0054663429893237 0.00015 0.0084157309119158 0.0054663429893237 0.0003
          0.012625060394875 0.0050215313919928 0 0.012340535819996 0.0049145470001145 0
          0.012625060394875 0.0050215313919928 0.00015 0.012340535819996 0.0049145470001145 0.00015
          0.012625060394875 0.0050215313919928 0.0003 0.012340535819996 0.0049145470001145 0.0003
          0.0088807280393962 0.0051824777758032 0 0.0088807280393962 0.0051824777758032 0.00015
          0.0088807280393962 0.0051824777758032 0.0003 0.00978640191627 0.0050564284414982 0
          0.00978640191627 0.0050564284414982 0.00015 0.00978640191627 0.0050564284414982 0.0003
          0.007051282051278 0 0 0.007051282051278 0 0.00015
          0.007051282051278 0 0.0003 0.0089738769927721 0.0068608682916542 0
          0.0089738769927721 0.0068608682916542 0.00015 0.0089738769927721 0.0068608682916542 0.0003
          0.010464396561549 0.007914442793445 0 0.010959162019398 0.0079079830093058 0
          0.010464396561549 0.007914442793445 0.00015 0.010959162019398 0.0079079830093058 0.00015
          0.010464396561549 0.007914442793445 0.0003 0.010959162019398 0.0079079830093058 0.0003
          0.0093768424757788 0.0049206652486621 0 0.0093768424757788 0.0049206652486621 0.00015
          0.0093768424757788 0.0049206652486621 0.0003 0.0084364690699339 0.0071912877673881 0
          0.0084364690699339 0.0071912877673881 0.00015 0.0084364690699339 0.0071912877673881 0.0003
          0.011870414872976 0.00080294526771027 0 0.011870414872976 0.00080294526771027 0.00015
          0.011870414872976 0.00080294526771027 0.0003 0.013048655853798 0.0051555709380823 0
          0.013048655853798 0.0051555709380823 0.00015 0.013048655853798 0.0051555709380823 0.0003
          0.0091480378790118 0.00093783666102615 0 0.0091480378790118 0.00093783666102615 0.00015
          0.0091480378790118 0.00093783666102615 0.0003 0.012592651705639 0.0068198098450163 0
          0.012592651705639 0.0068198098450163 0.00015 0.012592651705639 0.0068198098450163 0.0003
          0.012272070002081 0.0045810549534562 0 0.012153081904124 0.0040944528080542 0
          0.012272070002081 0.0045810549534562 0.00015 0.012153081904124 0.0040944528080542 0.00015
          0.012272070002081 0.0045810549534562 0.0003 0.012153081904124 0.0040944528080542 0.0003
          0.011634800364854 0.0014122839921498 0 0.011634800364854 0.0014122839921498 0.00015
          0.011634800364854 0.0014122839921498 0.0003 0.012451479243686 0.0021914486022899 0
          0.012674188674928 0.0028095410694266 0 0.012451479243686 0.0021914486022899 0.00015
          0.012674188674928 0.0028095410694266 0.00015 0.012451479243686 0.0021914486022899 0.0003
          0.012674188674928 0.0028095410694266 0.0003 0.013121586466294 0.0036708577033715 0
          0.013121586466294 0.0036708577033715 0.00015 0.013121586466294 0.0036708577033715 0.0003
          0.013248150362312 0.0031919567697963 0 0.013248150362312 0.0031919567697963 0.00015
          0.013248150362312 0.0031919567697963 0.0003 0.012096711335481 0.0017058387426491 0
          0.012096711335481 0.0017058387426491 0.00015 0.012096711335481 0.0017058387426491 0.0003
          0.012692307692288 0 0 0.012542896420733 0.00061304595643839 0
          0.012692307692288 0 0.00015 0.012542896420733 0.00061304595643839 0.00015
          0.012692307692288 0 0.0003 0.012542896420733 0.00061304595643839 0.0003
          0.012384518900215 0.0018567382086698 0 0.012384518900215 0.0018567382086698 0.00015
          0.012384518900215 0.0018567382086698 0.0003 0.012087580163866 0.0010424427844857 0
          0.012087580163866 0.0010424427844857 0.00015 0.012087580163866 0.0010424427844857 0.0003
          <InformationKey name="L2_NORM_RANGE" location="vtkDataArray" length="2">
            <Value index="0">
              0.0055128205128
            </Value>
            <Value index="1">
              0.014586579917
            </Value>
          </InformationKey>
        </DataArray>
      </Points>
      <Cells>
        <DataArray type="Int64" Name="connectivity" format="ascii" RangeMin="0" RangeMax="773">
          0 1 2 3 4 5
          6 7 4 5 6 7
          8 9 10 11 12 13
          14 15 16 17 18 19
          16 17 18 19 20 21
          22 23 30 31 32 33
          34 35 36 37 34 35
          36 37 38 39 40 41
          15 14 42 43 19 18
          44 45 19 18 44 45
          23 22 46 47 48 49
          50 51 52 53 54 55
          52 53 54 55 56 57
          58 59 60 61 62 63
          64 65 66 67 64 65
          66 67 68 69 70 71
          3 72 73 0 7 74
          75 4 7 74 75 4
          11 76 77 8 78 79
          80 81 82 83 84 85
          82 83 84 85 86 87
          88 89 99 100 101 102
          103 104 105 106 103 104
          105 106 107 108 109 110
          111 112 113 114 115 116
          117 118 115 116 117 118
          119 120 121 122 744 123
          30 33 745 124 34 37
          745 124 34 37 746 125
          38 41 48 126 127 128
          52 129 130 131 52 129
          130 131 56 132 133 134
          135 136 112 111 137 138
          116 115 137 138 116 115
          139 140 120 119 141 142
          143 144 145 146 147 148
          145 146 147 148 149 150
          151 152 153 154 155 156
          157 158 159 160 157 158
          159 160 161 162 163 164
          165 166 43 167 168 169
          45 170 168 169 45 170
          171 172 47 173 174 175
          153 156 176 177 157 160
          176 177 157 160 178 179
          161 164 180 181 182 183
          184 185 186 187 184 185
          186 187 188 189 190 191
          166 165 192 193 169 168
          194 195 169 168 194 195
          172 171 196 197 112 182
          181 113 116 186 185 117
          116 186 185 117 120 190
          189 121 204 205 180 183
          206 207 184 187 206 207
          184 187 208 209 188 191
          210 211 212 213 214 215
          216 217 214 215 216 217
          218 219 220 221 222 223
          128 127 224 225 131 130
          224 225 131 130 226 227
          134 133 154 153 79 78
          158 157 83 82 158 157
          83 82 162 161 87 86
          231 113 181 232 233 117
          185 234 233 117 185 234
          235 121 189 236 237 238
          239 199 240 241 242 201
          240 241 242 201 243 244
          245 203 246 247 228 248
          249 250 229 251 249 250
          229 251 252 253 230 254
          255 49 48 128 256 53
          52 131 256 53 52 131
          257 57 56 134 175 258
          79 153 177 259 83 157
          177 259 83 157 179 260
          87 161 267 237 199 198
          268 240 201 200 268 240
          201 200 269 243 203 202
          270 271 232 272 273 274
          234 275 273 274 234 275
          276 277 236 278 267 198
          228 247 268 200 229 250
          268 200 229 250 269 202
          230 253 183 279 280 204
          187 281 282 206 187 281
          282 206 191 283 284 208
          285 286 287 288 289 290
          291 292 289 290 291 292
          293 294 295 296 297 298
          299 300 301 302 303 304
          301 302 303 304 305 306
          307 308 261 309 310 311
          263 312 313 314 263 312
          313 314 265 315 316 317
          238 318 127 126 241 319
          130 129 241 319 130 129
          244 320 133 132 324 325
          287 286 326 327 291 290
          326 327 291 290 328 329
          295 294 330 298 331 288
          332 302 333 292 332 302
          333 292 334 306 335 296
          318 336 222 127 319 337
          224 130 319 337 224 130
          320 338 226 133 339 340
          341 342 343 344 345 346
          343 344 345 346 347 348
          349 350 300 1 339 342
          304 5 343 346 304 5
          343 346 308 9 347 350
          351 310 341 340 352 313
          345 344 352 313 345 344
          353 316 349 348 354 339
          1 0 355 343 5 4
          355 343 5 4 356 347
          9 8 357 358 272 180
          359 360 275 184 359 360
          275 184 361 362 278 188
          48 239 238 126 52 242
          241 129 52 242 241 129
          56 245 244 132 336 271
          363 222 337 274 364 224
          337 274 364 224 338 277
          365 226 51 321 239 48
          55 322 242 52 55 322
          242 52 59 323 245 56
          366 367 213 212 368 369
          217 216 368 369 217 216
          370 371 221 220 223 222
          363 372 225 224 364 373
          225 224 364 373 227 226
          365 374 375 210 213 376
          377 214 217 378 377 214
          217 378 379 218 221 380
          375 381 73 210 377 382
          75 214 377 382 75 214
          379 383 77 218 381 354
          0 73 382 355 4 75
          382 355 4 75 383 356
          8 77 297 300 342 384
          301 304 346 385 301 304
          346 385 305 308 350 386
          376 213 367 387 378 217
          369 388 378 217 369 388
          380 221 371 389 223 372
          390 391 225 373 392 393
          225 373 392 393 227 374
          394 395 396 357 180 205
          397 359 184 207 397 359
          184 207 398 361 188 209
          387 367 357 396 388 369
          359 397 388 369 359 397
          389 371 361 398 399 747
          748 400 401 749 750 402
          401 749 750 402 403 751
          752 404 405 102 406 407
          408 106 409 410 408 106
          409 410 411 110 412 413
          180 272 232 181 184 275
          234 185 184 275 234 185
          188 278 236 189 414 415
          144 416 417 418 148 419
          417 418 148 419 420 421
          152 422 423 424 255 391
          425 426 256 393 425 426
          256 393 427 428 257 395
          429 430 431 753 432 433
          434 754 432 433 434 754
          435 436 437 755 438 399
          400 439 440 401 402 441
          440 401 402 441 442 403
          404 443 447 415 414 448
          449 418 417 450 449 418
          417 450 451 421 420 452
          453 100 99 454 455 104
          103 456 455 104 103 456
          457 108 107 458 279 459
          460 280 281 461 462 282
          281 461 462 282 283 463
          464 284 279 465 62 459
          281 466 66 461 281 466
          66 461 283 467 70 463
          448 414 100 453 450 417
          104 455 450 417 104 455
          452 420 108 457 468 469
          415 447 470 471 418 449
          470 471 418 449 472 473
          421 451 753 431 748 756
          754 434 750 757 754 434
          750 757 755 437 752 758
          400 748 431 12 402 750
          434 16 402 750 434 16
          404 752 437 20 474 31
          469 468 475 35 471 470
          475 35 471 470 476 39
          473 472 399 438 744 759
          401 440 745 760 401 440
          745 760 403 442 746 761
          339 477 351 340 343 478
          352 344 343 478 352 344
          347 479 353 348 367 366
          358 357 369 368 360 359
          369 368 360 359 371 370
          362 361 480 32 31 474
          481 36 35 475 481 36
          35 475 482 40 39 476
          483 477 339 354 484 478
          343 355 484 478 343 355
          485 479 347 356 486 483
          354 381 487 484 355 382
          487 484 355 382 488 485
          356 383 183 182 465 279
          187 186 466 281 187 186
          466 281 191 190 467 283
          762 763 489 490 764 765
          491 492 764 765 491 492
          766 767 493 494 490 489
          32 480 492 491 36 481
          492 491 36 481 494 493
          40 482 387 495 496 376
          388 497 498 378 388 497
          498 378 389 499 500 380
          501 270 272 358 502 273
          275 360 502 273 275 360
          503 276 278 362 504 331
          298 297 505 333 302 301
          505 333 302 301 506 335
          306 305 507 486 381 375
          508 487 382 377 508 487
          382 377 509 488 383 379
          318 238 237 510 319 241
          240 511 319 241 240 511
          320 244 243 512 50 49
          255 424 54 53 256 426
          54 53 256 426 58 57
          257 428 363 513 390 372
          364 514 392 373 364 514
          392 373 365 515 394 374
          516 423 391 390 517 425
          393 392 517 425 393 392
          518 427 395 394 519 520
          205 204 521 522 207 206
          521 522 207 206 523 524
          209 208 525 519 204 280
          526 521 206 282 526 521
          206 282 527 523 208 284
          528 460 459 529 530 462
          461 531 530 462 461 531
          532 464 463 533 534 90
          535 536 537 93 538 539
          537 93 538 539 540 96
          541 542 546 525 280 460
          547 526 282 462 547 526
          282 462 548 527 284 464
          759 768 747 399 760 769
          749 401 760 769 749 401
          761 770 751 403 507 375
          376 496 508 377 378 498
          508 377 378 498 509 379
          380 500 483 486 549 550
          484 487 551 552 484 487
          551 552 485 488 553 554
          231 232 271 336 233 234
          274 337 233 234 274 337
          235 236 277 338 391 255
          128 223 393 256 131 225
          393 256 131 225 395 257
          134 227 525 546 555 556
          526 547 557 558 526 547
          557 558 527 548 559 560
          519 525 556 561 521 526
          558 562 521 526 558 562
          523 527 560 563 561 556
          564 565 562 558 566 567
          562 558 566 567 563 560
          568 569 570 571 572 573
          574 575 576 577 574 575
          576 577 578 579 580 581
          2 1 300 299 6 5
          304 303 6 5 304 303
          10 9 308 307 582 299
          298 330 583 303 302 332
          583 303 302 332 584 307
          306 334 585 363 271 270
          586 364 274 273 586 364
          274 273 587 365 277 276
          555 416 144 143 557 419
          148 147 557 419 148 147
          559 422 152 151 588 589
          237 267 590 591 240 268
          590 591 240 268 592 593
          243 269 396 594 495 387
          397 595 497 388 397 595
          497 388 398 596 499 389
          594 396 205 520 595 397
          207 522 595 397 207 522
          596 398 209 524 597 598
          430 429 599 600 433 432
          599 600 433 432 601 602
          436 435 603 246 248 604
          605 249 251 606 605 249
          251 606 607 252 254 608
          72 211 210 73 74 215
          214 75 74 215 214 75
          76 219 218 77 536 535
          609 543 539 538 610 544
          539 538 610 544 542 541
          611 545 612 561 565 613
          614 562 567 615 614 562
          567 615 616 563 569 617
          618 619 620 621 622 623
          624 625 622 623 624 625
          626 627 628 629 630 588
          267 247 631 590 268 250
          631 590 268 250 632 592
          269 253 633 634 573 572
          635 636 577 576 635 636
          577 576 637 638 581 580
          60 639 81 640 64 641
          85 642 64 641 85 642
          68 643 89 644 561 612
          520 519 562 614 522 521
          562 614 522 521 563 616
          524 523 510 231 336 318
          511 233 337 319 511 233
          337 319 512 235 338 320
          640 81 80 645 642 85
          84 646 642 85 84 646
          644 89 88 647 550 648
          477 483 552 649 478 484
          552 649 478 484 554 650
          479 485 630 247 246 651
          631 250 249 652 631 250
          249 652 632 253 252 653
          633 572 654 621 635 576
          655 625 635 576 655 625
          637 580 656 629 15 43
          166 439 19 45 169 441
          19 45 169 441 23 47
          172 443 660 639 661 651
          662 641 663 652 662 641
          663 652 664 643 665 653
          666 330 288 287 667 332
          292 291 667 332 292 291
          668 334 296 295 603 660
          651 246 605 662 652 249
          605 662 652 249 607 664
          653 252 571 570 516 669
          575 574 517 670 575 574
          517 670 579 578 518 671
          672 262 261 311 673 264
          263 314 673 264 263 314
          674 266 265 317 416 555
          546 675 419 557 547 676
          419 557 547 676 422 559
          548 677 570 573 678 657
          574 577 679 658 574 577
          679 658 578 581 680 659
          495 42 14 496 497 44
          18 498 497 44 18 498
          499 46 22 500 61 529
          459 62 65 531 461 66
          65 531 461 66 69 533
          463 70 13 507 496 14
          17 508 498 18 17 508
          498 18 21 509 500 22
          114 510 237 589 118 511
          240 591 118 511 240 591
          122 512 243 593 513 669
          516 390 514 670 517 392
          514 670 517 392 515 671
          518 394 594 681 42 495
          595 682 44 497 595 682
          44 497 596 683 46 499
          114 589 588 111 118 591
          590 115 118 591 590 115
          122 593 592 119 510 114
          113 231 511 118 117 233
          511 118 117 233 512 122
          121 235 681 594 520 612
          682 595 522 614 682 595
          522 614 683 596 524 616
          684 685 645 686 687 688
          646 689 687 688 646 689
          690 691 647 692 693 654
          572 571 694 655 576 575
          694 655 576 575 695 656
          580 579 675 546 460 528
          676 547 462 530 676 547
          462 530 677 548 464 532
          439 400 12 15 441 402
          16 19 441 402 16 19
          443 404 20 23 696 672
          648 697 698 673 649 699
          698 673 649 699 700 674
          650 701 702 618 621 654
          703 622 625 655 703 622
          625 655 704 626 629 656
          72 705 212 211 74 706
          216 215 74 706 216 215
          76 707 220 219 182 112
          136 465 186 116 138 466
          186 116 138 466 190 120
          140 467 708 686 645 80
          709 689 646 84 709 689
          646 84 710 692 647 88
          91 341 310 92 94 345
          313 95 94 345 313 95
          97 349 316 98 135 630
          651 661 137 631 652 663
          137 631 652 663 139 632
          653 665 666 287 325 711
          667 291 327 712 667 291
          327 712 668 295 329 713
          444 25 714 715 445 27
          716 717 445 27 716 717
          446 29 718 719 705 720
          366 212 706 721 368 216
          706 721 368 216 707 722
          370 220 331 504 715 714
          333 505 717 716 333 505
          717 716 335 506 719 718
          13 549 486 507 17 551
          487 508 17 551 487 508
          21 553 488 509 571 669
          513 693 575 670 514 694
          575 670 514 694 579 671
          515 695 102 405 685 99
          106 408 688 103 106 408
          688 103 110 411 691 107
          672 351 477 648 673 352
          478 649 673 352 478 649
          674 353 479 650 693 513
          363 585 694 514 364 586
          694 514 364 586 695 515
          365 587 285 714 25 24
          289 716 27 26 289 716
          27 26 293 718 29 28
          143 142 192 564 147 146
          194 566 147 146 194 566
          151 150 196 568 726 489
          763 771 727 491 765 772
          727 491 765 772 728 493
          767 773 534 536 715 504
          537 539 717 505 537 539
          717 505 540 542 719 506
          165 565 564 192 168 567
          566 194 168 567 566 194
          171 569 568 196 78 81
          639 660 82 85 641 662
          82 85 641 662 86 89
          643 664 136 135 661 63
          138 137 663 67 138 137
          663 67 140 139 665 71
          729 262 672 696 730 264
          673 698 730 264 673 698
          731 266 674 700 630 135
          111 588 631 137 115 590
          631 137 115 590 632 139
          119 592 702 585 270 501
          703 586 273 502 703 586
          273 502 704 587 276 503
          585 702 654 693 586 703
          655 694 586 703 655 694
          587 704 656 695 61 406
          528 529 65 409 530 531
          65 409 530 531 69 412
          532 533 414 732 101 100
          417 733 105 104 417 733
          105 104 420 734 109 108
          63 62 465 136 67 66
          466 138 67 66 466 138
          71 70 467 140 501 720
          618 702 502 721 622 703
          502 721 622 703 503 722
          626 704 720 501 358 366
          721 502 360 368 721 502
          360 368 722 503 362 370
          685 684 454 99 688 687
          456 103 688 687 456 103
          691 690 458 107 685 405
          640 645 688 408 642 646
          688 408 642 646 691 411
          644 647 30 141 469 31
          34 145 471 35 34 145
          471 35 38 149 473 39
          598 738 739 430 600 740
          741 433 600 740 741 433
          602 742 743 436 43 42
          681 167 45 44 682 170
          45 44 682 170 47 46
          683 173 678 711 325 723
          679 712 327 724 679 712
          327 724 680 713 329 725
          619 618 720 705 623 622
          721 706 623 622 721 706
          627 626 722 707 102 101
          528 406 106 105 530 409
          106 105 530 409 110 109
          532 412 549 13 12 739
          551 17 16 741 551 17
          16 741 553 21 20 743
          711 678 573 634 712 679
          577 636 712 679 577 636
          713 680 581 638 80 79
          258 708 84 83 259 709
          84 83 259 709 88 87
          260 710 738 598 696 697
          740 600 698 699 740 600
          698 699 742 602 700 701
          714 285 288 331 716 289
          292 333 716 289 292 333
          718 293 296 335 672 311
          310 351 673 314 313 352
          673 314 313 352 674 317
          316 353 430 739 12 431
          433 741 16 434 433 741
          16 434 436 743 20 437
          193 438 439 166 195 440
          441 169 195 440 441 169
          197 442 443 172 489 726
          33 32 491 727 37 36
          491 727 37 36 493 728
          41 40 444 715 536 543
          445 717 539 544 445 717
          539 544 446 719 542 545
          3 619 705 72 7 623
          706 74 7 623 706 74
          11 627 707 76 633 666
          711 634 635 667 712 636
          635 667 712 636 637 668
          713 638 384 534 504 297
          385 537 505 301 385 537
          505 301 386 540 506 305
          726 771 744 33 727 772
          745 37 727 772 745 37
          728 773 746 41 167 613
          565 165 170 615 567 168
          170 615 567 168 173 617
          569 171 675 732 414 416
          676 733 417 419 676 733
          417 419 677 734 420 422
          550 549 739 738 552 551
          741 740 552 551 741 740
          554 553 743 742 732 675
          528 101 733 676 530 105
          733 676 530 105 734 677
          532 109 63 661 639 60
          67 663 641 64 67 663
          641 64 71 665 643 68
          384 91 90 534 385 94
          93 537 385 94 93 537
          386 97 96 540 123 744
          438 193 124 745 440 195
          124 745 440 195 125 746
          442 197 406 61 60 407
          409 65 64 410 409 65
          64 410 412 69 68 413
          154 78 660 603 158 82
          662 605 158 82 662 605
          162 86 664 607 91 384
          342 341 94 385 346 345
          94 385 346 345 97 386
          350 349 405 407 60 640
          408 410 64 642 408 410
          64 642 411 413 68 644
          648 550 738 697 649 552
          740 699 649 552 740 699
          650 554 742 701 735 92
          310 309 736 95 313 312
          736 95 313 312 737 98
          316 315 633 582 330 666
          635 583 332 667 635 583
          332 667 637 584 334 668
          167 681 612 613 170 682
          614 615 170 682 614 615
          173 683 616 617 620 2
          299 582 624 6 303 583
          624 6 303 583 628 10
          307 584 582 633 621 620
          583 635 625 624 583 635
          625 624 584 637 629 628
          141 144 415 469 145 148
          418 471 145 148 418 471
          149 152 421 473 143 564
          556 555 147 566 558 557
          147 566 558 557 151 568
          560 559 2 620 619 3
          6 624 623 7 6 624
          623 7 10 628 627 11
          729 696 598 597 730 698
          600 599 730 698 600 599
          731 700 602 601 141 30
          123 142 145 34 124 146
          145 34 124 146 149 38
          125 150 154 603 604 155
          158 605 606 159 158 605
          606 159 162 607 608 163
          193 192 142 123 195 194
          146 124 195 194 146 124
          197 196 150 125
        </DataArray>
        <DataArray type="Int64" Name="offsets" format="ascii" RangeMin="8" RangeMax="3616">
          8 16 24 32 40 48
          56 64 72 80 88 96
          104 112 120 128 136 144
          152 160 168 176 184 192
          200 208 216 224 232 240
          248 256 264 272 280 288
          296 304 312 320 328 336
          344 352 360 368 376 384
          392 400 408 416 424 432
          440 448 456 464 472 480
          488 496 504 512 520 528
          536 544 552 560 568 576
          584 592 600 608 616 624
          632 640 648 656 664 672
          680 688 696 704 712 720
          728 736 744 752 760 768
          776 784 792 800 808 816
          824 832 840 848 856 864
          872 880 888 896 904 912
          920 928 936 944 952 960
          968 976 984 992 1000 1008
          1016 1024 1032 1040 1048 1056
          1064 1072 1080 1088 1096 1104
          1112 1120 1128 1136 1144 1152
          1160 1168 1176 1184 1192 1200
          1208 1216 1224 1232 1240 1248
          1256 1264 1272 1280 1288 1296
          1304 1312 1320 1328 1336 1344
          1352 1360 1368 1376 1384 1392
          1400 1408 1416 1424 1432 1440
          1448 1456 1464 1472 1480 1488
          1496 1504 1512 1520 1528 1536
          1544 1552 1560 1568 1576 1584
          1592 1600 1608 1616 1624 1632
          1640 1648 1656 1664 1672 1680
          1688 1696 1704 1712 1720 1728
          1736 1744 1752 1760 1768 1776
          1784 1792 1800 1808 1816 1824
          1832 1840 1848 1856 1864 1872
          1880 1888 1896 1904 1912 1920
          1928 1936 1944 1952 1960 1968
          1976 1984 1992 2000 2008 2016
          2024 2032 2040 2048 2056 2064
          2072 2080 2088 2096 2104 2112
          2120 2128 2136 2144 2152 2160
          2168 2176 2184 2192 2200 2208
          2216 2224 2232 2240 2248 2256
          2264 2272 2280 2288 2296 2304
          2312 2320 2328 2336 2344 2352
          2360 2368 2376 2384 2392 2400
          2408 2416 2424 2432 2440 2448
          2456 2464 2472 2480 2488 2496
          2504 2512 2520 2528 2536 2544
          2552 2560 2568 2576 2584 2592
          2600 2608 2616 2624 2632 2640
          2648 2656 2664 2672 2680 2688
          2696 2704 2712 2720 2728 2736
          2744 2752 2760 2768 2776 2784
          2792 2800 2808 2816 2824 2832
          2840 2848 2856 2864 2872 2880
          2888 2896 2904 2912 2920 2928
          2936 2944 2952 2960 2968 2976
          2984 2992 3000 3008 3016 3024
          3032 3040 3048 3056 3064 3072
          3080 3088 3096 3104 3112 3120
          3128 3136 3144 3152 3160 3168
          3176 3184 3192 3200 3208 3216
          3224 3232 3240 3248 3256 3264
          3272 3280 3288 3296 3304 3312
          3320 3328 3336 3344 3352 3360
          3368 3376 3384 3392 3400 3408
          3416 3424 3432 3440 3448 3456
          3464 3472 3480 3488 3496 3504
          3512 3520 3528 3536 3544 3552
          3560 3568 3576 3584 3592 3600
          3608 3616
        </DataArray>
        <DataArray type="UInt8" Name="types" format="ascii" RangeMin="12" RangeMax="12">
          12 12 12 12 12 12
          12 12 12 12 12 12
          12 12 12 12 12 12
          12 12 12 12 12 12
          12 12 12 12 12 12
          12 12 12 12 12 12
          12 12 12 12 12 12
          12 12 12 12 12 12
          12 12 12 12 12 12
          12 12 12 12 12 12
          12 12 12 12 12 12
          12 12 12 12 12 12
          12 12 12 12 12 12
          12 12 12 12 12 12
          12 12 12 12 12 12
          12 12 12 12 12 12
          12 12 12 12 12 12
          12 12 12 12 12 12
          12 12 12 12 12 12
          12 12 12 12 12 12
          12 12 12 12 12 12
          12 12 12 12 12 12
          12 12 12 12 12 12
          12 12 12 12 12 12
          12 12 12 12 12 12
          12 12 12 12 12 12
          12 12 12 12 12 12
          12 12 12 12 12 12
          12 12 12 12 12 12
          12 12 12 12 12 12
          12 12 12 12 12 12
          12 12 12 12 12 12
          12 12 12 12 12 12
          12 12 12 12 12 12
          12 12 12 12 12 12
          12 12 12 12 12 12
          12 12 12 12 12 12
          12 12 12 12 12 12
          12 12 12 12 12 12
          12 12 12 12 12 12
          12 12 12 12 12 12
          12 12 12 12 12 12
          12 12 12 12 12 12
          12 12 12 12 12 12
          12 12 12 12 12 12
          12 12 12 12 12 12
          12 12 12 12 12 12
          12 12 12 12 12 12
          12 12 12 12 12 12
          12 12 12 12 12 12
          12 12 12 12 12 12
          12 12 12 12 12 12
          12 12 12 12 12 12
          12 12 12 12 12 12
          12 12 12 12 12 12
          12 12 12 12 12 12
          12 12 12 12 12 12
          12 12 12 12 12 12
          12 12 12 12 12 12
          12 12 12 12 12 12
          12 12 12 12 12 12
          12 12 12 12 12 12
          12 12 12 12 12 12
          12 12 12 12 12 12
          12 12 12 12 12 12
          12 12 12 12 12 12
          12 12 12 12 12 12
          12 12 12 12 12 12
          12 12 12 12 12 12
          12 12 12 12 12 12
          12 12 12 12 12 12
          12 12 12 12 12 12
          12 12 12 12 12 12
          12 12 12 12 12 12
          12 12 12 12 12 12
          12 12
        </DataArray>
      </Cells>
    </Piece>
  </UnstructuredGrid>
</VTKFile>
