<?xml version="1.0"?>
<VTKFile type="UnstructuredGrid" version="0.1" byte_order="LittleEndian" header_type="UInt32" compressor="vtkZLibDataCompressor">
  <UnstructuredGrid>
    <Piece NumberOfPoints="798" NumberOfCells="454">
      <PointData>
        <DataArray type="Int32" Name="libmesh_node_id" format="ascii" RangeMin="2250" RangeMax="5441">
          2250 2251 2252 2253 2254 2255
          2256 2257 2258 2259 2260 2261
          2274 2275 2276 2277 2278 2279
          2280 2281 2282 2283 2284 2285
          2298 2299 2300 2301 2302 2303
          2304 2305 2306 2307 2308 2309
          2328 2329 2330 2331 2332 2333
          2334 2335 2336 2337 2338 2339
          2352 2353 2354 2355 2356 2357
          2358 2359 2360 2361 2362 2363
          2376 2377 2378 2379 2380 2381
          2382 2383 2384 2385 2386 2387
          2424 2425 2426 2427 2428 2429
          2430 2431 2432 2445 2446 2447
          2448 2449 2450 2451 2452 2453
          2454 2455 2456 2457 2458 2459
          2460 2461 2462 2481 2482 2483
          2484 2485 2486 2493 2494 2495
          2496 2497 2498 2535 2536 2537
          2538 2539 2540 2541 2542 2543
          2544 2545 2546 2547 2548 2549
          2562 2563 2564 2565 2566 2567
          2568 2569 2570 2571 2572 2573
          2604 2605 2606 2607 2608 2609
          2610 2611 2612 2615 2619 2623
          2625 2626 2627 2628 2629 2630
          2631 2632 2633 2664 2665 2666
          2667 2668 2669 2670 2671 2672
          2787 2788 2789 2790 2791 2792
          2793 2794 2795 2820 2821 2822
          2823 2824 2825 2850 2851 2854
          2855 2858 2859 2880 2882 2884
          2886 2887 2888 2889 2890 2891
          2892 2893 2894 2895 2896 2897
          2898 2899 2900 2928 2929 2930
          2931 2932 2933 2934 2935 2936
          2937 2938 2939 2972 2975 2978
          2979 2980 2981 2982 2983 2984
          2985 2986 2987 2988 2989 2990
          3078 3079 3080 3111 3112 3113
          3114 3115 3116 3129 3130 3131
          3132 3133 3134 3135 3136 3137
          3138 3139 3140 3141 3142 3143
          3144 3145 3146 3147 3148 3149
          3150 3151 3152 3153 3154 3155
          3156 3157 3158 3159 3160 3161
          3162 3163 3164 3165 3166 3167
          3186 3188 3189 3191 3192 3194
          3259 3261 3263 3342 3343 3344
          3345 3346 3347 3435 3436 3437
          3438 3439 3440 3447 3448 3449
          3450 3451 3452 3513 3514 3515
          3519 3520 3521 3522 3523 3524
          3537 3538 3539 3540 3541 3542
          3714 3715 3716 3717 3718 3719
          3720 3721 3722 3792 3793 3794
          3822 3823 3824 3825 3826 3827
          3828 3829 3830 3831 3832 3833
          3855 3856 3857 3858 3859 3860
          3867 3868 3869 3870 3871 3872
          3873 3874 3875 3876 3877 3878
          3879 3880 3881 3883 3886 3889
          3921 3922 3923 3957 3961 3965
          4065 4066 4067 4077 4078 4079
          4086 4087 4088 4119 4120 4121
          4191 4192 4193 4206 4207 4210
          4211 4214 4215 4224 4225 4226
          4227 4228 4229 4251 4252 4253
          4260 4261 4262 4263 4264 4265
          4275 4276 4277 4278 4279 4280
          4296 4297 4298 4347 4348 4349
          4401 4402 4403 4404 4405 4406
          4407 4408 4409 4410 4411 4412
          4413 4414 4415 4431 4432 4433
          4452 4453 4454 4461 4462 4463
          4464 4465 4466 4533 4534 4535
          4551 4552 4553 4554 4555 4556
          4557 4558 4559 4560 4561 4562
          4590 4591 4592 4593 4594 4595
          4608 4609 4610 4617 4618 4619
          4620 4621 4622 4623 4624 4625
          4626 4627 4628 4629 4630 4631
          4665 4666 4667 4668 4669 4670
          4680 4681 4682 4683 4684 4685
          4719 4720 4721 4728 4729 4730
          4731 4732 4733 4734 4735 4736
          4752 4753 4754 4761 4762 4763
          4764 4765 4766 4767 4768 4769
          4773 4774 4775 4785 4786 4787
          4869 4870 4871 4881 4882 4883
          4887 4888 4889 4890 4891 4892
          4893 4894 4895 4917 4918 4919
          4920 4921 4922 4926 4927 4928
          4929 4930 4931 4962 4963 4964
          4965 4966 4967 4971 4972 4973
          4974 4975 4976 4995 4996 4997
          4998 4999 5000 5001 5002 5003
          5004 5005 5006 5022 5023 5024
          5031 5032 5033 5037 5038 5039
          5046 5047 5048 5049 5050 5051
          5052 5053 5054 5058 5059 5060
          5064 5065 5066 5067 5068 5069
          5070 5071 5072 5076 5077 5078
          5082 5083 5084 5085 5086 5087
          5091 5092 5093 5097 5098 5099
          5100 5101 5102 5106 5107 5108
          5109 5110 5111 5112 5113 5114
          5115 5116 5117 5118 5119 5120
          5121 5122 5123 5124 5125 5126
          5127 5128 5129 5130 5131 5132
          5133 5134 5135 5136 5137 5138
          5139 5140 5141 5142 5143 5144
          5145 5146 5147 5148 5149 5150
          5154 5155 5156 5157 5158 5159
          5163 5164 5165 5166 5167 5168
          5172 5173 5174 5175 5176 5177
          5181 5182 5183 5184 5185 5186
          5190 5191 5192 5193 5194 5195
          5196 5197 5198 5199 5200 5201
          5250 5251 5252 5277 5278 5279
          5304 5305 5306 5331 5332 5333
          2852 2853 2856 2857 2860 2861
          2970 2644 2971 2973 2647 2974
          2976 2650 2977 3187 3190 3193
          4662 4663 4664 3270 3271 3272
          5151 5152 5153 5160 5161 5162
          5169 5170 5171 5178 5179 5180
          5187 5188 5189 5202 5203 5204
          5205 5206 5207 5253 5254 5255
          5280 5281 5282 5307 5308 5309
          5334 5335 5336 5358 5359 5360
          5361 5362 5363 5385 5386 5387
          5412 5413 5414 5439 5440 5441
        </DataArray>
        <DataArray type="Float64" Name="resid_x" format="ascii" RangeMin="-0.03391945751335612" RangeMax="0.008702485677775762">
          -0.00012704394002938102 0.0007002763733678918 0.00005974899981028847 0.0015552629267969742 -0.00426842995284904 -0.005228369494475693
          -0.007416438278329024 -0.003325415188166758 -0.01176361315753649 -0.011340654481770684 -0.01405113363950572 -0.015714004112191038
          -0.000020558265926062802 0.0009298809327584756 0.0012824876856711853 0.002019713411539392 -0.0026820013603767734 -0.003421775973307728
          -0.002180331335158936 -0.004775087887336937 -0.016549466386084788 -0.016174899427085165 -0.015204505504166965 -0.018551024488123513
          -0.0013397799332972582 0.004831232913287131 -0.0016294504368072893 -0.0007112754573768143 -0.001800546642046541 0.007176765890107184
          -0.0024016944858384903 -0.0009187383563808993 -0.0026511268214761685 0.0008348362721122271 -0.0020130854233038065 -0.0043306545784975725
          -0.007596681094770297 0.0006744047563369548 -0.0002516036452981929 -0.01099151530347564 -0.017381940059667755 -0.0008265219948837554
          -0.00607665241460964 -0.02850856623323228 -0.01727625527542287 -0.011706494832993464 -0.01644730813580031 -0.023077495832956485
          -0.00009303021453543892 0.00038623793596492817 0.0007999630345061348 0.0012370194214215147 -0.0024710654082351624 -0.0017527260696637015
          -0.003256615171155275 -0.0025189202690452106 -0.010409471953241045 -0.011474489378694663 -0.013830469927873068 -0.012663546787170965
          -0.00018027372007622944 0.0015938955456586967 0.0014852770202757881 0.002171169199457701 -0.003258878708270352 -0.0050198482560004365
          -0.001551822637784639 -0.003795381712217605 -0.01801490715674614 -0.02414963419372196 -0.024058532875128158 -0.022000426079420876
          -0.008699233244088944 -0.0016165241674879205 -0.0029876355596396564 -0.005112439956223458 -0.0021828271841917157 -0.004192065429430958
          -0.01669309214892456 -0.016168662806348433 -0.019376874690614443 -0.013864448345465519 -0.008441994445196777 -0.007120290475052471
          -0.0021044311495304058 -0.022658227195098135 -0.019244134462646834 0.00024474860516354724 0.0005929454510715804 0.0006275543200189304
          0.0026946004023147285 -0.0005255909237957823 -0.0002247272560123026 0.00001582080432260824 0.0010142480346768679 -0.009677257742767509
          -0.008523396817842865 -0.008118623190651597 -0.01010083174944909 -0.006257996658027842 -0.00878033089202468 -0.003812289409344416
          -0.007028044711788972 -0.015235510558507137 -0.01862155198004256 -0.01641826603432417 -0.008772983763465358 -0.004895754618865045
          -0.0009332668387020959 -0.015220755473771774 -0.015028774754858532 0.0014625683325792949 0.0050291685086287785 -0.0054240803890488465
          0.003514275106539344 0.008702485677775762 -0.009394029985066332 0.0003027277149847407 0.002222877692509506 -0.004847400628227305
          -0.010841029424554893 -0.007042702037654891 -0.006201601792662714 -0.004187230047829615 -0.017066060022066232 -0.017131465356301057
          0.000021380673109305803 0.0012612399309204214 0.0012008430984380425 0.0017109345565593514 -0.0013800497294678138 -0.0018673982623051977
          -0.0006158653779433365 -0.002004603521378101 -0.012751381777992066 -0.016269790615077273 -0.014678614918672395 -0.014451976809072953
          -0.009749222012546355 -0.014519233136564225 -0.005325007077156663 -0.002858158333924443 -0.007639367164156141 -0.0017727370414952759
          -0.012651607103396856 -0.015691509017045746 -0.011240294889314661 -0.013536098154692588 -0.014418045279137814 -0.020603515260462224
          -0.009934029771515362 -0.003366777179629743 -0.003919301279825316 -0.00444318344030048 -0.0011151476048985032 -0.0016487831907350259
          -0.01620429019576708 -0.019173234571336906 -0.011766051677087885 -0.010752777616248377 -0.0019009401367031664 -0.009676993017715407
          -0.002124531988616285 0.000057091886076054976 -0.003497466680737027 -0.01185138078901371 -0.010683585575761878 -0.016239380664474723
          -0.009180481464814427 -0.0034015313690911597 -0.009178121631269853 -0.004703212428592174 -0.002572595813881584 -0.005662632983911564
          -0.015168762253244594 -0.01012026925109133 -0.012461007640829802 -0.010579770860111637 -0.008404162907553747 -0.007890996089011892
          -0.00406258997413822 -0.012744234263907472 -0.015109986450910995 -0.004894954116323902 -0.0031326227266355033 -0.00986554792876504
          -0.008659352416144017 -0.013240411928963525 -0.015571363171316577 -0.013221016532246388 -0.024666626683782056 -0.012269875385998219
          -0.0016273185554416258 -0.00047721651142929034 -0.0007437136776164976 -0.0023664445967792602 -0.006708083677825272 -0.006918854346139369
          -0.008281650497955262 -0.015423764347411328 -0.0005510502308174736 -0.0037894039456825013 -0.012692907570548861 -0.01397266938149766
          -0.02067000324738011 -0.006119383702630543 -0.017693662981816516 -0.000040373919578229334 0.0012402149120900319 0.0011535507502333786
          0.0020741693030816855 -0.003115388328128965 -0.0054729111864944 -0.0036466839965214604 -0.004071133732078458 -0.016096687345173777
          -0.019506336778692734 -0.020903618716550554 -0.0192594752919355 -0.0030322571186349734 -0.006569913927823023 -0.004232995266967521
          -0.0009402636085606986 -0.0006588273172916104 -0.0006527203014687899 0.0006408657183420985 -0.0025296647277244233 -0.003243501276223526
          -0.010469273096433751 -0.011473219508876475 -0.007079003630825698 -0.007505884794232642 -0.009599581807304691 -0.008420010711924775
          -0.010342019990073226 -0.002348370975277625 -0.011262641287276942 -0.007669876438605172 -0.014102053103524526 -0.0028333550060395396
          -0.0025250853880161017 -0.010100629332280064 -0.011626184414648577 -0.009419290834580707 -0.007350923759769756 -0.007333085039551435
          -0.003883253868053771 -0.0035208106271298334 -0.0012620058480834473 -0.010098018011829524 -0.0035032670461694337 -0.009196459044676253
          -0.004108095223958941 -0.00938644142180145 -0.0070396824645220235 -0.011472350262973663 -0.010807582433337015 -0.0033471767473614022
          -0.002332635493361823 -0.0062468094582088796 -0.004428146310942793 -0.0019217479973203666 -0.00019012566323528546 0.00036097328250850325
          -0.0013914098757012994 -0.001404133531766938 -0.00029924161210104216 -0.0012378003103279411 -0.00024354895410105826 -0.00213360352348424
          -0.0015907694535055583 -0.002060880672713594 -0.0029354245205510665 -0.012420551463417695 -0.004214233799893385 -0.015987591624485376
          -0.008718493592326126 -0.010466776514166387 -0.005219679854119974 -0.011204278762857456 -0.01286481079002133 -0.021671640672876524
          -0.01158147769024609 -0.015217858600566458 -0.008221283133138968 -0.027864443417346507 -0.015179532501690574 -0.015587937901865523
          -0.01534071181018426 -0.014342245430967182 -0.010412361365149003 -0.013447496026795402 -0.012040668504840646 -0.0045542446495328015
          -0.006773301476121318 -0.015833091375366593 -0.015402207885958141 -0.010458360075679074 -0.018014363999833805 -0.003371916144086995
          -0.012090015847274316 -0.01644030496083479 -0.013419914761275464 -0.010707274448463977 -0.009313490079016606 -0.000981176321948496
          -0.003686203800246979 -0.011580013991404847 -0.011432125114940739 -0.009640284936267562 -0.0053211135925277375 -0.010751526940612877
          -0.019088950736724897 -0.011033038920154503 -0.005369633341486768 -0.007980806657749362 -0.019433131311301644 -0.011924512241886731
          -0.01614642698270785 -0.013655702394701486 -0.015559092337738889 -0.0074195606404323655 -0.009194384524695565 -0.0067422216569941185
          -0.00534879702195834 -0.018302886420685116 -0.009910685233541772 -0.0024383029220597097 -0.009943577249881486 -0.007027938965085134
          -0.00869750606935038 -0.019502387058981885 -0.014229513608746025 -0.011327270863461303 -0.0017662155820807879 -0.011907058861338138
          -0.02310810045751488 -0.017396664215498348 -0.008876590268744877 -0.006820744670470447 -0.021144438813567312 -0.017828781918789005
          -0.009329947576308228 -0.013078031965057413 -0.000997914337231176 -0.003377872750500721 -0.011770678656358946 -0.013643388686770841
          -0.002829778702267305 -0.003410205055926596 0.00032631122149795466 -0.0017195039681041635 -0.0011737232212503113 -0.003561255840779154
          -0.017426179941849806 -0.0067923166056793605 -0.005099951866510466 -0.0032312021283065206 -0.013764151771858746 -0.0059797026066119585
          -0.01482883064991114 -0.012596215346910244 -0.0145775846621099 -0.0238429176159336 -0.003369490255373586 -0.013605340206449767
          -0.014584237771495978 -0.008578753048895327 -0.012916044819219152 -0.016830003486168366 -0.02587906957751329 -0.014978321808971629
          -0.016818268721150442 -0.002770901620007926 -0.014794455053819267 -0.016858231090596032 -0.024391810051969998 -0.01344113939167979
          -0.011928278418845029 -0.005317819512082433 -0.007804886121840271 -0.018031145639365587 -0.0033483263094526983 -0.014317806860949744
          -0.013110464994759319 -0.003183898555847442 -0.01124379391788688 -0.01200856891978841 -0.014180145292748136 -0.01011715238230071
          -0.011587066768206089 -0.0024235420516940387 -0.00976806307415945 -0.007959980658644561 -0.01992072250526533 -0.01739061594827973
          -0.03391945751335612 -0.011267673597588512 -0.02443562733521709 -0.00018718155220476262 -0.006728715261141716 -0.0006891683410277238
          -0.003902222208497008 -0.0038541240920180186 -0.011332075678910147 -0.0224231278999385 -0.02889552146224794 -0.017012982466839688
          -0.005663339126727784 -0.013631830848898296 -0.0020419180907467194 -0.0035427469516982057 -0.006857986127481119 -0.012539287966981227
          -0.001547545029975339 -0.00021472467792982286 0.0006352192545371338 0.00100861166176891 -0.002569596062331314 -0.004128113239428188
          -0.005222385927851292 -0.0018035060630339217 -0.0045378418511266005 -0.01710865830395214 -0.017148617556369317 -0.010510683245759544
          -0.0029332477724874906 -0.0017384674851834703 -0.0029385218782600475 -0.00045830810058600235 -0.004863969897670906 -0.004477958802851845
          -0.0042629645773359925 -0.0030095948479198498 -0.002842818932188962 -0.003179442605818039 -0.009105406629846158 -0.010063878850067098
          -0.015614182388989484 -0.0077868730360659555 -0.008686811400306915 -0.01512175198890331 -0.014248412229920682 -0.011140982459042714
          -0.008253917562221158 -0.0016471354738292199 -0.004438408967873286 -0.011014068760819562 -0.004939493106427939 -0.006480302907766244
          -0.0024005787825469582 -0.014915901492954298 -0.007654477348149058 -0.015295859882638485 -0.004155369969451872 -0.012459793277912912
          -0.002536802162765639 -0.007887160751079314 0.000011727028662811279 0.001012287053769434 -0.0026658917602517818 -0.0058472648806722205
          -0.0006441951850488792 -0.00007624586551724377 -0.005734869045538993 -0.013400853553456216 -0.00886826355304482 -0.005177303061715932
          -0.016644801431451306 -0.0038405609605698388 -0.010776239485299044 0.00021146143526173944 -0.019380649172437536 -0.008472718792966738
          -0.014250444412239105 -0.006418098340772005 -0.009558561005992061 -0.007794128487574881 -0.01592922119698903 -0.003387703295024913
          -0.01045532173406638 -0.011377006529259326 -0.015639433437929284 -0.009446741602266329 -0.0038371959990310955 -0.0012457910941368056
          -0.002340462161492418 -0.011083462105576203 -0.009553548971684478 -0.018515015227587917 -0.0006428289024329459 -0.007213448923786281
          -0.020890984136223256 -0.00015185942480178127 -0.008319062459570148 -0.009634390167348239 -0.0018301197022450588 -0.008945691977312098
          -0.016861459237756282 -0.008748971692687846 -0.00023953169451873535 -0.00014872921372255377 -0.006351476376659004 -0.0035945261811747287
          -0.010756882487598651 -0.0022416044573345673 -0.009280168000445288 -0.00034062155243397285 -0.004815526884331511 -0.009974047463740199
          0.00012214336750382415 -0.007010527608915851 -0.0016673167685747892 -0.005248805066559115 -0.011737252955662747 -0.008155146595480112
          -0.007899755472286496 -0.002641790170954561 -0.005378256634832157 -0.002882222389874123 -0.0013330316917281593 -0.0073616293386420395
          -0.0009861920527924894 -0.0023456146845122205 -0.005384184880742993 -0.006606087301467944 -0.006469959272240811 -0.011019369813009217
          -0.005466429673929518 -0.004112693194585404 -0.006326462553411183 -0.020246867704527105 -0.004287582973000248 -0.012658823186091794
          -0.004456059131468848 0.0003896349409249211 -0.00046255496426717 -0.01291316515426999 -0.008116422479682583 -0.00899619751857994
          -0.015198745478606668 -0.00800155576735051 -0.00559071927005661 -0.0036891921198209943 -0.01007079628786789 -0.0060683123166742625
          -0.006767857398083166 -0.0003747576677586295 -0.007812803277811753 -0.015782516946286407 -0.018165946491750518 -0.0023857489288250378
          -0.008903089508822681 -0.006826518944167859 -0.012373260914606554 -0.013648145474761897 -0.013073050678826803 -0.004524151827791201
          -0.006651699694120161 -0.009884632219786305 -0.007126601764882778 -0.009076911716899616 -0.009659870683362826 -0.0006922405886093941
          -0.0012522390300802044 -0.004238587254667969 -0.005612890072677956 -0.002676108126647314 -0.0023309392496262404 -0.0007887218733761969
          0.00007049788993551687 -0.004669232228986964 -0.006597753270156659 -0.012181952037866317 -0.002681110869884762 -0.0012772262092015652
          -0.005731494985139918 -0.0014189800453152657 -0.00042896930059121985 -0.00765261640850845 -0.0026912606006757045 -0.002117318249410971
          -0.010206535409273076 -0.00013508175006249346 -0.005764862608411914 -0.0025798994103789497 -0.0014843268708348845 -0.0018308740271972823
          -0.004963983155708895 -0.001003586340505791 -0.0035171528230275584 -0.007549262422871905 -0.000405946844331595 -0.0026555101057059716
          -0.00019178201288472252 -0.0002449058374569546 -0.0014489748959789495 -0.00007562288326568023 -0.00014867093743031745 -0.00045434539961553
          -0.0006641173247130538 -0.00026629354344098743 -0.0006755352666489856 -0.0015336757441666293 -0.00056778475682151 -0.0007755938495108694
          -0.004674323041736983 -0.0014210451693594806 -0.004074309477446469 -0.00609161967244809 -0.0071572352642164105 -0.0024311084210788536
          -0.00033087655519459247 -0.0036469053892700387 -0.0022934330052351015 -0.00020603702614607755 0.00038956007347401567 -0.00031140340868152094
          -0.002713577775073972 -0.0006446713798078374 -0.0006637507349773752 -0.0005833741738570097 -0.0002734030800528586 -0.001064532273105101
          -0.0001911756941010978 -0.00013446448442078207 -0.0005413640929194941 -0.00021900564907184616 0.000032797629667236095 -0.00035178392091061994
          -0.00006188487645353291 0.0000971055148006883 -0.0012261419626060643 -0.0004509136428829663 -0.000647331761893355 0.0006861760625369584
          0.0005256357658680599 -0.0022196272627628133 -0.000766310715951235 -0.0006798082907906178 -0.0008434834363875154 0.0005500245018357219
          0.0005379168894741326 -0.0016025863802227036 -0.0008493372414477562 -0.0006695067619606476 0.00005898599731857246 0.0005176033627911636
          0.00016748476397232537 -0.00097767580942687 -0.0004956551071479964 -0.0007072926037103855 0.0009239057667596029 -0.0035802349234277386
          -0.0007640080665733961 0.00033876678094557633 -0.0011417750408391214 -0.0016462311708398403 0.0008291466213528054 -0.0007084739227920522
          -0.0015839630058955834 0.00016297346911464672 -0.0023645999791295225 -0.0013285449058422216 0.0006209451496825835 -0.001088389648948862
          -0.0011092841783533203 0.0006763580931234969 -0.0008795537211927495 -0.0032748396250461553 -0.001091239978645575 -0.001531057170023331
          -0.0018324836864351823 -0.00005746672256279339 -0.0010823302508100596 -0.0008459029374972005 0.0008033686828223807 -0.0005316361463751917
          -0.0019548544262093515 -0.0022425477184455644 -0.0020734842965897116 -0.0010366336617106953 0.0003375364265565395 -0.00008434337660823132
          -0.002808078443790052 -0.004283656612065201 -0.004640963297289247 -0.001967466694393849 -0.000665177718286003 -0.0008928942115478122
          -0.004032649567923485 -0.006468567329854125 -0.008400711343343303 -0.0035666395218854063 -0.0010652735133493962 -0.002895847920482808
          -0.005561064391264026 -0.008688448973106944 -0.013007063683255993 -0.005565615736642826 -0.0015183010477901604 -0.00551274494180376
          -0.0015568946656596694 0.00011809251146210897 -0.004830228969677108 -0.0018000115894380997 0.0042391513928929925 -0.0012349096141921478
          -0.0010836156782687567 -0.000708627263817263 -0.001272513067720027 -0.0005945897886210361 -0.0005318305814299151 -0.00016454926443643103
          -0.0015717134881416683 -0.0005398650060790544 -0.00043630195893129553 -0.0012113770357657927 -0.0002548573296952128 -0.00016561715910867747
          -0.0008207411707594758 0.0003290075198751907 0.00010778040703840475 -0.00043359466746473174 0.00034282818139708127 0.0009767295876468296
          -0.01552137306867074 -0.013262411411067987 -0.013143697094282203 -0.011724119485489126 -0.012139885602385547 -0.011286466141989138
          -0.008336224851197116 -0.001310945428278032 -0.004420768607323211 0.001838892655323221 -0.0001551439410683031 -0.005156674901865443
          -0.007424401334729325 -0.0143080121560768 -0.0052567471647702035 -0.01658242443938107 -0.019907524626999518 -0.012078499445596691
          -0.010763007224991128 -0.0038814960930562137 -0.010418976491275878 -0.008678902551820578 -0.011316622826708311 -0.010428386152196545
          -0.006405171738109061 -0.0034216659484087586 -0.0021391038042590793 -0.008774764095626608 -0.003557535039846016 -0.005669743178778219
          -0.010727538879436338 -0.007214215518843048 -0.011300456037510287 -0.014633079606806376 -0.010314409837690164 -0.016398359981135258
          -0.008958476971899998 0.0014983889770547876 -0.0038143143150843883 0.0002707785384501449 -0.00010025336862540257 -0.0011541278734767957
          -0.00042061775253188216 -0.0009647229226530385 -0.0003361168379534263 -0.000635823308897443 -0.0006289019459586598 -0.0006190004939661264
          -0.00039859639244355094 -0.0003044692911160496 -0.0001252045950508318 -0.00023987751175269523 0.000410022401013066 0.0003304004407418404
          0.0003286455671300814 0.0010995492443086619 0.0012391346654041513 -0.0008743510555540013 -0.0008526219008082592 0.001234210910698863
          0.0005784302358549098 0.0012789054257922317 0.002745497887657322 -0.0009101068558514669 -0.0013993837168015943 0.00030092683050497726
          -0.00105540765147083 -0.0017514232766799864 -0.001564322723467626 -0.00007695310541855349 0.00021184428849707615 -0.0007498171575761603
        </DataArray>
        <DataArray type="Float64" Name="resid_y" format="ascii" RangeMin="-6.719885644566123" RangeMax="0.8530790733193866">
          -6.425233719797863e-7 0.0004393347002308416 -0.0005871482870635492 -0.00020601149386639817 0.0007338140885099625 0.0028958962534553177
          -0.002328986859422566 0.0003609182393025656 0.0012102687157226344 0.002524916040756024 0.000594107096163643 0.0008896751405826908
          -0.00004235568291947184 0.00020246524633116617 -0.0001531579211176727 0.0004945723121698485 -0.0009297290460945247 -0.0004341221929539188
          -0.00013868688498836976 0.0008952543490594713 -0.002263274333042343 -0.0010302134198303323 -0.0002099104324866062 -0.0012032691025432745
          0.0008853917791557808 -0.00008342910679035032 0.0013933827742451943 -0.000102905387094121 0.0009859943957460926 -0.0006794145972607579
          0.0023782490870249695 0.00003523674326666448 -0.001331441163178515 -0.0013558124395270932 0.0008300372252014188 0.0001381508242642715
          0.008228528335700577 0.0009532851960899619 0.0016523129335709874 0.0017196334700111393 0.017288272485038947 0.0011728747632250847
          -0.0009720595537827115 0.004029692935767909 0.008858600764572025 -0.0008230163860163398 -0.0028088979332717423 0.0025600323698490024
          -0.000036395617388274015 0.00003446291387258771 0.0003245460374605297 0.00007219297450424683 -0.0005994442034775449 -0.0005306852280120844
          0.00044643346682035623 -0.0018662534093806388 -0.0017535992176079124 -0.002104888190186796 -0.0017143747826250735 -0.001857800889881446
          -0.000008185207602214029 0.000607336811079752 -0.00040051272022383066 -0.00012161697574869512 0.000529957889085067 -0.0005736792549551027
          -0.0010005715569158385 0.0008500705741315839 0.0011624093911398355 -0.0009133859120084749 -0.00002927091953729144 0.000659225785867544
          -0.004475418489892066 -0.0021544206175354366 0.0006020280479241431 -0.0025381571298229155 -0.0006486984283221413 -0.001301342496846312
          -0.0026185191379486245 -0.0014177384618287991 -0.001990809097996795 -0.0009112018728723616 -0.00475845710444835 0.0011227229972415945
          -0.0019888260455915396 -0.00007864471331354983 0.000007701643992284127 -0.00002979743921059652 0.000498251640715125 0.000051373875793042645
          0.0008752598857946492 -0.0007176411199053961 -0.000001999856268655731 -0.0006537886168198892 0.0012068207044573925 -0.0057581309941830555
          -0.004299647921950631 -0.0030165026968154707 -0.004496549470688768 0.004975305386326304 0.005171633243552867 0.002590371183880655
          -0.0004064745976695562 0.0011732955631128805 -0.0018152640853528919 -0.00005149564392475936 -0.004461150378122683 0.0021770122161401395
          -0.000985134147683489 0.00011082399368833595 -0.0005074617623789524 -0.0000949038434203426 -0.0014915132659966412 -0.002026264134746561
          0.00044391824893471807 -0.0023588793753704165 -0.0033011071783989737 -0.00045742380083922327 -0.0009221681819122779 -0.0012336703112146435
          -0.0030482729403766284 -0.00472695727454652 0.0006089531971240347 0.0000020419768022791884 0.0016684659367666582 0.0016136794637342747
          -0.00012938122994152895 0.0004934280226339648 0.00017922871611965319 0.0010067412527575356 -0.0013555454299384387 -0.0004587139961441085
          -0.001409614407333254 -0.0003644362257088085 -0.007361799202442565 -0.0067387223924991885 -0.005662692343662609 -0.007349896861545996
          -0.0013414127150751798 0.0005650587158911174 0.0033719917293840787 -0.00025426455079750887 0.0007642221475154809 0.0016089115826919478
          -0.0031966123435615418 -0.002224955819239441 -0.003491596004839219 -0.0040822067627475644 0.0020793781340481265 0.00139682751187057
          -0.0029640548228655056 0.0007673518123578332 0.0007147073457215419 -0.00018806038112492707 -0.000630182711491234 -0.00014798628315575157
          -0.003895819344378826 -0.009172964963100078 -0.004873899515533766 -0.0033554926780717115 -0.002206961314474072 -0.0034076094931036957
          -0.0009897796486375426 -0.0001792242896283755 -0.0012896500972145244 -0.004980401759346054 -0.002949705379280694 -0.0037793776185396366
          0.0034197789912441684 0.0008496528923863794 -0.0013059417022126124 0.00043325438036469904 -0.0012060247176989627 0.0032325116966191864
          -0.0006210521765861524 -0.0006959985791128651 0.003060282726869007 -0.00027342590389305144 0.0034168590074116698 -0.0005789880803954844
          0.00294506698027535 -0.000023394308602903147 0.0015776230515774856 -0.007532666345674519 -0.006748541709484042 -0.01498458167446481
          -0.012643985456386144 -0.01285458388222262 -0.010765053862293886 0.0031576386664556506 0.004056589073317157 0.0012752005515500112
          -0.002522670361169266 -0.0011736045956965285 -0.0005257452321659473 0.00002647264769610816 -0.0018033998921884453 -0.0019557480177324876
          -0.004019952660607937 0.002295794669928408 -0.0012047663370818654 0.003928520467668478 -0.0025974047830529673 -0.0008253610080283941
          0.0028939891091049816 -0.00008299736762028276 -0.002375617858678951 -0.000004405157880436883 0.00005079041592813763 -0.0004507731779703483
          0.00031002215577792536 -0.00002111411824298748 0.00013555969633247816 -0.0024410434798482032 0.0012985778220049593 0.00032787141005163195
          0.00029155114870819607 -0.000733494732534843 0.0003061968756180866 -0.002127900941843397 -0.0037100005866261276 -0.0028899568850884183
          -0.0016680434253707466 -0.001923999280908334 -0.00035622910845412026 -0.002075534578475813 -0.000901440437324319 -0.0026664765397329537
          -0.005151997535695646 -0.002155880615143081 -0.0030045059281662567 0.002255358995573227 0.0008751005566159098 0.002931737347250468
          -0.003070057584050337 -0.002642330276118182 -0.003977913368678587 -0.0005809434017186726 -0.010155471402497718 0.0005254274861125618
          -0.0033016400574077086 -0.004579844435004943 -0.00809819403345896 -0.004666238988685864 -0.0056457200204886315 -0.006428317351053162
          -0.008344143386595504 -0.0025894434697721937 -0.001136787791596261 -0.012036974469109965 -0.012639801561035752 -0.0039589568261985675
          -0.001191238229550376 -0.006571449439556176 -0.007244384801140202 -0.0030006478787346566 -0.002358931472840442 -0.0018082778853491452
          -0.0001265209142732593 -0.0030935512542601337 -0.0019337863150339918 -0.0002995914514057063 0.0003890724636471943 0.00021451751290739451
          0.0004976324364635021 -0.0006377216672373565 0.00020599455967734714 -0.0003308049692076209 -0.00020872550697213776 -0.00121645857900482
          -0.0004469998497569627 -0.0010389676782726759 -0.0027063870138923918 -0.0018480189592167615 -0.0008810591420806008 -0.0028720748564412396
          0.00375100784225052 0.007033826942900029 0.0029145417860303724 0.0032884048273608413 0.0005555982757155103 -0.0002463632898410256
          -0.005407528131260539 -0.0030331337082452753 -0.0042531861891828004 -0.00673881717658209 -0.006625833579761473 -0.006017478974404619
          -0.0017568213299258423 -0.0011478124569070658 -0.003697746595294843 0.004642383048549165 0.004119614466241539 0.002999773919067472
          -0.00012181022239848849 -0.0011926597226828428 -0.0017674764175322488 0.001846689959234371 0.0008201513789075146 -0.0014533339406067047
          -0.0019281165318942028 -0.00038476225343754555 -0.0007369547590709499 -0.003136931590265929 -0.0013696975952148943 -0.0014908253623605525
          0.004841372333000492 -0.003562191405672599 0.00196799873716684 0.0007166609653151412 0.0031795730175669668 -0.002000743847837022
          -0.0005944667162328806 -0.0020445957605271653 -0.0007578613871998815 -0.00023693646729272544 -0.002057726025348665 -0.0007713958696342615
          -0.0035444824603127704 -0.0019939611006596913 -0.0008711372314997301 0.003546588878231116 -0.0008428971821097149 0.0009465858885639722
          -0.0005020596179997616 -0.0008013152148439173 -0.0003682109002834527 -0.0014534436129949313 0.00014295224674787388 -0.004999620604135543
          0.0006141713371764779 0.002692296569753616 -0.0031387644401868198 0.0007660923345230164 -0.001998608767091986 0.0006800749459029698
          0.00008968513807051937 -0.0040648754411656135 -0.001013624113507 -0.0021900514137748045 0.00024158787872957665 -0.0003880156697478043
          -0.006070588960984301 -0.0003791879936777213 -0.002248644455388596 0.0025646460738517635 -0.0028688827404998035 -0.00052809523926527
          -0.0007334180069864804 -0.0013596173940046072 0.00006606304201395297 -0.00014621533792995994 -0.0023487681875813404 -0.0022694470316486012
          -0.0022260139762714792 -0.0009527064204886554 0.0010499982673828623 0.0002677479736865329 0.0011289673155115698 -0.00009069760086163892
          0.004833454626385486 0.0032805646548350054 0.006033460135853944 0.008154627656517865 0.0029800064133427007 0.0051754115411239004
          0.0033229171680648206 0.0010331815546394674 0.0031643026641612615 0.0035870285901269255 0.0063074541517645355 0.002706044815858122
          -0.003181685581330049 -0.002256401231268772 -0.0007780030994398862 0.006958773252422584 0.009151249282461693 0.005388994566290162
          0.00012086837319680299 -0.00033880660207155633 -0.0006527677183429947 0.0014202891341717622 0.001952589719199288 -0.0017312442166462216
          0.001114483054773019 0.0015394688766509623 0.0009630821525624389 0.009507881841401777 0.014441076795878749 0.006608471202241728
          0.0011466009865908344 -0.0005177891064864076 0.0007883289543063748 0.43502201255609824 -0.008706006746000236 0.8530790733193866
          -0.01294282220605908 0.3724626778619344 -0.003584961534031192 0.3316831675709809 -0.0012693159913147734 0.6499654348583364
          -0.001831146210413026 0.3024582460120222 0.00014868208472945676 -0.007840074628813531 -0.01574166006477018 -0.0061843957565377305
          0.273920069409606 -0.0014385206752735302 0.5270744708656908 -0.0008560234713217707 0.21710899802920286 -0.00008337839187377849
          -0.003500489683270297 -0.0017642434864356682 -0.0009252485200417215 -0.000017460784167755428 -0.0015704187747727083 -0.00022206991648610064
          -0.0023033638845254834 -0.0003284751703458433 -0.0041369896202420875 0.005212280073405212 0.007967020207684389 0.003941925951107178
          -0.0005963226898734186 -0.0015588638734920501 -0.00008384724354948414 -0.000018987475538384535 -0.0009287499525153925 -0.00021761821941281012
          0.14415884767837076 0.098043992631318 0.2813355217520362 0.18927317077787267 0.12946538949136552 0.08522465548457345
          -0.0006622914244353018 -0.0021583629328750104 -0.0008136786160268111 0.005511525322506011 0.010461860987785843 0.0059071816642527475
          -0.002599622609464905 -0.0013337178088428173 -0.0022142951636179922 -0.0016179612335928267 0.197300001830857 -0.0014434579878658954
          0.386728825711101 -0.0009592912354164373 0.17917419230363277 -0.0040366313120758085 -0.0005965058941628035 -0.00287705060312724
          -0.11645503143729041 -0.003322037035928302 -0.00022709410334662006 -0.09446090295001151 -0.22850500661834444 -0.0030077983828459796
          -0.000028118747631242225 -0.18447423494875642 -0.10722072857342474 -0.0020021769867224898 -0.0004612684901763586 -0.08171901234584766
          -0.001417692743509169 0.0004980547333834247 0.0011611662737512768 0.0006596846556716902 0.001289217565321632 0.0003107864189041544
          -0.00406098517271538 -0.0024715025167964533 -0.002732962403969433 0.00400591365626763 -0.0010976215629266983 0.0019427570210371545
          -0.0032141572232068025 -0.0012722553269856676 -0.003714880740087967 -0.0052392953073186616 -0.003699507573080161 -0.0000986782350559795
          -0.001635721936964988 -0.0021508979340879586 -0.004030218476347984 -0.0056278887265630295 -0.0004384861382264668 -0.002664036118459001
          -0.005231715970059184 0.0014510934932682185 0.0000011213938979209859 -0.0018565287279170978 0.000299110227959129 -0.004072343359404401
          0.0005133913197304107 0.23697573832651547 -0.0001448932199971109 0.4583122341052462 -0.00010455361497183763 0.19998295125840684
          -0.004351519460246735 -0.0009286307372844763 -0.004722563084308948 -0.0016402503771169585 -0.0033158568473862227 -0.008400440923559904
          -0.00017394531052453838 -0.008732584568694537 0.0004240345469919346 -0.00381826088224535 -0.009580381966843313 -0.00493221178819641
          -0.005749862782109233 -0.002714126949190411 -0.004002830282997791 0.03403964522971326 -0.036800776547791215 0.0003404719574956819
          0.06824491887394489 -0.0745410128474896 -0.001560699364474831 0.044154690944740706 -0.028400130266730467 -0.0003167277649461578
          -0.1369265730275058 -0.27028826078410556 -0.1315942537998191 -0.007898197918566625 -0.002245427239742543 -0.003992752489282735
          -0.0019285677850472832 0.0001781316792179577 -0.0022521497990670297 0.06695144129503734 0.13242993582727547 0.06506688529074856
          -0.004841180456890885 -0.07212806382196231 -0.0019462930943813304 -0.13958730056129692 -0.0007084836492040943 -0.0587874875602217
          -0.003151750444592559 -0.00046336362843978074 -0.0048177874302337345 0.00014768218795978283 0.000332410381923276 -0.0013521951389667136
          0.00023723717137633105 -0.0006757992589908751 0.00020120290269018404 0.0009787054020469433 -0.0014479858189027847 0.0011618981311576817
          -0.0022384013324654208 0.00028317360455199555 -0.0003381982199239207 -0.004167287923440436 -0.005822954487494508 -0.0002309350741380757
          -0.0001591299434354071 -0.002365098789428824 -0.00206545226001683 -0.0030445699281548694 -0.003924403760663664 -0.0004000646661156959
          -0.000577463942776503 -0.0038481024264944708 -0.004567586762567674 -0.001997316479061498 -0.16584051582308035 -0.18901873607057085
          0.000057409737859628884 -0.32618409384612135 -0.3761520747715602 -0.0009795364479279478 -0.16139504041715796 -0.19919119130729107
          -0.00834103082921877 -0.0010773977030008805 -0.0041875303179207055 -0.19855910471286153 -0.4038781542693041 -0.22941878041435154
          -0.15274517546596517 -0.3007057363915714 -0.14753664057334173 -0.00402930644378037 0.0005406512682095133 -0.0023906123534717244
          -0.09825003141359287 -0.09401626296581157 -0.0003467710154523643 -0.203694548162904 -0.19826118421374755 0.000057291638886222684
          -0.10702746232027235 -0.12982949666666088 -0.00033613662802480654 -0.14089350211431578 -0.29322167807777916 -0.15944732469131745
          -0.003986157126542519 0.0008466941091179284 -0.0015325385530248758 -0.005641783503129771 -0.00509611955296442 -0.003045816617343794
          -0.00406153881614163 -0.00318685943862361 -0.0032105890875561566 -0.1341480666451975 -0.27264949968134716 -0.15159238446167522
          -0.0014290997201198141 -0.0006852410663120978 -0.0006051649284173344 -0.00028793463802548325 0.00021981227138465065 0.00002152170093878969
          -0.21747585167341682 -0.4328073381351982 -0.22781534919083093 -0.3217787129879638 -0.6395418219773542 -0.34294238229333124
          -1.0299761898876343 -2.058824933059811 -1.0262141692623585 0.00014002806241197874 -2.2281371262233742 -0.00039649812798803197
          -4.457654741529523 -3.033588225065387e-8 -2.223763842887472 -0.00021108449358009373 -2.940950080587892 -0.0000347916033929252
          -5.881709532121209 0.0001319761205742509 -2.9484596740434434 -0.00010320108650319071 -3.3109214708280588 -0.000005147131168614649
          -6.6219551659025155 0.00043101961968283753 -3.3215537698132556 -0.00009163559738323279 0.00017257770819800733 -0.00022812641845404436
          -0.00007557057445528592 -0.00004885450708136396 0.00039944182694107155 -0.00002559442793792499 0.000057420263885443745 0.0003623465483131305
          -0.00021213490190730155 0.00018771634726078013 -0.0006443745053530403 -0.00006007000628693859 -0.00015686019635197113 0.00022016393553636604
          0.0001964748146039419 0.000011557004740758714 0.0005281957747724775 -0.0010951196463395707 -0.001948100763628391 -0.0011452352528220633
          0.000029380608240980877 -0.00008709135589501926 0.00011807374919081681 0.0001478670854666575 -0.00008161123965555461 0.0006406032780059689
          0.0003291730465941889 0.00005077400571029678 -0.0003463091629329895 -0.00006994860513032108 -0.0006369841712023927 -0.00006674953032925757
          -0.00008046845380893508 -0.0007606211112289873 -0.001950082565993938 -0.0004341847016506861 -0.001249084017490798 -0.0009474802840210295
          -0.0008843447714790287 -0.001162265055066669 -0.003388532374901887 -0.0012970903132514255 -0.0015559620545151365 -0.001690746112935182
          -0.0019002604884372776 -0.0014817030910125872 -0.005386529697641418 -0.0025349162135301917 -0.002174412946366111 -0.003325318761143947
          -0.004559665433949811 -0.00458090943758499 -0.0033231766643588845 -0.0038164320875839902 -0.0019209321172053186 -0.001544957012289773
          0.00012401091383984486 -3.3594701890217546 -0.00006062795392547393 -6.719885644566123 0.0003264157226086084 -3.3678737634149103
          0.00019302169324042495 0.00024330909587266802 0.000402507201025859 0.0004558795289182349 0.0005494091567066484 0.000289785648364127
          0.00046090683331057036 0.0004347536458975121 0.0008146951954568493 0.00012359507701198424 0.0003929557498936198 0.000042065776213018324
          -0.016085742372449363 -0.016794346636977597 -0.014680162552105414 -0.01702999200068271 -0.00909766978966648 -0.013194132640374126
          -0.004246229999579132 0.00027957753063674595 -0.005223457980681745 -0.0014222121454283698 0.000885506185118845 -0.004699837509648294
          -0.005057062872413448 -0.00569585621961264 -0.0037675827255486127 -0.011356789075619947 -0.01322098794411769 -0.00968131600012348
          -0.012183766115898657 -0.017249651325754345 -0.01476100428072521 -0.01115144118694622 -0.009658725690286418 -0.006486277719047404
          -0.002032715532460455 -0.002361998546081767 -0.004355003724572093 -0.002780765843601485 -0.0022085107646583335 -0.0048633363725140155
          -0.00323726775136296 -0.0007548384409131748 -0.006038994348436133 -0.005825585822461274 -0.0021420045627637274 -0.009406000754569821
          -0.008618196326790534 -0.0006979137451869066 -0.0030329692520383034 0.0002989802084332194 -3.179317100686255 0.00008679726931859477
          -6.359194111358999 -0.000003959859761204498 -3.18790562020855 0.00017674843862658385 0.00035064590517830396 0.00037075682338816307
          0.0003545654665881859 0.0003149334170631235 0.00022164784070088928 0.0004548879629782121 0.00042349736870495036 0.0004926191189393858
          0.00008339680819258177 0.0005516971019785544 0.00017008634473159034 -0.00037135065720095284 0.00003461423442807643 -0.0006470279967545345
          0.00015954985711497116 -0.000022181523030795347 0.00010938334058430144 -0.0008679091978578413 -0.0018826062141892308 -0.0012218485703252568
          -0.0013925079756655911 -0.003102366115071753 -0.0022318755879862096 -0.0019418620893004723 -0.003637259031552542 -0.0021264210939493378
        </DataArray>
        <DataArray type="Float64" Name="resid_z" format="ascii" RangeMin="0" RangeMax="0">
          0 0 0 0 0 0
          0 0 0 0 0 0
          0 0 0 0 0 0
          0 0 0 0 0 0
          0 0 0 0 0 0
          0 0 0 0 0 0
          0 0 0 0 0 0
          0 0 0 0 0 0
          0 0 0 0 0 0
          0 0 0 0 0 0
          0 0 0 0 0 0
          0 0 0 0 0 0
          0 0 0 0 0 0
          0 0 0 0 0 0
          0 0 0 0 0 0
          0 0 0 0 0 0
          0 0 0 0 0 0
          0 0 0 0 0 0
          0 0 0 0 0 0
          0 0 0 0 0 0
          0 0 0 0 0 0
          0 0 0 0 0 0
          0 0 0 0 0 0
          0 0 0 0 0 0
          0 0 0 0 0 0
          0 0 0 0 0 0
          0 0 0 0 0 0
          0 0 0 0 0 0
          0 0 0 0 0 0
          0 0 0 0 0 0
          0 0 0 0 0 0
          0 0 0 0 0 0
          0 0 0 0 0 0
          0 0 0 0 0 0
          0 0 0 0 0 0
          0 0 0 0 0 0
          0 0 0 0 0 0
          0 0 0 0 0 0
          0 0 0 0 0 0
          0 0 0 0 0 0
          0 0 0 0 0 0
          0 0 0 0 0 0
          0 0 0 0 0 0
          0 0 0 0 0 0
          0 0 0 0 0 0
          0 0 0 0 0 0
          0 0 0 0 0 0
          0 0 0 0 0 0
          0 0 0 0 0 0
          0 0 0 0 0 0
          0 0 0 0 0 0
          0 0 0 0 0 0
          0 0 0 0 0 0
          0 0 0 0 0 0
          0 0 0 0 0 0
          0 0 0 0 0 0
          0 0 0 0 0 0
          0 0 0 0 0 0
          0 0 0 0 0 0
          0 0 0 0 0 0
          0 0 0 0 0 0
          0 0 0 0 0 0
          0 0 0 0 0 0
          0 0 0 0 0 0
          0 0 0 0 0 0
          0 0 0 0 0 0
          0 0 0 0 0 0
          0 0 0 0 0 0
          0 0 0 0 0 0
          0 0 0 0 0 0
          0 0 0 0 0 0
          0 0 0 0 0 0
          0 0 0 0 0 0
          0 0 0 0 0 0
          0 0 0 0 0 0
          0 0 0 0 0 0
          0 0 0 0 0 0
          0 0 0 0 0 0
          0 0 0 0 0 0
          0 0 0 0 0 0
          0 0 0 0 0 0
          0 0 0 0 0 0
          0 0 0 0 0 0
          0 0 0 0 0 0
          0 0 0 0 0 0
          0 0 0 0 0 0
          0 0 0 0 0 0
          0 0 0 0 0 0
          0 0 0 0 0 0
          0 0 0 0 0 0
          0 0 0 0 0 0
          0 0 0 0 0 0
          0 0 0 0 0 0
          0 0 0 0 0 0
          0 0 0 0 0 0
          0 0 0 0 0 0
          0 0 0 0 0 0
          0 0 0 0 0 0
          0 0 0 0 0 0
          0 0 0 0 0 0
          0 0 0 0 0 0
          0 0 0 0 0 0
          0 0 0 0 0 0
          0 0 0 0 0 0
          0 0 0 0 0 0
          0 0 0 0 0 0
          0 0 0 0 0 0
          0 0 0 0 0 0
          0 0 0 0 0 0
          0 0 0 0 0 0
          0 0 0 0 0 0
          0 0 0 0 0 0
          0 0 0 0 0 0
          0 0 0 0 0 0
          0 0 0 0 0 0
          0 0 0 0 0 0
          0 0 0 0 0 0
          0 0 0 0 0 0
          0 0 0 0 0 0
          0 0 0 0 0 0
          0 0 0 0 0 0
          0 0 0 0 0 0
          0 0 0 0 0 0
          0 0 0 0 0 0
          0 0 0 0 0 0
          0 0 0 0 0 0
          0 0 0 0 0 0
          0 0 0 0 0 0
          0 0 0 0 0 0
          0 0 0 0 0 0
          0 0 0 0 0 0
          0 0 0 0 0 0
          0 0 0 0 0 0
        </DataArray>
        <DataArray type="Float64" Name="stress_zz" format="ascii" RangeMin="-1278170.8829396071" RangeMax="2104735.8468338544">
          -176320.50016984047 432784.2755828368 582737.2256764157 -301360.45680542535 -155808.50214610924 441061.0326552928
          637362.2620766155 -222418.70203043096 -135296.504122378 449337.7897277486 691987.298476815 -143476.94725543653
          71163.43211309645 -52748.985245002514 -15083.00693419754 19599.718284294166 69471.00218748668 -61689.67007322375
          -30679.944849194915 25416.60495638038 67778.57226187688 -70630.354901445 -46276.88276419226 31233.49162846659
          -348061.6465271113 -925188.3836347765 -501705.45492876467 -106852.19815032526 -341580.6939662667 -929411.8410783275
          -492518.95788761356 -113516.3211237368 -335099.74140542216 -933635.2985218785 -483332.46084646264 -120180.44409714825
          135724.6407094373 -218124.29432560774 -385026.55169132486 663337.9655297803 117461.68101705119 -216414.8934449144
          -369224.4317989481 660297.2090206452 99198.72132466508 -214705.49256422103 -353422.3119065714 657256.4525115102
          282141.1218997869 256936.89628296485 218377.9845264189 255559.07841205443 279651.32009490253 251502.19690004794
          213359.47256461784 250746.72973509633 277161.5182900182 246067.49751713107 208340.96060281678 245934.3810581383
          -275148.44790919626 -176400.52949098987 -271816.76472481055 -300887.23617330275 -271761.64155010646 -169153.44426535064
          -277743.6171643345 -314038.1169364826 -268374.8351910167 -161906.3590397114 -283670.4696038584 -327188.99769966246
          197864.4388134707 207911.9651882947 117421.74948367724 200380.2243310978 205657.05359763396 110929.39607496304
          202896.00984872482 203402.1420069732 104437.04266624886 -55669.81122523847 -183084.0244388018 -44598.0960988826
          -191679.97539382338 -33526.380972526735 -200275.92634884495 197967.74718255122 502464.3903620799 367778.9336578066
          191237.39551968029 197747.39225725946 504797.79081949726 390655.13099750853 182511.06400283313 197527.0373319677
          507131.1912769145 413531.3283372106 173784.7324859859 -351318.51809761557 -534154.99713582 -336249.7393518875
          -510870.1573851505 -321180.96060615947 -487585.31763448124 21992.39338464762 -1880.593500015928 29001.671908941866
          -2786.8810227518084 36010.95043323611 -3693.1685454876824 -291503.0665229235 -382184.0740875768 -57981.46735034218
          -278612.2181860365 -369751.8959946628 -56126.29312428345 -265721.36984914955 -357319.71790174884 -54271.11889822468
          -406261.70093379146 -268952.35129324294 -411580.06673430256 -270867.76187729475 -416898.43253481365 -272783.1724613466
          -207840.6991105949 -85476.72576480715 -21877.17891955426 -238048.36377852157 -202799.7855083916 -78788.03865444353
          -23456.48987867865 -235385.16469703353 -197758.87190618826 -72099.3515440799 -25035.800837803046 -232721.9656155454
          290517.82949242066 167328.37596613038 203162.67233251227 291090.2889635268 172756.6719668234 205648.5586588036
          291662.74843463284 178184.9679675164 208134.44498509495 2623.9068635419476 16100.938825301395 29577.970787060774
          36922.637911872174 -140909.7279415639 -128561.78505475767 39940.40764428268 -140144.91293046356 -136024.6676588421
          42958.17737669317 -139380.0979193632 -143487.55026292655 274341.07870921184 48300.26781291659 285602.1866831483
          266476.39965023194 48869.471604489896 282456.5320060734 258611.72059125203 49438.675396063205 279310.87732899847
          -536771.8737658879 -894283.5429683289 -491928.25696507725 -503198.2876165158 -854390.3286081023 -466414.1052620228
          -469624.7014671436 -814497.1142478758 -440899.95355896826 -106001.09711649605 -517251.2177407052 -95710.80624382419
          -530461.4866574552 -85420.51537115235 -543671.7555742053 -539553.5053904463 125984.36610102798 -533922.9787499934
          125284.08588145475 -528292.4521095405 124583.80566188152 -269957.5170406905 -314364.655323841 -358771.7936069915
          -15358.070671842997 -66520.37443351625 689.4976820276606 -126436.89596012585 16737.06603589831 -186353.41748673547
          111461.87645325766 108458.38493420261 110004.68083261911 106789.8826579056 108547.48521198054 105121.38038160861
          -57228.787702531736 -60066.66801118149 -62904.548319831265 -275165.73369948333 -215794.82178290433 -130788.35711182446
          -224667.34241586397 -279453.1670033466 -212047.3158225533 -135096.897032346 -235506.41913660377 -283740.6003072099
          -208299.80986220232 -139405.43695286752 -246345.49585734354 238912.62014248 242205.5366472607 245498.45315204136
          -25681.17324054503 445778.1079773528 -19062.878834514224 444396.449680013 -12444.584428483435 443014.7913826731
          -749868.5914864021 -527672.7143888511 -750966.8382098117 -490972.8135412468 -752065.0849332215 -454272.91269364237
          219161.43853219197 208335.13283740336 197508.82714261473 -332296.3117214979 -338363.4004650114 -332967.3201289605
          -332580.2307915213 -333638.32853642304 -326797.0611180311 -492700.37752886064 -674985.3151334835 -654524.7782089494
          -331564.2134906911 -493879.48523527477 -667398.004635285 -648857.9048604711 -334972.50137904345 -495058.59294168896
          -659810.6941370866 -643191.0315119927 -338380.7892673958 384244.88996515784 567982.5432418883 379382.26243916276
          552791.5822216503 374519.6349131677 537600.6212014123 -4921.03271905845 -147316.64963310907 -70884.60530364953
          -44816.555798234054 -73486.41272112948 -161335.602208639 -42937.65843590801 -35408.344425703996 -142051.7927232005
          -175354.55478416893 -14990.711568166473 -26000.13305317394 -68989.85541216127 -54224.56507701946 -39459.27474187763
          -369301.10109085403 -226590.2906794354 -345500.09938118205 -222613.82374227172 -321699.09767151 -218637.35680510808
          -83242.95165807602 -33717.31979603344 -84057.35813232846 -28218.828665675293 -84871.7646065809 -22720.33753531714
          78431.83657227905 92340.40546987674 106248.97436747444 31926.257597066506 -269734.3831303551 33828.02087140745
          -277360.29626012803 35729.78414574839 -284986.20938990096 -122779.2788595889 -363847.96812645154 -119809.80597794318
          -375109.3968932536 -116840.33309629746 -386370.82566005574 175015.11555556898 -302690.9939085092 170537.93965208402
          -308602.83160435513 166060.76374859907 -314514.6693002011 -12051.8992010878 -1811.4646953821866 8428.96981032344
          -147315.7900722521 -126121.80799182178 -143264.05401954058 -124704.52929769036 -139212.31796682908 -123287.25060355896
          -300716.51395073504 -335633.36340031074 -292620.2248554565 -339906.61196725274 -284523.935760178 -344179.8605341947
          167918.91285184206 -162991.5432839212 87968.052586743 180239.46109988244 -163253.6160263893 83890.97068464273
          192560.00934792275 -163515.68876885736 79813.88878254246 18008.130400291167 44310.14512651927 70612.15985274733
          -144506.25163279648 -59062.06092259487 -144357.91368935115 -48998.752809525125 -144209.5757459058 -38935.44469645538
          191696.07170047876 200227.97920878755 192035.09691727176 197941.25159870193 192374.12213406473 195654.5239886163
          -89926.51449869978 217609.76358732986 -81771.43660411083 214597.95964130366 -73616.35870952194 211586.1556952775
          -240972.56563434174 -645520.7986079169 -251972.78823591876 -625968.1634155879 -262973.01083749573 -606415.5282232586
          138083.57677636534 -219478.7049806955 188008.67410100534 111952.7141201387 -224190.77292964596 165764.1801266885
          85821.85146391203 -228902.8408785964 143519.6861523716 -157228.32818646717 -183005.60829684185 -208782.8884072165
          6889.443315603826 12587.312643176836 18285.181970749843 -14794.532371067093 -38029.79631728829 -61265.06026350949
          -27925.50077508029 -62198.99852326774 -96472.49627145522 142624.01232520488 136106.3260774059 129588.63982960688
          -600536.7701409269 -637523.301010829 -674509.8318807309 -356433.6937121304 -405819.79556221387 -455205.8974122972
          342522.0238969658 346229.34185975336 349936.65982254094 -30177.908110133896 -970694.75777741 17266.61006795516
          -930155.2679091595 64711.128246044216 -889615.7780409089 -1091594.5151400692 -1074143.749154894 -1124247.65276284
          -1103462.7812186063 -1156900.790385611 -1132781.8132823186 -745751.7317820442 -772494.0126578764 -799236.2935337084
          -1026658.7815635258 -883557.2276212679 -986998.8145551977 -885791.4236696521 -947338.8475468697 -888025.6197180361
          396413.2771012741 -220210.5113360334 409399.01813528995 -214941.62915403204 422384.75916930573 -209672.74697203067
          391159.4717022602 378130.43924508727 365101.4067879142 1394.078078370231 -8311.919183373762 -18017.916445117753
          -134439.02565924515 143322.271168196 -168914.53664392792 148655.5955322482 -203390.04762861066 153988.91989630047
          -294492.4428569013 -266668.9308162326 -293750.9015929868 -258795.0443140195 -293009.3603290723 -250921.15781180645
          408952.65111863404 407499.789186622 406046.92725461 85209.83822583566 79565.36203345205 73920.88584106843
          -260969.45790393642 -269916.92148227396 -278864.3850606115 -363930.4088948694 -260055.009532338 -372755.4818781613
          -274571.3507149235 -381580.55486145336 -289087.69189750904 177309.49956156363 173355.2734578423 169401.04735412096
          173937.42273624963 166613.2823102077 81455.68906868529 132619.3860067104 175418.5930872754 165300.58670631167
          81174.21094593813 126402.45772662676 176899.76343830113 163987.89110241563 80892.73282319099 120185.5294465431
          -51008.665244065014 68577.99909445539 -42801.839994457834 82579.3661375301 -34595.01474485066 96580.7331806048
          295475.4147578545 294644.0154210304 293812.6160842063 21226.620829249616 149334.63420600333 28775.3443598456
          150378.6733645603 36324.06789044158 151422.71252311725 -21285.515313391847 -357605.02750134695 -25267.41790092857
          -351534.15725989133 -29249.320488465317 -345463.2870184358 -72707.67744973539 -86206.02104794141 -99704.36464614747
          139439.16895826283 134398.41962748166 129357.67029670047 114261.80677702717 110884.63860270992 107507.47042839268
          -572737.5597179016 -489650.6307117543 -562350.319260939 -463276.47488366114 -551963.0788039765 -436902.319055568
          -248359.04392440026 -241813.1136104712 -235267.1832965421 335595.12761575624 383501.9248893877 114964.91282952455
          328929.36168691755 379123.4503592561 116642.65613308817 322263.5957580788 374744.9758291244 118320.39943665174
          -483858.30161104194 -480277.12274667877 -476695.9438823156 47417.85067330794 -49055.98791862986 26951.390185467175
          44238.62207249146 -44679.6163069202 30758.164403050243 41059.39347167498 -40303.24469521055 34564.938620633315
          274281.3660978143 275092.4606496967 275903.55520157906 143607.1386394945 142507.97832949835 141408.8180195022
          456822.32981467294 454925.2897109754 453028.24960727774 -41028.02375841321 -39937.688497489224 -38847.35323656523
          30474.69788259706 59298.01834778391 20822.495041871192 53562.04298858354 11170.292201145327 47826.06762938317
          56316.714652327195 55336.49357270226 54356.27249307732 -761929.0335809632 -456848.9377202876 -754964.5544756632
          -445770.09371507796 -748000.0753703637 -434691.2497098682 -54024.52997724951 -6619.493548836842 -72114.38244505388
          -18369.052831574805 -90204.23491285826 -30118.612114312757 -196483.01423815876 -52821.212365994594 -195841.98466806876
          -53743.578679447404 -195200.95509797867 -54665.944992900215 477489.10140936525 304625.87477124226 471693.30797889316
          308390.6592728016 465897.51454842114 312155.443774361 342861.99659885676 455733.77665796445 422834.6455438244
          338204.8512125468 455387.92069550406 436742.64446436305 333547.70582623687 455042.06473304366 450650.6433849018
          210969.90011318127 212703.04834851107 214436.1965838409 115001.2885362973 137819.06951609452 160636.85049589173
          335030.89925060334 335024.37935576675 335017.8594609302 891205.7726620242 888663.5531699358 886121.3336778474
          391329.6476897245 -33084.64300774847 -268580.5013749521 404374.5594453342 -26314.44763849018 -275710.85439095146
          417419.4712009439 -19544.25226923189 -282841.2074069509 3963.7739810099374 33972.525014898754 63981.276048787564
          305109.4543312084 298481.4435140939 291853.4326969793 397957.57853379316 634262.1083069094 394012.46645084117
          628880.9077115244 390067.3543678893 623499.7071161392 -407389.89896394155 -391344.2697949471 -375298.64062595257
          -242017.3702362626 -247392.85561335436 -252768.34099044604 196371.67934562234 171382.6882813763 146393.69721713028
          -92207.38004131407 -109437.16018312456 -126666.94032493504 95499.26648692423 73807.26035705267 52115.25422718111
          303884.18934113684 303200.17583895166 302516.16233676655 134433.03498042305 132770.69662706176 132966.46107418463
          133389.547361862 131499.8871679462 134008.39809666222 -6600.675263173104 -15582.865730201785 -6148.516766047986
          -16109.047610154836 -5696.358268922867 -16635.229490107886 -33596.59551526046 -38560.767409138076 -33181.38537392495
          -38686.423230359986 -32766.17523258944 -38812.079051581895 51744.851781551544 48702.69310191281 45660.53442227408
          49278.37307154556 47710.952311511704 46143.531551477834 -38160.81028113165 -37996.96960107709 -37833.12892102252
          -78109.47399551023 -76811.16827836559 -75512.86256122094 48670.03828991615 47164.55148944422 45659.06468897229
          59284.611272798466 57366.75597128629 55448.900669774135 25871.865125691773 27882.17927430829 29892.493422924817
          6133.653621621939 8179.128093748691 10224.602565875437 60284.66490074881 61101.94833681877 61919.23177288874
          158077.43732945586 158326.5759828652 158575.71463627453 279610.85160552076 283483.2501952348 287355.64878494886
          235984.7205463017 235493.93429375615 235003.1480412106 688732.900370767 686301.380237218 683869.860103669
          71976.45400663177 73696.28747817384 75416.12094971593 1041415.3692577325 1038972.5137888502 1036529.6583199678
          -650567.5014813412 -645540.5387779742 -640513.5760746072 498819.8043921568 501120.6158095797 503421.42722700257
          -1278170.8829396071 -1270499.8921369407 -1262828.901334274 -312636.1218856388 -310914.7428281739 -309193.363770709
          -58385.727385234495 -58630.20595206084 -58803.15653501627 -58646.122273724926 -59220.58568479803 -58662.03859538901
          -60456.2606903836 -60072.09573785026 -59687.9307853169 -52039.798118135965 -53157.766860128795 -54275.735602121626
          2315.3552993471912 -1238.251880175476 -4791.859059698141 129725.70438142536 132822.79662197942 135919.88886253347
          -69710.54896961887 -656079.6548433607 -72950.51244054065 -652735.1510595891 -76190.47591146245 -649390.6472758175
          242695.52974109614 231162.0016000357 346236.55313617765 243164.4637691416 227646.50297895123 341607.76635852875
          243633.3977971871 224131.00435786683 336978.9795808799 -134071.77670133865 -133772.54367332984 -133473.31064532103
          -502052.96255449625 -502359.56464366725 -502666.1667328382 320564.48822170764 318248.44524264464 315932.40226358164
          121270.29217011775 120877.7856925672 120485.27921501662 -14723.003593129 -13654.198170760075 -12585.392748391154
          -275871.5853279411 -273814.7012033546 -271757.81707876804 -824487.9150473918 -820361.0453034886 -816234.1755595853
          -1193862.2424936723 -1187907.9494042564 -1181953.6563148405 -52754.95527317526 -49736.51469061377 -52757.39342577801
          -49623.55343066665 -52759.83157838076 -49510.592170719545 -49349.273588248005 -49535.129183547455 -49720.984778846905
          -53176.87311495116 -52310.48159215506 -51444.090069358965 -1694.671444687885 -4577.866499519947 -7461.061554352005
          -42736.711883701806 -41731.83350448407 -40726.95512526634 803521.0837210227 801507.741532203 799494.3993433833
          28150.781900132846 32749.844011322028 37348.9061225112 2104735.8468338544 2093286.945612929 2081838.0443920032
          1804132.8933035303 1797765.6959668663 1791398.4986302024 792323.8858911534 788982.4198088357 785640.953726518
        </DataArray>
        <DataArray type="Float64" Name="peeq" format="ascii" RangeMin="0" RangeMax="0.001237496783689112">
          0.0006705650568193009 0.0008332945384859721 0.0008893343865245645 0.0006854365059061248 0.0006713940036712233 0.0008341636901939686
          0.0008901619428980834 0.0006867305223062105 0.0006722229505231458 0.0008350328419019649 0.0008909894992716023 0.0006880245387062961
          0.00039172820095998426 0.0003654126508774358 0.00038258135226043583 0.00041042641216962707 0.00039159956430274675 0.0003654167028082535
          0.00038245305872589464 0.0004102413269231966 0.00039147092764550917 0.00036542075473907124 0.0003823247651913534 0.0004100562416767662
          0.00003697144153127926 0.000030309380245913313 0.000008602657767369389 4.1785927440506606e-7 0.000037147822320284974 0.000030562723211738044
          0.00000879940982242532 4.3286090555146046e-7 0.000037324203109290695 0.00003081606617756277 0.00000899616187748125 4.4786253669785486e-7
          0.0008495017560429611 0.0006831288306130905 0.0006721727619223539 0.0008378296930521117 0.00084926339855699 0.0006833339147643311
          0.0006725881268443248 0.00083777884123483 0.000849025041071019 0.0006835389989155715 0.0006730034917662955 0.0008377279894175482
          0.00043642747742404423 0.00043219277410701826 0.00044777273762303376 0.0004550718374260406 0.0004360944861844296 0.0004318415502124764
          0.00044743878965329824 0.00045473789602596434 0.0004357614949448151 0.0004314903263179346 0.00044710484168356283 0.00045440395462588803
          0.0003681214526018411 0.0003591400871134042 0.0004388243091639662 0.000450031744783544 0.0003686008957232209 0.0003594862780149416
          0.0004392307765829148 0.00045043919078211847 0.0003690803388446007 0.0003598324689164789 0.0004396372440018634 0.0004508466367806931
          0.0004078043570460271 0.0003867910152628766 0.00037612731042679427 0.0004076504154892758 0.00038668747230665736 0.0003760856466231058
          0.0004074964739325246 0.00038658392935043805 0.0003760439828194174 0.0003582375684743681 0.00040134962863739286 0.00035849589412337193
          0.0004016462477726989 0.0003587542197723758 0.0004019428669080049 0.00027194046583433685 0.0003355389713041903 0.00033357353013170593
          0.000254155084595832 0.0002718248554755683 0.0003353803646879402 0.0003334114936880718 0.00025395819993710136 0.00027170924511679977
          0.0003352217580716901 0.0003332494572444376 0.0002537613152783707 0.0005500238011085074 0.0005378615457556871 0.0005504796958252596
          0.0005383021549068205 0.0005509355905420118 0.0005387427640579538 0.000363738828642399 0.0003908366291202021 0.000363926658410802
          0.0003910355026240704 0.000364114488179205 0.00039123437612793865 0.00004120103926517474 0.000015734466112167793 8.368107792854875e-7
          0.00004159169204907274 0.000016103794718161906 9.310472113221606e-7 0.00004198234483297075 0.00001647312332415602 0.0000010252836433588339
          0.0004745682592126576 0.0003911680131571246 0.0004751030897494932 0.00039166915921854143 0.00047563792028632875 0.00039217030527995833
          0.00026607455912917063 0.00030444553414315026 0.00031357838093206433 0.00028484020427589976 0.0002662292292624986 0.0003046681109774595
          0.00031368096954386955 0.0002849256061879131 0.00026638389939582667 0.0003048906878117688 0.00031378355815567477 0.0002850110080999265
          0.0004082647759105603 0.0004282661521924099 0.0004310096968345688 0.0004080796295467153 0.0004280690820091924 0.0004307399642528414
          0.00040789448318287046 0.0004278720118259749 0.0004304702316711139 0.0006612628129418973 0.0006615125864170276 0.000661762359892158
          0.00034894363078800494 0.00033354415305076083 0.0003820866293865424 0.0003491434684981279 0.00033385479961703797 0.00038231249362382394
          0.0003493433062082507 0.0003341654461833151 0.0003825383578611055 0.0003866816108659955 0.00036097101589908454 0.0003827055673090411
          0.0003864396471698747 0.00036085356260367953 0.0003825886333400574 0.0003861976834737539 0.00036073610930827446 0.00038247169937107364
          0.0005908127714988476 0.0006288515829513529 0.000516557116399539 0.000591480669526477 0.0006295406441824176 0.0005172695350321529
          0.0005921485675541065 0.0006302297054134823 0.000517981953664767 0.0005441917357632067 0.0005316251810417466 0.0005448134480973321
          0.0005323862077980264 0.0005454351604314575 0.0005331472345543062 0.00019762760314619905 0.00021515545875179577 0.0001978109203936687
          0.00021519036182333784 0.00019799423764113835 0.00021522526489487994 0.001237496783689112 0.001236833739333048 0.0012361706949769835
          0.00034088650180098395 0.00027998444234007055 0.00034069851652100594 0.0002796333065195164 0.00034051053124102787 0.0002792821706989623
          0.000383574821733137 0.00037115578488247734 0.000383680851917517 0.00037122011101854956 0.00038378688210189706 0.0003712844371546219
          0.000356017975111822 0.00035614765575498007 0.00035627733639813803 0.00026731623409671215 0.0002787121633352505 0.00029165753570671853
          0.00028354749384891726 0.0002676336278419013 0.00027896662318451437 0.0002918964486970156 0.0002839024433022328 0.0002679510215870904
          0.00027922108303377817 0.0002921353616873127 0.0002842573927555483 0.00012155670294586708 0.00012160900461684635 0.00012166130628782563
          0.000054752369068304984 0.00012126064088466668 0.00005484237669446535 0.00012132623946860803 0.00005493238432062571 0.00012139183805254936
          0.0006599776253080915 0.0005611460387970193 0.0006605472054224443 0.0005618842993360768 0.0006611167855367973 0.0005626225598751346
          0.0004184856606303007 0.0004181475789866005 0.00041780949734290026 0.00026873772885287997 0.0002339739758727885 0.0002687590292020075
          0.0002340909195017111 0.000268780329551135 0.00023420786313063362 0.000261712882312951 0.00022549124528229084 0.0002114913158161978
          0.0002666987186999395 0.0002619575831576372 0.00022570861440679346 0.00021174775060861002 0.0002669932397309717 0.0002622022840023234
          0.00022592598353129607 0.0002120041854010222 0.00026728776076200385 0.0003866289033813327 0.0003765055555771996 0.00038638618713648964
          0.000376247783347654 0.00038614347089164646 0.00037599001111810826 0.0002247632025146519 0.00019703930045135304 0.00012702641312746027
          0.00016008016612760028 0.00022462660714652662 0.00019705565677192384 0.00012739465661109006 0.00016023975143385794 0.00022449001177840143
          0.0001970720130924946 0.0001277629000947198 0.0001603993367401156 0.0005147404910742867 0.000514998240851792 0.0005152559906292973
          0.0003297479094787923 0.0003146521500630477 0.0003303798719930742 0.00031510763970227413 0.0003310118345073562 0.00031556312934150066
          0.0003483549938116016 0.000380963005242769 0.000348716923426161 0.00038139488184789176 0.0003490788530407205 0.00038182675845301457
          0.00045217213311956147 0.0004525879992436238 0.0004530038653676861 0.0004377332243784869 0.00045602245960590487 0.00043794292193020766
          0.0004563850171554821 0.00043815261948192835 0.0004567475747050592 0.0005540083868346103 0.0004748463672929897 0.0005543805546883867
          0.00047532538753051714 0.0005547527225421631 0.00047580440776804456 0.00047867313564375853 0.0005583579775218631 0.00047877038161582466
          0.0005584152503132544 0.0004788676275878908 0.0005584725231046457 0.0004287906992680874 0.00042915428773510165 0.000429517876202116
          0.0003303924127250857 0.0003417934109816491 0.0003306262870868822 0.00034196624445213933 0.00033086016144867863 0.00034213907792262954
          0.0005279992124336063 0.0004817464447011555 0.0005282201896548262 0.0004818999853092007 0.000528441166876046 0.0004820535259172459
          0.0007087313150149763 0.0005656925655526887 0.0006888743125763528 0.0007091283859076722 0.0005661256164975028 0.0006890484291449068
          0.000709525456800368 0.0005665586674423167 0.0006892225457134605 0.0007492312620905391 0.0007495763942795647 0.0007499215264685901
          0.0003156907370528148 0.0003109260447381358 0.00031596086046350677 0.00031116983034442096 0.00031623098387419883 0.0003114136159507061
          0.0003700414188813114 0.0003715837622769928 0.0003701355921803928 0.00037158319079656825 0.00037022976547947415 0.0003715826193161437
          0.00010163667400981849 0.00018773048630416924 0.00010188504542055533 0.0001877295099069543 0.00010213341683129216 0.00018772853350973941
          0.00043691053631677283 0.0003563760015949131 0.00043739175079503245 0.0003569771895110691 0.00043787296527329203 0.00035757837742722505
          0.0009689401443744413 0.0007952335183480281 0.0008954800879085918 0.0009684410638086359 0.0007953297024630642 0.000895156214839133
          0.0009679419832428305 0.0007954258865781003 0.0008948323417696739 0.0009674655907526157 0.000967412696364219 0.0009673598019758221
          0.00034638254487793027 0.00034650973282457354 0.00034663692077121697 0.0009813821511772233 0.0009807151237600001 0.0009800480963427767
          0.0008193102106601574 0.0008196024834945231 0.0008198947563288887 0.00041752481530164836 0.00041761367371885875 0.0004177025321360693
          0.0004207817117963843 0.00042127979209374844 0.00042177787239111266 0.0010454789333902556 0.001045249827737723 0.0010450207220851903
          0.0008386868735369347 0.0008387300454315201 0.0008387732173261052 0.000718007639597553 0.0007602291031164018 0.0007193420402770816
          0.0007616315241912431 0.0007206764409566102 0.0007630339452660845 0.0005257151733829424 0.0005264071845016662 0.000526435627427166
          0.0005272193965751973 0.0005271560814713895 0.0005280316086487284 0.0010147876037224462 0.0010150828647436981 0.0010153781257649498
          0.0003870695670536491 0.0003983514568321969 0.00038766874140260443 0.00039893369861056894 0.0003882679157515598 0.000399515940388941
          0.00006627131348611978 0.000012276395210838416 0.00006642623943356717 0.000012348445397745788 0.00006658116538101457 0.000012420495584653162
          0.00019793433966177866 0.00019785860651079656 0.0001977828733598144 0.0009534649030256874 0.0009539480303416096 0.0009544311576575319
          0.00027043848356349997 0.0003406656647751533 0.00027010263279746827 0.0003403713487078384 0.00026976678203143647 0.00034007703264052347
          0.000262302563433915 0.00027496173477579685 0.0002626305511759756 0.00027522789151916243 0.0002629585389180362 0.0002754940482625281
          0.0007955005528617025 0.0007955221039033599 0.0007955436549450173 0.0009293917568762608 0.0009289720350361972 0.0009285523131961335
          0.0004260425241000426 0.00042629920685122294 0.0004265558896024032 0.0002780107020773136 0.0002720719153885958 0.0002785266988687116
          0.0002725267969045138 0.0002790426956601096 0.0002729816784204319 0.00035911188251934044 0.0003590953122966498 0.00035907874207395906
          0.0004593674131453604 0.00045563529319281044 0.00044057601618977525 0.00044638999330149926 0.00045907157001874425 0.0004553375480568692
          0.00044028114915592773 0.0004460674986719638 0.0004587757268921281 0.00045503980292092795 0.0004399862821220802 0.0004457450040424284
          0.00030535223434798275 0.00033942130052124105 0.00030558768660689364 0.0003395865322609155 0.00030582313886580453 0.00033975176400059
          0.00039580883708497424 0.00039557284465486603 0.00039533685222475776 0.0004272439911881225 0.00044486698369126395 0.0004270122765237323
          0.0004446106638211428 0.0004267805618593421 0.00044435434395102185 0.0003354311731019262 0.00030880521201232246 0.0003354184851980581
          0.00030879946849117674 0.0003354057972941899 0.00030879372497003097 0.00043101588795105327 0.00043111168197520545 0.00043120747599935773
          0.0003889165882318749 0.0003890143437500958 0.0003891120992683167 0.00033941127939567697 0.0003392410595814767 0.0003390708397672764
          0.0003183673736545217 0.00030872084211245595 0.00031903385961856934 0.0003093501353771985 0.000319700345582617 0.0003099794286419411
          0.00032920930689589044 0.00032908901348691077 0.000328968720077931 0.0002479320044281846 0.0002285085210641485 0.00024051480108205604
          0.00024789178846437314 0.00022842741271416218 0.00024055163843931802 0.0002478515725005616 0.00022834630436417586 0.00024058847579658
          0.0002908789063833213 0.0002908392610018802 0.00029079961562043896 0.0003417847737379067 0.0003802841232440959 0.0003767549811165443
          0.0003418903487043236 0.00038023995394855686 0.00037671890068540046 0.0003419959236707405 0.00038019578465301785 0.0003766828202542566
          0.0004563518026969521 0.00045603515429033196 0.0004557185058837118 0.0003451805123937528 0.00034529401450429816 0.00034540751661484346
          0.00011625700485328662 0.00011641892883004976 0.0001165808528068129 0.00030481111935891006 0.000305023707135778 0.0003052362949126459
          0.0004129507176053639 0.00041807589383608204 0.00041268980156413803 0.0004178230709874675 0.0004124288855229121 0.00041757024813885286
          0.0002984313474001865 0.0002983542071593303 0.0002982770669184741 0.00033943485697322806 0.0002950745304098481 0.00034010396501055553
          0.00029570489218928685 0.000340773073047883 0.0002963352539687255 0.0003997640011812243 0.00037394370501191436 0.0003995393628871773
          0.00037388673841422395 0.00039931472459313024 0.00037382977181653343 0.0002982756534278537 0.00026880759998868084 0.00029817835662272724
          0.00026879573768064997 0.00029808105981760086 0.0002687838753726191 0.00020983693960514643 0.00025000414152759353 0.00020970697783813733
          0.0002499042275170847 0.0002095770160711282 0.000249804313506576 0.00039846209822129214 0.0003974112764713746 0.0003363894749708739
          0.0003981619204755347 0.000397036922059833 0.0003359956697161208 0.0003978617427297774 0.00039666256764829154 0.0003356018644613677
          0.00026838648093657736 0.00026836224331013757 0.0002683380056836978 0.00025897200057770477 0.00025865348281077976 0.0002583349650438548
          0.00043638010888415906 0.00043603555257195177 0.0004356909962597445 0.00014617647716779497 0.00014621016184079063 0.00014624384651378632
          0.00011318355376269151 0.00004944538162517895 0.00006188098457075396 0.00011348610701566136 0.00004991713588450075 0.00006233138325632808
          0.00011378866026863122 0.00005038889014382255 0.00006278178194190219 0.00018199662797561142 0.00018202427749775527 0.00018205192701989913
          0.0002437216555492938 0.00024361679362927972 0.00024351193170926572 0.0002226363747602697 0.0001831010988131821 0.00022251858323246872
          0.0001830445417177132 0.00022240079170466774 0.00018298798462224432 0.000009305567931230457 0.000009618483936435652 0.000009931399941640846
          0.00007934907185160366 0.00007973545600280426 0.00008012184015400488 0 0 0
          0 0 0 0 0 0
          0 0 0 0 0 0
          0 0 0 0 0 0
          0 0 0 0 0 0
          0 0 0 2.1855471580645034e-7 2.2292861856055731e-7 2.273025213146643e-7
          0 0 0 0 0 0
          0.000014112724411101822 0.000014133627027239934 0.000014154529643378045 0.0000012137003179272164 0.0000012134202237755579 0.0000012131401296238993
          0 0 0 0.00006525186371355012 0.00006528194345681438 0.00006531202320007862
          0.000024688849582342402 0.000024682364458859765 0.000024675879335377127 0.0000052190925071836915 0.000005213258564636022 0.000005207424622088353
          0.0000966453083383975 0.0000966330970111867 0.00009662088568397591 0.000054155646827239176 0.00005411286766439966 0.00005407008850156014
          0.00019735855284591148 0.0001973563285413288 0.00019735410423674614 0.00016851953847266192 0.00016843781856968996 0.000168356098666718
          0.00029053787871137623 0.00029055827634473177 0.0002905786739780873 0.0003160995927770292 0.0003159908221964246 0.00031588205161582
          0.0003628410154050125 0.00036290899209492455 0.00036297696878483663 0.00047159189565278777 0.0004714506586767061 0.0004713094217006244
          0.00039298306093113087 0.00039308578303083814 0.00039318850513054545 0.00055015057405673 0.0005499960919004156 0.0005498416097441013
          0 0 0 0 0 0
          0 0 0 0 0 0
          0 0 0 0.00002109293188985004 0.000021054506451467822 0.000021016081013085607
          0.0001941418593023723 0.00017339198084943304 0.0001941664790730993 0.00017362249160320358 0.00019419109884382632 0.00017385300235697417
          0.00018019659552891685 0.0002002120961456891 0.00017401175473198493 0.00018019893058702753 0.00020014353721574572 0.00017398121915506744
          0.00018020126564513824 0.00020007497828580234 0.00017395068357814992 0.00028323192012519793 0.000283533535676119 0.00028383515122704014
          0.00020203574706532278 0.00020234227697691481 0.00020264880688850684 0.00020608287996929552 0.0002059953860232472 0.0002059078920771989
          0.00014232138432241286 0.00014234519251303903 0.0001423690007036652 0.0002098441626659379 0.0002098697431486836 0.0002098953236314293
          0.0002504796869544564 0.0002505256928675991 0.00025057169878074187 0.00026496911274539786 0.0002650585500392194 0.00026514798733304093
          0.0002667397963054425 0.0002668573057107997 0.00026697481511615687 0 0 0
          0 0 0 0 0 0
          0 0 0 0 0 0
          0.0000034979979636080317 0.0000034872857726023896 0.000003476573581596748 0.00011494448004283247 0.00011482513895924439 0.0001147057978756563
          0.00004833969271000944 0.00004829056244118222 0.00004824143217235499 0.000290415537541027 0.0002901856046101572 0.00028995567167928733
          0.000514174980682252 0.0005138077362127148 0.0005134404917431775 0.0006352219825884151 0.0006347855282206685 0.0006343490738529218
        </DataArray>
        <DataArray type="Float64" Name="pe11" format="ascii" RangeMin="0" RangeMax="0.0012368005990223646">
          0.0006703146945573167 0.0008328690668862954 0.0008888720824439206 0.0006851537766271393 0.0006711516713411972 0.0008337444268181213
          0.0008897072225939209 0.0006864577006817218 0.0006719886481250778 0.0008346197867499472 0.0008905423627439212 0.0006877616247363043
          0.00039171178332486216 0.0003654014663397677 0.00038257395338812657 0.00041041397570057626 0.00039158283061132665 0.0003654051425788762
          0.00038244545375647833 0.00041022887093508556 0.0003914538778977911 0.0003654088188179848 0.0003823169541248301 0.0004100437661695948
          0.000036963368080053136 0.000030304100068651258 0.000008600802131770855 4.176546552338035e-7 0.00003713968251639094 0.00003055737449509676
          0.000008797518908755824 4.3264537478277825e-7 0.00003731599695272875 0.00003081064892154225 0.000008994235685740795 4.4763609433175297e-7
          0.0008492623091154196 0.0006829236056872443 0.0006719650801673875 0.0008375891200676723 0.0008490222919968853 0.0006831279012004482
          0.0006723799605707809 0.0008375377058234162 0.000848782274878351 0.0006833321967136523 0.0006727948409741742 0.0008374862915791598
          0.0004363918754510872 0.00043215826703013767 0.0004477464475100096 0.00045504379955270727 0.0004360599032763327 0.00043180804958946193
          0.00044741338531722617 0.00045471076249230133 0.0004357279311015784 0.0004314578321487861 0.0004470803231244428 0.0004543777254318952
          0.0003680525399192597 0.000359088693590726 0.0004387341181705566 0.0004499255244341824 0.0003685328113366843 0.0003594347862025777
          0.00043914041523627784 0.00045033381089407826 0.00036901308275410886 0.0003597808788144295 0.00043954671230199925 0.00045074209735397413
          0.00040778304207376683 0.0003867655444252695 0.00037610469860587556 0.0004076289346056013 0.00038666145789118027 0.0003760623065323452
          0.0004074748271374357 0.00038655737135709096 0.0003760199144588148 0.00035820029187446614 0.00040128227238520444 0.0003584581342344216
          0.00040157833648805957 0.00035871597659437705 0.0004018744005909146 0.00027191922397483946 0.0003355164484973186 0.00033354334486302155
          0.00025412782720768586 0.0002718034811507 0.0003353580698480035 0.000333381613103107 0.00025393079713642775 0.00027168773832656054
          0.0003351996911986883 0.00033321988134319243 0.00025373376706516965 0.0005499042636562517 0.0005377359624898857 0.000550359275148282
          0.0005381752903087094 0.0005508142866403123 0.0005386146181275331 0.0003637086814083971 0.0003907893131553137 0.0003638956252095
          0.00039098712932159784 0.0003640825690106028 0.000391184945487882 0.000041193157146349986 0.000015733384262404177 8.367417334886242e-7
          0.0000415836275704927 0.00001610262867940695 9.309684576239421e-7 0.00004197409799463541 0.000016471873096409724 0.00000102519518175926
          0.00047444665171966934 0.0003910770078919851 0.00047498404014405634 0.0003915802838745853 0.00047552142856844345 0.0003920835598571854
          0.00026606075212154336 0.0003044183252779968 0.00031355779888776183 0.0002848256600852269 0.0002662150048450937 0.00030464004783855274
          0.0003136598115850103 0.0002849108527952873 0.00026636925756864406 0.0003048617703991088 0.0003137618242822587 0.00028499604550534757
          0.0004082402380377227 0.0004282477085265661 0.00043098436442275167 0.0004080552198446199 0.00042805083686729944 0.00043071520665306296
          0.00040787020165151716 0.00042785396520803265 0.0004304460488833742 0.0006610443247782148 0.0006612932483506306 0.0006615421719230465
          0.0003489024029981813 0.0003334931523196018 0.000382019934952343 0.00034910069418443875 0.00033380290433423045 0.00038224409943031235
          0.0003492989853706961 0.0003341126563488592 0.0003824682639082816 0.0003866574204518487 0.00036094993754850156 0.0003826812693298611
          0.00038641586839952404 0.00036083256416479637 0.00038256412767166226 0.0003861743163471994 0.0003607151907810912 0.0003824469860134634
          0.0005906314329825683 0.0006286470628834412 0.0005164045517667289 0.0005913024895704352 0.0006293394503023657 0.0005171206554957368
          0.0005919735461583022 0.0006300318377212904 0.0005178367592247448 0.0005440108030356437 0.0005314312620330145 0.0005446378141057768
          0.0005321983127752989 0.0005452648251759099 0.0005329653635175835 0.00019762323165575953 0.00021515126627405127 0.00019780644800081518
          0.00021518610245704613 0.00019798966434587077 0.00021522093864004095 0.0012368005990223646 0.001236123861202221 0.0012354471233820773
          0.0003408480486549061 0.0002799461517403661 0.00034066075744670026 0.00027959540333092887 0.00034047346623849447 0.0002792446549214916
          0.000383528887544996 0.00037112418612950376 0.0003836332820510512 0.0003711872459391844 0.00038373767655710644 0.0003712503057488649
          0.0003559998406964664 0.00035612891511942315 0.00035625798954237985 0.00026729261335222917 0.00027869918506926274 0.0002916387345681813
          0.0002835167345445714 0.00026761093400687477 0.0002789540636230362 0.0002918780375246036 0.0002838726538077195 0.0002679292546615203
          0.0002792089421768096 0.000292117340481026 0.0002842285730708676 0.00012150606103895908 0.00012155824914230705 0.00012161043724565503
          0.000054717585728152475 0.00012122950761953003 0.00005480752007385703 0.00012129495124828839 0.00005489745441956158 0.00012136039487704674
          0.0006597532368108307 0.0005609735593818873 0.0006603270406471159 0.0005617161041797147 0.0006609008444834012 0.0005624586489775422
          0.00041845557088113574 0.00041811830680867453 0.0004177810427362133 0.00026872764624152955 0.00023396748656477652 0.0002687489401336555
          0.00023408428930288445 0.00026877023402578155 0.00023420109204099238 0.0002616942185656359 0.00022548423016080998 0.0002114832658839396
          0.0002666750794197717 0.00026193841787844433 0.00022570132622780014 0.00021173947137691093 0.00026696916242745575 0.0002621826171912528
          0.00022591842229479045 0.00021199567686988236 0.0002672632454351398 0.00038659821355473996 0.00037648035872216287 0.0003863560813634163
          0.00037622305546544617 0.00038611394917209264 0.0003759657522087294 0.00022473012329744636 0.000197008496104176 0.0001270120930958736
          0.00016005846826364244 0.00022459335323775942 0.00019702472235731152 0.0001273799845485872 0.0001602176589832962 0.00022445658317807242
          0.00019704094861044705 0.0001277478760013008 0.00016037684970295 0.0005146166379448822 0.000514872663994912 0.0005151286900449415
          0.0003296859639291659 0.0003146074288794705 0.00033031968383707494 0.00031506385574025934 0.00033095340374498394 0.00031552028260104815
          0.0003483010113144696 0.0003809099755825191 0.0003486620191152628 0.00038134122124848665 0.00034902302691605593 0.00038177246691445415
          0.00045208585287652837 0.00045250032314713215 0.0004529147934177359 0.0004376612646763711 0.00045593738889702223 0.00043786968219859077
          0.00045629906778195487 0.0004380780997208104 0.0004566607466668875 0.0005538719269379669 0.0004747582963487492 0.0005542439251192866
          0.000475236734120392 0.0005546159233006062 0.0004757151718920349 0.0004785660237701921 0.0005581808398635593 0.0004786607303838939
          0.0005582346975486491 0.0004787554369975956 0.0005582885552337389 0.00042870823929915306 0.0004290701644499259 0.0004294320896006988
          0.00033037554285019497 0.0003417843922798637 0.0003306091778688002 0.0003419569158864787 0.0003308428128874053 0.0003421294394930938
          0.0005278830685045593 0.0004816399151926847 0.0005281009147080355 0.00048179008901752806 0.0005283187609115119 0.0004819402628423714
          0.0007084693984426445 0.0005655263605466993 0.0006886426505486999 0.0007088685712152317 0.0005659607750361452 0.0006888170645800417
          0.000709267743987819 0.0005663951895255909 0.0006889914786113833 0.000748950936773169 0.0007492982830535387 0.0007496456293339084
          0.0003156620830550136 0.0003109148393690967 0.0003159324119351699 0.00031115871391636365 0.0003162027408153262 0.0003114025884636306
          0.0003700003454280622 0.00037155233525534685 0.0003700928434147023 0.00037155065979765185 0.00037018534140134234 0.00037154898433995674
          0.00010161999915943292 0.00018770542741902027 0.00010186817861034447 0.000187704150235918 0.000102116358061256 0.00018770287305281568
          0.00043678055614656175 0.00035629150398362096 0.00043726498457086736 0.000356894874521758 0.0004377494129951728 0.0003574982450598952
          0.0009685967163640122 0.0007949281682209792 0.0008951798975228467 0.0009680900837193268 0.0007950247210078933 0.0008948537146184443
          0.0009675834510746413 0.0007951212737948074 0.0008945275317140417 0.000967039173061526 0.0009669783602793678 0.0009669175474972095
          0.0003463767234120996 0.000346503766339067 0.00034663080926603445 0.0009811497423873833 0.000980476292902546 0.0009798028434177088
          0.0008189546478791154 0.0008192481964166019 0.0008195417449540887 0.0004174578252247192 0.0004175447951109937 0.0004176317649972683
          0.00042064566087067685 0.0004211468964052242 0.00042164813193977155 0.0010449538414962238 0.0010447192364246728 0.001044484631353122
          0.0008384053558101207 0.0008384484557016906 0.0008384915555932603 0.0007174463232594993 0.0007597445943214917 0.0007187981982154588
          0.000761157260784304 0.0007201500731714183 0.0007625699272471164 0.0005254173674008423 0.000526159789891469 0.0005261472434544905
          0.0005269798534794565 0.0005268771195081387 0.000527799917067444 0.0010141746224663702 0.0010144677072068966 0.001014760791947423
          0.0003869367894956667 0.0003982179757845746 0.000387541201974369 0.00039880450700677895 0.0003881456144530713 0.00039939103822898337
          0.00006624861256352189 0.000012268069980955647 0.00006640342529679466 0.000012340087044271693 0.00006655823803006744 0.000012412104107587738
          0.00019791018875284423 0.00019783411786389343 0.00019775804697494268 0.000952958988502533 0.0009534399177179489 0.0009539208469333649
          0.0002703934369671617 0.0003406217495547279 0.0002700579674577352 0.0003403282045677071 0.00026972249794830885 0.00034003465958068636
          0.0002622811483121805 0.00027495075156752267 0.0002626100276934056 0.000275217365981902 0.0002629389070746307 0.0002754839803962813
          0.0007952313120143884 0.0007952528904206139 0.0007952744688268393 0.0009291680021098769 0.0009287447323469101 0.0009283214625839434
          0.0004259583697322895 0.0004262129188123515 0.0004264674678924136 0.0002779670577709985 0.00027203170045954155 0.00027848482944209786
          0.0002724883431248695 0.0002790026011131973 0.0002729449857901974 0.00035908588713619164 0.0003590687078191593 0.00035905152850212687
          0.0004593460991401563 0.0004556154057099618 0.00044056314596974393 0.000446375544100958 0.0004590509692762232 0.0004553183536756773
          0.0004402687464870959 0.00044605358945015575 0.00045875583941229015 0.00045502130164139286 0.0004399743470044479 0.0004457316347993535
          0.00030534447399442095 0.000339416930066513 0.00030558009546144193 0.00033958217906871987 0.000305815716928463 0.0003397474280709268
          0.0003957717763392248 0.0003955365643682796 0.00039530135239733443 0.000427232723221098 0.0004448490602552245 0.000427001227310502
          0.0004445932577610144 0.000426769731399906 0.00044433745526680423 0.00033541137190797027 0.0003087898537797153 0.00033539847954290413
          0.00030878412487118977 0.00033538558717783793 0.0003087783959626642 0.0004309314063855044 0.00043102454569702285 0.0004311176850085413
          0.00038886038562174644 0.0003889560496414587 0.0003890517136611709 0.0003393924515676591 0.00033922249290858637 0.00033905253424951367
          0.0003182918345271723 0.00030865081085246785 0.000318961051418553 0.00030928334237261104 0.00031963026830993373 0.0003099158738927543
          0.0003291919746688631 0.0003290718651120026 0.0003289517555551421 0.0002479256380424448 0.0002285025813688483 0.00024051001961877737
          0.00024788529752243214 0.00022842135437365455 0.00024054680965820995 0.0002478449570024195 0.0002283401273784608 0.0002405835996976425
          0.000290866471784737 0.00029082693751878065 0.00029078740325282434 0.00034178053559420166 0.0003802797206522063 0.00037675120844019467
          0.00034188613281606556 0.00038023558514972184 0.00037671514451365106 0.00034199173003792945 0.00038019144964723746 0.00037667908058710756
          0.0004563228128999376 0.0004560070281979626 0.0004556912434959875 0.00034515035206301233 0.00034526270435033277 0.0003453750566376531
          0.0001162373703525501 0.00011639909188656317 0.00011656081342057625 0.0003048046415843297 0.000305017400009142 0.0003052301584339543
          0.0004129435933175653 0.0004180674511299783 0.0004126828875612175 0.000417814883035613 0.0004124221818048696 0.0004175623149412478
          0.00029841707468238694 0.00029833999373577336 0.00029826291278915983 0.00033934922918759427 0.00029502323004624095 0.0003400205753428656
          0.00029565537042351806 0.00034069192149813687 0.0002962875108007952 0.00039975762301955293 0.00037393984233759036 0.00039953299405283746
          0.0003738828068250545 0.000399308365086122 0.00037382577131251857 0.00029826320790704553 0.0002688000084380769 0.0002981660464670478
          0.0002687881683757884 0.0002980688850270501 0.00026877632831349984 0.00020981589506928344 0.0002499892436749312 0.00020968567079689948
          0.0002498891528333989 0.00020955544652451552 0.0002497890619918667 0.0003984225324131899 0.0003973714579899182 0.00033634401795858864
          0.0003981233217415535 0.0003969981218001986 0.0003359507631505288 0.0003978241110699171 0.00039662478561047895 0.0003355575083424689
          0.00026837658425017013 0.0002683522404407419 0.0002683278966313136 0.000258929990030293 0.000258611381537939 0.000258292773045585
          0.00043634478811678426 0.00043600124887265343 0.0004356577096285226 0.00014614931845489818 0.0001461827418258612 0.00014621616519682422
          0.0001131748803616899 0.000049441381375637806 0.00006187511573302112 0.00011347719123942677 0.0000499129491240358 0.00006232528551700417
          0.00011377950211716365 0.000050384516872433794 0.00006277545530098724 0.00018197394117881773 0.0001820013226275656 0.0001820287040763135
          0.00024371200657135068 0.00024360699205088333 0.00024350197753041601 0.00022262398389163762 0.00018307971613256948 0.00022250601853029554
          0.0001830229283849549 0.00022238805316895346 0.00018296614063734035 0.000009305076850188793 0.000009617942978536254 0.000009930809106883714
          0.0000793369012746136 0.0000797229745122777 0.00008010904774994179 0 0 0
          0 0 0 0 0 0
          0 0 0 0 0 0
          0 0 0 0 0 0
          0 0 0 0 0 0
          0 0 0 2.1826924569998032e-7 2.22637476673658e-7 2.2700570764733565e-7
          0 0 0 0 0 0
          0.000014090377794376933 0.000014111248172717187 0.000014132118551057437 0.000001209037682017012 0.000001208758594908492 0.0000012084795077999725
          0 0 0 0.0000651570364765541 0.00006518701246940872 0.00006521698846226336
          0.00002459081068574011 0.000024584301455400336 0.000024577792225060562 0.0000051788363109090985 0.000005173023036606078 0.000005167209762303057
          0.0000963277573728514 0.00009631521288809138 0.00009630266840333134 0.00005375062655031947 0.00005370782181102898 0.00005366501707173848
          0.00019691702580743693 0.00019691400432144809 0.00019691098283545932 0.0001674748230064967 0.00016739232771637472 0.00016730983242625272
          0.00029019789633449443 0.0002902172395365259 0.00029023658273855736 0.0003147199473324855 0.0003146090190354332 0.0003144980907383809
          0.0003626762689085683 0.00036274312765101926 0.0003628099863934702 0.00047029307648573733 0.0004701475214207422 0.00047000196635574716
          0.00039289882802476494 0.0003930004448166838 0.00039310206160860265 0.0005489523238406762 0.0005487920626545216 0.0005486318014683671
          0 0 0 0 0 0
          0 0 0 0 0 0
          0 0 0 0.000020838206381142464 0.00002080011434460184 0.000020762022308061213
          0.00019413879284534916 0.00017338825649511867 0.00019416336892301347 0.0001736186611284765 0.00019418794500067772 0.0001738490657618344
          0.00018016341215730143 0.00020020545834845875 0.00017399179336339887 0.00018016566868352796 0.00020013685194232372 0.00017396113465193043
          0.00018016792520975452 0.0002000682455361887 0.00017393047594046207 0.0002832063206251686 0.0002835076406483586 0.0002838089606715486
          0.0002020267266548646 0.00020233304545069384 0.00020263936424652317 0.00020607498271629283 0.0002059873778130575 0.00020589977290982214
          0.000142180737502889 0.00014220434286721205 0.0001422279482315351 0.00020974373170182595 0.00020976907726356903 0.00020979442282531213
          0.0002504393081311876 0.00025048513367780493 0.00025053095922442233 0.00026495906670384817 0.00026504839453550283 0.0002651377223671575
          0.0002667353613989494 0.00026685279405484015 0.00026697022671073097 0 0 0
          0 0 0 0 0 0
          0 0 0 0 0 0
          0.000003443157258717626 0.000003432629372783831 0.0000034221014868500356 0.0001135707293123318 0.00011345209846329557 0.00011333346761425935
          0.00004748174425934596 0.00004743372720879603 0.00004738571015824609 0.0002872788656426324 0.00028704851523881183 0.00028681816483499113
          0.0005091533240902069 0.0005087818334416009 0.0005084103427929949 0.0006292139627575276 0.0006287706046429655 0.0006283272465284037
        </DataArray>
        <DataArray type="Float64" Name="pe22" format="ascii" RangeMin="-0.0006508989536815052" RangeMax="0">
          -0.00035013853296751864 -0.0004381987059897469 -0.0004670759436186789 -0.0003584288390192948 -0.00035026453877305794 -0.0004384202101748739
          -0.00046721350077328624 -0.00035874036778961763 -0.0003503905445785973 -0.00043864171436000087 -0.00046735105792789357 -0.0003590518965599404
          -0.0001949680253011906 -0.00018279007009970995 -0.00019084786401852343 -0.0002037458051266841 -0.00019492216807972444 -0.00018279014390370363
          -0.0001908005942279925 -0.00020369322967595863 -0.00019487631085825827 -0.00018279021770769736 -0.0001907533244374615 -0.00020364065422523312
          -0.00001820511434038007 -0.000014860713854823586 -0.000004201456042739515 -2.0126691438368444e-7 -0.000018286691642852048 -0.00001498057969274923
          -0.000004296640468684024 -2.083802739753109e-7 -0.000018368268945324034 -0.000015100445530674873 -0.000004391824894628534 -2.1549363356693742e-7
          -0.0004379042769878924 -0.0003508316717032922 -0.00034360354375974464 -0.0004310636204069438 -0.00043790810373370347 -0.00035089029712062977
          -0.0003437561550825411 -0.0004311030415753054 -0.0004379119304795144 -0.00035094892253796726 -0.0003439087664053375 -0.00043114246274366687
          -0.0002134354270906528 -0.00021147031950955296 -0.00021992662929739006 -0.0002232093685497443 -0.00021334543069384404 -0.0002113712099855259
          -0.00021983923649434548 -0.00022311934941186219 -0.00021325543429703532 -0.00021127210046149883 -0.00021975184369130087 -0.0002230293302739801
          -0.00018865191587683978 -0.00018300356821054326 -0.00022412612673917195 -0.00023093948919426064 -0.00018879723292430342 -0.00018310858747206313
          -0.00022424383485074856 -0.00023103612818431267 -0.00018894254997176712 -0.000183213606733583 -0.00022436154296232524 -0.00023113276717436472
          -0.00020210392439621756 -0.0001922530675131161 -0.00018774717203844096 -0.00020205932941680025 -0.00019221596897312475 -0.00018771972296680934
          -0.00020201473443738301 -0.00019217887043313346 -0.00018769227389517772 -0.00018150351932864052 -0.00020375543644434924 -0.00018157913251101086
          -0.00020383971984729577 -0.00018165474569338126 -0.00020392400325024233 -0.00013361948149236933 -0.00016470477439751646 -0.00016310034213557373
          -0.0001245012152232101 -0.0001335779477352438 -0.00016464780417497105 -0.00016304768208736978 -0.00012441831766898747 -0.00013353641397811835
          -0.00016459083395242572 -0.00016299502203916583 -0.0001243354201147648 -0.000280816711469794 -0.00027324940334913885 -0.00028093845246057546
          -0.0002733626277676488 -0.0002810601934513569 -0.0002734758521861588 -0.00018312483706691153 -0.00019708136170232875 -0.00018317333119527776
          -0.00019713212573775957 -0.00018322182532364397 -0.00019718288977319036 -0.00002010646757460414 -0.000007740532756735195 -4.106418784508025e-7
          -0.000020289559100355933 -0.000007917441602238298 -4.567414966426578e-7 -0.00002047265062610772 -0.0000080943504477414 -5.028411148345131e-7
          -0.00024467931915027796 -0.00020155930086954643 -0.00024479553582245673 -0.00020169207870310364 -0.0002449117524946355 -0.0002018248565366608
          -0.00013252654935539686 -0.00015186087250597199 -0.00015592401182230867 -0.0001412777651803899 -0.00013256701899616339 -0.00015192502085700267
          -0.0001559510475326048 -0.00014130433236010008 -0.00013260748863692994 -0.00015198916920803335 -0.00015597808324290094 -0.00014133089953981026
          -0.00020159809819763155 -0.00021170261180380488 -0.00021213861271215497 -0.00020154561998743468 -0.00021165219140604092 -0.0002120671864574073
          -0.00020149314177723783 -0.00021160177100827695 -0.00021199576020265954 -0.0003363049390654303 -0.000336364002458293 -0.00033642306585115556
          -0.0001745359227365543 -0.00016747456120852914 -0.0001920639207682942 -0.00017459502786716397 -0.00016756756214106225 -0.00019213219450124898
          -0.0001746541329977736 -0.00016766056307359532 -0.00019220046823420373 -0.00019029225066479225 -0.00017828891400003242 -0.00018963475303513733
          -0.0001902102221033664 -0.0001782461798453266 -0.0001895956738424069 -0.00019012819354194055 -0.00017820344569062074 -0.00018955659464967652
          -0.00030532990148864753 -0.00032624762477246607 -0.0002677572605192781 -0.00030549702197754994 -0.0003264393099736131 -0.0002679318380762859
          -0.00030566414246645235 -0.00032663099517476026 -0.0002681064156332937 -0.00028335945325257334 -0.0002773033707055183 -0.0002834517549194722
          -0.0002774697169442496 -0.0002835440565863711 -0.0002776360631829808 -0.00009862458239293223 -0.00010722826109635562 -0.00009869497881427406
          -0.00010724149333891133 -0.00009876537523561589 -0.00010725472558146707 -0.0006508989536815052 -0.000650738006638238 -0.0006505770595949707
          -0.00016621923654042733 -0.00013637436640161614 -0.00016617618940779747 -0.0001362430208487105 -0.00016613314227516762 -0.00013611167529580486
          -0.00019241929181884035 -0.00018578947890552497 -0.00019243405173768047 -0.00018579359909405238 -0.0001924488116565206 -0.00018579771928257973
          -0.00017868626124393597 -0.0001787244358126992 -0.0001787626103814624 -0.00013655550283391327 -0.0001414869828106948 -0.0001481975553296346
          -0.0001449699090225504 -0.00013664867226851683 -0.00014156558956423838 -0.00014826673673658768 -0.00014507299419596633 -0.00013674184170312038
          -0.00014164419631778192 -0.00014833591814354075 -0.00014517607936938228 -0.00005920892278608929 -0.000059237743659012546 -0.00005926656453193581
          -0.00002648382410365091 -0.000059565457632979204 -0.000026526052368822745 -0.00005960046820898667 -0.00002656828063399458 -0.00005963547878499414
          -0.00034355740693519597 -0.00029151713607924746 -0.00034366747367598583 -0.00029167921551513984 -0.00034377754041677575 -0.0002918412949510322
          -0.000205232565820967 -0.00020513177606350334 -0.0002050309863060397 -0.0001330941921805063 -0.000116485443945817 -0.0001331004553475372
          -0.0001165224623505035 -0.00013310671851456812 -0.00011655948075518999 -0.00013097268134946874 -0.00011260444609403631 -0.00010584801984962449
          -0.00013400118017110446 -0.0001310510851194454 -0.00011268032052283329 -0.00010593918632944505 -0.00013409681869545664 -0.00013112948888942207
          -0.00011275619495163024 -0.00010603035280926562 -0.00013419245721980877 -0.00018924394164916187 -0.0001847762586511231 -0.00018916842896280094
          -0.00018468390607304647 -0.00018909291627644003 -0.00018459155349496984 -0.00010948952204619224 -0.00009590883515219106 -0.00006223032185423903
          -0.00007834592283328486 -0.00010943936721602623 -0.00009591667890845515 -0.00006239709422873299 -0.0000784186960000273 -0.00010938921238586019
          -0.00009592452266471927 -0.00006256386660322695 -0.00007849146916676976 -0.0002602938599352575 -0.00026033394306164203 -0.00026037402618802653
          -0.00016965412605003698 -0.00016109098356116049 -0.00016986078976753309 -0.0001612310387067692 -0.00017006745348502924 -0.00016137109385237788
          -0.00017540902738293304 -0.00019222768213048697 -0.0001755188142798973 -0.00019236719932355176 -0.00017562860117686154 -0.0001925067165166166
          -0.00022783644436695456 -0.00022795680966657624 -0.00022807717496619792 -0.00022107740620805506 -0.00023157181031534732 -0.0002211156976165198
          -0.00023166297576236494 -0.00022115398902498458 -0.00023175414120938257 -0.00028413614334206954 -0.000241919896094999 -0.0002842222647384908
          -0.00024205586543417444 -0.00028430838613491207 -0.00024219183477334984 -0.00024135898504692503 -0.00028195834855232856 -0.00024135173082849614
          -0.0002819455349895943 -0.00024134447661006733 -0.00028193272142686 -0.00021601905370104076 -0.00021612032548910316 -0.0002162215972771655
          -0.00016676470463393707 -0.00017165389894375363 -0.00016684265416787612 -0.00017171949953412479 -0.00016692060370181516 -0.000171785100124496
          -0.00026578929648916395 -0.00024271594430666813 -0.0002658494904336016 -0.00024275271455433464 -0.00026590968437803926 -0.00024278948480200115
          -0.0003675484169711168 -0.00029143815079760735 -0.0003557848782451422 -0.00036765703832084776 -0.0002915258379849565 -0.00035580444983227455
          -0.0003677656596705786 -0.00029161352517230563 -0.00035582402141940686 -0.0003891263520339128 -0.00038923807360107893 -0.00038934979516824515
          -0.00016055687587181264 -0.00015707605962830042 -0.00016063376488222226 -0.0001571571882123303 -0.00016071065389263185 -0.00015723831679636017
          -0.0001850375306911751 -0.0001852642908654426 -0.00018505367352196934 -0.000185253384393282 -0.00018506981635276357 -0.00018524247792112142
          -0.00004987882296116933 -0.00009228584614326212 -0.00004999389136477354 -0.00009228767631997579 -0.00005010895976837776 -0.00009228950649668948
          -0.00022666770610757487 -0.00018409121860920026 -0.0002267726009546484 -0.00018428351821431275 -0.00022687749580172197 -0.0001844758178194252
          -0.0005042245709435415 -0.0004143356672473285 -0.00046495764043395056 -0.0005041765003541622 -0.00041439006468260454 -0.00046494176584943386
          -0.0005041284297647826 -0.00041444446211788056 -0.00046492589126491716 -0.0005067553622800097 -0.0005068765904038938 -0.0005069978185277778
          -0.0001737787420949619 -0.00017382297618887232 -0.0001738672102827827 -0.0005066630375187868 -0.0005066099625035765 -0.0005065568874883661
          -0.00042920345145382367 -0.0004293156077249625 -0.0004294277639961015 -0.00020986302349935472 -0.00020986113334929278 -0.0002098592431992309
          -0.00021881098368475008 -0.00021894260213358214 -0.00021907422058241422 -0.0005486346945905073 -0.0005485388648220924 -0.0005484430350536776
          -0.00043491906650572777 -0.00043501004983393564 -0.00043510103316214357 -0.0003808804547026797 -0.0004007670918351622 -0.0003811505743365211
          -0.00040120681929509014 -0.00038142069397036256 -0.00040164654675501813 -0.0002768606369197195 -0.0002759045507790959 -0.00027696448175612164
          -0.00027607635154857046 -0.0002770683265925238 -0.00027624815231804505 -0.0005346470053432468 -0.0005347777852073286 -0.0005349085650714104
          -0.0002016017485119141 -0.000207299004708247 -0.00020171562395338396 -0.00020743728228230063 -0.00020182949939485386 -0.0002075755598563542
          -0.000032519601419750974 -0.000005921357648364641 -0.00003259186324426964 -0.000005954970905870933 -0.000032664125068788304 -0.000005988584163377224
          -0.00009739301694447986 -0.00009736417606540409 -0.00009733533518632833 -0.0005016965380712602 -0.0005019134306138313 -0.0005021303231564025
          -0.0001313083507129775 -0.00016584261658865153 -0.0001311718411771002 -0.00016575109097338953 -0.0001310353316412229 -0.00016565956535812755
          -0.00013395470362156781 -0.00013951411079735039 -0.00013405584295686705 -0.00013959786032332033 -0.0001341569822921663 -0.00013968160984929024
          -0.0004118407729144418 -0.0004118751480847028 -0.0004119095232549639 -0.0004794001181663954 -0.0004794202457898031 -0.00047944037341321087
          -0.00021475963133769425 -0.00021483252357167674 -0.00021490541580565918 -0.00014307323780293695 -0.0001399738923698733 -0.00014323748397067197
          -0.00014011102694032074 -0.000143401730138407 -0.00014024816151076818 -0.00017849064454365581 -0.00017847920378789113 -0.00017846776303212644
          -0.0002258859903076564 -0.0002242531613651547 -0.00021765655890234676 -0.00022023226318595372 -0.00022580855232120424 -0.0002241757064338731
          -0.00021757485213900077 -0.00022013835522264078 -0.00022573111433475207 -0.0002240982515025916 -0.00021749314537565482 -0.00022004444725932788
          -0.00015426897161183056 -0.00017052238019500942 -0.0001543509405596685 -0.00017058790102178362 -0.00015443290950750645 -0.00017065342184855782
          -0.00019329197339797516 -0.00019322878850036736 -0.0001931656036027595 -0.00021159731251048591 -0.00021940830185267977 -0.00021153830686826435
          -0.000219345296359061 -0.00021147930122604285 -0.0002192822908654423 -0.00016619547686582255 -0.0001525599692862022 -0.00016618801596323052
          -0.00015256024523473773 -0.00016618055506063852 -0.00015256052118327326 -0.00021685856990072265 -0.00021687339154907625 -0.00021688821319742983
          -0.00019495309591580496 -0.00019496775789528624 -0.00019498241987476745 -0.0001670521576124423 -0.0001669897762060569 -0.00016692739479967153
          -0.00016479401701383138 -0.00015981527217323046 -0.00016500282235682202 -0.0001599900171824169 -0.00016521162769981266 -0.0001601647621916033
          -0.0001622245778075867 -0.0001621791096654284 -0.0001621336415232701 -0.00012304422961359699 -0.00011356535268182834 -0.0001196121029468887
          -0.00012303428628157882 -0.00011353681788935536 -0.000119626638763741 -0.0001230243429495606 -0.00011350828309688236 -0.00011964117458059328
          -0.00014352969300090082 -0.0001435188114030839 -0.000143507929805267 -0.00017169457933802635 -0.00018957288998963323 -0.00018799422367855338
          -0.00017173954968467984 -0.00018956530061341333 -0.00018798601185388377 -0.0001717845200313334 -0.0001895577112371934 -0.00018797780002921413
          -0.00022374026739630643 -0.00022365354097705372 -0.000223566814557801 -0.00017215825777464942 -0.00017218735348760038 -0.00017221644920055134
          -0.00005730103827618635 -0.00005737636653301872 -0.0000574516947898511 -0.00015396666219484508 -0.00015404205750719468 -0.0001541174528195443
          -0.00020488897226805575 -0.00020710389151567643 -0.00020480266260391083 -0.00020702158527905455 -0.00020471635293976592 -0.00020693927904243267
          -0.00014707171891758977 -0.00014704751727388725 -0.00014702331563018478 -0.0001756772118219446 -0.00015188812621706732 -0.00017590249857641293
          -0.00015209950907099946 -0.00017612778533088123 -0.0001523108919249316 -0.00019892524077444088 -0.00018680576029535715 -0.00019884754635892426
          -0.00018678096668704012 -0.00019876985194340756 -0.00018675617307872306 -0.0001471194722253071 -0.00013309147742254497 -0.00014708339307683096
          -0.0001330895172170142 -0.00014704731392835478 -0.00013308755701148345 -0.0001034940279995032 -0.00012330295288688744 -0.00010344536628525288
          -0.00012326742949406874 -0.00010339670457100256 -0.00012323190610125003 -0.00019447588015904168 -0.0001939864024978883 -0.00016372794155191615
          -0.00019439321878967632 -0.00019387227362762966 -0.00016357516740057344 -0.00019431055742031097 -0.00019375814475737098 -0.00016342239324923074
          -0.00013267625782485226 -0.00013267181795230187 -0.0001326673780797515 -0.00012584952580522603 -0.00012568854041658948 -0.0001255275550279529
          -0.0002134395058237696 -0.00021334365374028815 -0.0002132478016568067 -0.00007209065972594532 -0.00007211100552279725 -0.00007213135131964919
          -0.000055696096984415646 -0.00002436827927597076 -0.000030419065722370246 -0.00005582489383326463 -0.00002458775777931734 -0.000030627035505337457
          -0.00005595369068211362 -0.00002480723628266392 -0.00003083500528830466 -0.00008890200383455358 -0.00008889226500738435 -0.00008888252618021513
          -0.00012062864532601105 -0.00012059336014914923 -0.00012055807497228743 -0.00011018362805134856 -0.00009049251949761429 -0.00011014400828341613
          -0.00009047735197181716 -0.0001101043885154837 -0.00009046218444602002 -0.0000045849673803967096 -0.000004736280571761564 -0.000004887593763126417
          -0.00003880337390421794 -0.00003897802057018111 -0.00003915266723614427 0 0 0
          0 0 0 0 0 0
          0 0 0 0 0 0
          0 0 0 0 0 0
          0 0 0 0 0 0
          0 0 0 -1.0282976012570794e-7 -1.048656913604442e-7 -1.0690162259518048e-7
          0 0 0 0 0 0
          -0.000006642940680954191 -0.000006651990821919479 -0.000006661040962884768 -5.445540463942535e-7 -5.443224867759586e-7 -5.440909271576637e-7
          0 0 0 -0.00003088906410009734 -0.00003090283698705998 -0.000030916609874022635
          -0.00001115786200424275 -0.0000111538146555012 -0.000011149767306759649 -0.000002239506981083243 -0.000002236493793516174 -0.0000022334806059491052
          -0.00004435090567828092 -0.00004434498218274342 -0.00004433905868720592 -0.00002354214164442328 -0.00002352106076321663 -0.00002349997988200997
          -0.00009247853133294482 -0.0000924830753516478 -0.00009248761937035077 -0.00007495940310809153 -0.00007492615023551581 -0.00007489289736294007
          -0.00013943593695111105 -0.0001394526258996932 -0.00013946931484827536 -0.00014548931201981255 -0.00014545064151194143 -0.0001454119710040703
          -0.00017774195791008126 -0.00017777186173187535 -0.0001778017655536694 -0.00022477925300017787 -0.00022471128748570744 -0.000224643321971237
          -0.00019409390914296523 -0.00019413364233962347 -0.00019417337553628172 -0.00026589341885023364 -0.0002658044584791627 -0.00026571549810809175
          0 0 0 0 0 0
          0 0 0 0 0 0
          0 0 0 -0.000008722325076788388 -0.000008704201682095585 -0.000008686078287402778
          -0.00009678737688370367 -0.0000866608173452125 -0.00009679778827757715 -0.00008675532417439188 -0.00009680819967145064 -0.00008684983100357128
          -0.00008856635953313274 -0.00009932498631895801 -0.00008589464466571663 -0.00008857674559696981 -0.00009930442921154449 -0.00008589059573127064
          -0.0000885871316608069 -0.00009928387210413098 -0.00008588654679682465 -0.00014250643197807907 -0.00014259787387257977 -0.00014268931576708044
          -0.0001013949193280006 -0.00010150828106153915 -0.00010162164279507767 -0.00010233404882185407 -0.0001023037116543639 -0.00010227337448687371
          -0.00006820803723130389 -0.000068223117659343 -0.00006823819808738212 -0.00010209904875352449 -0.00010211896307323249 -0.0001021388773929405
          -0.0001234669336643859 -0.0001234946445233482 -0.00012352235538231048 -0.00013180428933866388 -0.00013184546801212757 -0.00013188664668559126
          -0.00013315464075153483 -0.00013320476151833965 -0.0001332548822851445 0 0 0
          0 0 0 0 0 0
          0 0 0 0 0 0
          -0.0000013900940703245726 -0.0000013853509622518048 -0.0000013806078541790368 -0.00004860400588634955 -0.00004855077690826129 -0.00004849754793017303
          -0.000019727450051595284 -0.00001970343222954856 -0.00001967941440750184 -0.0001278810213071594 -0.00012778536924775468 -0.00012768971718834994
          -0.00023681902822490317 -0.00023664697614229663 -0.0002364749240596901 -0.0002976393754546098 -0.00029741636424141535 -0.00029719335302822076
        </DataArray>
        <DataArray type="Float64" Name="pe33" format="ascii" RangeMin="-0.0005859016453408592" RangeMax="0">
          -0.000320176161589798 -0.0003946703608965484 -0.0004217961388252415 -0.0003267249376078444 -0.00032088713256813925 -0.00039532421664324724
          -0.00042249372182063443 -0.0003277173328921041 -0.00032159810354648034 -0.0003959780723899461 -0.00042319130481602746 -0.00032870972817636377
          -0.00019674375802367154 -0.0001826113962400577 -0.00019172608936960308 -0.0002066681705738921 -0.0001966606625316021 -0.00018261499867517253
          -0.00019164485952848583 -0.00020653564125912687 -0.00019657756703953273 -0.0001826186011102874 -0.00019156362968736858 -0.00020640311194436163
          -0.00001875825373967306 -0.000015443386213827667 -0.0000043993460890313395 -2.163877408501191e-7 -0.000018852990873538888 -0.000015576794802347517
          -0.0000045008784400718 -2.2426510080746735e-7 -0.000018947728007404713 -0.000015710203390867374 -0.00000460241079111226 -2.3214246076481555e-7
          -0.00041135803212752705 -0.000332091933983952 -0.0003283615364076428 -0.00040652549966072846 -0.0004111141882631817 -0.00033223760407981854
          -0.0003286238054882397 -0.0004064346642481106 -0.00041087034439883636 -0.000332383274175685 -0.0003288860745688366 -0.00040634382883549284
          -0.00022295644836043438 -0.00022068794752058465 -0.0002278198182126195 -0.0002318344310029629 -0.0002227144725824887 -0.00022043683960393595
          -0.00022757414882288072 -0.00023159141308043906 -0.00022247249680454304 -0.00022018573168728725 -0.000227328479433142 -0.00023134839515791516
          -0.00017940062404241987 -0.0001760851253801827 -0.00021460799143138454 -0.00021898603523992177 -0.0001797355784123808 -0.00017632619873051453
          -0.00021489658038552928 -0.00021929768270976562 -0.00018007053278234174 -0.00017656727208084638 -0.000215185169339674 -0.00021960933017960943
          -0.0002056791176775492 -0.00019451247691215328 -0.00018835752656743457 -0.00020556960518880094 -0.00019444548891805536 -0.00018834258356553575
          -0.00020546009270005269 -0.00019437850092395747 -0.00018832764056363698 -0.0001766967725458256 -0.00019752683594085517 -0.00017687900172341068
          -0.00019773861664076372 -0.00017706123090099576 -0.00019795039734067226 -0.00013829974248247013 -0.0001708116740998021 -0.00017044300272744776
          -0.00012962661198447572 -0.00013822553341545616 -0.00017071026567303234 -0.00017033393101573718 -0.00012951247946744025 -0.0001381513243484422
          -0.00017060885724626257 -0.0001702248593040266 -0.00012939834695040484 -0.0002690875521864576 -0.0002644865591407467 -0.00026942082268770646
          -0.0002648126625410605 -0.00026975409318895534 -0.00026513876594137423 -0.0001805838443414856 -0.00019370795145298497 -0.00018072229401422222
          -0.00019385500358383827 -0.00018086074368695886 -0.0001940020557146916 -0.000021086689571745846 -0.00000799285150566898 -4.260998550378217e-7
          -0.00002129406847013677 -0.000008185187077168652 -4.742269609812843e-7 -0.000021501447368527693 -0.000008377522648668325 -5.223540669247469e-7
          -0.0002297673325693913 -0.00018951770702243866 -0.0002301885043215996 -0.00018988820517148165 -0.00023060967607380794 -0.0001902587033205246
          -0.00013353420276614644 -0.0001525574527720248 -0.0001576337870654532 -0.00014354789490483703 -0.0001336479858489303 -0.00015271502698155007
          -0.00015770876405240547 -0.00014360652043518717 -0.00013376176893171413 -0.00015287260119107538 -0.00015778374103935777 -0.0001436651459655373
          -0.0002066421398400911 -0.00021654509672276116 -0.00021884575171059667 -0.0002065095998571852 -0.00021639864546125844 -0.00021864802019565564
          -0.00020637705987427936 -0.00021625219419975573 -0.00021845028868071464 -0.0003247393857127844 -0.0003249292458923377 -0.00032511910607189087
          -0.00017436648026162703 -0.00016601859111107264 -0.0001899560141840488 -0.0001745056663172748 -0.0001662353421931682 -0.0001901119049290633
          -0.00017464485237292252 -0.00016645209327526377 -0.00019026779567407783 -0.00019636516978705642 -0.0001826610235484691 -0.00019304651629472374
          -0.00019620564629615765 -0.0001825863843194697 -0.00019296845382925525 -0.00019604612280525887 -0.00018251174509047036 -0.0001928903913637868
          -0.00028530153149392093 -0.0003023994381109751 -0.0002486472912474507 -0.00028580546759288534 -0.0003029001403287527 -0.0002491888174194509
          -0.00028630940369184975 -0.0003034008425465301 -0.00024973034359145106 -0.0002606513497830704 -0.00025412789132749607 -0.0002611860591863044
          -0.0002547285958310494 -0.00026172076858953854 -0.0002553293003346026 -0.00009899864926282726 -0.00010792300517769564 -0.00009911146918654107
          -0.00010794460911813476 -0.0000992242891102549 -0.00010796621305857389 -0.0005859016453408592 -0.0005853858545639831 -0.0005848700637871068
          -0.00017462881211447872 -0.00014357178533874987 -0.00017448456803890276 -0.00014335238248221833 -0.00017434032396332683 -0.00014313297962568675
          -0.00019110959572615565 -0.00018533470722397879 -0.00019119923031337072 -0.00018539364684513193 -0.0001912888649005858 -0.00018545258646628513
          -0.00017731357945253038 -0.0001774044793067239 -0.0001774953791609174 -0.00013073711051831585 -0.00013721220225856789 -0.00014344117923854668
          -0.000138546825522021 -0.0001309622617383579 -0.00013738847405879778 -0.00014361130078801597 -0.00013879965961175318 -0.00013118741295839995
          -0.00013756474585902766 -0.0001437814223374853 -0.00013905249370148537 -0.00006229713825286977 -0.00006232050548329448 -0.0000623438727137192
          -0.00002823376162450156 -0.00006166404998655081 -0.000028281467705034274 -0.0000616944830393017 -0.000028329173785566984 -0.00006172491609205259
          -0.00031619582987563475 -0.00026945642330263985 -0.00031665956697113004 -0.00027003688866457484 -0.0003171233040666253 -0.0002706173540265099
          -0.00021322300506016874 -0.00021298653074517114 -0.00021275005643017357 -0.0001356334540610232 -0.00011748204261895943 -0.0001356484847861183
          -0.00011756182695238086 -0.00013566351551121337 -0.00011764161128580233 -0.0001307215372161671 -0.00011287978406677365 -0.00010563524603431507
          -0.00013267389924866724 -0.0001308873327589989 -0.00011302100570496688 -0.0001058002850474659 -0.00013287234373199908 -0.0001310531283018307
          -0.00011316222734316016 -0.00010596532406061673 -0.00013307078821533095 -0.00019735427190557803 -0.0001917041000710397 -0.00019718765240061526
          -0.0001915391493923996 -0.00019702103289565253 -0.00019137419871375952 -0.00011524060125125408 -0.00010109966095198489 -0.00006478177124163455
          -0.00008171254543035753 -0.00011515398602173316 -0.00010110804344885634 -0.00006498289031985419 -0.00008179896298326888 -0.00011506737079221226
          -0.0001011164259457278 -0.00006518400939807381 -0.00008188538053618025 -0.0002543227780096248 -0.00025453872093326985 -0.0002547546638569149
          -0.0001600318378791289 -0.00015351644531831 -0.00016045889406954178 -0.0001538328170334901 -0.00016088595025995467 -0.00015414918874867025
          -0.0001728919839315365 -0.00018868229345203206 -0.00017314320483536542 -0.0001889740219249348 -0.0001733944257391943 -0.00018926575039783752
          -0.00022424940850957378 -0.0002245435134805559 -0.000224837618451538 -0.00021658385846831603 -0.00022436557858167484 -0.0002167539845820709
          -0.00022463609201958985 -0.00021692411069582575 -0.00022490660545750486 -0.00026973578359589727 -0.00023283840025375006 -0.00027002166038079563
          -0.00023318086868621754 -0.00027030753716569405 -0.00023352333711868498 -0.00023720703872326713 -0.00027622249131123064 -0.00023730899955539767
          -0.00027628916255905474 -0.00023741096038752826 -0.00027635583380687884 -0.0002126891855981122 -0.00021294983896082275 -0.0002132104923235333
          -0.00016361083821625787 -0.00017013049333611003 -0.00016376652370092405 -0.0001702374163523539 -0.00016392220918559018 -0.00017034433936859777
          -0.0002620937720153951 -0.00023892397088601648 -0.0002622514242744339 -0.00023903737446319336 -0.0002624090765334727 -0.00023915077804037023
          -0.00034092098147152773 -0.0002740882097490919 -0.00033285777230355774 -0.00034121153289438407 -0.00027443493705118865 -0.00033301261474776706
          -0.0003415020843172403 -0.00027478166435328526 -0.00033316745719197643 -0.00035982458473925616 -0.0003600602094524597 -0.0003602958341656632
          -0.00015510520718320096 -0.00015383877974079624 -0.00015529864705294766 -0.00015400152570403333 -0.00015549208692269432 -0.00015416427166727045
          -0.00018496281473688703 -0.00018628804438990422 -0.00018503916989273287 -0.0001862972754043697 -0.00018511552504857872 -0.0001863065064188352
          -0.00005174117619826359 -0.00009541958127575816 -0.000051874287245570915 -0.00009541647391594217 -0.00005200739829287823 -0.0000954133665561262
          -0.0002101128500389869 -0.00017220028537442067 -0.00021049238361621887 -0.00017261135630744528 -0.0002108719171934508 -0.00017302242724046992
          -0.0004643721454204705 -0.0003805925009736506 -0.0004302222570888961 -0.0004639135833651645 -0.0003806346563252887 -0.0004299119487690103
          -0.0004634550213098586 -0.00038067681167692667 -0.0004296016404491245 -0.0004602838107815163 -0.00046010176987547395 -0.0004599197289694316
          -0.00017259798131713763 -0.00017268079015019468 -0.00017276359898325174 -0.0004744867048685964 -0.00047386633039896956 -0.00047324595592934264
          -0.0003897511964252916 -0.0003899325886916393 -0.000390113980957987 -0.0002075948017253645 -0.00020768366176170092 -0.00020777252179803737
          -0.00020183467718592668 -0.00020220429427164204 -0.00020257391135735734 -0.0004963191469057162 -0.0004961803716025802 -0.0004960415962994441
          -0.000403486289304393 -0.00040343840586775476 -0.0004033905224311166 -0.00033656586855681955 -0.00035897750248632947 -0.0003376476238789376
          -0.0003599504414892139 -0.0003387293792010556 -0.0003609233804920983 -0.0002485567304811227 -0.000250255239112373 -0.00024918276169836874
          -0.000250903501930886 -0.0002498087929156148 -0.00025155176474939893 -0.0004795276171231233 -0.000479689921999568 -0.00047985222687601256
          -0.0001853350409837526 -0.0001909189710763275 -0.00018582557802098498 -0.0001913672247244783 -0.00018631611505821736 -0.00019181547837262913
          -0.000033729011143770905 -0.000006346712332591006 -0.00003381156205252502 -0.000006385116138400759 -0.000033894112961279136 -0.000006423519944210512
          -0.00010051717180836438 -0.00010046994179848936 -0.00010042271178861435 -0.0004512624504312726 -0.00045152648710411746 -0.0004517905237769622
          -0.00013908508625418413 -0.00017477913296607634 -0.00013888612628063505 -0.00017457711359431758 -0.0001386871663070859 -0.00017437509422255876
          -0.00012832644469061268 -0.00013543664077017228 -0.00012855418473653853 -0.00013561950565858165 -0.00012878192478246438 -0.000135802370546991
          -0.00038339053909994654 -0.00038337774233591096 -0.0003833649455718753 -0.00044976788394348146 -0.00044932448655710697 -0.00044888108917073247
          -0.00021119873839459518 -0.0002113803952406748 -0.0002115620520867544 -0.00013489381996806152 -0.00013205780808966825 -0.00013524734547142592
          -0.0001323773161845488 -0.0001356008709747903 -0.00013269682427942932 -0.00018059524259253582 -0.00018058950403126807 -0.00018058376547000035
          -0.00023346010883249987 -0.00023136224434480707 -0.00022290658706739707 -0.00022614328091500425 -0.00023324241695501895 -0.00023114264724180417
          -0.00022269389434809503 -0.00022591523422751494 -0.00023302472507753802 -0.00023092305013880127 -0.000222481201628793 -0.0002256871875400256
          -0.00015107550238259036 -0.0001688945498715035 -0.00015122915490177347 -0.00016899427804693623 -0.00015138280742095657 -0.00016909400622236898
          -0.00020247980294124958 -0.00020230777586791225 -0.00020213574879457494 -0.0002156354107106121 -0.0002254407584025447 -0.0002154629204422376
          -0.00022524796140195328 -0.0002152904301738631 -0.00022505516440136193 -0.00016921589504214778 -0.00015622988449351315 -0.00016921046357967358
          -0.00015622387963645204 -0.0001692050321171994 -0.00015621787477939096 -0.0002140728364847818 -0.00021415115414794662 -0.00021422947181111145
          -0.0001939072897059414 -0.00019398829174617244 -0.00019406929378640338 -0.0001723402939552168 -0.00017223271670252946 -0.0001721251394498421
          -0.00015349781751334087 -0.0001488355386792374 -0.00015395822906173092 -0.0001492933251901942 -0.00015441864061012102 -0.000149751111701151
          -0.0001669673968612764 -0.0001668927554465742 -0.000166818114031872 -0.0001248814084288478 -0.00011493722868701996 -0.00012089791667188861
          -0.00012485101124085334 -0.00011488453648429918 -0.00012092017089446892 -0.0001248206140528589 -0.00011483184428157843 -0.00012094242511704922
          -0.00014733677878383614 -0.00014730812611569674 -0.00014727947344755728 -0.00017008595625617534 -0.00019070683066257303 -0.0001887569847616412
          -0.00017014658313138571 -0.0001906702845363085 -0.0001887291326597673 -0.00017020721000659606 -0.000190633738410044 -0.00018870128055789335
          -0.00023258254550363104 -0.00023235348722090878 -0.00023212442893818646 -0.00017299209428836288 -0.00017307535086273236 -0.0001731586074371018
          -0.00005893633207636374 -0.00005902272535354444 -0.00005910911863072514 -0.00015083797938948465 -0.00015097534250194735 -0.00015111270561441007
          -0.00020805462104950945 -0.00021096355961430183 -0.00020788022495730652 -0.00021079329775655845 -0.00020770582886510362 -0.00021062303589881512
          -0.0001513453557647972 -0.00015129247646188614 -0.00015123959715897505 -0.00016367201736564962 -0.0001431351038291736 -0.00016411807676645259
          -0.00014355586135251857 -0.0001645641361672556 -0.00014397661887586357 -0.000200832382245112 -0.0001871340820422331 -0.00020068544769391317
          -0.00018710184013801426 -0.00020053851314271438 -0.0001870695982337954 -0.00015114373568173841 -0.0001357085310155319 -0.0001510826533902168
          -0.0001356986511587741 -0.00015102157109869523 -0.00013568877130201636 -0.00010632186706978025 -0.00012668629078804372 -0.00010624030451164661
          -0.00012662172333933018 -0.00010615874195351293 -0.00012655715589061667 -0.00020394665225414825 -0.0002033850554920299 -0.00017261607640667244
          -0.00020373010295187714 -0.00020312584817256893 -0.00017237559574995528 -0.00020351355364960606 -0.00020286664085310792 -0.0001721351150932381
          -0.00013570032642531784 -0.00013568042248843993 -0.00013566051855156205 -0.00013308046422506694 -0.0001329228411213495 -0.00013276521801763202
          -0.00022290528229301456 -0.0002226575951323652 -0.00022240990797171584 -0.00007405865872895284 -0.00007407173630306396 -0.00007408481387717504
          -0.00005747878337727426 -0.000025073102099667054 -0.00003145605001065087 -0.00005765229740616213 -0.000025325191344718464 -0.000031698250011666724
          -0.00005782581143505001 -0.00002557728058976987 -0.00003194045001268257 -0.00009307193734426413 -0.00009310905762018123 -0.00009314617789609833
          -0.0001230833612453396 -0.00012301363190173406 -0.00012294390255812853 -0.00011244035584028904 -0.00009258719663495519 -0.00011236201024687939
          -0.00009254557641313774 -0.0001122836646534697 -0.00009250395619132029 -0.000004720109469792082 -0.00000488166240677469 -0.000005043215343757297
          -0.00004053352737039565 -0.00004074495394209659 -0.00004095638051379751 0 0 0
          0 0 0 0 0 0
          0 0 0 0 0 0
          0 0 0 0 0 0
          0 0 0 0 0 0
          0 0 0 -1.154394855742724e-7 -1.177717853132138e-7 -1.201040850521552e-7
          0 0 0 0 0 0
          -0.00000744743711342274 -0.000007459257350797703 -0.000007471077588172666 -6.644836356227585e-7 -6.644361081325336e-7 -6.643885806423086e-7
          0 0 0 -0.00003426797237645676 -0.00003428417548234873 -0.00003430037858824071
          -0.000013432948681497354 -0.000013430486799899134 -0.000013428024918300914 -0.000002939329329825854 -0.0000029365292430899024 -0.000002933729156353951
          -0.000051976851694570466 -0.00005197023070534794 -0.00005196360971612542 -0.000030208484905896184 -0.000030186761047812337 -0.000030165037189728497
          -0.00010443849447449205 -0.0001044309289698003 -0.00010442336346510854 -0.00009251541989840515 -0.00009246617748085889 -0.00009241693506331263
          -0.00015076195938338335 -0.00015076461363683268 -0.000150767267890282 -0.00016923063531267294 -0.00016915837752349175 -0.00016908611973431053
          -0.00018493431099848702 -0.00018497126591914386 -0.00018500822083980075 -0.0002455138234855594 -0.0002454362339350348 -0.00024535864438451015
          -0.00019880491888179966 -0.00019886680247706032 -0.00019892868607232096 -0.00028305890499044254 -0.00028298760417535895 -0.0002829163033602754
          0 0 0 0 0 0
          0 0 0 0 0 0
          0 0 0 -0.000012115881304354071 -0.00001209591266250625 -0.000012075944020658428
          -0.00009735141596164552 -0.00008672743914990615 -0.0000973655806454363 -0.00008686333695408464 -0.0000973797453292271 -0.00008699923475826313
          -0.00009159705262416865 -0.00010088047202950069 -0.00008809714869768221 -0.00009158892308655812 -0.00010083242273077917 -0.0000880705389206598
          -0.00009158079354894761 -0.00010078437343205769 -0.00008804392914363737 -0.0001406998886470895 -0.00014090976677577882 -0.00014111964490446811
          -0.00010063180732686394 -0.00010082476438915474 -0.0001010177214514455 -0.00010374093389443876 -0.00010368366615869359 -0.00010362639842294843
          -0.00007397270027158508 -0.00007398122520786903 -0.00007398975014415298 -0.00010764468294830141 -0.00010765011419033652 -0.00010765554543237163
          -0.00012697237446680166 -0.00012699048915445674 -0.00012700860384211185 -0.0001331547773651843 -0.00013320292652337526 -0.00013325107568156624
          -0.0001335807206474145 -0.00013364803253650048 -0.00013371534442558643 0 0 0
          0 0 0 0 0 0
          0 0 0 0 0 0
          -0.0000020530631883930535 -0.000002047278410532025 -0.0000020414936326709967 -0.00006496672342598223 -0.00006490132155503428 -0.0000648359196840863
          -0.000027754294207750673 -0.000027730294979247453 -0.000027706295750744243 -0.00015939784433547304 -0.00015926314599105712 -0.0001591284476466412
          -0.00027233429586530377 -0.0002721348572993043 -0.00027193541873330476 -0.00033157458730291773 -0.00033135424040155035 -0.00033113389350018286
        </DataArray>
        <DataArray type="Float64" Name="disp_x" format="ascii" RangeMin="0.00002355874436889525" RangeMax="0.00005678538750259343">
          0.000026492670815173313 0.000025735857172376322 0.0000253100514431258 0.000026231055282682905 0.000026491009882182604 0.000025733802325842048
          0.00002530727135272482 0.00002622918939380607 0.00002648622704235797 0.000025728138538846527 0.00002529903176954622 0.00002622387002975242
          0.00003416098441328016 0.00003329257815360596 0.00003364074774186544 0.00003448702232681103 0.00003416132058281197 0.00003329291079834211
          0.00003364116861915154 0.0000344872347607697 0.000034162279488170816 0.00003329415984432504 0.0000336426241011375 0.00003448810054497742
          0.00004392382838811934 0.000043581760466581466 0.00004392776709110141 0.00004550264450503333 0.00004392362596220043 0.000043581390926015004
          0.00004392771150244733 0.000045502709731929916 0.00004392304808393871 0.000043580167737859375 0.00004392758941445127 0.00004550290812125929
          0.000027886035523859777 0.000028984753499212897 0.00002964780067713213 0.000028611197524912653 0.00002788475879171501 0.000028983545551115513
          0.000029646677947344737 0.000028609835283500766 0.00002788105335721076 0.000028979886110702495 0.000029643376036640984 0.00002860573403201505
          0.000037850840739339325 0.00003758588629157057 0.000036638071657091546 0.000036914057256975534 0.00003785050438390863 0.00003758559613668858
          0.00003663803009742271 0.0000369139262077674 0.0000378496380173468 0.000037584845682402664 0.00003663799194430267 0.00003691368378218943
          0.000029750050508439897 0.00003063627566495081 0.00003017092306995602 0.000029256613977284798 0.000029749685233767053 0.00003063603228061195
          0.000030170395535648333 0.00002925586107856454 0.000029748595572803603 0.00003063553907817541 0.000030168940277692845 0.00002925385448058343
          0.00003511648008856081 0.000034754827143846125 0.000033803469707235795 0.00003511669453621689 0.00003475492229375424 0.00003380366022459353
          0.000035117246661679766 0.000034755310099310076 0.00003380437771240776 0.00003159170639773376 0.00003127732900803224 0.00003159173248232014
          0.000031277139808020425 0.000031591623559558395 0.000031276393466691496 0.0000401693176262041 0.000039028338230709106 0.00003937232245071931
          0.00004065934576022936 0.00004016893011666983 0.00003902785843084439 0.00003937182502968474 0.00004065863239481838 0.000040167810746599125
          0.00003902647039103748 0.00003937040857772342 0.00004065650354278109 0.00002979443013159417 0.00003046414107719925 0.00002979356589561598
          0.000030463453802751266 0.00002979100528957285 0.000030461213062933817 0.00003252472050378604 0.000032192365745885034 0.00003252484020647729
          0.00003219225325844831 0.00003252503955540179 0.00003219178866905411 0.000043031701847857374 0.00004334464430724694 0.000044117496486587504
          0.00004303119590981173 0.000043344370619791256 0.00004411756467817888 0.000043029560169518956 0.00004334342375556002 0.0000441179674499556
          0.000028485220878980666 0.000028976751682158044 0.000028484511163285365 0.000028976087493442133 0.000028482148515051446 0.00002897394810573283
          0.00003641243097272476 0.00003545312366021872 0.000035853789782243196 0.00003675119043428024 0.000036412202291488786 0.00003545279715226922
          0.000035853570103780594 0.00003675105618223299 0.00003641157197243259 0.00003545185306855458 0.00003585306494047128 0.00003675074594409088
          0.000036149191260511175 0.000035415974180852515 0.000036409082705460674 0.00003614926135407643 0.000035416252890717916 0.0000364091467715314
          0.000036149315575529625 0.000035416807047929924 0.000036409305128675 0.00003055383955309971 0.00003055302872940417 0.000030550441307563433
          0.00003453950122253378 0.00003486966210318591 0.00003405449933920442 0.00003453907415013514 0.00003486906875376112 0.00003405377929131871
          0.00003453772628159378 0.00003486732331227648 0.00003405161652743904 0.00003743142150813215 0.0000367616418104723 0.0000357526931030082
          0.000037431288656603714 0.00003676152194842883 0.00003575275016976748 0.000037430855428449585 0.000036761251387998325 0.000035752772860242234
          0.00002785686775144493 0.00002724931579665667 0.000027798679315150183 0.000027855772920943665 0.000027247759083761612 0.000027797649647139992
          0.000027852477370126552 0.000027243092760794468 0.000027794641096129144 0.000027269318293097705 0.000027167968933518417 0.00002726811872081147
          0.000027166820020792087 0.000027264429598768612 0.000027163316973222508 0.00003806510387721719 0.00003929046730810269 0.00003806503353493258
          0.000039290527776458596 0.000038064879412297615 0.000039290775224660776 0.00002356739177005034 0.000023565179866451095 0.00002355874436889525
          0.00003951021090177574 0.00004039855693532376 0.00003950970268744801 0.00004039779378537674 0.000039508074117987784 0.000040395969380613394
          0.00003309602950576226 0.00003344539804513899 0.00003309590895327772 0.00003344561575642535 0.00003309550177467381 0.00003344597283936213
          0.00003290335913617143 0.00003290381055655601 0.00003290466562678308 0.00003033793139566516 0.0000311197871725901 0.00003104120975821233
          0.000030227373263575807 0.00003033798560891116 0.000031119962464696515 0.00003104127547554375 0.0000302273142365556 0.00003033818365858975
          0.0000311207177204474 0.000031041693473151444 0.0000302273981287678 0.0000452604708639155 0.000045260253755884134 0.000045259617168533064
          0.000045427893882962635 0.0000439029103993718 0.00004542769579089347 0.000043902495531114915 0.00004542708316340576 0.00004390122955729055
          0.000026801495273481426 0.00002729779037805912 0.00002679998939284344 0.000027296626407297744 0.000026794772139925604 0.000027292457513949556
          0.00003741653644584492 0.000037416424784393535 0.00003741597035701448 0.00003763846103079661 0.00003754754199869489 0.000037638385004695443
          0.000037547481042500204 0.00003763809068460543 0.000037547187946141626 0.000036078596462975395 0.000036828014577161954 0.000036954067908674925
          0.00003589893469550278 0.0000360782814475245 0.000036827807825537934 0.00003695379480977727 0.00003589834855897386 0.0000360771828149552
          0.00003682699550559136 0.000036953008113041594 0.00003589659228126311 0.00003839473711291962 0.00003832088963073472 0.00003839432783717237
          0.00003832065587258351 0.000038392800828419354 0.00003831949002454752 0.00004101849651559651 0.0000411952287709997 0.0000418414620869301
          0.000041469572721780935 0.000041017477392672963 0.00004119414177096979 0.000041840553641551094 0.00004146860525520313 0.00004101371636035957
          0.00004119075086779966 0.00004183803007772447 0.000041465604993512065 0.00003135670454221628 0.000031356180671472055 0.000031354492026273306
          0.000029314330484418282 0.00003005948334629079 0.000029313893931347987 0.000030059401490664253 0.000029312600978096257 0.000030059072180176957
          0.0000348313573858161 0.000034732601511356477 0.00003483063537817704 0.00003473160407812902 0.000034828381298208705 0.000034728609425004774
          0.00003375954162746556 0.000033758551304917887 0.00003375540418008607 0.000031846908355115985 0.00003097538158282167 0.00003184663373175528
          0.00003097500894501434 0.000031845667020397084 0.000030973705283986605 0.000029225705448759123 0.000030337959028213046 0.000029224908152791713
          0.000030337641804362383 0.00002922221031826649 0.00003033607008566428 0.00003235309067139612 0.00003194565656970559 0.00003235256640007727
          0.00003194485047900606 0.00003235095825243155 0.000031942348804358 0.000033727304320479946 0.000033726384560188274 0.0000337235497272448
          0.00003200226130904575 0.00003270345158413395 0.00003200247961069045 0.00003270391584656632 0.00003200308277746523 0.000032705026933765425
          0.00003275329802719647 0.000032929059345484265 0.000032752180812565096 0.000032928248481453004 0.000032748559681247635 0.00003292570214972996
          0.00002781198633337331 0.000028566022865428908 0.000028428963493230064 0.000027810776469769923 0.000028565302960565965 0.00002842792446704927
          0.000027807313989899348 0.00002856266203874153 0.000028424555071261728 0.0000270951074266299 0.000027093719504918677 0.00002708914633474649
          0.00003091388010360533 0.000031894512443036894 0.00003091415253636047 0.00003189491814619745 0.000030914424343757516 0.000031895797005925435
          0.00003401274231821522 0.000034362617433638384 0.00003401256045999404 0.00003436273590100975 0.00003401203823520752 0.00003436285328310538
          0.00004252964094651902 0.000041569379924605395 0.000042529031824443185 0.000041568614933950215 0.0000425272966205252 0.00004156620138212635
          0.000028205732889981174 0.000028792864230332367 0.000028204940475902555 0.00002879219833970489 0.000028202136305860274 0.00002878980409772911
          0.000025298174831155552 0.00002646024369541782 0.000026362762215301952 0.00002529700108638383 0.000026458638611285736 0.00002636145084249553
          0.000025293619763222347 0.000026453196425536907 0.00002635719149636221 0.000025117973450242232 0.000025116312184479732 0.000025111311497792584
          0.00003284693862552702 0.000032847569260196855 0.00003284915379500421 0.00002581506216035249 0.000025814328294949972 0.000025812066085463202
          0.00002603460998572392 0.000026033032763218848 0.00002602790919801328 0.00003275584250318825 0.000032755614785731845 0.00003275457818698146
          0.00002802136828899646 0.000028020453541921727 0.00002801745018534982 0.000024551930867197607 0.00002454961062992827 0.000024542134267651254
          0.00002720114692708076 0.000027200016230080926 0.000027196101329500978 0.00002618694772369794 0.000025867976660031344 0.000026185097719629918
          0.0000258656050041141 0.00002618028106482117 0.000025858498459894524 0.000027154118430123975 0.000027080043774836066 0.00002715273938185017
          0.0000270787673348258 0.000027148357000499087 0.000027074871964213143 0.000024800856476129913 0.000024797851660915446 0.000024787641406519753
          0.000028026289158028263 0.000027995226256768623 0.00002802528480470765 0.000027994326719804203 0.000028022012276848595 0.000027991237384303156
          0.00004408111095936315 0.00004548142735608043 0.000044080787680872775 0.000045481449615360446 0.00004407981327899203 0.00004548153430822514
          0.00004157527729133978 0.00004157470558577644 0.00004157295718979934 0.00002513094028706525 0.000025129129492519917 0.000025122350069399786
          0.00004048633224702657 0.00003964806301160121 0.00004048543709901097 0.00003964739232548109 0.00004048273991694012 0.00003964540115011796
          0.000030437918928517115 0.000031230133147453225 0.000030438076738756102 0.00003123044017046455 0.000030438352209610122 0.00003123132028653429
          0.000027831824588947513 0.000027830980803724515 0.00002782760749086849 0.00002677382284147159 0.000026772911910750146 0.00002676981514315725
          0.00003359860233616302 0.00003359789132440716 0.00003359535806047579 0.000029562658088245945 0.000029647827551802356 0.00002956249419834261
          0.000029647731666620763 0.000029561906271595194 0.000029647271347658534 0.000035313043364710266 0.00003531305796305106 0.00003531295516286504
          0.0000363661098937482 0.00003601184645949259 0.00003510982497183811 0.000035468145585344026 0.00003636614785893177 0.000036012020478254035
          0.00003511007036141536 0.00003546831295785147 0.000036366228776519685 0.00003601237459082767 0.00003511099362199577 0.00003546894315078566
          0.00003194270817454753 0.00003271118545294363 0.00003194315894583567 0.000032711702349843756 0.000031944200590542994 0.00003271326527652619
          0.00003855984937885392 0.00003855943491246317 0.000038557905283301675 0.000034804066968225854 0.00003570329077009184 0.000034804449872628984
          0.00003570357790728934 0.00003480542020919721 0.00003570416588439526 0.00003625123251163847 0.000037096492883194 0.0000362512307142325
          0.000037096396580532714 0.00003625098973275565 0.00003709611283420412 0.000033264723181065134 0.000033264233041164035 0.00003326227761133896
          0.000033661508166378086 0.00003366123887501137 0.0000336599853231335 0.00003835676481223263 0.00003835651794552438 0.000038355667319884146
          0.000028802192863651634 0.00002884819175643427 0.000028801733251488567 0.000028847851399716445 0.000028799965820539173 0.000028846608751983014
          0.00003763122038005295 0.000037631164009449135 0.000037630783073156514 0.00003984412644776345 0.000040461870616436966 0.00003883862852002894
          0.00003984402915417593 0.00004046182367555381 0.00003883865103133304 0.000039843882635012195 0.00004046164668608237 0.00003883859671227942
          0.00003766198243739665 0.000037661985519267225 0.000037661670333389834 0.00003286201574304179 0.00003371081991125777 0.00003336169704896936
          0.00003286257350668176 0.00003371130763220542 0.000033362289032693074 0.00003286414525440494 0.00003371286636690403 0.00003336404142116759
          0.000037265191612354316 0.0000372651440358901 0.0000372647283838744 0.000034940087662505626 0.00003494007194992393 0.00003493960680890878
          0.00004273488979107917 0.00004273426580377194 0.000042732288208823394 0.000032035379158172884 0.00003203601060468683 0.00003203743470037396
          0.000034266678639392715 0.00003458002300474548 0.00003426727183373593 0.00003458058990599884 0.000034268617540147956 0.00003458183521053155
          0.00003905158681820671 0.00003905131496344451 0.00003905042102952257 0.0000287839129603121 0.00002948374286341664 0.000028783356686654952
          0.000029483652181247716 0.00002878107556375569 0.000029482893130115627 0.00003396092014269542 0.000033419586245619554 0.000033961545095283305
          0.000033420351663230364 0.00003396286751825612 0.00003342223408953889 0.00003820841103377383 0.000038546150767989124 0.000038208294750975
          0.00003854603871057466 0.0000382078596717606 0.00003854558155740319 0.00004152141695179775 0.00004045256198858435 0.00004152102623403863
          0.000040452298461182816 0.000041519928449473173 0.00004045149625555114 0.0000387445278895486 0.000039035113386867246 0.0000398859326848941
          0.000038744135298550196 0.00003903453072219608 0.000039885135234310155 0.00003874266904876997 0.000039032807055727296 0.000039882608822442997
          0.00003947225205001594 0.00003947214034738376 0.00003947160734536859 0.000040696446694911046 0.00004069548863600759 0.00004069249466721818
          0.0000381577219217391 0.000038157510750808564 0.00003815653516019162 0.00004272665273756952 0.00004272609600151991 0.000042724317226489705
          0.0000421926506994372 0.00004288616431846449 0.00004260078779114197 0.00004219188401068145 0.000042885597995928004 0.00004260013508766907
          0.000042189516276676784 0.0000428838307314257 0.0000425981447850094 0.00004146197339458483 0.000041461044887734475 0.000041458320224714226
          0.000040511860760330714 0.000040511738438660424 0.00004051120460015641 0.00004122271587189847 0.0000424255389475475 0.000041222495978430465
          0.000042425264745799354 0.000041221750731217504 0.0000424244386706303 0.000043550462473243744 0.000043550361279849497 0.000043550046263206944
          0.00004239669525583248 0.00004239602145969135 0.00004239407425931743 0.00004473463815712018 0.000044734704738365317 0.00004473483495718948
          0.00004420506876798283 0.00004420513552988298 0.00004420544417794539 0.00004485757320847918 0.00004485759989504085 0.00004485757425537197
          0.000045504194048118106 0.0000455042233318321 0.00004550432368656493 0.00004758794198180861 0.000047585421063945815 0.00004758798906145631
          0.00004758546647830302 0.000047588130340534575 0.00004758559717552131 0.00004963493439548113 0.000049625477752559634 0.00004963494499440458
          0.000049625489063916555 0.0000496349754982589 0.00004962551473900935 0.00005164283673239849 0.00005162664218798283 0.00005164283040618351
          0.00005162663363526552 0.00005164281049089339 0.000051626612404176086 0.000047592742830943784 0.00004759280164977624 0.000047592974049821155
          0.00004966331391505864 0.00004966332492136078 0.000049663354735219466 0.00005169209659493597 0.00005169209296646801 0.00005169207869776931
          0.00004759877394490864 0.00004759881362792023 0.000047598944474437976 0.00004970957140175547 0.00004970961412520511 0.000049709743468950434
          0.00005177667831326938 0.000051776670774441797 0.00005177664199723933 0.000047571322980897306 0.00004757121828985628 0.000047570884340105675
          0.000049773203340620904 0.00004977316345196043 0.00004977303603764168 0.00005189883498533224 0.00005189887063369106 0.000051898994656982724
          0.000049784998702240213 0.00004978490915235652 0.000049784627605490015 0.00005205468020187847 0.00005205456747754484 0.00005205421482550952
          0.00004966776538561801 0.00004966784685770607 0.00004966809550307574 0.000052142930840468287 0.00005214290068028087 0.000052142804863050655
          0.00004943520046526757 0.000049435455802730334 0.000049436225677142215 0.000052114758343383135 0.00005211497322249757 0.00005211561482013192
          0.000049126830544192886 0.000049127325885880455 0.000049128817434800514 0.00005199012226881381 0.00005199057157327159 0.00005199187714629028
          0.00004881440396925946 0.000048815191074299706 0.00004881758292525031 0.000051818681618245364 0.000051819604146071704 0.00005182239020777588
          0.00005354053865350238 0.00005350549635160635 0.00005354050593641564 0.00005350546580609492 0.00005354040668652752 0.000053505369928251534
          0.00005362052723300694 0.00005362049406931227 0.0000536203920145305 0.00005375029702480743 0.00005375025677182507 0.000053750133533331215
          0.00005393796169307231 0.00005393792644622718 0.00005393781482044491 0.00005420286324564247 0.00005420278408750846 0.00005420255948297541
          0.000039786143010565035 0.00003844746021795868 0.00003978632213296309 0.00003844751461841689 0.000039786795174397744 0.000038447620917614165
          0.00004498457888537669 0.000043283152997239104 0.00004358304766710757 0.00004498449872189286 0.00004328309290198175 0.0000435828355672743
          0.00004498421467554321 0.000043282927329210155 0.000043582177612023014 0.000035788394260831864 0.00003578778800703571 0.000035785892248361936
          0.000037108596087322065 0.0000371081829695138 0.00003710685924537505 0.00004158698365928786 0.00004158694716822266 0.000041586856295056066
          0.00004742222773264591 0.000047422195781271526 0.00004742210588443995 0.000047159122798880826 0.000047159181078045625 0.00004715933926623111
          0.00004681934822083234 0.00004681954818633236 0.00004682012493872056 0.00004646419968470521 0.00004646449008769857 0.00004646533847466359
          0.00004615065658066615 0.000046150952037163416 0.000046151786885630134 0.00005541555295183162 0.000055363433563613415 0.000055415498153591474
          0.000055363381702207526 0.000055415338076539505 0.00005536322604026286 0.00005552338133174534 0.0000555233224522895 0.00005552314410186644
          0.00005569398947876074 0.00005569392199685612 0.000055693722022512935 0.0000559414369747821 0.00005594134204657449 0.000055941051846837226
          0.000056288553793170264 0.000056288465312039646 0.000056288212049638015 0.00005452868150628641 0.000054528368907260565 0.00005452740627142233
          0.00005678538750259343 0.0000567850490061919 0.000056784035006544264 0.000054808598699207955 0.00005480839867243797 0.00005480781040970759
          0.00005503144584931648 0.00005503144516620941 0.000055031452214904 0.0000552407909569517 0.00005524098744538169 0.00005524159925961879
        </DataArray>
        <DataArray type="Float64" Name="disp_y" format="ascii" RangeMin="-0.000005207913480434138" RangeMax="0">
          -0.0000010933664904636529 -0.000001368749969195894 -0.0000011780023524410092 -8.456954242092607e-7 -0.0000010925553554877267 -0.0000013678339690452205
          -0.000001177500706858526 -8.450774211140301e-7 -0.0000010897829686322616 -0.0000013647099250671336 -0.0000011754969243858363 -8.433864026598403e-7
          -0.0000010141674784374349 -8.816671029232925e-7 -6.54665675020745e-7 -7.530179291597722e-7 -0.0000010142955221744947 -8.816972870107847e-7
          -6.54709086287589e-7 -7.53130713325692e-7 -0.0000010146588477132529 -8.817891528625744e-7 -6.548886920853407e-7 -7.535051141035734e-7
          -8.179496265167376e-7 -6.323279628297585e-7 -4.4105495516679463e-7 -4.787073496857762e-7 -8.1783746203025e-7 -6.321754134012084e-7
          -4.409546094796989e-7 -4.787122270692097e-7 -8.175531658082322e-7 -6.31711755670758e-7 -4.405853483914639e-7 -4.787346510901191e-7
          -0.0000026679828345319205 -0.0000022777131878138016 -0.0000024772721122629254 -0.000002880100016686935 -0.00000266689282957163 -0.0000022766207074933084
          -0.0000024763390298606633 -0.0000028791466594775805 -0.000002663446665431032 -0.0000022732907604131863 -0.0000024734243612639944 -0.000002876372722298707
          -2.9796923373685793e-7 -6.074726266097021e-7 -5.922512144745161e-7 -2.9070483334764973e-7 -2.9803617821148787e-7 -6.076466737997987e-7
          -5.92390164624211e-7 -2.9079076932163504e-7 -2.9825020680766404e-7 -6.081018047456276e-7 -5.928906565930171e-7 -2.9094231081375424e-7
          -0.0000010218671177564772 -0.0000011191328377001284 -0.0000014959583057798912 -0.0000013243794120443208 -0.0000010212745046630637 -0.0000011186687057353399
          -0.0000014953019552582228 -0.0000013236022358967784 -0.0000010193899021841752 -0.0000011172478920438822 -0.0000014933148403770156 -0.0000013212825306238829
          -0.0000011371712899201819 -0.000001424970838203822 -0.0000012758059338777868 -0.0000011373424877902722 -0.0000014251682049894137 -0.0000012758828698822339
          -0.0000011379592946025213 -0.000001425782811875682 -0.0000012760918025584002 -0.0000012332086262488592 -0.0000015460957297749597 -0.0000012328693418511537
          -0.0000015456157653274883 -0.0000012319201665789592 -0.0000015441812652928882 -0.0000013462586966972712 -0.000001216755554835558 -8.891465988833857e-7
          -8.286288967772538e-7 -0.0000013463660644838232 -0.0000012169376831882822 -8.893448240579014e-7 -8.286515344419426e-7 -0.0000013466916455351519
          -0.0000012174043361696415 -8.899116555073719e-7 -8.287371356142516e-7 -0.000001971195937493322 -0.000002138385960487408 -0.0000019703747145630166
          -0.0000021376419656675854 -0.000001967854208971165 -0.0000021352359177264706 -0.0000013778534661615143 -0.0000016659276071379206 -0.000001377646416856876
          -0.0000016655557267960226 -0.000001377034839630576 -0.0000016644900360107276 -4.0230754559613146e-7 -1.9473697169624145e-7 -2.076666664591297e-7
          -4.0211904079684843e-7 -1.946556762455425e-7 -2.0766650466637694e-7 -4.0149591701479306e-7 -1.9447378751504108e-7 -2.0774671680712167e-7
          -0.0000012198603702707348 -9.316787078139196e-7 -0.0000012190330648541533 -9.310002087943899e-7 -0.0000012166434636171617 -9.290588269395311e-7
          -0.000002714599559731692 -0.000002610510439117312 -0.000002295725776745378 -0.0000023932809718431994 -0.0000027148478895380855 -0.0000026106755301001174
          -0.0000022960592002669074 -0.0000023936383775382297 -0.0000027155518750576964 -0.000002611202783881607 -0.0000022970268202271527 -0.0000023947326652453994
          -0.0000012423656752031635 -8.415039346876891e-7 -9.123882671857938e-7 -0.000001242659048787511 -8.416958196511726e-7 -9.126559795252414e-7
          -0.000001243540900252409 -8.422511590984742e-7 -9.133965335439326e-7 -0.0000027436149496960876 -0.0000027426582366541785 -0.000002739854364476544
          -0.0000024438734737346954 -0.000002994004228807152 -0.000002711574312153531 -0.000002443917241453157 -0.000002993977211721469 -0.000002711515858993964
          -0.0000024440920434368065 -0.0000029938377657445713 -0.0000027112633901260594 -0.0000013210783725383788 -0.0000016954878723760167 -0.0000015642171607294127
          -0.000001321410372904584 -0.0000016958490129361678 -0.0000015645144977289822 -0.0000013224664732767164 -0.0000016969291317662371 -0.0000015654751861746411
          -0.0000015461451140052845 -0.0000014378351073437357 -0.0000011462489812210392 -0.0000015451995923833974 -0.0000014368864316852198 -0.0000011454472456439081
          -0.0000015421684959422682 -0.0000014339246439839697 -0.0000011433574516325886 -9.136695019896731e-7 -6.478570143641883e-7 -9.13022637926992e-7
          -6.474678562157143e-7 -9.112475373568507e-7 -6.462629748069227e-7 -0.0000030890782354338953 -0.000002760587239236016 -0.0000030893410532592793
          -0.000002760803240727821 -0.0000030901245329286826 -0.0000027614167250120477 -0.0000015399827232361047 -0.0000015402778922118859 -0.0000015410038713299345
          -5.694030865689746e-7 -4.992082771736548e-7 -5.695599497138762e-7 -4.992201845248086e-7 -5.701819694664753e-7 -4.993995149739839e-7
          -0.000001814152319500163 -0.0000015411983512594547 -0.0000018139603574722069 -0.0000015411634506237207 -0.000001813439108521698 -0.000001541062326022934
          -0.0000011151864526281155 -0.0000011151520898178646 -0.0000011150041830441545 -2.400353859423893e-7 -2.526253736505439e-7 -5.201898687028172e-7
          -4.858680250323528e-7 -2.3992078098841796e-7 -2.525185046558268e-7 -5.200158040581483e-7 -4.855863425579531e-7 -2.3952830037162957e-7
          -2.5217200861362136e-7 -5.194145032008918e-7 -4.847997775501084e-7 -0.0000020720068314582598 -0.0000020717215377897414 -0.000002070846304545539
          -0.0000014862624679789602 -0.0000016749440495567336 -0.0000014860009470383704 -0.0000016746086165874823 -0.0000014852180850119991 -0.0000016735655017206548
          -0.0000012929946801327975 -0.0000011116245873581764 -0.0000012920092375333612 -0.0000011107536258314408 -0.0000012891103216816637 -0.0000011082796783698286
          -9.314121723214926e-7 -9.316491142790955e-7 -9.324224668182321e-7 -0.0000023778341197504455 -0.00000277097925791165 -0.000002378204075674462
          -0.000002771249852710184 -0.000002379330598628718 -0.0000027721433355934307 -0.0000030558747539607713 -0.0000030688124694629047 -0.00000330921755681886
          -0.0000034128326685483692 -0.00000305594121479249 -0.0000030689491034138064 -0.000003309318582217218 -0.000003412824378783011 -0.0000030561705149365233
          -0.0000030695525904373917 -0.0000033095777960568126 -0.0000034128290447608953 -9.071167189186066e-7 -0.000001138436297221971 -9.073292779676082e-7
          -0.0000011386802328026805 -9.079161633842494e-7 -0.0000011396482376074383 -4.1732496451042644e-7 -2.2787478924247572e-7 -2.2239690702381683e-7
          -5.250799161600265e-7 -4.1726357017580015e-7 -2.2774489072914558e-7 -2.2233080203484787e-7 -5.249922901598611e-7 -4.17289995173072e-7
          -2.2705593199718603e-7 -2.2227641236467763e-7 -5.246288853878325e-7 -0.000002283100881389634 -0.0000022824147298027546 -0.000002280344067122519
          -6.852520772249393e-7 -7.432119939587582e-7 -6.848123581107393e-7 -7.42844126218859e-7 -6.833410145627252e-7 -7.416380812075513e-7
          -0.000003456328554631916 -0.0000038661386310793655 -0.000003456115541366554 -0.000003865855632255572 -0.000003455562960090033 -0.000003864979891412946
          -0.0000035041024515810427 -0.0000035037138223737257 -0.000003502539001150497 -0.0000019607564672656334 -0.0000018417323292431577 -0.0000019603218052884735
          -0.0000018411771473810107 -0.000001959003110848566 -0.0000018395099055785362 -0.0000017936593168549644 -0.0000017787013122446986 -0.000001792748318741971
          -0.0000017780111643155528 -0.0000017899622106324153 -0.0000017759457384586655 -0.0000024093810930011864 -0.000002765926869417511 -0.0000024088760578409726
          -0.000002765214477042671 -0.0000024074105619358237 -0.000002763086024192786 -0.000003130243751133842 -0.000003130007544797541 -0.0000031293663368225866
          -8.851313799667357e-7 -7.687339974423797e-7 -8.849510085541594e-7 -7.686316090019508e-7 -8.844024237260858e-7 -7.683783096579021e-7
          -0.0000031576048805255276 -0.000002828547237999335 -0.000003157124489773737 -0.000002828148232099751 -0.0000031557755210220664 -0.000002827036460249353
          -0.000002005308209390122 -0.000001649503284787809 -0.000002111372938046909 -0.0000020041501690431697 -0.0000016484641498303054 -0.0000021103144556262106
          -0.0000020005248901922473 -0.0000016454376935809411 -0.0000021069495840748044 -0.0000019269021407050887 -0.0000019257916066987697 -0.0000019222983175006316
          -8.106052359859513e-7 -5.363049773833894e-7 -8.10278726218612e-7 -5.361652043128014e-7 -8.093484860232381e-7 -5.358190529874847e-7
          -0.000001979803702531519 -0.0000017016404270497487 -0.000001979802407870221 -0.0000017017560642887379 -0.0000019798687524722188 -0.0000017021688427354533
          -6.882464884918395e-7 -9.098146479393114e-7 -6.879996604885696e-7 -9.096551625336924e-7 -6.8722422359662e-7 -9.091474863648769e-7
          -8.14800641218632e-7 -6.4350059074965e-7 -8.142664751089443e-7 -6.430162094371407e-7 -8.12746313172579e-7 -6.41549091998281e-7
          -0.0000023495403715880485 -0.00000179897508572281 -0.0000023895923676175958 -0.000002348916391305456 -0.0000017979528489279676 -0.000002388662033118439
          -0.000002347089874692731 -0.0000017947873703482844 -0.000002385560890393506 -0.0000019015357916327167 -0.0000019008689746652556 -0.0000018985876125548856
          -5.243797085373368e-7 -5.24355519524547e-7 -5.242537875844239e-7 -0.0000028881099777533825 -0.000002887462136883575 -0.0000028855094425145284
          -0.0000015849877023616949 -0.0000015839934098287291 -0.000001580832833513433 -0.0000021014371887050644 -0.000002101116912263103 -0.0000021000705297094195
          -5.273788769625145e-7 -5.269253919742566e-7 -5.255360398265456e-7 -0.00000162796414413804 -0.000001627552946895099 -0.0000016260540471188275
          -0.000002389333559407195 -0.000002388218043313158 -0.0000023846908855184605 0 -5.047524611154263e-7 0
          -5.043567214461448e-7 0 -5.033666963232356e-7 0 -3.3399492196124454e-7 0
          -3.337537393655903e-7 0 -3.331042210457927e-7 -9.843052510981226e-7 -9.840484207684752e-7 -9.837040303157531e-7
          0 -2.6522037821220106e-7 0 -2.6489620892958653e-7 0 -2.6361890634054476e-7
          -0.0000011788225018441143 -9.679526388770872e-7 -0.0000011785001358100208 -9.678855648904292e-7 -0.0000011775019150043688 -9.677055869884068e-7
          -0.0000011791533364942583 -0.0000011790080335904513 -0.0000011785951164810953 -0.0000016285902866096955 -0.0000016279352913262486 -0.0000016256729935758604
          -2.4427702403016397e-7 -2.7375019177874523e-7 -2.441919139290532e-7 -2.737867229540246e-7 -2.436820841090975e-7 -2.7391816055107884e-7
          0 0 0 0 0 0
          -0.0000023747759371027133 -0.0000023735940378321212 -0.0000023699434337964743 -0.0000027958305466634674 -0.0000027949066082806245 -0.0000027920963951034105
          -0.0000028900957664695732 -0.0000028898473503690064 -0.000002889385927693922 -2.3116388506073065e-7 0 -2.310197093251813e-7
          0 -2.3068173040458029e-7 0 -0.0000018587662578337805 -0.0000018590445438018378 -0.0000018599096311250827
          0 -2.7253423449473175e-7 -2.4730789679454073e-7 0 0 -2.725869098726193e-7
          -2.4735813918882274e-7 0 0 -2.727874445130212e-7 -2.4756204357348654e-7 0
          -2.5802652959124906e-7 -2.447406733934984e-7 -2.5796384798363744e-7 -2.447277480134967e-7 -2.578611097755151e-7 -2.448158452024124e-7
          -5.984922430354844e-7 -5.986274607946797e-7 -5.9913619505135e-7 -4.987740072148794e-7 -5.527578203773847e-7 -4.988945510244171e-7
          -5.528984118214056e-7 -4.991963540540987e-7 -5.533005478984301e-7 -0.000001997527418525768 -0.0000021023723974116005 -0.0000019978297594549865
          -0.0000021027226467150262 -0.0000019988790384109965 -0.0000021037947021868213 -0.0000025429877663320373 -0.000002542678132722992 -0.0000025418799615817158
          -0.0000022625990777564916 -0.0000022624268108646184 -0.000002262034710072434 -0.000001533252973172905 -0.0000015335212001925042 -0.0000015343380029690282
          -2.368396106053736e-7 0 -2.3662395750825674e-7 0 -2.3588168078783826e-7 0
          -0.0000018277578169615776 -0.0000018280826321841151 -0.0000018291720750045435 -0.0000021847279899634142 -0.0000023522408539289368 -0.00000248735029943732
          -0.0000021849211822937557 -0.0000023523884225320687 -0.0000024875947133314456 -0.0000021854693776817635 -0.000002352830044036346 -0.000002488463845621487
          -0.0000021581608618351094 -0.0000021584424444308943 -0.0000021594360074117816 0 0 -2.149197381900233e-7
          0 0 -2.149632371041364e-7 0 0 -2.1497896023776445e-7
          0 0 0 -0.0000021501848447171344 -0.0000021503382684108087 -0.000002150986656082204
          -0.000001017041840882621 -0.0000010167646350757574 -0.0000010159201365989049 0 0 0
          -2.2394209072698603e-7 0 -2.239202326782515e-7 0 -2.239887022059252e-7 0
          -0.000001720284735223808 -0.0000017205252380324326 -0.000001721284338260007 -4.7068662929224584e-7 -4.6123109753485987e-7 -4.703117622854578e-7
          -4.609374160656661e-7 -4.692193871799035e-7 -4.6009591678945165e-7 -4.382762275427618e-7 -3.8690275202679825e-7 -4.383121979925992e-7
          -3.869511014422647e-7 -4.383927357063889e-7 -3.870317097364373e-7 -0.000001991746548027034 -0.000002217178743569486 -0.000001992041913937674
          -0.00000221746049663151 -0.0000019929967688704373 -0.0000022183943484476735 -0.000001548084822171011 -0.0000017194359212633194 -0.000001548008913134377
          -0.0000017195004546750136 -0.0000015478003242532789 -0.00000171972278704908 -2.9189101080839306e-7 0 0
          -2.919661327345112e-7 0 0 -2.922443043477952e-7 0 0
          -0.000001960697148272806 -0.000001960846185452262 -0.000001961423462324268 0 0 0
          0 0 0 -0.0000013837984950528893 -0.0000013835208214353826 -0.0000013826848460286227
          0 0 -1.9250775462735906e-7 0 0 -1.9242811938169874e-7
          0 0 -1.9198695081249906e-7 0 0 0
          -0.000001950960731095628 -0.000001950980438790117 -0.000001951119985877764 -0.000001935262160618177 -0.0000018525716994518857 -0.0000019352507253220883
          -0.0000018524525162273557 -0.0000019352745400720405 -0.0000018521230927625077 0 0 0
          -3.5380175811607684e-7 -3.5364987887996175e-7 -3.5343533950955363e-7 -2.0096963781213737e-7 -2.0097923306079122e-7 -2.010272598249684e-7
          0 0 0 0 0 0
          0 0 0 -4.2397740478650225e-7 0 -4.2395541144036546e-7
          0 -4.238807699071975e-7 0 -3.7660143093502784e-7 0 -3.765835630187666e-7
          0 -3.765358101296219e-7 0 -3.4373062912071916e-7 0 -3.437124094294714e-7
          0 -3.436585805770693e-7 0 -8.53779429204948e-7 -8.53777214596931e-7 -8.537767747582948e-7
          -7.57881206745442e-7 -7.578342563261827e-7 -7.57682699076844e-7 -6.895549112742834e-7 -6.895058330460179e-7 -6.893584030308234e-7
          -0.0000012983885019951246 -0.0000012982773641898959 -0.000001297950796559654 -0.000001149513503775268 -0.0000011494964857039096 -0.0000011494626646896778
          -0.0000010400734698794542 -0.0000010400202326460607 -0.000001039855368819394 -0.0000017854635345496216 -0.0000017851572453340673 -0.0000017842226109570042
          -0.0000015618387237458794 -0.0000015616397523471617 -0.0000015610436057850912 -0.0000014004672135213652 -0.0000014003743825618537 -0.0000014001123372416917
          -0.000002034220821740758 -0.0000020338225969108833 -0.000002032607633378405 -0.000001787462610317257 -0.0000017870823920119227 -0.0000017859337596857385
          -0.0000026093807842805552 -0.000002609053625360436 -0.0000026080808548298075 -0.0000022639216826941737 -0.000002263345972023227 -0.0000022615970203732568
          -0.0000032899337302731696 -0.0000032896995145371207 -0.0000032889887920322438 -0.0000028745579298768974 -0.000002874086828848795 -0.0000028726946302756375
          -0.000004058756432243795 -0.00000405862634484145 -0.000004058247812190487 -0.000003641439288119138 -0.0000036409222766751247 -0.000003639367638106556
          -0.000004884135965258195 -0.0000048840663620966695 -0.000004883848922977496 -0.000004567763814142713 -0.000004567102122500314 -0.000004565138544477709
          -3.3130330690928075e-7 0 -3.312821589910496e-7 0 -3.312161762939296e-7 0
          -6.626491009459653e-7 -6.626115728211636e-7 -6.625041807597958e-7 -9.946161837639072e-7 -9.945325471524051e-7 -9.94272206076196e-7
          -0.0000013284205818865638 -0.0000013283623778624026 -0.0000013281949230096428 -0.0000016691881973908175 -0.0000016689505523630737 -0.000001668256403605058
          -0.0000030441896113043907 -0.000003380624529747983 -0.000003044367632053864 -0.000003380784826034645 -0.000003044957521534643 -0.0000033813862778249517
          -0.0000027268519864971103 -0.000002876425821259863 -0.0000022655090452531793 -0.0000027266893889513863 -0.000002876422544755903 -0.0000022653440652411213
          -0.0000027262155661939013 -0.0000028763922649004058 -0.0000022648751557804624 -0.0000037934360071302057 -0.000003793205576377061 -0.0000037926208527650047
          -0.000003704425629268634 -0.0000037044071212455828 -0.000003704331991844761 -0.0000025249763787427683 -0.0000025250033094320728 -0.0000025250895885632707
          -0.000002356192194537536 -0.0000023559263139964638 -0.0000023551325736194776 -0.000003009985517445388 -0.0000030098305387488826 -0.0000030093662673303006
          -0.0000037235375104158592 -0.000003723501851938963 -0.0000037234101078342065 -0.000004465865395514218 -0.000004465920016998061 -0.000004466109178244763
          -0.000005207621565143598 -0.0000052076859097760115 -0.000005207913480434138 -3.4107210492540057e-7 0 -3.410543430030737e-7
          0 -3.410009148550625e-7 0 -6.819166474290118e-7 -6.818798572760413e-7 -6.817673268804169e-7
          -0.0000010223030463176092 -0.000001022244880180145 -0.0000010220767824345027 -0.0000013628730922443685 -0.0000013627793363948687 -0.0000013624810690924965
          -0.0000017050821032420886 -0.0000017050120797973442 -0.0000017048316731518963 -0.0000020532317325864814 -0.000002052557642575806 -0.0000020504949621062732
          -0.000002053706368758034 -0.000002053307421365775 -0.0000020521057228249673 -0.000002568870569209155 -0.0000025681436497790224 -0.000002565969982176805
          -0.000003285771768054971 -0.0000032849346305237274 -0.0000032824313400989384 -0.000004247649634952182 -0.00000424641148009381 -0.00000424266817686291
        </DataArray>
        <DataArray type="Float64" Name="disp_z" format="ascii" RangeMin="-2.89697116971699e-7" RangeMax="0">
          0 0 0 0 -1.028857108717046e-7 -1.1304163074164199e-7
          -1.163593756220888e-7 -1.0192417622151104e-7 -2.061965346155767e-7 -2.2635530135435147e-7 -2.3331252599802858e-7 -2.0427502440670073e-7
          0 0 0 0 -8.77421606365823e-8 -8.510487792996311e-8
          -8.694777944480066e-8 -8.947748586744987e-8 -1.7542860243116038e-7 -1.7023374697620756e-7 -1.7383680214776293e-7 -1.7886466095194498e-7
          0 0 0 0 -6.003850005247822e-8 -6.102317550829058e-8
          -5.8585898637794084e-8 -5.9290101316730076e-8 -1.2013666720021264e-7 -1.2218556053679366e-7 -1.1720078300730809e-7 -1.1857574945910612e-7
          0 0 0 0 -1.1878776781944271e-7 -1.0591937128096706e-7
          -1.055633046362993e-7 -1.1753067991402258e-7 -2.374090104594842e-7 -2.1191456593829512e-7 -2.1133701767185554e-7 -2.350189794878894e-7
          0 0 0 0 -9.310882373434174e-8 -9.272767893885064e-8
          -9.355790670687137e-8 -9.41966512271791e-8 -1.8612866206889335e-7 -1.8529571751548405e-7 -1.8699831519430946e-7 -1.8829033519983993e-7
          0 0 0 0 -8.245886712654329e-8 -8.231767324153532e-8
          -8.795366020530871e-8 -8.868566231425196e-8 -1.6511564874562373e-7 -1.6472274268522393e-7 -1.7603569718213425e-7 -1.7755795139432694e-7
          0 0 0 -8.950375574922504e-8 -8.747423409089621e-8 -8.620211539790214e-8
          -1.789475084359315e-7 -1.7490908695054346e-7 -1.7240545141782196e-7 0 0 -8.302465104293011e-8
          -8.615631884953499e-8 -1.6614001098213638e-7 -1.7238263209362028e-7 0 0 0
          0 -7.991408491040346e-8 -8.442679946151273e-8 -8.439842041642815e-8 -7.937804457638992e-8 -1.597997945515233e-7
          -1.6880977064377424e-7 -1.687124717585844e-7 -1.5872289883558316e-7 0 0 -9.603076990827592e-8
          -9.558052937988832e-8 -1.921563629803966e-7 -1.9129566460426176e-7 0 0 -8.396028753599332e-8
          -8.608550987039929e-8 -1.6800874922001238e-7 -1.7223793222506634e-7 0 0 0
          -6.085947550379714e-8 -5.878829541889462e-8 -5.8653204711153915e-8 -1.2178114251014532e-7 -1.1769177386642396e-7 -1.1739211792190548e-7
          0 0 -8.993652802547425e-8 -8.356396535340883e-8 -1.8006641200834317e-7 -1.672453279560426e-7
          0 0 0 0 -7.74710563486211e-8 -8.006536443907784e-8
          -8.160869270343963e-8 -7.96709936017723e-8 -1.5500499022217774e-7 -1.6023013032216882e-7 -1.6325895534939512e-7 -1.5937086906842777e-7
          0 0 0 -8.996186850896089e-8 -9.128829479633661e-8 -9.188531802362353e-8
          -1.798738624023654e-7 -1.825341553677186e-7 -1.8367574479861086e-7 0 -1.0468239874039053e-7 -2.0947726049782255e-7
          0 0 0 -8.337267886781945e-8 -8.142990416536032e-8 -8.592493764199907e-8
          -1.668190837757188e-7 -1.6296993772125805e-7 -1.7194356837204836e-7 0 0 0
          -8.862244135746092e-8 -8.611511292932251e-8 -8.74964255273862e-8 -1.771593125783967e-7 -1.7222100702636588e-7 -1.7495534592034037e-7
          0 0 0 -9.771151457773372e-8 -9.992964093734797e-8 -9.242188650930497e-8
          -1.9572539672614588e-7 -2.0010732954083393e-7 -1.85158177295499e-7 0 0 -9.384164710400309e-8
          -9.281408985528849e-8 -1.8788809647176257e-7 -1.8587582723169747e-7 0 0 -7.220168013665489e-8
          -7.404579205070031e-8 -1.444774794365903e-7 -1.4809633007916014e-7 0 -1.4500301541482358e-7 -2.89697116971699e-7
          0 0 -8.55059438410539e-8 -8.209087421376924e-8 -1.7095117489814824e-7 -1.639556422182438e-7
          0 0 -8.604986753171556e-8 -8.534522218944781e-8 -1.721535193795643e-7 -1.7072397011603656e-7
          0 -8.386983096121073e-8 -1.6780169755226532e-7 0 0 0
          0 -7.567620505282938e-8 -7.711078555809739e-8 -7.809282843084236e-8 -7.68434236032767e-8 -1.5147909718365764e-7
          -1.54267887351483e-7 -1.5627592912438043e-7 -1.5381779753723977e-7 0 -6.885431389860901e-8 -1.377086579452413e-7
          0 0 -6.256918928237562e-8 -6.874245290924657e-8 -1.2516540804295637e-7 -1.3751852130590956e-7
          0 0 -1.0291321606595269e-7 -9.557108806977735e-8 -2.0600241031226177e-7 -1.913693511054543e-7
          0 -9.172618876822805e-8 -1.8330821021348656e-7 0 0 -7.902285478161797e-8
          -7.518985294049547e-8 -1.58068515259844e-7 -1.5041349986692652e-7 0 0 0
          0 -7.698436670618652e-8 -7.453485715928346e-8 -7.283673681170233e-8 -7.69626642739031e-8 -1.5406240016239833e-7
          -1.4913049460958336e-7 -1.457543323746238e-7 -1.540422937591523e-7 0 0 -8.929019900994158e-8
          -8.811414292612676e-8 -1.7854194768194578e-7 -1.7620166851038216e-7 0 0 0
          0 -7.828332583689525e-8 -7.442633697129654e-8 -6.818441272657267e-8 -7.16411832228863e-8 -1.5695683746178332e-7
          -1.487561327834704e-7 -1.3636659221369616e-7 -1.4315126880291603e-7 0 -9.412307697865674e-8 -1.8830242803976908e-7
          0 0 -7.925432726744197e-8 -7.879020718001327e-8 -1.5880572794185804e-7 -1.5775368776554576e-7
          0 0 -8.289161411600787e-8 -8.475000126240494e-8 -1.6590417779316357e-7 -1.6965470625457214e-7
          0 -9.002017752537538e-8 -1.802006428806632e-7 0 0 -8.92624969642547e-8
          -9.027788937623789e-8 -1.7862439680351822e-7 -1.806968310134187e-7 0 0 -9.612291809853029e-8
          -9.167050346305199e-8 -1.923581484369837e-7 -1.836602340807595e-7 0 0 -9.26422637397566e-8
          -9.820323024297047e-8 -1.8541430457963527e-7 -1.9640687801751955e-7 0 -8.846081400674393e-8 -1.7704474663333478e-7
          0 0 -8.139129555289205e-8 -8.276350512637969e-8 -1.6285860009755987e-7 -1.6556676657048793e-7
          0 0 -9.651211798386657e-8 -9.307454565579813e-8 -1.931185506430627e-7 -1.8620037043364961e-7
          0 0 0 -1.0668569599788384e-7 -9.654050669107793e-8 -1.0624245546800885e-7
          -2.135679401984573e-7 -1.9316201383131444e-7 -2.1260268049770128e-7 0 -1.0918938723931138e-7 -2.1859794601792642e-7
          0 0 -7.961537733534416e-8 -7.982130525459164e-8 -1.593022694662592e-7 -1.5972906514298666e-7
          0 0 -8.53537711114132e-8 -8.590560196246413e-8 -1.7077357637357296e-7 -1.7180724501030525e-7
          0 0 -6.595040699821902e-8 -7.298644321362401e-8 -1.3202798200391238e-7 -1.4599222386900177e-7
          0 0 -8.689260197594382e-8 -8.118966749879754e-8 -1.7400236902121456e-7 -1.6244282895347924e-7
          0 0 0 -1.2705008803599257e-7 -1.130263752980134e-7 -1.208843506435666e-7
          -2.5383233184744114e-7 -2.2596344290578748e-7 -2.415491844772323e-7 0 -1.246963460268085e-7 -2.493050622504145e-7
          0 -8.296625515054874e-8 -1.6599935200786455e-7 0 -1.2882511129489288e-7 -2.57317614608809e-7
          0 -1.1431326099223569e-7 -2.2870548839988932e-7 0 -8.841142842424674e-8 -1.7684224693281998e-7
          0 -8.584064108678945e-8 -1.7179704190481796e-7 0 -1.3103610852259583e-7 -2.620035163176575e-7
          0 -1.1642357591253697e-7 -2.328691604136894e-7 0 0 -1.0075988851797842e-7
          -1.0595597855430532e-7 -2.0195129420053986e-7 -2.1252039419049808e-7 0 0 -9.124196217698495e-8
          -9.184996893341136e-8 -1.827469792220374e-7 -1.8403283478370357e-7 0 -1.269948204671508e-7 -2.5381606743476354e-7
          0 0 -8.121763723252616e-8 -8.35641596056425e-8 -1.6260508496391336e-7 -1.6734617357923847e-7
          0 0 -6.213997309090946e-8 -5.975371857636091e-8 -1.2434571203699915e-7 -1.195529835606028e-7
          0 -7.41238260366764e-8 -1.4817754406498882e-7 0 -1.2241166276704748e-7 -2.450537839096128e-7
          0 0 -8.109717758470293e-8 -8.631904745912128e-8 -1.6209416427041766e-7 -1.7256235798644738e-7
          0 0 -7.537681923781967e-8 -7.701637047427018e-8 -1.5091151943080148e-7 -1.5412909170907505e-7
          0 -1.1309808372843785e-7 -2.2611463913640438e-7 0 -1.2456261842953024e-7 -2.4897259235538106e-7
          0 -8.912394194917902e-8 -1.7836798896974124e-7 0 0 -7.576342241779304e-8
          -7.53726603513909e-8 -1.5173284847308651e-7 -1.5084653848859848e-7 0 -8.527248278810187e-8 -1.705361969588666e-7
          0 0 0 0 -9.426546117984546e-8 -9.383883707536686e-8
          -9.222965016504538e-8 -9.334363927358154e-8 -1.884331673283084e-7 -1.875814056727381e-7 -1.843483768617543e-7 -1.8658813129086947e-7
          0 0 -7.963541361768542e-8 -8.225968211152074e-8 -1.5939296120218281e-7 -1.6449028075286435e-7
          0 -8.996622707811252e-8 -1.7987230788172097e-7 0 0 -9.089906867512175e-8
          -9.27783497964043e-8 -1.8172778042037848e-7 -1.8545565241352887e-7 0 0 -8.373667814476701e-8
          -8.20328879510904e-8 -1.674640006192849e-7 -1.640708082194276e-7 0 -8.94564021684849e-8 -1.789005607866675e-7
          0 -8.654832843963492e-8 -1.7312429183646495e-7 0 -8.506200310838915e-8 -1.7006198774773182e-7
          0 0 -7.799417723424256e-8 -7.701135252658727e-8 -1.5622652656150035e-7 -1.543826542585235e-7
          0 -8.385196552386496e-8 -1.67657966402399e-7 0 0 0
          -7.727974500122489e-8 -7.581920749332404e-8 -7.599519161271479e-8 -1.5454590232685064e-7 -1.5161072307834858e-7 -1.5200144450360954e-7
          0 -8.086336989498739e-8 -1.6167841816926324e-7 0 0 0
          -8.35340922707107e-8 -8.753747248605915e-8 -8.581486547159101e-8 -1.6710821342318983e-7 -1.751214679529071e-7 -1.7157297715870946e-7
          0 -9.397789666318405e-8 -1.8785631938331254e-7 0 -8.368276669068515e-8 -1.6742454399913403e-7
          0 -6.682231065887979e-8 -1.3369963815310245e-7 0 -7.992311837365488e-8 -1.599087202984515e-7
          0 0 -8.953539246460287e-8 -9.090172805782241e-8 -1.7895451815926316e-7 -1.8174713687754324e-7
          0 -8.168147928964475e-8 -1.6336626973227738e-7 0 0 -7.982807498620983e-8
          -7.674969120662032e-8 -1.599612668711807e-7 -1.5371520616511102e-7 0 0 -8.846779958842503e-8
          -8.620524157778104e-8 -1.7684594514093192e-7 -1.7252721442492297e-7 0 0 -8.148041696070123e-8
          -7.884251022953691e-8 -1.6290522653864666e-7 -1.576780068211418e-7 0 0 -7.496486027855641e-8
          -7.750870026009803e-8 -1.4985342878819484e-7 -1.5497968309163252e-7 0 0 0
          -9.050887427655765e-8 -8.950134594019374e-8 -8.462161608208202e-8 -1.8094779506043745e-7 -1.7883359327012077e-7 -1.690890199912035e-7
          0 -7.8798153649062e-8 -1.5759635186096082e-7 0 -7.798564365125613e-8 -1.5593013780529597e-7
          0 -9.24890497592953e-8 -1.848377738895164e-7 0 -6.992759061473753e-8 -1.398903881792269e-7
          0 0 0 -6.577576149311156e-8 -6.060061773511897e-8 -6.34273627487698e-8
          -1.3167896404916502e-7 -1.2129525100186362e-7 -1.27119447517036e-7 0 -7.133728155366822e-8 -1.4287323232642843e-7
          0 -7.710416967618576e-8 -1.541709878465081e-7 0 0 -7.569881740846864e-8
          -7.298712396454973e-8 -1.513583183155217e-7 -1.4590374929238764e-7 0 -5.820600187961358e-8 -1.1652916287974109e-7
          0 -6.520902525055029e-8 -1.3070746219388887e-7 0 -5.993792294170716e-8 -1.2001003060883127e-7
          0 -5.88285295412651e-8 -1.1761734653136714e-7 0 -5.9250771168165946e-8 -1.1839400273928765e-7
          0 -5.948079005282554e-8 -1.1895236538274611e-7 0 0 -6.078342951061224e-8
          -6.065726213729271e-8 -1.2156090113266272e-7 -1.2132542148671493e-7 0 0 -6.126616506439449e-8
          -6.109878409247433e-8 -1.2253445345655368e-7 -1.2219215190979635e-7 0 0 -6.138922374764023e-8
          -6.118883265389668e-8 -1.2278150915671948e-7 -1.2237786929743915e-7 0 -6.12846205033198e-8 -1.225734568872009e-7
          0 -6.18337517870653e-8 -1.2365655867886424e-7 0 -6.195416503458393e-8 -1.2390783992794394e-7
          0 -6.151806335066931e-8 -1.230600344853457e-7 0 -6.277866839802923e-8 -1.2557027700688355e-7
          0 -6.312589741414539e-8 -1.2624853400516318e-7 0 -6.603144909338515e-8 -1.32095791386456e-7
          0 -6.361291538170346e-8 -1.272287886226391e-7 0 -6.42239539230771e-8 -1.284724047743335e-7
          0 -7.058497712805479e-8 -1.41177708766295e-7 0 -6.80545525018356e-8 -1.3612731476277865e-7
          0 -7.747310173834311e-8 -1.5492831281377347e-7 0 -7.851083785274416e-8 -1.5699840087553363e-7
          0 -8.301151030160053e-8 -1.6602288947064877e-7 0 -8.858724659529518e-8 -1.7713813028037638e-7
          0 -8.642995214346186e-8 -1.7287042559711163e-7 0 -9.741291579113962e-8 -1.9480353206348925e-7
          0 -8.816750086435326e-8 -1.7639227077192673e-7 0 -1.0913467215629511e-7 -2.1825047064673932e-7
          0 0 -6.09311946208489e-8 -6.074158004400013e-8 -1.2185919043859557e-7 -1.2148407873390306e-7
          0 -6.153213351865981e-8 -1.2306881100371353e-7 0 -6.253391126657649e-8 -1.2505835052149193e-7
          0 -6.439108634471191e-8 -1.2878784183773394e-7 0 -6.592814604186245e-8 -1.318818843016778e-7
          0 0 -7.304844375685972e-8 -6.958009836124375e-8 -1.4610742256599612e-7 -1.39231375807621e-7
          0 0 0 -7.287239348070568e-8 -7.442948397369021e-8 -7.312710071023534e-8
          -1.4571588971746208e-7 -1.4882650279634182e-7 -1.462335947953429e-7 0 -7.751397406327667e-8 -1.5511683344725457e-7
          0 -7.169144851890297e-8 -1.4351304804117934e-7 0 -7.459034590773092e-8 -1.4912773084174437e-7
          0 -7.20305358842469e-8 -1.4406272747481874e-7 0 -7.587226011201104e-8 -1.5173552436427072e-7
          0 -7.79163135331808e-8 -1.5583502918918125e-7 0 -7.726157345512328e-8 -1.5453564257593018e-7
          0 -7.58951409236662e-8 -1.5182895910613107e-7 0 0 -6.002723558383035e-8
          -5.98617182550412e-8 -1.200552732782182e-7 -1.197233712336743e-7 0 -6.054436264545248e-8 -1.2108740743913579e-7
          0 -6.14557422062108e-8 -1.229171512115068e-7 0 -6.285811428313432e-8 -1.257017071650442e-7
          0 -6.479259134405851e-8 -1.296153599501908e-7 0 -7.50575486337616e-8 -1.5011141247429634e-7
          0 -6.745073210271329e-8 -1.3491607574777466e-7 0 -9.0228068480244e-8 -1.8039684150546154e-7
          0 -1.033467297014565e-7 -2.0659121941617214e-7 0 -1.2477477712971268e-7 -2.4949667114047237e-7
        </DataArray>
      </PointData>
      <CellData>
        <DataArray type="Int32" Name="libmesh_elem_id" format="ascii" RangeMin="1386" RangeMax="3465">
          1386 1387 1390 1391 1394 1395
          1400 1401 1406 1407 1410 1411
          1420 1421 1424 1425 1426 1427
          1432 1433 1436 1437 1444 1445
          1446 1447 1450 1451 1462 1463
          1466 1467 1474 1475 1498 1499
          1504 1505 1508 1509 1514 1515
          1524 1525 1526 1527 1530 1531
          1540 1541 1550 1551 1552 1553
          1554 1555 1578 1579 1588 1589
          1592 1593 1594 1595 1596 1597
          1598 1599 1600 1601 1606 1607
          1662 1663 1698 1699 1702 1703
          1712 1713 1726 1727 1730 1731
          1734 1735 1748 1749 1752 1753
          1774 1775 1778 1779 1834 1835
          1854 1855 1872 1873 1892 1893
          1894 1895 1896 1897 1902 1903
          1914 1915 1920 1921 1922 1923
          1932 1933 1942 1943 1944 1945
          1988 1989 2000 2001 2010 2011
          2024 2025 2070 2071 2100 2101
          2112 2113 2132 2133 2140 2141
          2150 2151 2166 2167 2206 2207
          2218 2219 2238 2239 2242 2243
          2244 2245 2256 2257 2258 2259
          2268 2269 2278 2279 2284 2285
          2306 2307 2334 2335 2340 2341
          2360 2361 2372 2373 2392 2393
          2396 2397 2398 2399 2418 2419
          2422 2423 2426 2427 2432 2433
          2434 2435 2436 2437 2476 2477
          2480 2481 2482 2483 2518 2519
          2534 2535 2540 2541 2542 2543
          2546 2547 2556 2557 2562 2563
          2568 2569 2574 2575 2584 2585
          2588 2589 2598 2599 2612 2613
          2638 2639 2656 2657 2664 2665
          2678 2679 2682 2683 2702 2703
          2704 2705 2708 2709 2720 2721
          2724 2725 2734 2735 2738 2739
          2742 2743 2746 2747 2774 2775
          2788 2789 2790 2791 2804 2805
          2806 2807 2834 2835 2840 2841
          2844 2845 2850 2851 2854 2855
          2858 2859 2872 2873 2888 2889
          2892 2893 2896 2897 2908 2909
          2912 2913 2916 2917 2918 2919
          2924 2925 2932 2933 2944 2945
          2972 2973 2984 2985 2996 2997
          3000 3001 3002 3003 3022 3023
          3024 3025 3030 3031 3032 3033
          3044 3045 3048 3049 3080 3081
          3092 3093 3108 3109 3120 3121
          3130 3131 3136 3137 3140 3141
          3142 3143 3146 3147 3150 3151
          3160 3161 3162 3163 3164 3165
          3170 3171 3172 3173 3174 3175
          3178 3179 3186 3187 3188 3189
          3198 3199 3216 3217 3218 3219
          3228 3229 3232 3233 3238 3239
          3242 3243 3246 3247 3250 3251
          3256 3257 3260 3261 3262 3263
          3266 3267 3268 3269 3270 3271
          3272 3273 3274 3275 3276 3277
          3278 3279 3280 3281 3282 3283
          3284 3285 3286 3287 3288 3289
          3290 3291 3292 3293 3294 3295
          3298 3299 3300 3301 3304 3305
          3306 3307 3310 3311 3312 3313
          3316 3317 3318 3319 3320 3321
          3322 3323 3338 3339 3340 3341
          3356 3357 3358 3359 3374 3375
          3376 3377 3392 3393 3394 3395
          3410 3411 3412 3413 3428 3429
          3446 3447 3464 3465
        </DataArray>
        <DataArray type="Int32" Name="subdomain_id" format="ascii" RangeMin="107" RangeMax="109">
          107 107 107 107 107 107
          107 107 107 107 107 107
          107 107 107 107 107 107
          107 107 107 107 107 107
          107 107 107 107 107 107
          107 107 107 107 107 107
          107 107 107 107 107 107
          107 107 107 107 107 107
          107 107 107 107 107 107
          107 107 107 107 107 107
          107 107 107 107 107 107
          107 107 107 107 107 107
          107 107 107 107 107 107
          107 107 107 107 107 107
          107 107 107 107 107 107
          107 107 107 107 107 107
          107 107 107 107 107 107
          107 107 107 107 107 107
          107 107 107 107 107 107
          107 107 107 107 107 107
          107 107 107 107 107 107
          107 107 107 107 107 107
          107 107 107 107 107 107
          107 107 107 107 107 107
          107 107 107 107 107 107
          107 107 107 107 107 107
          107 107 107 107 107 107
          107 107 107 107 107 107
          107 107 107 107 107 107
          107 107 107 107 107 107
          107 107 107 107 107 107
          107 107 107 107 107 107
          107 107 107 107 107 107
          107 107 107 107 107 107
          107 107 107 107 107 107
          107 107 107 107 107 107
          107 107 107 107 107 107
          107 107 107 107 107 107
          107 107 107 107 107 107
          107 107 107 107 107 107
          107 107 107 107 107 107
          107 107 107 107 107 107
          107 107 107 107 107 107
          107 107 107 107 107 107
          107 107 107 107 107 107
          107 107 107 107 107 107
          107 107 107 107 107 107
          107 107 107 107 107 107
          107 107 107 107 107 107
          107 107 107 107 107 107
          107 107 107 107 107 107
          107 107 107 107 107 107
          107 107 107 107 107 107
          107 107 107 107 107 107
          107 107 107 107 107 107
          107 107 107 107 107 107
          107 107 107 107 107 107
          107 107 107 107 107 107
          107 107 107 107 107 107
          107 107 107 107 107 107
          107 107 107 107 107 107
          107 107 107 107 107 107
          107 107 107 107 107 107
          108 108 108 108 108 108
          108 108 108 108 108 108
          108 108 108 108 108 108
          108 108 108 108 108 108
          108 108 108 108 108 108
          108 108 108 108 108 108
          108 108 108 108 108 108
          108 108 108 108 109 109
          109 109 109 109 109 109
          109 109 109 109 109 109
          109 109 109 109 109 109
          109 109 109 109 109 109
          109 109 109 109
        </DataArray>
        <DataArray type="Int32" Name="processor_id" format="ascii" RangeMin="1" RangeMax="1">
          1 1 1 1 1 1
          1 1 1 1 1 1
          1 1 1 1 1 1
          1 1 1 1 1 1
          1 1 1 1 1 1
          1 1 1 1 1 1
          1 1 1 1 1 1
          1 1 1 1 1 1
          1 1 1 1 1 1
          1 1 1 1 1 1
          1 1 1 1 1 1
          1 1 1 1 1 1
          1 1 1 1 1 1
          1 1 1 1 1 1
          1 1 1 1 1 1
          1 1 1 1 1 1
          1 1 1 1 1 1
          1 1 1 1 1 1
          1 1 1 1 1 1
          1 1 1 1 1 1
          1 1 1 1 1 1
          1 1 1 1 1 1
          1 1 1 1 1 1
          1 1 1 1 1 1
          1 1 1 1 1 1
          1 1 1 1 1 1
          1 1 1 1 1 1
          1 1 1 1 1 1
          1 1 1 1 1 1
          1 1 1 1 1 1
          1 1 1 1 1 1
          1 1 1 1 1 1
          1 1 1 1 1 1
          1 1 1 1 1 1
          1 1 1 1 1 1
          1 1 1 1 1 1
          1 1 1 1 1 1
          1 1 1 1 1 1
          1 1 1 1 1 1
          1 1 1 1 1 1
          1 1 1 1 1 1
          1 1 1 1 1 1
          1 1 1 1 1 1
          1 1 1 1 1 1
          1 1 1 1 1 1
          1 1 1 1 1 1
          1 1 1 1 1 1
          1 1 1 1 1 1
          1 1 1 1 1 1
          1 1 1 1 1 1
          1 1 1 1 1 1
          1 1 1 1 1 1
          1 1 1 1 1 1
          1 1 1 1 1 1
          1 1 1 1 1 1
          1 1 1 1 1 1
          1 1 1 1 1 1
          1 1 1 1 1 1
          1 1 1 1 1 1
          1 1 1 1 1 1
          1 1 1 1 1 1
          1 1 1 1 1 1
          1 1 1 1 1 1
          1 1 1 1 1 1
          1 1 1 1 1 1
          1 1 1 1 1 1
          1 1 1 1 1 1
          1 1 1 1 1 1
          1 1 1 1 1 1
          1 1 1 1 1 1
          1 1 1 1 1 1
          1 1 1 1 1 1
          1 1 1 1 1 1
          1 1 1 1 1 1
          1 1 1 1 1 1
          1 1 1 1
        </DataArray>
      </CellData>
      <Points>
        <DataArray type="Float64" Name="Points" NumberOfComponents="3" format="ascii" RangeMin="0.011720201602553146" RangeMax="0.03445906060790294">
          0.012969222910182 0.0014853020742274 0 0.012627852011276 0.0016898182928561 0
          0.01236786906931 0.0013587217336166 0 0.012783325134333 0.0011067100297067 0
          0.012969222910182 0.0014853020742274 0.00015 0.012627852011276 0.0016898182928561 0.00015
          0.01236786906931 0.0013587217336166 0.00015 0.012783325134333 0.0011067100297067 0.00015
          0.012969222910182 0.0014853020742274 0.0003 0.012627852011276 0.0016898182928561 0.0003
          0.01236786906931 0.0013587217336166 0.0003 0.012783325134333 0.0011067100297067 0.0003
          0.017563073004652 0.0017425656775748 0 0.017044554764736 0.0015497457581888 0
          0.017260149731535 0.0011385367421141 0 0.017760141546291 0.0012815461285561 0
          0.017563073004652 0.0017425656775748 0.00015 0.017044554764736 0.0015497457581888 0.00015
          0.017260149731535 0.0011385367421141 0.00015 0.017760141546291 0.0012815461285561 0.00015
          0.017563073004652 0.0017425656775748 0.0003 0.017044554764736 0.0015497457581888 0.0003
          0.017260149731535 0.0011385367421141 0.0003 0.017760141546291 0.0012815461285561 0.0003
          0.023776898874178 0.0022456328082928 0 0.023504823460796 0.0016933718681226 0
          0.023764932341086 0.0012053538973125 0 0.025 0.0014444444444417 0
          0.023776898874178 0.0022456328082928 0.00015 0.023504823460796 0.0016933718681226 0.00015
          0.023764932341086 0.0012053538973125 0.00015 0.025 0.0014444444444417 0.00015
          0.023776898874178 0.0022456328082928 0.0003 0.023504823460796 0.0016933718681226 0.0003
          0.023764932341086 0.0012053538973125 0.0003 0.025 0.0014444444444417 0.0003
          0.014128459199836 0.0039835282877348 0 0.014611363502717 0.0036877867763913 0
          0.015005639561329 0.0040763460944633 0 0.014554004584986 0.0044253882271801 0
          0.014128459199836 0.0039835282877348 0.00015 0.014611363502717 0.0036877867763913 0.00015
          0.015005639561329 0.0040763460944633 0.00015 0.014554004584986 0.0044253882271801 0.00015
          0.014128459199836 0.0039835282877348 0.0003 0.014611363502717 0.0036877867763913 0.0003
          0.015005639561329 0.0040763460944633 0.0003 0.014554004584986 0.0044253882271801 0.0003
          0.019696280766899 0.00050763342021358 0 0.019550033943553 0.0010320458815065 0
          0.01900444612813 0.00098950685152215 0 0.019158982336274 0.00048623495360749 0
          0.019696280766899 0.00050763342021358 0.00015 0.019550033943553 0.0010320458815065 0.00015
          0.01900444612813 0.00098950685152215 0.00015 0.019158982336274 0.00048623495360749 0.00015
          0.019696280766899 0.00050763342021358 0.0003 0.019550033943553 0.0010320458815065 0.0003
          0.01900444612813 0.00098950685152215 0.0003 0.019158982336274 0.00048623495360749 0.0003
          0.014859009547347 0.0018414606933245 0 0.015407964407671 0.0020438178723745 0
          0.01515544156871 0.0026588338800995 0 0.014598102610542 0.0022982704245768 0
          0.014859009547347 0.0018414606933245 0.00015 0.015407964407671 0.0020438178723745 0.00015
          0.01515544156871 0.0026588338800995 0.00015 0.014598102610542 0.0022982704245768 0.00015
          0.014859009547347 0.0018414606933245 0.0003 0.015407964407671 0.0020438178723745 0.0003
          0.01515544156871 0.0026588338800995 0.0003 0.014598102610542 0.0022982704245768 0.0003
          0.018126604709057 0.0019215066283495 0 0.017910174904861 0.0024312076221655 0
          0.017342980714859 0.0022157520731189 0 0.018126604709057 0.0019215066283495 0.00015
          0.017910174904861 0.0024312076221655 0.00015 0.017342980714859 0.0022157520731189 0.00015
          0.018126604709057 0.0019215066283495 0.0003 0.017910174904861 0.0024312076221655 0.0003
          0.017342980714859 0.0022157520731189 0.0003 0.015995561521593 0.0022418351865966 0
          0.01581460170494 0.0027743126456578 0 0.015995561521593 0.0022418351865966 0.00015
          0.01581460170494 0.0027743126456578 0.00015 0.015995561521593 0.0022418351865966 0.0003
          0.01581460170494 0.0027743126456578 0.0003 0.021203243478062 0.0026574159093233 0
          0.020454986610371 0.0022211941162512 0 0.020632218270446 0.001642443645643 0
          0.021442904813338 0.0016925342242502 0 0.021203243478062 0.0026574159093233 0.00015
          0.020454986610371 0.0022211941162512 0.00015 0.020632218270446 0.001642443645643 0.00015
          0.021442904813338 0.0016925342242502 0.00015 0.021203243478062 0.0026574159093233 0.0003
          0.020454986610371 0.0022211941162512 0.0003 0.020632218270446 0.001642443645643 0.0003
          0.021442904813338 0.0016925342242502 0.0003 0.015000171033694 0.0033600360828681 0
          0.015396645228865 0.0036775895732469 0 0.015000171033694 0.0033600360828681 0.00015
          0.015396645228865 0.0036775895732469 0.00015 0.015000171033694 0.0033600360828681 0.0003
          0.015396645228865 0.0036775895732469 0.0003 0.016564676280502 0.0024636417082771 0
          0.016363912484153 0.0029730068966809 0 0.016564676280502 0.0024636417082771 0.00015
          0.016363912484153 0.0029730068966809 0.00015 0.016564676280502 0.0024636417082771 0.0003
          0.016363912484153 0.0029730068966809 0.0003 0.023072410624366 0.001035238244058 0
          0.023303887517976 0.00051385162283572 0 0.023907474886085 0.00057797945625648 0
          0.023072410624366 0.001035238244058 0.00015 0.023303887517976 0.00051385162283572 0.00015
          0.023907474886085 0.00057797945625648 0.00015 0.023072410624366 0.001035238244058 0.0003
          0.023303887517976 0.00051385162283572 0.0003 0.023907474886085 0.00057797945625648 0.0003
          0.014126846853415 0.0020250855845452 0 0.014376196219822 0.0016213258676016 0
          0.014126846853415 0.0020250855845452 0.00015 0.014376196219822 0.0016213258676016 0.00015
          0.014126846853415 0.0020250855845452 0.0003 0.014376196219822 0.0016213258676016 0.0003
          0.018981322625637 0.0048047339747308 0 0.018357141436072 0.0045551651420339 0
          0.018591751365599 0.0039752866369835 0 0.01916753543825 0.0042045163914746 0
          0.018981322625637 0.0048047339747308 0.00015 0.018357141436072 0.0045551651420339 0.00015
          0.018591751365599 0.0039752866369835 0.00015 0.01916753543825 0.0042045163914746 0.00015
          0.018981322625637 0.0048047339747308 0.0003 0.018357141436072 0.0045551651420339 0.0003
          0.018591751365599 0.0039752866369835 0.0003 0.01916753543825 0.0042045163914746 0.0003
          0.018733892370512 0.0020905204418308 0 0.018302277235643 0.001411928503633 0
          0.018878430913296 0.0015272195647153 0 0.018733892370512 0.0020905204418308 0.00015
          0.018302277235643 0.001411928503633 0.00015 0.018878430913296 0.0015272195647153 0.00015
          0.018733892370512 0.0020905204418308 0.0003 0.018302277235643 0.001411928503633 0.0003
          0.018878430913296 0.0015272195647153 0.0003 0.015535554193674 0.0045828394817383 0
          0.015535554193674 0.0045828394817383 0.00015 0.015535554193674 0.0045828394817383 0.0003
          0.017780760549951 0.0042442262797048 0 0.018018112537919 0.0052480329433742 0
          0.017497318700769 0.0047182001999379 0 0.017780760549951 0.0042442262797048 0.00015
          0.018018112537919 0.0052480329433742 0.00015 0.017497318700769 0.0047182001999379 0.00015
          0.017780760549951 0.0042442262797048 0.0003 0.018018112537919 0.0052480329433742 0.0003
          0.017497318700769 0.0047182001999379 0.0003 0.019494677591535 0.00226139088066 0
          0.019117853172676 0.0029004952170283 0 0.018505903140776 0.002650294613165 0
          0.019494677591535 0.00226139088066 0.00015 0.019117853172676 0.0029004952170283 0.00015
          0.018505903140776 0.002650294613165 0.00015 0.019494677591535 0.00226139088066 0.0003
          0.019117853172676 0.0029004952170283 0.0003 0.018505903140776 0.002650294613165 0.0003
          0.013829014690192 0.0024142080164891 0 0.013458574547778 0.0021218274131508 0
          0.013711742209243 0.0017918189860839 0 0.013829014690192 0.0024142080164891 0.00015
          0.013458574547778 0.0021218274131508 0.00015 0.013711742209243 0.0017918189860839 0.00015
          0.013829014690192 0.0024142080164891 0.0003 0.013458574547778 0.0021218274131508 0.0003
          0.013711742209243 0.0017918189860839 0.0003 0.0133672983588 0.0013583262253912 0
          0.013268156677071 0.00095273786274694 0 0.0133672983588 0.0013583262253912 0.00015
          0.013268156677071 0.00095273786274694 0.00015 0.0133672983588 0.0013583262253912 0.0003
          0.013268156677071 0.00095273786274694 0.0003 0.020151989638292 0.0057951577471947 0
          0.020929132214341 0.005368110675239 0 0.020151989638292 0.0057951577471947 0.00015
          0.020929132214341 0.005368110675239 0.00015 0.020151989638292 0.0057951577471947 0.0003
          0.020929132214341 0.005368110675239 0.0003 0.011634800364854 0.0014122839921498 0
          0.011634800364854 0.0014122839921498 0.00015 0.011634800364854 0.0014122839921498 0.0003
          0.020690070611507 0.0010537467946972 0 0.021241463234904 0.0010007048777636 0
          0.020690070611507 0.0010537467946972 0.00015 0.021241463234904 0.0010007048777636 0.00015
          0.020690070611507 0.0010537467946972 0.0003 0.021241463234904 0.0010007048777636 0.0003
          0.01690585017332 0.0031962434076044 0 0.017120511962154 0.0027019865785896 0
          0.01690585017332 0.0031962434076044 0.00015 0.017120511962154 0.0027019865785896 0.00015
          0.01690585017332 0.0031962434076044 0.0003 0.017120511962154 0.0027019865785896 0.0003
          0.016801656731456 0.0019822328720047 0 0.016801656731456 0.0019822328720047 0.00015
          0.016801656731456 0.0019822328720047 0.0003 0.015193226280812 0.00045041659473928 0
          0.015698309574236 0.00047366638839958 0 0.015648437383567 0.00097128418016613 0
          0.015127663000402 0.00090574444628299 0 0.015193226280812 0.00045041659473928 0.00015
          0.015698309574236 0.00047366638839958 0.00015 0.015648437383567 0.00097128418016613 0.00015
          0.015127663000402 0.00090574444628299 0.00015 0.015193226280812 0.00045041659473928 0.0003
          0.015698309574236 0.00047366638839958 0.0003 0.015648437383567 0.00097128418016613 0.0003
          0.015127663000402 0.00090574444628299 0.0003 0.025 0.0057777777777625 0
          0.025 0.0057777777777625 0.00015 0.025 0.0057777777777625 0.0003
          0.025 0.0043333333333224 0 0.023896353247243 0.0043894596145303 0
          0.025 0.0043333333333224 0.00015 0.023896353247243 0.0043894596145303 0.00015
          0.025 0.0043333333333224 0.0003 0.023896353247243 0.0043894596145303 0.0003
          0.013179014717582 0.001822526704721 0 0.013420070576712 0.0016525675047962 0
          0.013179014717582 0.001822526704721 0.00015 0.013420070576712 0.0016525675047962 0.00015
          0.013179014717582 0.001822526704721 0.0003 0.013420070576712 0.0016525675047962 0.0003
          0.01946472134525 0.0015844882179861 0 0.01946472134525 0.0015844882179861 0.00015
          0.01946472134525 0.0015844882179861 0.0003 0.019738918970445 0.0042679072806348 0
          0.019737200842686 0.0050366958134185 0 0.019738918970445 0.0042679072806348 0.00015
          0.019737200842686 0.0050366958134185 0.00015 0.019738918970445 0.0042679072806348 0.0003
          0.019737200842686 0.0050366958134185 0.0003 0.018801022408002 0.0054477015438504 0
          0.019301386887175 0.0055580415356932 0 0.019427042946373 0.0060730727381959 0
          0.018733542944404 0.0061279994653871 0 0.018801022408002 0.0054477015438504 0.00015
          0.019301386887175 0.0055580415356932 0.00015 0.019427042946373 0.0060730727381959 0.00015
          0.018733542944404 0.0061279994653871 0.00015 0.018801022408002 0.0054477015438504 0.0003
          0.019301386887175 0.0055580415356932 0.0003 0.019427042946373 0.0060730727381959 0.0003
          0.018733542944404 0.0061279994653871 0.0003 0.020038894590203 0.0015918984718873 0
          0.020014763899096 0.0020069766457038 0 0.020038894590203 0.0015918984718873 0.00015
          0.020014763899096 0.0020069766457038 0.00015 0.020038894590203 0.0015918984718873 0.0003
          0.020014763899096 0.0020069766457038 0.0003 0.02163606673442 0.0008902471917336 0
          0.021744201350165 0.00049421716196859 0 0.022190644598282 0.0005058615377216 0
          0.021944604947084 0.0011684672971015 0 0.02163606673442 0.0008902471917336 0.00015
          0.021744201350165 0.00049421716196859 0.00015 0.022190644598282 0.0005058615377216 0.00015
          0.021944604947084 0.0011684672971015 0.00015 0.02163606673442 0.0008902471917336 0.0003
          0.021744201350165 0.00049421716196859 0.0003 0.022190644598282 0.0005058615377216 0.0003
          0.021944604947084 0.0011684672971015 0.0003 0.015913060403389 0.0039637658470315 0
          0.015913060403389 0.0039637658470315 0.00015 0.015913060403389 0.0039637658470315 0.0003
          0.014558693053864 0.0012292895498017 0 0.015031644896308 0.0013689537442351 0
          0.014558693053864 0.0012292895498017 0.00015 0.015031644896308 0.0013689537442351 0.00015
          0.014558693053864 0.0012292895498017 0.0003 0.015031644896308 0.0013689537442351 0.0003
          0.018057579772584 0.0060827128421873 0 0.018070157245618 0.0068021820766994 0
          0.018057579772584 0.0060827128421873 0.00015 0.018070157245618 0.0068021820766994 0.00015
          0.018057579772584 0.0060827128421873 0.0003 0.018070157245618 0.0068021820766994 0.0003
          0.017413401850906 0.0060417176080878 0 0.017413401850906 0.0060417176080878 0.00015
          0.017413401850906 0.0060417176080878 0.0003 0.016169389215855 0.0034677229039223 0
          0.015655980876909 0.003250339095381 0 0.016169389215855 0.0034677229039223 0.00015
          0.015655980876909 0.003250339095381 0.00015 0.016169389215855 0.0034677229039223 0.0003
          0.015655980876909 0.003250339095381 0.0003 0.014652329158707 0.0030238496825634 0
          0.015285307382498 0.0031101507370722 0 0.014652329158707 0.0030238496825634 0.00015
          0.015285307382498 0.0031101507370722 0.00015 0.014652329158707 0.0030238496825634 0.0003
          0.015285307382498 0.0031101507370722 0.0003 0.016487808895433 0.0042010147125967 0
          0.016291762387835 0.0047307906783276 0 0.016487808895433 0.0042010147125967 0.00015
          0.016291762387835 0.0047307906783276 0.00015 0.016487808895433 0.0042010147125967 0.0003
          0.016291762387835 0.0047307906783276 0.0003 0.017341722495578 0.0054175123203669 0
          0.017341722495578 0.0054175123203669 0.00015 0.017341722495578 0.0054175123203669 0.0003
          0.016251164393845 0.0016133033435965 0 0.016687160352932 0.001374608348519 0
          0.016251164393845 0.0016133033435965 0.00015 0.016687160352932 0.001374608348519 0.00015
          0.016251164393845 0.0016133033435965 0.0003 0.016687160352932 0.001374608348519 0.0003
          0.01678493258985 0.0053840721103251 0 0.016848637368385 0.0048798435935376 0
          0.01678493258985 0.0053840721103251 0.00015 0.016848637368385 0.0048798435935376 0.00015
          0.01678493258985 0.0053840721103251 0.0003 0.016848637368385 0.0048798435935376 0.0003
          0.013915703094631 0.0030656560250288 0 0.01425441565673 0.0027053116394345 0
          0.014277331184122 0.0033493109511997 0 0.013915703094631 0.0030656560250288 0.00015
          0.01425441565673 0.0027053116394345 0.00015 0.014277331184122 0.0033493109511997 0.00015
          0.013915703094631 0.0030656560250288 0.0003 0.01425441565673 0.0027053116394345 0.0003
          0.014277331184122 0.0033493109511997 0.0003 0.013503308513005 0.0027817056572273 0
          0.013503308513005 0.0027817056572273 0.00015 0.013503308513005 0.0027817056572273 0.0003
          0.015571407447371 0.001500509245043 0 0.016188320748251 0.0009824473909215 0
          0.015571407447371 0.001500509245043 0.00015 0.016188320748251 0.0009824473909215 0.00015
          0.015571407447371 0.001500509245043 0.0003 0.016188320748251 0.0009824473909215 0.0003
          0.017456683820944 0.0034405145363726 0 0.017671289470578 0.0029336357035204 0
          0.017456683820944 0.0034405145363726 0.00015 0.017671289470578 0.0029336357035204 0.00015
          0.017456683820944 0.0034405145363726 0.0003 0.017671289470578 0.0029336357035204 0.0003
          0.022716879195272 0.001694170750475 0 0.022069698771397 0.0020298487038736 0
          0.022716879195272 0.001694170750475 0.00015 0.022069698771397 0.0020298487038736 0.00015
          0.022716879195272 0.001694170750475 0.0003 0.022069698771397 0.0020298487038736 0.0003
          0.013893710777701 0.0013389894450257 0 0.014229820502632 0.0011148528015907 0
          0.013893710777701 0.0013389894450257 0.00015 0.014229820502632 0.0011148528015907 0.00015
          0.013893710777701 0.0013389894450257 0.0003 0.014229820502632 0.0011148528015907 0.0003
          0.012674188674928 0.0028095410694266 0 0.013119330518162 0.0024349279719224 0
          0.013248150362312 0.0031919567697963 0 0.012674188674928 0.0028095410694266 0.00015
          0.013119330518162 0.0024349279719224 0.00015 0.013248150362312 0.0031919567697963 0.00015
          0.012674188674928 0.0028095410694266 0.0003 0.013119330518162 0.0024349279719224 0.0003
          0.013248150362312 0.0031919567697963 0.0003 0.012451479243686 0.0021914486022899 0
          0.012451479243686 0.0021914486022899 0.00015 0.012451479243686 0.0021914486022899 0.0003
          0.016782084774574 0.00093367828557597 0 0.016782084774574 0.00093367828557597 0.00015
          0.016782084774574 0.00093367828557597 0.0003 0.013121586466294 0.0036708577033715 0
          0.013121586466294 0.0036708577033715 0.00015 0.013121586466294 0.0036708577033715 0.0003
          0.012837862818801 0.0020433604618052 0 0.012837862818801 0.0020433604618052 0.00015
          0.012837862818801 0.0020433604618052 0.0003 0.016706746155521 0.0036970402910047 0
          0.016706746155521 0.0036970402910047 0.00015 0.016706746155521 0.0036970402910047 0.0003
          0.013749164985008 0.00086088989331873 0 0.013749164985008 0.00086088989331873 0.00015
          0.013749164985008 0.00086088989331873 0.0003 0.012096711335481 0.0017058387426491 0
          0.012096711335481 0.0017058387426491 0.00015 0.012096711335481 0.0017058387426491 0.0003
          0.013693266362936 0.0034326845509566 0 0.013693266362936 0.0034326845509566 0.00015
          0.013693266362936 0.0034326845509566 0.0003 0.012692307692288 0 0
          0.012542896420733 0.00061304595643839 0 0.012692307692288 0 0.00015
          0.012542896420733 0.00061304595643839 0.00015 0.012692307692288 0 0.0003
          0.012542896420733 0.00061304595643839 0.0003 0.013205128205107 0 0
          0.013181655749567 0.00048421972568225 0 0.013205128205107 0 0.00015
          0.013181655749567 0.00048421972568225 0.00015 0.013205128205107 0 0.0003
          0.013181655749567 0.00048421972568225 0.0003 0.012087580163866 0.0010424427844857 0
          0.012087580163866 0.0010424427844857 0.00015 0.012087580163866 0.0010424427844857 0.0003
          0.013717948717925 0 0 0.013709151553936 0.00043508888993868 0
          0.013717948717925 0 0.00015 0.013709151553936 0.00043508888993868 0.00015
          0.013717948717925 0 0.0003 0.013709151553936 0.00043508888993868 0.0003
          0.023934294716764 0.0032087575652495 0 0.025 0.0028888888888822 0
          0.023934294716764 0.0032087575652495 0.00015 0.025 0.0028888888888822 0.00015
          0.023934294716764 0.0032087575652495 0.0003 0.025 0.0028888888888822 0.0003
          0.022119784948444 0.002618759724243 0 0.022119784948444 0.002618759724243 0.00015
          0.022119784948444 0.002618759724243 0.0003 0.012384518900215 0.0018567382086698 0
          0.012384518900215 0.0018567382086698 0.00015 0.012384518900215 0.0018567382086698 0.0003
          0.021279978971931 0.00049482730399591 0 0.020757556768826 0.00050973095909409 0
          0.021279978971931 0.00049482730399591 0.00015 0.020757556768826 0.00050973095909409 0.00015
          0.021279978971931 0.00049482730399591 0.0003 0.020757556768826 0.00050973095909409 0.0003
          0.015256410256382 0 0 0.015769230769205 0 0
          0.015256410256382 0 0.00015 0.015769230769205 0 0.00015
          0.015256410256382 0 0.0003 0.015769230769205 0 0.0003
          0.014025581742285 0.0035717972510793 0 0.014025581742285 0.0035717972510793 0.00015
          0.014025581742285 0.0035717972510793 0.0003 0.013590285783394 0.0038446716816234 0
          0.013590285783394 0.0038446716816234 0.00015 0.013590285783394 0.0038446716816234 0.0003
          0.017243082343815 0.0050067004105205 0 0.017243082343815 0.0050067004105205 0.00015
          0.017243082343815 0.0050067004105205 0.0003 0.014691316585943 0.00042340821879555 0
          0.014743589743561 0 0 0.014691316585943 0.00042340821879555 0.00015
          0.014743589743561 0 0.00015 0.014691316585943 0.00042340821879555 0.0003
          0.014743589743561 0 0.0003 0.018245486290569 0.0031782516753476 0
          0.018245486290569 0.0031782516753476 0.00015 0.018245486290569 0.0031782516753476 0.0003
          0.018846153846135 0 0 0.018644197304734 0.00045373129675669 0
          0.01812656348281 0.00041497632726255 0 0.018333333333313 0 0
          0.018846153846135 0 0.00015 0.018644197304734 0.00045373129675669 0.00015
          0.01812656348281 0.00041497632726255 0.00015 0.018333333333313 0 0.00015
          0.018846153846135 0 0.0003 0.018644197304734 0.00045373129675669 0.0003
          0.01812656348281 0.00041497632726255 0.0003 0.018333333333313 0 0.0003
          0.016222123693441 0.00047331176344161 0 0.016700854199337 0.00043557402690065 0
          0.016222123693441 0.00047331176344161 0.00015 0.016700854199337 0.00043557402690065 0.00015
          0.016222123693441 0.00047331176344161 0.0003 0.016700854199337 0.00043557402690065 0.0003
          0.020119253581834 0.0010505613075795 0 0.020119253581834 0.0010505613075795 0.00015
          0.020119253581834 0.0010505613075795 0.0003 0.017948162073368 0.00084248305268282 0
          0.018468108748109 0.00092264731154686 0 0.017948162073368 0.00084248305268282 0.00015
          0.018468108748109 0.00092264731154686 0.00015 0.017948162073368 0.00084248305268282 0.0003
          0.018468108748109 0.00092264731154686 0.0003 0.018823294200687 0.0034327213803771 0
          0.019357958441624 0.0036753812238739 0 0.018823294200687 0.0034327213803771 0.00015
          0.019357958441624 0.0036753812238739 0.00015 0.018823294200687 0.0034327213803771 0.0003
          0.019357958441624 0.0036753812238739 0.0003 0.017020820655581 0.0044256808272369 0
          0.017020820655581 0.0044256808272369 0.00015 0.017020820655581 0.0044256808272369 0.0003
          0.017246333426457 0.0039469397271967 0 0.017246333426457 0.0039469397271967 0.00015
          0.017246333426457 0.0039469397271967 0.0003 0.020078691259254 0.0027314397537426 0
          0.020078691259254 0.0027314397537426 0.00015 0.020078691259254 0.0027314397537426 0.0003
          0.014206101807249 0.00041708713844452 0 0.014230769230743 0 0
          0.014206101807249 0.00041708713844452 0.00015 0.014230769230743 0 0.00015
          0.014206101807249 0.00041708713844452 0.0003 0.014230769230743 0 0.0003
          0.019663480844036 0.0032045589214632 0 0.019663480844036 0.0032045589214632 0.00015
          0.019663480844036 0.0032045589214632 0.0003 0.021168425648455 0.0043064684914555 0
          0.021635594211814 0.0048272474453844 0 0.020555573714582 0.0046911399787169 0
          0.021168425648455 0.0043064684914555 0.00015 0.021635594211814 0.0048272474453844 0.00015
          0.020555573714582 0.0046911399787169 0.00015 0.021168425648455 0.0043064684914555 0.0003
          0.021635594211814 0.0048272474453844 0.0003 0.020555573714582 0.0046911399787169 0.0003
          0.019723975353689 0.0038421555098755 0 0.019723975353689 0.0038421555098755 0.00015
          0.019723975353689 0.0038421555098755 0.0003 0.01679487179485 0 0
          0.017307692307672 0 0 0.017098243235352 0.00037703288126221 0
          0.01679487179485 0 0.00015 0.017307692307672 0 0.00015
          0.017098243235352 0.00037703288126221 0.00015 0.01679487179485 0 0.0003
          0.017307692307672 0 0.0003 0.017098243235352 0.00037703288126221 0.0003
          0.019358974358957 0 0 0.019358974358957 0 0.00015
          0.019358974358957 0 0.0003 0.018021318366412 0.0037089471112668 0
          0.018021318366412 0.0037089471112668 0.00015 0.018021318366412 0.0037089471112668 0.0003
          0.022914230268928 0.0025172233828488 0 0.022914230268928 0.0025172233828488 0.00015
          0.022914230268928 0.0025172233828488 0.0003 0.016282051282027 0 0
          0.016282051282027 0 0.00015 0.016282051282027 0 0.0003
          0.017636327566636 0.00038375181151782 0 0.017820512820494 0 0
          0.017636327566636 0.00038375181151782 0.00015 0.017820512820494 0 0.00015
          0.017636327566636 0.00038375181151782 0.0003 0.017820512820494 0 0.0003
          0.020545307319607 0.0031941956482125 0 0.020545307319607 0.0031941956482125 0.00015
          0.020545307319607 0.0031941956482125 0.0003 0.014207774647908 0.00082121811907846 0
          0.014649951203035 0.00083908958777153 0 0.014207774647908 0.00082121811907846 0.00015
          0.014649951203035 0.00083908958777153 0.00015 0.014207774647908 0.00082121811907846 0.0003
          0.014649951203035 0.00083908958777153 0.0003 0.017453973974276 0.00075538641526017 0
          0.017131504825278 0.00067680946789985 0 0.017453973974276 0.00075538641526017 0.00015
          0.017131504825278 0.00067680946789985 0.00015 0.017453973974276 0.00075538641526017 0.0003
          0.017131504825278 0.00067680946789985 0.0003 0.020049549059284 0.0035870308776452 0
          0.020306231316884 0.0040846257713005 0 0.020049549059284 0.0035870308776452 0.00015
          0.020306231316884 0.0040846257713005 0.00015 0.020049549059284 0.0035870308776452 0.0003
          0.020306231316884 0.0040846257713005 0.0003 0.022163023796879 0.0034061119862663 0
          0.021471654866651 0.0034951402573089 0 0.022163023796879 0.0034061119862663 0.00015
          0.021471654866651 0.0034951402573089 0.00015 0.022163023796879 0.0034061119862663 0.0003
          0.021471654866651 0.0034951402573089 0.0003 0.020216848120139 0.00051365536395203 0
          0.020384615384602 0 0 0.020897435897425 0 0
          0.020216848120139 0.00051365536395203 0.00015 0.020384615384602 0 0.00015
          0.020897435897425 0 0.00015 0.020216848120139 0.00051365536395203 0.0003
          0.020384615384602 0 0.0003 0.020897435897425 0 0.0003
          0.020867240059882 0.0037570922548429 0 0.020867240059882 0.0037570922548429 0.00015
          0.020867240059882 0.0037570922548429 0.0003 0.021410256410247 0 0
          0.021410256410247 0 0.00015 0.021410256410247 0 0.0003
          0.01987179487178 0 0 0.01987179487178 0 0.00015
          0.01987179487178 0 0.0003 0.022975084693504 0.003367305376383 0
          0.022975084693504 0.003367305376383 0.00015 0.022975084693504 0.003367305376383 0.0003
          0.022435897435893 0 0 0.022948717948713 0 0
          0.022737844672879 0.00047743690091317 0 0.022435897435893 0 0.00015
          0.022948717948713 0 0.00015 0.022737844672879 0.00047743690091317 0.00015
          0.022435897435893 0 0.0003 0.022948717948713 0 0.0003
          0.022737844672879 0.00047743690091317 0.0003 0.02192307692307 0 0
          0.02192307692307 0 0.00015 0.02192307692307 0 0.0003
          0.021567010772127 0.0039949981403974 0 0.021567010772127 0.0039949981403974 0.00015
          0.021567010772127 0.0039949981403974 0.0003 0.02205136800235 0.0041574599345453 0
          0.022874799944018 0.0043411431204517 0 0.02205136800235 0.0041574599345453 0.00015
          0.022874799944018 0.0043411431204517 0.00015 0.02205136800235 0.0041574599345453 0.0003
          0.022874799944018 0.0043411431204517 0.0003 0.023461538461532 0 0
          0.023461538461532 0 0.00015 0.023461538461532 0 0.0003
          0.022597273609822 0.0008601076908125 0 0.022597273609822 0.0008601076908125 0.00015
          0.022597273609822 0.0008601076908125 0.0003 0.024392416230449 0.00057909033861659 0
          0.024392416230449 0.00057909033861659 0.00015 0.024392416230449 0.00057909033861659 0.0003
          0.023974358974355 0 0 0.023974358974355 0 0.00015
          0.023974358974355 0 0.0003 0.024487179487177 0 0
          0.024487179487177 0 0.00015 0.024487179487177 0 0.0003
          0.025 0 0 0.025 0 0.00015
          0.025 0 0.0003 0.026666666666664 0.0014444444444417 0
          0.026666666666663 0 0 0.026666666666664 0.0014444444444417 0.00015
          0.026666666666663 0 0.00015 0.026666666666664 0.0014444444444417 0.0003
          0.026666666666663 0 0.0003 0.028333333333331 0.0014444444444417 0
          0.02833333333333 0 0 0.028333333333331 0.0014444444444417 0.00015
          0.02833333333333 0 0.00015 0.028333333333331 0.0014444444444417 0.0003
          0.02833333333333 0 0.0003 0.03 0.0014444444444417 0
          0.03 0 0 0.03 0.0014444444444417 0.00015
          0.03 0 0.00015 0.03 0.0014444444444417 0.0003
          0.03 0 0.0003 0.026666666666665 0.0028888888888822 0
          0.026666666666665 0.0028888888888822 0.00015 0.026666666666665 0.0028888888888822 0.0003
          0.028333333333331 0.0028888888888822 0 0.028333333333331 0.0028888888888822 0.00015
          0.028333333333331 0.0028888888888822 0.0003 0.03 0.0028888888888822 0
          0.03 0.0028888888888822 0.00015 0.03 0.0028888888888822 0.0003
          0.026666666666666 0.0043333333333224 0 0.026666666666666 0.0043333333333224 0.00015
          0.026666666666666 0.0043333333333224 0.0003 0.028333333333332 0.0043333333333224 0
          0.028333333333332 0.0043333333333224 0.00015 0.028333333333332 0.0043333333333224 0.0003
          0.03 0.0043333333333224 0 0.03 0.0043333333333224 0.00015
          0.03 0.0043333333333224 0.0003 0.026666666666666 0.0057777777777625 0
          0.026666666666666 0.0057777777777625 0.00015 0.026666666666666 0.0057777777777625 0.0003
          0.028333333333333 0.0057777777777625 0 0.028333333333333 0.0057777777777625 0.00015
          0.028333333333333 0.0057777777777625 0.0003 0.03 0.0057777777777625 0
          0.03 0.0057777777777625 0.00015 0.03 0.0057777777777625 0.0003
          0.028333333333334 0.0072222222222063 0 0.028333333333334 0.0072222222222063 0.00015
          0.028333333333334 0.0072222222222063 0.0003 0.03 0.0072222222222063 0
          0.03 0.0072222222222063 0.00015 0.03 0.0072222222222063 0.0003
          0.028333333333334 0.0086666666666559 0 0.028333333333334 0.0086666666666559 0.00015
          0.028333333333334 0.0086666666666559 0.0003 0.03 0.0086666666666559 0
          0.03 0.0086666666666559 0.00015 0.03 0.0086666666666559 0.0003
          0.028333333333335 0.010111111111103 0 0.028333333333335 0.010111111111103 0.00015
          0.028333333333335 0.010111111111103 0.0003 0.03 0.010111111111103 0
          0.03 0.010111111111103 0.00015 0.03 0.010111111111103 0.0003
          0.028333333333336 0.011555555555552 0 0.028333333333336 0.011555555555552 0.00015
          0.028333333333336 0.011555555555552 0.0003 0.03 0.011555555555552 0
          0.03 0.011555555555552 0.00015 0.03 0.011555555555552 0.0003
          0.028333333333337 0.013 0 0.028333333333337 0.013 0.00015
          0.028333333333337 0.013 0.0003 0.03 0.013 0
          0.03 0.013 0.00015 0.03 0.013 0.0003
          0.031601181467612 0.0014508094753802 0 0.03158989866902 0 0
          0.031601181467612 0.0014508094753802 0.00015 0.03158989866902 0 0.00015
          0.031601181467612 0.0014508094753802 0.0003 0.03158989866902 0 0.0003
          0.031612464266204 0.0029016189507591 0 0.031612464266204 0.0029016189507591 0.00015
          0.031612464266204 0.0029016189507591 0.0003 0.031623747064796 0.0043524284261377 0
          0.031623747064796 0.0043524284261377 0.00015 0.031623747064796 0.0043524284261377 0.0003
          0.031635029863388 0.0058032379015163 0 0.031635029863388 0.0058032379015163 0.00015
          0.031635029863388 0.0058032379015163 0.0003 0.031646312661979 0.0072540473768985 0
          0.031646312661979 0.0072540473768985 0.00015 0.031646312661979 0.0072540473768985 0.0003
          0.021356284292895 0.0061182113295331 0 0.020489019208248 0.0065103794253073 0
          0.021356284292895 0.0061182113295331 0.00015 0.020489019208248 0.0065103794253073 0.00015
          0.021356284292895 0.0061182113295331 0.0003 0.020489019208248 0.0065103794253073 0.0003
          0.025 0.0072222222222063 0 0.023816654948859 0.0069324696013164 0
          0.023829479378086 0.0056593315311521 0 0.025 0.0072222222222063 0.00015
          0.023816654948859 0.0069324696013164 0.00015 0.023829479378086 0.0056593315311521 0.00015
          0.025 0.0072222222222063 0.0003 0.023816654948859 0.0069324696013164 0.0003
          0.023829479378086 0.0056593315311521 0.0003 0.018734278863615 0.0068564365277259 0
          0.018734278863615 0.0068564365277259 0.00015 0.018734278863615 0.0068564365277259 0.0003
          0.019611341590458 0.0069319215290848 0 0.019611341590458 0.0069319215290848 0.00015
          0.019611341590458 0.0069319215290848 0.0003 0.022477642087048 0.0055533155338694 0
          0.022477642087048 0.0055533155338694 0.00015 0.022477642087048 0.0055533155338694 0.0003
          0.026666666666667 0.0072222222222063 0 0.026666666666667 0.0072222222222063 0.00015
          0.026666666666667 0.0072222222222063 0.0003 0.026666666666668 0.0086666666666559 0
          0.026666666666668 0.0086666666666559 0.00015 0.026666666666668 0.0086666666666559 0.0003
          0.026666666666669 0.010111111111103 0 0.026666666666669 0.010111111111103 0.00015
          0.026666666666669 0.010111111111103 0.0003 0.026666666666669 0.011555555555552 0
          0.026666666666669 0.011555555555552 0.00015 0.026666666666669 0.011555555555552 0.0003
          0.02666666666667 0.013 0 0.02666666666667 0.013 0.00015
          0.02666666666667 0.013 0.0003 0.033201501647561 0.0014698753983525 0
          0.033179797338052 0 0 0.033201501647561 0.0014698753983525 0.00015
          0.033179797338052 0 0.00015 0.033201501647561 0.0014698753983525 0.0003
          0.033179797338052 0 0.0003 0.033223205957069 0.0029397507967035 0
          0.033223205957069 0.0029397507967035 0.00015 0.033223205957069 0.0029397507967035 0.0003
          0.033244910266578 0.0044096261950543 0 0.033244910266578 0.0044096261950543 0.00015
          0.033244910266578 0.0044096261950543 0.0003 0.033266614576087 0.0058795015934051 0
          0.033266614576087 0.0058795015934051 0.00015 0.033266614576087 0.0058795015934051 0.0003
          0.033288318885596 0.0073493769917596 0 0.033288318885596 0.0073493769917596 0.00015
          0.033288318885596 0.0073493769917596 0.0003 0.031657595460571 0.0087048568522863 0
          0.031657595460571 0.0087048568522863 0.00015 0.031657595460571 0.0087048568522863 0.0003
          0.033310023195106 0.0088192523901195 0 0.033310023195106 0.0088192523901195 0.00015
          0.033310023195106 0.0088192523901195 0.0003 0.031668878259163 0.010155666327672 0
          0.031668878259163 0.010155666327672 0.00015 0.031668878259163 0.010155666327672 0.0003
          0.031680161057755 0.011606475803059 0 0.031680161057755 0.011606475803059 0.00015
          0.031680161057755 0.011606475803059 0.0003 0.031691443856347 0.013057285278446 0
          0.031691443856347 0.013057285278446 0.00015 0.031691443856347 0.013057285278446 0.0003
          <InformationKey name="L2_NORM_RANGE" location="vtkDataArray" length="2">
            <Value index="0">
              0.011720201603
            </Value>
            <Value index="1">
              0.034459060608
            </Value>
          </InformationKey>
        </DataArray>
      </Points>
      <Cells>
        <DataArray type="Int64" Name="connectivity" format="ascii" RangeMin="0" RangeMax="797">
          0 1 2 3 4 5
          6 7 4 5 6 7
          8 9 10 11 12 13
          14 15 16 17 18 19
          16 17 18 19 20 21
          22 23 24 25 26 27
          28 29 30 31 28 29
          30 31 32 33 34 35
          36 37 38 39 40 41
          42 43 40 41 42 43
          44 45 46 47 48 49
          50 51 52 53 54 55
          52 53 54 55 56 57
          58 59 60 61 62 63
          64 65 66 67 64 65
          66 67 68 69 70 71
          72 73 74 12 75 76
          77 16 75 76 77 16
          78 79 80 20 61 81
          82 62 65 83 84 66
          65 83 84 66 69 85
          86 70 87 88 89 90
          91 92 93 94 91 92
          93 94 95 96 97 98
          37 99 100 38 41 101
          102 42 41 101 102 42
          45 103 104 46 81 105
          106 82 83 107 108 84
          83 107 108 84 85 109
          110 86 26 111 112 113
          30 114 115 116 30 114
          115 116 34 117 118 119
          63 120 121 60 67 122
          123 64 67 122 123 64
          71 124 125 68 126 127
          128 129 130 131 132 133
          130 131 132 133 134 135
          136 137 138 72 139 140
          141 75 142 143 141 75
          142 143 144 78 145 146
          150 127 151 152 153 131
          154 155 153 131 154 155
          156 135 157 158 159 160
          161 138 162 163 164 141
          162 163 164 141 165 166
          167 144 120 168 169 170
          122 171 172 173 122 171
          172 173 124 174 175 176
          15 139 72 12 19 142
          75 16 19 142 75 16
          23 145 78 20 177 0
          3 178 179 4 7 180
          179 4 7 180 181 8
          11 182 183 184 726 727
          185 186 728 729 185 186
          728 729 187 188 730 731
          192 193 90 89 194 195
          94 93 194 195 94 93
          196 197 98 97 198 106
          105 199 200 108 107 201
          200 108 107 201 202 110
          109 203 204 13 12 74
          205 17 16 77 205 17
          16 77 206 21 20 80
          207 208 209 210 211 212
          213 214 211 212 213 214
          215 216 217 218 732 733
          734 219 735 736 737 220
          735 736 737 220 738 739
          740 221 222 219 734 223
          224 220 737 225 224 220
          737 225 226 221 740 227
          228 229 170 169 230 231
          173 172 230 231 173 172
          232 233 176 175 234 140
          50 49 235 143 54 53
          235 143 54 53 236 146
          58 57 129 237 238 126
          133 239 240 130 133 239
          240 130 137 241 242 134
          243 244 245 246 247 248
          249 250 247 248 249 250
          251 252 253 254 255 256
          159 234 257 258 162 235
          257 258 162 235 259 260
          165 236 261 262 263 264
          265 266 267 268 265 266
          267 268 269 270 271 272
          273 147 38 100 274 148
          42 102 274 148 42 102
          275 149 46 104 121 276
          277 60 123 278 279 64
          123 278 279 64 125 280
          281 68 282 246 741 283
          284 250 742 285 284 250
          742 285 286 254 743 287
          291 292 82 106 293 294
          84 108 293 294 84 108
          295 296 86 110 99 297
          62 298 101 299 66 300
          101 299 66 300 103 301
          70 302 303 304 147 273
          305 306 148 274 305 306
          148 274 307 308 149 275
          105 204 74 199 107 205
          77 201 107 205 77 201
          109 206 80 203 288 309
          151 282 289 310 154 284
          289 310 154 284 290 311
          157 286 312 313 13 204
          314 315 17 205 314 315
          17 205 316 317 21 206
          99 298 292 100 101 300
          294 102 101 300 294 102
          103 302 296 104 292 298
          62 82 294 300 66 84
          294 300 66 84 296 302
          70 86 151 127 126 243
          154 131 130 247 154 131
          130 247 157 135 134 251
          246 282 151 243 250 284
          154 247 250 284 154 247
          254 286 157 251 100 292
          291 273 102 294 293 274
          102 294 293 274 104 296
          295 275 324 325 297 326
          327 328 299 329 327 328
          299 329 330 331 301 332
          325 63 62 297 328 67
          66 299 328 67 66 299
          331 71 70 301 333 168
          325 324 334 171 328 327
          334 171 328 327 335 174
          331 330 168 120 63 325
          171 122 67 328 171 122
          67 328 174 124 71 331
          312 336 209 337 314 338
          213 339 314 338 213 339
          316 340 217 341 88 256
          255 89 92 258 257 93
          92 258 257 93 96 260
          259 97 342 198 199 343
          344 200 201 345 344 200
          201 345 346 202 203 347
          90 264 348 349 94 268
          350 351 94 268 350 351
          98 272 352 353 354 355
          276 121 356 357 278 123
          356 357 278 123 358 359
          280 125 360 361 333 362
          363 364 334 365 363 364
          334 365 366 367 335 368
          336 277 210 209 338 279
          214 213 338 279 214 213
          340 281 218 217 73 72
          138 161 76 75 141 164
          76 75 141 164 79 78
          144 167 372 14 13 313
          373 18 17 315 373 18
          17 315 374 22 21 317
          168 333 361 169 171 334
          364 172 171 334 364 172
          174 335 367 175 378 361
          360 369 379 364 363 370
          379 364 363 370 380 367
          366 371 381 291 106 198
          382 293 108 200 382 293
          108 200 383 295 110 202
          354 177 178 384 356 179
          180 385 356 179 180 385
          358 181 182 386 37 326
          297 99 41 329 299 101
          41 329 299 101 45 332
          301 103 324 390 362 333
          327 391 365 334 327 391
          365 334 330 392 368 335
          394 393 399 400 396 395
          401 402 396 395 401 402
          398 397 403 404 2 387
          189 405 6 388 190 406
          6 388 190 406 10 389
          191 407 400 399 408 409
          402 401 410 411 402 401
          410 411 404 403 412 413
          414 24 27 415 416 28
          31 417 416 28 31 417
          418 32 35 419 420 87
          90 349 421 91 94 351
          421 91 94 351 422 95
          98 353 199 74 73 343
          201 77 76 345 201 77
          76 345 203 80 79 347
          336 61 60 277 338 65
          64 279 338 65 64 279
          340 69 68 281 426 193
          192 427 428 195 194 429
          428 195 194 429 430 197
          196 431 207 432 433 208
          211 434 435 212 211 434
          435 212 215 436 437 216
          326 438 390 324 329 439
          391 327 329 439 391 327
          332 440 392 330 441 375
          362 390 442 376 365 391
          442 376 365 391 443 377
          368 392 381 303 273 291
          382 305 274 293 382 305
          274 293 383 307 275 295
          348 111 26 25 350 114
          30 29 350 114 30 29
          352 117 34 33 319 444
          309 318 321 445 310 320
          321 445 310 320 323 446
          311 322 432 207 447 448
          434 211 449 450 434 211
          449 450 436 215 451 452
          238 244 243 126 240 248
          247 130 240 248 247 130
          242 252 251 134 140 234
          159 138 143 235 162 141
          143 235 162 141 146 236
          165 144 161 453 343 73
          164 454 345 76 164 454
          345 76 167 455 347 79
          456 457 458 459 460 461
          462 463 460 461 462 463
          464 465 466 467 61 336
          312 81 65 338 314 83
          65 338 314 83 69 340
          316 85 81 312 204 105
          83 314 205 107 83 314
          205 107 85 316 206 109
          468 469 372 337 470 471
          373 339 470 471 373 339
          472 473 374 341 468 337
          209 208 470 339 213 212
          470 339 213 212 472 341
          217 216 474 255 234 49
          475 257 235 53 475 257
          235 53 476 259 236 57
          372 313 312 337 373 315
          314 339 373 315 314 339
          374 317 316 341 152 151
          309 444 155 154 310 445
          155 154 310 445 158 157
          311 446 477 478 139 15
          479 480 142 19 479 480
          142 19 481 482 145 23
          483 484 129 128 485 486
          133 132 485 486 133 132
          487 488 137 136 489 319
          304 303 490 321 306 305
          490 321 306 305 491 323
          308 307 744 741 246 245
          745 742 250 249 745 742
          250 249 746 743 254 253
          492 381 198 342 493 382
          200 344 493 382 200 344
          494 383 202 346 88 495
          159 256 92 496 162 258
          92 496 162 258 96 497
          165 260 498 499 448 447
          500 501 450 449 500 501
          450 449 502 503 452 451
          223 414 415 222 225 416
          417 224 225 416 417 224
          227 418 419 226 354 121
          120 170 356 123 122 173
          356 123 122 173 358 125
          124 176 394 3 2 405
          396 7 6 406 396 7
          6 406 398 11 10 407
          453 161 160 483 454 164
          163 485 454 164 163 485
          455 167 166 487 495 504
          160 159 496 505 163 162
          496 505 163 162 497 506
          166 165 492 489 303 381
          493 490 305 382 493 490
          305 382 494 491 307 383
          264 90 193 261 268 94
          195 265 268 94 195 265
          272 98 197 269 507 508
          184 509 510 511 186 512
          510 511 186 512 513 514
          188 515 237 129 484 516
          239 133 486 517 239 133
          486 517 241 137 488 518
          469 519 520 521 471 522
          523 524 471 522 523 524
          473 525 526 527 457 456
          528 51 461 460 529 55
          461 460 529 55 465 464
          530 59 531 342 343 453
          532 344 345 454 532 344
          345 454 533 346 347 455
          238 183 245 244 240 185
          249 248 240 185 249 248
          242 187 253 252 1 378
          369 423 5 379 370 424
          5 379 370 424 9 380
          371 425 504 484 483 160
          505 486 485 163 505 486
          485 163 506 488 487 166
          453 483 128 531 454 485
          132 532 454 485 132 532
          455 487 136 533 747 726
          184 508 748 728 186 511
          748 728 186 511 749 730
          188 514 478 457 51 50
          480 461 55 54 480 461
          55 54 482 465 59 58
          400 409 384 178 402 411
          385 180 402 411 385 180
          404 413 386 182 420 349
          348 534 421 351 350 535
          421 351 350 535 422 353
          352 536 468 537 519 469
          470 538 522 471 470 538
          522 471 472 539 525 473
          509 184 183 238 512 186
          185 240 512 186 185 240
          515 188 187 242 170 229
          177 354 173 231 179 356
          173 231 179 356 176 233
          181 358 499 498 409 408
          501 500 411 410 501 500
          411 410 503 502 413 412
          540 541 459 458 542 543
          463 462 542 543 463 462
          544 545 467 466 87 546
          495 88 91 547 496 92
          91 547 496 92 95 548
          497 96 228 169 361 378
          230 172 364 379 230 172
          364 379 232 175 367 380
          549 550 276 355 551 552
          278 357 551 552 278 357
          553 554 280 359 478 50
          140 139 480 54 143 142
          480 54 143 142 482 58
          146 145 540 555 556 521
          542 557 558 524 542 557
          558 524 544 559 560 527
          36 441 390 438 40 442
          391 439 40 442 391 439
          44 443 392 440 561 562
          237 516 563 564 239 517
          563 564 239 517 565 566
          241 518 152 444 319 489
          155 445 321 490 155 445
          321 490 158 446 323 491
          567 568 87 420 569 570
          91 421 569 570 91 421
          571 572 95 422 150 492
          342 531 153 493 344 532
          153 493 344 532 156 494
          346 533 477 15 14 555
          479 19 18 557 479 19
          18 557 481 23 22 559
          531 128 127 150 532 132
          131 153 532 132 131 153
          533 136 135 156 24 534
          348 25 28 535 350 29
          28 535 350 29 32 536
          352 33 504 495 546 561
          505 496 547 563 505 496
          547 563 506 497 548 565
          474 192 89 255 475 194
          93 257 475 194 93 257
          476 196 97 259 573 574
          575 427 576 577 578 429
          576 577 578 429 579 580
          581 431 546 582 562 561
          547 583 564 563 547 583
          564 563 548 584 566 565
          561 516 484 504 563 517
          486 505 563 517 486 505
          565 518 488 506 555 540
          458 477 557 542 462 479
          557 542 462 479 559 544
          466 481 550 210 277 276
          552 214 279 278 552 214
          279 278 554 218 281 280
          744 245 183 727 745 249
          185 729 745 249 185 729
          746 253 187 731 210 550
          447 207 214 552 449 211
          214 552 449 211 218 554
          451 215 427 575 585 426
          429 578 586 428 429 578
          586 428 431 581 587 430
          150 152 489 492 153 155
          490 493 153 155 490 493
          156 158 491 494 48 588
          574 573 52 589 577 576
          52 589 577 576 56 590
          580 579 573 474 49 48
          576 475 53 52 576 475
          53 52 579 476 57 56
          562 509 238 237 564 512
          240 239 564 512 240 239
          566 515 242 241 372 556
          555 14 373 558 557 18
          373 558 557 18 374 560
          559 22 534 591 567 420
          535 592 569 421 535 592
          569 421 536 593 571 422
          521 556 372 469 524 558
          373 471 524 558 373 471
          527 560 374 473 178 3
          394 400 180 7 396 402
          180 7 396 402 182 11
          398 404 263 594 595 596
          267 597 598 599 267 597
          598 599 271 600 601 602
          549 355 354 384 551 357
          356 385 551 357 356 385
          553 359 358 386 0 228
          378 1 4 230 379 5
          4 230 379 5 8 232
          380 9 426 585 603 262
          428 586 604 266 428 586
          604 266 430 587 605 270
          582 546 87 568 583 547
          91 570 583 547 91 570
          584 548 95 572 474 573
          427 192 475 576 429 194
          475 576 429 194 476 579
          431 196 262 603 594 263
          266 604 597 267 266 604
          597 267 270 605 600 271
          537 468 208 433 538 470
          212 435 538 470 212 435
          539 472 216 437 36 438
          326 37 40 439 329 41
          40 439 329 41 44 440
          332 45 541 540 521 520
          543 542 524 523 543 542
          524 523 545 544 527 526
          1 423 387 2 5 424
          388 6 5 424 388 6
          9 425 389 10 498 447
          550 549 500 449 552 551
          500 449 552 551 502 451
          554 553 228 0 177 229
          230 4 179 231 230 4
          179 231 232 8 181 233
          507 582 568 606 510 583
          570 607 510 583 570 607
          513 584 572 608 588 48
          51 528 589 52 55 529
          589 52 55 529 590 56
          59 530 609 567 591 610
          611 569 592 612 611 569
          592 612 613 571 593 614
          596 595 615 112 599 598
          616 115 599 598 616 115
          602 601 617 118 414 591
          534 24 416 592 535 28
          416 592 535 28 418 593
          536 32 262 261 193 426
          266 265 195 428 266 265
          195 428 270 269 197 430
          223 610 591 414 225 612
          592 416 225 612 592 416
          227 614 593 418 477 458
          457 478 479 462 461 480
          479 462 461 480 481 466
          465 482 610 747 508 609
          612 748 511 611 612 748
          511 611 614 749 514 613
          549 384 409 498 551 385
          411 500 551 385 411 500
          553 386 413 502 223 734
          747 610 225 737 748 612
          225 737 748 612 227 740
          749 614 596 618 264 263
          599 619 268 267 599 619
          268 267 602 620 272 271
          507 606 609 508 510 607
          611 511 510 607 611 511
          513 608 613 514 582 507
          509 562 583 510 512 564
          583 510 512 564 584 513
          515 566 113 621 27 26
          116 622 31 30 116 622
          31 30 119 623 35 34
          112 615 624 113 115 616
          625 116 115 616 625 116
          118 617 626 119 609 606
          568 567 611 607 570 569
          611 607 570 569 613 608
          572 571 112 111 618 596
          115 114 619 599 115 114
          619 599 118 117 620 602
          113 624 627 621 116 625
          628 622 116 625 628 622
          119 626 629 623 111 348
          264 618 114 350 268 619
          114 350 268 619 117 352
          272 620 27 621 627 630
          31 622 628 631 31 622
          628 631 35 623 629 632
          633 27 630 634 635 31
          631 636 635 31 631 636
          637 35 632 638 639 633
          634 640 641 635 636 642
          641 635 636 642 643 637
          638 644 645 639 640 646
          647 641 642 648 647 641
          642 648 649 643 644 650
          651 415 27 633 652 417
          31 635 652 417 31 635
          653 419 35 637 654 651
          633 639 655 652 635 641
          655 652 635 641 656 653
          637 643 657 654 639 645
          658 655 641 647 658 655
          641 647 659 656 643 649
          660 222 415 651 661 224
          417 652 661 224 417 652
          662 226 419 653 663 660
          651 654 664 661 652 655
          664 661 652 655 665 662
          653 656 666 663 654 657
          667 664 655 658 667 664
          655 658 668 665 656 659
          669 219 222 660 670 220
          224 661 670 220 224 661
          671 221 226 662 672 669
          660 663 673 670 661 664
          673 670 661 664 674 671
          662 665 675 672 663 666
          676 673 664 667 676 673
          664 667 677 674 665 668
          750 732 219 669 751 735
          220 670 751 735 220 670
          752 738 221 671 678 750
          669 672 679 751 670 673
          679 751 670 673 680 752
          671 674 681 678 672 675
          682 679 673 676 682 679
          673 676 683 680 674 677
          684 753 750 678 685 754
          751 679 685 754 751 679
          686 755 752 680 687 684
          678 681 688 685 679 682
          688 685 679 682 689 686
          680 683 690 756 753 684
          691 757 754 685 691 757
          754 685 692 758 755 686
          693 690 684 687 694 691
          685 688 694 691 685 688
          695 692 686 689 696 759
          756 690 697 760 757 691
          697 760 757 691 698 761
          758 692 699 696 690 693
          700 697 691 694 700 697
          691 694 701 698 692 695
          702 762 759 696 703 763
          760 697 703 763 760 697
          704 764 761 698 705 702
          696 699 706 703 697 700
          706 703 697 700 707 704
          698 701 708 645 646 709
          710 647 648 711 710 647
          648 711 712 649 650 713
          765 708 709 766 767 710
          711 768 767 710 711 768
          769 712 713 770 714 657
          645 708 715 658 647 710
          715 658 647 710 716 659
          649 712 771 714 708 765
          772 715 710 767 772 715
          710 767 773 716 712 769
          717 666 657 714 718 667
          658 715 718 667 658 715
          719 668 659 716 774 717
          714 771 775 718 715 772
          775 718 715 772 776 719
          716 773 720 675 666 717
          721 676 667 718 721 676
          667 718 722 677 668 719
          777 720 717 774 778 721
          718 775 778 721 718 775
          779 722 719 776 723 681
          675 720 724 682 676 721
          724 682 676 721 725 683
          677 722 780 723 720 777
          781 724 721 778 781 724
          721 778 782 725 722 779
          783 687 681 723 784 688
          682 724 784 688 682 724
          785 689 683 725 786 783
          723 780 787 784 724 781
          787 784 724 781 788 785
          725 782 789 693 687 783
          790 694 688 784 790 694
          688 784 791 695 689 785
          792 699 693 789 793 700
          694 790 793 700 694 790
          794 701 695 791 795 705
          699 792 796 706 700 793
          796 706 700 793 797 707
          701 794
        </DataArray>
        <DataArray type="Int64" Name="offsets" format="ascii" RangeMin="8" RangeMax="3632">
          8 16 24 32 40 48
          56 64 72 80 88 96
          104 112 120 128 136 144
          152 160 168 176 184 192
          200 208 216 224 232 240
          248 256 264 272 280 288
          296 304 312 320 328 336
          344 352 360 368 376 384
          392 400 408 416 424 432
          440 448 456 464 472 480
          488 496 504 512 520 528
          536 544 552 560 568 576
          584 592 600 608 616 624
          632 640 648 656 664 672
          680 688 696 704 712 720
          728 736 744 752 760 768
          776 784 792 800 808 816
          824 832 840 848 856 864
          872 880 888 896 904 912
          920 928 936 944 952 960
          968 976 984 992 1000 1008
          1016 1024 1032 1040 1048 1056
          1064 1072 1080 1088 1096 1104
          1112 1120 1128 1136 1144 1152
          1160 1168 1176 1184 1192 1200
          1208 1216 1224 1232 1240 1248
          1256 1264 1272 1280 1288 1296
          1304 1312 1320 1328 1336 1344
          1352 1360 1368 1376 1384 1392
          1400 1408 1416 1424 1432 1440
          1448 1456 1464 1472 1480 1488
          1496 1504 1512 1520 1528 1536
          1544 1552 1560 1568 1576 1584
          1592 1600 1608 1616 1624 1632
          1640 1648 1656 1664 1672 1680
          1688 1696 1704 1712 1720 1728
          1736 1744 1752 1760 1768 1776
          1784 1792 1800 1808 1816 1824
          1832 1840 1848 1856 1864 1872
          1880 1888 1896 1904 1912 1920
          1928 1936 1944 1952 1960 1968
          1976 1984 1992 2000 2008 2016
          2024 2032 2040 2048 2056 2064
          2072 2080 2088 2096 2104 2112
          2120 2128 2136 2144 2152 2160
          2168 2176 2184 2192 2200 2208
          2216 2224 2232 2240 2248 2256
          2264 2272 2280 2288 2296 2304
          2312 2320 2328 2336 2344 2352
          2360 2368 2376 2384 2392 2400
          2408 2416 2424 2432 2440 2448
          2456 2464 2472 2480 2488 2496
          2504 2512 2520 2528 2536 2544
          2552 2560 2568 2576 2584 2592
          2600 2608 2616 2624 2632 2640
          2648 2656 2664 2672 2680 2688
          2696 2704 2712 2720 2728 2736
          2744 2752 2760 2768 2776 2784
          2792 2800 2808 2816 2824 2832
          2840 2848 2856 2864 2872 2880
          2888 2896 2904 2912 2920 2928
          2936 2944 2952 2960 2968 2976
          2984 2992 3000 3008 3016 3024
          3032 3040 3048 3056 3064 3072
          3080 3088 3096 3104 3112 3120
          3128 3136 3144 3152 3160 3168
          3176 3184 3192 3200 3208 3216
          3224 3232 3240 3248 3256 3264
          3272 3280 3288 3296 3304 3312
          3320 3328 3336 3344 3352 3360
          3368 3376 3384 3392 3400 3408
          3416 3424 3432 3440 3448 3456
          3464 3472 3480 3488 3496 3504
          3512 3520 3528 3536 3544 3552
          3560 3568 3576 3584 3592 3600
          3608 3616 3624 3632
        </DataArray>
        <DataArray type="UInt8" Name="types" format="ascii" RangeMin="12" RangeMax="12">
          12 12 12 12 12 12
          12 12 12 12 12 12
          12 12 12 12 12 12
          12 12 12 12 12 12
          12 12 12 12 12 12
          12 12 12 12 12 12
          12 12 12 12 12 12
          12 12 12 12 12 12
          12 12 12 12 12 12
          12 12 12 12 12 12
          12 12 12 12 12 12
          12 12 12 12 12 12
          12 12 12 12 12 12
          12 12 12 12 12 12
          12 12 12 12 12 12
          12 12 12 12 12 12
          12 12 12 12 12 12
          12 12 12 12 12 12
          12 12 12 12 12 12
          12 12 12 12 12 12
          12 12 12 12 12 12
          12 12 12 12 12 12
          12 12 12 12 12 12
          12 12 12 12 12 12
          12 12 12 12 12 12
          12 12 12 12 12 12
          12 12 12 12 12 12
          12 12 12 12 12 12
          12 12 12 12 12 12
          12 12 12 12 12 12
          12 12 12 12 12 12
          12 12 12 12 12 12
          12 12 12 12 12 12
          12 12 12 12 12 12
          12 12 12 12 12 12
          12 12 12 12 12 12
          12 12 12 12 12 12
          12 12 12 12 12 12
          12 12 12 12 12 12
          12 12 12 12 12 12
          12 12 12 12 12 12
          12 12 12 12 12 12
          12 12 12 12 12 12
          12 12 12 12 12 12
          12 12 12 12 12 12
          12 12 12 12 12 12
          12 12 12 12 12 12
          12 12 12 12 12 12
          12 12 12 12 12 12
          12 12 12 12 12 12
          12 12 12 12 12 12
          12 12 12 12 12 12
          12 12 12 12 12 12
          12 12 12 12 12 12
          12 12 12 12 12 12
          12 12 12 12 12 12
          12 12 12 12 12 12
          12 12 12 12 12 12
          12 12 12 12 12 12
          12 12 12 12 12 12
          12 12 12 12 12 12
          12 12 12 12 12 12
          12 12 12 12 12 12
          12 12 12 12 12 12
          12 12 12 12 12 12
          12 12 12 12 12 12
          12 12 12 12 12 12
          12 12 12 12 12 12
          12 12 12 12 12 12
          12 12 12 12 12 12
          12 12 12 12 12 12
          12 12 12 12 12 12
          12 12 12 12 12 12
          12 12 12 12 12 12
          12 12 12 12 12 12
          12 12 12 12
        </DataArray>
      </Cells>
    </Piece>
  </UnstructuredGrid>
</VTKFile>
