<?xml version="1.0"?>
<VTKFile type="UnstructuredGrid" version="0.1" byte_order="LittleEndian" header_type="UInt32" compressor="vtkZLibDataCompressor">
  <UnstructuredGrid>
    <Piece NumberOfPoints="798" NumberOfCells="454">
      <PointData>
        <DataArray type="Int32" Name="libmesh_node_id" format="ascii" RangeMin="2250" RangeMax="5441">
          2250 2251 2252 2253 2254 2255
          2256 2257 2258 2259 2260 2261
          2274 2275 2276 2277 2278 2279
          2280 2281 2282 2283 2284 2285
          2298 2299 2300 2301 2302 2303
          2304 2305 2306 2307 2308 2309
          2328 2329 2330 2331 2332 2333
          2334 2335 2336 2337 2338 2339
          2352 2353 2354 2355 2356 2357
          2358 2359 2360 2361 2362 2363
          2376 2377 2378 2379 2380 2381
          2382 2383 2384 2385 2386 2387
          2424 2425 2426 2427 2428 2429
          2430 2431 2432 2445 2446 2447
          2448 2449 2450 2451 2452 2453
          2454 2455 2456 2457 2458 2459
          2460 2461 2462 2481 2482 2483
          2484 2485 2486 2493 2494 2495
          2496 2497 2498 2535 2536 2537
          2538 2539 2540 2541 2542 2543
          2544 2545 2546 2547 2548 2549
          2562 2563 2564 2565 2566 2567
          2568 2569 2570 2571 2572 2573
          2604 2605 2606 2607 2608 2609
          2610 2611 2612 2615 2619 2623
          2625 2626 2627 2628 2629 2630
          2631 2632 2633 2664 2665 2666
          2667 2668 2669 2670 2671 2672
          2787 2788 2789 2790 2791 2792
          2793 2794 2795 2820 2821 2822
          2823 2824 2825 2850 2851 2854
          2855 2858 2859 2880 2882 2884
          2886 2887 2888 2889 2890 2891
          2892 2893 2894 2895 2896 2897
          2898 2899 2900 2928 2929 2930
          2931 2932 2933 2934 2935 2936
          2937 2938 2939 2972 2975 2978
          2979 2980 2981 2982 2983 2984
          2985 2986 2987 2988 2989 2990
          3078 3079 3080 3111 3112 3113
          3114 3115 3116 3129 3130 3131
          3132 3133 3134 3135 3136 3137
          3138 3139 3140 3141 3142 3143
          3144 3145 3146 3147 3148 3149
          3150 3151 3152 3153 3154 3155
          3156 3157 3158 3159 3160 3161
          3162 3163 3164 3165 3166 3167
          3186 3188 3189 3191 3192 3194
          3259 3261 3263 3342 3343 3344
          3345 3346 3347 3435 3436 3437
          3438 3439 3440 3447 3448 3449
          3450 3451 3452 3513 3514 3515
          3519 3520 3521 3522 3523 3524
          3537 3538 3539 3540 3541 3542
          3714 3715 3716 3717 3718 3719
          3720 3721 3722 3792 3793 3794
          3822 3823 3824 3825 3826 3827
          3828 3829 3830 3831 3832 3833
          3855 3856 3857 3858 3859 3860
          3867 3868 3869 3870 3871 3872
          3873 3874 3875 3876 3877 3878
          3879 3880 3881 3883 3886 3889
          3921 3922 3923 3957 3961 3965
          4065 4066 4067 4077 4078 4079
          4086 4087 4088 4119 4120 4121
          4191 4192 4193 4206 4207 4210
          4211 4214 4215 4224 4225 4226
          4227 4228 4229 4251 4252 4253
          4260 4261 4262 4263 4264 4265
          4275 4276 4277 4278 4279 4280
          4296 4297 4298 4347 4348 4349
          4401 4402 4403 4404 4405 4406
          4407 4408 4409 4410 4411 4412
          4413 4414 4415 4431 4432 4433
          4452 4453 4454 4461 4462 4463
          4464 4465 4466 4533 4534 4535
          4551 4552 4553 4554 4555 4556
          4557 4558 4559 4560 4561 4562
          4590 4591 4592 4593 4594 4595
          4608 4609 4610 4617 4618 4619
          4620 4621 4622 4623 4624 4625
          4626 4627 4628 4629 4630 4631
          4665 4666 4667 4668 4669 4670
          4680 4681 4682 4683 4684 4685
          4719 4720 4721 4728 4729 4730
          4731 4732 4733 4734 4735 4736
          4752 4753 4754 4761 4762 4763
          4764 4765 4766 4767 4768 4769
          4773 4774 4775 4785 4786 4787
          4869 4870 4871 4881 4882 4883
          4887 4888 4889 4890 4891 4892
          4893 4894 4895 4917 4918 4919
          4920 4921 4922 4926 4927 4928
          4929 4930 4931 4962 4963 4964
          4965 4966 4967 4971 4972 4973
          4974 4975 4976 4995 4996 4997
          4998 4999 5000 5001 5002 5003
          5004 5005 5006 5022 5023 5024
          5031 5032 5033 5037 5038 5039
          5046 5047 5048 5049 5050 5051
          5052 5053 5054 5058 5059 5060
          5064 5065 5066 5067 5068 5069
          5070 5071 5072 5076 5077 5078
          5082 5083 5084 5085 5086 5087
          5091 5092 5093 5097 5098 5099
          5100 5101 5102 5106 5107 5108
          5109 5110 5111 5112 5113 5114
          5115 5116 5117 5118 5119 5120
          5121 5122 5123 5124 5125 5126
          5127 5128 5129 5130 5131 5132
          5133 5134 5135 5136 5137 5138
          5139 5140 5141 5142 5143 5144
          5145 5146 5147 5148 5149 5150
          5154 5155 5156 5157 5158 5159
          5163 5164 5165 5166 5167 5168
          5172 5173 5174 5175 5176 5177
          5181 5182 5183 5184 5185 5186
          5190 5191 5192 5193 5194 5195
          5196 5197 5198 5199 5200 5201
          5250 5251 5252 5277 5278 5279
          5304 5305 5306 5331 5332 5333
          2852 2853 2856 2857 2860 2861
          2970 2644 2971 2973 2647 2974
          2976 2650 2977 3187 3190 3193
          4662 4663 4664 3270 3271 3272
          5151 5152 5153 5160 5161 5162
          5169 5170 5171 5178 5179 5180
          5187 5188 5189 5202 5203 5204
          5205 5206 5207 5253 5254 5255
          5280 5281 5282 5307 5308 5309
          5334 5335 5336 5358 5359 5360
          5361 5362 5363 5385 5386 5387
          5412 5413 5414 5439 5440 5441
        </DataArray>
        <DataArray type="Float64" Name="resid_x" format="ascii" RangeMin="-3.9898196780252384" RangeMax="3.8993669816248158">
          0.004107552205732112 0.0019272457964616407 -0.003782901407505035 -0.013325570961926658 -0.010958265717279758 -0.005483503581653615
          -0.01452617874329254 -0.029976283254035785 -0.025039684424442044 -0.01679002878622704 -0.018689383460890108 -0.03355211583198958
          -0.001383321424937023 0.003538644569544225 0.004066102650502668 0.0030830344623691275 -0.007929321247281962 -0.005831382666795282
          -0.003498842961617621 -0.012520972647181328 -0.04148229269133452 -0.037032121378830496 -0.035576131580346004 -0.045788490634053325
          -0.023493146365187734 0.004108772514140213 0.0442625912325294 0.011535934795738001 -0.0178700073848157 0.0032478536395137425
          0.062152117000152884 0.005504066570230393 -0.024057680102398393 -0.005251414119464393 -0.0188931763165332 -0.06837669538375479
          0.02376712585227203 -0.018672690835142447 0.002163634993734176 -0.013189716664256945 0.018052027541198612 -0.005068735026141802
          -0.00987016053021339 -0.03818192977483781 -0.029294714135366107 -0.026404771327176668 -0.04530889057247456 -0.0448941187800993
          -0.006423715970830024 -0.004963711357291345 0.0027940127021999217 0.0036467240179813842 -0.006008609780494112 -0.007437247168086358
          -0.020099542283873895 -0.009419870814186382 -0.03531350217220641 -0.04059406178904279 -0.05654628295239217 -0.04547802856451266
          -0.006966960107828157 -0.0026136560794807195 0.0029768892291315296 0.005046683871358759 -0.013805063565707876 -0.013681671375097793
          0.0027332396898556155 -0.005763993892997199 -0.035691040881648206 -0.04672358904047247 -0.045672008468971015 -0.03970911745628758
          -0.024816406517078615 -0.003939777865824112 -0.010686924276848586 -0.01775118189668623 -0.007398834563951073 -0.01681655386534997
          -0.05220111597551913 -0.0480258662422508 -0.050609729337857345 -0.021514004750583737 -0.019110465630455487 -0.009729791958086764
          -0.01328400017743192 -0.0452312855945749 -0.04554343253001747 -0.0020667322391907383 -0.002566213624257019 0.013111307007803497
          0.01662609583840302 -0.007979728684626153 -0.014426605093308842 0.010916373823235404 0.0007778831027815958 -0.05627636048562934
          -0.0537693585747564 -0.04874243645201659 -0.07789755307827462 -0.022020106514588633 -0.028606313776046832 0.0020778094089086707
          -0.034107419453015986 -0.023666093712537695 -0.044889648603321675 -0.03054729570573045 -0.010134930139423126 -0.008174307478800102
          0.007862666213598768 -0.03358762237758661 -0.0321484194540016 -0.023145168562329843 0.0010438140699422505 -0.004894822637427687
          -0.013051578617183424 0.001459365855472683 -0.01956844330817109 -0.025386841726838583 -0.023613205211495902 -0.03509110771273072
          -0.01446955514455417 -0.011969199655890606 -0.009563850022918263 -0.007446018760246531 -0.0246361995414357 -0.027269845277602123
          -0.0014110781395899608 0.010668709211067995 0.0015135735856031118 0.012089264528395205 -0.014165332225819505 -0.029791581221414898
          -0.008212074019498417 0.0009281371654044079 -0.048161986516412014 -0.0891267969438676 -0.056474474592581814 -0.03962158625562928
          -0.02929724565910874 -0.045388826778745894 -0.023746253874928236 -0.008703367140524776 -0.0239957547819305 -0.016829443935573174
          -0.04172711162820253 -0.04720816967503616 -0.043309483853081865 -0.037321152553069226 0.042058834706850234 -0.006571351511290402
          -0.019750689477846528 -0.007726949595249444 -0.0862474292389146 -0.02273207096238572 0.04885296984195886 -0.07023906967030857
          -0.06673740079371893 -0.007175853963539147 -0.030540182236577618 -0.0353412406764555 -0.009424351362426808 -0.025367653710926863
          -0.005671701809298657 -0.0024728860588183466 -0.010514600437148136 -0.04663046727819031 -0.04125561497356944 -0.053927488076274344
          -0.012707366803678788 -0.0020730369458652476 -0.008646815923081252 -0.0015429618802622613 0.0038343795001036796 -0.0012004364191886552
          -0.02159052206758627 -0.01140326936117031 -0.014965115869577161 -0.0187307637351386 -0.006318969711484712 -0.017275535993554803
          0.008056857734636935 -0.02168369835319517 -0.00938617589005375 -0.01880934358333164 -0.01684268917696663 -0.03874132880461456
          -0.0870179961608919 -0.02548706694192404 -0.10246913933622892 -0.00634858842085162 -0.018173291732484387 -0.01428632193857382
          -0.010380779440468224 -0.008951131764289855 -0.0028580103614190833 -0.018316385457945117 -0.04610845982393297 -0.05223858879465837
          -0.008246170106466888 -0.037194000137820815 0.015408247161224686 -0.01129389652196533 -0.024049557563620816 -0.03260556858996555
          -0.045728283662374025 -0.02112445861612322 -0.043228646306539886 0.00029755812919507463 0.002945326507970414 0.0044145655505527515
          0.003032702674908627 -0.005124066534465399 -0.002991955043632366 0.0005063552718960196 -0.007082782194129056 -0.029109816740873207
          -0.030215326203077097 -0.0341614544489266 -0.033684942755521696 0.0351562219479824 0.05535394908129021 -0.022533034607031155
          -0.09615353060491216 -0.12872386011911274 -0.1792592450002637 -0.17632891310714172 -0.12070774725161648 -0.16583824743665332
          -0.010821251743842408 -0.02088583559429047 -0.013016708665551713 -0.00672346849802441 -0.02126135350661973 -0.010357406047510231
          -0.038525254141890564 -0.006173630744597425 -0.04343737715559293 -0.03157286480761101 -0.04065385926055054 -0.004837153638215241
          -0.0029580464704226372 -0.029279503222928938 -0.03144441530239028 0.006076894749182493 -0.02700773349171648 -0.0288110814239122
          -0.019556722509973312 0.044565292097266784 -0.000866043573884312 -0.034509037614498084 -0.007718479808920264 -0.015430771016662348
          -0.00529580251178885 -0.02734470856555049 -0.06937408360397868 -0.05175837949438655 -0.0620484229547531 -0.012672108792083137
          -0.013392070153598112 -0.025959767709310633 -0.015602579594778065 -0.022730559498629788 0.0015129424790414348 0.006052452658989793
          -0.030395605675172632 -0.01642879928015617 -0.003013478907393896 -0.014981870031330224 -0.018104497564978672 -0.022523108685164495
          -0.02242393063542858 -0.03659857443062453 -0.051070705524203674 -0.029597243781978477 -0.03592576907642542 -0.04303632122539014
          -0.011737820422719203 -0.01834569903875094 -0.003682953997249605 -0.014556460085431766 -0.019278318041922482 -0.03525153573586426
          0.08473065950626957 -0.18157640234664196 0.06153159317199197 -0.37095599640490384 -0.052534615357444636 -0.2233891665397616
          0.14472921519640014 0.29538276124767293 0.06739077362929446 -0.027177375571936224 0.002277293154048232 -0.006436362923762484
          0.013160447522194474 -0.03231364877369236 -0.02758518875489635 -0.019529201257311557 -0.016097203487802858 -0.0018424276523463234
          0.00017767407474966745 -0.03338491683441813 -0.01954531918375313 -0.004687598853852393 -0.013166507893421553 0.06307181763936409
          -0.16848525948295467 0.008027310339016935 -0.052111049580937596 -0.057334055142317375 -0.0009418974048109874 -0.035251944753272646
          -0.035790813844824854 -0.02173321917316784 -0.014380594284941317 -0.01849270214434018 -0.042194285251087926 -0.02645745770587027
          0.09345606655308814 -0.061175500661033944 0.02597272529708583 -0.1411145727005767 -0.10184592594965736 -0.17907266466625948
          -0.006365444421559618 -0.026921083210296626 -0.016021314979348444 -0.0014340307003621877 -0.010190710974337325 -0.008394441745207759
          -0.006229735408753045 -0.024950785532733555 -0.02516363182978809 -0.016371553489495483 -0.012387048833959469 -0.017784242641231574
          -0.03896427848977435 -0.02732509756657464 -0.013233015813189475 -0.0005975863653580049 -0.040362781760843625 -0.02967092191012277
          -0.012854418118139588 -0.03628681591698246 0.013185904654310132 -0.011036512817505617 -0.030836163150115947 -0.04102799641582067
          -0.05686326142979259 -0.03410610360037403 -0.005347324500750483 -0.008885702388941041 -0.02488998517289076 -0.027323379269066805
          -0.020409036639916778 -0.012048332580521404 -0.007833351697939417 -0.010521112255887921 -0.025322110111433815 -0.012849830381648886
          -0.009061532936716077 -0.017218253657296678 -0.011867222377610176 -0.011949118718231233 -0.004673700624694521 0.006293714336440104
          -0.009011470722517956 -0.015393955711973772 -0.008222501946248073 -0.004846672567330401 -0.0002629940794633967 -0.004315422284015824
          -0.028387439138830572 -0.0032014476041761775 -0.03466060486954703 -0.020694386763731476 -0.02657746793913418 -0.012792910782676525
          -0.012580774626753222 -0.0019087135581994374 -0.004517371398704562 -0.048498319786293376 -0.005142142333026012 -0.03166955678560912
          -0.01025444267324227 0.013798974893693305 -0.010938668174605759 -0.013055976666956681 -0.008106203653394317 -0.0014384154610107558
          -0.012589778665129447 -0.003157948069381966 -0.014903922345250287 0.0005437433014003901 -0.017275145325363894 0.0034969034232030793
          -0.048963602416908 -0.0012214282607310167 -0.0496976986767379 -0.0017511377692072116 -0.008872089414282858 -0.010464229089632404
          -0.01994246657343357 -0.016711232327160097 -0.028355739988473516 -0.015556651033984181 -0.026659648795538615 -0.005349778850272102
          -0.01948936180100347 -0.028116223681672103 -0.0053229816875033364 0.0009904001093188342 -0.008674095221877565 -0.013793695606703515
          -0.06548554656446903 -0.005317809153355668 -0.08937459428763539 0.015073097614555664 -0.06794330072203891 -0.062175101345186334
          -0.05835254935389145 -0.03483752369175974 -0.05150193625092392 -0.017646925752267784 -0.025104587455420102 -0.014392947778940623
          -0.024604700660193046 -0.013059194964844423 -0.016317614492167287 0.006461576064903163 -0.03411882954308432 -0.023198695391632995
          -0.007153889992300044 -0.007421769611104523 -0.00511791440061149 -0.004452688321892495 -0.016244111002001738 -0.0158709459699935
          -0.02247145656026106 -0.043523982050653665 -0.023101252366640956 -0.008567070197752713 0.000767860168677359 -0.005327252179114339
          -0.10813746265654678 -0.03347313311620903 -0.011243240682046629 -0.012942798932877864 -0.004962040092456377 -0.012939195375686552
          -0.005814543559813146 -0.02878564508169834 -0.015092404344977162 -0.034521580348409575 -0.012235109391609988 -0.04443957560897749
          -0.008397506382969766 -0.025087253417527933 -0.0009118537009902283 0.004449011919480661 -0.008856868681246688 -0.01911912487616707
          -0.0034276080750803573 0.0020198110994442686 -0.018387814638750832 -0.041342742743622374 -0.02430953828718696 -0.013688279201385711
          -0.02843427643889207 -0.004929157015930663 -0.014090215123833794 0.0026026891218062786 -0.03587444754900826 -0.022106312924582205
          -0.0655002310170909 -0.027437422713392223 -0.04577897417100818 -0.02460608213555382 -0.05162246181818464 -0.013440081449082264
          -0.0315518365368499 -0.030432578747622507 -0.04395997778364169 -0.03417083725960168 -0.018610773584399 -0.007285982673664648
          -0.0239658431717249 -0.03909119060108068 -0.038136972350730325 -0.07555681942968828 0.020709547242968362 -0.006500461386888645
          -0.053010658246225084 0.003220856352330159 -0.026345279487192563 -0.04903180066015317 -0.021256157649137686 -0.04665470351095602
          -0.019022478336080617 -0.01118322405984884 -0.0013453814065358394 -0.008237313756915832 -0.010431966894296263 -0.00869030845491281
          -0.045886471271292084 -0.007519046172790311 -0.03195583985029016 0.022503816508521624 -0.05725827444018439 -0.030146530074390387
          0.07230284725201663 -0.13067947493360688 -0.002150022362295445 0.039118632966106404 -0.07070844533581844 -0.018420659600876466
          -0.03516068062855604 -0.006433620392560679 -0.01538072848095351 -0.004680159054212929 -0.0020555504597239427 -0.015477675140852298
          -0.0008166835935261574 -0.0027745972524861884 -0.009144162001548217 -0.01579932296354869 -0.014714038459645362 -0.025019726732200098
          -0.02439764087453966 -0.01723751588660072 -0.023845832690008173 -0.040168555738735456 -0.003507846718587171 -0.0421466334278251
          -0.07958751445104184 -0.03785482715617228 -0.021387593854029774 -0.023338184523638894 -0.014915030461227552 -0.0179239939343816
          -0.03512200897298712 -0.019369200801669706 -0.01320632027722235 -0.008972862814053961 -0.025712415620988693 -0.015490814213218407
          -0.03902166193049972 -0.0037364457295243625 -0.03584462833645574 -0.016684040857958493 -0.025649529022339745 0.0012267677392738818
          -0.014591371496472494 -0.010933508376381518 -0.023522716496338525 -0.03211273887652677 -0.02738151841544756 -0.011814355859197434
          -0.011990362584567649 -0.024854996074460622 -0.015296248990942729 -0.04118368046583143 -0.04163713564144622 -0.0056227061440417
          -0.00359556482687573 -0.015423015395726658 -0.020368080154966606 -0.02189198173263307 -0.02134568649836943 -0.001152688832640969
          -0.009971662316388574 -0.02806653405350623 -0.03338974304102038 -0.05814793257904505 -0.01299531956665323 -0.008642219360634584
          -0.029997256046004672 -0.005738412094228096 -0.00008495124295304635 -0.04591868924476916 -0.01730687125474173 -0.012148495722876795
          -0.05604160012210002 -0.001827060536071734 -0.02401078962500547 -0.019326395502095473 -0.0052713410445335285 -0.015644635149311803
          -0.02502970899268231 -0.0006588069186141965 -0.013351297143001872 -0.09777500688039531 -0.049727782299761714 -0.053425961204618844
          -0.0013414293160769475 -0.009490738812353072 -0.03801516541344352 0.0025880923928234267 -0.006626320623023929 -0.0155245927604315
          -0.010189229909768116 -0.013886158458507936 -0.027942184960612515 -0.019136321729695815 -0.0041798104836381356 -0.008396923329474504
          -0.03050404338723922 0.03413596809452635 0.02187006152220672 -0.026605156858581225 0.1224367501944279 0.006508306837702094
          0.232370310904086 0.01758258287638359 0.0947774428559125 -0.01464977534391032 -0.0032137476272637855 -0.011454836618752573
          -0.053643426056206645 -0.02087736451798139 -0.02550515678358023 -0.10211006936239997 0.030583102876549972 -0.02156622161546906
          -0.014645086748875435 -0.001740532483446522 0.004847477601066075 -0.027989658402926665 0.022075388797171414 -0.0036780553127035986
          0.0622799282445321 0.05732676545354032 -0.0502094463924756 -0.05318675562291375 -0.03464603440560232 0.03253632946307228
          0.06950963876095173 0.07369253396119113 0.058054283775600624 0.048290586920247236 0.028111912782058823 0.03642689142246702
          0.029412134345038865 0.018550417756051374 0.028804548562867183 1.9809333447905608 1.5269638679614665 3.8993669816248158
          2.9942757998159966 2.044190510273996 1.5849467291745682 -0.010256574173576283 0.022444109336079876 -0.011220720441718512
          0.00486877591190904 0.04248719373931564 0.036696171801336774 0.2689281926798621 0.550620074185975 0.3126436210717678
          -0.10353110422421707 -0.2120512496928697 -0.12519299005278484 -0.10927267657096706 -0.1825015164945043 -0.08229683643705421
          -0.055783886779851244 -0.06420031148680216 -0.03800551635548821 -0.0807605213773197 -0.017474263331852313 0.021369182440992063
          -0.1037491236539072 -0.1497256809874532 -0.09202889485990973 -0.03653947467979002 -0.05425964567600694 -0.033378096816255365
          0.08833756810250648 0.20123017113409247 -0.007084214628351404 0.07279318592457962 0.19052339432255927 0.1011668060915838
          0.022064777527184276 0.026767090370350743 -0.08244124034086653 -0.0506989626131471 -0.11184737835277048 -0.047973611901865
          0.1043403122890858 0.21114811876992157 0.07797972070714998 -0.14776480396560565 -0.2481360364551417 -0.057132847258115405
          0.9073042938954732 1.822020869075489 0.9401151940898025 -1.0866425096783665 -2.1644842971611666 -0.9546134600353238
          0.4813587150831289 0.9768392922173827 0.481537034564532 -0.46177735485194127 -0.9038752578175089 -0.445468849612368
          -2.0128656266305835 -1.4819545659213667 -3.9898196780252384 -2.9490645481231947 -1.9941328240470497 -1.4734113737335086
          -0.283418237262282 -0.5603092140902195 -0.2767839418272082 0.021003399199912565 0.0493173884117617 0.1249102739614294
          0.014946536368396934 0.062214957869771936 0.20671347040474508 0.00588307077141792 0.053252689310676615 0.07989036331252741
          0.026770810494330277 -0.04026575843329283 0.04316980180176344 -0.05837632663995862 -0.08219711671560681 -0.01542576097360282
          0.24484289190015573 -0.036320846902404114 -0.7933316779711017 0.5429197481663994 -0.10243087579157617 -1.1773959375062262
          0.15682411355210846 -0.07579023644835026 -0.5011215346424454 -0.06056152472557841 -0.06580007604244997 -0.025143254089520894
          -0.02527158579872779 0.020535600889934003 0.0018170148276226428 0.7850128462229886 1.0806884848793459 0.5092129616559866
          -0.2536870453252842 -0.44316818352891474 -0.07721084579019255 -1.2898477304329248 -2.538947295412278 -1.2970677936757617
          -0.4479545931430593 -0.8612118176813652 -0.4677703443141823 0.042507580948424106 0.14160075684922901 0.09187826419600498
          0.04246851464369783 0.14528082973215461 0.11416006359564967 0.00015565783157001079 0.0006225060493054713 0.00020807033994429958
          0.0015898957595403829 0.01051329467076556 0.004111191027714511 0.0007007931909441822 0.002463474542899746 0.009300461399156745
          -0.050238400096993985 -0.09918136515869236 0.012666256785706764 0.46538266458062694 0.9044930242822815 0.5498714806301734
          0.1538811563507494 0.2523316426677127 0.14079931784360156 -0.12696483380681478 -0.22246279645845846 -0.061719457554403334
          0.0030716940048591823 -0.032695947667356506 0.02855463249175827 0.06508892350695916 0.01286580890538147 -0.023674748943900426
          0.1275694781304182 0.047307909741462595 -0.12658541639472887 0.07462917541875314 0.005342981166137406 -0.07664497042720164
        </DataArray>
        <DataArray type="Float64" Name="resid_y" format="ascii" RangeMin="-7.415204816138985" RangeMax="3.144943544227313">
          -0.000469429506961494 -0.001001644100132159 0.014871298615556 0.005598059241434111 0.0032331261506568093 0.0033701276243884477
          0.01842059188335915 0.007930407670286715 0.004844288708268682 0.005181592599557819 0.006084565734313457 0.0008674994715800466
          0.0019602379988254703 0.0010095554706178733 0.0005919401220753628 0.0013243906327011223 0.003098970383956262 0.00043613526566937955
          0.004492355165184758 0.007311756174689099 0.004189758169537219 0.003434908339307763 0.00516694004466034 0.00553631488752937
          0.023236975107264968 0.005488440648412807 -0.013107560388280426 0.014811396968218205 0.031900742514494373 0.0066219082882198466
          -0.037289501771029965 0.023403540386681243 0.0029050570615067883 0.0008631978055075873 -0.02827069484930589 -0.0069147970538523396
          0.0026103173161069193 0.007958134135808564 0.0003688004972944442 0.00935731621565987 -0.001968984074526503 0.008689177278481647
          0.006776349620147226 0.022454626241921377 0.005743060382053633 0.006254910052943902 0.011746952568204932 0.021938169987241546
          0.0024367776697765686 0.002435762972705119 0.0008375342550630549 -0.0019381807329333645 0.0022650443488260175 0.001758579608817916
          0.001304483658394029 -0.008558770797179982 -0.0022828243389330094 -0.0018337535455511533 0.000909416198226598 -0.0025167959635184894
          0.005160173444731908 0.006058587686805228 0.003768948638193881 -0.0002713112815634078 0.011097429561915284 0.01087322473507274
          0.0062643483421591095 0.0016149068890719542 0.008162672480338445 0.008408646817967824 0.00743392080421082 0.0010148647183701731
          -0.006514278511102922 0.00032214917162681767 0.009202503419492303 0.002628120999983441 0.011546781401558293 0.006961677247140308
          0.007464521640879629 0.015477529926627542 0.01014776700162301 0.003392832136384305 -0.005102732141304106 0.01353572124264163
          0.00965617987748485 0.01163485490987698 0.013485058816614603 -0.00614060200774369 -0.0006489413865665705 -0.004666349484522492
          0.0006962280283859812 -0.013952870212064039 -0.004445454041276109 -0.01092174648925559 0.0039716715405073155 -0.01235998327377441
          -0.009504313392178831 -0.005650786939285668 -0.006876467402424591 0.01260587005524999 0.007831759280090916 0.006470896623783223
          0.0025715332994324935 0.006242472959073098 0.0080168249093025 0.005214327948324923 -0.004127743244599663 0.011889938052594223
          0.009663932954731697 0.009996709461041073 0.013803795485426845 -0.013260929231495522 -0.0022450292104317926 -0.007056458949899425
          -0.005516309307449618 0.006659668645420558 -0.00043259183479277263 -0.00294620177517807 0.006110242665430199 0.004304526311792123
          -0.0038450554188937114 -0.005499032067480564 -0.0021977798802433612 0.0011782293316077407 0.001393121216040738 0.0025875466645209518
          0.0047977811795155145 0.004484417344531533 -0.00012172191420574408 0.00010340156991354987 0.0059666688405025925 -0.0011818882980244028
          0.0049386713424821455 -0.00022461395118480998 0.0074450890435127925 -0.0007801502969570773 0.007730476454491889 0.0001650043498117315
          -0.0006536116167526196 0.013291439651758413 0.017053716739125147 0.0023974753170863394 0.012927001489780349 0.013105885787640714
          0.0023707773084064576 0.004919871448106933 0.0014717405167532505 -0.010855026610337326 -0.02672307413793884 0.003970447093648188
          0.004033815995564072 0.015226156254833687 0.003463295191141552 0.0027587480335924675 0.04341020903959779 0.020835114923543244
          0.002042156523959837 0.08666256077344034 0.03827759191980286 -0.0071405871326019055 -0.011409133987360709 0.0004942996712474224
          -0.0032263003162507076 -0.004222836584626688 0.008547772983410251 -0.0025920953659651635 0.006904085950960481 0.009826058894633949
          0.0057107255238787735 0.0026208681602593042 -0.002073228787915049 0.008484215500291131 0.0024608856966272796 0.006247751377190969
          0.002677952849516052 0.0018145951451790862 0.005880047239300884 -0.0026091835175622163 0.0008011432732714929 0.0013472656911038688
          -0.004090679171316558 0.004598835440864646 -0.0012319927263552133 -0.0027505992443803695 0.017018032338202205 -0.0049308431080753445
          0.02248859382200019 -0.006713474648458062 -0.0030912849274600807 -0.008129337199678847 -0.02082526464261619 -0.01553639177002484
          -0.007856278621311774 -0.004130670963476999 0.0010139716599857351 -0.0007163338275698386 0.0006495441941141156 -0.004582196021427717
          -0.003413289714988166 0.013955262282403763 0.008084339042210092 0.018229601358958153 0.009214619150487768 0.011619744379454067
          0.01634364607640973 0.01016665656599526 0.005827952266384273 0.0013915733809887892 -0.000741478684114949 0.00009887921890988638
          0.003056253220909952 0.002789157494499435 0.0007696592605676011 -0.0020791361080654824 0.007615707520081796 0.002920429628737606
          0.0022271590358153848 0.0026354380533111788 0.004785407098761796 -0.03714842459242995 -0.06324176462379283 0.014612383785545635
          -0.01714199065095956 -0.22200010001059622 0.021549821300044236 -0.15448293244088018 -0.0030242617039535347 0.006398270602149925
          0.00047147498305842583 0.0001273250971297185 0.005318708898636587 0.005325882616661379 0.00557773248189064 0.003922642406651383
          0.0023795800830438835 0.0030361472066432194 0.0014655408682853963 0.005055826141217912 -0.01582126116409216 0.006366107296283605
          -0.003665057314040654 0.0023041552451919384 0.007454289093162952 -0.009447498478771955 0.0011586026954081563 0.004381678291119351
          -0.022067520847979694 -0.0005921005982126044 0.01109396780334218 -0.0036694417737417606 -0.04591251010226027 0.030537730897738383
          0.01450556776234171 -0.0023954339159735216 -0.015975033512237308 -0.006126287523411295 -0.006539559752435364 0.00015307766984497262
          -0.0056429141179449305 -0.0014752508483667076 -0.004753273761923138 0.0011729589220310643 0.0029943383308439486 -0.0037283559638786844
          0.008980938517978723 -0.007772485011485641 -0.0008147016539158392 -0.01431043961674848 -0.008557535543541148 -0.008300491813494515
          -0.004427057629468378 -0.01272581304333327 -0.015306884922550529 0.008199852397746399 0.022896966612898473 0.015046465968777206
          0.007248618932387818 0.018712082286021434 0.008522375378138436 0.018310435336351488 0.002457618379547083 0.00715723455843198
          -0.09136843145420717 0.06003166059693457 -0.1442931786854324 0.05297146437342664 -0.02148104572962556 -0.019372145063428478
          0.042429401897104674 0.0882582565974291 0.04807989519836092 0.023568636322880233 0.019508545469740672 0.022472487421333745
          0.011943123537240093 0.0016119550808427474 0.0024348909628356258 0.009576116172145384 0.012676467095613875 0.008649091539234793
          0.004427134221401785 0.006123718621591556 0.00018362316698999903 0.019159508238539458 -0.0015369680643661232 0.06566415869749408
          -0.00418144429125622 0.028131615883774025 0.00037037713025271646 0.03739292881442616 0.031366894848037896 -0.016233036129696538
          0.00587326545341349 -0.001645344509854138 0.005611170154278422 0.0005059535232311667 0.004123718783590302 0.0009915141230157493
          0.044972740402155154 -0.046420597398327726 0.03561866449708401 -0.031798360061382924 0.01066053902670605 0.014800184172576489
          -0.0024507118461614737 0.0003654809849323315 0.003178886142754217 -0.010165424865254347 -0.00018910389168823316 0.006872442341877928
          -0.003256107761331022 -0.00046682036144574113 0.0068210722260629575 0.009810542293537061 0.010924417738454109 0.008802127277577607
          0.00871511056483465 -0.002793679225615575 0.008419449498925091 -0.0007974610790817127 0.008838052690025466 0.00259082657200288
          -0.006828365170874706 0.010229122896555476 -0.0037117142079952092 0.014385451834864005 0.0015748210176597388 0.01391309325464779
          -0.007476121538762759 -0.006803759197204329 -0.00291327056911983 -0.0008728554093608842 -0.00867125481498865 -0.00781901876798985
          -0.002775583190984157 -0.0015197870603428643 0.0033200498424580324 0.0021177080157955552 0.0021260937777536418 0.00027446651826407154
          0.004042636269205951 0.0034418367873426114 0.012809707803484702 0.005637194433643994 -0.003117486744956488 0.013646313672288695
          0.0015143191828883573 0.0003322975192381339 0.007253830482966704 0.005561218282020393 0.008005403558754232 0.0028411769976984733
          -0.0023296052907721965 -0.0024263371016364776 0.0020615650568074906 0.012112997995850427 0.015137961105088152 0.0058930983348726915
          -0.0024242300166019692 -0.007153940423039906 0.0000823628442677693 0.022049352266614558 0.021932190008567998 0.011627702341637042
          -0.000634473012335518 -0.0004195299739142705 -0.00035526550135004525 0.009326732371780555 0.009336369816302537 0.004292235729848937
          -0.004786184131101236 -0.018078440843676585 -0.006590694165029214 0.3945292276098819 0.004414843435205068 0.7775627027269155
          0.007789795430537316 0.32819111248185084 0.000304980508750316 0.3068828612351341 -0.0003404412783616084 0.5968510589568449
          -0.010781673689987309 0.32131807240997934 -0.0089057904269767 -0.01688689409828137 -0.022455960296979383 -0.0050207127725940826
          0.24219259793208336 -0.00446875742402103 0.4771418506226762 -0.0018737485269346155 0.2376947722725417 -0.00038408125391151127
          -0.01526932371716705 -0.014846071343885159 0.015032848124594933 0.029648853397128194 -0.006448680512654237 0.010611500974786248
          -0.02239151393600569 -0.035870882818132 -0.0173214443341404 0.004582522529822108 0.005831414908440663 0.005404641295582914
          -0.0025175232239509904 -0.005571219379399972 -0.00525143364770414 -0.0022283065130234148 -0.00594280838922763 -0.0003568149267278442
          -0.19045038383767302 -0.2496349084873934 -0.3751365693708946 -0.5017463807907525 -0.17983572397438 -0.23936195453637596
          -0.006024363039779906 -0.0056187011195052705 0.0006458422007091236 0.0004266579413795338 -0.0013022507764367808 -0.0007882628658978305
          0.0025251335962409305 0.04288544680221868 0.03102262671111196 -0.0014167685224126675 -0.07656616458231279 0.0013290236156122265
          -0.1508227907963849 0.001151706301140809 -0.08875405067083805 0.006764501039305981 0.010200543509267856 0.010652231974047188
          -0.5995925057008639 -0.009187505184163558 -0.0005115084367320333 -0.585022168865873 -1.2132707995120153 -0.005747502664912585
          -0.00015324379350306616 -1.180615439316134 -0.646424500128712 -0.0016865218658264625 -0.00022260328472367696 -0.610979707151445
          -0.00010590488496471998 0.003268870195066831 0.0053567629955831855 0.004124516243290077 0.005058198862472031 0.002971018331288988
          -0.01227307044817201 -0.007863455544302206 -0.006997081268263122 0.015405297743583124 0.004235845188590381 0.007640375892418394
          -0.002503106590147075 -0.0004839152729384788 -0.004032219597846387 0.014226918321309179 0.00022778311477540496 0.004559618880908084
          0.0021365356862791175 0.0038131309975023148 0.008714036245772015 -0.032336426305628274 -0.029723769509403725 -0.012434347473473745
          0.00221693434811443 -0.0003216104081884552 0.011070946643973359 0.005774059873202231 0.011492594020082625 0.001424981217774457
          0.0002701780473585713 0.1004141134751563 0.008548773028980772 0.20011846153639284 0.005397261910199624 0.06919703308926854
          0.007816480090586941 0.007736721560834214 -0.00022320450657620228 0.004169335901721638 -0.033356133073836114 0.0048254738855963986
          0.007148078009416969 -0.07775579915622122 0.03470985015159478 0.008683405319498627 -0.059245240229410134 0.023726263227473426
          -0.0026815781734145783 -0.0027006813497185145 -0.001199194651266361 -0.3794808793384415 -0.5817827070195238 0.002274793936901054
          -0.7588311581133173 -1.1689472482074441 0.00002679558534351978 -0.3904266616933895 -0.5770492312458906 0.0014519131703201182
          -0.60373594370233 -1.2228875957814094 -0.6473547564847565 -0.002978580993444835 -0.006435262743494652 -0.0010265966712511287
          -0.01196638128354588 -0.01010451440335891 -0.004139726293584722 -0.2976162081970815 -0.5927380707387556 -0.28825453622843195
          -0.011920459917692361 -0.61072951918962 -0.005526779580076913 -1.2181980479533243 -0.001072889066270899 -0.6006785745265819
          -0.001503413567475964 -0.000019061272164097587 -0.0011063553081541722 -0.0002048263784573956 0.0006488573893035088 0.002532271629597488
          0.003435783624581107 0.0015922625322545014 0.001448288817480936 0.0060651293728314765 -0.000041855493065308565 0.004681538602851053
          -0.0016105475535607584 0.0022436016506344574 0.0009105079489312284 0.004322160630080396 -0.001583040990860568 -0.002366765804467444
          0.003269971795358373 -0.004541122286241171 0.005864300164025726 -0.032112384719415576 -0.004881223867013215 -0.06055348625712165
          0.0007530321886399308 -0.051196294554405664 -0.007752508001349967 -0.010763976173679524 -0.5039259946769128 -0.4461141954185844
          -0.004683208292449781 -1.013180534522057 -0.9053166328720976 -0.005498215787903327 -0.532160859798499 -0.48948687995788903
          -0.005683930865023168 -0.0033632132085468225 -0.004336054245730914 -0.4457569849004174 -0.8912742386353689 -0.45963100100486576
          -0.5819581942495926 -1.1736735227092172 -0.6059062797057511 -0.01547228620368113 0.0020244681343959403 -0.008301266629277049
          -0.11340146217727645 -0.03732844177006911 -0.01104385847510031 -0.23467781329277215 -0.07381592401457032 -0.00936317560725991
          -0.17855524138736809 -0.10705574787777156 -0.007207035447564347 -0.2982737275832172 -0.5918518643112194 -0.29664470368573914
          0.0006470655540334325 0.009966486021192156 0.004658472214289 -0.03503954464109571 -0.21635304413009102 -0.05264564904933433
          -0.3484901760383114 -0.02776423180148946 -0.20204873693524827 0.10726006686579215 0.2634286556471762 0.31188842538304407
          -0.008016316176266303 -0.0001829247918593846 -0.004793615789516592 -0.005798132494619579 0.007843767440410501 0.0021929745969097025
          -0.1379587275692129 -0.23420706616810627 0.09449671244817182 0.04035593085315958 0.132895939325554 -0.5320606587219712
          1.6311934877460725 3.144943544227313 0.3061324781036996 0.0052587100297973866 -1.2743162126526784 0.027418852852814535
          -2.5598212286163866 -0.01330445901371391 -0.9382935799474059 -0.02797306422607415 -2.887539974008429 -0.04669214109131725
          -5.793561767366284 -0.039159093926868505 -2.8764701674019926 0.5154223287210593 -3.2397571687407014 1.0198700100193117
          -6.535104704601121 0.4922886217200021 -3.7013425636483257 -0.008353817573569344 0.031189525802890028 0.0005584778205536267
          -0.03992675284083724 -0.04217176707174586 -0.030100933084812542 0.11975846074285806 0.24704260451097682 0.13013928077611192
          -0.010709015529399402 0.015288010490293491 -0.025393359815394145 -0.05471467250843598 -0.08190874514825364 -0.06281161201013352
          -0.06933233430458785 -0.11449324398715535 -0.0914111871557497 -0.05050821072791811 -0.053985309351895605 0.039974046257354456
          -0.0412285360178255 -0.036306669562772065 -0.04619602164938197 0.01096760231617605 0.058703414547942756 0.03024736652223714
          -0.025009757835964264 -0.0021249361962305535 -0.037568918306158494 0.017306441641237513 0.08146162298446735 -0.0043046697955079205
          -0.01790994801417356 0.011775058890526768 -0.024475782089940223 -0.02986243955556861 0.03602837795465064 0.002014593171037471
          -0.24396022285503932 -0.44687464573405145 -0.2747426496502656 -0.08336017768152948 -0.11441239687011692 -0.10142612141919449
          -0.031128811280950908 -0.04220199156933535 -0.061277852522778065 -0.41113484168457526 -0.7650263409417395 -0.37142372914739263
          0.2833686646680843 0.6059891296332844 0.3026411419532362 0.31949126511869474 0.7051493030570701 0.3518744470215731
          0.37733813923677495 -3.6607442415000606 0.7539311787292928 -7.3370900483787835 0.3628754840581587 -3.7990679743749602
          0.21017228950843214 0.422435284217909 0.21549390740599716 -0.03388752927712657 -0.022131114211896508 -0.035125432678368096
          0.03388887364071991 0.08915171312213344 0.08514955468864471 0.032431933863563134 0.0974264053667202 0.004135219456196659
          -0.031627627171477934 -0.034269754103170125 -0.03527554807819944 -0.03832746724768232 0.008927339353275277 -0.01639023495167269
          -0.25302385634645497 0.1057671295705892 0.031460793367071416 -0.45880779175346575 0.2301790086987492 -0.20147088437339233
          -0.3563225965581548 0.03315245157306501 -0.053957159942319866 0.022994729241370915 0.03092700807377513 0.0467759546730733
          -0.004153055800450334 -0.0206912263622393 0.005586344755824979 0.14158117220443733 0.2661807586077152 0.12696172376932946
          -0.37245251774255284 -0.7265854157943306 -0.49749240073962886 -0.008154492523675616 0.0007055525920438566 -0.06251344381378587
          0.21933535161280077 0.502171689562823 0.22043353059965198 -0.02997282508939464 -0.013503455537635656 -0.0436892655136798
          -0.01687290961133503 0.029428236549181364 0.0057836563200728275 0.0005840706407027607 -3.7104862556738727 0.0010755723382895876
          -7.415204816138985 -0.007475311329307566 -3.6939265454307137 -0.00789599685209863 -0.00595051256499568 -0.004724104586961264
          -0.03920251240104067 -0.043998887189598435 -0.02612530872514096 -0.0623313314109073 -0.11388708583549567 -0.07452410775753915
          0.09112686878833887 0.1833317181069769 0.0729178866621707 -0.015799864031585342 -0.03227748380276263 -0.02562869451615668
          0.0009689082712096564 0.008574798867865496 -0.008712082872178506 0.038972377787214185 0.08299747548360337 0.018296012189290556
          -0.005397601607274316 -0.01784320247984006 -0.04648074291999782 -0.02597671403940538 0.01320364719697853 -0.012729890897842377
        </DataArray>
        <DataArray type="Float64" Name="resid_z" format="ascii" RangeMin="0" RangeMax="0">
          0 0 0 0 0 0
          0 0 0 0 0 0
          0 0 0 0 0 0
          0 0 0 0 0 0
          0 0 0 0 0 0
          0 0 0 0 0 0
          0 0 0 0 0 0
          0 0 0 0 0 0
          0 0 0 0 0 0
          0 0 0 0 0 0
          0 0 0 0 0 0
          0 0 0 0 0 0
          0 0 0 0 0 0
          0 0 0 0 0 0
          0 0 0 0 0 0
          0 0 0 0 0 0
          0 0 0 0 0 0
          0 0 0 0 0 0
          0 0 0 0 0 0
          0 0 0 0 0 0
          0 0 0 0 0 0
          0 0 0 0 0 0
          0 0 0 0 0 0
          0 0 0 0 0 0
          0 0 0 0 0 0
          0 0 0 0 0 0
          0 0 0 0 0 0
          0 0 0 0 0 0
          0 0 0 0 0 0
          0 0 0 0 0 0
          0 0 0 0 0 0
          0 0 0 0 0 0
          0 0 0 0 0 0
          0 0 0 0 0 0
          0 0 0 0 0 0
          0 0 0 0 0 0
          0 0 0 0 0 0
          0 0 0 0 0 0
          0 0 0 0 0 0
          0 0 0 0 0 0
          0 0 0 0 0 0
          0 0 0 0 0 0
          0 0 0 0 0 0
          0 0 0 0 0 0
          0 0 0 0 0 0
          0 0 0 0 0 0
          0 0 0 0 0 0
          0 0 0 0 0 0
          0 0 0 0 0 0
          0 0 0 0 0 0
          0 0 0 0 0 0
          0 0 0 0 0 0
          0 0 0 0 0 0
          0 0 0 0 0 0
          0 0 0 0 0 0
          0 0 0 0 0 0
          0 0 0 0 0 0
          0 0 0 0 0 0
          0 0 0 0 0 0
          0 0 0 0 0 0
          0 0 0 0 0 0
          0 0 0 0 0 0
          0 0 0 0 0 0
          0 0 0 0 0 0
          0 0 0 0 0 0
          0 0 0 0 0 0
          0 0 0 0 0 0
          0 0 0 0 0 0
          0 0 0 0 0 0
          0 0 0 0 0 0
          0 0 0 0 0 0
          0 0 0 0 0 0
          0 0 0 0 0 0
          0 0 0 0 0 0
          0 0 0 0 0 0
          0 0 0 0 0 0
          0 0 0 0 0 0
          0 0 0 0 0 0
          0 0 0 0 0 0
          0 0 0 0 0 0
          0 0 0 0 0 0
          0 0 0 0 0 0
          0 0 0 0 0 0
          0 0 0 0 0 0
          0 0 0 0 0 0
          0 0 0 0 0 0
          0 0 0 0 0 0
          0 0 0 0 0 0
          0 0 0 0 0 0
          0 0 0 0 0 0
          0 0 0 0 0 0
          0 0 0 0 0 0
          0 0 0 0 0 0
          0 0 0 0 0 0
          0 0 0 0 0 0
          0 0 0 0 0 0
          0 0 0 0 0 0
          0 0 0 0 0 0
          0 0 0 0 0 0
          0 0 0 0 0 0
          0 0 0 0 0 0
          0 0 0 0 0 0
          0 0 0 0 0 0
          0 0 0 0 0 0
          0 0 0 0 0 0
          0 0 0 0 0 0
          0 0 0 0 0 0
          0 0 0 0 0 0
          0 0 0 0 0 0
          0 0 0 0 0 0
          0 0 0 0 0 0
          0 0 0 0 0 0
          0 0 0 0 0 0
          0 0 0 0 0 0
          0 0 0 0 0 0
          0 0 0 0 0 0
          0 0 0 0 0 0
          0 0 0 0 0 0
          0 0 0 0 0 0
          0 0 0 0 0 0
          0 0 0 0 0 0
          0 0 0 0 0 0
          0 0 0 0 0 0
          0 0 0 0 0 0
          0 0 0 0 0 0
          0 0 0 0 0 0
          0 0 0 0 0 0
          0 0 0 0 0 0
          0 0 0 0 0 0
          0 0 0 0 0 0
          0 0 0 0 0 0
          0 0 0 0 0 0
          0 0 0 0 0 0
        </DataArray>
        <DataArray type="Float64" Name="stress_zz" format="ascii" RangeMin="-6436329.6719016675" RangeMax="11647745.399546187">
          -104137.87065362986 -593824.3093951984 -298539.89592180465 -554196.3921503255 -67561.42842125957 -520297.99737092655
          -158247.67079074687 -477573.19856138877 -30984.986188889285 -446771.6853466547 -17955.44565968908 -400950.0049724522
          455454.3894530153 340279.1561186001 608754.1303045825 499516.97811726906 447250.2475782658 239528.3502835434
          529827.2955399896 524798.2615971533 439046.10570351634 138777.54444848665 450900.4607753969 550079.5450770374
          3831315.236954999 -3880809.5583587657 3078228.4322711565 5821210.481322904 3687149.7441513715 -4238480.558168584
          2978579.7267614305 6077471.383109915 3542984.2513477444 -4596151.557978402 2878931.0212517045 6333732.284896924
          526625.4560922798 365212.6047072355 360273.5656850562 -76674.28221070195 467417.3469183269 377878.71897022304
          314162.5582250039 -149039.2288470018 408209.23774437385 390544.8332332106 268051.55076495156 -221404.17548330166
          717829.0491828424 1669529.2115336098 1620746.3634035345 1485588.9402571698 720098.4781729726 1689588.2976115728
          1578650.059072142 1454380.6478619506 722367.9071631029 1709647.3836895358 1536553.7547407495 1423172.3554667314
          -511952.7462485295 116415.25274416877 426304.44424718444 430366.36783678806 -557608.3211989948 108731.03997249946
          374657.5283232539 384112.01128425385 -603263.89614946 101046.82720083022 323010.6123993235 337857.6547317197
          495209.29357090185 493412.6640978955 891901.793087938 514802.9293460895 501178.1545905887 852853.786241424
          534396.5651212772 508943.64508328197 813805.7793949101 723725.2849027568 521921.1110828179 800683.2693522758
          522502.4168196584 877641.2538017948 523083.72255649895 1549375.0984582002 2600104.935649352 1647226.3785828524
          -114842.89643279948 1538521.1824083324 2652438.302043157 1814069.6037932793 -96340.79484473364 1527667.2663584643
          2704771.6684369626 1980912.829003706 -77838.693256668 78957.28838137245 338615.74807517364 46026.955350375996
          302522.48918385344 13096.62231937956 266429.2302925333 1098193.5563685359 908385.5478681169 1142065.011513861
          926746.9901681055 1185936.4666591862 945108.432468094 8045092.423276473 6182522.072848258 8451134.685196182
          8150589.705216503 6411591.773835232 8007390.207791876 8256086.987156535 6640661.474822206 7563645.730387572
          -189712.95494736085 -898976.0736473573 -212456.864348716 -909843.3264279729 -235200.77375007112 -920710.5792085885
          699284.2850535132 1081658.8817968129 920304.0912244411 785865.22975076 755724.0950403784 1125606.7360042317
          949191.3620121146 816175.9914152831 812163.9050272433 1169554.5902116508 978078.6327997881 846486.7530798061
          809064.8302433798 825886.2895835177 1439101.1564292046 819568.9867369529 859657.7357598478 1454350.3233696334
          830073.143230526 893429.1819361781 1469599.490310062 427599.74552218744 433181.04990099446 438762.35427980154
          1085630.5246299673 713149.8755262775 1331297.671621303 1064690.4603870604 628642.1298876724 1184728.0928727393
          1043750.3961441536 544134.3842490673 1038158.5141241755 1011840.5116144199 127281.34113217006 266506.5395274939
          962465.4663158779 124179.83571357814 262824.095480694 913090.4210173355 121078.33029498624 259141.65143389412
          171956.76696617418 -347316.92012540053 -479333.0751275462 155932.35520075494 -368292.4441945801 -503622.2470947946
          139907.9434353357 -389267.9682637597 -527911.419062043 -407401.9292909231 -337714.06152067427 -432500.058272794
          -381153.5481433913 -457598.18725466484 -424593.0347661083 260805.41839821992 684487.2365739387 251859.55832863014
          537614.9694489532 242913.6982590402 390742.70232396777 -1352167.2162115355 -1440264.0575471963 -1528360.8988828573
          -1432365.705207404 835839.6180373413 -1442203.1913964096 579595.0984918596 -1452040.6775854155 323350.57894637785
          1043624.6033853281 1068400.6814689196 1048244.9936711171 1051425.5071653498 1052865.3839569064 1034450.3328617803
          273383.9634347336 230769.13474315248 188154.3060515715 -354123.62257261993 285428.01451083407 -45295.78471419995
          -748947.6845466689 -405886.7293681404 263309.6683881982 -46005.83833510054 -800570.706239972 -457649.8361636608
          241191.3222655623 -46715.89195600112 -852193.727933275 5094856.925101809 5063068.680800177 5031280.436498543
          6739944.27938419 5284517.596707298 6765096.275696637 5146246.6200167695 6790248.272009085 5007975.643326241
          -365894.03280098236 -256412.82863729037 -351241.09914909204 -272519.8069295957 -336588.1654972017 -288626.7852219011
          1758968.1291590335 1713000.6810975915 1667033.2330361495 356333.5131261201 -430691.87366640306 287471.63064933475
          -394457.05074064544 218609.7481725496 -358222.2278148878 -964372.0768803833 -1209977.9857018662 -635419.5963022939
          477822.9646694141 -986208.1478637555 -1362834.126862041 -750274.6599295944 345413.1452780129 -1008044.2188471277
          -1515690.2680222157 -865129.7235568943 213003.3258866117 1986942.3580142336 2143004.7349292194 1954890.5762245692
          2049779.0374807792 1922838.7944349048 1956553.340032339 3311071.2190932482 1523350.8676178977 1156981.5078126222
          2839700.6250756434 2961495.981071769 1394278.4649932897 1253482.927100177 2872699.4072112334 2611920.7430502893
          1265206.0623686817 1349984.3463877316 2905698.189346823 723128.3109241789 736043.0463038835 748957.781683588
          -1329016.0677905434 -883314.1062568682 -1383398.5720353676 -912860.7714482388 -1437781.0762801918 -942407.4366396093
          1159436.7840496744 1335063.4970532453 1036598.0713206347 1289344.9281291128 913759.3585915947 1243626.35920498
          872201.2764741804 801767.8701277383 731334.4637812963 670965.76626321 -211.41338069422636 635257.0739595917
          -67004.77636892608 599548.3816559731 -133798.1393571579 249190.6724139657 -346218.08384648745 253333.0150417891
          -458282.97733418085 257475.35766961254 -570347.8708218742 1007073.5275260056 640020.3250601969 982649.7731960592
          544077.6334134871 958226.0188661127 448134.94176677737 332317.4968925702 138598.48044431076 -55120.53600394871
          -63594.25793906158 601045.8298759636 -32242.51722652335 540501.2272303427 -890.7765139849856 479956.6245847218
          4341.004010140052 668518.2796840469 -162755.17635529008 435655.8430810379 -329851.3567207202 202793.40647802904
          -183774.80396627594 521958.86504553724 57971.17248760097 -148110.99283940118 527730.8865135685 110604.92860942808
          -112447.1817125264 533502.9079815997 163238.68473125517 -222300.84536084335 -210145.94694587594 -197991.04853090853
          -427386.7149165082 707833.0150818235 -423059.2166461651 807343.8946952738 -418731.71837582206 906854.7743087237
          654047.6673447913 589043.1448603442 669656.9527947704 602342.5491860437 685266.2382447494 615641.9535117431
          1024808.4121359953 -1819907.802400334 1028477.0716836341 -1776772.7296043523 1032145.7312312722 -1733637.6568083705
          -946532.3854305383 -1326496.7611957637 -951376.4806344413 -1361074.9839229323 -956220.5758383439 -1395653.2066501013
          -826974.533533942 -688813.3179190287 -203247.02193503254 -821214.3145938382 -613260.1467959608 -219657.6953696712
          -815454.0956537342 -537706.975672893 -236068.36880430987 -1586620.987965364 -1584353.025013895 -1582085.062062426
          969279.3526714286 988402.9248217011 1007526.4969719732 890149.1908122334 913413.5520990575 936677.9133858813
          -831651.9085749767 -754375.0976599718 -677098.2867449669 1041100.6079224437 1030859.5998095651 1020618.5916966868
          -650624.4683944029 -676122.407729104 -701620.3470638052 -1513148.155979434 -1511604.744292683 -1510061.3326059324
          331723.7833588327 337722.6116782467 343721.43999766064 -1673063.6404846027 -2168780.993335524 -1585601.9536977033
          -2173406.6234949133 -1498140.266910804 -2178032.2536543026 -2382939.9000456124 -1358873.3381346103 -2509965.034665712
          -1425741.062883847 -2636990.1692858115 -1492608.787633083 -2175789.992606503 -2283863.1842324524 -2391936.3758584014
          -1370892.604693655 -960564.3183770026 -1385395.597406551 -978271.7614675612 -1399898.590119447 -995979.2045581194
          10139337.083516693 8355796.223445034 10196467.245346768 8534153.503316984 10253597.407176841 8712510.783188932
          886437.1416763552 915943.747976328 945450.3542763009 -1636687.2975240927 -1588061.076540633 -1539434.8555571733
          1883097.4519332855 558484.7822048813 1678486.6037672726 547708.4038700522 1473875.7556012596 536932.0255352233
          -256208.76549778666 265433.78098571073 -300665.7559221623 229368.22579163685 -345122.74634653796 193302.670597563
          668748.0273461882 694842.7270543067 720937.426762425 1013170.3866458851 971539.4430597494 929908.4994736137
          633922.2087277131 402209.73272508505 170497.25672245712 -766374.8640458045 -655907.813111233 -763547.0668676307
          -646529.0652755257 -760719.2696894568 -637150.3174398184 447972.6889674227 447683.06242578727 447393.43588415184
          1848925.3683977854 1737910.120306942 1847565.326871784 2454331.939937199 1905718.2673733775 1740953.5492520204
          1841097.9555804213 2464297.7695242446 1962511.1663489696 1743996.9781970987 1834630.5842890588 2474263.59911129
          677671.1784618333 881375.19501622 756043.3635263024 977864.0629498486 834415.5485907715 1074352.9308834774
          881636.4146665019 905873.4895573249 930110.5644481478 995220.9098112716 1336613.2562170036 1011706.4645564576
          1335492.0896432872 1028192.0193016437 1334370.9230695704 549803.5614756423 543195.2409442639 576336.180850915
          535738.4556181406 602868.8002261878 528281.6702920173 1224204.2466112403 1139832.3721185338 1055460.4976258276
          967701.2905147008 963662.5175920634 959623.7446694261 721211.8045093918 650913.0724707503 580614.340432109
          -866002.4768972581 -883154.3923624121 -798499.3546733414 -786770.4040519368 -730996.2324494245 -690386.4157414616
          1456462.3354402608 1413159.1884622648 1369856.0414842688 4119106.637712356 3415075.066556556 1182852.2041447354
          3935896.7472039973 3388740.058280198 1115026.9045171456 3752686.856695639 3362405.0500038387 1047201.6048895558
          1241048.571586163 1056879.757683791 872710.9437814191 787507.8329968068 1484253.485645367 1534022.7736702
          858091.0567877769 1495703.0302885175 1476754.7718684638 928674.2805787469 1507152.5749316681 1419486.7700667274
          1217246.582867002 1243928.0789698446 1270609.5750726871 618142.7527185935 606945.654189258 595748.5556599223
          1441082.38373567 1321470.9226797558 1201859.4616238412 700513.1535401565 728564.3953085358 756615.6370769151
          1997370.3093022872 2577651.8901267303 1868700.9788968544 2509550.3958025724 1740031.648491422 2441448.9014784144
          2011695.1197040228 1927493.665141647 1843292.210579271 -1033510.894735026 -1098404.3841121641 -1029696.6590696689
          -1142793.4006255255 -1025882.4234043119 -1187182.4171388869 579454.6777655948 550624.0647902206 453051.1141970278
          429184.14323686506 326647.5506284608 307744.2216835095 3514826.03934291 2842254.419262706 3361662.83886481
          2744617.3281088313 3208499.6383867087 2646980.236954956 6403599.731078928 5304700.321122211 6626579.072981427
          5370573.885557163 6849558.414883927 5436447.449992115 104819.10675743705 778422.6813438858 1852561.9331128343
          110459.10198385408 804999.3884348777 2027317.661828942 116099.09721027117 831576.0955258696 2202073.3905450497
          3783589.153176915 3647959.1575793633 3512329.1619818117 2135653.9877833794 2203124.782539123 2270595.577294867
          483001.5308201346 461616.249380187 440230.9679402394 7024112.5053435005 6946940.156871511 6869767.808399519
          2409243.322149508 3850033.26376654 2703618.7711726804 2649302.400131956 3835208.246178508 2570383.3063101224
          2889361.4781144042 3820383.2285904763 2437147.8414475643 887224.013134446 1010297.9101102403 1133371.8070860347
          6387862.141654357 6533149.245838434 6678436.3500225125 8438740.916682554 6809196.157541439 8763848.342928445
          6772803.855008583 9088955.769174334 6736411.552475724 2614184.5080371825 2964701.039304534 3315217.570571886
          5116410.585497973 5093445.46163671 5070480.337775446 7580622.478536638 7090262.681593969 6599902.884651302
          8491839.86117606 7555070.024563086 6618300.187950113 10578572.251805846 10147238.405850764 9715904.559895683
          9764766.793358326 10706256.096452257 11647745.399546187 3234813.105723309 5856306.5474042 3143816.0601649852
          5717944.942903156 3052819.0146066616 5579583.338402113 -3377360.648404145 -3887006.526645673 -3388122.568798314
          -3920381.16386663 -3398884.489192482 -3953755.8010875867 -4529151.180231742 -2606600.2812396213 -4493710.867578492
          -2562280.3322956753 -4458270.554925242 -2517960.383351729 2402728.3658644785 2330268.819023327 2257809.2721821754
          -3017381.788638942 -3030843.817196986 -3044305.84575503 -6436329.6719016675 -6409684.3329912005 -6383038.9940807335
          4025733.3321063938 3984613.3115100157 3943493.2909136377 -1646359.615211875 -1667719.2385884116 -1689078.8619649485
          -4634749.223700809 -4618106.004838295 -4601462.785975781 3507274.061489231 3495046.6708585685 3482819.280227906
          965477.0261156571 955266.1730956361 945055.3200756151 -1324480.2434812372 -1320966.901176419 -1317453.5588716008
          3263874.3251242125 3249510.3443786926 3235146.3636331726 1113508.528776799 1120990.2368480787 1128471.9449193582
          4455020.176139651 4428911.371395706 4402802.566651761 2558378.5822205916 2551503.102716317 2544627.6232120423
          3867167.6195727712 3861405.1592336106 3855642.6988944504 4178144.110474145 4177405.4389242 4176666.7673742548
          399182.8340468642 443321.7236181804 487460.6131894967 2337038.514936267 2371879.086570855 2406719.658205444
          -2497053.393481139 -2437217.654492713 -2377381.915504287 -592890.3883284982 -549976.0287675525 -507061.6692066067
          1221526.6670108112 4311533.06830183 1162197.378089297 4238204.377353479 1102868.0891677837 4164875.686405129
          -3654030.290010337 -3674854.7264891677 -3695679.1629679985 -5860403.4761265 -5847453.144450985 -5834502.812775469
          -4866209.075395842 -4853617.986727195 -4841026.898058547 -2090461.934012283 -2087089.2676942195 -2083716.6013761559
          3221710.4794516563 2781923.483397873 3176867.6210348285 2793765.5659229322 3132024.7626179997 2805607.648447992
          3581637.051253114 2791681.5746914935 2686697.826045287 3619294.218346675 2716734.640918006 2499693.50412743
          3656951.3854402364 2641787.707144519 2312689.182209573 1846679.6342938698 1809185.8665366443 1771692.098779419
          563431.3001289733 540354.2401626245 517277.18019627576 2747141.673104779 2695358.6984987035 2643575.7238926287
          3703755.223528235 3681698.709323995 3659642.1951197544 3408762.7424060674 3416369.9479604205 3423977.153514774
          2315123.9358739504 2311332.926224005 2307541.9165740586 1560235.927660878 1549632.1738318987 1539028.4200029192
          1055457.5477817326 1057658.1518055855 1059858.7558294386 2184247.6349651488 2799588.9297597776 2158419.715572975
          2771596.875227064 2132591.7961808015 2743604.8206943506 339748.0660791283 319155.0384763186 298562.0108735089
          -2388906.484680743 -2393701.0356743922 -2398495.586668041 -4661087.461691389 -4648782.304726681 -4636477.147761972
          -5238749.330851625 -5211836.047744709 -5184922.7646377925 630750.4146996876 609255.540156069 587760.6656124505
          -3163639.743180294 -3163005.408418846 -3162371.073657397 4523967.692485094 4489087.22155789 4454206.750630686
          4639174.243680372 4614975.832560065 4590777.421439759 2221645.755535347 2196237.3213490574 2170828.887162768
        </DataArray>
        <DataArray type="Float64" Name="peeq" format="ascii" RangeMin="0" RangeMax="0.010079814054916758">
          0.008576266016003108 0.008804809459735915 0.008877847414645014 0.00855374948362694 0.008581385182986928 0.008809502306558241
          0.008881508344663848 0.008559803144306414 0.00858650434997075 0.008814195153380567 0.008885169274682681 0.008565856804985889
          0.009972664961432488 0.009840935145973253 0.009966299243033773 0.01005407878186414 0.009970112550583709 0.009838496288372784
          0.00996244421944687 0.010051062374595543 0.00996756013973493 0.009836057430772316 0.009958589195859964 0.010048045967326948
          0.005437295310165903 0.006007068795225033 0.005746337845245599 0.004002852907664054 0.005437103915506404 0.006004705650284899
          0.005744801415875915 0.004007194060511059 0.005436912520846905 0.0060023425053447625 0.0057432649865062305 0.004011535213358067
          0.00944015003441935 0.009359989351213148 0.00948823060194493 0.009574626387807532 0.009440497570582618 0.009360661079117776
          0.009488452192604246 0.009574910568886392 0.009440845106745883 0.009361332807022405 0.009488673783263561 0.009575194749965252
          0.009561539985716681 0.009638188226210992 0.009852382772607127 0.009771699225901148 0.009561459796409388 0.009637131639779821
          0.009850488947675614 0.00977072969206325 0.009561379607102096 0.009636075053348653 0.009848595122744101 0.009769760158225348
          0.008949560952532496 0.009181619179448835 0.009220329903738368 0.008956164167569492 0.008949192255946523 0.009181389269316107
          0.009219629358232383 0.008956426984572906 0.008948823559360547 0.00918115935918338 0.009218928812726396 0.008956689801576323
          0.010006900208505514 0.009917201546431687 0.00985208179918208 0.010005480794514656 0.00991583195951069 0.00984995965224383
          0.010004061380523795 0.009914462372589689 0.009847837505305579 0.009381065162858325 0.00940004489690921 0.009381979835993707
          0.009400211685780029 0.00938289450912909 0.009400378474650844 0.008386674112294887 0.009150747064965757 0.009018217973036891
          0.008459691352262586 0.008385716280472931 0.009148210163329595 0.009017137350812533 0.008457547099996578 0.008384758448650973
          0.009145673261693433 0.009016056728588174 0.008455402847730567 0.009327380126060764 0.009452501323233792 0.009326972954192162
          0.009452015317682645 0.009326565782323559 0.0094515293121315 0.009572070316637033 0.00953150607263734 0.009572507440751395
          0.00953235780536928 0.009572944564865753 0.00953320953810122 0.0067993117692591205 0.0066847062350590125 0.00571750790917791
          0.006797104855120325 0.006682207651922856 0.005711419203212324 0.0067948979409815265 0.006679709068786698 0.005705330497246737
          0.008722801774835011 0.008712618939920203 0.008724630116511315 0.008713591817440983 0.008726458458187616 0.008714564694961765
          0.009343952316493423 0.009509632546128669 0.009643397340790656 0.009526742404328867 0.009342588622975028 0.009509273861831957
          0.009643231454037355 0.009525555391495494 0.009341224929456632 0.009508915177535247 0.009643065567284054 0.00952436837866212
          0.009968867124793385 0.010031778077412767 0.009929332569288737 0.009967451691737041 0.010029972715583625 0.009927423440944385
          0.009966036258680696 0.010028167353754482 0.009925514312600033 0.00958212986057541 0.00958285164095404 0.009583573421332672
          0.009601466973086559 0.009338409022858868 0.009530833519892846 0.009600656973251461 0.009338571498590957 0.009530542763297265
          0.009599846973416364 0.009338733974323046 0.009530252006701686 0.009790910175926712 0.009870345566156494 0.009922545770975726
          0.009787535253225055 0.009868324340054834 0.009921608194667069 0.009784160330523399 0.009866303113953173 0.00992067061835841
          0.008773797548244422 0.00865310593008289 0.008576295084883832 0.008776009855431397 0.008656027500964433 0.00857894888136426
          0.008778222162618372 0.008658949071845976 0.00858160267784469 0.008500866012209953 0.008438630677325802 0.008504482451619721
          0.00844285179272191 0.008508098891029488 0.008447072908118018 0.008248318532907473 0.007824275478943979 0.008245451188266377
          0.007822054447292517 0.008242583843625284 0.007819833415641056 0.009611036220837267 0.00960816934843872 0.009605302476040172
          0.009094510451611897 0.008857222323280876 0.009093375873366987 0.00885288821428505 0.009092241295122077 0.008848554105289223
          0.009632312731890955 0.009720709477132427 0.009632407769713195 0.009719664227921046 0.009632502807535435 0.009718618978709665
          0.009692688222882951 0.009691746865778917 0.009690805508674884 0.008891872310709776 0.009169493140408127 0.00915929420483849
          0.00890266935690976 0.008891033480281802 0.009169339502735626 0.009159423397017977 0.008901821865669306 0.008890194649853828
          0.009169185865063127 0.009159552589197468 0.008900974374428852 0.004270585444082027 0.004271306140369446 0.004272026836656865
          0.004013026090617069 0.004915762937646562 0.004014157129714051 0.004916743122891293 0.004015288168811032 0.004917723308136026
          0.008607074444116007 0.008530626455696626 0.008611067245205876 0.00853398165689062 0.008615060046295748 0.008537336858084612
          0.009747211058226837 0.009744700453156275 0.009742189848085713 0.009357993612093607 0.008947899821894586 0.009354012904411497
          0.008944549727101223 0.009350032196729387 0.008941199632307861 0.009136320935200963 0.008923508456323618 0.008564031208206663
          0.008833120710819452 0.009135030775289536 0.008920508786771437 0.008561155242269088 0.0088322633477113 0.009133740615378111
          0.008917509117219257 0.008558279276331512 0.00883140598460315 0.009436320008417622 0.00950969826306814 0.009434348571689703
          0.009505857091367129 0.009432377134961784 0.009502015919666115 0.008603611868025022 0.008467960175659036 0.007985271068494754
          0.00801476221680568 0.008599615676234166 0.008464946794407745 0.007985701420053096 0.008013750088907439 0.008595619484443309
          0.008461933413156458 0.007986131771611442 0.008012737961009198 0.009542609652256614 0.009542966887728708 0.009543324123200799
          0.008697263303601682 0.008922974056950674 0.008697598272204864 0.008922381894869894 0.008697933240808047 0.008921789732789114
          0.009044108136070228 0.0087395431668962 0.009045574085893616 0.008741206596165781 0.009047040035717005 0.008742870025435362
          0.009206417625692452 0.009207568696738869 0.009208719767785286 0.009529664755762349 0.009431102462613753 0.009530102422288253
          0.009430540434136924 0.00953054008881416 0.009429978405660094 0.009160473182704024 0.009340261846075745 0.009160961783769943
          0.009339135091494302 0.009161450384835863 0.00933800833691286 0.009579042723023479 0.00957776553688577 0.009579798994656448
          0.00957825831788128 0.009580555266289415 0.009578751098876787 0.00938566341592725 0.00938720944307811 0.00938875547022897
          0.009448054163564253 0.009671273958576112 0.009448938893704687 0.009670640792825142 0.00944982362384512 0.009670007627074175
          0.009476782507471186 0.00953369301962498 0.009477328046234775 0.009534503259540545 0.00947787358499836 0.00953531349945611
          0.009060886258271127 0.008964599591868763 0.009207263357231047 0.009062649539255384 0.008966012865042465 0.00920858557338972
          0.00906441282023964 0.008967426138216172 0.00920990778954839 0.008928973058630215 0.008930973715613378 0.008932974372596542
          0.009158665979419089 0.00940577813304356 0.009158972526153605 0.00940730056123411 0.009159279072888117 0.009408822989424663
          0.009684717284787443 0.009791579785262955 0.009684147511135058 0.009790475323885151 0.009683577737482678 0.009789370862507345
          0.0070494734543531 0.0077168886886963975 0.0070478029882093994 0.007716263696978834 0.0070461325220657 0.007715638705261271
          0.008535986496231518 0.008555419508834662 0.008538500472817238 0.008557340954119724 0.008541014449402955 0.00855926239940479
          0.009079881289566352 0.008846735238121448 0.009123285070149798 0.009080100997263783 0.008849568089908945 0.00912394326653388
          0.009080320704961216 0.008852400941696445 0.009124601462917964 0.009058867195658583 0.00906003250049785 0.009061197805337118
          0.009720526903334263 0.009719757051734688 0.009718987200135115 0.009269693923603595 0.009268841173555989 0.009267988423508382
          0.008815894623917795 0.00881983437825953 0.008823774132601265 0.009593020329781304 0.009593696755549342 0.009594373181317383
          0.008438705429013572 0.008441629887842587 0.0084445543466716 0.009195328016487394 0.009194258674462887 0.00919318933243838
          0.009220581563436987 0.009221378590937787 0.009222175618438584 0.008671900698858464 0.008722173911182997 0.008677942550729734
          0.008727852845919478 0.008683984402601003 0.00873353178065596 0.008423094058141508 0.008409588771094623 0.008427196993067316
          0.008414023626675583 0.008431299927993123 0.008418458482256544 0.009193656527840762 0.009194625725791938 0.009195594923743118
          0.008353856823042835 0.008376614313714545 0.008356312748125138 0.008379231578988223 0.00835876867320744 0.0083818488442619
          0.004977680553097804 0.003777830978692295 0.004978733484456006 0.003780134644216285 0.004979786415814208 0.003782438309740275
          0.007446115533207916 0.007446192431659459 0.007446269330111001 0.00902844884486308 0.00903054999948214 0.0090326511541012
          0.008848972162279704 0.009127063779280948 0.008844327684215484 0.009125174444895419 0.008839683206151262 0.009123285110509886
          0.008890235307548778 0.009177975704728511 0.00888954683902735 0.009177709324856377 0.00888885837050592 0.009177442944984245
          0.009287938164023863 0.009288909334001902 0.009289880503979943 0.009370269734697383 0.0093698979454316 0.009369526156165812
          0.009491770034052603 0.00949318687970707 0.009494603725361535 0.00863849514714126 0.008626971261347767 0.008638985526297951
          0.008627681785069235 0.00863947590545464 0.008628392308790703 0.009806448358407575 0.009805871065152138 0.009805293771896699
          0.009924106169385919 0.009953197309638477 0.010064288395602129 0.010053994513312053 0.009922812222269237 0.009951316081167927
          0.010060729722351305 0.010050406088156731 0.009921518275152556 0.009949434852697378 0.010057171049100483 0.01004681766300141
          0.009430284756222042 0.0096749381987005 0.009431685399367083 0.00967554125475358 0.00943308604251213 0.00967614431080666
          0.009374912531584715 0.009374796375253677 0.009374680218922635 0.010079814054916758 0.01000516142355971 0.010076470456224357
          0.010002954490476734 0.010073126857531955 0.010000747557393755 0.009777987769681185 0.009707292752435336 0.009777351032479148
          0.00970476026684346 0.00977671429527711 0.009702227781251583 0.009573854422246269 0.009574141021106632 0.009574427619966996
          0.009616775400680061 0.009616600613706483 0.009616425826732907 0.009513945163060138 0.009509442001396088 0.009504938839732038
          0.00845737706069845 0.008435165079312081 0.008459376717122477 0.008437291089516474 0.008461376373546506 0.008439417099720866
          0.009755662517511135 0.009751087861135247 0.009746513204759357 0.00807927116470644 0.007175841628373009 0.008622823829656822
          0.008076377736469353 0.007176695566644997 0.008618397309957079 0.008073484308232265 0.007177549504916983 0.008613970790257334
          0.009593895612929816 0.00958890449871905 0.00958391338450828 0.009698431594410122 0.009914118711787896 0.009908579689249323
          0.00969859372260626 0.009911075026354809 0.009905613668352386 0.009698755850802399 0.009908031340921723 0.009902647647455451
          0.009734051823112244 0.009733762174223696 0.009733472525335149 0.009692051937961837 0.00969152417749703 0.009690996417032222
          0.006534671085955674 0.006533335266851002 0.00653199944774633 0.009453721558707315 0.00945472089070098 0.009455720222694645
          0.010058767183229065 0.010056423205194242 0.010053764139495401 0.010051364736612133 0.010048761095761739 0.010046306268030023
          0.009058519080528269 0.00905450482015716 0.009050490559786054 0.008508617759150409 0.00867092225110589 0.008510620637610902
          0.008671134922409842 0.008512623516071393 0.008671347593713791 0.010044736996460213 0.00992232566346902 0.010039954121260537
          0.009918810481298092 0.010035171246060858 0.009915295299127163 0.009503267741686573 0.009125432984402335 0.009497196815913243
          0.009120004012293449 0.009491125890139914 0.009114575040184564 0.007028340000927791 0.00783849719261161 0.007029971136659874
          0.007838272496574884 0.007031602272391958 0.007838047800538154 0.0093518065424492 0.009343667568345844 0.009106007897545548
          0.009351825087286773 0.009343073948348029 0.009103679713845583 0.009351843632124344 0.009342480328350212 0.009101351530145619
          0.008592171179537537 0.008587965882749397 0.008583760585961263 0.00878775695146816 0.008783251576344422 0.008778746201220683
          0.009537064992234523 0.009536898837850081 0.009536732683465641 0.00607974069667662 0.006079264206368879 0.006078787716061138
          0.007938584393581317 0.00737174820171065 0.007412106825825369 0.007938307801523397 0.007372111130488927 0.00741210684862043
          0.007938031209465478 0.0073724740592672035 0.007412106871415492 0.008397892002010687 0.008394932051769145 0.008391972101527605
          0.007539854155759355 0.007540619049048511 0.007541383942337666 0.006783196135834883 0.005812624751208307 0.006786304793113399
          0.005814138763733761 0.006789413450391914 0.005815652776259214 0.006671525425754256 0.006668739329058161 0.006665953232362066
          0.007428626361313519 0.007428338901674421 0.007428051442035323 0.004691891404251388 0.004692112629187123 0.004692333854122859
          0.005772426326879005 0.005761484627045694 0.0057505429272123815 0.004502711513462997 0.0045034947124772936 0.00450427791149159
          0.0031756190699275895 0.003185746047472193 0.003195873025016797 0.0021529521250375208 0.0019939819293030153 0.002153667696241336
          0.001994929946385857 0.0021543832674451504 0.001995877963468699 0.000977577281982017 0.0008570353383247063 0.0009777782385222659
          0.0008571590370854983 0.000977979195062515 0.0008572827358462902 0.00022009673465556306 0.000163545307803067 0.00022077586902819488
          0.0001642102481472135 0.00022145500340082673 0.00016487518849136 0.0025430608420604047 0.0025432989131594437 0.002543536984258483
          0.0013362163680139105 0.001336500866108942 0.0013367853642039735 0.00043848591882787507 0.0004392775841263286 0.00044006924942478206
          0.0029912159338389022 0.002991155767303962 0.0029910956007690214 0.0018584187616625136 0.0018585061938109285 0.001858593625959343
          0.0008605695486812644 0.000861241021781095 0.0008619124948809258 0.0034228024619500793 0.0034227467267594677 0.003422690991568856
          0.002442760951268913 0.00244253033554137 0.0024422997198138272 0.0014356035423086762 0.001435833758633846 0.0014360639749590159
          0.003041554974353519 0.0030411074843506017 0.0030406599943476834 0.0020927873506123035 0.0020926199919903514 0.0020924526333683997
          0.0036168115783595505 0.0036163136966440436 0.003615815814928537 0.002783569419774971 0.002783188404891896 0.0027828073900088212
          0.004142578019907084 0.004142199900372176 0.0041418217808372685 0.003469853321032684 0.0034693438423822197 0.0034688343637317553
          0.0046314778122123045 0.0046312575045599534 0.0046310371969076015 0.0041584885186157165 0.0041578309219195775 0.004157173325223439
          0.004871310682223795 0.0048711802086821715 0.004871049735140549 0.004509226196893915 0.004508510136926789 0.004507794076959662
          0.000001437567289069333 0 0.0000015101245430109932 0 0.0000015826817969526532 0
          0.00005482292887667808 0.000055125670665626514 0.00005542841245457495 0.000233676090742487 0.0002342215839696571 0.00023476707719682723
          0.0005891638875181049 0.0005897266552964076 0.0005902894230747102 0.0011239223916168046 0.0011242107510307476 0.001124499110444691
          0.006915616175558048 0.007488643471913494 0.006916058760804538 0.0074874969087883846 0.006916501346051028 0.007486350345663273
          0.004514124682838207 0.005168686939882029 0.0050167697922262906 0.004514871435028114 0.0051687403161031304 0.005017445420789997
          0.004515618187218021 0.005168793692324231 0.005018121049353704 0.00846193945358771 0.008461474387006349 0.008461009320424984
          0.00791639841484378 0.007913566324927606 0.007910734235011426 0.006022431531766655 0.006024045396740491 0.006025659261714327
          0.0038358039606780415 0.0038357999252973006 0.00383579588991656 0.00423250414153461 0.004232524699256522 0.004232545256978434
          0.004635903162974617 0.004635870903129928 0.004635838643285239 0.005013797467408607 0.005013594424692347 0.005013391381976087
          0.0051865613901522535 0.005186270890176365 0.005185980390200476 0 0 0
          0 0 0 0 0 0
          0.000017494522144358595 0.00001763976691464983 0.000017785011684941063 0.00011686618935972089 0.00011726505945755616 0.00011766392955539144
          0.00038232110929693346 0.00038289557391734357 0.00038347003853775373 0.0017963964113663687 0.0017963058189120551 0.0017962152264577415
          0.0008573270521404083 0.0008578253860099141 0.0008583237198794202 0.002576141835850003 0.002575585272000487 0.00257502870815097
          0.0034488360647837455 0.0034477009501355012 0.003446565835487258 0.003908082814093066 0.003906662726931376 0.0039052426397696866
        </DataArray>
        <DataArray type="Float64" Name="pe11" format="ascii" RangeMin="0" RangeMax="0.010075103193977012">
          0.00857274862499799 0.008800536558244216 0.008873571713100738 0.00854997540808895 0.008577961063806063 0.008805328450856685
          0.008877316251688827 0.00855613587734176 0.008583173502614137 0.008810120343469155 0.008881060790276915 0.008562296346594566
          0.009969194437386173 0.009837960769782148 0.009962899339304184 0.010050075147030787 0.00996668586094404 0.009835557007573298
          0.009959101177247846 0.010047126488817476 0.009964177284501904 0.009833153245364448 0.009955303015191512 0.010044177830604163
          0.005431939997618389 0.006001297706236329 0.005742655687286413 0.003998108301453037 0.0054317321435792395 0.005998953037898911
          0.005741033368500327 0.0040022195676408115 0.005431524289540091 0.00599660836956149 0.005739411049714242 0.004006330833828586
          0.009434857722644041 0.00935381340090442 0.009481755566967783 0.009569248587147059 0.00943515695500632 0.009354418348422214
          0.009481889024232665 0.009569476231078757 0.009435456187368603 0.009355023295940007 0.009482022481497545 0.009569703875010457
          0.009555957894939064 0.009631805177516252 0.009846533579774275 0.00976600499575967 0.00955587640493892 0.009630767879628853
          0.009844676862629796 0.009765051275448348 0.00955579491493878 0.009629730581741453 0.009842820145485319 0.00976409755513703
          0.008946670633758357 0.009178345039988581 0.009215672830327419 0.008952149002890965 0.008946285717838072 0.009178090370169952
          0.009214947245066624 0.008952389805957021 0.008945900801917785 0.00917783570035132 0.009214221659805826 0.008952630609023076
          0.010003319992281753 0.009914228267401806 0.009848939268386947 0.01000194106607416 0.009912884157787908 0.009846832787717422
          0.010000562139866569 0.00991154004817401 0.009844726307047897 0.009377853886915428 0.009395816176305322 0.009378735760685063
          0.009395952920398883 0.009379617634454693 0.00939608966449244 0.008380401226761073 0.009145044038442419 0.00901313867097147
          0.008455127285566754 0.00837950367783321 0.009142549079328446 0.00901207547205643 0.00845300261230697 0.00837860612890535
          0.009140054120214477 0.009011012273141389 0.008450877939047186 0.009321759529513701 0.009446573454410986 0.009321301521888333
          0.009446023992904748 0.009320843514262964 0.00944547453139851 0.009568967485293685 0.009527760535412022 0.009569369585123751
          0.009528570976663923 0.009569771684953814 0.009529381417915825 0.0067969764837698685 0.0066831248311661545 0.005714354529476516
          0.0067947614886585935 0.006680621791253984 0.005708114631624019 0.006792546493547319 0.00667811875134181 0.005701874733771524
          0.008719740406902607 0.008710258496161317 0.008721564079020958 0.008711234896739342 0.008723387751139308 0.008712211297317366
          0.009342015124192941 0.009507839497147485 0.009641654074719066 0.009524206955949084 0.009340662259937451 0.009507476782433728
          0.009641493791070628 0.00952305449046897 0.009339309395681963 0.00950711406771997 0.009641333507422191 0.009521902024988857
          0.009964962360627166 0.01002743304725066 0.009924199872898446 0.00996359220434507 0.010025678799678008 0.009922338596699448
          0.009962222048062977 0.010023924552105351 0.009920477320500451 0.009575605329345965 0.009576236548235363 0.00957686776712476
          0.00959924812941715 0.009335974758604964 0.009528174568902115 0.009598424931315306 0.009336127465562944 0.009527853313930168
          0.00959760173321346 0.009336280172520924 0.009527532058958222 0.009785955524237815 0.00986727560443373 0.009919762222368914
          0.009782642225646546 0.009865293701379252 0.009918850772589567 0.009779328927055275 0.009863311798324772 0.00991793932281022
          0.008770058972991055 0.008649830477799183 0.008573574980612252 0.008772269662050575 0.008652777148318013 0.008576255342165214
          0.008774480351110094 0.008655723818836846 0.008578935703718173 0.008497812619915713 0.008435216405747955 0.008501486345760412
          0.008439513230955546 0.008505160071605112 0.008443810056163133 0.008244702801415251 0.007820767158386031 0.00824187415353623
          0.007818557538351019 0.00823904550565721 0.007816347918316006 0.009605680619241507 0.009602691665215782 0.009599702711190056
          0.009089636853318579 0.008852850804016571 0.00908856562930133 0.008848596411943542 0.009087494405284082 0.008844342019870511
          0.009629025721518964 0.009717696362488 0.00962909198722978 0.009716635772287626 0.009629158252940598 0.009715575182087252
          0.009689832573018295 0.009688889459659095 0.009687946346299894 0.008891205008476566 0.009168540149131264 0.009157723106893027
          0.008901470590314847 0.008890363269675674 0.009168380918522477 0.009157843382118367 0.00890061770265756 0.008889521530874783
          0.00916822168791369 0.009157963657343709 0.008899764815000271 0.004267449984396985 0.004268152319849483 0.004268854655301979
          0.0040097161443298866 0.004911907952911116 0.0040108266609485445 0.004912837247813074 0.0040119371775672015 0.004913766542715031
          0.008603813268609116 0.008527768841147419 0.008607862394622055 0.008531171503733908 0.008611911520634993 0.008534574166320396
          0.009740930633428173 0.009738476010657375 0.009736021387886576 0.009354033138715082 0.00894470639615968 0.009350137672419049
          0.008941396858912487 0.009346242206123019 0.008938087321665292 0.009134322638301879 0.008920987364238757 0.00856134897664699
          0.00883086131944532 0.009133058264918068 0.008918036225631224 0.00855851791496271 0.008830023512722296 0.009131793891534257
          0.00891508508702369 0.008555686853278425 0.008829185705999271 0.009430047235874638 0.00950371177707658 0.009428113925199337
          0.009499915058865967 0.009426180614524037 0.009496118340655356 0.008599633250997689 0.008464225711739836 0.00798312727715908
          0.008011753918662915 0.008595695506484785 0.0084612678483922 0.007983563654620076 0.008010748880814853 0.008591757761971885
          0.008458309985044566 0.00798400003208107 0.008009743842966795 0.009536740586581403 0.009537028008693986 0.009537315430806567
          0.008695677317886735 0.008921075075726778 0.008696017287287012 0.008920474987829568 0.008696357256687293 0.008919874899932357
          0.00904121343372515 0.008736343941144045 0.009042664964006126 0.00873800064470212 0.0090441164942871 0.008739657348260195
          0.00920281278471865 0.009203942773005236 0.009205072761291821 0.009525009350080844 0.00942611031169809 0.009525410601736813
          0.00942551950046844 0.009525811853392782 0.00942492868923879 0.00915509910576083 0.009335188197548245 0.009155546796983598
          0.009334029188270613 0.009155994488206365 0.009332870178992984 0.009574191116968354 0.009572263585885168 0.009574889305983625
          0.009572673812027256 0.009575587494998894 0.009573084038169345 0.00938271376105939 0.00938422389557065 0.009385734030081909
          0.009445707276503635 0.009668945542282323 0.009446577814103019 0.00966832495053642 0.009447448351702404 0.009667704358790516
          0.009473321764642113 0.009530087500246122 0.009473809325587145 0.009530830207268068 0.009474296886532178 0.00953157291429001
          0.009055616013855662 0.008959829715227522 0.009201331960363863 0.009057364425855212 0.008961219555966501 0.009202606597199169
          0.009059112837854762 0.008962609396705483 0.009203881234034475 0.008924819860222205 0.008926828855306762 0.008928837850391318
          0.009156413402377021 0.009404049549867717 0.009156702790893995 0.009405563388278004 0.00915699217941097 0.009407077226688293
          0.009682122048611762 0.00978898084530646 0.00968154276082843 0.009787880423372145 0.009680963473045097 0.009786780001437831
          0.007044929157649588 0.00771118437890162 0.007043276997943398 0.0077105899776984095 0.0070416248382372095 0.007709995576495199
          0.008533594039869303 0.008553690082490637 0.008536139671995274 0.008555630007443665 0.00853868530412125 0.008557569932396694
          0.009077330292849073 0.008843171311662259 0.00911954540050771 0.009077536328501366 0.008846029975792162 0.009120216162190296
          0.009077742364153657 0.008848888639922066 0.009120886923872884 0.009055576116112414 0.00905671896281669 0.009057861809520965
          0.009718118854885669 0.00971736004431467 0.009716601233743674 0.00926686081103806 0.009266009136022536 0.00926515746100701
          0.008812144111877585 0.008816139720253895 0.008820135328630206 0.009589082187888096 0.009589722260851826 0.009590362333815553
          0.00843613231647258 0.008439099923178718 0.00844206752988486 0.009191298544394188 0.009190202445219633 0.009189106346045077
          0.009215530640406991 0.009216319669002056 0.00921710869759712 0.008664407800979218 0.00871649122752859 0.008670667636664487
          0.008722272131099754 0.008676927472349756 0.008728053034670918 0.008418643804775049 0.008405548893832923 0.008422864164855073
          0.008410087788622907 0.008427084524935093 0.00841462668341289 0.009188709354156612 0.009189607375816249 0.009190505397475887
          0.008351574989102795 0.008374143899350033 0.00835408780398012 0.00837681427698516 0.008356600618857443 0.008379484654620288
          0.004973989356398589 0.00377428107393018 0.004974976593204416 0.003776557302515892 0.004975963830010243 0.003778833531101604
          0.007440687430219145 0.007440796922158235 0.007440906414097324 0.00902414861336599 0.00902627423607199 0.009028399858777987
          0.00884397231282215 0.009122404359299808 0.008839422379986498 0.00912057808399829 0.008834872447150846 0.009118751808696772
          0.008889735294354209 0.009177167369690082 0.008889047120228956 0.009176901790185842 0.008888358946103701 0.0091766362106816
          0.009282160763972027 0.009283091140797938 0.009284021517623848 0.009366044635590322 0.009365657783469934 0.00936527093134955
          0.009489023813849048 0.009490395165674912 0.009491766517500772 0.008637872161842603 0.008626545062884034 0.00863837458862918
          0.008627268118924877 0.008638877015415759 0.00862799117496572 0.009804276595420684 0.009803706390334843 0.009803136185249002
          0.009918727039772942 0.009947731976295431 0.010058974133128198 0.010048450347777842 0.009917458935336666 0.009945893077016285
          0.010055494436347328 0.01004493219031839 0.009916190830900392 0.009944054177737138 0.01005201473956646 0.01004141403285894
          0.009429040859210543 0.009672815144801753 0.009430435760703168 0.00967341910697771 0.009431830662195793 0.00967402306915367
          0.009369052940843347 0.009368963175299422 0.009368873409755495 0.010075103193977012 0.010000005718839909 0.010071841765845432
          0.00999785634229038 0.010068580337713852 0.00999570696574085 0.009775785123164323 0.009704240353024403 0.009775166011095742
          0.009701768854640809 0.009774546899027162 0.009699297356257217 0.009570320604213724 0.00957056502377004 0.009570809443326354
          0.009613789174570843 0.009613593627015695 0.009613398079460543 0.009508608765944941 0.009504187615856847 0.009499766465768755
          0.008456133054639528 0.008434133768081734 0.008458164833935819 0.008436295898303924 0.008460196613232109 0.008438458028526117
          0.009751767108287977 0.009747269170111636 0.009742771231935291 0.008076085337695604 0.007173071300849425 0.008619354823601303
          0.008073211463851888 0.007173897904954836 0.00861496778106981 0.00807033759000817 0.007174724509060246 0.00861058073853832
          0.0095897273341198 0.009584854096844573 0.009579980859569343 0.009696312938585454 0.009909923768568071 0.00990469827300778
          0.009696480294647833 0.009906930013944706 0.009901780499333592 0.00969664765071021 0.009903936259321337 0.009898862725659405
          0.009728737375082803 0.00972844798147798 0.009728158587873157 0.009690116304708044 0.009689585699448767 0.009689055094189486
          0.006529205921149157 0.006527883692077071 0.006526561463004985 0.009452635772481515 0.009453632560054106 0.009454629347626694
          0.010053679609950007 0.010050905279209637 0.01004877043214854 0.010045935502857664 0.010043861254347072 0.010040965726505691
          0.0090520445169331 0.009048129747156018 0.009044214977378935 0.008507003666298326 0.008669856236914578 0.008509031394828222
          0.00867007665157254 0.00851105912335812 0.008670297066230502 0.010040555084272422 0.009918860388734197 0.010035853162056164
          0.009915388941407036 0.010031151239839907 0.009911917494079875 0.009498271878771494 0.009120588757016034 0.009492322040626791
          0.009115257741144713 0.00948637220248209 0.00910992672527339 0.007024877671432376 0.007833779568143533 0.007026490234680144
          0.00783358710102445 0.007028102797927913 0.00783339463390537 0.009346931569908677 0.00933920503337655 0.009101633315885403
          0.009346961169259985 0.009338619335143452 0.009099333391611196 0.009346990768611292 0.009338033636910353 0.00909703346733699
          0.008586495168439824 0.008582361981040029 0.008578228793640232 0.008783450664851991 0.008778983411650676 0.00877451615844936
          0.009531988388511051 0.009531820394112355 0.00953165239971366 0.006075672504656544 0.006075139742956555 0.006074606981256565
          0.007937256384719538 0.007370677774533273 0.0074105446243998485 0.007936968731546624 0.00737102246807099 0.007410544544049365
          0.007936681078373711 0.007371367161608706 0.007410544463698882 0.00839526577740641 0.008392327438120585 0.008389389098834757
          0.007536938691303996 0.007537698631785463 0.00753845857226693 0.006780634768822568 0.005808949000645255 0.006783692883073908
          0.005810392391515779 0.006786750997325249 0.005811835782386303 0.006670028864961271 0.006667241840546541 0.006664454816131811
          0.007426388149871518 0.007426110723490669 0.007425833297109818 0.004686533045488573 0.0046862301443562565 0.004685927243223941
          0.00576836908971617 0.005757283864295972 0.005746198638875774 0.004496069088049908 0.004496208942331259 0.00449634879661261
          0.0031699978373149686 0.003179621225437357 0.0031892446135597455 0.0021487651976832313 0.0019902993844630795 0.0021494640786217964
          0.001991220247551926 0.002150162959560362 0.0019921411106407732 0.000974672079544746 0.0008547360808126386 0.0009748480355094472
          0.0008548296802914602 0.0009750239914741483 0.0008549232797702818 0.00021917015509531986 0.00016298610696575415 0.0002198402668166198
          0.00016364231440795223 0.0002205103785379198 0.0001642985218501503 0.0025386318417952927 0.0025388636694386717 0.0025390954970820508
          0.0013318146154066314 0.0013320839944782749 0.001332353373549918 0.00043607591190045165 0.0004368579486582896 0.0004376399854161273
          0.0029867329631472947 0.0029866616132304766 0.0029865902633136585 0.0018521501332163723 0.0018522272173537306 0.001852304301491089
          0.0008552560123739703 0.0008559206625363596 0.0008565853126987488 0.0034179660216491015 0.003417896255772484 0.0034178264898958666
          0.0024350428321270445 0.002434802714926529 0.0024345625977260127 0.001426864791025366 0.001427090965585165 0.0014273171401449642
          0.003033685824763859 0.0030332290240419257 0.0030327722233199923 0.0020815711390538955 0.0020813983183804565 0.002081225497707017
          0.003610042080630759 0.0036095357974220985 0.003609029514213437 0.0027713374577762275 0.0027709509591242664 0.002770564460472305
          0.004137541223700395 0.0041371540639537074 0.004136766904207019 0.0034581644855584287 0.00345764188446317 0.00345711928336791
          0.0046280331494138495 0.004627798567320879 0.004627563985227909 0.004147579927187935 0.00414689211872548 0.004146204310263026
          0.004868502913518464 0.004868355146869402 0.00486820738022034 0.004498378698582486 0.004497624034201144 0.004496869369819802
          0.0000014317077919814378 0 0.000001503861301954502 0 0.0000015760148119275662 0
          0.00005439664392528766 0.000054697012327097264 0.00005499738072890686 0.00023160133530579922 0.000232142075682041 0.0002326828160582827
          0.0005835396528088099 0.0005840976340518177 0.0005846556152948254 0.0011132100941959838 0.0011134964305086312 0.0011137827668212788
          0.00691244000487087 0.007485605250647584 0.006912861013511712 0.007484464004663552 0.006913282022152554 0.007483322758679521
          0.004511553937090868 0.005166750703054584 0.005013638462052675 0.004512286087637718 0.005166788081641068 0.005014286666500643
          0.004513018238184567 0.005166825460227553 0.005014934870948613 0.008459208806800903 0.008458753387031693 0.008458297967262484
          0.007913803845136333 0.007910999906689548 0.007908195968242762 0.006019334371135818 0.006020907357154446 0.006022480343173073
          0.0038313406290326237 0.00383132562150125 0.0038313106139698768 0.004229086021119802 0.004229098229794642 0.0042291104384694815
          0.004633766562315103 0.004633728625988895 0.004633690689662688 0.005012658481391773 0.005012450214507619 0.005012241947623465
          0.005185773412018515 0.005185477107893922 0.005185180803769328 0 0 0
          0 0 0 0 0 0
          0.000017297774285133707 0.000017441231381538893 0.000017584688477944082 0.0001153674928272325 0.00011576232475847088 0.00011615715668970928
          0.00037698463833666865 0.0003775560400153584 0.00037812744169404806 0.0017801805209074159 0.0017800937836964887 0.0017800070464855614
          0.0008442853258393821 0.0008447958644541402 0.0008453064030688982 0.00255498737320283 0.0025544289321289006 0.0025538704910549707
          0.003420633833024987 0.003419479016719916 0.003418324200414844 0.0038750402803398123 0.0038735922943475836 0.0038721443083553552
        </DataArray>
        <DataArray type="Float64" Name="pe22" format="ascii" RangeMin="-0.005051548062408316" RangeMax="0">
          -0.00447043164606945 -0.004618304237203167 -0.004653820226627858 -0.004470501113010438 -0.004469507546466564 -0.004617429876159139
          -0.004652716472049864 -0.004469942180316844 -0.004468583446863677 -0.004616555515115112 -0.0046516127174718695 -0.004469383247623249
          -0.004795061875442566 -0.004755620134129012 -0.004780197257858217 -0.00479951786642166 -0.004795607878310631 -0.004756269175132804
          -0.004780752801572755 -0.004800402903469775 -0.004796153881178695 -0.004756918216136595 -0.004781308345287293 -0.004801287940517891
          -0.002671830655962543 -0.002917024763095443 -0.002823228297202543 -0.0020054562033591196 -0.002671946333906141 -0.002917159675099918
          -0.0028231564821832892 -0.002006216153220408 -0.002672062011849739 -0.0029172945871043937 -0.002823084667164035 -0.002006976103081696
          -0.004769358676862028 -0.004708293522355747 -0.004756089045629267 -0.004825791391320118 -0.004770335908967843 -0.004708624084397179
          -0.004755971305848289 -0.0048264175372341785 -0.00477131314107366 -0.004708954646438611 -0.004755853566067312 -0.004827043683148238
          -0.004510000237367938 -0.004534557039993293 -0.004646946730946486 -0.004609555338273566 -0.0045101635001762175 -0.0045348444977929715
          -0.004647422558594778 -0.004609746033636497 -0.004510326762984496 -0.00453513195559265 -0.00464789838624307 -0.004609936728999427
          -0.004472649898401369 -0.004554581775906377 -0.004597513570459852 -0.004498317397984679 -0.004472001982446176 -0.004554125250534535
          -0.004596944438359477 -0.004497646354483554 -0.004471354066490983 -0.004553668725162694 -0.0045963753062591 -0.004496975310982429
          -0.004793682357848088 -0.004786464810288063 -0.004772888149361277 -0.004794466954926726 -0.004786915517643633 -0.004772858057690322
          -0.004795251552005365 -0.004787366224999203 -0.0047728279660193655 -0.004626686313273613 -0.004658708846205337 -0.004626526447433484
          -0.004658555187030637 -0.004626366581593354 -0.004658401527855937 -0.0039757545313270585 -0.004333249170315832 -0.004276765787426427
          -0.004046020849755494 -0.003976312824469441 -0.00433299817403841 -0.004276466602914691 -0.004045935039968261 -0.003976871117611822
          -0.00433274717776099 -0.0042761674184029555 -0.004045849230181028 -0.0046614901255669795 -0.004710971072815028 -0.004661296655749807
          -0.0047105326248311225 -0.004661103185932637 -0.004710094176847216 -0.004694968926603925 -0.004704144165936164 -0.004694840051114991
          -0.004704317995018314 -0.004694711175626056 -0.004704491824100466 -0.0032894843317495407 -0.003291153157471145 -0.0028094505796962973
          -0.0032892301627161697 -0.0032922404523505993 -0.0028089467544364297 -0.0032889759936827988 -0.0032933277472300543 -0.0028084429291765625
          -0.004418132082493285 -0.004398115831663895 -0.004417459616829367 -0.004397290355927863 -0.00441678715116545 -0.004396464880191829
          -0.0045469992233705524 -0.0046673540411372 -0.004692566663119262 -0.004593809339984173 -0.00454708215214369 -0.004667638596359721
          -0.004692950916429418 -0.004594680819290809 -0.004547165080916826 -0.004667923151582241 -0.004693335169739573 -0.004595552298597445
          -0.004759487212048148 -0.004772175110132281 -0.004703118494930533 -0.004760434834506066 -0.004772969228354733 -0.004703934930386611
          -0.004761382456963984 -0.004773763346577186 -0.004704751365842688 -0.004798385378899659 -0.004797486276476785 -0.0047965871740539125
          -0.0047312792586759345 -0.004626128921638747 -0.004727747982658093 -0.004731134587872568 -0.004626270344454722 -0.004727729098033403
          -0.0047309899170692015 -0.004626411767270697 -0.004727710213408715 -0.004648501662902271 -0.004737760092695185 -0.004778841404721585
          -0.004649039853627875 -0.004738438413385967 -0.004779420389782266 -0.004649578044353479 -0.004739116734076749 -0.0047799993748429475
          -0.004460196239302392 -0.004436007410735632 -0.004388523211807115 -0.004459561280263138 -0.0044352427828628195 -0.004387499632336422
          -0.004458926321223886 -0.004434478154990008 -0.00438647605286573 -0.0044036595296706 -0.004387511029398224 -0.004402780424490851
          -0.004386778407741551 -0.0044019013193111025 -0.004386045786084877 -0.003983221531003384 -0.0037970933541720533 -0.003983458618752378
          -0.003797151954105493 -0.003983695706501374 -0.003797210554038932 -0.005050857983866506 -0.005051203023137411 -0.005051548062408316
          -0.004307860903353837 -0.004211264189879814 -0.00430906903053349 -0.004212518430767485 -0.004310277157713143 -0.004213772671655157
          -0.004731984963003873 -0.004741383436421807 -0.0047320677575650675 -0.004741208283053623 -0.004732150552126262 -0.00474103312968544
          -0.004721794799149413 -0.004721933893428211 -0.004722072987707008 -0.004405584237750057 -0.004508888307356393 -0.0045158931804143085
          -0.004420643285348103 -0.004404747757364304 -0.004508683335697788 -0.004515428869082287 -0.004419863506604781 -0.00440391127697855
          -0.004508478364039184 -0.004514964557750267 -0.00441908372786146 -0.0021119055900098737 -0.002112207159170159 -0.0021125087283304436
          -0.0019886177829168588 -0.0024112553911488054 -0.0019888486834718382 -0.0024110307018375644 -0.0019890795840268173 -0.002410806012526323
          -0.004454596190159425 -0.004399194341592245 -0.004453827415249493 -0.004398151352896606 -0.00445305864033956 -0.004397108364200968
          -0.00459467516181133 -0.004595374152125006 -0.004596073142438683 -0.004472423125396809 -0.0043113421152114455 -0.00447339650226904
          -0.004311305129694433 -0.004474369879141271 -0.004311268144177421 -0.004478109776690902 -0.004324535313980205 -0.0041668086573809875
          -0.00435318887975413 -0.004478455013548887 -0.004324973895405938 -0.0041672869545924425 -0.004353670152825935 -0.004478800250406874
          -0.004325412476831671 -0.0041677652518038975 -0.0043541514258977395 -0.004448981713807685 -0.004490390218690666 -0.004448960578429068
          -0.004489964090382059 -0.0044489394430504495 -0.004489537962073454 -0.004102254523883007 -0.004045195836865008 -0.003873634709220106
          -0.0038575917948983863 -0.004104144833206125 -0.004046190422375073 -0.003875390351190646 -0.0038586825827201694 -0.004106035142529243
          -0.004047185007885139 -0.0038771459931611855 -0.0038597733705419525 -0.0047552060525031204 -0.0047544308438887935 -0.0047536556352744674
          -0.0043713595987450015 -0.004441499546244055 -0.004370577271442106 -0.004440808686168267 -0.004369794944139212 -0.004440117826092482
          -0.004509119320786199 -0.004388745271371128 -0.004509365802414189 -0.004389047167435731 -0.00450961228404218 -0.004389349063500334
          -0.004607763046026125 -0.0046079995321919205 -0.004608236018357717 -0.004726454774092128 -0.004683390616541223 -0.004726669176958257
          -0.004683301380689682 -0.004726883579824389 -0.004683212144838139 -0.00459904792614122 -0.004648842333085419 -0.004598819531962132
          -0.004648470588985805 -0.0045985911377830445 -0.004648098844886189 -0.00477109761641905 -0.004784271744065491 -0.004770495796971747
          -0.004783505059213459 -0.004769893977524444 -0.004782738374361427 -0.004675042360533709 -0.004675655422373691 -0.004676268484213673
          -0.0046277331112254145 -0.004696050074022602 -0.004627991711072703 -0.004696744759386037 -0.00462825031091999 -0.004697439444749473
          -0.0047267848335962905 -0.004751083540332508 -0.00472755079843282 -0.004751258500047291 -0.004728316763269349 -0.004751433459762073
          -0.004610673057488503 -0.004528092384104704 -0.004657671203940469 -0.004610545900056925 -0.0045276564888991275 -0.004657662923471274
          -0.004610418742625347 -0.00452722059369355 -0.004657654643002079 -0.004565787209380931 -0.0045657247037634765 -0.004565662198146021
          -0.004523645490092466 -0.004606331646809273 -0.004523318158383193 -0.004606371099414258 -0.0045229908266739205 -0.004606410552019242
          -0.004741288561190963 -0.004758441283060567 -0.00474123667050147 -0.004758477736461804 -0.004741184779811976 -0.004758514189863042
          -0.0033840542810279 -0.0036909763753251337 -0.0033843450354235174 -0.0036918647957617165 -0.0033846357898191354 -0.0036927532161983
          -0.004368634878629651 -0.004339566309929194 -0.00436788489949799 -0.004339043926998958 -0.004367134920366328 -0.004338521544068723
          -0.0046721197104338825 -0.004559940508120729 -0.004664601637238142 -0.0046729676541885715 -0.004560281473418569 -0.004665078116419825
          -0.004673815597943263 -0.004560622438716411 -0.004665554595601506 -0.004714749304665901 -0.004715817697895053 -0.0047168860911242045
          -0.004701880579314368 -0.004702235830806896 -0.004702591082299426 -0.0047041233602628 -0.004704662591811528 -0.004705201823360256
          -0.004592045156630697 -0.004592175598466881 -0.004592306040303065 -0.004747274282373015 -0.004747442291000623 -0.0047476102996282295
          -0.004344821612607224 -0.00434430239606108 -0.004343783179514936 -0.0048073588857231704 -0.004806650524271212 -0.004805942162819254
          -0.004698953540954131 -0.00469920878237712 -0.004699464023800111 -0.00462179672425938 -0.004601395123970691 -0.004620156308373299
          -0.0046016127649144865 -0.004618515892487219 -0.004601830405858282 -0.004425667034299707 -0.004397988256335378 -0.00442433485030371
          -0.004396990640898611 -0.004423002666307713 -0.004395993025461843 -0.004828294117223154 -0.004829524164917575 -0.004830754212611996
          -0.004321019913916745 -0.004326000867109194 -0.0043194975577287775 -0.004324878757768101 -0.004317975201540812 -0.004323756648427006
          -0.0024490001937283613 -0.001882695894228634 -0.0024484398809394223 -0.001883041561391302 -0.0024478795681504824 -0.0018833872285539698
          -0.0035698685307459744 -0.0035710680650742825 -0.003572267599402591 -0.004733332886203328 -0.0047332027585094685 -0.004733072630815609
          -0.004183590264903565 -0.004321738407859016 -0.004184399956479135 -0.004322906352664517 -0.004185209648054704 -0.004324074297470017
          -0.004399773272505821 -0.004504862348974049 -0.004398951632114037 -0.004504880812913056 -0.0043981299917222536 -0.004504899276852061
          -0.004717323825132401 -0.004717507324394463 -0.004717690823656525 -0.004746916302050321 -0.004747907583992316 -0.004748898865934312
          -0.004721119405680326 -0.004721811399095341 -0.004722503392510356 -0.004335636873446531 -0.004328871862480203 -0.004334418524344454
          -0.004327519236775945 -0.004333200175242378 -0.0043261666110716865 -0.004755880448700214 -0.00475601459927112 -0.004756148749842027
          -0.004689046745830117 -0.004701232453759993 -0.004757973287592165 -0.004746859907967664 -0.004689353612702736 -0.0047017099610706485
          -0.004758629761482104 -0.004747248459240803 -0.004689660479575355 -0.004702187468381304 -0.0047592862353720445 -0.004747637010513943
          -0.0046139312723976296 -0.004685805090705948 -0.004614215870571498 -0.004686256843967431 -0.004614500468745366 -0.004686708597228914
          -0.004420159228336412 -0.004420682068363688 -0.004421204908390964 -0.004784530229823309 -0.004734737687539474 -0.004785533874144791
          -0.00473551557622919 -0.0047865375184662756 -0.004736293464918908 -0.00472580923584701 -0.004658236511746263 -0.004726353191112756
          -0.00465949489266378 -0.004726897146378501 -0.004660753273581295 -0.004756741917927044 -0.004756451859817538 -0.0047561618017080325
          -0.004745413247516529 -0.004745306115939195 -0.00474519898436186 -0.004521806424927688 -0.004522312492893582 -0.004522818560859477
          -0.004308433848613695 -0.0043008476526339165 -0.004307245832035378 -0.004299348853721898 -0.00430605781545706 -0.004297850054809878
          -0.004666504701456647 -0.004667415414400992 -0.004668326127345339 -0.0039040362691200948 -0.0034916871429168887 -0.004162762048872271
          -0.003903864878984645 -0.0034919764541495747 -0.004162799718915635 -0.0039036934888491944 -0.0034922657653822598 -0.004162837388959001
          -0.0045700958221311415 -0.004571825529545776 -0.00457355523696041 -0.004694746707590189 -0.004722449958534483 -0.0047295396867634235
          -0.004695170244739553 -0.0047226522479280044 -0.004729897638182929 -0.004695593781888916 -0.004722854537321526 -0.0047302555896024355
          -0.004598864340267706 -0.00459891718360888 -0.004598970026950054 -0.0047352253757067435 -0.004735163426673271 -0.0047351014776397995
          -0.0031568153022808504 -0.003157283822001987 -0.003157752341723124 -0.00462093253491261 -0.004621443429541323 -0.004621954324170036
          -0.004762268010111817 -0.004748783645888563 -0.004762676750530022 -0.004748935471500528 -0.00476308549094823 -0.004749087297112493
          -0.004294878963606167 -0.004295731770979442 -0.0042965845783527155 -0.004325979725379566 -0.004352430425159779 -0.0043253639657038585
          -0.004351559028717315 -0.004324748206028151 -0.004350687632274851 -0.004787195561180731 -0.004751903569052039 -0.004787681582719783
          -0.004752122818816648 -0.004788167604258835 -0.004752342068581259 -0.004527527781148116 -0.004359181257176426 -0.004528832673565535
          -0.004360191259470055 -0.004530137565982954 -0.004361201261763683 -0.003406530206202841 -0.003741904862145033 -0.003406497346292778
          -0.0037417072569946135 -0.003406464486382715 -0.003741509651844193 -0.004424007208928207 -0.004430722129508432 -0.004319843909167538
          -0.0044245769492396204 -0.004430969499721654 -0.0043198758294594065 -0.004425146689551034 -0.004431216869934874 -0.004319907749751273
          -0.004087608130397031 -0.0040878506709027375 -0.004088093211408443 -0.004171418359603588 -0.004170248498527809 -0.004169078637452031
          -0.0045087690338887175 -0.004508868104888052 -0.004508967175887385 -0.0029588675348799307 -0.0029579286984072733 -0.0029569898619346163
          -0.003892502046583541 -0.0036401149353221243 -0.0036263024018313396 -0.0038928204654463472 -0.0036409522893299335 -0.003627194324046977
          -0.0038931388843091537 -0.003641789643337743 -0.0036280862462626136 -0.004046981621703541 -0.004045855633675216 -0.00404472964564689
          -0.003639937039259348 -0.003639423728547052 -0.003638910417834755 -0.003291290339488183 -0.002817509856837201 -0.0032910704623422393
          -0.0028169805261798963 -0.0032908505851962956 -0.0028164511955225914 -0.003309950454307369 -0.0033121734029799782 -0.003314396351652587
          -0.00359341961152692 -0.0035940887181541586 -0.003594757824781398 -0.002302540602267273 -0.002301676624507977 -0.0023008126467486804
          -0.002817241679678762 -0.0028163231662257254 -0.0028154046527726884 -0.0021839110275805565 -0.0021830852144257107 -0.0021822594012708644
          -0.001591217880963535 -0.00159301698343979 -0.0015948160859160449 -0.0010478331034958397 -0.0009723147330891437 -0.0010474007547224952
          -0.0009717618184428037 -0.001046968405949151 -0.0009712089037964635 -0.0004410166650200425 -0.00038277223869100807 -0.00044077138711832433
          -0.00038253114755068036 -0.0004405261092166061 -0.0003822900564103527 -0.00009678136708128677 -0.00007129359036639899 -0.0000969816953341559
          -0.00007151737812935254 -0.00009718202358702501 -0.00007174116589230607 -0.001233450974798859 -0.001233287717579232 -0.0012331244603596045
          -0.0006131032389339493 -0.0006129565928902488 -0.0006128099468465486 -0.00019418223996262008 -0.0001943504802559116 -0.00019451872054920312
          -0.0014503135940050586 -0.0014502476068831102 -0.0014501816197611617 -0.0008625574674603239 -0.0008624536036388 -0.0008623497398172762
          -0.0003819241281404305 -0.0003819933237386789 -0.00038206251933692727 -0.001663854252918876 -0.0016638436570906767 -0.001663833061262477
          -0.0011425045337502646 -0.0011423896365947666 -0.001142274739439269 -0.0006405577931003543 -0.0006404887363461548 -0.0006404196795919551
          -0.0014352269003524987 -0.001435163108671813 -0.0014350993169911274 -0.0009444582191557146 -0.0009443354280919226 -0.0009442126370281306
          -0.0017273082700804724 -0.0017273088350971263 -0.0017273094001137802 -0.0012782854410496162 -0.0012782486341557323 -0.0012782118272618482
          -0.002007685464845514 -0.0020077132296896297 -0.0020077409945337453 -0.0016330230436095606 -0.0016329142744514486 -0.0016328055052933367
          -0.0022637691561740525 -0.002263702368636587 -0.002263635581099122 -0.001987118166994094 -0.001986671390794126 -0.0019862246145941577
          -0.002383169641211727 -0.0023830433557510047 -0.0023829170702902823 -0.002159207356605782 -0.002158586418000789 -0.002157965479395795
          -6.092994355901615e-7 0 -6.38868132399482e-7 0 -6.684368292088024e-7 0
          -0.000023012116488525375 -0.00002310966836098189 -0.000023207220233438406 -0.00009825827768974744 -0.00009838040901824823 -0.00009850254034674902
          -0.0002483012605220145 -0.0002483432695495067 -0.00024838527857699887 -0.0004783678486121241 -0.00047827858407006874 -0.0004781893195280133
          -0.00336507084176349 -0.0036439613976079564 -0.0033651274891139406 -0.003643581565548299 -0.003365184136464391 -0.0036432017334886418
          -0.0022362058321302924 -0.002545325513628885 -0.002459818123382059 -0.0022366260872731724 -0.0025455347169652306 -0.0024600232618073197
          -0.0022370463424160525 -0.0025457439203015776 -0.002460228400232581 -0.004212342402407462 -0.004212118828260437 -0.00421189525411341
          -0.003886651843243368 -0.003885929473413351 -0.0038852071035833323 -0.0029283313263389586 -0.0029286732017591494 -0.0029290150771793403
          -0.0018724209046178954 -0.0018725565607617526 -0.0018726922169056094 -0.002078472222131276 -0.0020786825157356964 -0.0020788928093401163
          -0.0022914299308703927 -0.002291619656561111 -0.0022918093822518297 -0.002485613076142542 -0.0024856670375591116 -0.002485720998975681
          -0.002571100719093877 -0.002571074516515298 -0.0025710483139367193 0 0 0
          0 0 0 0 0 0
          -0.000006851429147582993 -0.000006898740602739299 -0.0000069460520578956055 -0.000046264993332691515 -0.000046365150897559314 -0.00004646530846242712
          -0.00015309240893570625 -0.00015317906259668736 -0.00015326571625766847 -0.0007812233280753575 -0.0007811053443380921 -0.0007809873606008268
          -0.0003513699888234858 -0.0003514030861865373 -0.00035143618354958883 -0.001162093575680649 -0.0011617917881547018 -0.0011614900006287545
          -0.0015944675486866506 -0.001593683144066481 -0.0015928987394463114 -0.0018153505047088744 -0.001814303553879287 -0.0018132566030496997
        </DataArray>
        <DataArray type="Float64" Name="pe33" format="ascii" RangeMin="-0.00530212163332107" RangeMax="0">
          -0.004102316978928541 -0.004182232321041049 -0.004219751486472879 -0.004079474295078512 -0.004108453517339501 -0.004187898574697546
          -0.004224599779638963 -0.004086193697024915 -0.004114590055750461 -0.0041935648283540445 -0.004229448072805046 -0.004092913098971319
          -0.0051741325619436025 -0.0050823406356531355 -0.0051827020814459645 -0.0052505572806091265 -0.005171077982633406 -0.005079287832440495
          -0.005178348375675091 -0.005246723585347698 -0.005168023403323207 -0.005076235029227853 -0.005173994669904217 -0.005242889890086272
          -0.0027601093416558466 -0.003084272943140886 -0.0029194273900838698 -0.0019926520980939164 -0.0027597858096730992 -0.0030817933627989916
          -0.0029178768863170382 -0.0019960034144204026 -0.0027594622776903515 -0.003079313782457097 -0.002916326382550206 -0.001999354730746889
          -0.004665499045782012 -0.004645519878548672 -0.0047256665213385165 -0.004743457195826939 -0.004664821046038476 -0.004645794264025034
          -0.004725917718384376 -0.0047430586938445795 -0.004664143046294942 -0.004646068649501394 -0.004726168915430234 -0.004742660191862218
          -0.005045957657571128 -0.00509724813752296 -0.005199586848827788 -0.0051564496574861025 -0.005045712904762705 -0.005095923381835882
          -0.005197254304035019 -0.0051553052418118524 -0.005045468151954282 -0.005094598626148805 -0.005194921759242249 -0.005154160826137602
          -0.004474020735356987 -0.004623763264082206 -0.004618159259867569 -0.004453831604906285 -0.004474283735391894 -0.004623965119635417
          -0.004618002806707147 -0.004454743451473465 -0.004474546735426802 -0.0046241669751886285 -0.004617846353546726 -0.004455655298040647
          -0.0052096376344336615 -0.005127763457113741 -0.005076051119025668 -0.0052074741111474325 -0.0051259686401442725 -0.0050739747300271
          -0.005205310587861203 -0.005124173823174804 -0.005071898341028528 -0.004751167573641819 -0.004737107330099986 -0.004752209313251579
          -0.0047373977333682454 -0.004753251052861339 -0.004737688136636504 -0.004404646695434014 -0.004811794868126587 -0.004736372883545042
          -0.00440910643581126 -0.004403190853363771 -0.004809550905290037 -0.004735608869141738 -0.004407067572338709 -0.004401735011293526
          -0.004807306942453485 -0.004734844854738433 -0.004405028708866158 -0.004660269403946721 -0.004735602381595957 -0.004660004866138524
          -0.004735491368073625 -0.004659740328330326 -0.004735380354551294 -0.004873998558689761 -0.004823616369475859 -0.00487452953400876
          -0.004824252981645609 -0.004875060509327759 -0.004824889593815359 -0.003507492152020326 -0.0033919716736950105 -0.0029049039497802184
          -0.0035055313259424233 -0.003388381338903383 -0.0028991678771875893 -0.0035035704998645206 -0.003384791004111756 -0.0028934318045949602
          -0.004301608324409321 -0.004312142664497423 -0.004304104462191588 -0.00431394454081148 -0.004306600599973856 -0.004315746417125536
          -0.004795015900822387 -0.004840485456010285 -0.004949087411599805 -0.00493039761596491 -0.004793580107793763 -0.004839838186074008
          -0.00494854287464121 -0.004928373671178161 -0.004792144314765138 -0.004839190916137728 -0.004947998337682617 -0.0049263497263914114
          -0.005205475148579016 -0.0052552579371183804 -0.005221081377967911 -0.005203157369839003 -0.005252709571323272 -0.005218403666312836
          -0.0052008395910989914 -0.005250161205528165 -0.005215725954657761 -0.004777219950446303 -0.004778750271758577 -0.00478028059307085
          -0.004867968870741218 -0.004709845836966214 -0.004800426586244022 -0.004867290343442738 -0.00470985712110822 -0.004800124215896763
          -0.004866611816144257 -0.004709868405250226 -0.004799821845549506 -0.005137453861335545 -0.005129515511738543 -0.005140920817647326
          -0.00513360237201867 -0.0051268552879932825 -0.005139430382807298 -0.005129750882701794 -0.0051241950642480225 -0.005137939947967272
          -0.004309862733688661 -0.00421382306706355 -0.004185051768805138 -0.004312708381787433 -0.004217534365455192 -0.00418875570982879
          -0.004315554029886205 -0.004221245663846835 -0.004192459650852444 -0.004094153090245114 -0.004047705376349732 -0.004098705921269562
          -0.004052734823213995 -0.00410325875229401 -0.004057764270078257 -0.004261481270411866 -0.004023673804213977 -0.0042584155347838515
          -0.004021405584245525 -0.004255349799155837 -0.004019137364277073 -0.004554822635375001 -0.004551488642078371 -0.0045481546487817414
          -0.00478177594996474 -0.004641586614136756 -0.0047794965987678385 -0.004636077981176055 -0.004777217247570938 -0.004630569348215354
          -0.004897040758515089 -0.004976312926066193 -0.004897024229664712 -0.004975427489234002 -0.0048970077008143355 -0.004974542052401812
          -0.004968037773868885 -0.004966955566230885 -0.004965873358592886 -0.004485620770726508 -0.004659651841774869 -0.004641829926478717
          -0.004480827304966746 -0.004485615512311369 -0.004659697582824687 -0.004642414513036081 -0.004480754196052778 -0.004485610253896231
          -0.0046597433238745045 -0.004642999099593442 -0.004480681087138812 -0.002155544394387112 -0.0021559451606793234 -0.002156345926971535
          -0.002021098361413028 -0.002500652561762311 -0.0020219779774767062 -0.0025018065459755097 -0.0020228575935403847 -0.0025029605301887087
          -0.0041492170784496905 -0.004128574499555173 -0.004154034979372561 -0.004133020150837301 -0.004158852880295432 -0.004137465802119429
          -0.005146255471616842 -0.0051431018585323665 -0.005139948245447893 -0.004881610013318272 -0.004633364280948234 -0.004876741170150009
          -0.0046300917292180525 -0.0048718723269817465 -0.004626819177487873 -0.004656212861610976 -0.004596452050258551 -0.004394540319266003
          -0.00447767243969119 -0.004654603251369179 -0.004593062330225285 -0.004391230960370266 -0.00447635335989636 -0.0046529936411273815
          -0.004589672610192019 -0.0043879216014745285 -0.004475034280101531 -0.00498106552206695 -0.005013321558385914 -0.004979153346770269
          -0.005009950968483908 -0.004977241171473587 -0.005006580378581901 -0.00449737872711468 -0.004419029874874825 -0.004109492567938974
          -0.004154162123764526 -0.00449155067327866 -0.004415077426017126 -0.004108173303429429 -0.004152066298094684 -0.0044857226194426406
          -0.004411124977159426 -0.004106854038919885 -0.0041499704724248425 -0.004781534534078282 -0.004782597164805191 -0.004783659795532099
          -0.004324317719141733 -0.004479575529482723 -0.004325440015844908 -0.0044796663016613 -0.004326562312548082 -0.004479757073839877
          -0.004532094112938951 -0.004347598669772917 -0.004533299161591935 -0.00434895347726639 -0.004534504210244919 -0.004350308284759862
          -0.004595049738692525 -0.004595943240813314 -0.004596836742934103 -0.004798554575988715 -0.004742719695156866 -0.004798741424778554
          -0.0047422181197787575 -0.004798928273568392 -0.0047417165444006495 -0.004556051179619611 -0.004686345864462825 -0.004556727265021465
          -0.004685558599284809 -0.00455740335042332 -0.0046847713341067925 -0.004803093500549305 -0.004787991841819677 -0.0048043935090118775
          -0.004789168752813797 -0.004805693517474451 -0.004790345663807918 -0.004707671400525681 -0.004708568473196959 -0.0047094655458682355
          -0.004817974165278223 -0.004972895468259722 -0.004818586103030318 -0.004971580191150381 -0.004819198040782414 -0.004970264914041041
          -0.004746536931045823 -0.004779003959913614 -0.004746258527154325 -0.004779571707220776 -0.004745980123262827 -0.004780139454527937
          -0.004444942956367158 -0.004431737331122816 -0.004543660756423394 -0.004446818525798287 -0.004433563067067374 -0.004544943673727896
          -0.004448694095229415 -0.004435388803011932 -0.004546226591032395 -0.004359032650841273 -0.004361104151543285 -0.004363175652245296
          -0.004632767912284554 -0.004797717903058443 -0.0046333846325108015 -0.004799192288863744 -0.00463400135273705 -0.004800666674669047
          -0.004940833487420795 -0.005030539562245891 -0.004940306090326959 -0.005029402686910339 -0.004939778693233122 -0.005028265811574788
          -0.0036608748766216864 -0.004020208003576486 -0.003658931962519879 -0.004018725181936691 -0.0036569890484180723 -0.004017242360296898
          -0.004164959161239651 -0.004214123772561445 -0.004168254772497286 -0.004216586080444707 -0.0041715503837549215 -0.00421904838832797
          -0.0044052105824151895 -0.004283230803541531 -0.004454943763269569 -0.004404568674312792 -0.004285748502373591 -0.0044551380457704725
          -0.004403926766210394 -0.004288266201205653 -0.0044553323282713764 -0.004340826811446511 -0.004340901264921635 -0.004340975718396758
          -0.005016238275571298 -0.0050151242135077715 -0.005014010151444247 -0.004562737450775257 -0.004561346544211006 -0.004559955637646755
          -0.004220098955246888 -0.004223964121787014 -0.004227829288327139 -0.00484180790551508 -0.004842279969851201 -0.004842752034187323
          -0.004091310703865356 -0.0040947975271176384 -0.004098284350369921 -0.004383939658671017 -0.00438355192094842 -0.0043831641832258236
          -0.004516577099452862 -0.004517110886624936 -0.00451764467379701 -0.004042611076719839 -0.004115096103557899 -0.0040505113282911865
          -0.004120659366185266 -0.004058411579862534 -0.004126222628812634 -0.003992976770475343 -0.004007560637497546 -0.003998529314551361
          -0.0040130971477242965 -0.004004081858627379 -0.004018633657951045 -0.004360415236933455 -0.004360083210898672 -0.004359751184863889
          -0.00403055507518605 -0.004048143032240839 -0.00403459024625134 -0.0040519355192170595 -0.00403862541731663 -0.00405572800619328
          -0.002524989162670228 -0.0018915851797015452 -0.0025265367122649937 -0.0018935157411245893 -0.0025280842618597603 -0.0018954463025476337
          -0.003870818899473169 -0.0038697288570839505 -0.0038686388146947324 -0.004290815727162659 -0.00429307147756252 -0.004295327227962381
          -0.004660382047918584 -0.004800665951440791 -0.004655022423507363 -0.004797671731333773 -0.0046496627990961405 -0.004794677511226754
          -0.004489962021848384 -0.0046723050207160294 -0.004490095488114916 -0.004672020977272784 -0.004490228954381446 -0.004671736933829539
          -0.004564836938839626 -0.004565583816403474 -0.004566330693967322 -0.004619128333539999 -0.004617750199477617 -0.004616372065415236
          -0.00476790440816872 -0.004768583766579568 -0.004769263124990416 -0.0043022352883960715 -0.004297673200403827 -0.004303956064284725
          -0.004299748882148931 -0.00430567684017338 -0.004301824563894033 -0.005048396146720471 -0.005047691791063724 -0.005046987435406975
          -0.005229680293942824 -0.005246499522535437 -0.00530100084553603 -0.005301590439810176 -0.005228105322633932 -0.005244183115945635
          -0.005296864674865222 -0.005297683731077587 -0.005226530351325039 -0.005241866709355834 -0.0052927285041944145 -0.005293777022344997
          -0.0048151095868129105 -0.004987010054095802 -0.004816219890131668 -0.004987162263010279 -0.004817330193450425 -0.004987314471924756
          -0.004948893712506935 -0.004948281106935733 -0.004947668501364531 -0.0052905729641537 -0.005265268031300434 -0.005286307891700638
          -0.0052623407660611875 -0.005282042819247575 -0.0052594135008219405 -0.0050499758873173125 -0.005046003841278138 -0.005048812819982987
          -0.005042273961977029 -0.005047649752648662 -0.005038544082675921 -0.004813578686286681 -0.004814113163952501 -0.004814647641618323
          -0.004868375927054314 -0.004868287511076498 -0.004868199095098682 -0.004986802341017253 -0.004981875122963265 -0.004976947904909276
          -0.004147699206025833 -0.004133286115447816 -0.00415091900190044 -0.0041369470445820275 -0.004154138797775047 -0.004140607973716239
          -0.005085262406831331 -0.00507985375571064 -0.005074445104589951 -0.0041720490685755104 -0.0036813841579325366 -0.0044565927747290315
          -0.004169346584867242 -0.0036819214508052606 -0.004452168062154174 -0.004166644101158974 -0.0036824587436779855 -0.0044477433495793165
          -0.005019631511988657 -0.005013028567298796 -0.005006425622608934 -0.005001566230995263 -0.005187473810033587 -0.005175158586244354
          -0.005001310049908279 -0.005184277766016701 -0.005171882861150662 -0.005001053868821296 -0.005181081721999813 -0.005168607136056969
          -0.005129873034815097 -0.0051295307978691 -0.005129188560923102 -0.004954890929001301 -0.004954422272775494 -0.004953953616549687
          -0.0033723906188683063 -0.0033705998700750838 -0.0033688091212818612 -0.0048317032375689035 -0.00483218913051278 -0.0048326750234566574
          -0.005291411599838189 -0.00530212163332107 -0.005286093681618514 -0.005297000031357134 -0.0052807757633988395 -0.005291878429393199
          -0.00475716555332693 -0.0047523979761765756 -0.004747630399026219 -0.004181023940918759 -0.0043174258117548 -0.004183667429124365
          -0.004318517622855225 -0.004186310917329969 -0.00431960943395565 -0.005253359523091691 -0.005166956819682158 -0.0052481715793363795
          -0.005163266122590386 -0.00524298363558107 -0.005159575425498615 -0.004970744097623379 -0.004761407499839607 -0.004963489367061257
          -0.004755066481674658 -0.004956234636499135 -0.004748725463509708 -0.003618347465229535 -0.004091874705998499 -0.003619992888387366
          -0.004091879844029837 -0.0036216383115451976 -0.004091884982061176 -0.004922924360980471 -0.004908482903868116 -0.004781789406717862
          -0.004922384220020365 -0.004907649835421797 -0.0047794575621517895 -0.004921844079060258 -0.0049068167669754775 -0.004777125717585717
          -0.004498887038042794 -0.004494511310137291 -0.00449013558223179 -0.004612032305248402 -0.004608734913122865 -0.004605437520997327
          -0.0050232193546223365 -0.005022952289224303 -0.00502268522382627 -0.003116804969776614 -0.0031172110445492813 -0.0031176171193219495
          -0.004044754338135996 -0.003730562839211151 -0.00378424222256851 -0.004044148266100276 -0.0037300701787410565 -0.003783350220002389
          -0.004043542194064557 -0.003729577518270962 -0.003782458217436268 -0.004348284155702869 -0.004346471804445368 -0.004344659453187866
          -0.0038970016520446476 -0.0038982749032384113 -0.003899548154432174 -0.003489344429334385 -0.0029914391438080543 -0.003492622420731669
          -0.0029934118653358825 -0.003495900412128953 -0.002995384586863711 -0.003360078410653904 -0.003355068437566564 -0.0033500584644792237
          -0.0038329685383445976 -0.0038320220053365086 -0.003831075472328419 -0.0023839924432212988 -0.0023845535198482796 -0.00238511459647526
          -0.0029511274100374072 -0.002940960698070246 -0.0029307939861030843 -0.00231215806046935 -0.0023131237279055473 -0.0023140893953417442
          -0.0015787799563514336 -0.001586604241997567 -0.0015944285276437006 -0.0011009320941873916 -0.001017984651373936 -0.0011020633238993014
          -0.0010194584291091228 -0.001103194553611211 -0.0010209322068443095 -0.0005336554145247035 -0.0004719638421216305 -0.0005340766483911228
          -0.00047229853274077956 -0.0005344978822575421 -0.0004726332233599287 -0.00012238878801403306 -0.00009169251659935512 -0.00012285857148246389
          -0.00009212493627859968 -0.0001233283549508947 -0.00009255735595784424 -0.0013051808669964336 -0.0013055759518594398 -0.0013059710367224458
          -0.0007187113764726823 -0.0007191274015880258 -0.0007195434267033693 -0.00024189367193783154 -0.00024250746840237783 -0.00024312126486692416
          -0.0015364193691422357 -0.001536414006347366 -0.0015364086435524964 -0.0009895926657560482 -0.0009897736137149304 -0.0009899545616738126
          -0.0004733318842335397 -0.00047392733879768063 -0.0004745227933618216 -0.0017541117687302253 -0.0017540525986818071 -0.0017539934286333891
          -0.00129253829837678 -0.0012924130783317617 -0.0012922878582867434 -0.0007863069979250116 -0.0007866022292390103 -0.0007868974605530089
          -0.0015984589244113605 -0.0015980659153701125 -0.0015976729063288642 -0.0011371129198981807 -0.0011370628902885335 -0.0011370128606788864
          -0.0018827338105502868 -0.0018822269623249717 -0.0018817201140996565 -0.0014930520167266113 -0.001492702324968534 -0.0014923526332104565
          -0.002129855758854881 -0.002129440834264077 -0.0021290259096732726 -0.0018251414419488687 -0.001824727610011721 -0.0018243137780745737
          -0.002364263993239798 -0.0023640961986842917 -0.0023639284041287864 -0.0021604617601938417 -0.0021602207279313545 -0.0021599796956688674
          -0.002485333272306737 -0.002485311791118397 -0.0024852903099300563 -0.0023391713419767036 -0.0023390376162003546 -0.002338903890424006
          -8.224083563912763e-7 0 -8.649931695550199e-7 0 -9.075779827187636e-7 0
          -0.000031384527436762264 -0.000031587343966115364 -0.00003179016049546847 -0.00013334305761605178 -0.0001337616666637927 -0.00013418027571153362
          -0.00033523839228679546 -0.00033575436450231094 -0.0003362703367178264 -0.0006348422455838597 -0.0006352178464385627 -0.0006355934472932654
          -0.0035473691631073773 -0.0038416438530396242 -0.00354773352439777 -0.0038408824391152523 -0.0035480978856881618 -0.003840121025190881
          -0.0022753481049605766 -0.0026214251894256992 -0.0025538203386706155 -0.002275660000364545 -0.0026212533646758364 -0.0025542634046933233
          -0.0022759718957685135 -0.002621081539925974 -0.0025547064707160307 -0.004246866404393441 -0.004246634558771257 -0.004246402713149073
          -0.004027152001892964 -0.004025070433276196 -0.004022988864659428 -0.003091003044796858 -0.0030922341553952944 -0.003093465265993731
          -0.0019589197244147287 -0.001958769060739498 -0.001958618397064267 -0.002150613798988527 -0.0021504157140589454 -0.0021502176291293635
          -0.00234233663144471 -0.0023421089694277836 -0.0023418813074108577 -0.002527045405249231 -0.002526783176948507 -0.0025265209486477827
          -0.002614672692924637 -0.002614402591378623 -0.0026141324898326084 0 0 0
          0 0 0 0 0 0
          -0.000010446345137550712 -0.000010542490778799594 -0.000010638636420048474 -0.00006910249949454096 -0.00006939717386091156 -0.00006969184822728215
          -0.00022389222940096237 -0.00022437697741867096 -0.00022486172543637964 -0.0009989571928320587 -0.0009989884393583966 -0.0009990196858847347
          -0.0004929153370158962 -0.0004933927782676029 -0.0004938702195193096 -0.0013928937975221812 -0.0013926371439741988 -0.0013923804904262165
          -0.0018261662843383362 -0.0018257958726534342 -0.001825425460968532 -0.002059689775630937 -0.0020592887404682963 -0.002058887705305655
        </DataArray>
        <DataArray type="Float64" Name="disp_x" format="ascii" RangeMin="0.00007533473103889083" RangeMax="0.0002257921679482011">
          0.00008904215115376644 0.00008551798315763216 0.00008312817384746603 0.0000874059616528671 0.0000890406164856957 0.0000855148674775995
          0.00008312244117199699 0.00008740401457929211 0.00008903757887679864 0.00008550641918802003 0.00008310637571020077 0.00008739932426540846
          0.00013697696124847063 0.00013114502840103098 0.0001335809526900403 0.00013929190918196552 0.00013697857238474946 0.00013114759724274468
          0.00013358332156000784 0.00013929163509596835 0.00013698306635390222 0.00013115623349783267 0.00013359244612245924 0.00013929263228650696
          0.00019875630056771033 0.00019716532356123305 0.0001996667622860872 0.00020715322652997996 0.0001987447398440417 0.00019715626698710306
          0.00019965476668602292 0.00020714471977616657 0.00019870740180205363 0.00019713254845455495 0.0001996155751736154 0.00020711948677819392
          0.00009919102949079974 0.00010452836439570861 0.00010862667906384938 0.00010358584095213613 0.00009919056172847548 0.00010452993062791219
          0.00010862683993713116 0.0001035859379406243 0.00009919059467825005 0.00010453342603991095 0.00010862921204461812 0.00010358563340539657
          0.00016115011371972183 0.00015955807013027186 0.00015349726067026554 0.00015523181321387575 0.00016114659405134572 0.00015955438841929123
          0.00015349435762317123 0.00015522827436829627 0.00016113804412877517 0.00015954442927504288 0.00015348722172177668 0.00015521971742452808
          0.00010773415188042818 0.00011342738001259918 0.00011062076249065457 0.00010491125252321299 0.00010773705438377263 0.00011342874433444351
          0.00011062260257780631 0.00010491350585741962 0.00010774622965669992 0.0001134339585395196 0.00011062892950472578 0.00010492179273125646
          0.00014334708932974976 0.00014075440116049042 0.0001344100850520739 0.0001433479738822186 0.00014075466618696127 0.00013441158433990488
          0.000143349579753169 0.00014075654436227105 0.0001344164323851906 0.000119642035426517 0.00011763272278802469 0.00011964430778139803
          0.00011763446634975191 0.00011964943130605822 0.0001176382001292486 0.00017674966819891362 0.00016927282601537919 0.00017116817435006333
          0.00017933219850516972 0.00017674240509869577 0.00016926636646377307 0.00017116345349735414 0.00017932628154172613 0.00017672241438394595
          0.00016924661424561142 0.00017114948996128834 0.00017931251589062446 0.0001087892268907033 0.00011296485513963444 0.00010879149206011402
          0.00011296633687481707 0.00010879739307835429 0.00011296933959963595 0.00012576687402870372 0.0001235519995190434 0.00012577015808600594
          0.0001235537684853754 0.00012577858155620727 0.00012355797835873124 0.00019445945487453053 0.00019666018979871478 0.0002011354680611118
          0.0001944514478708387 0.00019665323133882248 0.00020112468230402107 0.0001944283489202059 0.0001966217353177179 0.00020111110577470434
          0.00010022929618938265 0.00010288763746044978 0.0001002320900051379 0.00010289102029941169 0.00010023933568795706 0.00010290072240118727
          0.00015164614596343773 0.00014504639677108484 0.00014786971825830495 0.00015406106224107757 0.00015164546477630813 0.0001450456064561523
          0.00014786949549671038 0.00015406075737176307 0.00015164388027406837 0.0001450452778416902 0.0001478696647808413 0.00015406143640478258
          0.0001502173904488783 0.00014547445331292277 0.00015200440151455304 0.00015021784652237782 0.0001454748452196686 0.00015200395722574038
          0.00015021680526212624 0.0001454725439926231 0.00015200113892194862 0.00011424387175478827 0.00011424331913126082 0.00011424069898966239
          0.00013886544958264003 0.00014105172153222741 0.00013562335943769657 0.00013886573176989943 0.0001410519447513799 0.0001356242035401098
          0.00013886631466282463 0.00014105066050263792 0.00013562476466960475 0.00015876750410797819 0.00015420955626446072 0.00014741023091695922
          0.0001587662758483311 0.00015420929070998756 0.00014741117067198172 0.00015876216694777565 0.00015420941308293522 0.00014741249026385006
          0.00009704920349287665 0.00009353015827093502 0.00009621043993669377 0.00009705067414853649 0.00009353076920875041 0.00009621227179952845
          0.00009705435362972854 0.00009353290496295788 0.00009621697617986737 0.00009301709251306533 0.00009221895683654278 0.0000930179638013463
          0.00009221975675459438 0.00009301969073876295 0.00009222157300992741 0.00016251590705266246 0.00017061449439122227 0.0001625111418513321
          0.00017060679742772407 0.00016249772880665115 0.00017058602304667099 0.00007535083711028615 0.00007534662883314841 0.00007533473103889083
          0.00017175589196396696 0.00017749696535310187 0.0001717537537536849 0.0001774917834280768 0.00017174599426390152 0.00017748014023503625
          0.0001294571910164174 0.00013186456275112048 0.00012945882168084898 0.00013186799917463474 0.00012946295216326387 0.0001318749528883271
          0.00012838783474530363 0.00012839250455815495 0.00012840254810697317 0.00011134280743273644 0.00011657982119405867 0.00011603983247699597
          0.00011064078980603477 0.00011134639834881079 0.0001165824568677568 0.00011604186994902099 0.00011064347047361146 0.00011135788785014671
          0.00011659191137344237 0.00011604934780161085 0.00011065339984927037 0.00019832889704122226 0.00019832584772282717 0.00019831747937988468
          0.00020184952717640855 0.00019529267241411843 0.00020184564881069205 0.00019528724209291813 0.00020183400163194658 0.00019527033511124257
          0.00009093284495019449 0.0000933963586244599 0.00009093321150185754 0.0000933984734239756 0.00009093321347318019 0.00009340062957067354
          0.0001585736283111615 0.0001585719850516989 0.0001585654781691165 0.00016019488579962094 0.0001594358395973346 0.00016019403884152278
          0.00015943364787382536 0.00016018980441588794 0.00015942469119252628 0.00014919650232671328 0.00015429633829834556 0.00015494122371173972
          0.00014787150999356793 0.0001491968109453699 0.00015429594551779466 0.000154938931867491 0.00014787158518746914 0.00014919752255223678
          0.000154292053809926 0.00015493104626664112 0.00014787144819960075 0.00016490738780543807 0.00016458067633852016 0.00016490413682322292
          0.00016457937813778433 0.0001648883319796668 0.000164566072295442 0.00018153500578613514 0.0001826108802018675 0.0001868837429654329
          0.00018453769965659544 0.00018152903103424068 0.00018260320708844577 0.00018687528467939313 0.00018453037015540836 0.00018150519208879828
          0.00018257846067471352 0.00018685449702815832 0.00018450356564306822 0.00011850679554569457 0.00011850771727365976 0.00011850916774477544
          0.0001048281679346936 0.00010959786588586732 0.00010483174518457863 0.00010960116833453457 0.00010484156213497723 0.00010960966184178178
          0.00014093844334150642 0.00014049970235886907 0.0001409380689519631 0.00014049790639171766 0.0001409362659172392 0.00014049353213264329
          0.0001342314819536697 0.00013422938307009564 0.00013422331310442066 0.0001213789514919358 0.00011585606230737127 0.00012138012480230526
          0.00011585733499286269 0.00012138209590287906 0.00011585928515567027 0.0001052131295256541 0.00011190297111833444 0.00010521610690236175
          0.00011190581341367064 0.00010522339871645211 0.00011191013655338469 0.00012473221386755034 0.0001224814091063487 0.00012473260894209075
          0.0001224829815568257 0.0001247316348390747 0.00012248778441853976 0.00013371966553447573 0.00013372030379730016 0.0001337185872351936
          0.00012239408470020533 0.00012717633100193474 0.00012239790615858176 0.00012718040851058727 0.0001224085516315688 0.00012719158303186283
          0.00012771737025895027 0.0001285111952449606 0.0001277157600476801 0.00012851122392500152 0.00012771173835397174 0.0001285091713714787
          0.00009753925713412269 0.00010122600664945804 0.00010114470403836125 0.00009754009357549374 0.00010122896046670788 0.0001011464368121487
          0.00009754295053148993 0.00010123488152031078 0.0001011502597138722 0.00009349123005916818 0.0000934922686920295 0.00009349364770815581
          0.00011517975432401162 0.00012177543554967408 0.00011518401667749395 0.00012177994367255561 0.00011519224576952007 0.00012178958134439374
          0.00013548653152999283 0.0001379558740228337 0.0001354877008760007 0.00013795805749700063 0.00013549095127599132 0.00013796138201747443
          0.00019107621639264955 0.00018517057280019268 0.00019106985254212404 0.0001851642018856099 0.00019105070916246758 0.0001851394948286482
          0.00009820054966953415 0.0001015816641277227 0.00009820352022251298 0.00010158532543188969 0.00009820999797021399 0.00010159550893435667
          0.00008491506862498804 0.00008988552727480671 0.00009048284998447544 0.00008491361243820877 0.00008988556479503792 0.00009048303755932916
          0.0000849100055177317 0.0000898835752609616 0.00009048190085479446 0.00008325735731255001 0.00008325463287258195 0.0000832438091809373
          0.00012821857725854604 0.00012822441110817105 0.00012823956248201614 0.00008865742726122708 0.00008865820654657955 0.00008866039171448837
          0.00008736910144243382 0.0000873677733987961 0.00008736207423368171 0.0001272108633223128 0.00012721311768077554 0.00012721634232541783
          0.00009694833470044506 0.00009695091236675925 0.00009695597832327699 0.00008003232856953853 0.00008002839910113159 0.00008001330563513013
          0.00009493762219040242 0.0000949386876625537 0.0000949389434740204 0.00008681600971158642 0.00008532511388514819 0.000086813176971545
          0.00008532034431032665 0.00008680989078359356 0.00008530664524620301 0.00009187196270887363 0.00009157634796461907 0.00009187368735912974
          0.0000915766127435124 0.00009187586528034307 0.0000915772865804728 0.00008048853779188231 0.0000804833151773894 0.00008046162035110036
          0.00009682730914294025 0.00009667966543635921 0.0000968292124633946 0.00009668271951452102 0.00009683225031335888 0.00009668865832879677
          0.00019814361008029953 0.00020466332521027475 0.0001981352804294642 0.00020465992252207112 0.00019810924242182564 0.00020465060834026094
          0.00018526365550955507 0.0001852575243261225 0.00018523542057493023 0.00008288169479473763 0.0000828786103731301 0.00008286679886622032
          0.00017794793846708453 0.00017252267609957141 0.00017794300985356944 0.00017252027830761955 0.00017792879294430263 0.00017251274362511157
          0.00011199830086276247 0.00011732600036476423 0.00011200272529156611 0.00011732986960705233 0.00011201464987777505 0.00011734006558574865
          0.00009834687052115051 0.00009834853308457524 0.00009835059409398231 0.00009350440848926628 0.00009350514706521258 0.00009350562965086234
          0.0001327576749418434 0.00013276044444039835 0.0001327617155892838 0.00010628488728500429 0.00010682340769778074 0.00010628895864893344
          0.00010682798447520021 0.00010630053917923294 0.00010684080560417854 0.00014430431132432978 0.00014430562555560838 0.00014430743229308464
          0.000151718893947034 0.00014944664830528176 0.00014354434963975273 0.00014589895838608538 0.00015171632715786456 0.0001494450842543354
          0.00014354335370341732 0.00014589677191373588 0.00015170867665719977 0.00014943848751395876 0.0001435411204701807 0.0001458907709634814
          0.00012216199709766547 0.00012738391823395812 0.00012216593988215887 0.0001273884174352808 0.00012217458966678026 0.00012740206353198939
          0.00016572154058791858 0.00016571983768148862 0.00016570979824812084 0.00014149368157909185 0.0001474303813548757 0.00014149470544253589
          0.00014743045482633443 0.00014149451446733517 0.0001474270670258155 0.00015065258556044029 0.00015647202041906702 0.00015065462389800307
          0.00015647238236914576 0.00015065662458361518 0.00015647486980879108 0.00013050499630956098 0.00013050733588753358 0.00013050976994717688
          0.00013307791537238453 0.00013308069376664805 0.00013308370519232181 0.00016503941621110013 0.00016503557498598003 0.00016502218700093898
          0.00010150807855249539 0.00010178150130926016 0.00010151185603169052 0.00010178489622278219 0.00010152098525869125 0.000101794337704779
          0.00016017655990171664 0.00016017667569474196 0.0001601734502371905 0.0001749023487387288 0.0001782108133687929 0.0001682065027319074
          0.00017489188661000535 0.000178201121013309 0.0001682015490487693 0.0001748632488399382 0.00017816858034283383 0.0001681870359806002
          0.00016040704768502793 0.00016040730244644243 0.00016040330150438406 0.00012843034945393737 0.0001341831621057048 0.00013180017021265656
          0.00012843468746928449 0.00013418613350354094 0.0001318047530403508 0.0001284469674120904 0.00013419597008053683 0.00013181820989141096
          0.00015743921642176082 0.00015743840322991187 0.0001574311415840826 0.0001416617474682078 0.00014166397276088136 0.0001416659357576303
          0.00019198301425321648 0.00019197623302533206 0.0001919562028067975 0.00012280452906585478 0.00012280976297236143 0.00012282031747749586
          0.00013791714388746928 0.00014002600608440454 0.00013791999656899274 0.00014002812093027994 0.0001379240882602463 0.00014002864057958658
          0.00016986411448232676 0.00016985789255077513 0.0001698368345707407 0.00010144301285039335 0.00010581700493107503 0.00010144728638647959
          0.00010582186926820738 0.00010145660511427375 0.00010583320963512395 0.00013583471873316103 0.00013215592706344086 0.0001358388171615097
          0.0001321616078344721 0.00013584384528972368 0.00013217443770693538 0.00016421402783308448 0.00016647174040694987 0.00016421144050452299
          0.00016646746936451872 0.00016419984266162642 0.0001664512327499584 0.00018479750702182497 0.00017865127280969773 0.00018479015204067123
          0.00017864192552350633 0.0001847692331491748 0.00017861379938694677 0.00016677543442731116 0.0001685881761383873 0.00017400557210595915
          0.0001667744626231221 0.00016858532708201294 0.00017400251898921776 0.00016676637755618396 0.0001685759973467899 0.0001739919404512699
          0.0001726717968824059 0.00017266476280917092 0.0001726394810030326 0.00017926125442508238 0.00017925719568573524 0.00017924262599666813
          0.00016305898060940536 0.0001630587114517257 0.00016305140537450585 0.00019131567301896565 0.00019130866458197106 0.0001912855616856366
          0.00018918728825484336 0.0001937517946853814 0.00019188977954679256 0.00018917992910046221 0.00019374458079388763 0.00019188221711111448
          0.0001891564416327321 0.00019372401941984092 0.00019185864605818765 0.00018432432268177947 0.00018431903519521473 0.00018429739654499897
          0.00017895380988855466 0.0001789445470817063 0.00017890633433626586 0.00018281770089982345 0.00018857970612589937 0.00018280999879562819
          0.00018857583597294355 0.00018278635299236477 0.00018856474116808693 0.0001980146622466451 0.0001980106670327158 0.00019799391009739535
          0.0001905083067284312 0.00019050283367415884 0.00019048407858969553 0.0002043432208768338 0.00020433215217687765 0.00020428467555717197
          0.00020200640610221196 0.0002019897791822919 0.00020194998932062224 0.0002053725144507718 0.00020535223281712157 0.00020526355114257577
          0.00020772707376476865 0.00020771932272426185 0.00020770352653076408 0.00021377472546114915 0.0002141102898279499 0.00021377213929051734
          0.0002141097538897279 0.00021376416062495718 0.00021410602697460822 0.00021828459025917974 0.00021855124736804905 0.0002182805517648596
          0.00021854619323097678 0.00021826855185645783 0.0002185311885305395 0.00022107770899804262 0.00022114240076275996 0.0002210759545036845
          0.00022114098387279006 0.0002210707021436627 0.00022113691244469183 0.0002122420972402333 0.00021223851858812357 0.00021222736886623248
          0.0002175428192609798 0.00021753830226128285 0.00021752455775641367 0.0002208653432854537 0.00022086319645737534 0.0002208567815262295
          0.00020992915535476622 0.00020992597972539515 0.00020991665070630745 0.00021613295597260436 0.00021612894854561329 0.00021611679913653234
          0.00022037926426963898 0.00022037617667236876 0.0002203667872561346 0.0002070019542407199 0.00020699952821634748 0.0002069916369096515
          0.00021409533687560375 0.00021409193435798505 0.000214081650658466 0.00021943495216966453 0.00021943139039755317 0.0002194207400475616
          0.00021143551827913656 0.00021143260771079892 0.000211423748585771 0.00021792545523754853 0.00021792208580279622 0.00021791191429895363
          0.0002081665780703353 0.00020816444650773554 0.0002081580371314851 0.00021578269357743586 0.00021577948563128227 0.00021576998585905554
          0.00020438313855376323 0.00020438155318106644 0.00020437698551872778 0.0002130163264876602 0.00021301402266249225 0.00021300678548269206
          0.00020016819226335205 0.00020016660326388974 0.0002001618088017543 0.00020963757846415818 0.00020963646771629156 0.0002096330084528616
          0.000195378420317786 0.000195377937705958 0.00019537658565033626 0.00020583616641485172 0.0002058362034098469 0.00020583593336050325
          0.00022290832379173647 0.00022286673970371365 0.0002229087522080707 0.0002228674087472155 0.00022291006291680948 0.00022286942867687367
          0.0002229924870407247 0.0002229922340863917 0.00022299148648751194 0.00022308703478352574 0.0002230856631726217 0.00022308150760857464
          0.00022302198389903137 0.00022301933351976007 0.00022301126402968192 0.00022259649112095484 0.00022259283669825335 0.00022258167673175794
          0.00017268132103979517 0.0001642691042279422 0.00017267468356050173 0.00016426390019291332 0.00017265254883225682 0.00016424838069022577
          0.00019429591184768992 0.0001878935707301935 0.00019166161697415022 0.00019429333805717083 0.00018788900725914874 0.00019165875052669793
          0.00019428510429444305 0.00018787561582878727 0.0001916477133869082 0.00014707245043662443 0.00014707173280093408 0.00014706869481050366
          0.00015543171170438286 0.0001554285116372299 0.00015541697667503226 0.0001830123555829648 0.00018300616837051717 0.0001829902784336601
          0.00020344520990213865 0.0002034436425554508 0.00020343907685652887 0.0001993243068287773 0.00019932349027005207 0.00019932097354505385
          0.00019483350165259305 0.00019483268101294055 0.00019482990596415581 0.0001898624078403262 0.000189861427049289 0.00018985802882388094
          0.0001844937190760502 0.00018449343043303235 0.00018449241024310343 0.0002248099430954475 0.00022475005271045619 0.00022481016584447898
          0.00022475028321915517 0.00022481084111443958 0.0002247509751975642 0.00022493496102469769 0.00022493508731023996 0.00022493549435742593
          0.00022511300081852159 0.00022511297156674285 0.00022511296183175348 0.00022540617737719048 0.00022540527046221027 0.00022540256904679374
          0.00022569090265659307 0.00022568860145549696 0.0002256818070775182 0.0002216757106770859 0.00022167198406053103 0.00022166060578866038
          0.0002257921679482011 0.00022578857536752507 0.00022577779041994865 0.0002202256407339799 0.00022022195290036188 0.0002202112104222283
          0.00021826545005196454 0.00021826208413854438 0.0002182522543719529 0.0002159508348642839 0.00021594777257288509 0.0002159392258471564
        </DataArray>
        <DataArray type="Float64" Name="disp_y" format="ascii" RangeMin="-0.00003432611411055192" RangeMax="0">
          -0.000007199408255580437 -0.000008372456490500413 -0.0000068984284655605665 -0.000005412452295745318 -0.000007197604443971103 -0.000008370957371219507
          -0.0000068982281495678016 -0.000005411122485059169 -0.000007192398422198411 -0.00000836491226598134 -0.000006896076285660891 -0.0000054075245220154
          -0.000008897436925477496 -0.00000784217067460328 -0.0000057745477811587415 -0.0000065384994210777564 -0.000008898763541590069 -0.00000784339439240159
          -0.000005775242529703837 -0.000006539354381690536 -0.000008902897836369025 -0.00000784726930739634 -0.000005777734076703366 -0.000006542687664763891
          -0.000007188920893769683 -0.0000058109379258346035 -0.000004035761114895727 -0.00000315869395140121 -0.0000071919959299252885 -0.000005813006905763981
          -0.000004037909232963454 -0.0000031566670078063835 -0.0000072045575328721315 -0.00000581497950716539 -0.000004043495330719117 -0.000003149946893357587
          -0.00001927466527010492 -0.000017816974428796617 -0.000019909333764977592 -0.000021590053137602654 -0.00001927241970118589 -0.000017815271400146936
          -0.000019909036909862352 -0.00002158857208762307 -0.000019264784206949124 -0.00001781021216872809 -0.000019906982640442674 -0.000021584447074058135
          -0.0000024520676215905848 -0.000004996526190931453 -0.000004903768205193242 -0.000002397202277552342 -0.0000024516594883652556 -0.000004996090473821002
          -0.000004903212032131183 -0.0000023971619195504496 -0.0000024508163008342823 -0.000004994186404774378 -0.0000049026599193870446 -0.0000023957112731754433
          -0.000008740329982424616 -0.000009865536699035706 -0.000012825434244196804 -0.000010915704494961352 -0.000008739536523475252 -0.000009864875550527801
          -0.000012824458185780872 -0.000010914304400637667 -0.000008736147494866297 -0.000009863103781437203 -0.000012821123251854342 -0.000010911038463938992
          -0.00000979407614912646 -0.000012428553478356407 -0.000011300510083343575 -0.000009794905082581388 -0.000012430030238203407 -0.000011302211652006805
          -0.000009798504367827595 -0.000012435000845978444 -0.000011306505070932641 -0.000011040403668250011 -0.00001364224291200176 -0.000011040103819153105
          -0.000013641533703140218 -0.000011039791958133908 -0.00001363903629167396 -0.000011942371873556619 -0.00001039625407560466 -0.00000766044143617604
          -0.000007626294681867259 -0.000011944001685061598 -0.000010395686970658266 -0.000007661462889986881 -0.0000076277599573153524 -0.000011948371970912073
          -0.000010391768140742015 -0.0000076657527675026 -0.000007632042036683688 -0.00001627798088340822 -0.00001802934945980882 -0.00001627721188462902
          -0.000018028953454790585 -0.000016274434709781346 -0.00001802734586530594 -0.000012352944960769808 -0.00001485006072770955 -0.000012353520608002153
          -0.000014850026213757346 -0.000012355059146067238 -0.000014850086856759688 -0.000003971795301382518 -0.0000019392047472525653 -0.0000019399317643991824
          -0.000003972515377648498 -0.0000019396856374279915 -0.0000019414445555822493 -0.000003974232063172838 -0.00000194297833789607 -0.0000019510150376545806
          -0.000009568461195701448 -0.000007634503656099562 -0.00000956677727372381 -0.000007632918002413384 -0.000009561639971842456 -0.00000762893788647027
          -0.0000241053221143069 -0.000023164890117843383 -0.00002016223806000074 -0.000021025122733124187 -0.000024108034540404174 -0.00002316685051640045
          -0.000020163890581551796 -0.000021027703570967654 -0.00002411577831064184 -0.000023172892071459465 -0.00002016914363855963 -0.000021035104178094565
          -0.000010521787918913338 -0.000007160366260824578 -0.00000762267378700487 -0.000010522664728420992 -0.0000071614534928059385 -0.000007623000100923763
          -0.000010525275322769408 -0.000007163832133167276 -0.000007623006692829627 -0.000022717047758160483 -0.000022716156852099367 -0.000022714093126665538
          -0.000021663034175113734 -0.000026736935810257156 -0.000024057212915276468 -0.00002166430996360655 -0.00002673935517006714 -0.0000240586259216562
          -0.000021668843178114497 -0.000026746353388884454 -0.000024062268767513448 -0.000011053789560469569 -0.00001448663607336765 -0.000013454223575740973
          -0.000011053933555519013 -0.000014487569948803702 -0.000013455882598376964 -0.000011054961520508424 -0.000014490981413362872 -0.000013461014530092289
          -0.000011456088855126363 -0.000010134991268364192 -0.000008504966867365657 -0.00001145420843227966 -0.000010132855815520361 -0.000008502992504856166
          -0.000011448344564987155 -0.00001012660495007948 -0.000008497639309181564 -0.0000064899321194200255 -0.000004554931504956393 -0.0000064882865018533106
          -0.000004554068752971378 -0.000006484419252070168 -0.000004550263014662367 -0.000027284545020067565 -0.000023966060794261387 -0.000027288724766083077
          -0.00002396969697131919 -0.00002730045534036042 -0.000023981432089020027 -0.000007860619693574929 -0.000007862006919512693 -0.000007865151844042279
          -0.00000493939597681889 -0.000004531981868535325 -0.000004940609454072125 -0.000004532803280879755 -0.000004946898103289367 -0.000004538726863038283
          -0.000016180034089660197 -0.000013734009958523197 -0.000016181120746199582 -0.00001373498575467931 -0.000016184109366336004 -0.000013738522096650451
          -0.00000999324322222144 -0.000009994667315548151 -0.000009998204938115374 -0.0000021348091091171944 -0.00000229369650460506 -0.0000047020707416230655
          -0.000004296787896798651 -0.0000021346083140687157 -0.0000022937221666061117 -0.000004702126714022 -0.000004296049769228999 -0.000002133790784235089
          -0.0000022939811247608657 -0.000004701934005379402 -0.000004294495484771614 -0.000013611721827133498 -0.000013610712950413238 -0.000013607827519237178
          -0.000010022087307471294 -0.000013016120039987662 -0.000010020789201402231 -0.000013015053428683473 -0.00001001662740456988 -0.000013013321155772251
          -0.000008771564591005739 -0.000007896717111557067 -0.000008769594797334214 -0.000007895105045816131 -0.000008763775237756023 -0.000007890374281992458
          -0.000007707812460984661 -0.000007707391342013416 -0.000007705631384851764 -0.000020859674858478902 -0.000024544525968704145 -0.000020862792990597606
          -0.00002454780899407304 -0.00002087485892600763 -0.000024557412358074138 -0.000027371671241774714 -0.000027440519312261933 -0.00002966412798199402
          -0.00003068661708538767 -0.0000273741947782294 -0.000027443446487172156 -0.000029667956052119896 -0.00003068981261399397 -0.000027381638324320414
          -0.000027450506798837027 -0.00002968122498724014 -0.000030698969796755464 -0.000007569607723557387 -0.00000954979792158235 -0.000007569422530028478
          -0.000009549251426509178 -0.000007566996932337545 -0.000009550307721317796 -0.000003907934911940503 -0.0000021717946608980906 -0.0000021925449735673983
          -0.000005054123930932043 -0.000003908931276669409 -0.0000021718166397454237 -0.000002192858437341234 -0.000005056520973765546 -0.0000039134734795340635
          -0.0000021681268053006384 -0.0000021931851581889834 -0.0000050634302907932235 -0.000019704975051708678 -0.00001970512557939324 -0.000019705222683087497
          -0.000005777619909059893 -0.000006496639761105363 -0.0000057766805254033025 -0.000006496072039890384 -0.00000577375933620784 -0.000006493452384541744
          -0.000030832345497236274 -0.00003431156874993435 -0.00003083433774951094 -0.000034315474070845574 -0.00003084080358778391 -0.00003432611411055192
          -0.00003073329442664113 -0.000030735679041307175 -0.000030743043789533415 -0.00001728344669956649 -0.000015969916897455045 -0.000017283784099677372
          -0.000015969685197038288 -0.00001728392254357895 -0.00001596813240848789 -0.000014497714028361999 -0.000015130946723827918 -0.000014496248017539806
          -0.000015130531545450407 -0.00001449126361267283 -0.000015127701412186822 -0.000021170972901774845 -0.000023830824073104003 -0.000021171475711890864
          -0.00002383059632448975 -0.00002117328896559136 -0.00002382983075060095 -0.000027591190297441237 -0.000027592976669772685 -0.000027599224761740115
          -0.000008012972043151292 -0.0000068997584283636016 -0.000008012843028250387 -0.000006900283358004261 -0.000008012941337398967 -0.0000069008006476825734
          -0.000027339124890004283 -0.000024774244190313353 -0.000027340075799060885 -0.00002477405164571252 -0.000027341682735499654 -0.000024775103039701533
          -0.000014645320485002675 -0.00001286400897782404 -0.00001605276061538996 -0.000014643065055403773 -0.000012862095775856067 -0.000016051196748766814
          -0.000014636167673991587 -0.00001285650992435848 -0.00001604564129701062 -0.000013325385585988984 -0.000013322928019411094 -0.00001331472585545497
          -0.000007262252850242204 -0.00000487544994460456 -0.0000072618087325810845 -0.000004875518041425313 -0.000007260094660445437 -0.000004875633624973423
          -0.000017552097065061295 -0.000014996423592952933 -0.000017553157478442704 -0.000014997778349222764 -0.000017557127675755264 -0.000015002311034151396
          -0.000006684588404246798 -0.000008539107059620918 -0.0000066857894722887065 -0.000008541078004761238 -0.00000668916565988636 -0.000008545802250600765
          -0.000006311447501676231 -0.000005240614685151606 -0.0000063100726618050165 -0.000005239384879729374 -0.000006306571416282301 -0.000005235687856404149
          -0.000014002963508956463 -0.000011795823968414775 -0.00001549904661738288 -0.000014001216487743578 -0.000011793261203499546 -0.00001549695318280189
          -0.00001399581847445205 -0.00001178473268003689 -0.000015489182102485503 -0.000011083843518483046 -0.000011082415742400426 -0.000011076648192845127
          -0.000004700084696694741 -0.000004700486637190673 -0.0000047003989168560714 -0.00001800607136546309 -0.000018003678377355975 -0.000017996490259507113
          -0.000010004383891460861 -0.000010001770325403535 -0.000009994256817427294 -0.000018663747318085704 -0.000018664563141448535 -0.000018666746761350006
          -0.000004055733918065787 -0.000004054603883375881 -0.0000040512311402786825 -0.000008970974972461833 -0.000008969814869472988 -0.000008964605148278699
          -0.000016537588873872195 -0.00001653489339077771 -0.00001652667132524914 0 -0.000003103789004688683 0
          -0.000003102495979413343 0 -0.0000030986657251261712 0 -0.0000023242483397754136 0
          -0.000002323512430294413 0 -0.000002321986012427944 -0.000005515633373226065 -0.000005514741047857866 -0.000005516033648801465
          0 -0.000002048657656073936 0 -0.0000020478809913585805 0 -0.0000020451697707295763
          -0.000009645586998212448 -0.000006571675530940218 -0.000009646813630715831 -0.000006570341733746621 -0.00000964924350950494 -0.000006566731591525297
          -0.000010869087252210277 -0.000010872572530577882 -0.00001088405599201876 -0.000009441540984859738 -0.0000094402140201162 -0.000009434605710048289
          -0.0000022265433394479394 -0.0000023917925525373566 -0.0000022272546846580952 -0.0000023922279267421982 -0.0000022259072981748197 -0.0000023909601707331805
          0 0 0 0 0 0
          -0.00001719723410631095 -0.0000171948815727886 -0.000017186626232175102 -0.000018673126833914904 -0.000018670649568956287 -0.000018662300799094446
          -0.00002549495758257215 -0.00002549603712825232 -0.00002549819398074988 -0.0000019842628333167704 0 -0.00000198372009945379
          0 -0.000001981761754286668 0 -0.000016209318074176088 -0.00001621115051650262 -0.000016216304450799622
          0 -0.000002278809850109401 -0.0000021066660543875663 0 0 -0.0000022788469350619272
          -0.000002106569852042429 0 0 -0.00000227841122560363 -0.000002107160917622317 0
          -0.000002347704383333057 -0.0000022038128119709195 -0.0000023477229078962568 -0.0000022033682529749383 -0.000002349445416647847 -0.000002203300607830881
          -0.000004993501773928651 -0.000004992978164937127 -0.000004991771928096535 -0.000004284719836051234 -0.000004654616840967968 -0.00000428533838346333
          -0.0000046550935319373504 -0.00000428704004315886 -0.000004655885451097981 -0.000017330132026451656 -0.000018264710439872502 -0.000017331888337891376
          -0.00001826665251510192 -0.000017337236367606786 -0.00001827185078074305 -0.00002248551875779864 -0.000022486224950273874 -0.00002248925946627747
          -0.000020090319995271192 -0.000020091673100263143 -0.00002009497530861819 -0.000013013109808526201 -0.000013012920726246032 -0.000013011533322327564
          -0.0000019538488708954352 0 -0.000001953163054657382 0 -0.0000019508700835653596 0
          -0.000015669353800484185 -0.00001567042841095233 -0.000015674081526596166 -0.00001887073528965358 -0.000020132106087589925 -0.00002172274059546905
          -0.000018873193747960476 -0.000020134275667627686 -0.00002172582343968192 -0.00001887959137539996 -0.0000201392331793735 -0.000021737373757801054
          -0.000018799477285413724 -0.0000188020056129486 -0.000018808316723570358 0 0 -0.0000018926256449140448
          0 0 -0.0000018933060575665702 0 0 -0.0000018933202904216092
          0 0 0 -0.00001893633522907005 -0.000018938074829535062 -0.000018942698760360408
          -0.000009412023556929435 -0.000009414374903292413 -0.000009422044126875238 0 0 0
          -0.0000019392771392857982 0 -0.0000019391970935851134 0 -0.0000019395036964966913 0
          -0.000014818099834195272 -0.000014818644888658998 -0.000014821204992032681 -0.000003854215275622156 -0.000003937302989794415 -0.000003853049310940396
          -0.000003936531864655587 -0.000003849281700609476 -0.000003933429000424244 -0.000003825554840485936 -0.0000034088191723752665 -0.000003825950060288049
          -0.0000034096780840885034 -0.000003827303595956916 -0.0000034115965983309093 -0.000017240617983077666 -0.000019308703303578602 -0.00001724202191459692
          -0.00001931117666497927 -0.00001724540239946028 -0.000019319537960415634 -0.000013892939381604562 -0.00001510858401889299 -0.000013897364669003566
          -0.000015110957761930075 -0.000013911918259845587 -0.000015118917412554778 -0.000002445982010444742 0 0
          -0.0000024456271845615382 0 0 -0.000002446083588086525 0 0
          -0.000016945829482404124 -0.000016947417068312217 -0.00001695130172468178 0 0 0
          0 0 0 -0.00001225133397480182 -0.000012254169129643999 -0.000012263564138054546
          0 0 -0.000001939284240377456 0 0 -0.000001940663272822004
          0 0 -0.0000019418869010065114 0 0 0
          -0.000016995623922732282 -0.000016997601106247294 -0.00001700410274822614 -0.00001687026193090476 -0.000015645924298545024 -0.000016871974772836564
          -0.000015647653289085573 -0.000016877556179025623 -0.0000156529569834316 0 0 0
          -0.0000034979670070182464 -0.0000034983047162557804 -0.0000035046116034160047 -0.0000014312095537550231 -0.0000014303869078618405 -0.0000014263670162859323
          0 0 0 0 0 0
          0 0 0 -0.0000018105854595544614 0 -0.0000018095015994083446
          0 -0.0000018064763692771711 0 -9.006518543907266e-7 0 -8.99794545475712e-7
          0 -8.972385783844806e-7 0 -4.1510727508332727e-7 0 -4.143237877966026e-7
          0 -4.119276929753048e-7 0 -0.0000038601381613588 -0.000003857828975254026 -0.000003850630316201488
          -0.000001994238454378207 -0.0000019922466806446553 -0.000001986284959528254 -9.354822088935289e-7 -9.33854529094218e-7 -9.289427176147313e-7
          -0.000006319060530283513 -0.000006317661584743302 -0.000006313898255511338 -0.0000034644731844857223 -0.0000034620166795025274 -0.000003454616226257814
          -0.000001685895477296973 -0.0000016834103151131825 -0.0000016758614924450963 -0.000009114560004715071 -0.000009112759267106757 -0.000009107274183205997
          -0.000005382571603974785 -0.000005380077986573422 -0.000005372703923981079 -0.0000028064943146457233 -0.0000028036492070442905 -0.0000027951421851217235
          -0.00000775403324580734 -0.00000775150017566468 -0.000007743996063196152 -0.0000043877783697439104 -0.000004384941450828848 -0.000004376504097306966
          -0.000010593757481336902 -0.000010591616580134396 -0.000010585203470919204 -0.000006479638352719999 -0.000006476761544161772 -0.000006468287121609978
          -0.000013866956691416458 -0.00001386566023049219 -0.000013861934901643741 -0.000009108141376591813 -0.000009105928952014775 -0.000009099537385603812
          -0.000017515399961460816 -0.000017513668211555068 -0.000017508548458628894 -0.00001229480760762116 -0.000012291989035173106 -0.000012283785357274724
          -0.000021496981787662062 -0.000021494100548138288 -0.000021485468369915797 -0.000015958078586664088 -0.000015953736480843448 -0.000015940999371193913
          -3.1032804004697484e-7 0 -3.1009248460013333e-7 0 -3.094040476871305e-7 0
          -6.385333512347725e-7 -6.380471985143864e-7 -6.366147393781882e-7 -0.0000010184929080823979 -0.0000010173224952072636 -0.0000010139033615089835
          -0.0000015475372258502689 -0.0000015453492288673822 -0.0000015386766069125542 -0.000002384369204036038 -0.0000023815391106019907 -0.0000023730834350560663
          -0.00002578372944859496 -0.000029593330058745322 -0.000025787357856038956 -0.000029597986211398744 -0.000025799180935366616 -0.000029613554105844164
          -0.000017364177055385803 -0.000020442418166910467 -0.00001677155793535888 -0.00001736354122608949 -0.0000204414104450557 -0.000016771523764871642
          -0.0000173619978433802 -0.00002043830298900751 -0.00001677060719555238 -0.00003406972899052419 -0.00003407360248815827 -0.000034086652814969046
          -0.00003322552022090203 -0.00003323007498055667 -0.00003324272869062094 -0.000020502199178023163 -0.00002050265903006646 -0.000020504108763306577
          -0.000012228020419706821 -0.00001222675276656685 -0.000012222981387436088 -0.000015619879210756477 -0.000015618636628258318 -0.000015614967900704612
          -0.000019304232147997044 -0.000019302394178664446 -0.000019297093915917227 -0.000023341481194894937 -0.00002333996084559423 -0.000023335460743641237
          -0.00002763946278809975 -0.000027638389889309306 -0.000027635863544479734 -3.2453747258178776e-7 0 -3.2457041280775133e-7
          0 -3.2467398288878987e-7 0 -6.465090987114855e-7 -6.465954207416539e-7 -6.46874730399348e-7
          -9.610021753300309e-7 -9.609992019304786e-7 -9.610861451489925e-7 -0.0000012691842629552723 -0.0000012685973199853625 -0.000001266885628354048
          -0.00000164536535655034 -0.0000016436250680234231 -0.0000016383576021642393 -0.0000036450755618261115 -0.000003641940517250711 -0.000003632398767075077
          -0.0000022574756675934515 -0.0000022547334519416094 -0.000002246359186041191 -0.000005440324767352638 -0.0000054372575385273554 -0.00000542807367508028
          -0.000007926500226138376 -0.00000792273600892832 -0.000007911245939968958 -0.000011116130448622248 -0.000011110535776403886 -0.000011094026272229076
        </DataArray>
        <DataArray type="Float64" Name="disp_z" format="ascii" RangeMin="-0.0000017217924953205551" RangeMax="0">
          0 0 0 0 -6.666768190919812e-7 -6.77432699897566e-7
          -6.759422619780241e-7 -6.57997891327811e-7 -0.0000013348800637346917 -0.0000013573578420435444 -0.0000013547953281680788 -0.0000013185610111243915
          0 0 0 0 -8.365599171598198e-7 -8.229459457678205e-7
          -8.43867182459241e-7 -8.52341750246203e-7 -0.000001672269571054004 -0.0000016446291475084862 -0.0000016857964082595664 -0.0000017034864645799602
          0 0 0 0 -4.885513167230309e-7 -5.581736638714533e-7
          -4.969033212560958e-7 -2.995342396548933e-7 -9.77041148204432e-7 -0.0000011142628462154712 -9.938832236171467e-7 -6.00330191853863e-7
          0 0 0 0 -7.5723443345223e-7 -7.511825611238049e-7
          -7.64966740380706e-7 -7.689009738312591e-7 -0.000001514342601698443 -0.00000150295103529911 -0.0000015292230284598925 -0.0000015382254496055394
          0 0 0 0 -8.181896915534495e-7 -8.251642511339205e-7
          -8.42550250909531e-7 -8.348385238913658e-7 -0.0000016366388242605596 -0.000001650248007323698 -0.0000016841853086267501 -0.0000016694917961709788
          0 0 0 0 -7.303772855547147e-7 -7.53000256477122e-7
          -7.504785710844935e-7 -7.235314349109346e-7 -0.0000014604535665437235 -0.0000015058661517492822 -0.000001500666527663747 -0.0000014472349164067536
          0 0 0 -8.439272152952054e-7 -8.291476789893849e-7 -8.235983992684567e-7
          -0.00000168717244168325 -0.0000016579006938382155 -0.0000016463253556174593 0 0 -7.653063167623995e-7
          -7.678077317938562e-7 -0.0000015312745794788367 -0.000001535668503629198 0 0 0
          0 -7.23889934211888e-7 -7.776242340551109e-7 -7.555249149641065e-7 -7.281693460082691e-7 -0.000001447479715099619
          -0.0000015548751344697094 -0.000001512039300479129 -0.000001455528067352086 0 0 -7.561801341144129e-7
          -7.675470169001241e-7 -0.0000015119893267662011 -0.000001534969596047301 0 0 -7.850773201236671e-7
          -7.80816993865641e-7 -0.0000015708108548777684 -0.0000015619559524426591 0 0 0
          -5.889509807202392e-7 -5.581509254637229e-7 -4.843542640712297e-7 -0.0000011762845036393763 -0.0000011170769523266535 -9.648328686578256e-7
          0 0 -6.994802390985455e-7 -7.001962869550449e-7 -0.0000013997109188378578 -0.0000014010745315480984
          0 0 0 0 -7.803217975005796e-7 -7.844007252836558e-7
          -8.00961303634698e-7 -7.982242253510567e-7 -0.0000015602734435820978 -0.0000015686021939378672 -0.0000016018722940982128 -0.0000015961182002709934
          0 0 0 -8.460086258093504e-7 -8.510026877808824e-7 -8.434530805098518e-7
          -0.00000169135653300624 -0.0000017016554530772124 -0.0000016862467901733825 0 -7.732978716049944e-7 -0.0000015483499253516195
          0 0 0 -7.884821738047812e-7 -7.63211408996266e-7 -7.777626810793172e-7
          -0.000001576738234750876 -0.0000015262642154806861 -0.0000015544050854204642 0 0 0
          -8.357350416817959e-7 -8.333339795678203e-7 -8.309078326326825e-7 -0.0000016703491019857067 -0.0000016660856965123563 -0.0000016614921295440493
          0 0 0 -6.990481806948315e-7 -6.832656063372749e-7 -6.801841923896224e-7
          -0.000001399190654406143 -0.0000013677019993711868 -0.0000013613784965961123 0 0 -6.660825397456734e-7
          -6.604746746581302e-7 -0.0000013335102554767866 -0.0000013222197948448188 0 0 -7.05043153507661e-7
          -6.794060690339566e-7 -0.000001409026623541332 -0.0000013572022230799811 0 -7.4314198823598e-7 -0.0000014850940760999339
          0 0 -7.802682293515471e-7 -7.663626935200996e-7 -0.0000015600408781613049 -0.000001530338794690605
          0 0 -7.917481565840066e-7 -8.058466721769482e-7 -0.0000015834367122922208 -0.0000016112351609543863
          0 -8.061689609967052e-7 -0.0000016120020627681067 0 0 0
          0 -7.29447848475621e-7 -7.574750080999059e-7 -7.551967136923946e-7 -7.299228942454293e-7 -0.0000014587127803560517
          -0.000001514620389590191 -0.0000015106816051944992 -0.0000014594687141978353 0 -3.761393898360293e-7 -7.521275427942376e-7
          0 0 -3.536954254254333e-7 -4.4246182320005325e-7 -7.077214656830995e-7 -8.850845301386457e-7
          0 0 -6.753713046255996e-7 -6.715371314441891e-7 -0.0000013525582537185953 -0.0000013444427972849399
          0 -8.385825242811189e-7 -0.0000016755931469969893 0 0 -8.018891809352827e-7
          -7.56594577801148e-7 -0.000001602166895380468 -0.0000015125306896035368 0 0 0
          0 -7.564132866376262e-7 -7.618393070949578e-7 -7.292119483852217e-7 -7.341765569728637e-7 -0.0000015125433404005428
          -0.0000015221295235744805 -0.0000014568628205220128 -0.0000014676038607746455 0 0 -8.170594347251589e-7
          -8.235458169456995e-7 -0.0000016332654092862875 -0.0000016458064191756468 0 0 0
          0 -7.623782368947569e-7 -7.240121803802627e-7 -6.732619449661374e-7 -6.849104868187961e-7 -0.000001521863814080368
          -0.0000014466092445858462 -0.0000013461837323897855 -0.0000013696995619360906 0 -7.747267224047821e-7 -0.0000015493719939008414
          0 0 -7.063311257806004e-7 -7.279826197279935e-7 -0.0000014127494789563923 -0.0000014558298035528988
          0 0 -7.318368695103512e-7 -7.110231427764773e-7 -0.0000014648273334741223 -0.0000014231297476531604
          0 -7.420639570748928e-7 -0.0000014852827047571735 0 0 -7.758412075945159e-7
          -7.692783067865509e-7 -0.0000015517596254631626 -0.0000015380700299469184 0 0 -7.385289973163609e-7
          -7.648645696033038e-7 -0.0000014772405703343182 -0.000001529283576710622 0 0 -7.739592448600363e-7
          -7.74552615361927e-7 -0.0000015483254005518728 -0.0000015491876338234474 0 -7.661543450703109e-7 -0.000001532711941405854
          0 0 -7.792670170812972e-7 -8.06567729003348e-7 -0.000001558752056176832 -0.0000016127416225329364
          0 0 -7.691579749663328e-7 -7.68528485498597e-7 -0.0000015384499516637854 -0.0000015375191258920525
          0 0 0 -7.219698506384955e-7 -7.163850584584991e-7 -7.359230380611398e-7
          -0.000001444637080153995 -0.0000014334977248517443 -0.0000014722453123036845 0 -7.065362706344875e-7 -0.0000014136995089973807
          0 0 -7.518195193321763e-7 -7.721599425468855e-7 -0.0000015039624798121158 -0.0000015452734167886749
          0 0 -7.989739013926755e-7 -8.141311361067863e-7 -0.0000015979613668167204 -0.0000016277452338661682
          0 0 -5.999990690884897e-7 -6.82688917347151e-7 -0.0000011998220449377092 -0.0000013652079408738592
          0 0 -6.764087892352044e-7 -6.866942000008165e-7 -0.0000013538672440262826 -0.000001374233874817625
          0 0 0 -7.167535121976748e-7 -6.932626896715891e-7 -7.229003027004433e-7
          -0.000001433278243665055 -0.0000013874357452746903 -0.00000144600815735276 0 -7.051174044492823e-7 -0.0000014103564894583862
          0 -8.067787421131683e-7 -0.0000016134901981631247 0 -7.426431157500124e-7 -0.0000014849531710047205
          0 -6.826414142192033e-7 -0.0000013666635649090465 0 -7.832557929873916e-7 -0.0000015668579464538338
          0 -6.682357899688259e-7 -0.0000013373579555554348 0 -7.13836226843537e-7 -0.0000014271427081901328
          0 -7.301198846930496e-7 -0.0000014606565445128718 0 0 -6.470579887847523e-7
          -6.594238400781295e-7 -0.0000012976431244951014 -0.0000013211786058371785 0 0 -6.565044957472358e-7
          -6.464551889403311e-7 -0.0000013141055704171916 -0.0000012949914599309027 0 -7.091508240127355e-7 -0.000001417385662353468
          0 0 -6.534774504085758e-7 -6.596998069568967e-7 -0.0000013082692569419674 -0.000001320274143838568
          0 0 -4.2009560308692585e-7 -3.242186490860552e-7 -8.421236053075629e-7 -6.48761376090805e-7
          0 -6.400240056953532e-7 -0.000001279317753142743 0 -6.968017186809593e-7 -0.0000013943982033943742
          0 0 -7.69439308626595e-7 -7.833159150301343e-7 -0.0000015363068495558565 -0.0000015651970546118021
          0 0 -7.338178970109646e-7 -7.620325338613125e-7 -0.0000014675654100196328 -0.000001523898843818984
          0 -7.366488034785076e-7 -0.0000014739355906137246 0 -7.509110856289253e-7 -0.0000015011127191295657
          0 -7.739611476523439e-7 -0.0000015494852676940317 0 0 -6.999258149816602e-7
          -7.010823099657549e-7 -0.0000014004642414004045 -0.000001402870474424862 0 -8.158419977145403e-7 -0.0000016316136602312031
          0 0 0 0 -8.404315330734553e-7 -8.501394841359166e-7
          -8.590371144545529e-7 -8.554236961669159e-7 -0.0000016808735973710696 -0.0000016997129572589137 -0.000001716846576354215 -0.0000017095767548538717
          0 0 -7.797753391954072e-7 -7.986680527237484e-7 -0.0000015601378536226034 -0.0000015980786443025913
          0 -7.990667604577581e-7 -0.0000015983937129997325 0 0 -8.546626890554749e-7
          -8.525315036045429e-7 -0.0000017081118825040868 -0.000001704012656646191 0 0 -8.149029682603546e-7
          -8.168638451020138e-7 -0.0000016298471851299253 -0.00000163275836832205 0 -7.783901579543028e-7 -0.0000015578087562862249
          0 -7.874861116367519e-7 -0.0000015745074952433338 0 -8.222980429340197e-7 -0.0000016421775394440071
          0 0 -6.742353758859708e-7 -6.710989236318527e-7 -0.0000013494582255182553 -0.0000013436622943224516
          0 -8.281411644536322e-7 -0.000001654372470830402 0 0 0
          -7.036203233400765e-7 -6.135287088636489e-7 -7.347722358584263e-7 -0.0000014050622274079044 -0.0000012280859102980724 -0.000001468059985197599
          0 -8.255585989274134e-7 -0.0000016486609881128268 0 0 0
          -8.116313086543503e-7 -8.496754680001998e-7 -8.358178126350226e-7 -0.0000016229776847807565 -0.000001698388304188091 -0.0000016702487093699729
          0 -8.239198592920948e-7 -0.000001648245069731593 0 -8.023088636901389e-7 -0.0000016044920624035062
          0 -5.67133779577795e-7 -0.0000011325988292599259 0 -7.869311469347716e-7 -0.0000015738471515005487
          0 0 -8.572491773234422e-7 -8.618010065106464e-7 -0.0000017127907848284647 -0.0000017217924953205551
          0 -7.842421494409445e-7 -0.0000015674465611075796 0 0 -6.799035082023076e-7
          -7.036952152986401e-7 -0.0000013607742850303909 -0.000001407573320035334 0 0 -8.527239337714281e-7
          -8.437919137001752e-7 -0.0000017033562641846418 -0.0000016865905562389947 0 0 -8.12244131008408e-7
          -7.842361787501171e-7 -0.000001621217304562957 -0.0000015660762882689049 0 0 -5.997216421781571e-7
          -6.675476909387114e-7 -0.0000012008365301511149 -0.0000013352211055705027 0 0 0
          -8.015809016280123e-7 -7.924948738015537e-7 -7.678445053953389e-7 -0.00000160371219235355 -0.000001584448293920698 -0.0000015355324093774456
          0 -7.391345716263051e-7 -0.0000014767672827426318 0 -7.436135309143947e-7 -0.0000014866083338555138
          0 -8.100054408993366e-7 -0.0000016197045077603299 0 -5.260220115343056e-7 -0.000001051380786570145
          0 0 0 -6.471409617791263e-7 -5.983849925231529e-7 -6.447076218435389e-7
          -0.0000012938013042774764 -0.0000011970216735208055 -0.0000012884069865104891 0 -7.027575584197319e-7 -0.0000014061036733972162
          0 -6.362995278027952e-7 -0.0000012734574600501918 0 0 -5.52262008290226e-7
          -4.975098076104064e-7 -0.0000011068835198194853 -9.954879156726944e-7 0 -5.593466842962264e-7 -0.0000011185047483658539
          0 -6.363873735081734e-7 -0.0000012731828454644911 0 -4.856843791555474e-7 -9.743662724796453e-7
          0 -5.188100324039947e-7 -0.000001026062586405331 0 -3.750262596028909e-7 -7.555533301864075e-7
          0 -2.1767527568676167e-7 -4.3796588033424257e-7 0 0 -2.166549145473897e-7
          -2.3457234889325597e-7 -4.3370015787061785e-7 -4.6932632465361333e-7 0 0 -1.3402516894445345e-7
          -1.2550557567342063e-7 -2.6809121153567085e-7 -2.508623005970251e-7 0 0 -6.229256384963752e-8
          -5.317055757243938e-8 -1.2506884903153049e-7 -1.0696582628854515e-7 0 -2.6890746461855015e-7 -5.377123857031592e-7
          0 -1.6179879347544681e-7 -3.238283752579766e-7 0 -8.412037742166422e-8 -1.686947775687558e-7
          0 -2.9473384097666943e-7 -5.892707542444727e-7 0 -2.071194612368155e-7 -4.143015527171962e-7
          0 -1.2640725005164993e-7 -2.5322217168274463e-7 0 -3.274867313948979e-7 -6.550758787388094e-7
          0 -2.54881253622025e-7 -5.095433065636267e-7 0 -1.789879846663436e-7 -3.5807261901013946e-7
          0 -3.036437871967921e-7 -6.070851196985162e-7 0 -2.3422311478386214e-7 -4.6845458949382334e-7
          0 -3.4914935855431565e-7 -6.9797701340417e-7 0 -2.8859783749662316e-7 -5.769945889667252e-7
          0 -3.8393927406602897e-7 -7.677244289882443e-7 0 -3.3982293544731745e-7 -6.794943835038403e-7
          0 -4.062722395572142e-7 -8.125170224892946e-7 0 -3.7848637885677773e-7 -7.569910238288812e-7
          0 -4.5463864904521565e-7 -9.09474436523155e-7 0 -4.505767816328121e-7 -9.011627327224569e-7
          0 0 -5.2733487801106695e-8 -5.082250854370643e-8 -1.0558036832233231e-7 -1.0170722199656e-7
          0 -5.996161097880732e-8 -1.2005423538765922e-7 0 -7.324175960207997e-8 -1.4670908673234748e-7
          0 -1.0645021934149755e-7 -2.132617875405759e-7 0 -1.5577140690205154e-7 -3.1166932549833174e-7
          0 0 -5.939204761464562e-7 -6.375115648512845e-7 -0.000001188354949569287 -0.0000012744722028604438
          0 0 0 -3.907436410133278e-7 -4.599870693778691e-7 -4.372093922319947e-7
          -7.819601998917933e-7 -9.197046813561208e-7 -8.754692772702684e-7 0 -6.980526038699068e-7 -0.0000013957783576579294
          0 -6.681519752194819e-7 -0.000001335654269562221 0 -5.037056533447266e-7 -0.0000010080735733622488
          0 -3.5735545500312295e-7 -7.145749783277377e-7 0 -3.8101160109390766e-7 -7.620487580487584e-7
          0 -4.079080666437223e-7 -8.158057136555076e-7 0 -4.4388354712950576e-7 -8.875910197393225e-7
          0 -4.636768911899193e-7 -9.272396665492931e-7 0 0 -6.477590164330634e-8
          -6.521202707123127e-8 -1.2952535447393627e-7 -1.304085697092104e-7 0 -6.375917140638258e-8 -1.2753314469155677e-7
          0 -6.173702340255804e-8 -1.2356704030192632e-7 0 -6.530816606870344e-8 -1.3084341720869042e-7
          0 -8.713509508765766e-8 -1.7468561238820833e-7 0 -2.140142671931034e-7 -4.280253923413533e-7
          0 -1.3273281366563265e-7 -2.65726748739473e-7 0 -2.761268981061621e-7 -5.520310236595807e-7
          0 -3.368177751265357e-7 -6.734511531833083e-7 0 -4.3217073571362743e-7 -8.641741613249181e-7
        </DataArray>
      </PointData>
      <CellData>
        <DataArray type="Int32" Name="libmesh_elem_id" format="ascii" RangeMin="1386" RangeMax="3465">
          1386 1387 1390 1391 1394 1395
          1400 1401 1406 1407 1410 1411
          1420 1421 1424 1425 1426 1427
          1432 1433 1436 1437 1444 1445
          1446 1447 1450 1451 1462 1463
          1466 1467 1474 1475 1498 1499
          1504 1505 1508 1509 1514 1515
          1524 1525 1526 1527 1530 1531
          1540 1541 1550 1551 1552 1553
          1554 1555 1578 1579 1588 1589
          1592 1593 1594 1595 1596 1597
          1598 1599 1600 1601 1606 1607
          1662 1663 1698 1699 1702 1703
          1712 1713 1726 1727 1730 1731
          1734 1735 1748 1749 1752 1753
          1774 1775 1778 1779 1834 1835
          1854 1855 1872 1873 1892 1893
          1894 1895 1896 1897 1902 1903
          1914 1915 1920 1921 1922 1923
          1932 1933 1942 1943 1944 1945
          1988 1989 2000 2001 2010 2011
          2024 2025 2070 2071 2100 2101
          2112 2113 2132 2133 2140 2141
          2150 2151 2166 2167 2206 2207
          2218 2219 2238 2239 2242 2243
          2244 2245 2256 2257 2258 2259
          2268 2269 2278 2279 2284 2285
          2306 2307 2334 2335 2340 2341
          2360 2361 2372 2373 2392 2393
          2396 2397 2398 2399 2418 2419
          2422 2423 2426 2427 2432 2433
          2434 2435 2436 2437 2476 2477
          2480 2481 2482 2483 2518 2519
          2534 2535 2540 2541 2542 2543
          2546 2547 2556 2557 2562 2563
          2568 2569 2574 2575 2584 2585
          2588 2589 2598 2599 2612 2613
          2638 2639 2656 2657 2664 2665
          2678 2679 2682 2683 2702 2703
          2704 2705 2708 2709 2720 2721
          2724 2725 2734 2735 2738 2739
          2742 2743 2746 2747 2774 2775
          2788 2789 2790 2791 2804 2805
          2806 2807 2834 2835 2840 2841
          2844 2845 2850 2851 2854 2855
          2858 2859 2872 2873 2888 2889
          2892 2893 2896 2897 2908 2909
          2912 2913 2916 2917 2918 2919
          2924 2925 2932 2933 2944 2945
          2972 2973 2984 2985 2996 2997
          3000 3001 3002 3003 3022 3023
          3024 3025 3030 3031 3032 3033
          3044 3045 3048 3049 3080 3081
          3092 3093 3108 3109 3120 3121
          3130 3131 3136 3137 3140 3141
          3142 3143 3146 3147 3150 3151
          3160 3161 3162 3163 3164 3165
          3170 3171 3172 3173 3174 3175
          3178 3179 3186 3187 3188 3189
          3198 3199 3216 3217 3218 3219
          3228 3229 3232 3233 3238 3239
          3242 3243 3246 3247 3250 3251
          3256 3257 3260 3261 3262 3263
          3266 3267 3268 3269 3270 3271
          3272 3273 3274 3275 3276 3277
          3278 3279 3280 3281 3282 3283
          3284 3285 3286 3287 3288 3289
          3290 3291 3292 3293 3294 3295
          3298 3299 3300 3301 3304 3305
          3306 3307 3310 3311 3312 3313
          3316 3317 3318 3319 3320 3321
          3322 3323 3338 3339 3340 3341
          3356 3357 3358 3359 3374 3375
          3376 3377 3392 3393 3394 3395
          3410 3411 3412 3413 3428 3429
          3446 3447 3464 3465
        </DataArray>
        <DataArray type="Int32" Name="subdomain_id" format="ascii" RangeMin="107" RangeMax="109">
          107 107 107 107 107 107
          107 107 107 107 107 107
          107 107 107 107 107 107
          107 107 107 107 107 107
          107 107 107 107 107 107
          107 107 107 107 107 107
          107 107 107 107 107 107
          107 107 107 107 107 107
          107 107 107 107 107 107
          107 107 107 107 107 107
          107 107 107 107 107 107
          107 107 107 107 107 107
          107 107 107 107 107 107
          107 107 107 107 107 107
          107 107 107 107 107 107
          107 107 107 107 107 107
          107 107 107 107 107 107
          107 107 107 107 107 107
          107 107 107 107 107 107
          107 107 107 107 107 107
          107 107 107 107 107 107
          107 107 107 107 107 107
          107 107 107 107 107 107
          107 107 107 107 107 107
          107 107 107 107 107 107
          107 107 107 107 107 107
          107 107 107 107 107 107
          107 107 107 107 107 107
          107 107 107 107 107 107
          107 107 107 107 107 107
          107 107 107 107 107 107
          107 107 107 107 107 107
          107 107 107 107 107 107
          107 107 107 107 107 107
          107 107 107 107 107 107
          107 107 107 107 107 107
          107 107 107 107 107 107
          107 107 107 107 107 107
          107 107 107 107 107 107
          107 107 107 107 107 107
          107 107 107 107 107 107
          107 107 107 107 107 107
          107 107 107 107 107 107
          107 107 107 107 107 107
          107 107 107 107 107 107
          107 107 107 107 107 107
          107 107 107 107 107 107
          107 107 107 107 107 107
          107 107 107 107 107 107
          107 107 107 107 107 107
          107 107 107 107 107 107
          107 107 107 107 107 107
          107 107 107 107 107 107
          107 107 107 107 107 107
          107 107 107 107 107 107
          107 107 107 107 107 107
          107 107 107 107 107 107
          107 107 107 107 107 107
          107 107 107 107 107 107
          107 107 107 107 107 107
          107 107 107 107 107 107
          107 107 107 107 107 107
          107 107 107 107 107 107
          108 108 108 108 108 108
          108 108 108 108 108 108
          108 108 108 108 108 108
          108 108 108 108 108 108
          108 108 108 108 108 108
          108 108 108 108 108 108
          108 108 108 108 108 108
          108 108 108 108 109 109
          109 109 109 109 109 109
          109 109 109 109 109 109
          109 109 109 109 109 109
          109 109 109 109 109 109
          109 109 109 109
        </DataArray>
        <DataArray type="Int32" Name="processor_id" format="ascii" RangeMin="1" RangeMax="1">
          1 1 1 1 1 1
          1 1 1 1 1 1
          1 1 1 1 1 1
          1 1 1 1 1 1
          1 1 1 1 1 1
          1 1 1 1 1 1
          1 1 1 1 1 1
          1 1 1 1 1 1
          1 1 1 1 1 1
          1 1 1 1 1 1
          1 1 1 1 1 1
          1 1 1 1 1 1
          1 1 1 1 1 1
          1 1 1 1 1 1
          1 1 1 1 1 1
          1 1 1 1 1 1
          1 1 1 1 1 1
          1 1 1 1 1 1
          1 1 1 1 1 1
          1 1 1 1 1 1
          1 1 1 1 1 1
          1 1 1 1 1 1
          1 1 1 1 1 1
          1 1 1 1 1 1
          1 1 1 1 1 1
          1 1 1 1 1 1
          1 1 1 1 1 1
          1 1 1 1 1 1
          1 1 1 1 1 1
          1 1 1 1 1 1
          1 1 1 1 1 1
          1 1 1 1 1 1
          1 1 1 1 1 1
          1 1 1 1 1 1
          1 1 1 1 1 1
          1 1 1 1 1 1
          1 1 1 1 1 1
          1 1 1 1 1 1
          1 1 1 1 1 1
          1 1 1 1 1 1
          1 1 1 1 1 1
          1 1 1 1 1 1
          1 1 1 1 1 1
          1 1 1 1 1 1
          1 1 1 1 1 1
          1 1 1 1 1 1
          1 1 1 1 1 1
          1 1 1 1 1 1
          1 1 1 1 1 1
          1 1 1 1 1 1
          1 1 1 1 1 1
          1 1 1 1 1 1
          1 1 1 1 1 1
          1 1 1 1 1 1
          1 1 1 1 1 1
          1 1 1 1 1 1
          1 1 1 1 1 1
          1 1 1 1 1 1
          1 1 1 1 1 1
          1 1 1 1 1 1
          1 1 1 1 1 1
          1 1 1 1 1 1
          1 1 1 1 1 1
          1 1 1 1 1 1
          1 1 1 1 1 1
          1 1 1 1 1 1
          1 1 1 1 1 1
          1 1 1 1 1 1
          1 1 1 1 1 1
          1 1 1 1 1 1
          1 1 1 1 1 1
          1 1 1 1 1 1
          1 1 1 1 1 1
          1 1 1 1 1 1
          1 1 1 1 1 1
          1 1 1 1
        </DataArray>
      </CellData>
      <Points>
        <DataArray type="Float64" Name="Points" NumberOfComponents="3" format="ascii" RangeMin="0.011720201602553146" RangeMax="0.03445906060790294">
          0.012969222910182 0.0014853020742274 0 0.012627852011276 0.0016898182928561 0
          0.01236786906931 0.0013587217336166 0 0.012783325134333 0.0011067100297067 0
          0.012969222910182 0.0014853020742274 0.00015 0.012627852011276 0.0016898182928561 0.00015
          0.01236786906931 0.0013587217336166 0.00015 0.012783325134333 0.0011067100297067 0.00015
          0.012969222910182 0.0014853020742274 0.0003 0.012627852011276 0.0016898182928561 0.0003
          0.01236786906931 0.0013587217336166 0.0003 0.012783325134333 0.0011067100297067 0.0003
          0.017563073004652 0.0017425656775748 0 0.017044554764736 0.0015497457581888 0
          0.017260149731535 0.0011385367421141 0 0.017760141546291 0.0012815461285561 0
          0.017563073004652 0.0017425656775748 0.00015 0.017044554764736 0.0015497457581888 0.00015
          0.017260149731535 0.0011385367421141 0.00015 0.017760141546291 0.0012815461285561 0.00015
          0.017563073004652 0.0017425656775748 0.0003 0.017044554764736 0.0015497457581888 0.0003
          0.017260149731535 0.0011385367421141 0.0003 0.017760141546291 0.0012815461285561 0.0003
          0.023776898874178 0.0022456328082928 0 0.023504823460796 0.0016933718681226 0
          0.023764932341086 0.0012053538973125 0 0.025 0.0014444444444417 0
          0.023776898874178 0.0022456328082928 0.00015 0.023504823460796 0.0016933718681226 0.00015
          0.023764932341086 0.0012053538973125 0.00015 0.025 0.0014444444444417 0.00015
          0.023776898874178 0.0022456328082928 0.0003 0.023504823460796 0.0016933718681226 0.0003
          0.023764932341086 0.0012053538973125 0.0003 0.025 0.0014444444444417 0.0003
          0.014128459199836 0.0039835282877348 0 0.014611363502717 0.0036877867763913 0
          0.015005639561329 0.0040763460944633 0 0.014554004584986 0.0044253882271801 0
          0.014128459199836 0.0039835282877348 0.00015 0.014611363502717 0.0036877867763913 0.00015
          0.015005639561329 0.0040763460944633 0.00015 0.014554004584986 0.0044253882271801 0.00015
          0.014128459199836 0.0039835282877348 0.0003 0.014611363502717 0.0036877867763913 0.0003
          0.015005639561329 0.0040763460944633 0.0003 0.014554004584986 0.0044253882271801 0.0003
          0.019696280766899 0.00050763342021358 0 0.019550033943553 0.0010320458815065 0
          0.01900444612813 0.00098950685152215 0 0.019158982336274 0.00048623495360749 0
          0.019696280766899 0.00050763342021358 0.00015 0.019550033943553 0.0010320458815065 0.00015
          0.01900444612813 0.00098950685152215 0.00015 0.019158982336274 0.00048623495360749 0.00015
          0.019696280766899 0.00050763342021358 0.0003 0.019550033943553 0.0010320458815065 0.0003
          0.01900444612813 0.00098950685152215 0.0003 0.019158982336274 0.00048623495360749 0.0003
          0.014859009547347 0.0018414606933245 0 0.015407964407671 0.0020438178723745 0
          0.01515544156871 0.0026588338800995 0 0.014598102610542 0.0022982704245768 0
          0.014859009547347 0.0018414606933245 0.00015 0.015407964407671 0.0020438178723745 0.00015
          0.01515544156871 0.0026588338800995 0.00015 0.014598102610542 0.0022982704245768 0.00015
          0.014859009547347 0.0018414606933245 0.0003 0.015407964407671 0.0020438178723745 0.0003
          0.01515544156871 0.0026588338800995 0.0003 0.014598102610542 0.0022982704245768 0.0003
          0.018126604709057 0.0019215066283495 0 0.017910174904861 0.0024312076221655 0
          0.017342980714859 0.0022157520731189 0 0.018126604709057 0.0019215066283495 0.00015
          0.017910174904861 0.0024312076221655 0.00015 0.017342980714859 0.0022157520731189 0.00015
          0.018126604709057 0.0019215066283495 0.0003 0.017910174904861 0.0024312076221655 0.0003
          0.017342980714859 0.0022157520731189 0.0003 0.015995561521593 0.0022418351865966 0
          0.01581460170494 0.0027743126456578 0 0.015995561521593 0.0022418351865966 0.00015
          0.01581460170494 0.0027743126456578 0.00015 0.015995561521593 0.0022418351865966 0.0003
          0.01581460170494 0.0027743126456578 0.0003 0.021203243478062 0.0026574159093233 0
          0.020454986610371 0.0022211941162512 0 0.020632218270446 0.001642443645643 0
          0.021442904813338 0.0016925342242502 0 0.021203243478062 0.0026574159093233 0.00015
          0.020454986610371 0.0022211941162512 0.00015 0.020632218270446 0.001642443645643 0.00015
          0.021442904813338 0.0016925342242502 0.00015 0.021203243478062 0.0026574159093233 0.0003
          0.020454986610371 0.0022211941162512 0.0003 0.020632218270446 0.001642443645643 0.0003
          0.021442904813338 0.0016925342242502 0.0003 0.015000171033694 0.0033600360828681 0
          0.015396645228865 0.0036775895732469 0 0.015000171033694 0.0033600360828681 0.00015
          0.015396645228865 0.0036775895732469 0.00015 0.015000171033694 0.0033600360828681 0.0003
          0.015396645228865 0.0036775895732469 0.0003 0.016564676280502 0.0024636417082771 0
          0.016363912484153 0.0029730068966809 0 0.016564676280502 0.0024636417082771 0.00015
          0.016363912484153 0.0029730068966809 0.00015 0.016564676280502 0.0024636417082771 0.0003
          0.016363912484153 0.0029730068966809 0.0003 0.023072410624366 0.001035238244058 0
          0.023303887517976 0.00051385162283572 0 0.023907474886085 0.00057797945625648 0
          0.023072410624366 0.001035238244058 0.00015 0.023303887517976 0.00051385162283572 0.00015
          0.023907474886085 0.00057797945625648 0.00015 0.023072410624366 0.001035238244058 0.0003
          0.023303887517976 0.00051385162283572 0.0003 0.023907474886085 0.00057797945625648 0.0003
          0.014126846853415 0.0020250855845452 0 0.014376196219822 0.0016213258676016 0
          0.014126846853415 0.0020250855845452 0.00015 0.014376196219822 0.0016213258676016 0.00015
          0.014126846853415 0.0020250855845452 0.0003 0.014376196219822 0.0016213258676016 0.0003
          0.018981322625637 0.0048047339747308 0 0.018357141436072 0.0045551651420339 0
          0.018591751365599 0.0039752866369835 0 0.01916753543825 0.0042045163914746 0
          0.018981322625637 0.0048047339747308 0.00015 0.018357141436072 0.0045551651420339 0.00015
          0.018591751365599 0.0039752866369835 0.00015 0.01916753543825 0.0042045163914746 0.00015
          0.018981322625637 0.0048047339747308 0.0003 0.018357141436072 0.0045551651420339 0.0003
          0.018591751365599 0.0039752866369835 0.0003 0.01916753543825 0.0042045163914746 0.0003
          0.018733892370512 0.0020905204418308 0 0.018302277235643 0.001411928503633 0
          0.018878430913296 0.0015272195647153 0 0.018733892370512 0.0020905204418308 0.00015
          0.018302277235643 0.001411928503633 0.00015 0.018878430913296 0.0015272195647153 0.00015
          0.018733892370512 0.0020905204418308 0.0003 0.018302277235643 0.001411928503633 0.0003
          0.018878430913296 0.0015272195647153 0.0003 0.015535554193674 0.0045828394817383 0
          0.015535554193674 0.0045828394817383 0.00015 0.015535554193674 0.0045828394817383 0.0003
          0.017780760549951 0.0042442262797048 0 0.018018112537919 0.0052480329433742 0
          0.017497318700769 0.0047182001999379 0 0.017780760549951 0.0042442262797048 0.00015
          0.018018112537919 0.0052480329433742 0.00015 0.017497318700769 0.0047182001999379 0.00015
          0.017780760549951 0.0042442262797048 0.0003 0.018018112537919 0.0052480329433742 0.0003
          0.017497318700769 0.0047182001999379 0.0003 0.019494677591535 0.00226139088066 0
          0.019117853172676 0.0029004952170283 0 0.018505903140776 0.002650294613165 0
          0.019494677591535 0.00226139088066 0.00015 0.019117853172676 0.0029004952170283 0.00015
          0.018505903140776 0.002650294613165 0.00015 0.019494677591535 0.00226139088066 0.0003
          0.019117853172676 0.0029004952170283 0.0003 0.018505903140776 0.002650294613165 0.0003
          0.013829014690192 0.0024142080164891 0 0.013458574547778 0.0021218274131508 0
          0.013711742209243 0.0017918189860839 0 0.013829014690192 0.0024142080164891 0.00015
          0.013458574547778 0.0021218274131508 0.00015 0.013711742209243 0.0017918189860839 0.00015
          0.013829014690192 0.0024142080164891 0.0003 0.013458574547778 0.0021218274131508 0.0003
          0.013711742209243 0.0017918189860839 0.0003 0.0133672983588 0.0013583262253912 0
          0.013268156677071 0.00095273786274694 0 0.0133672983588 0.0013583262253912 0.00015
          0.013268156677071 0.00095273786274694 0.00015 0.0133672983588 0.0013583262253912 0.0003
          0.013268156677071 0.00095273786274694 0.0003 0.020151989638292 0.0057951577471947 0
          0.020929132214341 0.005368110675239 0 0.020151989638292 0.0057951577471947 0.00015
          0.020929132214341 0.005368110675239 0.00015 0.020151989638292 0.0057951577471947 0.0003
          0.020929132214341 0.005368110675239 0.0003 0.011634800364854 0.0014122839921498 0
          0.011634800364854 0.0014122839921498 0.00015 0.011634800364854 0.0014122839921498 0.0003
          0.020690070611507 0.0010537467946972 0 0.021241463234904 0.0010007048777636 0
          0.020690070611507 0.0010537467946972 0.00015 0.021241463234904 0.0010007048777636 0.00015
          0.020690070611507 0.0010537467946972 0.0003 0.021241463234904 0.0010007048777636 0.0003
          0.01690585017332 0.0031962434076044 0 0.017120511962154 0.0027019865785896 0
          0.01690585017332 0.0031962434076044 0.00015 0.017120511962154 0.0027019865785896 0.00015
          0.01690585017332 0.0031962434076044 0.0003 0.017120511962154 0.0027019865785896 0.0003
          0.016801656731456 0.0019822328720047 0 0.016801656731456 0.0019822328720047 0.00015
          0.016801656731456 0.0019822328720047 0.0003 0.015193226280812 0.00045041659473928 0
          0.015698309574236 0.00047366638839958 0 0.015648437383567 0.00097128418016613 0
          0.015127663000402 0.00090574444628299 0 0.015193226280812 0.00045041659473928 0.00015
          0.015698309574236 0.00047366638839958 0.00015 0.015648437383567 0.00097128418016613 0.00015
          0.015127663000402 0.00090574444628299 0.00015 0.015193226280812 0.00045041659473928 0.0003
          0.015698309574236 0.00047366638839958 0.0003 0.015648437383567 0.00097128418016613 0.0003
          0.015127663000402 0.00090574444628299 0.0003 0.025 0.0057777777777625 0
          0.025 0.0057777777777625 0.00015 0.025 0.0057777777777625 0.0003
          0.025 0.0043333333333224 0 0.023896353247243 0.0043894596145303 0
          0.025 0.0043333333333224 0.00015 0.023896353247243 0.0043894596145303 0.00015
          0.025 0.0043333333333224 0.0003 0.023896353247243 0.0043894596145303 0.0003
          0.013179014717582 0.001822526704721 0 0.013420070576712 0.0016525675047962 0
          0.013179014717582 0.001822526704721 0.00015 0.013420070576712 0.0016525675047962 0.00015
          0.013179014717582 0.001822526704721 0.0003 0.013420070576712 0.0016525675047962 0.0003
          0.01946472134525 0.0015844882179861 0 0.01946472134525 0.0015844882179861 0.00015
          0.01946472134525 0.0015844882179861 0.0003 0.019738918970445 0.0042679072806348 0
          0.019737200842686 0.0050366958134185 0 0.019738918970445 0.0042679072806348 0.00015
          0.019737200842686 0.0050366958134185 0.00015 0.019738918970445 0.0042679072806348 0.0003
          0.019737200842686 0.0050366958134185 0.0003 0.018801022408002 0.0054477015438504 0
          0.019301386887175 0.0055580415356932 0 0.019427042946373 0.0060730727381959 0
          0.018733542944404 0.0061279994653871 0 0.018801022408002 0.0054477015438504 0.00015
          0.019301386887175 0.0055580415356932 0.00015 0.019427042946373 0.0060730727381959 0.00015
          0.018733542944404 0.0061279994653871 0.00015 0.018801022408002 0.0054477015438504 0.0003
          0.019301386887175 0.0055580415356932 0.0003 0.019427042946373 0.0060730727381959 0.0003
          0.018733542944404 0.0061279994653871 0.0003 0.020038894590203 0.0015918984718873 0
          0.020014763899096 0.0020069766457038 0 0.020038894590203 0.0015918984718873 0.00015
          0.020014763899096 0.0020069766457038 0.00015 0.020038894590203 0.0015918984718873 0.0003
          0.020014763899096 0.0020069766457038 0.0003 0.02163606673442 0.0008902471917336 0
          0.021744201350165 0.00049421716196859 0 0.022190644598282 0.0005058615377216 0
          0.021944604947084 0.0011684672971015 0 0.02163606673442 0.0008902471917336 0.00015
          0.021744201350165 0.00049421716196859 0.00015 0.022190644598282 0.0005058615377216 0.00015
          0.021944604947084 0.0011684672971015 0.00015 0.02163606673442 0.0008902471917336 0.0003
          0.021744201350165 0.00049421716196859 0.0003 0.022190644598282 0.0005058615377216 0.0003
          0.021944604947084 0.0011684672971015 0.0003 0.015913060403389 0.0039637658470315 0
          0.015913060403389 0.0039637658470315 0.00015 0.015913060403389 0.0039637658470315 0.0003
          0.014558693053864 0.0012292895498017 0 0.015031644896308 0.0013689537442351 0
          0.014558693053864 0.0012292895498017 0.00015 0.015031644896308 0.0013689537442351 0.00015
          0.014558693053864 0.0012292895498017 0.0003 0.015031644896308 0.0013689537442351 0.0003
          0.018057579772584 0.0060827128421873 0 0.018070157245618 0.0068021820766994 0
          0.018057579772584 0.0060827128421873 0.00015 0.018070157245618 0.0068021820766994 0.00015
          0.018057579772584 0.0060827128421873 0.0003 0.018070157245618 0.0068021820766994 0.0003
          0.017413401850906 0.0060417176080878 0 0.017413401850906 0.0060417176080878 0.00015
          0.017413401850906 0.0060417176080878 0.0003 0.016169389215855 0.0034677229039223 0
          0.015655980876909 0.003250339095381 0 0.016169389215855 0.0034677229039223 0.00015
          0.015655980876909 0.003250339095381 0.00015 0.016169389215855 0.0034677229039223 0.0003
          0.015655980876909 0.003250339095381 0.0003 0.014652329158707 0.0030238496825634 0
          0.015285307382498 0.0031101507370722 0 0.014652329158707 0.0030238496825634 0.00015
          0.015285307382498 0.0031101507370722 0.00015 0.014652329158707 0.0030238496825634 0.0003
          0.015285307382498 0.0031101507370722 0.0003 0.016487808895433 0.0042010147125967 0
          0.016291762387835 0.0047307906783276 0 0.016487808895433 0.0042010147125967 0.00015
          0.016291762387835 0.0047307906783276 0.00015 0.016487808895433 0.0042010147125967 0.0003
          0.016291762387835 0.0047307906783276 0.0003 0.017341722495578 0.0054175123203669 0
          0.017341722495578 0.0054175123203669 0.00015 0.017341722495578 0.0054175123203669 0.0003
          0.016251164393845 0.0016133033435965 0 0.016687160352932 0.001374608348519 0
          0.016251164393845 0.0016133033435965 0.00015 0.016687160352932 0.001374608348519 0.00015
          0.016251164393845 0.0016133033435965 0.0003 0.016687160352932 0.001374608348519 0.0003
          0.01678493258985 0.0053840721103251 0 0.016848637368385 0.0048798435935376 0
          0.01678493258985 0.0053840721103251 0.00015 0.016848637368385 0.0048798435935376 0.00015
          0.01678493258985 0.0053840721103251 0.0003 0.016848637368385 0.0048798435935376 0.0003
          0.013915703094631 0.0030656560250288 0 0.01425441565673 0.0027053116394345 0
          0.014277331184122 0.0033493109511997 0 0.013915703094631 0.0030656560250288 0.00015
          0.01425441565673 0.0027053116394345 0.00015 0.014277331184122 0.0033493109511997 0.00015
          0.013915703094631 0.0030656560250288 0.0003 0.01425441565673 0.0027053116394345 0.0003
          0.014277331184122 0.0033493109511997 0.0003 0.013503308513005 0.0027817056572273 0
          0.013503308513005 0.0027817056572273 0.00015 0.013503308513005 0.0027817056572273 0.0003
          0.015571407447371 0.001500509245043 0 0.016188320748251 0.0009824473909215 0
          0.015571407447371 0.001500509245043 0.00015 0.016188320748251 0.0009824473909215 0.00015
          0.015571407447371 0.001500509245043 0.0003 0.016188320748251 0.0009824473909215 0.0003
          0.017456683820944 0.0034405145363726 0 0.017671289470578 0.0029336357035204 0
          0.017456683820944 0.0034405145363726 0.00015 0.017671289470578 0.0029336357035204 0.00015
          0.017456683820944 0.0034405145363726 0.0003 0.017671289470578 0.0029336357035204 0.0003
          0.022716879195272 0.001694170750475 0 0.022069698771397 0.0020298487038736 0
          0.022716879195272 0.001694170750475 0.00015 0.022069698771397 0.0020298487038736 0.00015
          0.022716879195272 0.001694170750475 0.0003 0.022069698771397 0.0020298487038736 0.0003
          0.013893710777701 0.0013389894450257 0 0.014229820502632 0.0011148528015907 0
          0.013893710777701 0.0013389894450257 0.00015 0.014229820502632 0.0011148528015907 0.00015
          0.013893710777701 0.0013389894450257 0.0003 0.014229820502632 0.0011148528015907 0.0003
          0.012674188674928 0.0028095410694266 0 0.013119330518162 0.0024349279719224 0
          0.013248150362312 0.0031919567697963 0 0.012674188674928 0.0028095410694266 0.00015
          0.013119330518162 0.0024349279719224 0.00015 0.013248150362312 0.0031919567697963 0.00015
          0.012674188674928 0.0028095410694266 0.0003 0.013119330518162 0.0024349279719224 0.0003
          0.013248150362312 0.0031919567697963 0.0003 0.012451479243686 0.0021914486022899 0
          0.012451479243686 0.0021914486022899 0.00015 0.012451479243686 0.0021914486022899 0.0003
          0.016782084774574 0.00093367828557597 0 0.016782084774574 0.00093367828557597 0.00015
          0.016782084774574 0.00093367828557597 0.0003 0.013121586466294 0.0036708577033715 0
          0.013121586466294 0.0036708577033715 0.00015 0.013121586466294 0.0036708577033715 0.0003
          0.012837862818801 0.0020433604618052 0 0.012837862818801 0.0020433604618052 0.00015
          0.012837862818801 0.0020433604618052 0.0003 0.016706746155521 0.0036970402910047 0
          0.016706746155521 0.0036970402910047 0.00015 0.016706746155521 0.0036970402910047 0.0003
          0.013749164985008 0.00086088989331873 0 0.013749164985008 0.00086088989331873 0.00015
          0.013749164985008 0.00086088989331873 0.0003 0.012096711335481 0.0017058387426491 0
          0.012096711335481 0.0017058387426491 0.00015 0.012096711335481 0.0017058387426491 0.0003
          0.013693266362936 0.0034326845509566 0 0.013693266362936 0.0034326845509566 0.00015
          0.013693266362936 0.0034326845509566 0.0003 0.012692307692288 0 0
          0.012542896420733 0.00061304595643839 0 0.012692307692288 0 0.00015
          0.012542896420733 0.00061304595643839 0.00015 0.012692307692288 0 0.0003
          0.012542896420733 0.00061304595643839 0.0003 0.013205128205107 0 0
          0.013181655749567 0.00048421972568225 0 0.013205128205107 0 0.00015
          0.013181655749567 0.00048421972568225 0.00015 0.013205128205107 0 0.0003
          0.013181655749567 0.00048421972568225 0.0003 0.012087580163866 0.0010424427844857 0
          0.012087580163866 0.0010424427844857 0.00015 0.012087580163866 0.0010424427844857 0.0003
          0.013717948717925 0 0 0.013709151553936 0.00043508888993868 0
          0.013717948717925 0 0.00015 0.013709151553936 0.00043508888993868 0.00015
          0.013717948717925 0 0.0003 0.013709151553936 0.00043508888993868 0.0003
          0.023934294716764 0.0032087575652495 0 0.025 0.0028888888888822 0
          0.023934294716764 0.0032087575652495 0.00015 0.025 0.0028888888888822 0.00015
          0.023934294716764 0.0032087575652495 0.0003 0.025 0.0028888888888822 0.0003
          0.022119784948444 0.002618759724243 0 0.022119784948444 0.002618759724243 0.00015
          0.022119784948444 0.002618759724243 0.0003 0.012384518900215 0.0018567382086698 0
          0.012384518900215 0.0018567382086698 0.00015 0.012384518900215 0.0018567382086698 0.0003
          0.021279978971931 0.00049482730399591 0 0.020757556768826 0.00050973095909409 0
          0.021279978971931 0.00049482730399591 0.00015 0.020757556768826 0.00050973095909409 0.00015
          0.021279978971931 0.00049482730399591 0.0003 0.020757556768826 0.00050973095909409 0.0003
          0.015256410256382 0 0 0.015769230769205 0 0
          0.015256410256382 0 0.00015 0.015769230769205 0 0.00015
          0.015256410256382 0 0.0003 0.015769230769205 0 0.0003
          0.014025581742285 0.0035717972510793 0 0.014025581742285 0.0035717972510793 0.00015
          0.014025581742285 0.0035717972510793 0.0003 0.013590285783394 0.0038446716816234 0
          0.013590285783394 0.0038446716816234 0.00015 0.013590285783394 0.0038446716816234 0.0003
          0.017243082343815 0.0050067004105205 0 0.017243082343815 0.0050067004105205 0.00015
          0.017243082343815 0.0050067004105205 0.0003 0.014691316585943 0.00042340821879555 0
          0.014743589743561 0 0 0.014691316585943 0.00042340821879555 0.00015
          0.014743589743561 0 0.00015 0.014691316585943 0.00042340821879555 0.0003
          0.014743589743561 0 0.0003 0.018245486290569 0.0031782516753476 0
          0.018245486290569 0.0031782516753476 0.00015 0.018245486290569 0.0031782516753476 0.0003
          0.018846153846135 0 0 0.018644197304734 0.00045373129675669 0
          0.01812656348281 0.00041497632726255 0 0.018333333333313 0 0
          0.018846153846135 0 0.00015 0.018644197304734 0.00045373129675669 0.00015
          0.01812656348281 0.00041497632726255 0.00015 0.018333333333313 0 0.00015
          0.018846153846135 0 0.0003 0.018644197304734 0.00045373129675669 0.0003
          0.01812656348281 0.00041497632726255 0.0003 0.018333333333313 0 0.0003
          0.016222123693441 0.00047331176344161 0 0.016700854199337 0.00043557402690065 0
          0.016222123693441 0.00047331176344161 0.00015 0.016700854199337 0.00043557402690065 0.00015
          0.016222123693441 0.00047331176344161 0.0003 0.016700854199337 0.00043557402690065 0.0003
          0.020119253581834 0.0010505613075795 0 0.020119253581834 0.0010505613075795 0.00015
          0.020119253581834 0.0010505613075795 0.0003 0.017948162073368 0.00084248305268282 0
          0.018468108748109 0.00092264731154686 0 0.017948162073368 0.00084248305268282 0.00015
          0.018468108748109 0.00092264731154686 0.00015 0.017948162073368 0.00084248305268282 0.0003
          0.018468108748109 0.00092264731154686 0.0003 0.018823294200687 0.0034327213803771 0
          0.019357958441624 0.0036753812238739 0 0.018823294200687 0.0034327213803771 0.00015
          0.019357958441624 0.0036753812238739 0.00015 0.018823294200687 0.0034327213803771 0.0003
          0.019357958441624 0.0036753812238739 0.0003 0.017020820655581 0.0044256808272369 0
          0.017020820655581 0.0044256808272369 0.00015 0.017020820655581 0.0044256808272369 0.0003
          0.017246333426457 0.0039469397271967 0 0.017246333426457 0.0039469397271967 0.00015
          0.017246333426457 0.0039469397271967 0.0003 0.020078691259254 0.0027314397537426 0
          0.020078691259254 0.0027314397537426 0.00015 0.020078691259254 0.0027314397537426 0.0003
          0.014206101807249 0.00041708713844452 0 0.014230769230743 0 0
          0.014206101807249 0.00041708713844452 0.00015 0.014230769230743 0 0.00015
          0.014206101807249 0.00041708713844452 0.0003 0.014230769230743 0 0.0003
          0.019663480844036 0.0032045589214632 0 0.019663480844036 0.0032045589214632 0.00015
          0.019663480844036 0.0032045589214632 0.0003 0.021168425648455 0.0043064684914555 0
          0.021635594211814 0.0048272474453844 0 0.020555573714582 0.0046911399787169 0
          0.021168425648455 0.0043064684914555 0.00015 0.021635594211814 0.0048272474453844 0.00015
          0.020555573714582 0.0046911399787169 0.00015 0.021168425648455 0.0043064684914555 0.0003
          0.021635594211814 0.0048272474453844 0.0003 0.020555573714582 0.0046911399787169 0.0003
          0.019723975353689 0.0038421555098755 0 0.019723975353689 0.0038421555098755 0.00015
          0.019723975353689 0.0038421555098755 0.0003 0.01679487179485 0 0
          0.017307692307672 0 0 0.017098243235352 0.00037703288126221 0
          0.01679487179485 0 0.00015 0.017307692307672 0 0.00015
          0.017098243235352 0.00037703288126221 0.00015 0.01679487179485 0 0.0003
          0.017307692307672 0 0.0003 0.017098243235352 0.00037703288126221 0.0003
          0.019358974358957 0 0 0.019358974358957 0 0.00015
          0.019358974358957 0 0.0003 0.018021318366412 0.0037089471112668 0
          0.018021318366412 0.0037089471112668 0.00015 0.018021318366412 0.0037089471112668 0.0003
          0.022914230268928 0.0025172233828488 0 0.022914230268928 0.0025172233828488 0.00015
          0.022914230268928 0.0025172233828488 0.0003 0.016282051282027 0 0
          0.016282051282027 0 0.00015 0.016282051282027 0 0.0003
          0.017636327566636 0.00038375181151782 0 0.017820512820494 0 0
          0.017636327566636 0.00038375181151782 0.00015 0.017820512820494 0 0.00015
          0.017636327566636 0.00038375181151782 0.0003 0.017820512820494 0 0.0003
          0.020545307319607 0.0031941956482125 0 0.020545307319607 0.0031941956482125 0.00015
          0.020545307319607 0.0031941956482125 0.0003 0.014207774647908 0.00082121811907846 0
          0.014649951203035 0.00083908958777153 0 0.014207774647908 0.00082121811907846 0.00015
          0.014649951203035 0.00083908958777153 0.00015 0.014207774647908 0.00082121811907846 0.0003
          0.014649951203035 0.00083908958777153 0.0003 0.017453973974276 0.00075538641526017 0
          0.017131504825278 0.00067680946789985 0 0.017453973974276 0.00075538641526017 0.00015
          0.017131504825278 0.00067680946789985 0.00015 0.017453973974276 0.00075538641526017 0.0003
          0.017131504825278 0.00067680946789985 0.0003 0.020049549059284 0.0035870308776452 0
          0.020306231316884 0.0040846257713005 0 0.020049549059284 0.0035870308776452 0.00015
          0.020306231316884 0.0040846257713005 0.00015 0.020049549059284 0.0035870308776452 0.0003
          0.020306231316884 0.0040846257713005 0.0003 0.022163023796879 0.0034061119862663 0
          0.021471654866651 0.0034951402573089 0 0.022163023796879 0.0034061119862663 0.00015
          0.021471654866651 0.0034951402573089 0.00015 0.022163023796879 0.0034061119862663 0.0003
          0.021471654866651 0.0034951402573089 0.0003 0.020216848120139 0.00051365536395203 0
          0.020384615384602 0 0 0.020897435897425 0 0
          0.020216848120139 0.00051365536395203 0.00015 0.020384615384602 0 0.00015
          0.020897435897425 0 0.00015 0.020216848120139 0.00051365536395203 0.0003
          0.020384615384602 0 0.0003 0.020897435897425 0 0.0003
          0.020867240059882 0.0037570922548429 0 0.020867240059882 0.0037570922548429 0.00015
          0.020867240059882 0.0037570922548429 0.0003 0.021410256410247 0 0
          0.021410256410247 0 0.00015 0.021410256410247 0 0.0003
          0.01987179487178 0 0 0.01987179487178 0 0.00015
          0.01987179487178 0 0.0003 0.022975084693504 0.003367305376383 0
          0.022975084693504 0.003367305376383 0.00015 0.022975084693504 0.003367305376383 0.0003
          0.022435897435893 0 0 0.022948717948713 0 0
          0.022737844672879 0.00047743690091317 0 0.022435897435893 0 0.00015
          0.022948717948713 0 0.00015 0.022737844672879 0.00047743690091317 0.00015
          0.022435897435893 0 0.0003 0.022948717948713 0 0.0003
          0.022737844672879 0.00047743690091317 0.0003 0.02192307692307 0 0
          0.02192307692307 0 0.00015 0.02192307692307 0 0.0003
          0.021567010772127 0.0039949981403974 0 0.021567010772127 0.0039949981403974 0.00015
          0.021567010772127 0.0039949981403974 0.0003 0.02205136800235 0.0041574599345453 0
          0.022874799944018 0.0043411431204517 0 0.02205136800235 0.0041574599345453 0.00015
          0.022874799944018 0.0043411431204517 0.00015 0.02205136800235 0.0041574599345453 0.0003
          0.022874799944018 0.0043411431204517 0.0003 0.023461538461532 0 0
          0.023461538461532 0 0.00015 0.023461538461532 0 0.0003
          0.022597273609822 0.0008601076908125 0 0.022597273609822 0.0008601076908125 0.00015
          0.022597273609822 0.0008601076908125 0.0003 0.024392416230449 0.00057909033861659 0
          0.024392416230449 0.00057909033861659 0.00015 0.024392416230449 0.00057909033861659 0.0003
          0.023974358974355 0 0 0.023974358974355 0 0.00015
          0.023974358974355 0 0.0003 0.024487179487177 0 0
          0.024487179487177 0 0.00015 0.024487179487177 0 0.0003
          0.025 0 0 0.025 0 0.00015
          0.025 0 0.0003 0.026666666666664 0.0014444444444417 0
          0.026666666666663 0 0 0.026666666666664 0.0014444444444417 0.00015
          0.026666666666663 0 0.00015 0.026666666666664 0.0014444444444417 0.0003
          0.026666666666663 0 0.0003 0.028333333333331 0.0014444444444417 0
          0.02833333333333 0 0 0.028333333333331 0.0014444444444417 0.00015
          0.02833333333333 0 0.00015 0.028333333333331 0.0014444444444417 0.0003
          0.02833333333333 0 0.0003 0.03 0.0014444444444417 0
          0.03 0 0 0.03 0.0014444444444417 0.00015
          0.03 0 0.00015 0.03 0.0014444444444417 0.0003
          0.03 0 0.0003 0.026666666666665 0.0028888888888822 0
          0.026666666666665 0.0028888888888822 0.00015 0.026666666666665 0.0028888888888822 0.0003
          0.028333333333331 0.0028888888888822 0 0.028333333333331 0.0028888888888822 0.00015
          0.028333333333331 0.0028888888888822 0.0003 0.03 0.0028888888888822 0
          0.03 0.0028888888888822 0.00015 0.03 0.0028888888888822 0.0003
          0.026666666666666 0.0043333333333224 0 0.026666666666666 0.0043333333333224 0.00015
          0.026666666666666 0.0043333333333224 0.0003 0.028333333333332 0.0043333333333224 0
          0.028333333333332 0.0043333333333224 0.00015 0.028333333333332 0.0043333333333224 0.0003
          0.03 0.0043333333333224 0 0.03 0.0043333333333224 0.00015
          0.03 0.0043333333333224 0.0003 0.026666666666666 0.0057777777777625 0
          0.026666666666666 0.0057777777777625 0.00015 0.026666666666666 0.0057777777777625 0.0003
          0.028333333333333 0.0057777777777625 0 0.028333333333333 0.0057777777777625 0.00015
          0.028333333333333 0.0057777777777625 0.0003 0.03 0.0057777777777625 0
          0.03 0.0057777777777625 0.00015 0.03 0.0057777777777625 0.0003
          0.028333333333334 0.0072222222222063 0 0.028333333333334 0.0072222222222063 0.00015
          0.028333333333334 0.0072222222222063 0.0003 0.03 0.0072222222222063 0
          0.03 0.0072222222222063 0.00015 0.03 0.0072222222222063 0.0003
          0.028333333333334 0.0086666666666559 0 0.028333333333334 0.0086666666666559 0.00015
          0.028333333333334 0.0086666666666559 0.0003 0.03 0.0086666666666559 0
          0.03 0.0086666666666559 0.00015 0.03 0.0086666666666559 0.0003
          0.028333333333335 0.010111111111103 0 0.028333333333335 0.010111111111103 0.00015
          0.028333333333335 0.010111111111103 0.0003 0.03 0.010111111111103 0
          0.03 0.010111111111103 0.00015 0.03 0.010111111111103 0.0003
          0.028333333333336 0.011555555555552 0 0.028333333333336 0.011555555555552 0.00015
          0.028333333333336 0.011555555555552 0.0003 0.03 0.011555555555552 0
          0.03 0.011555555555552 0.00015 0.03 0.011555555555552 0.0003
          0.028333333333337 0.013 0 0.028333333333337 0.013 0.00015
          0.028333333333337 0.013 0.0003 0.03 0.013 0
          0.03 0.013 0.00015 0.03 0.013 0.0003
          0.031601181467612 0.0014508094753802 0 0.03158989866902 0 0
          0.031601181467612 0.0014508094753802 0.00015 0.03158989866902 0 0.00015
          0.031601181467612 0.0014508094753802 0.0003 0.03158989866902 0 0.0003
          0.031612464266204 0.0029016189507591 0 0.031612464266204 0.0029016189507591 0.00015
          0.031612464266204 0.0029016189507591 0.0003 0.031623747064796 0.0043524284261377 0
          0.031623747064796 0.0043524284261377 0.00015 0.031623747064796 0.0043524284261377 0.0003
          0.031635029863388 0.0058032379015163 0 0.031635029863388 0.0058032379015163 0.00015
          0.031635029863388 0.0058032379015163 0.0003 0.031646312661979 0.0072540473768985 0
          0.031646312661979 0.0072540473768985 0.00015 0.031646312661979 0.0072540473768985 0.0003
          0.021356284292895 0.0061182113295331 0 0.020489019208248 0.0065103794253073 0
          0.021356284292895 0.0061182113295331 0.00015 0.020489019208248 0.0065103794253073 0.00015
          0.021356284292895 0.0061182113295331 0.0003 0.020489019208248 0.0065103794253073 0.0003
          0.025 0.0072222222222063 0 0.023816654948859 0.0069324696013164 0
          0.023829479378086 0.0056593315311521 0 0.025 0.0072222222222063 0.00015
          0.023816654948859 0.0069324696013164 0.00015 0.023829479378086 0.0056593315311521 0.00015
          0.025 0.0072222222222063 0.0003 0.023816654948859 0.0069324696013164 0.0003
          0.023829479378086 0.0056593315311521 0.0003 0.018734278863615 0.0068564365277259 0
          0.018734278863615 0.0068564365277259 0.00015 0.018734278863615 0.0068564365277259 0.0003
          0.019611341590458 0.0069319215290848 0 0.019611341590458 0.0069319215290848 0.00015
          0.019611341590458 0.0069319215290848 0.0003 0.022477642087048 0.0055533155338694 0
          0.022477642087048 0.0055533155338694 0.00015 0.022477642087048 0.0055533155338694 0.0003
          0.026666666666667 0.0072222222222063 0 0.026666666666667 0.0072222222222063 0.00015
          0.026666666666667 0.0072222222222063 0.0003 0.026666666666668 0.0086666666666559 0
          0.026666666666668 0.0086666666666559 0.00015 0.026666666666668 0.0086666666666559 0.0003
          0.026666666666669 0.010111111111103 0 0.026666666666669 0.010111111111103 0.00015
          0.026666666666669 0.010111111111103 0.0003 0.026666666666669 0.011555555555552 0
          0.026666666666669 0.011555555555552 0.00015 0.026666666666669 0.011555555555552 0.0003
          0.02666666666667 0.013 0 0.02666666666667 0.013 0.00015
          0.02666666666667 0.013 0.0003 0.033201501647561 0.0014698753983525 0
          0.033179797338052 0 0 0.033201501647561 0.0014698753983525 0.00015
          0.033179797338052 0 0.00015 0.033201501647561 0.0014698753983525 0.0003
          0.033179797338052 0 0.0003 0.033223205957069 0.0029397507967035 0
          0.033223205957069 0.0029397507967035 0.00015 0.033223205957069 0.0029397507967035 0.0003
          0.033244910266578 0.0044096261950543 0 0.033244910266578 0.0044096261950543 0.00015
          0.033244910266578 0.0044096261950543 0.0003 0.033266614576087 0.0058795015934051 0
          0.033266614576087 0.0058795015934051 0.00015 0.033266614576087 0.0058795015934051 0.0003
          0.033288318885596 0.0073493769917596 0 0.033288318885596 0.0073493769917596 0.00015
          0.033288318885596 0.0073493769917596 0.0003 0.031657595460571 0.0087048568522863 0
          0.031657595460571 0.0087048568522863 0.00015 0.031657595460571 0.0087048568522863 0.0003
          0.033310023195106 0.0088192523901195 0 0.033310023195106 0.0088192523901195 0.00015
          0.033310023195106 0.0088192523901195 0.0003 0.031668878259163 0.010155666327672 0
          0.031668878259163 0.010155666327672 0.00015 0.031668878259163 0.010155666327672 0.0003
          0.031680161057755 0.011606475803059 0 0.031680161057755 0.011606475803059 0.00015
          0.031680161057755 0.011606475803059 0.0003 0.031691443856347 0.013057285278446 0
          0.031691443856347 0.013057285278446 0.00015 0.031691443856347 0.013057285278446 0.0003
          <InformationKey name="L2_NORM_RANGE" location="vtkDataArray" length="2">
            <Value index="0">
              0.011720201603
            </Value>
            <Value index="1">
              0.034459060608
            </Value>
          </InformationKey>
        </DataArray>
      </Points>
      <Cells>
        <DataArray type="Int64" Name="connectivity" format="ascii" RangeMin="0" RangeMax="797">
          0 1 2 3 4 5
          6 7 4 5 6 7
          8 9 10 11 12 13
          14 15 16 17 18 19
          16 17 18 19 20 21
          22 23 24 25 26 27
          28 29 30 31 28 29
          30 31 32 33 34 35
          36 37 38 39 40 41
          42 43 40 41 42 43
          44 45 46 47 48 49
          50 51 52 53 54 55
          52 53 54 55 56 57
          58 59 60 61 62 63
          64 65 66 67 64 65
          66 67 68 69 70 71
          72 73 74 12 75 76
          77 16 75 76 77 16
          78 79 80 20 61 81
          82 62 65 83 84 66
          65 83 84 66 69 85
          86 70 87 88 89 90
          91 92 93 94 91 92
          93 94 95 96 97 98
          37 99 100 38 41 101
          102 42 41 101 102 42
          45 103 104 46 81 105
          106 82 83 107 108 84
          83 107 108 84 85 109
          110 86 26 111 112 113
          30 114 115 116 30 114
          115 116 34 117 118 119
          63 120 121 60 67 122
          123 64 67 122 123 64
          71 124 125 68 126 127
          128 129 130 131 132 133
          130 131 132 133 134 135
          136 137 138 72 139 140
          141 75 142 143 141 75
          142 143 144 78 145 146
          150 127 151 152 153 131
          154 155 153 131 154 155
          156 135 157 158 159 160
          161 138 162 163 164 141
          162 163 164 141 165 166
          167 144 120 168 169 170
          122 171 172 173 122 171
          172 173 124 174 175 176
          15 139 72 12 19 142
          75 16 19 142 75 16
          23 145 78 20 177 0
          3 178 179 4 7 180
          179 4 7 180 181 8
          11 182 183 184 726 727
          185 186 728 729 185 186
          728 729 187 188 730 731
          192 193 90 89 194 195
          94 93 194 195 94 93
          196 197 98 97 198 106
          105 199 200 108 107 201
          200 108 107 201 202 110
          109 203 204 13 12 74
          205 17 16 77 205 17
          16 77 206 21 20 80
          207 208 209 210 211 212
          213 214 211 212 213 214
          215 216 217 218 732 733
          734 219 735 736 737 220
          735 736 737 220 738 739
          740 221 222 219 734 223
          224 220 737 225 224 220
          737 225 226 221 740 227
          228 229 170 169 230 231
          173 172 230 231 173 172
          232 233 176 175 234 140
          50 49 235 143 54 53
          235 143 54 53 236 146
          58 57 129 237 238 126
          133 239 240 130 133 239
          240 130 137 241 242 134
          243 244 245 246 247 248
          249 250 247 248 249 250
          251 252 253 254 255 256
          159 234 257 258 162 235
          257 258 162 235 259 260
          165 236 261 262 263 264
          265 266 267 268 265 266
          267 268 269 270 271 272
          273 147 38 100 274 148
          42 102 274 148 42 102
          275 149 46 104 121 276
          277 60 123 278 279 64
          123 278 279 64 125 280
          281 68 282 246 741 283
          284 250 742 285 284 250
          742 285 286 254 743 287
          291 292 82 106 293 294
          84 108 293 294 84 108
          295 296 86 110 99 297
          62 298 101 299 66 300
          101 299 66 300 103 301
          70 302 303 304 147 273
          305 306 148 274 305 306
          148 274 307 308 149 275
          105 204 74 199 107 205
          77 201 107 205 77 201
          109 206 80 203 288 309
          151 282 289 310 154 284
          289 310 154 284 290 311
          157 286 312 313 13 204
          314 315 17 205 314 315
          17 205 316 317 21 206
          99 298 292 100 101 300
          294 102 101 300 294 102
          103 302 296 104 292 298
          62 82 294 300 66 84
          294 300 66 84 296 302
          70 86 151 127 126 243
          154 131 130 247 154 131
          130 247 157 135 134 251
          246 282 151 243 250 284
          154 247 250 284 154 247
          254 286 157 251 100 292
          291 273 102 294 293 274
          102 294 293 274 104 296
          295 275 324 325 297 326
          327 328 299 329 327 328
          299 329 330 331 301 332
          325 63 62 297 328 67
          66 299 328 67 66 299
          331 71 70 301 333 168
          325 324 334 171 328 327
          334 171 328 327 335 174
          331 330 168 120 63 325
          171 122 67 328 171 122
          67 328 174 124 71 331
          312 336 209 337 314 338
          213 339 314 338 213 339
          316 340 217 341 88 256
          255 89 92 258 257 93
          92 258 257 93 96 260
          259 97 342 198 199 343
          344 200 201 345 344 200
          201 345 346 202 203 347
          90 264 348 349 94 268
          350 351 94 268 350 351
          98 272 352 353 354 355
          276 121 356 357 278 123
          356 357 278 123 358 359
          280 125 360 361 333 362
          363 364 334 365 363 364
          334 365 366 367 335 368
          336 277 210 209 338 279
          214 213 338 279 214 213
          340 281 218 217 73 72
          138 161 76 75 141 164
          76 75 141 164 79 78
          144 167 372 14 13 313
          373 18 17 315 373 18
          17 315 374 22 21 317
          168 333 361 169 171 334
          364 172 171 334 364 172
          174 335 367 175 378 361
          360 369 379 364 363 370
          379 364 363 370 380 367
          366 371 381 291 106 198
          382 293 108 200 382 293
          108 200 383 295 110 202
          354 177 178 384 356 179
          180 385 356 179 180 385
          358 181 182 386 37 326
          297 99 41 329 299 101
          41 329 299 101 45 332
          301 103 324 390 362 333
          327 391 365 334 327 391
          365 334 330 392 368 335
          394 393 399 400 396 395
          401 402 396 395 401 402
          398 397 403 404 2 387
          189 405 6 388 190 406
          6 388 190 406 10 389
          191 407 400 399 408 409
          402 401 410 411 402 401
          410 411 404 403 412 413
          414 24 27 415 416 28
          31 417 416 28 31 417
          418 32 35 419 420 87
          90 349 421 91 94 351
          421 91 94 351 422 95
          98 353 199 74 73 343
          201 77 76 345 201 77
          76 345 203 80 79 347
          336 61 60 277 338 65
          64 279 338 65 64 279
          340 69 68 281 426 193
          192 427 428 195 194 429
          428 195 194 429 430 197
          196 431 207 432 433 208
          211 434 435 212 211 434
          435 212 215 436 437 216
          326 438 390 324 329 439
          391 327 329 439 391 327
          332 440 392 330 441 375
          362 390 442 376 365 391
          442 376 365 391 443 377
          368 392 381 303 273 291
          382 305 274 293 382 305
          274 293 383 307 275 295
          348 111 26 25 350 114
          30 29 350 114 30 29
          352 117 34 33 319 444
          309 318 321 445 310 320
          321 445 310 320 323 446
          311 322 432 207 447 448
          434 211 449 450 434 211
          449 450 436 215 451 452
          238 244 243 126 240 248
          247 130 240 248 247 130
          242 252 251 134 140 234
          159 138 143 235 162 141
          143 235 162 141 146 236
          165 144 161 453 343 73
          164 454 345 76 164 454
          345 76 167 455 347 79
          456 457 458 459 460 461
          462 463 460 461 462 463
          464 465 466 467 61 336
          312 81 65 338 314 83
          65 338 314 83 69 340
          316 85 81 312 204 105
          83 314 205 107 83 314
          205 107 85 316 206 109
          468 469 372 337 470 471
          373 339 470 471 373 339
          472 473 374 341 468 337
          209 208 470 339 213 212
          470 339 213 212 472 341
          217 216 474 255 234 49
          475 257 235 53 475 257
          235 53 476 259 236 57
          372 313 312 337 373 315
          314 339 373 315 314 339
          374 317 316 341 152 151
          309 444 155 154 310 445
          155 154 310 445 158 157
          311 446 477 478 139 15
          479 480 142 19 479 480
          142 19 481 482 145 23
          483 484 129 128 485 486
          133 132 485 486 133 132
          487 488 137 136 489 319
          304 303 490 321 306 305
          490 321 306 305 491 323
          308 307 744 741 246 245
          745 742 250 249 745 742
          250 249 746 743 254 253
          492 381 198 342 493 382
          200 344 493 382 200 344
          494 383 202 346 88 495
          159 256 92 496 162 258
          92 496 162 258 96 497
          165 260 498 499 448 447
          500 501 450 449 500 501
          450 449 502 503 452 451
          223 414 415 222 225 416
          417 224 225 416 417 224
          227 418 419 226 354 121
          120 170 356 123 122 173
          356 123 122 173 358 125
          124 176 394 3 2 405
          396 7 6 406 396 7
          6 406 398 11 10 407
          453 161 160 483 454 164
          163 485 454 164 163 485
          455 167 166 487 495 504
          160 159 496 505 163 162
          496 505 163 162 497 506
          166 165 492 489 303 381
          493 490 305 382 493 490
          305 382 494 491 307 383
          264 90 193 261 268 94
          195 265 268 94 195 265
          272 98 197 269 507 508
          184 509 510 511 186 512
          510 511 186 512 513 514
          188 515 237 129 484 516
          239 133 486 517 239 133
          486 517 241 137 488 518
          469 519 520 521 471 522
          523 524 471 522 523 524
          473 525 526 527 457 456
          528 51 461 460 529 55
          461 460 529 55 465 464
          530 59 531 342 343 453
          532 344 345 454 532 344
          345 454 533 346 347 455
          238 183 245 244 240 185
          249 248 240 185 249 248
          242 187 253 252 1 378
          369 423 5 379 370 424
          5 379 370 424 9 380
          371 425 504 484 483 160
          505 486 485 163 505 486
          485 163 506 488 487 166
          453 483 128 531 454 485
          132 532 454 485 132 532
          455 487 136 533 747 726
          184 508 748 728 186 511
          748 728 186 511 749 730
          188 514 478 457 51 50
          480 461 55 54 480 461
          55 54 482 465 59 58
          400 409 384 178 402 411
          385 180 402 411 385 180
          404 413 386 182 420 349
          348 534 421 351 350 535
          421 351 350 535 422 353
          352 536 468 537 519 469
          470 538 522 471 470 538
          522 471 472 539 525 473
          509 184 183 238 512 186
          185 240 512 186 185 240
          515 188 187 242 170 229
          177 354 173 231 179 356
          173 231 179 356 176 233
          181 358 499 498 409 408
          501 500 411 410 501 500
          411 410 503 502 413 412
          540 541 459 458 542 543
          463 462 542 543 463 462
          544 545 467 466 87 546
          495 88 91 547 496 92
          91 547 496 92 95 548
          497 96 228 169 361 378
          230 172 364 379 230 172
          364 379 232 175 367 380
          549 550 276 355 551 552
          278 357 551 552 278 357
          553 554 280 359 478 50
          140 139 480 54 143 142
          480 54 143 142 482 58
          146 145 540 555 556 521
          542 557 558 524 542 557
          558 524 544 559 560 527
          36 441 390 438 40 442
          391 439 40 442 391 439
          44 443 392 440 561 562
          237 516 563 564 239 517
          563 564 239 517 565 566
          241 518 152 444 319 489
          155 445 321 490 155 445
          321 490 158 446 323 491
          567 568 87 420 569 570
          91 421 569 570 91 421
          571 572 95 422 150 492
          342 531 153 493 344 532
          153 493 344 532 156 494
          346 533 477 15 14 555
          479 19 18 557 479 19
          18 557 481 23 22 559
          531 128 127 150 532 132
          131 153 532 132 131 153
          533 136 135 156 24 534
          348 25 28 535 350 29
          28 535 350 29 32 536
          352 33 504 495 546 561
          505 496 547 563 505 496
          547 563 506 497 548 565
          474 192 89 255 475 194
          93 257 475 194 93 257
          476 196 97 259 573 574
          575 427 576 577 578 429
          576 577 578 429 579 580
          581 431 546 582 562 561
          547 583 564 563 547 583
          564 563 548 584 566 565
          561 516 484 504 563 517
          486 505 563 517 486 505
          565 518 488 506 555 540
          458 477 557 542 462 479
          557 542 462 479 559 544
          466 481 550 210 277 276
          552 214 279 278 552 214
          279 278 554 218 281 280
          744 245 183 727 745 249
          185 729 745 249 185 729
          746 253 187 731 210 550
          447 207 214 552 449 211
          214 552 449 211 218 554
          451 215 427 575 585 426
          429 578 586 428 429 578
          586 428 431 581 587 430
          150 152 489 492 153 155
          490 493 153 155 490 493
          156 158 491 494 48 588
          574 573 52 589 577 576
          52 589 577 576 56 590
          580 579 573 474 49 48
          576 475 53 52 576 475
          53 52 579 476 57 56
          562 509 238 237 564 512
          240 239 564 512 240 239
          566 515 242 241 372 556
          555 14 373 558 557 18
          373 558 557 18 374 560
          559 22 534 591 567 420
          535 592 569 421 535 592
          569 421 536 593 571 422
          521 556 372 469 524 558
          373 471 524 558 373 471
          527 560 374 473 178 3
          394 400 180 7 396 402
          180 7 396 402 182 11
          398 404 263 594 595 596
          267 597 598 599 267 597
          598 599 271 600 601 602
          549 355 354 384 551 357
          356 385 551 357 356 385
          553 359 358 386 0 228
          378 1 4 230 379 5
          4 230 379 5 8 232
          380 9 426 585 603 262
          428 586 604 266 428 586
          604 266 430 587 605 270
          582 546 87 568 583 547
          91 570 583 547 91 570
          584 548 95 572 474 573
          427 192 475 576 429 194
          475 576 429 194 476 579
          431 196 262 603 594 263
          266 604 597 267 266 604
          597 267 270 605 600 271
          537 468 208 433 538 470
          212 435 538 470 212 435
          539 472 216 437 36 438
          326 37 40 439 329 41
          40 439 329 41 44 440
          332 45 541 540 521 520
          543 542 524 523 543 542
          524 523 545 544 527 526
          1 423 387 2 5 424
          388 6 5 424 388 6
          9 425 389 10 498 447
          550 549 500 449 552 551
          500 449 552 551 502 451
          554 553 228 0 177 229
          230 4 179 231 230 4
          179 231 232 8 181 233
          507 582 568 606 510 583
          570 607 510 583 570 607
          513 584 572 608 588 48
          51 528 589 52 55 529
          589 52 55 529 590 56
          59 530 609 567 591 610
          611 569 592 612 611 569
          592 612 613 571 593 614
          596 595 615 112 599 598
          616 115 599 598 616 115
          602 601 617 118 414 591
          534 24 416 592 535 28
          416 592 535 28 418 593
          536 32 262 261 193 426
          266 265 195 428 266 265
          195 428 270 269 197 430
          223 610 591 414 225 612
          592 416 225 612 592 416
          227 614 593 418 477 458
          457 478 479 462 461 480
          479 462 461 480 481 466
          465 482 610 747 508 609
          612 748 511 611 612 748
          511 611 614 749 514 613
          549 384 409 498 551 385
          411 500 551 385 411 500
          553 386 413 502 223 734
          747 610 225 737 748 612
          225 737 748 612 227 740
          749 614 596 618 264 263
          599 619 268 267 599 619
          268 267 602 620 272 271
          507 606 609 508 510 607
          611 511 510 607 611 511
          513 608 613 514 582 507
          509 562 583 510 512 564
          583 510 512 564 584 513
          515 566 113 621 27 26
          116 622 31 30 116 622
          31 30 119 623 35 34
          112 615 624 113 115 616
          625 116 115 616 625 116
          118 617 626 119 609 606
          568 567 611 607 570 569
          611 607 570 569 613 608
          572 571 112 111 618 596
          115 114 619 599 115 114
          619 599 118 117 620 602
          113 624 627 621 116 625
          628 622 116 625 628 622
          119 626 629 623 111 348
          264 618 114 350 268 619
          114 350 268 619 117 352
          272 620 27 621 627 630
          31 622 628 631 31 622
          628 631 35 623 629 632
          633 27 630 634 635 31
          631 636 635 31 631 636
          637 35 632 638 639 633
          634 640 641 635 636 642
          641 635 636 642 643 637
          638 644 645 639 640 646
          647 641 642 648 647 641
          642 648 649 643 644 650
          651 415 27 633 652 417
          31 635 652 417 31 635
          653 419 35 637 654 651
          633 639 655 652 635 641
          655 652 635 641 656 653
          637 643 657 654 639 645
          658 655 641 647 658 655
          641 647 659 656 643 649
          660 222 415 651 661 224
          417 652 661 224 417 652
          662 226 419 653 663 660
          651 654 664 661 652 655
          664 661 652 655 665 662
          653 656 666 663 654 657
          667 664 655 658 667 664
          655 658 668 665 656 659
          669 219 222 660 670 220
          224 661 670 220 224 661
          671 221 226 662 672 669
          660 663 673 670 661 664
          673 670 661 664 674 671
          662 665 675 672 663 666
          676 673 664 667 676 673
          664 667 677 674 665 668
          750 732 219 669 751 735
          220 670 751 735 220 670
          752 738 221 671 678 750
          669 672 679 751 670 673
          679 751 670 673 680 752
          671 674 681 678 672 675
          682 679 673 676 682 679
          673 676 683 680 674 677
          684 753 750 678 685 754
          751 679 685 754 751 679
          686 755 752 680 687 684
          678 681 688 685 679 682
          688 685 679 682 689 686
          680 683 690 756 753 684
          691 757 754 685 691 757
          754 685 692 758 755 686
          693 690 684 687 694 691
          685 688 694 691 685 688
          695 692 686 689 696 759
          756 690 697 760 757 691
          697 760 757 691 698 761
          758 692 699 696 690 693
          700 697 691 694 700 697
          691 694 701 698 692 695
          702 762 759 696 703 763
          760 697 703 763 760 697
          704 764 761 698 705 702
          696 699 706 703 697 700
          706 703 697 700 707 704
          698 701 708 645 646 709
          710 647 648 711 710 647
          648 711 712 649 650 713
          765 708 709 766 767 710
          711 768 767 710 711 768
          769 712 713 770 714 657
          645 708 715 658 647 710
          715 658 647 710 716 659
          649 712 771 714 708 765
          772 715 710 767 772 715
          710 767 773 716 712 769
          717 666 657 714 718 667
          658 715 718 667 658 715
          719 668 659 716 774 717
          714 771 775 718 715 772
          775 718 715 772 776 719
          716 773 720 675 666 717
          721 676 667 718 721 676
          667 718 722 677 668 719
          777 720 717 774 778 721
          718 775 778 721 718 775
          779 722 719 776 723 681
          675 720 724 682 676 721
          724 682 676 721 725 683
          677 722 780 723 720 777
          781 724 721 778 781 724
          721 778 782 725 722 779
          783 687 681 723 784 688
          682 724 784 688 682 724
          785 689 683 725 786 783
          723 780 787 784 724 781
          787 784 724 781 788 785
          725 782 789 693 687 783
          790 694 688 784 790 694
          688 784 791 695 689 785
          792 699 693 789 793 700
          694 790 793 700 694 790
          794 701 695 791 795 705
          699 792 796 706 700 793
          796 706 700 793 797 707
          701 794
        </DataArray>
        <DataArray type="Int64" Name="offsets" format="ascii" RangeMin="8" RangeMax="3632">
          8 16 24 32 40 48
          56 64 72 80 88 96
          104 112 120 128 136 144
          152 160 168 176 184 192
          200 208 216 224 232 240
          248 256 264 272 280 288
          296 304 312 320 328 336
          344 352 360 368 376 384
          392 400 408 416 424 432
          440 448 456 464 472 480
          488 496 504 512 520 528
          536 544 552 560 568 576
          584 592 600 608 616 624
          632 640 648 656 664 672
          680 688 696 704 712 720
          728 736 744 752 760 768
          776 784 792 800 808 816
          824 832 840 848 856 864
          872 880 888 896 904 912
          920 928 936 944 952 960
          968 976 984 992 1000 1008
          1016 1024 1032 1040 1048 1056
          1064 1072 1080 1088 1096 1104
          1112 1120 1128 1136 1144 1152
          1160 1168 1176 1184 1192 1200
          1208 1216 1224 1232 1240 1248
          1256 1264 1272 1280 1288 1296
          1304 1312 1320 1328 1336 1344
          1352 1360 1368 1376 1384 1392
          1400 1408 1416 1424 1432 1440
          1448 1456 1464 1472 1480 1488
          1496 1504 1512 1520 1528 1536
          1544 1552 1560 1568 1576 1584
          1592 1600 1608 1616 1624 1632
          1640 1648 1656 1664 1672 1680
          1688 1696 1704 1712 1720 1728
          1736 1744 1752 1760 1768 1776
          1784 1792 1800 1808 1816 1824
          1832 1840 1848 1856 1864 1872
          1880 1888 1896 1904 1912 1920
          1928 1936 1944 1952 1960 1968
          1976 1984 1992 2000 2008 2016
          2024 2032 2040 2048 2056 2064
          2072 2080 2088 2096 2104 2112
          2120 2128 2136 2144 2152 2160
          2168 2176 2184 2192 2200 2208
          2216 2224 2232 2240 2248 2256
          2264 2272 2280 2288 2296 2304
          2312 2320 2328 2336 2344 2352
          2360 2368 2376 2384 2392 2400
          2408 2416 2424 2432 2440 2448
          2456 2464 2472 2480 2488 2496
          2504 2512 2520 2528 2536 2544
          2552 2560 2568 2576 2584 2592
          2600 2608 2616 2624 2632 2640
          2648 2656 2664 2672 2680 2688
          2696 2704 2712 2720 2728 2736
          2744 2752 2760 2768 2776 2784
          2792 2800 2808 2816 2824 2832
          2840 2848 2856 2864 2872 2880
          2888 2896 2904 2912 2920 2928
          2936 2944 2952 2960 2968 2976
          2984 2992 3000 3008 3016 3024
          3032 3040 3048 3056 3064 3072
          3080 3088 3096 3104 3112 3120
          3128 3136 3144 3152 3160 3168
          3176 3184 3192 3200 3208 3216
          3224 3232 3240 3248 3256 3264
          3272 3280 3288 3296 3304 3312
          3320 3328 3336 3344 3352 3360
          3368 3376 3384 3392 3400 3408
          3416 3424 3432 3440 3448 3456
          3464 3472 3480 3488 3496 3504
          3512 3520 3528 3536 3544 3552
          3560 3568 3576 3584 3592 3600
          3608 3616 3624 3632
        </DataArray>
        <DataArray type="UInt8" Name="types" format="ascii" RangeMin="12" RangeMax="12">
          12 12 12 12 12 12
          12 12 12 12 12 12
          12 12 12 12 12 12
          12 12 12 12 12 12
          12 12 12 12 12 12
          12 12 12 12 12 12
          12 12 12 12 12 12
          12 12 12 12 12 12
          12 12 12 12 12 12
          12 12 12 12 12 12
          12 12 12 12 12 12
          12 12 12 12 12 12
          12 12 12 12 12 12
          12 12 12 12 12 12
          12 12 12 12 12 12
          12 12 12 12 12 12
          12 12 12 12 12 12
          12 12 12 12 12 12
          12 12 12 12 12 12
          12 12 12 12 12 12
          12 12 12 12 12 12
          12 12 12 12 12 12
          12 12 12 12 12 12
          12 12 12 12 12 12
          12 12 12 12 12 12
          12 12 12 12 12 12
          12 12 12 12 12 12
          12 12 12 12 12 12
          12 12 12 12 12 12
          12 12 12 12 12 12
          12 12 12 12 12 12
          12 12 12 12 12 12
          12 12 12 12 12 12
          12 12 12 12 12 12
          12 12 12 12 12 12
          12 12 12 12 12 12
          12 12 12 12 12 12
          12 12 12 12 12 12
          12 12 12 12 12 12
          12 12 12 12 12 12
          12 12 12 12 12 12
          12 12 12 12 12 12
          12 12 12 12 12 12
          12 12 12 12 12 12
          12 12 12 12 12 12
          12 12 12 12 12 12
          12 12 12 12 12 12
          12 12 12 12 12 12
          12 12 12 12 12 12
          12 12 12 12 12 12
          12 12 12 12 12 12
          12 12 12 12 12 12
          12 12 12 12 12 12
          12 12 12 12 12 12
          12 12 12 12 12 12
          12 12 12 12 12 12
          12 12 12 12 12 12
          12 12 12 12 12 12
          12 12 12 12 12 12
          12 12 12 12 12 12
          12 12 12 12 12 12
          12 12 12 12 12 12
          12 12 12 12 12 12
          12 12 12 12 12 12
          12 12 12 12 12 12
          12 12 12 12 12 12
          12 12 12 12 12 12
          12 12 12 12 12 12
          12 12 12 12 12 12
          12 12 12 12 12 12
          12 12 12 12 12 12
          12 12 12 12 12 12
          12 12 12 12 12 12
          12 12 12 12 12 12
          12 12 12 12 12 12
          12 12 12 12
        </DataArray>
      </Cells>
    </Piece>
  </UnstructuredGrid>
</VTKFile>
