<?xml version="1.0"?>
<VTKFile type="UnstructuredGrid" version="0.1" byte_order="LittleEndian" header_type="UInt32" compressor="vtkZLibDataCompressor">
  <UnstructuredGrid>
    <Piece NumberOfPoints="795" NumberOfCells="454">
      <PointData>
        <DataArray type="Int32" Name="libmesh_node_id" format="ascii" RangeMin="2220" RangeMax="4979">
          2220 2221 2222 2223 2224 2225
          2226 2227 2228 2229 2230 2231
          2388 2389 2390 2391 2392 2393
          2394 2395 2396 2397 2398 2399
          2402 2405 2408 2409 2410 2411
          2463 2464 2465 2466 2467 2468
          2469 2470 2471 2472 2473 2474
          2475 2476 2477 2478 2479 2480
          2499 2500 2501 2502 2503 2504
          2505 2506 2507 2508 2509 2510
          2511 2512 2513 2514 2515 2516
          2517 2518 2519 2520 2521 2522
          2613 2614 2616 2617 2618 2620
          2621 2622 2624 2652 2653 2654
          2655 2656 2657 2658 2659 2660
          2661 2662 2663 2697 2701 2705
          2721 2722 2723 2724 2725 2726
          2736 2737 2738 2739 2740 2741
          2742 2743 2744 2745 2746 2747
          2748 2749 2750 2751 2752 2753
          2754 2755 2756 2757 2758 2759
          2760 2761 2762 2763 2764 2765
          2778 2779 2780 2781 2782 2783
          2784 2785 2786 2862 2863 2864
          2865 2866 2867 2868 2869 2870
          2871 2872 2873 2922 2923 2924
          2925 2926 2927 2940 2941 2942
          2943 2944 2945 2946 2947 2948
          2958 2959 2960 2961 2962 2963
          2964 2965 2966 2967 2968 2969
          2992 2993 2996 2997 3000 3001
          3018 3019 3020 3021 3022 3023
          3036 3039 3040 3043 3044 3047
          3060 3061 3062 3063 3064 3065
          3066 3067 3068 3069 3070 3071
          3072 3073 3074 3075 3076 3077
          3180 3181 3182 3183 3184 3185
          3204 3205 3206 3207 3208 3209
          3240 3242 3244 3258 3260 3262
          3273 3274 3275 3276 3277 3278
          3279 3280 3281 3282 3283 3284
          3285 3286 3287 3288 3289 3290
          3291 3292 3293 3294 3295 3296
          3297 3298 3299 3348 3349 3350
          3351 3352 3353 3354 3355 3356
          3357 3358 3359 3360 3361 3362
          3363 3364 3365 3369 3370 3371
          3372 3373 3374 3399 3400 3401
          3402 3403 3404 3405 3406 3407
          3408 3409 3410 3411 3412 3413
          3414 3415 3416 3417 3418 3419
          3420 3421 3422 3462 3463 3464
          3486 3487 3488 3489 3490 3491
          3507 3508 3509 3510 3511 3512
          3527 3530 3533 3534 3535 3536
          3555 3556 3557 3558 3559 3560
          3561 3562 3563 3579 3580 3581
          3594 3595 3596 3597 3598 3599
          3603 3604 3605 3606 3607 3608
          3621 3622 3623 3624 3625 3626
          3627 3628 3629 3642 3643 3644
          3645 3646 3647 3648 3649 3650
          3651 3652 3653 3669 3670 3671
          3672 3673 3674 3675 3676 3677
          3678 3679 3680 3681 3682 3683
          3750 3751 3752 3753 3754 3755
          3756 3757 3758 3759 3760 3761
          3780 3781 3782 3783 3784 3785
          3909 3910 3911 3912 3913 3914
          3915 3916 3917 3918 3919 3920
          3951 3952 3953 3966 3967 3968
          3975 3976 3977 3978 3979 3980
          3981 3982 3983 3984 3985 3986
          3987 3988 3989 3990 3991 3992
          4008 4009 4010 4011 4012 4013
          4014 4015 4016 4017 4018 4019
          4020 4021 4022 4023 4024 4025
          4026 4027 4028 4029 4030 4031
          4041 4042 4043 4044 4045 4046
          4047 4048 4049 4050 4051 4052
          4068 4069 4070 4080 4081 4082
          4092 4093 4094 4095 4096 4097
          4098 4099 4100 4101 4102 4103
          4122 4123 4124 4125 4126 4127
          4146 4147 4148 4149 4150 4151
          4152 4153 4154 4155 4156 4157
          4158 4159 4160 4173 4174 4175
          4176 4177 4178 4179 4180 4181
          4182 4183 4184 4188 4189 4190
          4194 4195 4196 4197 4198 4199
          4200 4201 4202 4203 4204 4205
          4218 4219 4220 4221 4222 4223
          4230 4231 4232 4266 4267 4268
          4281 4282 4283 4299 4300 4301
          4305 4306 4307 4308 4309 4310
          4311 4312 4313 4335 4336 4337
          4341 4342 4343 4395 4396 4397
          4455 4456 4457 4473 4474 4475
          4476 4477 4478 4515 4516 4517
          4578 4579 4580 4581 4582 4583
          4614 4615 4616 4704 4705 4706
          4707 4708 4709 4710 4711 4712
          4713 4714 4715 4737 4738 4739
          4740 4741 4742 4821 4822 4823
          4842 4843 4844 4845 4846 4847
          4854 4855 4856 4857 4858 4859
          4860 4861 4862 4863 4864 4865
          4866 4867 4868 4875 4876 4877
          4878 4879 4880 4908 4909 4910
          4914 4915 4916 4932 4933 4934
          4941 4942 4943 4977 4978 4979
          2400 2401 2403 2404 2406 2407
          2615 2619 2623 2698 2699 2700
          2702 2703 2704 2706 2707 2708
          2991 2994 2995 2998 2999 3002
          2331 2330 2335 2334 2339 2338
          3241 3243 3245 3259 3186 3188
          3261 3189 3191 3263 3192 3194
          3448 3450 3452 3525 3526 3528
          3529 3531 3532 3537 3538 3539
          3540 3541 3542 3654 3657 3660
          2328 2332 2336 3852 3853 3854
          3993 3994 3995 4338 4339 4340
          3513 3514 3515 4458 4321 4459
          4324 4460 4327 4584 4585 4586
          4587 4588 4589 4791 4792 4793
          4794 4795 4796 4797 4798 4799
          4431 4432 4433 3495 3187 3499
          3190 3503 3193 3954 3957 3958
          3961 3962 3965 4899 4900 4901
          4968 4969 4970 4911 4912 4913
          3498 3502 3506 4902 4903 4904
          4434 4436 4438
        </DataArray>
        <DataArray type="Float64" Name="resid_x" format="ascii" RangeMin="-1.9523145232671442" RangeMax="1.308713882469541">
          0.004345320960880805 -0.0045403713971596815 0.002126986699205524 0.006649024097647782 0.0070970133585879225 -0.005294841650575144
          -0.006982498628461009 0.0006785472650499003 -0.005289578782002202 -0.002227078363742585 -0.017356525703907444 -0.0071999312204180654
          0.0017382717171807727 -0.004061531986199185 -0.003430885647225601 -0.001987915447534405 0.000581833839945034 -0.015242652272284829
          -0.009903097142821338 -0.012618812507865229 -0.02261624960589881 -0.025100301752913445 -0.02169897048403069 -0.027161057281436918
          -0.02291355826933028 -0.03389615214217656 -0.026584665765728488 -0.024427629456213573 -0.030740880051986608 -0.023742970331966262
          -0.004806111829512516 -0.010576105412202275 0.00840873758555205 -0.00895989858647156 -0.010808203860184773 -0.021989846050861406
          -0.010303434267676659 -0.007656585469052235 -0.0008392051981331861 0.011441724824014399 -0.006924233894684884 -0.0081963238108691
          -0.027874110723215217 0.016202116840896563 -0.006194464406449551 -0.02329867084469761 -0.04001415095831007 -0.012875620388625109
          -0.0013881899398677788 0.0003338681317757164 0.0013639903528108732 0.0025616696034806985 -0.007358670159086422 -0.003346445686662314
          -0.010965752193588862 -0.006090274560306863 -0.02421380561983888 -0.020308864814198024 -0.02139887586966882 -0.02010301906496359
          -0.00015554503917147855 -0.0004387341349803009 0.0021588056366388386 0.002645979765670603 -0.004229679363815908 -0.009710878925472954
          -0.0013873186361346157 -0.007206873916021372 -0.021001680565065683 -0.027523934280528017 -0.02363107860167979 -0.026442803172913365
          0.012762976934702408 0.01811563036177599 -0.008744762792260552 0.0018792993463963015 0.010322527987728591 0.044659478191583446
          -0.03352147074382028 -0.012229146303274874 -0.009161131171841141 -0.0013975269193142736 -0.00039897172670677605 0.0007846602898416433
          0.003249203347145624 -0.003974054848421282 -0.005836490081877699 -0.0013145013446227427 -0.003787962120623156 -0.02217987646058628
          -0.01674046198989032 -0.02622954461667204 -0.02728531419903124 -0.020446710220705988 -0.03053415639985113 -0.025064265229290505
          -0.004107345123428807 -0.017373570936678462 -0.013257193189539551 -0.031270172284626696 -0.01145512394663828 -0.012643532793470413
          -0.002511719892644315 -0.0067439337890808915 -0.0008938468485819584 -0.0009075512009024678 -0.0024918433932965556 0.00022704673214857252
          -0.010261776332829875 -0.011657004259795656 -0.011244413526562802 -0.003295731189643103 0.005336666181324112 0.00005265962593981044
          0.0015937350224946578 -0.0057946168837238465 0.0039222261944260595 -0.00837157834334512 -0.007006832875330993 -0.012906659170017543
          -0.01696941440556987 -0.0271948998027014 -0.027084322364493763 -0.004507078199267767 -0.011356557494280661 -0.0020951194286551456
          -0.00600484650610511 -0.00772957298156296 -0.008340052287418409 -0.01849028511897277 -0.014097704290080504 -0.021841780935961452
          -0.014074107198192465 -0.013586560198756814 -0.006208517762248178 -0.009550582059155488 -0.007166302861136842 -0.0028626465889747266
          -0.010200889346133835 -0.01189776784887231 -0.021278850983112108 -0.017201843187103272 -0.003525578756472303 -0.0013145205709649277
          -0.0183186488689695 -0.008654559232184056 -0.0036714428973074753 -0.007637814882166638 -0.018487376010328793 -0.03016141394701144
          -0.016816063802207015 -0.02114372704498521 -0.04048145870367037 0.0019213694641306844 -0.0036818877611359824 0.0013757572526538198
          -0.009711107007208675 -0.0234472893856843 -0.02798139565869384 -0.010858712383520874 -0.0005048738040072109 0.008446430151460405
          -0.01766221551850755 -0.054209625322303445 0.005243219046263015 -0.02351406992370908 -0.0864089336224616 -0.04016188208946936
          0.018533154926132056 0.012249022912144802 0.008050936237474104 0.02270543391288271 0.008261412995611117 0.009557944973187738
          -0.002793489488840173 -0.01832011701953462 -0.032854640211597896 -0.012029561349833351 -0.029286279040703356 -0.05689858430802275
          -0.09603094317364658 -0.08785347770877383 -0.2688933191556684 -0.14611328714165506 -0.0942806929904405 0.019019323098655505
          -0.00772893532211949 -0.001582563913141044 -0.020908982265839704 -0.006457339471694468 -0.011399801533904075 -0.00880777408668898
          -0.017582084039934998 -0.014820146821915792 -0.02276097360112317 -0.01976833122690813 -0.0171700984479628 -0.015993577170654305
          -1.1029866249998053 -0.13168980922508577 -0.11689563387645929 0.7921046703178951 -1.9523145232671442 -0.15611242797510005
          -0.12321182739230174 1.308713882469541 -0.7693734949198765 -0.01576857376119989 -0.06320456904831673 0.34262690770086524
          -0.011094076876305259 -0.04728036319157525 -0.028152491110207123 -0.11738776203031076 -0.06852088050686866 -0.10945160723459502
          -0.0104400149480392 -0.010463724992924917 -0.005530092030451184 -0.016110254369188226 -0.01882507010240575 -0.02242610814404422
          -0.010180228973195149 -0.0101108630304525 0.0006688372528906861 -0.018436658971021203 -0.01624464121083946 -0.022820133269278564
          -0.046776170453291854 -0.05517667576270924 -0.011588218281996632 -0.09161625816175967 -0.343899384172631 -0.24809411882080834
          -0.1232150591321517 0.148558894309466 -0.09573257831892779 0.049723125084890185 -0.08414451867953154 0.08498749505926817
          -0.09777566068399501 0.04592325664900798 -0.004603563033399816 -0.021625683003068552 -0.049502903966144096 -0.0294239271507033
          -0.012395488577483738 -0.0054722659426706954 -0.01675806641089883 -0.009658487198992427 0.001354405716718965 -0.002325010864236976
          -0.01361663483049369 -0.017074409551451453 -0.019252545546609934 -0.011106817396229873 -0.006799536306439258 -0.0063572669138775295
          0.000390856638367687 -0.012696757861607844 -0.016713311968069355 0.0003544264577870493 0.02961136644317186 -0.009155625556183544
          -0.0004712587188082651 0.001110178180383059 -0.008323872533792631 -0.011644023859429531 -0.0028460913613335137 0.00013512957508510226
          -0.014706494770615919 -0.012857900710884884 -0.014928232441076439 -0.017136999654502105 -0.028098386376000484 -0.026902714142270412
          -0.009241100289837156 0.06927727271618789 0.02782727240212246 -0.08160642466717594 0.016395823230598516 -0.02540448787435956
          0.012206739853810156 0.002819054398307763 0.029731275604303775 0.004209547522378898 0.014662694716071734 -0.004996596475067783
          0.043570108638390614 -0.010837170566811771 0.019409956116154703 0.03436601750974333 -0.04586060992316998 0.04821110709111487
          -0.03725252146416658 0.0055796704665453944 -0.03609975520786435 -0.014224318080627185 -0.01253929500622375 -0.0026814989811665413
          0.0011680348216653869 -0.016486822415726188 -0.015295868060938744 -0.01549167884353242 -0.009979682115139887 -0.008848651541435437
          0.012814817524218647 -0.007886784300786154 -0.0038055721958114574 -0.017655986223204634 -0.008615250643716932 -0.023189580625733175
          -0.02689136397102132 0.3790525151793742 -0.021406323353373224 0.7923132189310015 0.002176028368300109 0.2303896251016868
          -0.01336101045905902 -0.01939481215373684 -0.00009774468919393486 -0.00975763862431922 -0.008040895333349285 -0.005288129036848943
          -0.010530748577858962 -0.01748265010881367 -0.021598241682121877 -0.006756946362997063 0.018875028252157477 -0.018353152446203502
          -0.018092170125469043 -0.009855073644223111 -0.004615568758009392 -0.004141833896030178 -0.01066146628698239 -0.0020204691342495806
          -0.010737575766174068 0.0005415123019245627 -0.01925692034846893 0.04089065329879826 0.07617994880703449 0.017223934421897624
          -0.03457244051179842 -0.051874066999211266 0.013261645809183875 -0.01084236945627648 -0.013320611603262478 0.006724554931517801
          -0.019040974160020152 -0.0085217206548025 -0.0009170468880319582 -0.0016657078785220492 -0.016260723399753374 -0.01926534425909132
          -0.01549330710537511 -0.018486500599661504 -0.01641720012709591 -0.0037957806727355603 -0.009898880325139636 -0.007578891972319646
          -0.008761811663773322 -0.010489229758334773 -0.0018465628880983687 -0.0043977616102788275 0.00011113540591978222 -0.0015152264548747851
          -0.00973345497051259 -0.0014871885465153056 -0.0018851316274002272 0.0012089348121184784 -0.014275157461655752 -0.020324921420137088
          -0.01303702317736466 -0.014400039764587369 -0.029983973205738756 0.0011690332781855162 0.0026390619508109836 -0.0026869472998223287
          0.003551638623006781 -0.0018943267920565887 0.0055032915612738265 -0.0142137503544717 -0.0018204910281527376 -0.02574639276027124
          -0.02834515604093113 -0.028998626166683472 -0.0270050186828259 -0.027615165460490587 -0.0033860745700335926 -0.021018431925149628
          -0.006567820011170733 -0.008205443429455173 0.0013699632648154214 -0.005433545799643724 -0.02018864601809467 -0.0231773365692316
          0.004216029740026883 -0.012266268348939846 -0.014707196927153277 -0.03447683090923537 -0.028160874138333014 -0.013703146957813495
          -0.004517283477774914 -0.01041333286986218 0.0013234748529509233 -0.004402864355333352 -0.02241023151735755 -0.028142498572127028
          -0.013044257219608113 -0.023511510344679465 -0.0029986265897292697 -0.011810093533666688 -0.025118749569426058 -0.027558922349189885
          -0.010409088569479863 -0.007456374455952375 -0.003409282206691344 -0.002554497862021776 -0.024379965335436182 -0.019944119483573886
          -0.03521444417366659 -0.012179479049087227 -0.026622461710885226 -0.026731672961815445 0.0024093558274596028 -0.022972188817596884
          -0.002219328937202114 -0.011642844153430865 -0.013825263087249962 -0.008642292536070073 0.0006723903851417745 -0.012587406384071187
          -0.012145799185273809 -0.0033790719908335376 -0.021658507948584038 -0.015524007962373076 -0.025169882919820807 -0.023740046293402983
          -0.01100774857791853 0.000747834507745182 -0.021922533296621083 -0.004660140072111574 -0.02479921556805964 -0.0193676409713488
          -0.02590908889388377 -0.01204614117229319 0.0007253181528534824 -0.01778139438373838 -0.05411280798136886 -0.026630026407975294
          0.0006943309787770247 -0.03687506435106336 -0.03254514631247396 -0.023910691050035737 -0.00962141370816294 -0.02443449613816462
          -0.023861005621483855 -0.017086072218531534 -0.018913572727484507 -0.02697907485527118 -0.027932024274253564 -0.023844571167215278
          -0.022948069327213716 -0.017846509420339274 -0.017752956473167103 -0.02511223126649531 -0.009895338127288156 -0.035295769633975294
          -0.03844934589864746 -0.030695553291206212 -0.011845737291151792 -0.004986772736792822 -0.005897044062503021 0.008511473630786415
          -0.026352255104455047 -0.02077922580037672 -0.0018542904421900985 -0.009071806710863939 -0.02961202644139238 -0.022182559079944042
          -0.020785102271404732 -0.003852171502655821 -0.026176237555544546 -0.03518101512354299 -0.0015656974697240145 -0.01635846516473549
          -0.01465305994711219 -0.0085694777031744 -0.0030980372283209157 -0.0064894409483793325 -0.01524853151029859 -0.009530374833010669
          -0.026292920819932064 -0.028632451295877992 -0.013478582848789777 -0.04256827474030178 -0.018498391856187624 -0.02813602598158571
          -0.02531162629678807 -0.021786692090844717 -0.03856710305228983 -0.0364192704154922 -0.027927188893857924 -0.02773410021572964
          -0.01949394690244244 -0.01804169715978876 -0.01251767507632362 -0.029700295518077624 -0.010530980957549119 -0.021530241878634726
          -0.025933783718723014 -0.023767336413074602 -0.019254155580378907 -0.0360512066389056 -0.027818860204857465 -0.023462362545958904
          -0.01627885466994705 -0.0292534677980143 -0.02546941521016688 -0.019491070342969152 -0.011937191624737942 -0.011296849373624518
          -0.007012978883610632 -0.01935622627406186 -0.01650798027355105 -0.027529669815424818 -0.015653177320907652 -0.0068065948205227045
          -0.013385734497371793 -0.017847796938050386 -0.012213731980278197 -0.019738228540115976 -0.02107868522045564 -0.02233241249664708
          -0.01322502600721398 0.23435521178729157 0.10627020714298929 0.007184782926217714 -0.004822968592698373 0.3414435658169941
          0.15624414692048472 -0.0043343016312169524 0.0145758719840825 0.06182457060813906 0.027955829096868 0.01426101231446708
          -0.0687098109441111 -0.2043679634697737 -0.08294577518389268 -0.2584477589381615 -0.01107374861286381 -0.044525789970434104
          -0.006316342535058972 0.001135866059313706 -0.004206467814794834 -0.007542068784621492 -0.004283250033940256 -0.009872212607392683
          -0.011059069994794335 0.003283985861997074 -0.01985214917570932 -0.02017160698999021 -0.016955467534474522 -0.02468578917458064
          -0.023859861126106274 -0.007806329390848354 -0.01994097448767418 -0.012515649896405634 -0.014332962162312057 0.0005516918507710855
          -0.00547689847118038 -0.013476113470352935 -0.013592541931155111 -0.018640512230491346 -0.0028044729307437066 -0.01305533191223951
          0.11748513643415848 0.11148193894524194 0.031118756206518938 -0.026651856112644978 -0.03405231959124322 -0.02733784810157225
          -0.03907412889492079 -0.00019267033418302049 -0.0013564723557717429 -0.02598889947256744 -0.022660958504637563 -0.0304948991509999
          -0.024098866390091622 -0.025563389160192074 -0.022392270934074254 -0.05699407488720576 -0.01864396356786102 0.0007325211243633944
          -0.012375765690461726 -0.0007651199496061523 -0.012931851563039665 -0.020803961338608623 -0.007508123318573645 -0.009191353300825433
          -0.01403789075064843 0.002283361759097602 -0.009422395531140992 0.03233880687721591 0.115635453910091 0.013287720043048346
          -0.021258686962649875 -0.052616378624894544 -0.08504443750493884 0.0018135584159262308 -0.008310299167191282 0.15214245665446757
          0.046568757885027345 0.1231549651854218 0.045908259586769695 -0.01066950845055148 -0.0018424777109835588 -0.002263781940682108
          0.001798269534281971 -0.01052447541877699 -0.0034680758131901968 0.006781033632925038 0.0042811143191103795 0.008080209917908476
          -0.0299846068024765 -0.03824340829458972 -0.02476489778067137 -0.020470406167969912 -0.03400871862629895 -0.024868465105022608
          -0.0849064671949753 -0.028322698111642453 -0.09580554262308016 0.08045560328323731 0.01213746271233962 0.12237767310159331
          0.005305491698841536 -0.005922622775301534 0.014044471733146047 0.013240951158740799 -0.005206454480451761 0.028345138254820768
          0.003966823882580961 -0.004009170559463371 0.01159565538259777 0.012719012236015459 -0.005011764163755927 0.022128966165565256
          -0.02718672649398446 0.009942167183046635 -0.002607315470210203 0.06530980199724246 0.10432442474230941 0.014615495118095012
          -0.012697602300351996 -0.004455025856894945 -0.0066231629298894035 -0.0024665740277516335 0.007974491655302174 0.002486784919937257
          -0.024071692845556658 -0.024020253288253635 -0.015765472760396637 -0.011963795510628206 0.0010325023567605562 -0.006867228646861623
          -0.020384996154308332 -0.003268342902327248 -0.027908520972594886 -0.004546278408860793 -0.025616493703128462 -0.013067806689143424
          -0.037321152553069226 0.042058834706850234 -0.006571351511290402 -0.007049159484481038 -0.009528991427518285 -0.003892712940150922
          -0.015034652071435062 -0.005618222546306839 -0.000049418988672833564 -0.018796463723308676 -0.016709090829267303 -0.009767652982975328
          -0.025844917120597444 -0.0071083605831994134 0.0025573178099982385 0.019357638711781533 0.07183994266596017 0.08225851360264969
          -0.013189716664256945 0.002163634993734176 -0.03818192977483781 -0.00987016053021339 -0.0448941187800993 -0.04530889057247456
          -0.020616233867222 -0.004175943170709573 0.004718193030772255 0.14472921519640014 0.08473065950626957 -0.18157640234664196
          0.29538276124767293 0.06153159317199197 -0.37095599640490384 0.06739077362929446 -0.052534615357444636 -0.2233891665397616
          -0.013166507893421553 -0.16848525948295467 -0.052111049580937596 -0.009286507289861134 -0.0162234663650338 -0.021811364654602983
          -0.025157189618099096 -0.020294249297183597 -0.01887420392718475 0.09345606655308814 -0.061175500661033944 0.02597272529708583
          -0.1411145727005767 -0.10184592594965736 -0.17907266466625948 -0.006480765902454166 -0.01462407431344026 -0.01726727784293125
          0.02376712585227203 0.018052027541198612 -0.029294714135366107 -0.01666074929579775 -0.05382723504774489 -0.010482968594811126
          -0.012593866263801878 -0.01183993040869602 -0.017389950564125733 -0.003498175413186644 -0.004515727892898447 -0.015611751033028476
          -0.057334055142317375 -0.0009418974048109874 -0.035251944753272646 -0.01656231834107391 -0.011525548244614825 -0.03270864877161195
          -0.026151906383798718 -0.027108207534078943 -0.02657663252846376 -0.03484247507955196 -0.0023000927117644565 -0.04207931124184938
          -0.020462076664882645 -0.0757278373138508 -0.022844977052431936 0.008063126882297489 0.011036329981962467 -0.022361438873333306
          0.041715004200258754 0.026504275833042712 0.053292536590101136 0.0028133558777874157 0.023381590449029765 -0.02121798394499308
          -0.008567070197752713 0.000767860168677359 -0.005327252179114339 -0.15505573653618931 -0.06056152472557841 -0.2341816813308526
          -0.06580007604244997 -0.01471521699809486 -0.025143254089520894 -0.01136226608716484 -0.020694386763731476 -0.0256592441030854
          -0.02657746793913418 -0.016092063658387445 -0.012792910782676525 0.06417840053930846 0.12779299858465976 0.07198365317545985
          -0.019054618344944707 -0.027307638992221328 -0.018546921292688978 -0.11904685555794181 -0.008072690557295203 -0.018219362140444062
          -0.0013147340384698225 0.1630046478647884 0.11505731848664702 -0.01868648012629137 -0.02246514005533129 -0.016069894674505036
          -0.010516610338944687 -0.02094063230865828 -0.018387412866704977
        </DataArray>
        <DataArray type="Float64" Name="resid_y" format="ascii" RangeMin="-0.429950564714927" RangeMax="0.6263948219382383">
          0.0016565995602545736 0.0013145841764954647 -0.004768266086887393 0.00034864298455108966 0.006740793226466757 0.007774648508323767
          -0.0018847660197114646 0.006860910861374074 0.019642109505861677 0.014656562700881781 0.0014153253076358008 0.02727149024499447
          -0.000426677560929678 0.0036961327255540244 0.00738633525076382 0.006988365599511437 -0.0008356933819987644 0.008492249319922929
          0.017067645446386448 0.02250003849178317 0.008526506301914094 0.009696978475445706 0.014208707877676918 0.019226659380802313
          0.01304384867346392 0.024751552391181153 0.015457107913803503 0.013551996760887641 0.01744758590661677 0.009690346012516449
          0.005994683401830708 0.014511641731997649 -0.0003703988885888701 0.02006866279250419 -0.010222828471404762 0.016027084528184007
          -0.003819607272936003 0.0028992453640266647 -0.0013196022554566311 -0.004572594581872591 -0.0028969343533664337 0.0071883213188775885
          -0.002409722979941298 -0.0067236245360485225 0.014677202307855047 0.015977755446082265 0.00782147103006886 0.005722350701649462
          -0.00004823455771624241 -0.0005439033001687771 -0.00015737567714239897 -0.0016525996696439837 0.006579353477619801 0.005613586764815548
          0.0064506273658092445 0.002834710165977569 0.01900159948931282 0.015993495757482268 0.013432902785038198 0.014200901345281083
          -0.00028918627807278385 -0.0007396392801986562 -0.0020483491872833604 -0.0018116202677724291 0.0024610358337514016 0.0034596608193965817
          0.0017890137379056315 0.006229559531508888 0.011777112968683834 0.015700897693824323 0.01486944102634502 0.015520015768497347
          0.0218869655474785 0.024080348346382424 0.014239780149662873 0.05033818369815089 0.02862268679357452 0.04675698561558256
          0.02928938884138546 0.01694636494667895 0.004727780301466672 0.0035200487762143545 -0.00046211901478346307 -0.0015077774765229202
          -0.00029568049612371805 0.009048936466042467 0.0012045476183378118 -0.0004228515904983188 0.007708875222117995 0.01710114170656933
          0.009283809055593999 0.017884618934870478 0.02024274903346951 0.01767412080247438 0.03356416619747893 0.022674054639255314
          0.006774047955344892 -0.0026266210587194833 0.0002540904496568519 -0.004521657747865532 0.01098708113701477 0.02022117416691785
          0.0023723581968395427 0.0025074411900931903 0.007590898984614739 0.002514389177803271 0.005483460109464794 0.0023404637119331037
          0.010621695529608 0.013773785999813784 0.011483276208840737 0.0003128148809151479 -0.0010232279242335905 -0.0008494644547162311
          -0.004481574126328602 0.0031804963414784337 0.0045402757879760385 0.0006350110573870721 -0.0022432518719101985 0.01577749349127139
          0.020048675722933937 0.018403206991636015 0.01185345692968378 0.0061625888325657335 0.005489286068039181 0.011260271114844511
          0.007851409487377873 0.008938527221777959 0.008942197111992498 0.013815406543386685 0.013424247703885603 0.012891094845038364
          0.012151459994275741 0.0029065577139423537 0.0028333136365865305 0.011112583505596699 0.002303389378309817 0.0031502073211032294
          0.010414760749237917 0.009706969341166292 0.018125262862206948 0.02694112386835945 0.0039008084781887303 0.0001434141706053993
          0.009664436174515734 0.015810747213828132 -0.0003708531217721314 0.0021964654307234308 0.00980457661748367 0.020565543331644957
          0.007216441522605602 0.013513451677685055 0.022768650918029 0.006722516981250239 0.011206915024855768 0.0033374153719613053
          0.004943288311064442 0.016035199428355497 0.014654361831515667 0.012297382292375314 0.0024365765881431134 -0.011894586169310356
          0.012392680340041262 -0.005093812031311207 -0.028718869524465673 0.006408227422873003 -0.011374289050137376 0.0037878309615304723
          0.025517435658699267 0.008423094872842124 -0.016931625417040436 -0.012642688256111784 0.06104536021318207 0.023737584170105464
          -0.02838319558892711 -0.014254823629822 0.01404894922362776 0.033590889294834086 -0.009788126087961424 0.0033633947281403176
          -0.029994488058126656 -0.07027129208680188 -0.08335864554658824 -0.0947562300733197 -0.07121165322545939 -0.047287750302639986
          0.009583152778631615 0.008344315336356045 0.005746367450523843 0.01651850528163369 0.008909015817265872 0.016068165358767567
          0.008403683181669834 0.004338962616209172 0.0021874601214737985 0.0022340821885912347 0.0026416796677954865 0.004527527290202039
          -0.07368331453496016 0.01452213178745181 0.1614190777148628 0.3042267595808102 -0.032595727836304766 -0.027389805015539063
          0.1367887266593696 0.6263948219382383 0.05398391876643743 -0.04000753703620187 -0.04643709368767443 0.1534051515151783
          0.004973416327057103 -0.019235809328937786 -0.005236751374231352 -0.028712641943748618 0.008154534427819396 0.00478365625380428
          0.013125118478649805 0.0107991563536394 0.008414295603364819 0.007499048149659494 0.015344502994993486 0.01238798488552537
          0.01102138139917512 0.005699755595196823 0.0006924157208419296 -0.0034746409802865405 0.013263254941360464 0.006185754084836324
          -0.0006316634864091258 0.009870098268923364 0.011474306408270976 0.011986496482621734 -0.002811462110740348 -0.012725389906498907
          -0.02778634500835292 0.020565450372574966 0.01986674409423017 0.009401504131372418 -0.03487647714486844 0.03821351345113691
          0.04763091236522049 0.019460970300985925 0.015291369108174475 0.03347613806855697 0.02405991206795166 0.0010425219245784878
          0.012432853174801271 0.010189109395188363 0.008584882419190518 0.008491298275770083 0.00743654348215614 0.002530614311410856
          0.010642134533666787 0.011711826895922426 0.011352744196885506 0.004400095560892561 0.0007631473890812243 0.005730746349719859
          -0.00048172544321713195 0.010655318156881047 0.012670848328497249 0.014521007317259069 0.03908747261042839 0.042667225552861066
          -0.00024861269379516937 -0.0007374364958428123 -0.0016011859432289999 0.0022320376969753863 0.0015957454291855855 0.005243857700146293
          0.0019287509929135777 0.005431311005816203 0.01023696404620511 0.015100711959645796 0.013678875459470524 0.015558564728415825
          0.025141206121131743 0.02022376274138571 0.013905301802873637 -0.0006612781618198782 -0.028808925961682164 -0.04646373788419461
          0.029517397729334094 0.02588741710179729 -0.0008308335257425914 -0.0004019595696340139 -0.006906442593483386 0.0015891104409312545
          -0.017504175718971393 0.008899463679565067 -0.017879539890589602 0.00338011454900064 -0.03609346241226313 -0.02027369286864933
          -0.025715270677767965 0.0027250921928159144 0.025747840452053306 0.006984774103893268 0.0021839974957527652 0.004854864112194837
          0.0018129423187275978 0.014215706972028078 0.014697421467704391 0.007110983485664886 0.0006059610343483223 0.0090255338285546
          -0.0011775923311049402 0.020427806602186925 0.003347787911394857 0.01645369457530206 0.007020133277285227 0.017860161239138146
          0.031018746948471593 -0.1054073823021125 0.02057314026266094 -0.23416261064001948 0.012200663647562476 -0.06417951092400276
          0.011204798527437117 0.009048814387816975 0.009331287552787289 0.004683837149471751 0.019269311300658322 0.008576511051038821
          0.005162467592543515 -0.0035331296333619457 0.00493417731846553 0.01540763116564181 0.008238950742302797 0.007568875857503654
          0.01568889487152937 0.005320758120379725 0.004555237498058237 0.0003883271633782423 0.010845107257664327 0.003762856079282062
          0.015276726621441777 0.005873465839337122 0.012094401513264186 0.042412020898025815 0.04138547482348204 -0.023946600042461408
          0.006797387990703965 0.0012406502787644502 -0.011955578713089138 -0.02265676911293378 0.00643569457742324 -0.0020016755847544615
          0.015858276289339494 0.009601459595683606 0.003654155507932584 0.004913146927134723 0.013772215144071918 0.0175522031141101
          0.00784464459591544 0.010636516766689821 0.01130378645198113 0.005904545329938948 0.001488772785131244 0.0025985085043836176
          0.007635799683151104 0.005894832193511043 0.006207008453949336 0.005305057997810225 0.00034081131184814095 0.010433739582599855
          0.009871267506777831 0.00045067423217606817 -0.0006872492741154951 0.010478160353800697 0.012205950839143082 0.008709574037049111
          0.005685392967772512 0.014270218049768135 0.021887989482672954 -0.0008946168119912945 0.0036453497956218995 -0.00017644557150364032
          -0.001739662112041629 -0.0005307640414443648 0.008350707342563532 0.0028818010815977874 0.0018155393570359474 0.010695492753432068
          0.021974535542818856 0.01299087650619063 0.012463768047765444 0.019949419940416366 0.001968314335411711 0.01186899455258758
          0.013341839434020036 0.010485774143004202 0.005734527727766614 0.005331713153629278 0.016856740142751875 0.014788791290475854
          0.005534102911135666 0.006716054049083708 0.022803449113241447 0.010542249196026213 0.016276828566459595 0.006074600926981269
          0.012644041661924621 0.011852116658771075 0.0029930204382464243 0.0014086883796427252 0.013151416547428907 0.013351736211564269
          0.014728524167019807 0.024824826336247052 0.006101199328867213 0.0070319687023707445 0.01276792645684477 0.010900257426133986
          0.008746608841686293 0.0011439599722044558 0.004240035019117738 0.0031345845898614333 0.013268794917025553 0.008921711641722618
          0.013690520808503531 0.007523230038881529 0.016164072993073188 0.008657669421220121 -0.00530933172667053 0.008185653817138316
          0.010878070239023568 0.00850963319197831 0.009596523892318506 0.0008670348727564114 0.00816817414970647 0.011830212985773164
          0.010289201689543753 -0.0016814887546214852 0.017159729087656672 0.01333842719522324 0.01597920060114738 0.007915354579511896
          0.004482765407120247 0.013890190894347954 -0.0059473418034197215 0.004828913208769756 0.0016970350912192539 0.0076921042489245806
          -0.0027822614109919708 -0.00004126543717754283 0.00011058984840395247 0.0009033696101464622 -0.0035188889137936774 -0.0005225250423164518
          0.00033163443654185554 0.007140116401584726 0.0026864906748984424 0.00283536644333085 0.004816087713440664 0.010090858385310611
          0.01576635584835115 0.013126103740648376 -0.001334587807090587 0.024425090498703228 0.025469737465396936 -0.0045051074112715805
          0.017287702437938396 0.015291034126259762 0.001101828015392714 0.010085058493263244 0.0011128097247203872 0.017481068078881945
          0.01484199399950465 0.02143643796237061 -0.0005115715547107519 0.016960725626681175 0.0053972649504739 0.03078225301544092
          0.017899031731291707 0.0051060070371369 0.0031202860702301146 -4.373401061297244e-7 0.019663385311512956 0.013230637581291352
          0.024301716850524374 0.005907136299421245 0.011974114287778614 0.02273009487061518 0.0071170885872225715 0.011332980336851168
          0.009572878338445556 0.006291299164257802 0.004220790176131639 0.004483348330924092 0.010363031026424774 0.005505471369164988
          0.005155350048893836 0.0034732039150672522 0.00226475213168012 0.0063609986213300496 0.006063727638845412 0.007163509248809763
          0.009877031837299627 0.012082593315661638 0.004913687118300508 0.007602081112467324 0.004851449986898432 0.007028859568074697
          0.009082296744986645 0.006306430197805135 -0.0005208848285846446 0.004973651024532066 0.002806216351364743 0.0019425654165782513
          0.008188235342750927 0.010973489848609325 0.007108355991250953 0.0197356491972889 0.008085136159064421 0.015713158086610363
          0.0018984687577324466 0.02122493113195481 0.012865883963687041 0.012763274466532498 0.007505311327675665 0.008562423681329687
          0.003953603929502933 0.008658746477023832 0.00838152139486957 0.020895125968468778 0.0038177670823795473 0.014652764013142763
          0.0016258850374214762 0.0162988678670489 0.003467258760227049 0.004867232090868652 -0.004066312781675657 0.004394892480166944
          -0.0016227457309025695 0.024162651700312676 0.08095780199068597 -0.002881084912572704 0.004766981236030032 0.0065639549449144075
          0.13532463873029604 -0.01058920379855216 0.002081722906695893 0.0003972501985470833 0.06442091006765288 -0.006348508392221772
          0.029566626536330742 -0.07477841053519048 0.054237078035840075 -0.16880210609154608 0.02651783963579421 -0.08804471717284366
          0.003619675226435734 -0.00001114242178980318 0.001970026897333693 0.00851989827727373 -0.0006345789419426595 0.00390926904111788
          0.01597759375607352 0.0036786733188228643 0.012210256284279769 0.01841013662460117 0.023640938368690467 0.018071599684035655
          0.01902695689692148 0.0007661586547537264 0.009470898833366978 0.012635989653636472 0.016242157679026856 0.003569507157861654
          0.007752397945233136 0.011878769798299146 0.011520312218890355 0.020802208842856183 0.00871607668208936 0.011445330111116401
          -0.18836838595566174 -0.429950564714927 -0.19475264712714402 0.015001249219244978 0.014184854547697412 0.010372960421902305
          0.007455096917153112 0.00647682209766276 0.000391071796668474 0.013515099635278138 0.006115123023200886 0.01828933650681558
          0.0020399276323545545 0.017036611665091683 0.007337951373249663 0.00803480452694863 -0.008404185412646786 0.0019514421808565774
          0.014304187900438192 0.002736065633522078 0.0076244365211338705 0.017751508350650244 0.008748736627928078 0.007480069990633428
          0.017974124537777025 0.010128874319863534 0.008351834900662158 0.006849838043831269 -0.015126250571333155 0.02225921154167837
          -0.034760589010623344 -0.013812657215407725 -0.020503678746681575 -0.014741847309068606 0.0054378893439082365 -0.011639832908968695
          0.02613934852480984 0.008332383691037781 0.010591879813823257 0.011006552645808135 0.0016421598746717697 0.004674562150218317
          -0.0011782511925788886 0.00836264522587972 0.0007681470785760036 0.012816434979666308 0.0036681659028904856 0.0020777255729236
          0.01136956483062232 0.007073754186716519 0.006590104375218758 0.0067491679258671194 0.014025913897920808 0.00887950468873245
          0.05286796767214219 -0.06224061579959181 0.13706123674452253 -0.04477260527138702 0.036462104962997566 -0.03377705317544641
          0.002121881771686887 0.005980636245514384 -0.0032664483194133846 0.0017579919991781712 0.004513666794378188 -0.008336808367131396
          0.0023439939963505046 0.003681029774415645 0.0016593486360263025 0.003975673672646771 0.025249891817765976 0.013836847500256336
          0.020475909317278024 0.0025884164520221797 0.007060208735371026 -0.042004870494187496 -0.045232515204461476 0.008224280032860465
          0.009913307995342291 0.0009557757613192497 0.0046536662971397025 0.004727123502304503 0.00032522431821450926 0.0009480027336668528
          0.0032562828908615643 -0.007279341177835796 -0.0004120218425372052 0.012627114413596416 0.005713033090797862 0.005718459025309167
          0.012093391491111438 0.006919737605705051 0.01453134006891943 0.014064621168817182 0.010010184774192077 0.009149451183446955
          -0.010855026610337326 -0.02672307413793884 0.003970447093648188 -0.0002852099102063632 0.017598311699418556 0.01550255085904756
          0.0017666233776314488 0.012974516091758037 0.016453874478062458 0.010097550184183596 0.012295838939543613 0.011031847189287958
          0.0017780977233179396 -0.026689922749206965 0.015453875736735734 -0.04644977460988958 0.05933178889877733 0.03948981380442834
          0.00935731621565987 0.0003688004972944442 0.022454626241921377 0.006776349620147226 0.021938169987241546 0.011746952568204932
          -0.016849786760222227 -0.017054943666540465 0.0007159903259551653 0.042429401897104674 -0.09136843145420717 0.06003166059693457
          0.0882582565974291 -0.1442931786854324 0.05297146437342664 0.04807989519836092 -0.02148104572962556 -0.019372145063428478
          -0.0015369680643661232 -0.00418144429125622 0.00037037713025271646 0.0019081078806686136 0.011234583621069716 0.006880989876471205
          0.010510677300853172 0.009500585833224467 0.010341921497313653 0.044972740402155154 -0.046420597398327726 0.03561866449708401
          -0.031798360061382924 0.01066053902670605 0.014800184172576489 0.001665952181689176 0.006759136444104724 0.009544466585727607
          0.0026103173161069193 -0.001968984074526503 0.005743060382053633 0.007924885438829271 -0.0011564399141157922 0.011710554539406337
          0.013569035208356256 0.018791750915078065 0.011251097725546444 0.015631665537442663 0.018623190678193152 0.01251149822250941
          0.03739292881442616 0.031366894848037896 -0.016233036129696538 0.019068536258405266 0.003718018179821425 0.03273209321126713
          0.01321521921960922 0.018507044646368598 0.016283620995021286 -0.0036290854806245443 -0.04725943109981167 -0.004875513636235007
          -0.05542425048376024 0.0011863245383509496 -0.03766274389891542 0.02087091296025952 0.05444191349882467 0.012042707807690766
          0.009306633774635503 0.031933051471539436 0.003859562336537725 0.06230647836257875 -0.020556281570504376 0.020286116055360126
          0.0004266579413795338 -0.0013022507764367808 -0.0007882628658978305 0.006238693425873965 0.022994729241370915 0.0014140701940815736
          0.03092700807377513 0.008259909420056971 0.0467759546730733 0.010829349143660544 0.012112997995850427 0.02198993342782346
          0.015137961105088152 0.01404256563814002 0.0058930983348726915 0.07680648011066968 0.16056828373880822 0.09927660928001378
          0.01819507803811643 0.02534107216320111 0.014014951503560254 0.031814635054983054 -0.026207982620634673 -0.03830858136106596
          -0.012322493955960245 0.0667962297165138 -0.005338630104888095 0.010263478018287572 0.002016288886164952 0.003644744959365162
          0.0035805063358068656 0.003181140909487845 0.005852751357075914
        </DataArray>
        <DataArray type="Float64" Name="resid_z" format="ascii" RangeMin="0" RangeMax="0">
          0 0 0 0 0 0
          0 0 0 0 0 0
          0 0 0 0 0 0
          0 0 0 0 0 0
          0 0 0 0 0 0
          0 0 0 0 0 0
          0 0 0 0 0 0
          0 0 0 0 0 0
          0 0 0 0 0 0
          0 0 0 0 0 0
          0 0 0 0 0 0
          0 0 0 0 0 0
          0 0 0 0 0 0
          0 0 0 0 0 0
          0 0 0 0 0 0
          0 0 0 0 0 0
          0 0 0 0 0 0
          0 0 0 0 0 0
          0 0 0 0 0 0
          0 0 0 0 0 0
          0 0 0 0 0 0
          0 0 0 0 0 0
          0 0 0 0 0 0
          0 0 0 0 0 0
          0 0 0 0 0 0
          0 0 0 0 0 0
          0 0 0 0 0 0
          0 0 0 0 0 0
          0 0 0 0 0 0
          0 0 0 0 0 0
          0 0 0 0 0 0
          0 0 0 0 0 0
          0 0 0 0 0 0
          0 0 0 0 0 0
          0 0 0 0 0 0
          0 0 0 0 0 0
          0 0 0 0 0 0
          0 0 0 0 0 0
          0 0 0 0 0 0
          0 0 0 0 0 0
          0 0 0 0 0 0
          0 0 0 0 0 0
          0 0 0 0 0 0
          0 0 0 0 0 0
          0 0 0 0 0 0
          0 0 0 0 0 0
          0 0 0 0 0 0
          0 0 0 0 0 0
          0 0 0 0 0 0
          0 0 0 0 0 0
          0 0 0 0 0 0
          0 0 0 0 0 0
          0 0 0 0 0 0
          0 0 0 0 0 0
          0 0 0 0 0 0
          0 0 0 0 0 0
          0 0 0 0 0 0
          0 0 0 0 0 0
          0 0 0 0 0 0
          0 0 0 0 0 0
          0 0 0 0 0 0
          0 0 0 0 0 0
          0 0 0 0 0 0
          0 0 0 0 0 0
          0 0 0 0 0 0
          0 0 0 0 0 0
          0 0 0 0 0 0
          0 0 0 0 0 0
          0 0 0 0 0 0
          0 0 0 0 0 0
          0 0 0 0 0 0
          0 0 0 0 0 0
          0 0 0 0 0 0
          0 0 0 0 0 0
          0 0 0 0 0 0
          0 0 0 0 0 0
          0 0 0 0 0 0
          0 0 0 0 0 0
          0 0 0 0 0 0
          0 0 0 0 0 0
          0 0 0 0 0 0
          0 0 0 0 0 0
          0 0 0 0 0 0
          0 0 0 0 0 0
          0 0 0 0 0 0
          0 0 0 0 0 0
          0 0 0 0 0 0
          0 0 0 0 0 0
          0 0 0 0 0 0
          0 0 0 0 0 0
          0 0 0 0 0 0
          0 0 0 0 0 0
          0 0 0 0 0 0
          0 0 0 0 0 0
          0 0 0 0 0 0
          0 0 0 0 0 0
          0 0 0 0 0 0
          0 0 0 0 0 0
          0 0 0 0 0 0
          0 0 0 0 0 0
          0 0 0 0 0 0
          0 0 0 0 0 0
          0 0 0 0 0 0
          0 0 0 0 0 0
          0 0 0 0 0 0
          0 0 0 0 0 0
          0 0 0 0 0 0
          0 0 0 0 0 0
          0 0 0 0 0 0
          0 0 0 0 0 0
          0 0 0 0 0 0
          0 0 0 0 0 0
          0 0 0 0 0 0
          0 0 0 0 0 0
          0 0 0 0 0 0
          0 0 0 0 0 0
          0 0 0 0 0 0
          0 0 0 0 0 0
          0 0 0 0 0 0
          0 0 0 0 0 0
          0 0 0 0 0 0
          0 0 0 0 0 0
          0 0 0 0 0 0
          0 0 0 0 0 0
          0 0 0 0 0 0
          0 0 0 0 0 0
          0 0 0 0 0 0
          0 0 0 0 0 0
          0 0 0 0 0 0
          0 0 0 0 0 0
          0 0 0 0 0 0
          0 0 0 0 0 0
          0 0 0
        </DataArray>
        <DataArray type="Float64" Name="stress_zz" format="ascii" RangeMin="-2584784.8958118926" RangeMax="7843289.140857309">
          211227.70601125233 -805311.305711238 103950.40585588008 244777.47318233323 321676.8364094595 -893488.5605914283
          188698.45306783612 372188.931397314 432125.9668076664 -981665.8154716186 273446.50027979224 499600.38961229473
          -1406170.3332901355 -999526.975449798 -1123037.675746876 -463578.5444110529 -1485274.176844733 -1090234.183722842
          -1176521.5702847743 -561141.3822372674 -1564378.0203993306 -1180941.391995886 -1230005.4648226728 -658704.220063482
          -624551.1479616431 -629526.8273362368 -634502.5067108306 -1191802.6715139144 -1120298.2357334704 -1048793.7999530262
          2996188.425988882 1603594.3562722483 2577495.906088536 1461574.372788334 2158803.3861881904 1319554.38930442
          2350370.018402767 1870710.9363349574 1910451.978428275 2683590.2551866006 2316033.7655251278 1848290.8056615922
          1927978.6745443256 2735156.7566331285 2281697.512647488 1825870.674988227 1945505.3706603763 2786723.258079657
          518315.6585045587 337915.5781916333 1608775.2003183092 2625574.2373560853 446656.2380830805 402962.3211161991
          1724795.1469115803 2712726.6269408474 374996.8176616024 468009.0640407648 1840815.0935048512 2799879.0165256094
          -2262921.4619737547 -894765.6218395948 884042.4010336223 657650.5371434044 -2321635.476916168 -989091.9215247927
          829995.8076671162 603460.6447745357 -2380349.4918585806 -1083418.2212099906 775949.2143006104 549270.7524056666
          193588.033621783 -98918.54593042005 -252951.51101588717 133757.18454096155 -184269.6361115456 -150626.43729564006
          73926.33546014011 -269620.7262926711 -48301.363575392985 1635505.6682507277 2484144.84909739 1603114.4946940606
          702443.3041849567 1714657.146457016 2574130.271648806 1661244.0784508311 705160.59234622 1793808.624663304
          2664115.694200222 1719373.6622076011 707877.8805074831 1218161.648591573 1231279.3267733122 1244397.0049550512
          755709.9031771075 3586301.226015998 706718.8826862988 3123340.363425017 657727.8621954902 2660379.500834036
          921685.1069619103 1499387.7557123096 14230.886509424468 902982.1440395915 1531606.3278670544 -8517.54903401545
          884279.1811172733 1563824.9000217991 -31265.98457745521 277340.2725376098 55335.2926796659 1012981.5721028349
          1016040.239693678 306199.2806577602 107533.33198757702 1025424.7238601731 1020809.8750590987 335058.28877791064
          159731.37129548815 1037867.8756175115 1025579.5104245192 1206190.6485102875 3123725.4286673144 254450.0983365088
          1272183.4494655705 3268969.1949022887 139482.8587245834 1338176.2504208535 3414212.961137263 24515.619112658314
          5194565.995381512 3170083.6888360716 3033752.7131141378 5444858.049246016 3222796.0181459635 2966328.527327707
          5695150.103110519 3275508.3474558545 2898904.3415412763 -91182.07599488666 -895311.3134075957 -575862.1766383381
          84070.96472868862 -14117.760130269138 -1084106.2915523085 -656219.4996919554 87462.5149913019 62946.55573434829
          -1272901.2696970212 -736576.822745573 90854.06525391513 498717.8732393668 1209865.439649282 592697.1632000215
          1128634.8078728267 686676.4531606762 1047404.1760963713 958840.6152307731 930228.1097631829 2474906.7760011745
          945508.7543902016 979546.8668852325 2555953.032408032 932176.8935496304 1028865.6240072821 2636999.288814891
          2938489.540554846 1049800.6617011465 2059735.6768051903 2999748.6349442913 3021100.5501615885 1080859.338367903
          2003657.3328483165 3058153.0449203025 3103711.5597683303 1111918.0150346593 1947578.9888914423 3116557.4548963136
          -629173.0174980843 -1357940.7409746733 -777993.2920248336 -1432359.0863617053 -926813.5665515828 -1506777.431748737
          556623.6381330366 -520843.05351453205 582027.0009676596 -423188.35208239453 607430.3638022826 -325533.650650257
          -457652.08875969646 -314427.70301894733 -348658.52182329947 -214790.58099487354 -239664.95488690256 -115153.4589707997
          1023210.9793731095 2323264.579468078 -320800.48398924456 -1550036.4363201007 1000885.7315470269 2072155.165773903
          -641079.0472388564 -1947250.442638599 978560.4837209447 1821045.7520797278 -961357.6104884681 -2344464.448957097
          165187.7491282159 -491004.0778992911 128716.76699721522 -423837.9498337951 92245.78486621454 -356671.8217682991
          1551369.884967538 1647167.1590476143 1524900.1139189643 1612148.7474728809 1498430.342870391 1577130.3358981474
          1311066.1526311697 1130625.3086534531 1271880.4806142743 1083536.317412351 1232694.808597379 1036447.3261712489
          698207.7709655681 579992.5367223786 461777.3024791891 1304000.1396987753 1221258.0650114242 1138515.9903240732
          -146051.3345304553 565482.1702935466 982325.215772936 213213.99447842958 -83016.36892746066 570934.4472593323
          956308.8501014919 240748.3320423282 -19981.403324466024 576386.7242251178 930292.4844300477 268282.6696062269
          2070319.218440721 2234700.6170482207 2539918.070798266 2033362.802232857 2285238.6108040027 2583592.4536226788
          1996406.3860249936 2335776.6045597843 2627266.8364470913 882589.5941439342 846408.1366165685 626822.988992089
          750883.2497263395 371056.38384024386 655358.3628361106 3049251.4424158596 3090816.6025404474 3132381.762665035
          172760.79589358057 -312763.03812380985 -1038658.720395946 157486.56930049666 189486.50987900962 -309096.0387086608
          -869763.4238740727 202435.4373492715 206212.22386443842 -305429.03929351177 -700868.1273521992 247384.30539804633
          -133015.44963025552 -159963.7173954792 -186911.9851607029 1517521.5305526066 1456695.3616209363 1395869.192689266
          -32186.267678030912 -45779.377622176675 -59372.48756632245 -97262.34418771468 -1177203.0636630522 -223862.67471311954
          -1422289.0112496845 -350463.00523852446 -1667374.9588363161 3312925.7213700265 3656212.154633753 3312368.7915974385
          3662675.6025484474 3311811.8618248487 3669139.0504631414 1181790.1455010471 1351343.90559939 1016953.3675102544
          1272367.9987400013 852116.5895194617 1193392.0918806128 765964.6390839356 911255.5102761103 777128.2288556055
          819988.0487540626 788291.8186272752 728720.5872320149 1398233.7330068068 1434509.3874862469 1470785.0419656867
          845707.4142387889 -557087.0598066039 691523.7850938957 -1006433.6199606666 537340.1559490024 -1455780.1801147284
          -387325.70633790386 -445393.1631684862 -400862.56977530767 -641226.2979902965 -414399.43321271153 -837059.4328121068
          724854.9215759546 700119.5800737366 675384.2385715186 173400.76997717068 163737.26112546338 154073.75227375605
          -1096710.1789711867 -1973291.932034797 -1118595.1652301403 -2279038.413923344 -1140480.151489094 -2584784.8958118926
          1330608.1602715137 1356068.2992983388 1381528.4383251634 1551525.8161839 1459281.8545073085 1367037.8928307174
          1379233.3489853747 1004372.8507099338 1376665.0070261639 1032038.5410283207 1374096.6650669533 1059704.2313467078
          1632783.0130623113 -488637.1514189627 1663550.7734023551 -469070.20033477 1694318.533742399 -449503.2492505772
          2757694.096808628 598004.9564246577 -1164259.0718869506 2797249.3018898237 579681.7235686901 -1380034.1786299308
          2836804.5069710193 561358.4907127228 -1595809.2853729115 -979464.4080559602 119703.13595847879 1437707.3774479046
          -660160.1446174975 -959514.7037980398 -61852.40059039433 1252091.7752209292 -654006.3470311918 -939564.9995401194
          -243407.9371392674 1066476.1729939533 -647852.549444886 191199.58323427185 441838.65463114035 865725.8771869396
          575054.436699977 260960.25357501238 399270.08703518996 837206.2954155147 581854.6226600349 330720.92391575314
          356701.5194392397 808686.71364409 588654.8086200929 1770262.78461092 1699184.4282763288 1628106.0719417373
          673344.5165689152 -241691.90592800546 669387.5097294396 -411771.7314925161 665430.5028899641 -581851.557057027
          517041.7527087587 564031.9774609895 520942.1905960239 477415.04819268803 524842.6284832893 390798.1189243865
          1794261.8294500057 682652.8907015309 1671333.050161697 589749.5873609058 1548404.270873388 496846.28402028093
          33292.50473304745 649819.7315524284 127293.0862529131 738140.0407984423 221293.6677727787 826460.3500444563
          -734198.1606089615 -302412.6620917431 -785187.0542111548 -349624.42446393124 -836175.9478133478 -396836.1868361194
          1857679.7709922346 1921347.3453832446 1985014.9197742552 1177259.072036883 1187362.3482763919 1197465.6245159006
          -31195.42702352309 -1533348.50196746 164272.5294612873 453118.5723792746 -25783.263892695868 -1533895.5019563313
          289113.36998633126 516489.32875968475 -20371.10076186862 -1534442.501945203 413954.2105113752 579860.0851400949
          706915.1438882124 1023151.0913472119 703954.8991591042 1083282.7893909153 700994.6544299962 1143414.4874346184
          342170.83383355616 -55302.13506835466 -101034.80850718557 692266.6984570747 305492.48516483064 -39260.45134353732
          -97314.66676685767 657004.4870549757 268814.1364961051 -23218.767618719998 -93594.52502652972 621742.2756528768
          -346083.0973338351 -638691.2558264969 -1084269.852027748 -348215.86024743534 -671098.0788765333 -1185553.5076721495
          -350348.6231610356 -703504.9019265698 -1286837.163316551 -338328.47993859963 -243814.43540995428 -149300.39088130905
          1251639.471194006 129420.80057185376 1188894.5636257373 148381.56020121573 1126149.6560574686 167342.3198305777
          146652.63417042905 648813.65872149 182001.6003893741 704475.2981449653 217350.56660831935 760136.9375684409
          916424.8524310286 880202.6231117002 843980.3937923717 1786267.7331888967 1846454.3197531267 1906640.9063173565
          1771134.8827055716 2830950.0322248987 1802208.0813319404 2646670.2866276414 1833281.279958309 2462390.5410303846
          72701.89971843838 442457.170600636 25551.252629398507 436537.2645546219 -21599.394459641335 430617.35850860784
          1955498.8898562416 2099273.766442514 1916788.1975232223 2081011.802051621 1878077.505190203 2062749.8376607285
          2277392.6750210235 1578644.6543102604 2944083.843157705 2312161.2755116383 1547050.9712374231 2993726.7780172057
          2346929.876002253 1515457.2881645858 3043369.7128767064 566270.5674262276 359283.9547473222 588667.5637116665
          480469.1262164904 611064.5599971053 601654.2976856587 -1496894.224841208 -1281677.46720126 -1686008.6406285607
          -1452276.0161928905 -1875123.0564159134 -1622874.5651845208 2237208.9291471047 3836555.286063509 2099755.5256631305
          3817988.2607921683 1962302.1221791564 3799421.2355208276 346940.1380010037 373711.2448360193 400482.3516710348
          3959034.3474605577 2200984.5406738142 4016815.3061967352 4386949.495803476 3768182.6930770795 1873641.2594388686
          3509092.5418743286 4157433.6102906624 3577331.0386936013 1546297.9782039234 3001369.7775519216 3927917.724777848
          1863847.9445390967 840222.932889335 1590355.4338130942 691492.6333913055 1316862.9230870914 542762.3338932758
          -1808763.0593116703 -1829245.3516366186 -1849727.6439615667 4610223.562847938 4600081.084498002 4589938.606148066
          59897.24151811848 80599.01756956511 101300.79362101175 635295.4083427165 765416.4206139629 895537.4328852091
          426636.73493555613 442792.15638942004 458947.5778432841 -1007418.1241243039 -967023.0953833645 -951879.5975002161
          -1097961.4948072012 -896341.0708761282 -1228899.894231038 -1112450.6966742934 -1176113.5542896593 -1239776.4119050254
          -218061.22235910658 -209861.7682951862 -201662.3142312659 -1369820.598618101 -1489745.7489037975 -1609670.8991894936
          303593.75369474624 363436.59276879445 423279.43184284266 259111.05204725004 1724202.337575117 139019.61893575347
          1624363.4110110425 18928.185824256987 1524524.484446968 867573.0277459538 929580.8468853418 991588.6660247298
          2883203.667104387 2787807.7940824153 2692411.921060443 -1759224.1280477087 -2045002.6363782578 -2330781.144708807
          2298905.7330978326 2552204.532473389 2805503.3318489455 1053069.3458571136 1025556.8671609533 998044.3884647931
          1261178.0921569075 1161430.0890385325 1061682.0859201576 1100182.0587242118 1796413.3924964766 889295.0017954751
          1563120.2987571636 678407.9448667386 1329827.2050178505 1999260.2512515204 4506528.385758661 1956127.197834254
          4583039.608911313 1912994.1444169877 4659550.8320639655 1564350.058344884 1420566.467982005 1276782.8776191259
          971703.448483353 961251.9778586484 950800.5072339438 886596.4759430205 891767.9915779678 896939.5072129151
          -104350.52389120299 -1428414.410364348 -285649.1728511085 -1443996.5873283602 -466947.82181101386 -1459578.7642923726
          2572285.6744523495 1302717.1975278007 1616874.3297802103 2611345.4493859373 1242378.9049360666 1689082.9586007628
          2650405.224319525 1182040.6123443325 1761291.5874213148 1303954.6644909286 1966501.7257824007 1314442.9663347069
          1977820.499257102 1324931.2681784849 1989139.2727318036 -477095.2765058364 -626960.6384249518 -776826.0003440673
          1398818.108985465 1281632.0100380287 1164445.9110905926 3623740.9234429663 3583729.190260225 3543717.4570774836
          454062.71953789855 503711.3558265924 553359.9921152864 -1493663.7181532453 -1477789.1720530065 -1461914.6259527674
          -1299949.0334290317 -396430.93612123013 -1380148.8411784961 -350000.4139857944 -1460348.6489279605 -303569.8918503588
          427599.74552218744 433181.04990099446 438762.35427980154 1557598.6662501488 1689015.662234236 3359941.4578356603
          1527310.5417060936 1621591.911980594 3487201.868677944 1497022.4171620384 1554168.161726952 3614462.279520227
          -2418248.99633582 -1832773.1758624548 -2218365.718884492 -1615664.685034666 -2018482.441433164 -1398556.1942068767
          -76674.28221070195 360273.5656850562 -149039.2288470018 314162.5582250039 -221404.17548330166 268051.55076495156
          -614699.3644467534 -632213.1414118081 -649726.9183768627 872201.2764741804 1159436.7840496744 1335063.4970532453
          801767.8701277383 1036598.0713206347 1289344.9281291128 731334.4637812963 913759.3585915947 1243626.35920498
          640020.3250601969 544077.6334134871 448134.94176677737 -42182.52039346262 368617.92979652167 -139527.17362120445
          362996.5164862068 -236871.8268489463 357375.1031758919 4341.004010140052 668518.2796840469 -162755.17635529008
          435655.8430810379 -329851.3567207202 202793.40647802904 1542447.1803209446 1590214.5379417986 1637981.8955626525
          526625.4560922798 467417.3469183269 408209.23774437385 69286.73518920038 85715.60984472034 102144.48450024036
          666139.1007840915 648293.7346163015 630448.3684485115 701841.7320674304 697822.2173421396 693802.7026168488
          332317.4968925702 138598.48044431076 -55120.53600394871 677971.2856325079 777772.2662130103 766738.7678830505
          780560.4460293681 855506.2501335933 783348.6258457259 7843289.140857309 7456818.965207339 7709113.902775436
          7264992.550529274 7574938.66469356 7073166.135851207 3463719.6387923164 3433422.9009159943 3403126.1630396727
          1744677.575458332 1115684.8851091824 1626613.1590642126 1085129.6785819125 1508548.7426700932 1054574.4720546422
          1013170.3866458851 971539.4430597494 929908.4994736137 123567.39091800962 1846679.6342938698 34341.401206673356
          1809185.8665366443 -54884.58850466297 1771692.098779419 998964.3099801333 890149.1908122334 1100973.593652442
          913413.5520990575 1202982.8773247509 936677.9133858813 -11007.28802109405 141639.9499401365 294287.187901367
          3616345.982096525 3906908.837617345 4197471.693138166 2078482.9676102472 1994448.3714192908 1910413.7752283337
          -1828330.9680826997 -2057621.9200059362 -2286912.8719291724 -70246.009886496 -57471.88905549876 -44697.768224501575
          83634.33104748826 144899.41339856753 206164.4957496468
        </DataArray>
        <DataArray type="Float64" Name="peeq" format="ascii" RangeMin="0.004627495174435646" RangeMax="0.00998509764409419">
          0.007204696519015626 0.00793367643411415 0.0077379578120580945 0.007074134559349715 0.007202173554150979 0.007928407636079729
          0.007734004913715958 0.0070729936749819615 0.0071996505892863326 0.00792313883804531 0.007730052015373821 0.007071852790614207
          0.0059970831217789 0.005459801224820835 0.00556364687388204 0.006177806853793957 0.005996734316529885 0.005458161223016936
          0.005562646859071187 0.006177304442444633 0.005996385511280871 0.005456521221213036 0.005561646844260334 0.006176802031095309
          0.004944304193121033 0.004944291235151799 0.004944278277182565 0.004908611026834611 0.004909079346340345 0.004909547665846076
          0.007351122473995923 0.006725971009338094 0.00734997781094325 0.006728102830549029 0.007348833147890576 0.006730234651759965
          0.009568282712709824 0.009701108625680662 0.009477593880297288 0.009442116155116307 0.009565071461416684 0.009698433914168428
          0.0094749419027555 0.009438873045109545 0.009561860210123544 0.009695759202656194 0.00947228992521371 0.009435629935102783
          0.006843967198893959 0.007291156872770093 0.007557132370276741 0.007146538592332448 0.006841759348015165 0.007288175649066964
          0.0075550869745134065 0.007144925103593449 0.006839551497136372 0.0072851944253638345 0.007553041578750072 0.00714331161485445
          0.005813426788540934 0.006195231914532214 0.005772400422613371 0.005482344827518785 0.005814352800580159 0.006194366572172052
          0.005772469562981006 0.00548327296061581 0.005815278812619384 0.006193501229811889 0.005772538703348642 0.0054842010937128345
          0.009703289187940537 0.009646128786901095 0.00963266644781569 0.00970264384064335 0.0096458389524931 0.009633351977513242
          0.009701998493346164 0.009645549118085107 0.009634037507210794 0.00910320940016101 0.009495405716400963 0.009489388584818213
          0.008958133944825699 0.009101304495617657 0.009492464123172834 0.009485613731126129 0.00895596782977723 0.009099399591074303
          0.009489522529944706 0.009481838877434047 0.008953801714728761 0.008525677768069277 0.008524309153045672 0.00852294053802207
          0.008402700421104387 0.008118698816226701 0.008396689378325438 0.008113189009276236 0.008390678335546489 0.00810767920232577
          0.007014385218593875 0.007552756463368663 0.006705530874538893 0.007011863974924221 0.007548669736712241 0.006704348612615722
          0.007009342731254566 0.007544583010055819 0.006703166350692551 0.009129545624777913 0.008936759484906423 0.00911838920521723
          0.00933822272233981 0.00912576966733656 0.008934750389859861 0.009116991946923994 0.009335806493128599 0.00912199370989521
          0.008932741294813301 0.00911559468863076 0.009333390263917388 0.00810151828563096 0.007720424387170832 0.007944387486431797
          0.008100868393020476 0.007719237827067169 0.007941722558578973 0.00810021850040999 0.007718051266963508 0.007939057630726151
          0.0074057917235619075 0.007255672235068584 0.006624478686501204 0.007404381978545287 0.007253385470691485 0.006623139683311581
          0.007402972233528667 0.007251098706314388 0.0066218006801219585 0.008527926767163596 0.008228588316374354 0.008338441468626247
          0.008759554837848934 0.008526823328815387 0.008225229984024493 0.008335360772284141 0.008757478229321602 0.008525719890467178
          0.008221871651674631 0.008332280075942033 0.008755401620794271 0.009214721505459222 0.008829514072571067 0.009211332320626025
          0.008825640692183907 0.009207943135792828 0.008821767311796746 0.009531796632463613 0.009240641424201912 0.009165908666857236
          0.009530114918138885 0.009241472032749845 0.009165592479493341 0.00952843320381416 0.009242302641297778 0.009165276292129444
          0.00878908630217568 0.008937323374342929 0.009313487184190783 0.009199919942322617 0.00878782362101416 0.008933853984795648
          0.009309813594437659 0.009197763767280832 0.00878656093985264 0.008930384595248368 0.009306140004684538 0.009195607592239046
          0.005223222258649059 0.005637694726863896 0.005224870435845298 0.00563916048809983 0.005226518613041537 0.005640626249335763
          0.006204971496790383 0.00667390019192176 0.006204778688532374 0.0066730888189181145 0.006204585880274363 0.006672277445914472
          0.004674048623704765 0.004793845643472026 0.004675726411756186 0.004795332461119149 0.004677404199807608 0.004796819278766271
          0.006430821516682161 0.005989455869486717 0.006265944092731903 0.006789091655066976 0.006437848100208561 0.00599387078580189
          0.006272064743072602 0.006795633313480746 0.0064448746837349625 0.0059982857021170614 0.0062781853934133006 0.006802174971894516
          0.009773800052738736 0.009639971888155756 0.00977303960922256 0.009640063800377161 0.009772279165706384 0.00964015571259857
          0.00980814156106095 0.009582888010233527 0.009803776163922345 0.009578980192438006 0.009799410766783737 0.009575072374642482
          0.009967275754872395 0.00981207601890309 0.009963249399255972 0.009807223494528427 0.00995922304363955 0.009802370970153764
          0.006196391898670186 0.00619786539791881 0.006199338897167433 0.00897473013548271 0.008975241144351236 0.00897575215321976
          0.009505127161108639 0.00936393677704426 0.009177314242930458 0.009376523120985528 0.009504819581423766 0.009363632019436723
          0.009177530362616454 0.009377058753941287 0.009504512001738893 0.009363327261829188 0.009177746482302448 0.009377594386897043
          0.009539982603203519 0.009487317574232547 0.009634528125408793 0.009536839870301248 0.0094855256620496 0.009632942287902988
          0.00953369713739898 0.009483733749866653 0.009631356450397182 0.009726810301444084 0.009519800880625384 0.00972077930997791
          0.009515519860526346 0.009714748318511738 0.009511238840427311 0.00879375072170382 0.008794910251621713 0.008796069781539604
          0.005037540058179976 0.005292489381431603 0.005516294161017336 0.005230579346600691 0.005038402536373719 0.005293124977352798
          0.005518962035937807 0.005232376934639977 0.005039265014567461 0.005293760573273995 0.0055216299108582795 0.005234174522679262
          0.009598158910629118 0.00959764542458495 0.009597131938540783 0.00895927711255277 0.008960706052615588 0.008962134992678405
          0.009568324944573799 0.009568254622739955 0.009568184300906104 0.006437321370473289 0.005976834537392198 0.006436921756023538
          0.005977069982935509 0.0064365221415737875 0.0059773054284788215 0.008225869721176117 0.008359356571600831 0.008226264894519079
          0.008361333287275535 0.00822666006786204 0.008363310002950241 0.009927646822248521 0.00973867175727126 0.009922649615053679
          0.009735560719938936 0.009917652407858836 0.00973244968260661 0.008858617029418035 0.008717213473396445 0.008853216062091525
          0.008711936565085805 0.008847815094765014 0.008706659656775166 0.009278645179922952 0.009277168326620299 0.009275691473317648
          0.008421691661295519 0.007619954786894099 0.008418225299273278 0.007620286301217391 0.00841475893725104 0.00762061781554068
          0.008758280526059356 0.008460847405167072 0.008753776361465501 0.00845446042661782 0.008749272196871646 0.008448073448068565
          0.009819624376746359 0.009815582371735083 0.009811540366723808 0.009811735424202049 0.009810645133538628 0.009809554842875207
          0.008472940122993938 0.008381364882927655 0.008470205719632794 0.008375613603277068 0.008467471316271652 0.008369862323626482
          0.009894383315500696 0.009892447315769246 0.009890511316037798 0.008677761393086542 0.008678576348260043 0.008679391303433542
          0.00998509764409419 0.00987074272054422 0.009982380251807099 0.009869624484370393 0.00997966285952 0.009868506248196567
          0.009487783173303092 0.00924511697106115 0.009485923392880681 0.009242256876204731 0.009484063612458273 0.009239396781348311
          0.007717685220679715 0.008119051829281292 0.008033348916700803 0.007714799913608784 0.00811687564617712 0.008028204198980388
          0.007711914606537853 0.008114699463072948 0.008023059481259977 0.008626507079926514 0.00834319958046116 0.00864700690030423
          0.00898517600862441 0.008622361922011003 0.008337061322237485 0.00864125397515443 0.008981031627057053 0.008618216764095491
          0.008330923064013807 0.00863550105000463 0.008976887245489694 0.006064866611452292 0.005568045758047972 0.005386327060612949
          0.005771661036288459 0.006067005398320316 0.005568446102477377 0.0053852898527788455 0.005771963593823145 0.006069144185188342
          0.005568846446906782 0.0053842526449447425 0.0057722661513578315 0.009940954658527795 0.009935611755950494 0.009930268853373192
          0.00811167018286286 0.007812989004281266 0.008107830526228245 0.007809142029692805 0.008103990869593628 0.007805295055104345
          0.009667194490723768 0.009558330615643968 0.009666927085659499 0.009557682446846268 0.009666659680595234 0.009557034278048566
          0.0074986808593548344 0.007141083345877008 0.007495780576649097 0.0071407540580450506 0.00749288029394336 0.007140424770213094
          0.0061546830752170776 0.006550205033317474 0.006156725713609825 0.006552095179189004 0.006158768352002571 0.006553985325060535
          0.00574848286540749 0.005444579849000244 0.005747763390921051 0.005443346967659808 0.005747043916434611 0.005442114086319374
          0.009801178943145895 0.009799673022754979 0.009798167102364063 0.009779664217977997 0.009777749962360704 0.00977583570674341
          0.006551965719626044 0.006035053929587394 0.005858348123643343 0.006332820293647788 0.006551004559286787 0.006036068789430824
          0.005860903728109744 0.006334140237936597 0.006550043398947528 0.006037083649274254 0.005863459332576145 0.006335460182225404
          0.009739612965627125 0.009788527918153617 0.009737144921196523 0.0097879730475653 0.00973467687676592 0.009787418176976984
          0.004627495174435646 0.004633447852675508 0.004764201835169703 0.004717976837375066 0.004627598171437018 0.004634120995595421
          0.004764497607918609 0.004718454133877351 0.00462770116843839 0.004634794138515334 0.004764793380667515 0.0047189314303796364
          0.005100702295419566 0.004828344525288304 0.005122966644497757 0.00510020055227854 0.004829133312644248 0.0051221498422422025
          0.005099698809137514 0.004829922100000192 0.005121333039986648 0.006672916287314262 0.0066756445106385285 0.006678372733962795
          0.009392384330201876 0.009098550339755575 0.00938857685528792 0.009094353275971221 0.009384769380373963 0.009090156212186867
          0.008874340869894618 0.00829073122761882 0.008871925508919158 0.00828826037850228 0.0088695101479437 0.008285789529385738
          0.0069009250929869224 0.006900028085934913 0.006899131078882906 0.009945386790435351 0.009943337519982462 0.009941288249529574
          0.00751913717701728 0.008054686593050624 0.007519282889422923 0.008050262929783511 0.007519428601828568 0.0080458392665164
          0.00489297726000089 0.004796976966204041 0.0048927664209488676 0.004797586244843264 0.004892555581896845 0.004798195523482487
          0.005094353546381741 0.005303237939693982 0.005095535843131357 0.005304117818733054 0.005096718139880972 0.005304997697772125
          0.0055462686286772145 0.0060805812307712795 0.0058290453972463276 0.005546657173451574 0.006079830220806321 0.005828380665420895
          0.005547045718225934 0.006079079210841361 0.005827715933595464 0.006559622052528355 0.006988660712728452 0.006558116403150723
          0.006986505132783473 0.00655661075377309 0.006984349552838489 0.005074214843675598 0.00515297990330723 0.005072600278416276
          0.005151316335034928 0.005070985713156954 0.005149652766762626 0.00634762731495806 0.006088063257823203 0.006345827785000258
          0.006086132352550003 0.006344028255042456 0.0060842014472768016 0.005033410279738427 0.0050331657369050795 0.005032921194071731
          0.005855840583144752 0.005626875967359687 0.005545192544858664 0.005725136593036086 0.005853988812506622 0.005626641791580577
          0.0055449114394123915 0.005723149802333822 0.0058521370418684925 0.005626407615801467 0.00554463033396612 0.005721163011631558
          0.005288343208382033 0.005348745086109861 0.005289833157666686 0.005350075719760177 0.005291323106951341 0.005351406353410495
          0.004931897504920725 0.004931609540634023 0.0049313215763473195 0.006197552386171494 0.006196387881359027 0.006195223376546559
          0.007169838374691833 0.007168126788105641 0.007166415201519448 0.0067935312314481005 0.006795949978818327 0.006798368726188553
          0.00772606515435772 0.007724073817521801 0.007722082480685883 0.007411702465167777 0.007681918672748361 0.007409832134902457
          0.007678499683652223 0.007407961804637134 0.007675080694556084 0.007878654512943983 0.007876231138739666 0.007873807764535352
          0.007307021451601847 0.007311747768518066 0.007316474085434285 0.0053223276209334 0.005320733527337794 0.005319139433742187
          0.009713571549205033 0.00971333232050643 0.00971309309180783 0.00846756447230244 0.008315529240752264 0.00846541659427226
          0.008313119058970099 0.008463268716242079 0.00831070887718793 0.009774140729744705 0.009773618460401742 0.009773096191058778
          0.0081485368749376 0.008145562798509785 0.008142588722081966 0.00795977789669776 0.007955829792216821 0.007951881687735881
          0.007478164182220286 0.00748050617355928 0.007482848164898275 0.008361181428802916 0.008362670573867784 0.008364159718932652
          0.007890447955012704 0.007893164137632174 0.007895880320251646 0.0050836246655992495 0.005043225202974226 0.005082995792890541
          0.00504217665023036 0.005082366920181835 0.0050411280974864935 0.006425035140195014 0.0061338794186041705 0.006424007657663104
          0.006133324841708426 0.006422980175131194 0.006132770264812681 0.006127980076728743 0.006126675302413794 0.006125370528098846
          0.004917637327254204 0.004918567109185567 0.004919496891116929 0.00950015128065368 0.00949925470297822 0.009498358125302758
          0.005163481031060532 0.005477816118468143 0.00516398305806312 0.005478979742254618 0.005164485085065708 0.005480143366041094
          0.005873940258709491 0.00602855181430323 0.005828922538496278 0.005874387995115282 0.0060290542307464496 0.005829131239952002
          0.005874835731521072 0.006029556647189669 0.0058293399414077254 0.005782765114305538 0.005887773493726929 0.0057823905300257465
          0.005887317064572339 0.005782015945745955 0.0058868606354177495 0.005811281119472685 0.005811258774357578 0.005811236429242471
          0.006222744731069587 0.006222324450643866 0.006221904170218146 0.005981299103630579 0.005980864352617905 0.005980429601605231
          0.009619561744988105 0.009618269435401084 0.009616977125814061 0.004859631040010165 0.00485950928306076 0.004859387526111356
          0.00497302435938483 0.0056281400859868646 0.004972068106573808 0.005627902555540968 0.004971111853762787 0.005627665025095071
          0.00958212986057541 0.00958285164095404 0.009583573421332672 0.007994955357866144 0.0080754861734651 0.008561743222667128
          0.00799314342117661 0.008073810314228519 0.008560718956543032 0.007991331484487076 0.008072134454991938 0.008559694690418937
          0.004986203988571702 0.005355997698880714 0.004988925887626024 0.0053587827558475385 0.004991647786680347 0.005361567812814362
          0.009574626387807532 0.00948823060194493 0.009574910568886392 0.009488452192604246 0.009575194749965252 0.009488673783263561
          0.005809260825525414 0.005812133968243146 0.005815007110960879 0.009206417625692452 0.009044108136070228 0.0087395431668962
          0.009207568696738869 0.009045574085893616 0.008741206596165781 0.009208719767785286 0.009047040035717005 0.008742870025435362
          0.00957776553688577 0.00957825831788128 0.009578751098876787 0.009537935128490334 0.009637177938990462 0.009533215114042513
          0.00963142743042487 0.009528495099594692 0.009625676921859276 0.009476782507471186 0.00953369301962498 0.009477328046234775
          0.009534503259540545 0.00947787358499836 0.00953531349945611 0.009240542974578804 0.0092378508089622 0.009235158643345594
          0.00944015003441935 0.009440497570582618 0.009440845106745883 0.005618279730909172 0.005621195355722575 0.005624110980535979
          0.006303176679482025 0.006303072868607661 0.006302969057733296 0.006986692140652475 0.006987451515639053 0.006988210890625629
          0.00938566341592725 0.00938720944307811 0.00938875547022897 0.007673287719126009 0.007864533610603285 0.0076740295526173865
          0.007863466209541998 0.007674771386108763 0.007862398808480713 0.0063333486003219145 0.006008611580948016 0.0063345919160694795
          0.006009837961587594 0.006335835231817045 0.00601106434222717 0.00579936940241405 0.0058011668439287584 0.005802964285443467
          0.004793231642456224 0.00481799882658062 0.004794098242235826 0.004819062386262745 0.004794964842015428 0.004820125945944867
          0.009370269734697383 0.0093698979454316 0.009369526156165812 0.00801499073249051 0.00846193945358771 0.008015489199235788
          0.008461474387006349 0.008015987665981064 0.008461009320424984 0.009389139295015614 0.009269693923603595 0.009387454052255256
          0.009268841173555989 0.009385768809494894 0.009267988423508382 0.004871037996563118 0.004872756048074639 0.004874474099586159
          0.008918117207439442 0.008917087155220516 0.008916057103001591 0.006846024165621076 0.0068478674950504725 0.006849710824479869
          0.007452558329904942 0.007454080148702111 0.0074556019674992795 0.009626858857463852 0.00962190205764156 0.009616945257819266
          0.009519754183201858 0.009516717643585998 0.00951368110397014
        </DataArray>
        <DataArray type="Float64" Name="pe11" format="ascii" RangeMin="0.004627335762501643" RangeMax="0.009983640547906163">
          0.007203571835005465 0.00793260039883123 0.007736839793033195 0.0070730647083435665 0.007201038129236635 0.007927353224645238
          0.007732885522592207 0.007071896756345267 0.0071985044234678065 0.007922106050459244 0.00772893125215122 0.007070728804346966
          0.005996275881464952 0.005459239150069814 0.0055629981505972495 0.006176935689301006 0.005995914718059347 0.00545759171573659
          0.005561992986122266 0.00617641627800438 0.005995553554653744 0.0054559442814033675 0.005560987821647284 0.006175896866707753
          0.004943728281449732 0.004943703136936602 0.00494367799242347 0.004908162911127426 0.004908615395859201 0.0049090678805909765
          0.007349882134042753 0.006724887467377456 0.0073487510875974655 0.006727024440173432 0.007347620041152176 0.006729161412969406
          0.009567388396554919 0.009700095056734144 0.009475913240915164 0.00944062139446022 0.009564185358966533 0.009697421786896601
          0.009473260158732547 0.00943738990848357 0.009560982321378145 0.00969474851705906 0.009470607076549929 0.00943415842250692
          0.00684324450304788 0.0072905442646357035 0.007556516817063888 0.007145725227770742 0.006841041453698131 0.007287566039181205
          0.007554471066093162 0.007144103484492901 0.006838838404348383 0.007284587813726706 0.007552425315122435 0.0071424817412150616
          0.005812688946988708 0.006194388971579751 0.005771382847654126 0.005481603123497262 0.005813590369496652 0.006193516332550899
          0.005771426086698598 0.005482500674871134 0.005814491792004595 0.006192643693522048 0.0057714693257430675 0.005483398226245006
          0.0096992416748744 0.00964112860873148 0.009627333012359978 0.009698554748357794 0.009640786048424076 0.00962795016950529
          0.009697867821841188 0.00964044348811667 0.009628567326650603 0.009102170170727649 0.009494105401422244 0.009487966085827425
          0.008957086965753067 0.009100253045816773 0.009491182077563718 0.009484205039652943 0.008954938150926581 0.009098335920905896
          0.009488258753705195 0.00948044399347846 0.008952789336100097 0.008524853318209263 0.008523487779536012 0.008522122240862759
          0.008402018742463976 0.008117762975685483 0.00839601355924923 0.008112241722291972 0.008390008376034482 0.008106720468898463
          0.007013270444183144 0.007551733640868551 0.006704329872600228 0.007010753459211021 0.0075476591780717864 0.006703126508961738
          0.007008236474238899 0.007543584715275023 0.006701923145323248 0.009129220705909036 0.008936381971953719 0.009118019153903593
          0.009337931446918253 0.009125442390076996 0.008934376982373923 0.009116621929310316 0.009335510402771266 0.009121664074244952
          0.008932371992794126 0.00911522470471704 0.009333089358624282 0.008100976525086435 0.0077198828505777965 0.007943755462855421
          0.008100331767129768 0.007718683527881174 0.007941107874122215 0.008099687009173101 0.00771748420518455 0.00793846028538901
          0.007405034306926562 0.007254780071905538 0.0066228250584398785 0.007403598643429606 0.007252477880485599 0.006621463284995764
          0.007402162979932654 0.00725017568906566 0.0066201015115516515 0.00852736957431424 0.00822787871867154 0.0083375813119962
          0.008758916068651253 0.008526279051398846 0.008224549548752931 0.00833452636419471 0.008756849418559667 0.008525188528483458
          0.008221220378834323 0.008331471416393217 0.008754782768468082 0.009213388070845959 0.008828495350909724 0.009210013251636576
          0.008824655742758774 0.009206638432427194 0.008820816134607827 0.009529624365407148 0.009237856086972984 0.009163893272674434
          0.009527919529986459 0.009238646511452621 0.009163561129419542 0.009526214694565775 0.00923943693593226 0.009163228986164647
          0.0087877551703858 0.008936530636542345 0.00931259584528795 0.009198469388638515 0.00878647221188678 0.008933054065284059
          0.009308926123031778 0.00919631453026423 0.008785189253387761 0.008929577494025771 0.009305256400775602 0.009194159671889945
          0.005222685935654878 0.005637103552697405 0.005224325245981349 0.005638555410522409 0.00522596455630782 0.005640007268347414
          0.0062040763626405706 0.006672998417547149 0.006203846798393875 0.006672150264183715 0.00620361723414718 0.0066713021108202805
          0.004673758286339986 0.004793367820707394 0.004675412071383578 0.004794832330639726 0.00467706585642717 0.004796296840572058
          0.006429061830438158 0.005988281999571596 0.006264826875839329 0.006787786686739227 0.006436081725477933 0.005992708415920637
          0.006270964749984552 0.006794327179106852 0.006443101620517708 0.005997134832269677 0.006277102624129776 0.006800867671474477
          0.009770793844830379 0.009636107970702348 0.00976999956788776 0.00963614810349544 0.009769205290945139 0.009636188236288534
          0.009806715671295872 0.009581573883880803 0.00980237992583638 0.009577677644667191 0.009798044180376886 0.00957378140545358
          0.009965532009100423 0.009810502000303218 0.009961537540659414 0.009805695467158426 0.009957543072218404 0.009800888934013631
          0.006195522632838972 0.006196982225628872 0.00619844181841877 0.008970936444837799 0.008971444848331898 0.008971953251825995
          0.009501055292905734 0.009360112713682436 0.009173379470696408 0.009372849882638175 0.009500707238130623 0.00935978697716993
          0.00917358201248533 0.009373346648313716 0.009500359183355515 0.00935946124065742 0.009173784554274254 0.00937384341398926
          0.009539442952065132 0.009486939975146306 0.009634030105866252 0.009536303151198267 0.009485148043429112 0.009632450139089059
          0.009533163350331402 0.00948335611171192 0.009630870172311862 0.009725225436972499 0.00951839189198013 0.00971921823860031
          0.009514134298080072 0.009713211040228117 0.009509876704180012 0.008791580118722808 0.00879271031549916 0.008793840512275511
          0.005037193534955825 0.005292097875399315 0.005515840192305445 0.005230136296821958 0.005038046299313947 0.005292722153366251
          0.0055184866758782565 0.005231910986547022 0.005038899063672069 0.005293346431333189 0.005521133159451068 0.005233685676272084
          0.009595165242737923 0.009594612776686207 0.009594060310634494 0.00895606053365319 0.008957463326944793 0.008958866120236397
          0.009563443476577747 0.009563300627968056 0.009563157779358365 0.006436524868863066 0.005976259361958287 0.006436090616249994
          0.00597646603150059 0.0064356563636369215 0.005976672701042893 0.008224346819985207 0.00835697742108952 0.008224708955702539
          0.008358923368282197 0.008225071091419874 0.00836086931547487 0.009926582710161284 0.009737771726099253 0.009921604944247391
          0.009734686435923522 0.009916627178333495 0.009731601145747792 0.008858239103092407 0.008716718715804608 0.008852835592881235
          0.008711426636035224 0.008847432082670064 0.008706134556265836 0.00927815345146274 0.0092766809460791 0.00927520844069546
          0.008420799555391063 0.007618739248940621 0.008417310913557666 0.007619038180003606 0.00841382227172427 0.00761933711106659
          0.008757863269028325 0.008460245099556188 0.008753371487285005 0.008453886077237743 0.008748879705541683 0.0084475270549193
          0.009817989951284545 0.009813981096963447 0.009809972242642349 0.009809667651837346 0.009808556535586689 0.009807445419336034
          0.008472378455813999 0.008380769632251522 0.008469666999677395 0.00837505720823587 0.008466955543540797 0.008369344784220216
          0.009892267380596374 0.009890344574232057 0.00988842176786774 0.008674395072762128 0.008675207119371914 0.0086760191659817
          0.009983640547906163 0.00986835200667685 0.009980923949030841 0.009867223032035702 0.009978207350155519 0.009866094057394557
          0.009487130778582131 0.009243849153394816 0.009485283971411074 0.009241009173835187 0.009483437164240013 0.009238169194275558
          0.007717077908194403 0.008118448619320887 0.008032480010740516 0.007714182898381646 0.00811628428378669 0.008027369294721108
          0.00771128788856889 0.008114119948252493 0.008022258578701699 0.00862527599260804 0.008342514226552177 0.008646104634432574
          0.008983835999756539 0.008621155860453948 0.008336395436461655 0.008640390546324372 0.008979720318486633 0.008617035728299855
          0.008330276646371131 0.008634676458216169 0.008975604637216729 0.006064114977216425 0.00556753733295144 0.005385786898354673
          0.005771042582853938 0.0060662212505582045 0.005567917254758961 0.005384733945093848 0.005771324343762393 0.006068327523899984
          0.005568297176566482 0.005383680991833022 0.005771606104670849 0.009939711803253315 0.009934386826039886 0.009929061848826455
          0.008110613870678353 0.0078121668194409515 0.008106790263556918 0.007808327229932776 0.008102966656435482 0.007804487640424603
          0.009663813897534766 0.009554409274328378 0.009663515945847476 0.009553725871366596 0.009663217994160186 0.009553042468404813
          0.007497639456015927 0.007140078557150536 0.007494750785559318 0.007139745945402897 0.007491862115102705 0.007139413333655256
          0.006154000799272214 0.006549283534962468 0.006156019710535501 0.006551147224188762 0.006158038621798785 0.006553010913415059
          0.005747932110319721 0.005444016616070652 0.005747201137658761 0.00544277180541501 0.005746470164997802 0.005441526994759366
          0.009800595740155876 0.009799093958556918 0.009797592176957963 0.009778293389478696 0.009776373253958394 0.009774453118438095
          0.006551169976119003 0.006034315159289841 0.005857733170890911 0.006331978296629639 0.006550201039405744 0.006035308578553066
          0.005860266695732866 0.006333273827681559 0.006549232102692486 0.006036301997816291 0.00586280022057482 0.0063345693587334795
          0.009737846067414721 0.009785960841035345 0.00973538471098411 0.009785393863470916 0.009732923354553502 0.009784826885906487
          0.004627335762501643 0.004633253085933195 0.00476394603088109 0.004717771526019253 0.004627422234831513 0.00463390598086037
          0.004764213381154314 0.004718223558779237 0.004627508707161381 0.004634558875787545 0.004764480731427537 0.004718675591539221
          0.005100159430572281 0.004827953203638687 0.005122542238353529 0.005099642451845476 0.004828721841142846 0.005121711303797345
          0.005099125473118671 0.0048294904786470045 0.0051208803692411615 0.006672087444790792 0.006674799530579483 0.006677511616368173
          0.009391890896365834 0.009098093574494516 0.009388084335122103 0.009093895161852073 0.009384277773878374 0.009089696749209631
          0.008873224786448235 0.008289662970975137 0.008870825624609066 0.008287211413783925 0.008868426462769896 0.008284759856592713
          0.006899947379794774 0.006899041616481747 0.006898135853168718 0.009944584485625123 0.009942534223521154 0.009940483961417185
          0.007518608757171863 0.008054238358834918 0.0075187409426489375 0.008049811983893021 0.007518873128126012 0.008045385608951123
          0.004892648019867031 0.004796708156440403 0.004892419582218014 0.004797299380738378 0.0048921911445689945 0.004797890605036352
          0.005093872148458297 0.0053024850193145266 0.005095032310940361 0.005303328980528611 0.005096192473422426 0.005304172941742695
          0.005545146314139821 0.006079390752491926 0.005827493961008573 0.00554549106454248 0.006078611945417785 0.005826768628330323
          0.005545835814945142 0.006077833138343645 0.005826043295652074 0.006558900236072356 0.006988000623567256 0.006557398652260675
          0.006985847494376636 0.006555897068448993 0.006983694365186015 0.0050737878437496185 0.005152472168943702 0.005072153805733276
          0.005150789420250187 0.005070519767716935 0.005149106671556672 0.006346282643180678 0.006086233113115099 0.006344453960946852
          0.006084233193857929 0.006342625278713027 0.00608223327460076 0.0050328586158439395 0.005032596665111943 0.005032334714379945
          0.005855438575510409 0.005626539407247233 0.005544904058581828 0.00572474175026653 0.005853548965134041 0.005626277030587972
          0.005544596062478445 0.005722711370152902 0.005851659354757674 0.005626014653928711 0.005544288066375061 0.005720680990039275
          0.005288017678111281 0.005348393896629631 0.005289487567046701 0.0053497069069216915 0.005290957455982121 0.005351019917213754
          0.004931371602070484 0.004931061373494359 0.004930751144918234 0.0061950117690274895 0.006193793394794941 0.006192575020562393
          0.007168976367877308 0.007167269740088535 0.007165563112299763 0.006792776847776208 0.006795175817272062 0.006797574786767915
          0.007725132246901467 0.007723158822207948 0.007721185397514429 0.0074109385596596985 0.007681187538477425 0.007409076743536869
          0.007677787116892836 0.007407214927414039 0.007674386695308247 0.007877796092692324 0.007875397389598604 0.007872998686504887
          0.007305089065327547 0.0073097923769512 0.007314495688574852 0.00532186467237151 0.005320260778781375 0.0053186568851912395
          0.00970992585011772 0.009709659531549278 0.009709393212980833 0.008466872322027499 0.008314862261625942 0.008464746588799196
          0.008312476474606654 0.008462620855570892 0.008310090687587363 0.009771014686046691 0.009770471203817157 0.009769927721587622
          0.008147970199722689 0.008145006044599033 0.008142041889475378 0.007958953961634286 0.007955039640225687 0.007951125318817092
          0.007477723885161068 0.007480047891284891 0.007482371897408715 0.008358278386992674 0.008359766004037046 0.008361253621081415
          0.007888264656960022 0.00789096271418985 0.007893660771419675 0.0050832450134507216 0.005042895425268385 0.0050826069214322716
          0.005041837736751432 0.0050819688294138216 0.005040780048234479 0.006423013912465043 0.006131091278385308 0.006421963227457501
          0.00613048124799874 0.006420912542449962 0.006129871217612172 0.00612738213985219 0.006126040952525875 0.006124699765199561
          0.004917306685703136 0.004918225337549916 0.004919143989396696 0.009497108295088026 0.00949618540033369 0.009495262505579355
          0.005163052936980729 0.005477445810211506 0.0051635462440539496 0.005478594230883922 0.00516403955112717 0.005479742651556338
          0.005872769465076247 0.006027271119167931 0.00582810905655784 0.005873170019351361 0.0060277198719621 0.005828293707133508
          0.005873570573626475 0.006028168624756269 0.005828478357709176 0.005782181848635571 0.005887275427578568 0.005781759587329468
          0.005886775473665176 0.005781337326023364 0.005886275519751784 0.00581083907105927 0.0058107853058572785 0.005810731540655288
          0.006221111864005839 0.006220639243802877 0.0062201666235999166 0.005979399096862484 0.005978890869541808 0.005978382642221133
          0.009617544595658365 0.009616232452008537 0.009614920308358706 0.004859256481232326 0.004859106392846918 0.00485895630446151
          0.0049724012864838605 0.005627538863009893 0.004971436872552847 0.005627293041276885 0.004970472458621835 0.005627047219543874
          0.009575605329345965 0.009576236548235363 0.00957686776712476 0.007994186168295796 0.008074741111854956 0.008560781643986633
          0.007992390579361085 0.008073073590017021 0.008559749158299431 0.007990594990426376 0.008071406068179089 0.008558716672612227
          0.004985577413342597 0.005355215578661556 0.004988285271460396 0.0053579883863295414 0.004990993129578194 0.005360761193997527
          0.009569248587147059 0.009481755566967783 0.009569476231078757 0.009481889024232665 0.009569703875010457 0.009482022481497545
          0.005808321294033024 0.005811192494564752 0.00581406369509648 0.00920281278471865 0.00904121343372515 0.008736343941144045
          0.009203942773005236 0.009042664964006126 0.00873800064470212 0.009205072761291821 0.0090441164942871 0.008739657348260195
          0.009572263585885168 0.009572673812027256 0.009573084038169345 0.009536807437874361 0.009636107581299496 0.00953211706231335
          0.009630386482758897 0.009527426686752338 0.009624665384218297 0.009473321764642113 0.009530087500246122 0.009473809325587145
          0.009530830207268068 0.009474296886532178 0.00953157291429001 0.009239351005079076 0.00923665307536173 0.009233955145644384
          0.009434857722644041 0.00943515695500632 0.009435456187368603 0.005617379056971808 0.005620295824745406 0.005623212592519003
          0.006302502270174268 0.006302377880626742 0.006302253491079215 0.00698603999880304 0.006986783172503336 0.006987526346203634
          0.00938271376105939 0.00938422389557065 0.009385734030081909 0.007672754171747062 0.00786389513555571 0.007673495190192771
          0.007862841556915265 0.007674236208638481 0.007861787978274819 0.006331295459661857 0.006007324475157114 0.006332558255601866
          0.0060085704100030475 0.0063338210515418766 0.006009816344848981 0.00579830878113273 0.005800115461766528 0.005801922142400324
          0.004792939772487494 0.004817652850282522 0.004793779301992149 0.004818695116880061 0.004794618831496804 0.0048197373834776005
          0.009366044635590322 0.009365657783469934 0.00936527093134955 0.008012538815259262 0.008459208806800903 0.008013040135040455
          0.008458753387031693 0.008013541454821648 0.008458297967262484 0.009387267259840482 0.00926686081103806 0.009385567360544798
          0.009266009136022536 0.009383867461249114 0.00926515746100701 0.004870612441853718 0.00487231743541592 0.004874022428978121
          0.008917064002089472 0.008915995288009137 0.008914926573928802 0.006843649913361739 0.006845506708687841 0.006847363504013944
          0.0074506136495164875 0.007452132264679905 0.007453650879843322 0.009625695604653019 0.009620759145732974 0.009615822686812927
          0.009518447708950047 0.009515409891812031 0.009512372074674015
        </DataArray>
        <DataArray type="Float64" Name="pe22" format="ascii" RangeMin="-0.004968650586326893" RangeMax="-0.002317295279822793">
          -0.003586356191131702 -0.003933049047116752 -0.003857428931415221 -0.003540175262663638 -0.0035869213380344336 -0.003934203418115509
          -0.0038580602419563802 -0.003540660590989288 -0.0035874864849371655 -0.003935357789114266 -0.003858691552497539 -0.00354114591931494
          -0.002960954589970439 -0.0026926973092271335 -0.002742253804368633 -0.003048384726436171 -0.002960739478382541 -0.002692200210375217
          -0.002741947079059682 -0.00304789729051812 -0.0029605243667946424 -0.0026917031115233003 -0.002741640353750731 -0.0030474098546000687
          -0.0024410945523950065 -0.002440662856827071 -0.002440231161259135 -0.0024307791781400185 -0.0024303012852119037 -0.002429823392283788
          -0.003678172392702365 -0.0033872378364300537 -0.0036782928046075964 -0.0033878199840119746 -0.003678413216512828 -0.0033884021315938955
          -0.004769410628642331 -0.004830028560252988 -0.004722311411640209 -0.004706291508000088 -0.004770328608384247 -0.004830859669596284
          -0.004722683834516441 -0.004706790496568234 -0.004771246588126162 -0.00483169077893958 -0.004723056257392674 -0.00470728948513638
          -0.003397624431219896 -0.003619622095151099 -0.00377266376234886 -0.0035751275248992907 -0.0033988969307231845 -0.003619097179826739
          -0.00377265042697296 -0.0035762549141153226 -0.0034001694302264736 -0.0036185722645023792 -0.0037726370915970595 -0.0035773823033313544
          -0.0028887430504411374 -0.0030739690140567572 -0.0028898236530828735 -0.0027469271185543687 -0.002889395972579279 -0.0030750152343329775
          -0.0028920111569946815 -0.002748334821111815 -0.002890048894717421 -0.003076061454609197 -0.002894198660906488 -0.00274974252366926
          -0.004872576744760769 -0.004857656325142901 -0.004823469500150931 -0.00487247696014804 -0.004857416534594354 -0.004823492700297252
          -0.004872377175535311 -0.004857176744045807 -0.004823515900443572 -0.004474330272362608 -0.004660268833625316 -0.004651369276942329
          -0.004396578629497215 -0.00447430995663866 -0.00466099184464861 -0.004652223785959397 -0.004397154926790228 -0.004474289640914711
          -0.004661714855671906 -0.004653078294976465 -0.004397731224083243 -0.004201871301770472 -0.0042023459147097235 -0.004202820527648975
          -0.004189790027534031 -0.0040612172310116055 -0.004190807651091059 -0.004061103005499993 -0.004191825274648088 -0.00406098877998838
          -0.003492875997495698 -0.003755230348501639 -0.003335013557354136 -0.0034944392183771647 -0.0037554665920598858 -0.0033368862652203724
          -0.0034960024392586314 -0.003755702835618133 -0.003338758973086609 -0.0045559949195695774 -0.004451470090413341 -0.0045540107154199705
          -0.004671358107368601 -0.004556822856513798 -0.004452689884806401 -0.004554723531968599 -0.004672209653761331 -0.004557650793458016
          -0.004453909679199462 -0.004555436348517229 -0.004673061200154059 -0.004027857551609178 -0.0038665106442062566 -0.003936524088555066
          -0.004029718795335148 -0.003867315450167615 -0.003937760060750148 -0.0040315800390611205 -0.0038681202561289736 -0.003938996032945228
          -0.003727323356857662 -0.0036336091539601067 -0.003318728944123498 -0.0037282456095188705 -0.003635043497232339 -0.0033221458728129186
          -0.003729167862180078 -0.0036364778405045717 -0.0033255628015023387 -0.004226536865145288 -0.004057833334160337 -0.0041144448575017225
          -0.00434668022239911 -0.004228447181760685 -0.004059617417655022 -0.00411547219193396 -0.004347361601698338 -0.004230357498376083
          -0.004061401501149707 -0.004116499526366198 -0.004348042980997566 -0.004518337958932248 -0.004336919912871821 -0.004519762752271372
          -0.00433794010128253 -0.004521187545610499 -0.00433896028969324 -0.004750006446653376 -0.004624909563241675 -0.004586915759758739
          -0.004750407752245377 -0.004625224451159341 -0.004587081279137825 -0.004750809057837377 -0.004625539339077005 -0.004587246798516909
          -0.00440541461238743 -0.00446211436143759 -0.004648116656287495 -0.0045975842300417374 -0.00440556868024396 -0.004463024397244445
          -0.0046489099883263 -0.004597953852257901 -0.0044057227481004895 -0.0044639344330513015 -0.004649703320365107 -0.004598323474474064
          -0.002608634573949892 -0.002819868292809342 -0.0026090593090710994 -0.002820622885880307 -0.002609484044192308 -0.0028213774789512727
          -0.0030933677749015414 -0.003328900487729261 -0.003095687253596891 -0.003330059551301919 -0.0030980067322922407 -0.0033312186148745752
          -0.0023386540037343513 -0.00238895258098604 -0.0023389494392281347 -0.0023892315313616143 -0.002339244874721917 -0.002389510481737189
          -0.003239832819145155 -0.0030248122647481782 -0.003167479006347778 -0.0034117154358442427 -0.0032407973084426626 -0.0030245062288092833
          -0.0031686487361405015 -0.00341347186280365 -0.0032417617977401696 -0.003024200192870389 -0.0031698184659332243 -0.0034152282897630566
          -0.004886414009283469 -0.0048170142651390024 -0.004887354502193589 -0.004817850360392579 -0.004888294995103709 -0.004818686455646157
          -0.00484210840240246 -0.0047373031144983336 -0.00484328111930505 -0.004737740242009368 -0.00484445383620764 -0.004738177369520404
          -0.0049415127870817335 -0.004860661015248563 -0.004943036798682342 -0.004862122886859642 -0.004944560810282949 -0.00486358475847072
          -0.003120971867202442 -0.003121267161999395 -0.003121562456796347 -0.00451651191642443 -0.004516860657603329 -0.004517209398782227
          -0.004747123715853807 -0.004683336890312249 -0.004606274006232415 -0.0046895052251157004 -0.004747837949250729 -0.004683866384768715
          -0.004606742347012732 -0.004690099100372295 -0.004748552182647651 -0.004684395879225181 -0.00460721068779305 -0.004690692975628891
          -0.004768157080574437 -0.004742747438917706 -0.004801237035477626 -0.00476908599106838 -0.00474359495573887 -0.004802513970158112
          -0.004770014901562323 -0.004744442472560033 -0.004803790904838597 -0.004764204689493817 -0.004666782360934579 -0.004765690404946547
          -0.004668409459724707 -0.004767176120399278 -0.004670036558514836 -0.004424460784968566 -0.004424272317333967 -0.004424083849699369
          -0.0025205331131919048 -0.002638126694401701 -0.002755209935036288 -0.0026235486941146276 -0.002521431024502112 -0.002638609341855654
          -0.0027559285498551956 -0.002624778889334077 -0.0025223289358123186 -0.0026390919893096074 -0.0027566471646741017 -0.0026260090845535264
          -0.004788390426289676 -0.0047892624623614355 -0.0047901344984331955 -0.004508607784401373 -0.004508780041906868 -0.004508952299412363
          -0.004777650271307879 -0.004777911522474022 -0.004778172773640164 -0.003220628072044821 -0.0029805497520383507 -0.003221394746956375
          -0.0029816071802490868 -0.0032221614218679298 -0.0029826646084598223 -0.004143340925212416 -0.0042265121071363414 -0.004143995760165335
          -0.004226609928448379 -0.004144650595118255 -0.004226707749760415 -0.004904460977787244 -0.004810034390840775 -0.004906220206470803
          -0.0048120073420150605 -0.004907979435154364 -0.004813980293189345 -0.004421187105021319 -0.0043557902893011004 -0.004422200640677571
          -0.0043567330560893 -0.004423214176333823 -0.004357675822877499 -0.00462149541037481 -0.004621863085350739 -0.0046222307603266686
          -0.00422174043733974 -0.00382527670251889 -0.004222609686545559 -0.0038262824676471357 -0.0042234789357513776 -0.003827288232775381
          -0.004350041381526337 -0.0041934582908053995 -0.004351616828659484 -0.004195312106585475 -0.0043531922757926314 -0.004197165922365552
          -0.004867898627203662 -0.0048695837045898745 -0.004871268781976086 -0.0048904589478439104 -0.004891939327980394 -0.004893419708116879
          -0.004190182803995688 -0.004134619624934143 -0.004192462233861077 -0.004136995529997316 -0.004194741663726466 -0.00413937143506049
          -0.004916909242428277 -0.004918425532625423 -0.004919941822822569 -0.0043850388912497675 -0.004385090233941762 -0.004385141576633757
          -0.004965297452385273 -0.004923284143361055 -0.0049669740193560834 -0.004924561824078813 -0.004968650586326893 -0.004925839504796572
          -0.004703561536744487 -0.004556761240295018 -0.00470439415142094 -0.004557592831619441 -0.004705226766097395 -0.004558424422943864
          -0.003852149844377266 -0.004026979221853078 -0.003966219323106673 -0.0038527313200210377 -0.0040287956248639244 -0.003967799238806214
          -0.00385331279566481 -0.0040306120278747705 -0.003969379154505753 -0.0042661016925496075 -0.0041287899819348085 -0.004253921815560386
          -0.004422186913654238 -0.00426712810417109 -0.004129459844651203 -0.004255231144813317 -0.0044237868600019185 -0.004268154515792575
          -0.004130129707367598 -0.0042565404740662486 -0.004425386806349599 -0.0030322012799177157 -0.002776694600334741 -0.0026822292668204338
          -0.0028796430483337713 -0.0030320292098325943 -0.0027765983107080833 -0.0026814234691584227 -0.002879106795141933 -0.003031857139747474
          -0.0027765020210814267 -0.0026806176714964116 -0.0028785705419500946 -0.004910803601686682 -0.004911959977829199 -0.004913116353971717
          -0.004016967234172534 -0.0038787875238167364 -0.004017284375508703 -0.0038791589484039337 -0.004017601516844872 -0.003879530372991131
          -0.004864600325702099 -0.004818057110607445 -0.004865604447461366 -0.0048193460145792965 -0.004866608569220633 -0.004820634918551148
          -0.0037031140779582522 -0.0035373623004269668 -0.003703129916042706 -0.003537865546646994 -0.0037031457541271597 -0.0035383687928670204
          -0.00305848094330242 -0.003257796190764641 -0.0030584667668028575 -0.0032577616300518246 -0.0030584525903032942 -0.003257727069339008
          -0.002845456031271799 -0.0027022550042540626 -0.0028450935418559017 -0.0027016186154029645 -0.0028447310524400047 -0.002700982226551866
          -0.004878930767111839 -0.004880684461231811 -0.004882438155351783 -0.004870441239307722 -0.004871479227179531 -0.00487251721505134
          -0.003245705700255555 -0.002988637754324909 -0.002916207221495874 -0.00314931135761374 -0.0032452669754442264 -0.002988407832190837
          -0.002916268779894711 -0.0031488537988988855 -0.003244828250632898 -0.002988177910056764 -0.0029163303382935485 -0.0031483962401840314
          -0.004854755440001689 -0.004893300369507523 -0.00485595980593318 -0.004894481812329653 -0.0048571641718646716 -0.004895663255151784
          -0.002317545982740651 -0.002321212212123627 -0.0023845210551517596 -0.0023658026354813058 -0.002317420631281722 -0.0023212026275497948
          -0.0023848337777622195 -0.002366172329779418 -0.002317295279822793 -0.0023211930429759627 -0.0023851465003726794 -0.00236654202407753
          -0.0025339493277402045 -0.0024010484199069346 -0.00254113965196757 -0.002533241296604389 -0.0024008980370931856 -0.0025408096529734763
          -0.0025325332654685738 -0.0024007476542794366 -0.002540479653979382 -0.0033086442505998147 -0.003309190219412923 -0.0033097361882260326
          -0.004691875633480504 -0.004536268750690621 -0.00469278955948912 -0.004537405768820674 -0.004693703485497737 -0.004538542786950727
          -0.004395425685228478 -0.0041016045015685055 -0.0043957049946775325 -0.004102114749809068 -0.004395984304126588 -0.00410262499804963
          -0.003420762979273437 -0.003420320414572556 -0.0034198778498716748 -0.004952149335451753 -0.004953947180112308 -0.004955745024772864
          -0.0037450513359559333 -0.004001482259804399 -0.003745241083076698 -0.004001219499600452 -0.003745430830197462 -0.004000956739396503
          -0.00244450532352465 -0.0024048148262193455 -0.0024449994373943454 -0.00240551653184965 -0.0024454935512640405 -0.0024062182374799553
          -0.0025647163359575186 -0.002674107788649442 -0.0025661474433247198 -0.0026756772579936707 -0.002567578550691921 -0.0026772467273379
          -0.002799730973622213 -0.0030482105037348815 -0.002951377349631488 -0.002802039466788766 -0.003051258991332154 -0.002954540374936713
          -0.0028043479599553192 -0.0030543074789294252 -0.002957703400241938 -0.0032609147840646038 -0.003466518900334039 -0.003262411279898338
          -0.003466305436207946 -0.0032639077757320714 -0.003466091972081853 -0.0025215700403071915 -0.0025568374533284483 -0.0025217852787156434
          -0.0025567663092781927 -0.002522000517124096 -0.0025566951652279367 -0.003178613941542564 -0.003085243432098491 -0.003181817863563957
          -0.0030886172805343636 -0.00318502178558535 -0.003091991128970237 -0.0025010285920887337 -0.002500592980354881 -0.0025001573686210276
          -0.0029336124776322752 -0.0028164341251440857 -0.0027801481927195466 -0.0028715675792409905 -0.002935140267259134 -0.00281772802360787
          -0.0027814925224808403 -0.002873510403557243 -0.0029366680568859924 -0.0028190219220716535 -0.002782836852242135 -0.0028754532278734953
          -0.0026493512201422966 -0.0026757320583401553 -0.0026509706855273665 -0.0026771935683822918 -0.002652590150912437 -0.0026786550784244282
          -0.0024509831694589077 -0.002451393790321673 -0.0024518044111844386 -0.003131098112139687 -0.0031353138954168065 -0.003139529678693926
          -0.0035426422473970494 -0.003542500985506581 -0.0035423597236161138 -0.003371940378520242 -0.0033716570782842286 -0.0033713737780482166
          -0.003812388482582597 -0.0038130688940439658 -0.003813749305505333 -0.003656904774079194 -0.003791106859116964 -0.003657319029173505
          -0.0037916998864314403 -0.0036577332842678157 -0.0037922929137459162 -0.0038809909415045106 -0.003882331797454154 -0.003883672653403798
          -0.0036835549202442015 -0.003685130338948289 -0.003686705757652377 -0.0026298757852639973 -0.002629425728805587 -0.0026289756723471766
          -0.0048948049293102425 -0.004895370629096156 -0.004895936328882071 -0.0041769611193768555 -0.004109552640187097 -0.004178279320541763
          -0.0041106455817971265 -0.004179597521706672 -0.004111738523407158 -0.004903757132265085 -0.004904438171398274 -0.004905119210531461
          -0.004036349953603113 -0.004036666289652255 -0.0040369826257013975 -0.003913661958498877 -0.0039153224099098055 -0.003916982861320732
          -0.0037286989389074595 -0.0037286989835735402 -0.003728699028239622 -0.004221987240410259 -0.004222281710063672 -0.0042225761797170846
          -0.003988953038538914 -0.0039898384579105375 -0.00399072387728216 -0.0025426924655535055 -0.002525773157744951 -0.002542470752332884
          -0.0025254658974047193 -0.002542249039112262 -0.002525158637064488 -0.003210423273097793 -0.003092317711019619 -0.0032142776518073652
          -0.0030967626792226307 -0.0032181320305169365 -0.0031012076474256434 -0.00306346858223668 -0.0030646016899205705 -0.003065734797604461
          -0.0024686275237632118 -0.0024697694918180382 -0.0024709114598728647 -0.00478572909621899 -0.004787003202611653 -0.004788277309004316
          -0.002578049104544698 -0.002734967332781311 -0.0025781571337281676 -0.0027361642968807393 -0.002578265162911638 -0.002737361260980167
          -0.002934197121691704 -0.0030061901458235587 -0.0028998151045914727 -0.00293856412615736 -0.0030101833168810093 -0.002902763179440602
          -0.002942931130623016 -0.0030141764879384604 -0.0029057112542897326 -0.0028855825312960057 -0.002941899778841368 -0.002888925971967986
          -0.0029448357353938953 -0.002892269412639966 -0.0029477716919464225 -0.002899775544616479 -0.0029010035089460833 -0.0029022314732756876
          -0.0031055345823186495 -0.0031094624022395745 -0.0031133902221605 -0.0030049302328115307 -0.0030095935059036793 -0.0030142567789958287
          -0.004822478028484952 -0.004823566212584996 -0.00482465439668504 -0.0024223133323125704 -0.002422671126921645 -0.00242302892153072
          -0.0024545246357898886 -0.002775789333446972 -0.0024539643229186 -0.0027752747984130777 -0.0024534040100473112 -0.0027747602633791837
          -0.004798385378899659 -0.004797486276476785 -0.0047965871740539125 -0.003959396938668889 -0.00399910117376971 -0.00421752553507263
          -0.003960623775368038 -0.003999722865836159 -0.004217411786139905 -0.003961850612067188 -0.004000344557902608 -0.0042172980372071804
          -0.0024891021631797622 -0.0026842677712059382 -0.002489694454712038 -0.002684581005439391 -0.0024902867462443137 -0.002684894239672843
          -0.004825791391320118 -0.004756089045629267 -0.0048264175372341785 -0.004755971305848289 -0.004827043683148238 -0.004755853566067312
          -0.0029295182883843683 -0.0029296198699351496 -0.0029297214514859304 -0.004607763046026125 -0.004509119320786199 -0.004388745271371128
          -0.0046079995321919205 -0.004509365802414189 -0.004389047167435731 -0.004608236018357717 -0.00450961228404218 -0.004389349063500334
          -0.004784271744065491 -0.004783505059213459 -0.004782738374361427 -0.004724852065642103 -0.004776470665800411 -0.004726494517231171
          -0.004778068542891201 -0.0047281369688202375 -0.004779666419981991 -0.0047267848335962905 -0.004751083540332508 -0.00472755079843282
          -0.004751258500047291 -0.004728316763269349 -0.004751433459762073 -0.004568913880105153 -0.004569360466896466 -0.0045698070536877786
          -0.004769358676862028 -0.004770335908967843 -0.00477131314107366 -0.002822271545627456 -0.0028220800866706024 -0.002821888627713749
          -0.0031131022755444522 -0.0031123117203404977 -0.003111521165136543 -0.003469534056949646 -0.003469332357579053 -0.0034691306582084595
          -0.004675042360533709 -0.004675655422373691 -0.004676268484213673 -0.003819126367678227 -0.0039004982486842595 -0.003820049376785507
          -0.00390214967192754 -0.003820972385892788 -0.003903801095170821 -0.0031991034259408516 -0.003036993475392252 -0.003197307913805781
          -0.0030349916197659602 -0.00319551240167071 -0.0030329897641396698 -0.0029191847017400714 -0.0029184777817598834 -0.002917770861779695
          -0.002401706090093503 -0.002412965039379804 -0.002401933909283496 -0.0024132957479271206 -0.002402161728473489 -0.002413626456474437
          -0.004746916302050321 -0.004747907583992316 -0.004748898865934312 -0.00401444599075166 -0.004212342402407462 -0.004014790780230133
          -0.004212118828260437 -0.004015135569708607 -0.00421189525411341 -0.004724845820206629 -0.0047041233602628 -0.004725706647280771
          -0.004704662591811528 -0.004726567474354912 -0.004705201823360256 -0.002436267735020889 -0.0024367349667711656 -0.0024372021985214426
          -0.004387172290923272 -0.004386773411525025 -0.0043863745321267794 -0.003441462791123803 -0.0034411657660344858 -0.003440868740945168
          -0.0037330780634202898 -0.0037339842345006213 -0.0037348904055809536 -0.0047918785688788905 -0.00479329522326105 -0.00479471187764321
          -0.004758648292582287 -0.004760016051245433 -0.004761383809908579
        </DataArray>
        <DataArray type="Float64" Name="pe33" format="ascii" RangeMin="-0.0050289082015666335" RangeMax="-0.0023097897797609928">
          -0.003617215643873762 -0.003999551351714478 -0.0038794108616179725 -0.003532889445679928 -0.0036141167912022015 -0.003993149806529728
          -0.0038748252806358272 -0.0035312361653559764 -0.0036110179385306406 -0.003986748261344978 -0.0038702396996536815 -0.003529582885032026
          -0.003035321291494512 -0.00276654184084268 -0.002820744346228616 -0.0031285509628648338 -0.0030351752396768064 -0.0027653915053613737
          -0.0028200459070625845 -0.003128518987486259 -0.003035029187859101 -0.002764241169880067 -0.002819347467896553 -0.0031284870121076835
          -0.0025026337290547256 -0.00250304028010953 -0.002503446831164334 -0.0024773837329874074 -0.002478314110647298 -0.002479244488307188
          -0.0036717097413403875 -0.003337649630947402 -0.0036704582829898687 -0.0033392044561614564 -0.0036692068246393494 -0.003340759281375511
          -0.004797977767912587 -0.004870066496481157 -0.004753601829274952 -0.004734329886460131 -0.004793856750582285 -0.0048665621173003175
          -0.004750576324216104 -0.004730599411915335 -0.0047897357332519815 -0.004863057738119478 -0.004747550819157254 -0.0047268689373705375
          -0.0034456200718279827 -0.003670922169484603 -0.0037838530547150266 -0.0035705977028714516 -0.0034421445229749457 -0.0036684688593544646
          -0.003781820639120201 -0.0035678485703775796 -0.003438668974121908 -0.003666015549224325 -0.003779788223525375 -0.0035650994378837067
          -0.00292394589654757 -0.0031204199575229925 -0.0028815591945712538 -0.0027346760049428926 -0.0029241943969173716 -0.0031185010982179213
          -0.0028794149297039166 -0.0027341658537593187 -0.002924442897287173 -0.00311658223891285 -0.0028772706648365794 -0.002733655702575744
          -0.004826664930113629 -0.0047834722835885775 -0.004803863512209045 -0.0048260777882097525 -0.004783369513829719 -0.004804457469208039
          -0.004825490646305876 -0.0047832667440708635 -0.004805051426207032 -0.004627839898365041 -0.004833836567796926 -0.0048365968088850955
          -0.004560508336255852 -0.004625943089178112 -0.004830190232915108 -0.004831981253693545 -0.004557783224136353 -0.0046240462799911845
          -0.004826543898033288 -0.004827365698501994 -0.004555058112016853 -0.004322982016438792 -0.004321141864826287 -0.0043193017132137825
          -0.004212228714929944 -0.004056545744673876 -0.0042052059081581685 -0.00405113871679198 -0.004198183101386393 -0.004045731688910083
          -0.003520394446687446 -0.003796503292366911 -0.003369316315246092 -0.0035163142408338567 -0.0037921925860119007 -0.0033662402437413643
          -0.003512234034980267 -0.00378788187965689 -0.0033631641722366365 -0.004573225786339459 -0.004484911881540379 -0.004564008438483623
          -0.004666573339549651 -0.004568619533563198 -0.0044816870975675225 -0.004561898397341718 -0.004663300749009939 -0.004564013280786937
          -0.004478462313594666 -0.004559788356199812 -0.004660028158470225 -0.004073118973477257 -0.0038533722063715395 -0.004007231374300353
          -0.004070612971794619 -0.0038513680777135582 -0.004003347813372068 -0.004068106970111982 -0.0038493639490555774 -0.003999464252443782
          -0.0036777109500689006 -0.0036211709179454323 -0.00330409611431638 -0.0036753530339107376 -0.0036174343832532604 -0.0032993174121828455
          -0.003672995117752575 -0.003613697848561089 -0.003294538710049313 -0.004300832709168953 -0.004170045384511201 -0.004223136454494477
          -0.004412235846252144 -0.004297831869638163 -0.004164932131097909 -0.004219054172260747 -0.004409487816861329 -0.004294831030107372
          -0.004159818877684617 -0.004214971890027017 -0.004406739787470514 -0.00469505011191371 -0.0044915754380379005 -0.004690250499365203
          -0.004486715641476243 -0.004685450886816695 -0.004481855844914586 -0.004779617918753768 -0.004612946523731306 -0.004576977512915692
          -0.004777511777741082 -0.00461342206029328 -0.004576479850281714 -0.004775405636728397 -0.004613897596855254 -0.004575982187647735
          -0.004382340557998369 -0.004474416275104756 -0.004664479189000455 -0.004600885158596774 -0.004380903531642819 -0.004470029668039613
          -0.0046600161347054745 -0.004598360678006325 -0.004379466505287271 -0.0044656430609744694 -0.004655553080410493 -0.004595836197415878
          -0.002614051361704985 -0.0028172352598880637 -0.002615265936910248 -0.002817932524642102 -0.002616480512115512 -0.002818629789396139
          -0.003110708587739029 -0.0033440979298178866 -0.0031081595447969845 -0.0033420907128817955 -0.003105610501854939 -0.003340083495945704
          -0.002335104282605635 -0.002404415239721355 -0.0023364626321554435 -0.0024056007992781115 -0.002337820981705252 -0.0024067863588348687
          -0.0031892290112930017 -0.002963469734823417 -0.0030973478694915502 -0.0033760712508949828 -0.0031952844170352692 -0.002968202187111353
          -0.0031023160138440513 -0.003380855316303202 -0.0032013398227775363 -0.002972934639399288 -0.003107284158196552 -0.0033856393817114205
          -0.004884379835546909 -0.0048190937055633465 -0.004882645065694169 -0.004818297743102862 -0.004880910295841431 -0.004817501780642378
          -0.004964607268893412 -0.004844270769382469 -0.004959098806531328 -0.004839937402657823 -0.004953590344169245 -0.004835604035933176
          -0.00502401922201869 -0.004949840985054654 -0.005018500741977071 -0.004943572580298782 -0.005012982261935453 -0.00493730417554291
          -0.0030745507656365295 -0.0030757150636294764 -0.0030768793616224224 -0.00445442452841337 -0.0044545841907285685 -0.004454743853043766
          -0.0047539315770519265 -0.004676775823370189 -0.004567105464463991 -0.004683344657522474 -0.004752869288879895 -0.004675920592401212
          -0.004566839665472596 -0.00468324754794142 -0.004751807000707863 -0.004675065361432236 -0.0045665738664812 -0.004683150438360367
          -0.004771285871490693 -0.004744192536228599 -0.004832793070388626 -0.004767217160129885 -0.004741553087690242 -0.004829936168930946
          -0.004763148448769077 -0.004738913639151885 -0.004827079267473264 -0.004961020747478681 -0.004851609531045551 -0.004953527833653761
          -0.0048457248383553635 -0.00494603491982884 -0.004839840145665176 -0.00436711933375424 -0.004368437998165191 -0.004369756662576143
          -0.00251666042176392 -0.002653971180997614 -0.0027606302572691574 -0.0026065876027073307 -0.0025166152748118346 -0.002654112811510597
          -0.0027625581260230614 -0.0026071320972129446 -0.00251657012785975 -0.0026542544420235805 -0.002764485994776965 -0.0026076765917185576
          -0.004806774816448245 -0.004805350314324773 -0.004803925812201298 -0.004447452749251814 -0.004448683285037924 -0.0044499138208240335
          -0.004785793205269866 -0.004785389105494035 -0.004784985005718202 -0.003215896796818245 -0.002995709609919938 -0.0032146958692936176
          -0.0029948588512515033 -0.00321349494176899 -0.002994008092583069 -0.004081005894772788 -0.0041304653139531775 -0.004080713195537204
          -0.004132313439833817 -0.00408042049630162 -0.004134161565714457 -0.005022121732374041 -0.004927737335258477 -0.005015384737776586
          -0.004922679093908462 -0.005008647743179133 -0.004917620852558447 -0.004437051998071087 -0.00436092842650351 -0.004430634952203662
          -0.0043546935799459235 -0.00442421790633624 -0.004348458733388337 -0.004656658041087929 -0.0046548178607283604 -0.004652977680368792
          -0.004199059118051321 -0.0037934625464217304 -0.004194701227012108 -0.0037927557123564695 -0.004190343335972893 -0.003792048878291208
          -0.004407821887501989 -0.004266786808750788 -0.0044017546586255195 -0.004258573970652268 -0.004395687429749052 -0.004250361132553747
          -0.004950091324080882 -0.0049443973923735726 -0.004938703460666261 -0.004919208703993436 -0.004916617207606296 -0.004914025711219157
          -0.004282195651818309 -0.004246150007317381 -0.004277204765816319 -0.004238061678238551 -0.004272213879814328 -0.0042299733491597226
          -0.004975358138168095 -0.004971919041606631 -0.004968479945045167 -0.004289356181512359 -0.004290116885430152 -0.004290877589347944
          -0.00501834309552089 -0.004945067863315793 -0.005013949929674758 -0.004942661207956888 -0.005009556763828625 -0.004940254552597983
          -0.004783569241837644 -0.0046870879130997975 -0.0047808898199901305 -0.004683416342215745 -0.004778210398142618 -0.004679744771331692
          -0.0038649280638171366 -0.004091469397467808 -0.004066260687633843 -0.0038614515783606082 -0.004087488658922764 -0.004059570055914894
          -0.0038579750929040803 -0.00408350792037772 -0.0040528794241959445 -0.004359174300058433 -0.004213724244617368 -0.004392182818872188
          -0.004561649086102299 -0.0043540277562828565 -0.00420693559181045 -0.004385159401511054 -0.0045559334584847145 -0.004348881212507279
          -0.004200146939003531 -0.0043781359841499196 -0.004550217830867129 -0.003031913697298708 -0.002790842732616698 -0.002703557631534239
          -0.002891399534520167 -0.0030341920407256093 -0.002791318944050877 -0.002703310475935424 -0.00289221754862046 -0.0030364703841525105
          -0.0027917951554850546 -0.0027030633203366087 -0.002893035562720753 -0.0050289082015666335 -0.005022426848210686 -0.005015945494854739
          -0.004093646636505818 -0.003933379295624214 -0.004089505888048214 -0.003929168281528843 -0.004085365139590611 -0.003924957267433473
          -0.0047992135718326655 -0.00473635216372093 -0.004797911498386109 -0.004734379856787297 -0.004796609424939552 -0.004732407549853663
          -0.003794525378057674 -0.0036027162567235683 -0.003791620869516609 -0.0036018803987559016 -0.0037887163609755456 -0.0036010445407882352
          -0.003095519855969794 -0.003291487344197825 -0.0030975529437326423 -0.0032933855941369374 -0.00309958603149549 -0.0032952838440760504
          -0.0029024760790479216 -0.0027417616118165893 -0.0029021075958028586 -0.0027411531900120444 -0.002901739112557796 -0.0027405447682074986
          -0.004921664973044037 -0.004918409497325107 -0.004915154021606177 -0.004907852150170974 -0.004904894026778864 -0.004901935903386754
          -0.003305464275863447 -0.003045677404964931 -0.0029415259493950374 -0.003182666939015897 -0.003304934063961517 -0.0030469007463622285
          -0.0029439979158381543 -0.0031844200287826727 -0.003304403852059586 -0.003048124087759525 -0.0029464698822812708 -0.0031861731185494485
          -0.004883090627413029 -0.004892660471527822 -0.0048794249050509286 -0.00489091205114126 -0.004875759182688827 -0.0048891636307547
          -0.0023097897797609928 -0.002312040873809568 -0.00237942497572933 -0.002351968890537946 -0.0023100016035497903 -0.0023127033533105745
          -0.0023793796033920933 -0.002352051228999818 -0.002310213427338588 -0.0023133658328115814 -0.002379334231054857 -0.00235213356746169
          -0.0025662101028320764 -0.002426904783731752 -0.002581402586385958 -0.0025664011552410868 -0.0024278238040496593 -0.002580901650823868
          -0.002566592207650097 -0.0024287428243675666 -0.002580400715261778 -0.0033634431941909765 -0.003365609311166559 -0.003367775428142141
          -0.00470001526288533 -0.004561824823803896 -0.004695294775632983 -0.0045564893930313995 -0.004690574288380636 -0.004551153962258903
          -0.0044777991012197585 -0.00418805846940663 -0.004475120629931531 -0.004185096663974855 -0.004472442158643305 -0.004182134858543082
          -0.003479184400521336 -0.0034787212019091896 -0.0034782580032970438 -0.00499243515017337 -0.004988587043408845 -0.00498473893664432
          -0.003773557421215929 -0.004052756099030518 -0.0037734998595722402 -0.004048592484292569 -0.0037734422979285513 -0.004044428869554619
          -0.002448142696342381 -0.002391893330221057 -0.0024474201448236674 -0.0023917828488887265 -0.002446697593304954 -0.002391672367556396
          -0.0025291558125007775 -0.002628377230665085 -0.002528884867615641 -0.0026276517225349407 -0.002528613922730504 -0.002626926214404795
          -0.002745415340517609 -0.0030311802487570445 -0.0028761166113770846 -0.0027434515977537155 -0.0030273529540856318 -0.002872228253393611
          -0.002741487854989822 -0.003023525659414219 -0.002868339895410137 -0.0032979854520077513 -0.0035214817232332167 -0.0032949873723623364
          -0.0035195420581686896 -0.0032919892927169205 -0.003517602393104161 -0.002552217803442426 -0.002595634715615254 -0.0025503685270176326
          -0.002594023110971994 -0.002548519250592839 -0.002592411506328734 -0.003167668701638112 -0.0030009896810166076 -0.0031626360973828946
          -0.0029956159133235653 -0.003157603493127676 -0.002990242145630523 -0.0025318300237552067 -0.0025320036847570615 -0.0025321773457589163
          -0.002921826097878133 -0.0028101052821031466 -0.002764755865862281 -0.0028531741710255375 -0.0029184086978749067 -0.002808549006980102
          -0.0027631035399976038 -0.002849200966595658 -0.002914991297871681 -0.0028069927318570575 -0.002761451214132926 -0.002845227762165779
          -0.002638666457968985 -0.002672661838289475 -0.002638516881519334 -0.0026725133385394 -0.002638367305069683 -0.0026723648387893253
          -0.0024803884326115755 -0.0024796675831726856 -0.0024789467337337956 -0.0030639136568878025 -0.003058479499378134 -0.003053045341868465
          -0.003626334120480258 -0.0036247687545819533 -0.0036232033886836484 -0.003420836469255967 -0.003423518738987833 -0.0034262010087196993
          -0.00391274376431887 -0.003910089928163983 -0.003907436092009096 -0.0037540337855805034 -0.003890080679360459 -0.0037517577143633633
          -0.0038860872304613946 -0.0037494816431462227 -0.00388209378156233 -0.003996805151187811 -0.00399306559214445 -0.0039893260331010875
          -0.003621534145083345 -0.0036246620380029097 -0.003627789930922476 -0.0026919888871075126 -0.002690835049975788 -0.002689681212844063
          -0.0048151209208074745 -0.004814288902453118 -0.004813456884098761 -0.004289911202650645 -0.004205309621438845 -0.004286467268257432
          -0.004201830892809524 -0.004283023333864219 -0.004198352164180204 -0.004867257553781604 -0.004866033032418882 -0.004864808511056161
          -0.004111620246119574 -0.004108339754946777 -0.00410505926377398 -0.004045292003135406 -0.004039717230315883 -0.004034142457496359
          -0.0037490249462536094 -0.0037513489077113512 -0.003753672869169093 -0.004136291146582415 -0.004137484293973372 -0.004138677441364331
          -0.0038993116184211076 -0.003901124256279311 -0.003902936894137516 -0.0025405525478972156 -0.002517122267523434 -0.0025401361690993874
          -0.0025163718393467127 -0.0025397197903015587 -0.0025156214111699913 -0.0032125906393672484 -0.003038773567365689 -0.0032076855756501357
          -0.003033718568776108 -0.003202780511933024 -0.003028663570186527 -0.00306391355761551 -0.0030614392626053047 -0.0030589649675950995
          -0.002448679161939924 -0.0024484558457318773 -0.0024482325295238304 -0.004711379198869031 -0.004709182197722034 -0.004706985196575038
          -0.0025850038324360296 -0.002742478477430193 -0.002585389110325781 -0.0027424299340031823 -0.0025857743882155325 -0.0027423813905761716
          -0.0029385723433845443 -0.0030210809733443723 -0.002928293951966369 -0.0029346058931940013 -0.00301753655508109 -0.0029255305276929063
          -0.002930639443003458 -0.003013992136817807 -0.002922767103419443 -0.002896599317339565 -0.0029453756487372008 -0.0028928336153614806
          -0.0029419397382712802 -0.0028890679133833966 -0.002938503827805359 -0.002911063526442791 -0.0029097817969111956 -0.0029085000673796002
          -0.003115577281687188 -0.0031111768415633015 -0.0031067764014394155 -0.0029744688640509533 -0.0029692973636381275 -0.0029641258632253026
          -0.00479506656717341 -0.0047926662394235375 -0.004790265911673664 -0.0024369431489197554 -0.0024364352659252716 -0.0024359273829307887
          -0.0025178766506939714 -0.002851749529562921 -0.0025174725496342467 -0.002852018242863806 -0.0025170684485745225 -0.0028522869561646916
          -0.004777219950446303 -0.004778750271758577 -0.00478028059307085 -0.0040347892296269065 -0.004075639938085243 -0.0043432561089139995
          -0.0040317668039930475 -0.004073350724180863 -0.004342337372159524 -0.0040287443783591885 -0.0040710615102764825 -0.004341418635405048
          -0.002496475250162834 -0.002670947807455617 -0.002498590816748356 -0.0026734073808901498 -0.0025007063833338786 -0.002675866954324682
          -0.004743457195826939 -0.0047256665213385165 -0.0047430586938445795 -0.004725917718384376 -0.004742660191862218 -0.004726168915430234
          -0.002878803005648653 -0.0028815726246296013 -0.002884342243610549 -0.004595049738692525 -0.004532094112938951 -0.004347598669772917
          -0.004595943240813314 -0.004533299161591935 -0.00434895347726639 -0.004596836742934103 -0.004534504210244919 -0.004350308284759862
          -0.004787991841819677 -0.004789168752813797 -0.004790345663807918 -0.004811955372232257 -0.004859636915499083 -0.004805622545082179
          -0.004852317939867694 -0.004799289717932101 -0.004844998964236305 -0.004746536931045823 -0.004779003959913614 -0.004746258527154325
          -0.004779571707220776 -0.004745980123262827 -0.004780139454527937 -0.004670437124973921 -0.004667292608465264 -0.004664148091956606
          -0.004665499045782012 -0.004664821046038476 -0.004664143046294942 -0.002795107511344351 -0.0027982157380748024 -0.002801323964805253
          -0.003189399994629816 -0.0031900661602862444 -0.003190732325942674 -0.0035165059418533935 -0.0035174508149242844 -0.0035183956879951744
          -0.004707671400525681 -0.004708568473196959 -0.0047094655458682355 -0.003853627804068835 -0.0039633968868714505 -0.003853445813407263
          -0.003960691884987724 -0.003853263822745691 -0.003957986883103998 -0.0031321920337210054 -0.0029703309997648614 -0.0031352503417960854
          -0.0029735787902370864 -0.003138308649871165 -0.002976826580709311 -0.0028791240793926585 -0.0028816376800066433 -0.0028841512806206285
          -0.0023912336823939907 -0.0024046878109027186 -0.0023918453927086534 -0.002405399368952941 -0.002392457103023316 -0.002406110927003163
          -0.004619128333539999 -0.004617750199477617 -0.004616372065415236 -0.003998092824507603 -0.004246866404393441 -0.0039982493548103215
          -0.004246634558771257 -0.003998405885113039 -0.004246402713149073 -0.004662421439633848 -0.004562737450775257 -0.004659860713264024
          -0.004561346544211006 -0.004657299986894201 -0.004559955637646755 -0.002434344706832829 -0.002435582468644753 -0.0024368202304566777
          -0.004529891711166197 -0.00452922187648411 -0.004528552041802024 -0.0034021871222379364 -0.003404340942653356 -0.003406494763068775
          -0.003717535586096198 -0.003718148030179283 -0.0037187604742623683 -0.004833817035774126 -0.0048274639224719215 -0.004821110809169717
          -0.004759799416367757 -0.004755393840566596 -0.0047509882647654355
        </DataArray>
        <DataArray type="Float64" Name="disp_x" format="ascii" RangeMin="0.00006154045463510769" RangeMax="0.00014707245043662443">
          0.00012032917949939592 0.0001193221900627894 0.00012406151823585518 0.0001260239459657622 0.00012032489313913781 0.00011931760955828926
          0.00012405430497121177 0.00012601774685550056 0.0001203131803521777 0.0001193025121021024 0.00012403214374607043 0.00012599935403725704
          0.00007155533253170417 0.00006792619573216256 0.0000663496009615484 0.00006994405590820948 0.00007156069241082004 0.00006793253605398042
          0.00006635697811406668 0.0000699497624140517 0.0000715768510065905 0.0000679525781226694 0.00006637960808662028 0.00006996801105952334
          0.00006328783515450929 0.0000632953746752607 0.00006331826214053053 0.00006500605964309288 0.0000650134354202419 0.00006503500724565644
          0.00012892611316818253 0.00013078191193744316 0.00012891601832211617 0.00013077399669182523 0.0001288846391536438 0.00013075130166874738
          0.00011330358565198812 0.00011146560213697784 0.00011691509079038033 0.00011720168087957807 0.00011330155485612138 0.00011146283558147783
          0.0001169107479102242 0.00011719773376773507 0.00011329532168829692 0.0001114561499265179 0.00011689811004850281 0.00011718517905596447
          0.00010070006880660497 0.00009957541977364901 0.00010325954113599084 0.0001045037219930613 0.0001007017584818194 0.00009957785418563618
          0.00010326104391399482 0.00010450503088808308 0.00010070867608472382 0.00009958591666031652 0.00010326553549662778 0.00010450711640704255
          0.00008953551417279012 0.00009294133630618666 0.00009425518491358584 0.00009078046584430396 0.00008953987613545268 0.00009294538514787082
          0.00009425809280400429 0.00009078313507021096 0.00008955501168166825 0.00009295620258669053 0.00009426777962379651 0.00009079228201957908
          0.00010857915446011803 0.00010691555580712204 0.00011489825635882551 0.00010857781922229809 0.00010691436215991854 0.0001148975005616258
          0.00010857510327719936 0.00010691354232689322 0.00011489548215104609 0.00008377522890980698 0.0000885908264580033 0.00009044175415629903
          0.00008428629918267896 0.00008378081478447072 0.00008859567466954522 0.00009044593330356073 0.00008429194720428126 0.00008379898506195468
          0.00008860832031422706 0.0000904626482114367 0.00008430598312493732 0.00007831325218200795 0.00007831973102198033 0.00007833944418207744
          0.00012183049315205644 0.00012661419611663152 0.000121825164333891 0.00012660603491699882 0.00012180950996605952 0.00012658257551394824
          0.00011319260481329367 0.00011462271927878761 0.00011742584040620346 0.00011319172073171717 0.00011462100441495538 0.00011742355566697716
          0.00011318695451038333 0.00011461493817930923 0.00011741710698273393 0.00011488909051437278 0.0001105424478263338 0.00010643009285313155
          0.0001111465797074901 0.00011488786032677168 0.00011054302816372664 0.00010643038510392913 0.00011114605045453693 0.00011488481477158029
          0.00011054555448827618 0.00010643182338343627 0.00011114596044775625 0.00010652578716719537 0.00010676363970772086 0.00010239007116790222
          0.00010652672240986652 0.00010676492049180078 0.00010239163433749924 0.00010652896272847133 0.00010676867349518167 0.00010239548559512489
          0.00010683124296683762 0.00010932224004968118 0.00010655219975386036 0.0001068324647019933 0.00010932238513773782 0.00010655235209025823
          0.00010683546308880103 0.00010932388959719403 0.00010655347487545616 0.00010618406386689494 0.00010087466207048394 0.0000976777765310076
          0.00010163903092544777 0.0001061851607337967 0.0001008768020698263 0.0000976805153966461 0.0001016402783984283 0.00010618704958682224
          0.00010088119561423931 0.00009769014531116683 0.00010164358004647463 0.00008988122861906029 0.0000847568641837553 0.00008988547083305847
          0.0000847627578567939 0.00008989715080074389 0.00008477870140703705 0.00011651842317210258 0.00012234547037948191 0.00012219562156236702
          0.00011651479877299685 0.0001223413414171276 0.00012219080883697273 0.00011650377158887732 0.00012233028154858295 0.00012217504392716722
          0.00012605589062273916 0.00012296027805922932 0.00011840044217592634 0.00012089461099317744 0.0001260499200193372 0.0001229550695326045
          0.00011839650310038841 0.00012088947868557546 0.00012603221182508085 0.0001229400958660653 0.00011838404886218488 0.00012087567369472613
          0.0001383665366317156 0.00013512205693538747 0.00013836179845830003 0.00013511713327922208 0.00013835097739580397 0.0001351018368765271
          0.00012182720573333557 0.0001234803837353664 0.0001218255316641037 0.00012347685043792025 0.00012182011343981932 0.00012346534896065455
          0.0000749478459384753 0.00007482721743837092 0.00007495097659352266 0.00007483116764244999 0.00007495854885767542 0.0000748424159069672
          0.0001378779705246165 0.00013899390495211735 0.00013524434119891474 0.00013360836841352366 0.00013787771048598307 0.00013899172273399625
          0.00013524041518431904 0.00013359519292829088 0.00013787358482390385 0.0001389840658746691 0.0001352263828014188 0.00013355897519098491
          0.0001091075597115819 0.00011542236567809782 0.0001091061309581126 0.00011542035625218584 0.0001091019409631315 0.00011541591831433173
          0.00009131023715426329 0.0000867644794979434 0.00009131381290851437 0.00008676977157001504 0.00009132471271309444 0.00008678462640580483
          0.0000947104051789061 0.0000892190740438443 0.00009471128421599115 0.00008922130754773282 0.00009471252340438794 0.00008922941256378634
          0.0001328764636332615 0.00013287110331876978 0.00013285371746437933 0.00013432375516814573 0.00013432031303373443 0.00013431425537085021
          0.00012161502817773705 0.0001278494135358572 0.0001281768822098508 0.00012207369837796103 0.00012161561005737696 0.00012784557693949346
          0.00012817644543913417 0.00012207079117742075 0.00012161236493553168 0.00012783956836309572 0.00012817161079697412 0.00012206281851843955
          0.00011215644055101791 0.0001083767699329407 0.00010682165587849579 0.000112155564470354 0.00010837711862259582 0.0001068213644727711
          0.00011215307268757783 0.00010837745934682158 0.00010682027958029232 0.0000947408212327413 0.00009498334875866374 0.00009474320981926798
          0.00009498559978538444 0.00009475227170024259 0.00009499352556592138 0.00012775593900177682 0.00012775182101102986 0.00012773816908211524
          0.00008437778562942295 0.0000831018209402194 0.00008636139142430396 0.00008756153550567576 0.00008437888819520094 0.00008310375009168132
          0.00008636458974542943 0.00008756394103597728 0.00008438340383275751 0.00008310759840445601 0.00008637507536022746 0.00008757060809182326
          0.00011598657034934265 0.00011598540123987563 0.00011597747371273087 0.0001283084620897444 0.00012830726721060093 0.0001282995978877922
          0.00012149974895478217 0.00012149922167378378 0.00012149788872513236 0.0001281191125523832 0.00013144285822774967 0.00012811444355078004
          0.00013143829492877544 0.0001281010522066078 0.00013142277558615456 0.0001311806822944849 0.00013318735251821197 0.00013117328203552758
          0.0001331844880126151 0.00013114952269352938 0.0001331751296093912 0.00009845923239985446 0.00010006070349550954 0.00009845944897229875
          0.00010006138371903345 0.0000984553924120613 0.00010006046012071883 0.00011865957445609472 0.00012322238756790687 0.00011865711467104902
          0.00012321723777356265 0.00011864819051311016 0.00012320187163513438 0.00010320701420300656 0.000103207950603952 0.00010321010005618961
          0.00012768282647907 0.00013143762311514304 0.00012767618069403421 0.00013142703889636187 0.0001276566595139175 0.00013139045858822824
          0.00011448855861067754 0.00011752836671712804 0.00011448850725114618 0.00011752625401980926 0.00011448738206320429 0.0001175175244559176
          0.00009086117891039878 0.00009086176162399901 0.00009086288467903862 0.00010961374649532329 0.00010961154973382989 0.0001096046670800762
          0.00011174484349933995 0.00011473297967823159 0.00011174577743349647 0.00011473268592481426 0.00011174915040027174 0.00011473060066395923
          0.00009655380882315919 0.00009655357269117649 0.0000965506238229678 0.00013407893364908603 0.00013407596618072637 0.00013406787300078007
          0.00010155233009111341 0.000102761503147072 0.0001015513712383925 0.00010276147457979749 0.0001015464191310991 0.00010275867451525683
          0.000101247628716274 0.00009558779190079242 0.00010124867987635762 0.00009558926356501132 0.00010124903515657934 0.00009559312901969188
          0.00011044621253008288 0.00011079981912641964 0.00011494763143973654 0.00011044691280665846 0.00011080082719622499 0.00011494680750160927
          0.0001104472566464045 0.00011080381819741164 0.00011494348198332298 0.00008934013079599477 0.00008451463822268646 0.00008494071396277181
          0.00008994413044123361 0.0000893439570303288 0.00008452102039184425 0.00008494784883248996 0.0000899474642928399 0.00008935485908151845
          0.0000845394478185745 0.00008496715765205836 0.00008995734152946128 0.00008114908347544169 0.00008084408687538654 0.00007618468241047
          0.00007675364549316698 0.00008115360295369058 0.00008084687746441579 0.00007618853609690559 0.000076757522000594 0.00008116636403724145
          0.00008085512999856707 0.00007620125056173476 0.00007677010326757117 0.00009550657925122723 0.0000955092107441843 0.00009551475109316387
          0.00008786633869082032 0.0000832219540300703 0.00008787142044746155 0.00008322983696078926 0.00008788510114991199 0.0000832526270665134
          0.00009845950449071164 0.00009653681060237384 0.00009845857324883688 0.00009653662360614613 0.00009845689761928369 0.00009653685328892191
          0.00008657228923679022 0.00008192957296446672 0.00008657845648794479 0.00008193751759309418 0.00008659569878740158 0.00008196246200903915
          0.00007686097248308949 0.00008137910204226341 0.00007686630372765855 0.0000813861878492464 0.00007688092229827791 0.00008140696560726373
          0.0000726664617622044 0.00007291573677696247 0.00007267169899297675 0.00007292078823326417 0.00007268593738893778 0.00007293544536964587
          0.00010562649701399219 0.00010562586851946503 0.00010562158092836994 0.00011037014998477814 0.00011036867125898482 0.0001103624385182628
          0.0000905188922306191 0.00008845841230298719 0.00008558443703337013 0.00008556686941077833 0.00009052405728569099 0.00008846347485037241
          0.00008558876517228965 0.00008557271971697014 0.00009053978951594905 0.00008847939374759274 0.0000856006783272772 0.0000855901710416176
          0.00009186788910973234 0.00009735937574139647 0.00009186742142773301 0.00009735878371646085 0.00009186715690165196 0.00009735651743892304
          0.00007623320161390716 0.00007558138466481711 0.00007853775069346497 0.00007929393677370451 0.00007623356757997284 0.00007558251721297572
          0.00007853901108956788 0.00007929445715017862 0.0000762344730670055 0.00007558627079383312 0.00007854381101825446 0.00007929468429876089
          0.00007249448697888398 0.00006928144281624278 0.00006965284912196351 0.00007250001993348252 0.00006928681798261429 0.00006965911049782251
          0.0000725149102666415 0.00006930344498260159 0.0000696765091402703 0.00007652651922886595 0.00007653378615401898 0.000076554244126369
          0.00011513603710337815 0.0001191819244517191 0.00011513533694104532 0.00011917945747561726 0.00011512996276825855 0.00011916909441491845
          0.00009638149616060969 0.00009298942887813529 0.00009638421691849501 0.00009299370170604697 0.00009639098698105967 0.00009300541202980116
          0.00008594451247231783 0.00008595158162505879 0.00008597220707554653 0.00010414724008688312 0.00010414652873903311 0.00010414129210744735
          0.00007962370810325586 0.00008155927633472176 0.00007963303772896819 0.00008156795590676364 0.00007966279136464792 0.00008159519681658809
          0.00008147819276351104 0.00008236397526640705 0.0000814802915875165 0.00008236496843783078 0.00008148492664631503 0.00008236632894997824
          0.00008862620848600234 0.0000918825174382177 0.00008862811078542359 0.00009188482962198929 0.00008863289517422713 0.0000918898334019198
          0.00009522641381737923 0.0000978443197806574 0.00009867748994108526 0.00009522922030398403 0.00009784730526453345 0.00009867988312388551
          0.00009523492125813627 0.00009785650705412969 0.00009868607047667217 0.00009670097870325409 0.0000955249587006967 0.00009670478608718412
          0.00009552933257141683 0.00009671439545007036 0.00009554078053324688 0.00008017864184270582 0.00007822091290706515 0.00008018130614686007
          0.00007822469197738808 0.00008018783921068213 0.00007823557420193411 0.00010179564064830182 0.00010226345454349808 0.00010179831917002182
          0.00010226478462442116 0.00010180373842395858 0.00010226899200628388 0.0000753354098931387 0.00007534015556631865 0.00007535392279938135
          0.0001271266944373923 0.0001309782955019629 0.0001310907897936032 0.0001275391653952211 0.00012712592409839382 0.00013097348044191414
          0.0001310873973293082 0.00012753742600081565 0.0001271197758981489 0.00013096239782886697 0.0001310784335202565 0.00012753614973436538
          0.00013449704267884784 0.00013444700360613546 0.0001344951550600818 0.00013444553295658202 0.00013448840559766786 0.00013443838273103148
          0.00007697198574714834 0.00007697595199379909 0.0000769888329245311 0.0001059318068716333 0.00010593227565384783 0.00010593133842198768
          0.00009051654227512067 0.00009052208287846117 0.00009053664610401274 0.00007372503261081492 0.00007373181281047828 0.00007374819115011451
          0.00009123812019609571 0.00009124343374762002 0.00009125686974407675 0.00009485280846109129 0.0000986747551089694 0.00009485761362981667
          0.00009867826649924537 0.00009487122020726644 0.00009868862094603029 0.00009543060270960155 0.00009543529007617407 0.00009544928607633587
          0.00013674575112920386 0.00013673869962025137 0.00013671915727580763 0.00006915179371937682 0.00006915834214595175 0.00006917724169187283
          0.00010285266318558534 0.0001028544071069106 0.00010285329782912094 0.00007917646061034215 0.00007997782904831242 0.00007918335707037384
          0.0000799854045719202 0.00007920325084689353 0.00008000912854439167 0.00010286580302956026 0.00010286665140078936 0.00010286393901348208
          0.00008086260415976575 0.00008087212205794464 0.00008090167813360674 0.00009819309420610994 0.00009819731580215225 0.00009820789210013594
          0.00007729792466691266 0.00007730733278079613 0.00007733367130851587 0.000139772409603507 0.00013977152164411613 0.00013976274119807843
          0.0001385700725763112 0.00013856785768615957 0.00013856237160585623 0.00013782628315180736 0.0001377965054281959 0.00013782422364598337
          0.00013779494762151013 0.0001378169200326267 0.0001377890271886314 0.00011128618151224266 0.00010959338532608796 0.00011128634220728752
          0.00010959351663965195 0.00011128546723650261 0.00010959426267312549 0.00012725900121694783 0.0001272560324521769 0.00012724790540395085
          0.00008545852984800661 0.0000854606307198878 0.00008546411474842248 0.00009273600312664184 0.00009273631293300412 0.00009273795679755963
          0.00013808656402505338 0.00013466139518505087 0.00013808304973149084 0.00013465851202188348 0.00013807368885797227 0.0001346486807068836
          0.00011684254808087217 0.000117718249253668 0.00012040782139616487 0.00011684203051703091 0.00011771759901819824 0.00012040751660664424
          0.00011684184580244635 0.00011771262674085237 0.00012040793383848686 0.00012397282525126188 0.0001245654199106887 0.00012397217170781623
          0.00012456397455632917 0.0001239705236698684 0.00012456156060747033 0.00013117685191659344 0.00013117294624041516 0.00013115990228186367
          0.00011548653250114031 0.00011548517268190306 0.00011548162622542179 0.00011323736330455288 0.00011323751214887856 0.00011323659356172017
          0.0000923939147603878 0.00009239435284044943 0.00009239395699847005 0.0000776205055319143 0.0000776242745688198 0.00007763489285105299
          0.00006154045463510769 0.000064674809135038 0.00006154837886424869 0.00006468205439735762 0.00006156991678999218 0.00006470342731778753
          0.00011424387175478827 0.00011424331913126082 0.00011424069898966239 0.00007372704238190325 0.00007304915562759062 0.00007754741323284377
          0.0000737341129736287 0.00007305598476189148 0.00007755458535896595 0.00007375553089636402 0.00007307599631493865 0.00007756915086062144
          0.00014184024859611763 0.00013944414223302352 0.00014183853946416229 0.00013944081167741203 0.00014183142490883422 0.00013943102107140347
          0.00010358584095213613 0.00010862667906384938 0.0001035859379406243 0.00010862683993713116 0.00010358563340539657 0.00010862921204461812
          0.00013712092031828563 0.00013711618641032395 0.00013710071361195013 0.0001342314819536697 0.00014093844334150642 0.00014049970235886907
          0.00013422938307009564 0.0001409380689519631 0.00014049790639171766 0.00013422331310442066 0.0001409362659172392 0.00014049353213264329
          0.0001224814091063487 0.0001224829815568257 0.00012248778441853976 0.0000842381880317401 0.0000855685915693296 0.00008424301943772251
          0.00008557180279343237 0.00008425547776623114 0.00008558151509189132 0.00012771737025895027 0.0001285111952449606 0.0001277157600476801
          0.00012851122392500152 0.00012771173835397174 0.0001285091713714787 0.00008235865083269526 0.00008236415889907916 0.00008238351760838949
          0.00009919102949079974 0.00009919056172847548 0.00009919059467825005 0.00014083318449796756 0.00014083050671500615 0.00014082284906289806
          0.00006822453751495422 0.00006823217071435432 0.00006825546326417114 0.00007190232271412414 0.00007190994601738198 0.00007193245677143413
          0.00013371966553447573 0.00013372030379730016 0.0001337185872351936 0.0000757501150950578 0.0000746221366139429 0.00007575800768278852
          0.00007462992549116354 0.00007578194327876487 0.00007465399433435778 0.000142146534511818 0.0001416622107352263 0.00014214511448960396
          0.00014166034815964903 0.00014214296251858753 0.00014165440305411592 0.00014401120284821393 0.0001440105388161503 0.00014400910794049284
          0.00014096628150241398 0.0001410215414883564 0.00014095982192554305 0.00014101805115233605 0.00014095069403977054 0.00014100720666956288
          0.00009350440848926628 0.00009350514706521258 0.00009350562965086234 0.00014568357050518497 0.00014707245043662443 0.00014568293863130715
          0.00014707173280093408 0.00014568155618349457 0.00014706869481050366 0.00008785472996093526 0.00008865742726122708 0.00008785531115976545
          0.00008865820654657955 0.00008785756651334326 0.00008866039171448837 0.0001411853023991276 0.0001411832476460062 0.00014117287881942067
          0.00008103633865454341 0.00008104251312458228 0.00008106190681473653 0.00014301352747727485 0.00014301380250409377 0.00014300956409752844
          0.00014416097302732235 0.0001441591463184846 0.00014415110441459068 0.00008663738738459112 0.00008663914963765423 0.00008664205970246125
          0.00008737449687763784 0.00008737491327750543 0.00008737567350006083
        </DataArray>
        <DataArray type="Float64" Name="disp_y" format="ascii" RangeMin="-0.00006324582507144367" RangeMax="-0.000017996490259507113">
          -0.000056987977378400694 -0.000054825822758877254 -0.0000530923203086736 -0.000054325724761819684 -0.00005699388684810143 -0.00005483125319325026
          -0.00005309683157090532 -0.00005432960785744361 -0.000057011167596636154 -0.000054848649870575174 -0.00005311321333162289 -0.000054340859134446166
          -0.000043585780288685956 -0.000042153366176444175 -0.000040474372772803943 -0.0000416025887114652 -0.000043588380187098976 -0.00004215526241735616
          -0.00004047624739117847 -0.000041604632920916466 -0.00004359669524599529 -0.00004216118976050232 -0.00004048166759605786 -0.000041611338173234104
          -0.000039427100636135087 -0.00003942898863294197 -0.000039435519353369946 -0.00004097487117690077 -0.00004097662339776044 -0.00004098161226111317
          -0.00005095560642995807 -0.00005200488532374911 -0.00005095775043595547 -0.000052007300012944465 -0.00005096434293613977 -0.00005201456798364552
          -0.00004246808803187534 -0.000039574222594676236 -0.00003890703462730163 -0.00004088335351043665 -0.00004246902104219528 -0.000039574489375127584
          -0.00003890709242772628 -0.000040883624666499586 -0.000042471712584837085 -0.00003957556446879919 -0.00003890785847249824 -0.00004088474686596546
          -0.00005909505472326916 -0.00005728128272158512 -0.00005748088159986306 -0.00005924055700990284 -0.00005910121353471425 -0.000057286811249143186
          -0.00005748670622866544 -0.000059247448115813245 -0.000059118359597037144 -0.00005730424171537094 -0.00005750591074679986 -0.000059265153464992446
          -0.000056446305853945226 -0.000057570447152896815 -0.00005921625005866813 -0.00005788945515870783 -0.00005645086848965752 -0.00005757578818961887
          -0.00005922308049220232 -0.00005789466278502773 -0.00005646467050551495 -0.000057591511162597104 -0.00005924461462080994 -0.0000579111429268032
          -0.00002672605151219667 -0.00002395040713826818 -0.00002644415252903389 -0.000026724810204062498 -0.00002394961952802491 -0.000026443990793749258
          -0.000026720916356308106 -0.000023947204213432622 -0.000026444805651635757 -0.00003600108337548957 -0.00003668199304637274 -0.0000389925196238928
          -0.000038854896602603066 -0.000036002886160401344 -0.000036682936715581314 -0.00003899425737932886 -0.00003885606670240341 -0.000036006657169122296
          -0.000036688890267668333 -0.00003899925486464605 -0.0000388604261607422 -0.000036331242195969485 -0.000036332760957372984 -0.00003633545391239732
          -0.000051606353861267965 -0.000049593027619135804 -0.00005161052701339082 -0.00004959565174403335 -0.00005162240564413755 -0.000049605294134117965
          -0.000059626707090623854 -0.00005764758147386863 -0.00005954250700667393 -0.00005963407243321842 -0.000057654058405292234 -0.00005954937953053228
          -0.0000596540714830412 -0.00005767625370984523 -0.00005956859885690195 -0.000048909109709310364 -0.00005083940127460726 -0.0000491274566335843
          -0.000047470859011852465 -0.00004891148433668626 -0.00005084215003637779 -0.000049130128505833286 -0.00004747311826341651 -0.00004891939959747749
          -0.00005085128678351284 -0.000049138777067051604 -0.000047480168096603083 -0.000055631785176215654 -0.00005749705061805796 -0.000055660651816187605
          -0.00005563704731230195 -0.00005750290699676922 -0.000055666515648176385 -0.0000556523273652899 -0.000057522407222084696 -0.00005568451321692955
          -0.00005876197149706473 -0.00005934704701100101 -0.00006106754779221306 -0.00005876887522615716 -0.00005935404569056207 -0.00006107562384349755
          -0.0000587882842898849 -0.0000593737425483188 -0.00006109971783169959 -0.00005310496695604831 -0.00005382585974378771 -0.00005201497805259172
          -0.000050671640884175905 -0.000053109133153636835 -0.00005383083250598641 -0.00005201884843155545 -0.00005067507853028816 -0.00005312081354826865
          -0.000053843876163691105 -0.000052030268548485995 -0.00005068472886434846 -0.00004189765876334432 -0.00004133369225586991 -0.00004190014181550779
          -0.0000413359893112951 -0.000041905615448816794 -0.000041340976222737644 -0.00003600157120491972 -0.00003623699286970195 -0.000039066675872666646
          -0.00003600202684631264 -0.00003623787799265435 -0.000039067266221513385 -0.00003600242956072218 -0.000036240659400332716 -0.00003906866918170472
          -0.00004246068438774708 -0.000044798742654876466 -0.00004371368523794956 -0.00004154019617073291 -0.000042461133750500366 -0.000044798808749201
          -0.00004371433523079512 -0.000041540354542293255 -0.00004246275858784889 -0.00004479981723925915 -0.00004371598580509075 -0.00004153964821767634
          -0.00005187563146962352 -0.00005269111893405747 -0.00005187634143220842 -0.000052691488089861674 -0.0000518764324059435 -0.00005269257246476022
          -0.000059354769632770134 -0.000057229427787680913 -0.00005936085244327919 -0.000057233612423236383 -0.000059377876274059435 -0.000057248620031266616
          -0.000048974655992031226 -0.00004869990632648137 -0.000048975246754123425 -0.00004870098207176067 -0.000048976012218397294 -0.00004870372114567
          -0.00004685049997465029 -0.00004800189964313993 -0.000049764604187843677 -0.00004870013086249614 -0.000046853255380464185 -0.00004800444496399861
          -0.00004976720970744507 -0.000048703667325528906 -0.000046863650368104906 -0.00004800909943998579 -0.00004976996662642201 -0.000048714526824684695
          -0.000029827168846643736 -0.000029711005054725356 -0.00002982614932584796 -0.00002971080558831512 -0.000029822080973954094 -0.000029709551790491835
          -0.000035102384794311354 -0.000033740438682967345 -0.000035102829690085214 -0.00003374180780341355 -0.00003510475788545959 -0.00003374577005823724
          -0.00003249636256651912 -0.00003137723846465802 -0.000032496218442722815 -0.000031377837599838664 -0.00003249429114815608 -0.000031377901787043776
          -0.00005259554444352268 -0.00005259644665552027 -0.00005259895458865312 -0.000034117406878040075 -0.00003411994820104632 -0.00003412632353462263
          -0.000029827143646027728 -0.000030324090687094667 -0.00003358608902380787 -0.00003300755231731572 -0.000029827843882344067 -0.000030325768686821943
          -0.000033588124129740094 -0.00003300906112137572 -0.000029830772035118514 -0.00003033113832333053 -0.00003359416883067897 -0.000033013640631254836
          -0.00004474184157686128 -0.0000456998652886595 -0.000043438120038130945 -0.00004474377007876093 -0.00004570227744462138 -0.00004344009772845125
          -0.00004474883473472714 -0.00004570896666612339 -0.000043446584865976786 -0.00004032365017509523 -0.00004232511043023552 -0.00004032520699682494
          -0.00004232767758899166 -0.00004033024129349584 -0.00004233840396528455 -0.00003982844913250658 -0.00003983001526296106 -0.00003983435619055833
          -0.0000548240189266992 -0.00005357125035272435 -0.000055109609418321156 -0.00005642985889601927 -0.00005482728743659152 -0.000053574071608892575
          -0.00005511317705977372 -0.00005643387175275271 -0.00005483715406970227 -0.000053583055379569655 -0.00005512351652881347 -0.000056444640470001616
          -0.000032821425410833394 -0.0000328217621437048 -0.00003282230857877043 -0.00003685088451487067 -0.0000368531766955553 -0.00003685938531763668
          -0.000026729879841934513 -0.000026730339553781746 -0.00002673103816321693 -0.00005535788929282574 -0.000054606217786891696 -0.00005536059739293896
          -0.000054607910361676824 -0.00005536718228983285 -0.0000546134935615392 -0.00004347416585130789 -0.00004061003625619724 -0.00004347621516954458
          -0.00004061247439018281 -0.00004348004999370694 -0.00004062077601891269 -0.000039317439544481565 -0.00004189030743802064 -0.00003931898424122812
          -0.00004189325316643104 -0.000039322547166850214 -0.00004190244028748433 -0.000050228527376353546 -0.00004819379725793453 -0.00005023137821321445
          -0.000048195931660729536 -0.000050238631362199815 -0.00004820240251409959 -0.000046912257354438684 -0.00004691577101880526 -0.00004692479681972997
          -0.00004596203709220362 -0.000047363907439550145 -0.000045963680588521074 -0.00004736795754205705 -0.00004596605005015821 -0.00004737960404774307
          -0.00005209863390784252 -0.000053308946936240106 -0.00005210206839473551 -0.00005331374868333768 -0.00005211117382190193 -0.000053326325461939345
          -0.000028786240694455237 -0.000028785163314646213 -0.00002878164048294443 -0.0000331969425827817 -0.00003319643589424314 -0.00003319487233350267
          -0.00005387942566741051 -0.00005432991330646074 -0.00005388417917518192 -0.00005433523114192946 -0.00005389729064532256 -0.00005434899405533071
          -0.00002952931236061393 -0.000029528133628175978 -0.000029523349855896842 -0.000037437434150449316 -0.00003744060385306091 -0.000037451408515648885
          -0.00003403492353877478 -0.000029984223795437415 -0.00003403445255625512 -0.000029982802698102172 -0.000034032527868587866 -0.000029977957821537075
          -0.00004450467026312453 -0.00004489601638559527 -0.00004450827089152238 -0.00004489990567397738 -0.000044518365548781054 -0.000044911136406283984
          -0.000057663124573298197 -0.00005577812653470953 -0.0000557282105188773 -0.0000576699630682256 -0.00005578430876025464 -0.00005573447093707665
          -0.000057689379360639415 -0.000055801073878466146 -0.00005575464456652339 -0.00004666877278547974 -0.000045416233891703985 -0.000043573677664635965
          -0.00004442237023136636 -0.000046672908736590415 -0.00004542014475983189 -0.00004357660342903112 -0.00004442564665553425 -0.000046686940664124325
          -0.000045432160305778724 -0.00004358510459010981 -0.00004443465811805371 -0.00005053668779218356 -0.00005158863859466579 -0.00004873028954174503
          -0.000048230512402208084 -0.00005053994372424311 -0.00005159114351287987 -0.00004873221764516915 -0.00004823305127357556 -0.000050549183484030067
          -0.00005159876302034774 -0.00004873838439171784 -0.000048240549932620044 -0.0000369469842454259 -0.000036948721820300586 -0.00003695119861686733
          -0.0000485215372556216 -0.00004681207139563384 -0.00004852635680679171 -0.00004681657834414794 -0.00004854023807160335 -0.00004682941037925558
          -0.0000235080499339241 -0.00002126936247736925 -0.000023505778393249463 -0.000021267429919511895 -0.00002350066488520771 -0.000021261982356284587
          -0.00005004979026403874 -0.000048065162051177864 -0.00005005481144779184 -0.000048070041212150424 -0.00005006927457616967 -0.000048084775705170727
          -0.00004717486439542124 -0.00004936420183980549 -0.00004717796004710348 -0.00004936891762893267 -0.00004718679672801012 -0.000049381754792327354
          -0.00004518913101117607 -0.00004615566593620153 -0.00004519193073377271 -0.00004615808687467437 -0.0000451998038474536 -0.00004616547580117274
          -0.00004071894437451309 -0.00004072061653503947 -0.00004072400571612324 -0.000036550274697135726 -0.00003655074763500891 -0.00003655149625262939
          -0.00005526635581208207 -0.00005522717439607794 -0.000053853811851794126 -0.00005275824619622861 -0.00005527111921692085 -0.00005523167026064082
          -0.00005385781569405893 -0.000052762994055370544 -0.00005528492346771744 -0.00005524396729962151 -0.00005386995792897526 -0.00005277705672010541
          -0.000026091287168235092 -0.00002661713814036502 -0.000026089553168874852 -0.000026615648223117807 -0.000026083305242319547 -0.000026609970202721756
          -0.00005009848439204169 -0.00004954271416327494 -0.00005142292169576805 -0.00005206461542416481 -0.000050097450326677124 -0.00004954239456405059
          -0.00005142407922722347 -0.00005206507748375735 -0.00005009432135157347 -0.00004954100922964431 -0.00005142732772428417 -0.000052067512094037966
          -0.00004653056710627371 -0.00004458619336577698 -0.00004435989826340438 -0.00004653266061537751 -0.00004458751173151067 -0.00004436184186199472
          -0.000046538737748544086 -0.000044591974546936734 -0.00004436827604017295 -0.00004537782061898485 -0.00004538112384959589 -0.000045390261961894394
          -0.00004567888420351102 -0.00004694975244700123 -0.00004568085849732729 -0.000046951421710177376 -0.00004568534583886947 -0.00004695557960444251
          -0.000048052446945808664 -0.00005022738436812042 -0.000048056503953341015 -0.000050231755549240435 -0.000048067739586498854 -0.00005024411473021084
          -0.0000514875439220982 -0.00005149296420723629 -0.00005150867079602877 -0.000037715263148850957 -0.00003771602744778624 -0.00003771767222256663
          -0.0000449352424543553 -0.00004448049799790689 -0.00004493886533471693 -0.00004448464916145418 -0.000044947157148397134 -0.00004449648857031838
          -0.000053209593981984277 -0.00005400346643978239 -0.0000532126387968201 -0.000054006339348600534 -0.00005322175542904735 -0.00005401525041030909
          -0.00005758091167154411 -0.00005918691538973041 -0.000057585406361799385 -0.00005919318177628737 -0.000057599126622474186 -0.000059211119275049885
          -0.000060606167989652485 -0.000060235053516521355 -0.00006176776896920188 -0.00006061471419726026 -0.000060242807509013775 -0.00006177686295484155
          -0.0000606401873346576 -0.000060265898353486733 -0.0000618067618429151 -0.000058473424944131364 -0.000056587480755109664 -0.00005847982158604453
          -0.00005659310227816235 -0.00005849644963491686 -0.00005661000540460305 -0.000052105476507799686 -0.000050632437896400604 -0.00005210792138110843
          -0.00005063441743993557 -0.00005211559595233413 -0.000050638645835997764 -0.000060935283361033224 -0.00006261852872627778 -0.000060943853919341306
          -0.0000626288226261886 -0.00006096947227835088 -0.00006266211465103231 -0.000048722895629214414 -0.000048724536336360845 -0.00004872808267698497
          -0.0000580624198682957 -0.00005648750920205056 -0.000057227724470197815 -0.000058758867697783405 -0.00005806574461397551 -0.00005648964634247568
          -0.000057228990877390286 -0.00005876103232997516 -0.00005807472834521028 -0.00005649478093308965 -0.00005723309975016816 -0.00005876962673416479
          -0.00005568754546182264 -0.00005499397082667249 -0.00005568840676381786 -0.00005499471124657583 -0.0000556905306516737 -0.00005499633518039957
          -0.00005005212529477732 -0.00005005380554474118 -0.00005005819023311398 -0.00006309036477574437 -0.00006310104803007049 -0.00006313333655577597
          -0.000053358736245898536 -0.00005336390309345826 -0.00005337918931278656 -0.00004253015969754125 -0.00004253364253748801 -0.00004254318079361511
          -0.000051788437307317765 -0.000051793722548432765 -0.00005180838551822875 -0.00005475257676670702 -0.00005549333256559276 -0.00005475854875049714
          -0.00005549915525158618 -0.000054775501863822726 -0.000055517339775365 -0.00005325403940042352 -0.00005325946214144403 -0.000053273945747273176
          -0.00004463860212333456 -0.000044643329064265073 -0.00004465870422016668 -0.000043519407214324795 -0.00004352189370224608 -0.00004352753657282816
          -0.000024843810925868443 -0.000024842850708937804 -0.000024839041121801257 -0.00003863598817947918 -0.0000409478917920565 -0.00003863811416623689
          -0.00004095102489956512 -0.00003864416862141928 -0.000040960334147221056 -0.000026907945811065967 -0.00002690683688992999 -0.000026902230987969482
          -0.00004303912038796591 -0.0000430435850592947 -0.0000430540586604278 -0.00005418020470353085 -0.0000541859161656251 -0.000054200721776506716
          -0.000042884895785306187 -0.00004288842327326353 -0.000042899328779464676 -0.00003762601991585178 -0.000037629669680248547 -0.000037639826309632903
          -0.000040891475382379415 -0.000040896187520916 -0.000040910553175404646 -0.00005346359549147574 -0.00005412831358869422 -0.00005346406393886677
          -0.00005412759133344404 -0.00005346525546031265 -0.00005412823458070604 -0.0000614690048916004 -0.0000631948695810071 -0.00006147828821601515
          -0.00006320661858304482 -0.00006150702205716518 -0.00006324582507144367 -0.000057090586938146154 -0.000057093816930900616 -0.00005710370303888762
          -0.00005585105931501811 -0.000055855284059535876 -0.00005586727112416278 -0.000020974181104085968 -0.000020971805125645952 -0.000020965168658967814
          -0.000052621810070015085 -0.00005406918381990516 -0.000052621887963926865 -0.00005406935673115 -0.00005262307566258774 -0.000054071520439836
          -0.00006230838712797161 -0.00006115073995678643 -0.0000613383503129265 -0.00006231836284283618 -0.00006115902526429322 -0.0000613456580561105
          -0.00006235582422913741 -0.0000611861079732917 -0.00006136484003729911 -0.000060177927777209296 -0.00005920563633407123 -0.00006018385103727946
          -0.00005921134318542992 -0.000060208849930352054 -0.00005922736166876762 -0.000055520825498550745 -0.000055522689583093814 -0.000055529151000067264
          -0.00006129802763316937 -0.00006130736008043338 -0.00006133267770220872 -0.00006288913921145987 -0.00006290005204548166 -0.00006293292748083107
          -0.000023433968984978174 -0.000023432353866590095 -0.000023426344824179063 -0.00005064374459613077 -0.00005064561494768829 -0.00005064952920386953
          -0.000037801240584788534 -0.00003865913589879026 -0.00003780341267021069 -0.000038660974505139106 -0.00003780900255519774 -0.00003866592160832118
          -0.000022717047758160483 -0.000022716156852099367 -0.000022714093126665538 -0.00003628699898354206 -0.00003415478209918248 -0.00003415892772939238
          -0.00003628880751337257 -0.000034156632920724094 -0.00003416084036757558 -0.000036296018015542 -0.00003416009662323197 -0.00003416564865976492
          -0.000050075001468730076 -0.000050353186962408626 -0.00005007601999737893 -0.000050354478847071105 -0.00005007915791767599 -0.00005035682160445191
          -0.000021590053137602654 -0.000019909333764977592 -0.00002158857208762307 -0.000019909036909862352 -0.000021584447074058135 -0.000019906982640442674
          -0.00005037501018311488 -0.000050375496679562914 -0.0000503785891975101 -0.00003073329442664113 -0.000030832345497236274 -0.00003431156874993435
          -0.000030735679041307175 -0.00003083433774951094 -0.000034315474070845574 -0.000030743043789533415 -0.00003084080358778391 -0.00003432611411055192
          -0.000023830824073104003 -0.00002383059632448975 -0.00002382983075060095 -0.00003052864695594314 -0.000028167852869595852 -0.000030529811752465416
          -0.00002816768800729483 -0.00003053379220816456 -0.00002816628930475822 -0.000027339124890004283 -0.000024774244190313353 -0.000027340075799060885
          -0.00002477405164571252 -0.000027341682735499654 -0.000024775103039701533 -0.00003268917565188466 -0.0000326905368618098 -0.000032698099425668644
          -0.00001927466527010492 -0.00001927241970118589 -0.000019264784206949124 -0.000048380852678878664 -0.00004838348215083968 -0.000048392803818041114
          -0.00003956051363141637 -0.00003956296416228659 -0.000039569597385221856 -0.00004025720245623354 -0.00004026079551183963 -0.000040271434653161175
          -0.000027591190297441237 -0.000027592976669772685 -0.000027599224761740115 -0.00004066258858403674 -0.00003843692742695254 -0.00004066621039059867
          -0.00003844009688123293 -0.00004067965254477682 -0.000038448996616747376 -0.00004541211459454874 -0.00004668855060329807 -0.000045417333802039994
          -0.00004669152741198262 -0.000045432432004680755 -0.00004670427963209705 -0.000046353695345647165 -0.00004635734363883721 -0.00004636828525466423
          -0.00005258771262605566 -0.00005197348574564985 -0.00005258907487094236 -0.00005197343414580348 -0.000052589447408197046 -0.000051972185216216946
          -0.000018673126833914904 -0.000018670649568956287 -0.000018662300799094446 -0.00003738768094424175 -0.00003406972899052419 -0.00003739182174602038
          -0.00003407360248815827 -0.00003740288292340311 -0.000034086652814969046 -0.00002058806108982711 -0.00001800607136546309 -0.00002058562897390101
          -0.000018003678377355975 -0.00002057851667340211 -0.000017996490259507113 -0.00005124437410604103 -0.00005124419951377358 -0.00005124246321414405
          -0.000034188668971795147 -0.00003419066121036493 -0.00003419571169067806 -0.00004321053930594534 -0.00004321672040988093 -0.00004323430993162177
          -0.00004048598135119407 -0.00004049016818034617 -0.00004050497068533391 -0.000025652378284689117 -0.000025651401022749773 -0.000025646885123528418
          -0.000023125834856187074 -0.00002312370821393581 -0.000023117103891909228
        </DataArray>
        <DataArray type="Float64" Name="disp_z" format="ascii" RangeMin="-0.000001653259056022525" RangeMax="0">
          0 0 0 0 -6.036233757502953e-7 -6.666241879820986e-7
          -6.453759924336434e-7 -5.825162680763566e-7 -0.000001206509199901562 -0.0000013311896039542565 -0.000001289719238409698 -0.0000011642497697345504
          0 0 0 0 -5.141317506969965e-7 -4.7462386558283616e-7
          -4.841832819659145e-7 -5.338475769699557e-7 -0.0000010281312904417545 -9.482251501329499e-7 -9.678880023855908e-7 -0.000001067010196615675
          0 -4.337527708340167e-7 -8.678754661346693e-7 0 -4.28578168352877e-7 -8.579264274475326e-7
          0 0 -6.117646590951604e-7 -5.565323281112982e-7 -0.0000012207722638255055 -0.0000011145700555755553
          0 0 0 0 -7.818863593863513e-7 -7.917022976680961e-7
          -7.734130976930879e-7 -7.65567129006104e-7 -0.0000015622344405635508 -0.0000015825068632317134 -0.000001545570827499867 -0.000001529501337103224
          0 0 0 0 -5.791277304694856e-7 -6.091690414732394e-7
          -6.235361674111785e-7 -5.898276806198841e-7 -0.0000011565834709890542 -0.000001217976110312853 -0.000001246709396759863 -0.0000011791056719601544
          0 0 0 0 -4.991994588143619e-7 -5.310561313645622e-7
          -4.926413073897428e-7 -4.6793287858798713e-7 -9.98169602275774e-7 -0.0000010611787967236787 -9.845348679912924e-7 -9.357138772208224e-7
          0 0 0 -7.766620449820734e-7 -7.719000983310007e-7 -7.757822437440145e-7
          -0.000001553513693010262 -0.0000015429339707828004 -0.0000015516222678618273 0 0 0
          0 -7.567556362122521e-7 -7.795712843568135e-7 -7.779808594585488e-7 -7.410018756296583e-7 -0.0000015133927413132637
          -0.0000015575887439522254 -0.000001555276072727837 -0.0000014816805566529907 0 -7.069870311786303e-7 -0.0000014136714316102217
          0 0 -6.987660336063514e-7 -6.759391810514658e-7 -0.000001394995981467725 -0.0000013496879556908026
          0 0 0 -5.873030381433277e-7 -6.269365475767499e-7 -5.594581441093495e-7
          -0.0000011729114673903469 -0.0000012528799977314274 -0.000001118214249608499 0 0 0
          0 -7.490788141634324e-7 -7.294345803889473e-7 -7.416021001011731e-7 -7.602747748965521e-7 -0.000001496622384496148
          -0.0000014581814785926042 -0.0000014829056915742178 -0.0000015197010930004596 0 0 0
          -6.678268206681091e-7 -6.350156148961272e-7 -6.63282129813863e-7 -0.000001335160374389315 -0.0000012696902764090773 -0.0000013248911558241059
          0 0 0 -5.98747241271302e-7 -6.029650475863314e-7 -5.60676892956568e-7
          -0.0000011961312917875716 -0.0000012047982359188088 -0.0000011196434856121174 0 0 0
          0 -7.024334009995252e-7 -6.889736407726244e-7 -6.945312396454545e-7 -7.23775073845563e-7 -0.0000014044350842855196
          -0.0000013757211253880161 -0.000001387385518740927 -0.0000014466606739160469 0 0 -7.580800887992036e-7
          -7.374724670050099e-7 -0.0000015151102744961916 -0.000001473435017370397 0 0 0
          -7.749031507828148e-7 -7.448081404208217e-7 -7.400575799921866e-7 -0.000001548729485426894 -0.0000014906745535200074 -0.0000014800609202458457
          0 0 0 0 -7.167853127394394e-7 -7.29329873294556e-7
          -7.605465775136e-7 -7.462724258897662e-7 -0.000001432973169182651 -0.0000014575808644459695 -0.0000015194171884719696 -0.0000014922260556942882
          0 0 -4.52392713887589e-7 -4.801598071966349e-7 -9.067124064281735e-7 -9.600452977689609e-7
          0 0 -5.238927297872319e-7 -5.700045420810586e-7 -0.000001046458641935093 -0.0000011400350502342378
          0 0 -4.049185581659378e-7 -4.158852039957156e-7 -8.106808274163561e-7 -8.323900325113485e-7
          0 0 0 0 -5.091424973562497e-7 -5.006664184588179e-7
          -5.154588818581777e-7 -5.367316125330866e-7 -0.0000010199084629161758 -0.0000010035164972238314 -0.0000010332703391546047 -0.0000010819679447167825
          0 0 -7.899799375633021e-7 -7.808380645193362e-7 -0.0000015790209194596164 -0.0000015622292333423727
          0 0 -8.056449538055801e-7 -7.921364196718121e-7 -0.0000016094033249831194 -0.000001583189838265714
          0 0 -8.179870635035557e-7 -8.059826852341278e-7 -0.0000016339198104790406 -0.0000016099083295535899
          0 -5.180110714675252e-7 -0.0000010365069096043319 0 -7.245295585408157e-7 -0.0000014481067298506562
          0 0 0 0 -7.718995507635102e-7 -7.605321711318252e-7
          -7.388471260573499e-7 -7.562273995340213e-7 -0.0000015429635576307949 -0.0000015197906807491582 -0.0000014778220176498627 -0.0000015130416806131176
          0 0 0 -7.738227450046238e-7 -7.665472755393979e-7 -7.826202916320957e-7
          -0.0000015465115492869722 -0.0000015323591980398573 -0.0000015644289015306152 0 0 -8.21382649260271e-7
          -7.880031471668296e-7 -0.0000016396109769827367 -0.0000015735807360407807 0 -7.050178257232073e-7 -0.0000014112149329624398
          0 0 0 0 -4.354269864592264e-7 -4.537861777067236e-7
          -4.6496241337073e-7 -4.4857168378138283e-7 -8.708527710579291e-7 -9.076205339445932e-7 -9.308602205182683e-7 -8.976059630127373e-7
          0 -7.787334451035012e-7 -0.0000015567327178280559 0 -7.22316570450405e-7 -0.000001445300499934681
          0 -7.791097625579831e-7 -0.000001557258417264725 0 0 -5.432996429777085e-7
          -5.165415779832291e-7 -0.0000010860383608107654 -0.0000010339962138208856 0 0 -6.631772719755345e-7
          -6.642769342928085e-7 -0.0000013255388204316006 -0.0000013302492707147713 0 0 -8.183873326617936e-7
          -8.025861223404504e-7 -0.0000016341777394175072 -0.0000016035677742864638 0 0 -7.28682543439906e-7
          -7.155949833900703e-7 -0.0000014553082322662992 -0.0000014289331641607216 0 -7.561235448051848e-7 -0.0000015118764824034212
          0 0 -6.970978028017267e-7 -6.352786422380485e-7 -0.0000013919083157702712 -0.00000126923964084703
          0 0 -7.248351775917898e-7 -7.046406911718273e-7 -0.000001447573674980607 -0.0000014056515513401234
          0 -8.057867686983677e-7 -0.0000016096601788309906 0 -7.990006978272377e-7 -0.0000015975121939776815
          0 0 -7.021300948189824e-7 -7.035329982652779e-7 -0.0000014028120364647396 -0.0000014044783328008678
          0 -8.038590437738434e-7 -0.0000016071653907561936 0 -7.003262905002434e-7 -0.0000014003164947744019
          0 0 -8.152884601139737e-7 -7.974945388339147e-7 -0.000001629182822868256 -0.0000015946349811133676
          0 0 -7.725213905715396e-7 -7.646988849266685e-7 -0.0000015446109615435737 -0.0000015288109221311585
          0 0 0 -6.406776641741031e-7 -6.711031951207465e-7 -6.782273245916319e-7
          -0.0000012801657979824142 -0.0000013410654698671281 -0.0000013534347254812855 0 0 0
          0 -7.13367091377155e-7 -6.945812690056563e-7 -7.23232501226721e-7 -7.493636515075368e-7 -0.0000014254246478368689
          -0.0000013862712417750918 -0.0000014433126657325674 -0.0000014965513618533345 0 0 0
          0 -5.104707452983957e-7 -4.781336758826674e-7 -4.628421211184598e-7 -4.927225959924001e-7 -0.0000010222046732142206
          -9.56217686393131e-7 -9.251052532011443e-7 -9.857255550195957e-7 0 -8.279521068232689e-7 -0.000001653259056022525
          0 0 -6.718690025839949e-7 -6.555263862002364e-7 -0.0000013425777589113514 -0.0000013087526374392767
          0 0 -7.755948561663048e-7 -7.700546359466121e-7 -0.000001551114848796695 -0.0000015390045503852975
          0 0 -6.308563073102572e-7 -6.010441059317735e-7 -0.0000012600775969160514 -0.0000012018242659705906
          0 0 -5.174402733075196e-7 -5.452701137210221e-7 -0.0000010357078984451418 -0.0000010918242755239447
          0 0 -4.96104761230421e-7 -4.6941833008276693e-7 -9.920048262043386e-7 -9.382126161075255e-7
          0 -7.955445289647901e-7 -0.000001590264846902848 0 -7.954950508511207e-7 -0.0000015901610582010424
          0 0 0 0 -5.561429842510242e-7 -5.153052763647711e-7
          -4.959278899823767e-7 -5.29503958800851e-7 -0.0000011119586688329003 -0.0000010311964935597203 -9.933413288948766e-7 -0.0000010598378385421536
          0 0 -7.901963676170402e-7 -7.916510262184849e-7 -0.0000015796365846731233 -0.0000015831176963329902
          0 0 0 0 -4.057634115667896e-7 -4.0237679854039406e-7
          -4.13468527112258e-7 -4.057296648506344e-7 -8.116196388012298e-7 -8.049088799498469e-7 -8.272417952065029e-7 -8.113178569428106e-7
          0 0 0 -4.430240445896554e-7 -4.209353241865111e-7 -4.472127968525757e-7
          -8.862187146619287e-7 -8.422862928573276e-7 -8.941085070745925e-7 0 -5.565399967625916e-7 -0.0000011144409194535884
          0 0 -7.675289864135491e-7 -7.474339424418035e-7 -0.0000015332998090733448 -0.0000014930324970451102
          0 0 -7.297740206435234e-7 -6.860964533375205e-7 -0.0000014588324173786598 -0.0000013716733143394585
          0 -5.835708609252451e-7 -0.000001166591252333132 0 -8.021210119681888e-7 -0.0000016037325344322547
          0 0 -6.185912162477195e-7 -6.703748007148201e-7 -0.0000012376233815768741 -0.0000013394745371325769
          0 0 -4.250528141744538e-7 -4.0529497777318544e-7 -8.497167859888125e-7 -8.107948106002461e-7
          0 0 -4.2078501930260335e-7 -4.3140898392600303e-7 -8.408969048864121e-7 -8.626343625105571e-7
          0 0 0 -4.413409088061017e-7 -5.175290790476082e-7 -4.561478715056038e-7
          -8.819000516094384e-7 -0.0000010338809753877193 -9.108706836021575e-7 0 0 -5.509165086400623e-7
          -5.852124814513969e-7 -0.000001100578783363164 -0.000001169926199059071 0 0 -4.461079788458601e-7
          -4.533847454860527e-7 -8.908871494857635e-7 -9.059612463506138e-7 0 0 -5.421836509840819e-7
          -4.6918274676348985e-7 -0.0000010826007143118712 -9.358620717216693e-7 0 -4.3628276508667165e-7 -8.726367684613736e-7
          0 0 0 0 -4.984621192168148e-7 -4.792535580172244e-7
          -4.634108280411593e-7 -4.754934696849475e-7 -9.949312344936101e-7 -9.596342673507934e-7 -9.271429797375782e-7 -9.493847456516803e-7
          0 0 -4.449696350247554e-7 -4.561500540141321e-7 -8.906429923514234e-7 -9.131466438217513e-7
          0 -4.3130774788164874e-7 -8.621545396520883e-7 0 -4.768100869430894e-7 -9.520996541732614e-7
          0 -6.044737604008688e-7 -0.0000012084145496383923 0 -5.671363605334717e-7 -0.0000011355548025907713
          0 -6.441457700478591e-7 -0.0000012877787385109247 0 0 -6.200445838371349e-7
          -6.449335414779893e-7 -0.0000012396565153407945 -0.000001288263702877877 0 -6.571467347376679e-7 -0.0000013130443677970585
          0 -5.817452448418612e-7 -0.0000011664199365113918 0 -4.655298518543433e-7 -9.303152932801657e-7
          0 -7.787734809019087e-7 -0.0000015574362028076088 0 0 -7.079502917058447e-7
          -6.907288178191959e-7 -0.0000014141050820882837 -0.000001380117491071879 0 -7.874671083259759e-7 -0.0000015746610368859516
          0 -6.772711465201591e-7 -0.0000013534449213883358 0 -6.72342071634801e-7 -0.0000013429024776804943
          0 -6.040448648118394e-7 -0.0000012101887230710978 0 -6.724421042332492e-7 -0.0000013451668752403205
          0 -6.454865879328135e-7 -0.0000012908153513145746 0 0 -4.395205527551052e-7
          -4.308232382693601e-7 -8.786741029152318e-7 -8.607234175565653e-7 0 0 -5.491778412718121e-7
          -4.6718958386174793e-7 -0.0000010968424858667636 -9.320429577292333e-7 0 -5.156402742941275e-7 -0.0000010300044024894014
          0 -4.107174263365731e-7 -8.211792785952182e-7 0 -7.624881461829243e-7 -0.000001524420324374917
          0 0 -4.4764356639694385e-7 -4.652240346745935e-7 -8.95163466329106e-7 -9.299361928196821e-7
          0 0 0 -4.655996414767244e-7 -5.2512653085032e-7 -4.748604365816268e-7
          -9.268487999850085e-7 -0.000001050835963199028 -9.502870013095935e-7 0 0 -4.706183473402592e-7
          -5.098432829254358e-7 -9.372346433874052e-7 -0.000001020650233805889 0 -4.948233094622297e-7 -9.892463284269003e-7
          0 -5.300140384878287e-7 -0.0000010580595826197283 0 -4.7404958760122073e-7 -9.469471447135409e-7
          0 -7.766877939813265e-7 -0.0000015528397890966083 0 -4.2260670898835306e-7 -8.449621942728626e-7
          0 0 -4.405939613587725e-7 -4.833388400709625e-7 -8.807396653798989e-7 -9.668572530560404e-7
          0 -7.732978716049944e-7 -0.0000015483499253516195 0 0 0
          -6.632155497114515e-7 -6.77787117965225e-7 -7.051424322250063e-7 -0.0000013251728182981703 -0.0000013544740763086202 -0.0000014111432151347874
          0 0 -4.279608139090397e-7 -4.517482160728457e-7 -8.569828637923991e-7 -9.047210998129922e-7
          0 0 -7.689009738312591e-7 -7.64966740380706e-7 -0.0000015382254496055394 -0.0000015292230284598925
          0 -4.828657393345388e-7 -9.665207661813103e-7 0 0 0
          -7.420639570748928e-7 -7.318368695103512e-7 -7.110231427764773e-7 -0.0000014852827047571735 -0.0000014648273334741223 -0.0000014231297476531604
          0 -7.74552615361927e-7 -0.0000015491876338234474 0 0 -7.791898576549132e-7
          -7.946669056018269e-7 -0.0000015553530346671929 -0.000001586684277632597 0 0 -7.691579749663328e-7
          -7.68528485498597e-7 -0.0000015384499516637854 -0.0000015375191258920525 0 -7.606737812193244e-7 -0.0000015210041962578319
          0 -7.5723443345223e-7 -0.000001514342601698443 0 -4.6916841933304795e-7 -9.389638983702641e-7
          0 -5.350495719659773e-7 -0.0000010704938751123687 0 -5.861252843734226e-7 -0.0000011724223204566383
          0 -7.661543450703109e-7 -0.000001532711941405854 0 0 -6.345645349585439e-7
          -6.530427041681493e-7 -0.0000012692562119329614 -0.000001305026771091561 0 0 -5.280033573031208e-7
          -4.920958276463104e-7 -0.0000010574532204197046 -9.850242353432313e-7 0 -4.837870512631259e-7 -9.688672843743776e-7
          0 0 -4.115129826030005e-7 -4.18263849220926e-7 -8.22868167760541e-7 -8.367843580143537e-7
          0 -7.509110856289253e-7 -0.0000015011127191295657 0 0 -6.476084318643296e-7
          -6.980526038699068e-7 -0.0000012963819592932338 -0.0000013957783576579294 0 0 -7.535067833088513e-7
          -7.426431157500124e-7 -0.0000015065553589555385 -0.0000014849531710047205 0 -4.203880732899267e-7 -8.414023312714474e-7
          0 -7.164234344395559e-7 -0.0000014320348387940235 0 -5.597363980114393e-7 -0.000001119811012112333
          0 -6.233920869639424e-7 -0.0000012470076352272222 0 -7.828077446006099e-7 -0.0000015635509926743702
          0 -7.720274877126399e-7 -0.0000015431545843403994
        </DataArray>
      </PointData>
      <CellData>
        <DataArray type="Int32" Name="libmesh_elem_id" format="ascii" RangeMin="1380" RangeMax="3259">
          1380 1381 1412 1413 1414 1415
          1416 1417 1428 1429 1430 1431
          1438 1439 1440 1441 1464 1465
          1472 1473 1480 1481 1484 1485
          1488 1489 1490 1491 1492 1493
          1496 1497 1516 1517 1534 1535
          1538 1539 1544 1545 1548 1549
          1556 1557 1562 1563 1568 1569
          1574 1575 1576 1577 1604 1605
          1610 1611 1620 1621 1626 1627
          1632 1633 1640 1641 1642 1643
          1644 1645 1646 1647 1660 1661
          1664 1665 1666 1667 1668 1669
          1670 1671 1674 1675 1676 1677
          1688 1689 1690 1691 1692 1693
          1694 1695 1706 1707 1716 1717
          1720 1721 1724 1725 1732 1733
          1736 1737 1738 1739 1742 1743
          1744 1745 1756 1757 1758 1759
          1768 1769 1776 1777 1780 1781
          1784 1785 1786 1787 1788 1789
          1792 1793 1796 1797 1800 1801
          1806 1807 1808 1809 1812 1813
          1820 1821 1822 1823 1826 1827
          1842 1843 1844 1845 1860 1861
          1870 1871 1886 1887 1898 1899
          1912 1913 1934 1935 1938 1939
          1940 1941 1954 1955 1958 1959
          1962 1963 1964 1965 1966 1967
          1974 1975 1976 1977 1978 1979
          1980 1981 1984 1985 1990 1991
          1992 1993 1994 1995 2002 2003
          2012 2013 2016 2017 2022 2023
          2032 2033 2034 2035 2036 2037
          2042 2043 2056 2057 2066 2067
          2072 2073 2076 2077 2080 2081
          2086 2087 2090 2091 2094 2095
          2098 2099 2104 2105 2108 2109
          2114 2115 2118 2119 2122 2123
          2142 2143 2152 2153 2156 2157
          2168 2169 2172 2173 2174 2175
          2182 2183 2188 2189 2190 2191
          2192 2193 2194 2195 2198 2199
          2210 2211 2240 2241 2272 2273
          2280 2281 2300 2301 2322 2323
          2326 2327 2338 2339 2376 2377
          2378 2379 2380 2381 2384 2385
          2386 2387 2388 2389 2394 2395
          2428 2429 2438 2439 2446 2447
          2454 2455 2492 2493 2508 2509
          2514 2515 2516 2517 2528 2529
          2536 2537 2538 2539 2544 2545
          2548 2549 2552 2553 2576 2577
          2604 2605 2606 2607 2614 2615
          2618 2619 2626 2627 2630 2631
          2632 2633 2652 2653 2654 2655
          2674 2675 2676 2677 2686 2687
          2692 2693 2698 2699 2706 2707
          2712 2713 2718 2719 2728 2729
          2730 2731 2732 2733 2744 2745
          2752 2753 2758 2759 2770 2771
          2784 2785 2786 2787 2792 2793
          2812 2813 2816 2817 2818 2819
          2820 2821 2842 2843 2856 2857
          2866 2867 2882 2883 2894 2895
          2900 2901 2906 2907 2914 2915
          2942 2943 2970 2971 2976 2977
          2992 2993 3010 3011 3012 3013
          3016 3017 3046 3047 3056 3057
          3058 3059 3070 3071 3078 3079
          3084 3085 3094 3095 3098 3099
          3118 3119 3122 3123 3128 3129
          3134 3135 3152 3153 3180 3181
          3192 3193 3196 3197 3200 3201
          3202 3203 3214 3215 3244 3245
          3248 3249 3258 3259
        </DataArray>
        <DataArray type="Int32" Name="subdomain_id" format="ascii" RangeMin="107" RangeMax="107">
          107 107 107 107 107 107
          107 107 107 107 107 107
          107 107 107 107 107 107
          107 107 107 107 107 107
          107 107 107 107 107 107
          107 107 107 107 107 107
          107 107 107 107 107 107
          107 107 107 107 107 107
          107 107 107 107 107 107
          107 107 107 107 107 107
          107 107 107 107 107 107
          107 107 107 107 107 107
          107 107 107 107 107 107
          107 107 107 107 107 107
          107 107 107 107 107 107
          107 107 107 107 107 107
          107 107 107 107 107 107
          107 107 107 107 107 107
          107 107 107 107 107 107
          107 107 107 107 107 107
          107 107 107 107 107 107
          107 107 107 107 107 107
          107 107 107 107 107 107
          107 107 107 107 107 107
          107 107 107 107 107 107
          107 107 107 107 107 107
          107 107 107 107 107 107
          107 107 107 107 107 107
          107 107 107 107 107 107
          107 107 107 107 107 107
          107 107 107 107 107 107
          107 107 107 107 107 107
          107 107 107 107 107 107
          107 107 107 107 107 107
          107 107 107 107 107 107
          107 107 107 107 107 107
          107 107 107 107 107 107
          107 107 107 107 107 107
          107 107 107 107 107 107
          107 107 107 107 107 107
          107 107 107 107 107 107
          107 107 107 107 107 107
          107 107 107 107 107 107
          107 107 107 107 107 107
          107 107 107 107 107 107
          107 107 107 107 107 107
          107 107 107 107 107 107
          107 107 107 107 107 107
          107 107 107 107 107 107
          107 107 107 107 107 107
          107 107 107 107 107 107
          107 107 107 107 107 107
          107 107 107 107 107 107
          107 107 107 107 107 107
          107 107 107 107 107 107
          107 107 107 107 107 107
          107 107 107 107 107 107
          107 107 107 107 107 107
          107 107 107 107 107 107
          107 107 107 107 107 107
          107 107 107 107 107 107
          107 107 107 107 107 107
          107 107 107 107 107 107
          107 107 107 107 107 107
          107 107 107 107 107 107
          107 107 107 107 107 107
          107 107 107 107 107 107
          107 107 107 107 107 107
          107 107 107 107 107 107
          107 107 107 107 107 107
          107 107 107 107 107 107
          107 107 107 107 107 107
          107 107 107 107 107 107
          107 107 107 107 107 107
          107 107 107 107 107 107
          107 107 107 107
        </DataArray>
        <DataArray type="Int32" Name="processor_id" format="ascii" RangeMin="3" RangeMax="3">
          3 3 3 3 3 3
          3 3 3 3 3 3
          3 3 3 3 3 3
          3 3 3 3 3 3
          3 3 3 3 3 3
          3 3 3 3 3 3
          3 3 3 3 3 3
          3 3 3 3 3 3
          3 3 3 3 3 3
          3 3 3 3 3 3
          3 3 3 3 3 3
          3 3 3 3 3 3
          3 3 3 3 3 3
          3 3 3 3 3 3
          3 3 3 3 3 3
          3 3 3 3 3 3
          3 3 3 3 3 3
          3 3 3 3 3 3
          3 3 3 3 3 3
          3 3 3 3 3 3
          3 3 3 3 3 3
          3 3 3 3 3 3
          3 3 3 3 3 3
          3 3 3 3 3 3
          3 3 3 3 3 3
          3 3 3 3 3 3
          3 3 3 3 3 3
          3 3 3 3 3 3
          3 3 3 3 3 3
          3 3 3 3 3 3
          3 3 3 3 3 3
          3 3 3 3 3 3
          3 3 3 3 3 3
          3 3 3 3 3 3
          3 3 3 3 3 3
          3 3 3 3 3 3
          3 3 3 3 3 3
          3 3 3 3 3 3
          3 3 3 3 3 3
          3 3 3 3 3 3
          3 3 3 3 3 3
          3 3 3 3 3 3
          3 3 3 3 3 3
          3 3 3 3 3 3
          3 3 3 3 3 3
          3 3 3 3 3 3
          3 3 3 3 3 3
          3 3 3 3 3 3
          3 3 3 3 3 3
          3 3 3 3 3 3
          3 3 3 3 3 3
          3 3 3 3 3 3
          3 3 3 3 3 3
          3 3 3 3 3 3
          3 3 3 3 3 3
          3 3 3 3 3 3
          3 3 3 3 3 3
          3 3 3 3 3 3
          3 3 3 3 3 3
          3 3 3 3 3 3
          3 3 3 3 3 3
          3 3 3 3 3 3
          3 3 3 3 3 3
          3 3 3 3 3 3
          3 3 3 3 3 3
          3 3 3 3 3 3
          3 3 3 3 3 3
          3 3 3 3 3 3
          3 3 3 3 3 3
          3 3 3 3 3 3
          3 3 3 3 3 3
          3 3 3 3 3 3
          3 3 3 3 3 3
          3 3 3 3 3 3
          3 3 3 3 3 3
          3 3 3 3
        </DataArray>
      </CellData>
      <Points>
        <DataArray type="Float64" Name="Points" NumberOfComponents="3" format="ascii" RangeMin="0.013166738443807365" RangeMax="0.02374822585851783">
          0.016451229180203 0.011589607556601 0 0.016255198485848 0.011015934042219 0
          0.016728572005863 0.010757201031786 0 0.017039955631379 0.011194422572054 0
          0.016451229180203 0.011589607556601 0.00015 0.016255198485848 0.011015934042219 0.00015
          0.016728572005863 0.010757201031786 0.00015 0.017039955631379 0.011194422572054 0.00015
          0.016451229180203 0.011589607556601 0.0003 0.016255198485848 0.011015934042219 0.0003
          0.016728572005863 0.010757201031786 0.0003 0.017039955631379 0.011194422572054 0.0003
          0.011186406523754 0.0095188731742926 0 0.010689703280164 0.0094649590365737 0
          0.010634679710187 0.008964429555675 0 0.011131650337527 0.0089687060727404 0
          0.011186406523754 0.0095188731742926 0.00015 0.010689703280164 0.0094649590365737 0.00015
          0.010634679710187 0.008964429555675 0.00015 0.011131650337527 0.0089687060727404 0.00015
          0.011186406523754 0.0095188731742926 0.0003 0.010689703280164 0.0094649590365737 0.0003
          0.010634679710187 0.008964429555675 0.0003 0.011131650337527 0.0089687060727404 0.0003
          0.010158980545183 0.0089928081418126 0 0.010158980545183 0.0089928081418126 0.00015
          0.010158980545183 0.0089928081418126 0.0003 0.010234809282542 0.0094751596931164 0
          0.010234809282542 0.0094751596931164 0.00015 0.010234809282542 0.0094751596931164 0.0003
          0.017215305681839 0.010421173498473 0 0.017538322616078 0.010852535251392 0
          0.017215305681839 0.010421173498473 0.00015 0.017538322616078 0.010852535251392 0.00015
          0.017215305681839 0.010421173498473 0.0003 0.017538322616078 0.010852535251392 0.0003
          0.015522227276376 0.0083950727535023 0 0.015339273065407 0.0078314073000753 0
          0.015832583415208 0.0077039482324782 0 0.015871156677641 0.0080932538621961 0
          0.015522227276376 0.0083950727535023 0.00015 0.015339273065407 0.0078314073000753 0.00015
          0.015832583415208 0.0077039482324782 0.00015 0.015871156677641 0.0080932538621961 0.00015
          0.015522227276376 0.0083950727535023 0.0003 0.015339273065407 0.0078314073000753 0.0003
          0.015832583415208 0.0077039482324782 0.0003 0.015871156677641 0.0080932538621961 0.0003
          0.014182404182597 0.012030933394166 0 0.014112697634716 0.011586899500601 0
          0.01453762000082 0.011541498939039 0 0.014647727851392 0.011956202120878 0
          0.014182404182597 0.012030933394166 0.00015 0.014112697634716 0.011586899500601 0.00015
          0.01453762000082 0.011541498939039 0.00015 0.014647727851392 0.011956202120878 0.00015
          0.014182404182597 0.012030933394166 0.0003 0.014112697634716 0.011586899500601 0.0003
          0.01453762000082 0.011541498939039 0.0003 0.014647727851392 0.011956202120878 0.0003
          0.012718807262617 0.012100913225318 0 0.01318790653826 0.012081424726463 0
          0.013223560157694 0.012548837560718 0 0.012721969255655 0.012547975923311 0
          0.012718807262617 0.012100913225318 0.00015 0.01318790653826 0.012081424726463 0.00015
          0.013223560157694 0.012548837560718 0.00015 0.012721969255655 0.012547975923311 0.00015
          0.012718807262617 0.012100913225318 0.0003 0.01318790653826 0.012081424726463 0.0003
          0.013223560157694 0.012548837560718 0.0003 0.012721969255655 0.012547975923311 0.0003
          0.015037276113604 0.0053883886132418 0 0.014872829902632 0.0048660088618751 0
          0.015610482342583 0.0052949834846695 0 0.015037276113604 0.0053883886132418 0.00015
          0.014872829902632 0.0048660088618751 0.00015 0.015610482342583 0.0052949834846695 0.00015
          0.015037276113604 0.0053883886132418 0.0003 0.014872829902632 0.0048660088618751 0.0003
          0.015610482342583 0.0052949834846695 0.0003 0.012853333735139 0.0071862564407273 0
          0.013298874998351 0.0073010052974168 0 0.013468505581478 0.0077481198485017 0
          0.012879769579272 0.0077824950988095 0 0.012853333735139 0.0071862564407273 0.00015
          0.013298874998351 0.0073010052974168 0.00015 0.013468505581478 0.0077481198485017 0.00015
          0.012879769579272 0.0077824950988095 0.00015 0.012853333735139 0.0071862564407273 0.0003
          0.013298874998351 0.0073010052974168 0.0003 0.013468505581478 0.0077481198485017 0.0003
          0.012879769579272 0.0077824950988095 0.0003 0.012310751390795 0.0073009210446318 0
          0.012310751390795 0.0073009210446318 0.00015 0.012310751390795 0.0073009210446318 0.0003
          0.016440539131042 0.010340248821358 0 0.016895401758078 0.0099970418145034 0
          0.016440539131042 0.010340248821358 0.00015 0.016895401758078 0.0099970418145034 0.00015
          0.016440539131042 0.010340248821358 0.0003 0.016895401758078 0.0099970418145034 0.0003
          0.015674284513358 0.012057735082989 0 0.015799992883172 0.011590312491375 0
          0.01620648935985 0.012173309797103 0 0.015674284513358 0.012057735082989 0.00015
          0.015799992883172 0.011590312491375 0.00015 0.01620648935985 0.012173309797103 0.00015
          0.015674284513358 0.012057735082989 0.0003 0.015799992883172 0.011590312491375 0.0003
          0.01620648935985 0.012173309797103 0.0003 0.015719396244314 0.0096761034796614 0
          0.015317179218416 0.010039615829248 0 0.014916285335657 0.0096823062625427 0
          0.015356151892906 0.0093633130446295 0 0.015719396244314 0.0096761034796614 0.00015
          0.015317179218416 0.010039615829248 0.00015 0.014916285335657 0.0096823062625427 0.00015
          0.015356151892906 0.0093633130446295 0.00015 0.015719396244314 0.0096761034796614 0.0003
          0.015317179218416 0.010039615829248 0.0003 0.014916285335657 0.0096823062625427 0.0003
          0.015356151892906 0.0093633130446295 0.0003 0.014911939516014 0.011080222539295 0
          0.01492908374418 0.011511002202991 0 0.014470673144967 0.011122308960465 0
          0.014911939516014 0.011080222539295 0.00015 0.01492908374418 0.011511002202991 0.00015
          0.014470673144967 0.011122308960465 0.00015 0.014911939516014 0.011080222539295 0.0003
          0.01492908374418 0.011511002202991 0.0003 0.014470673144967 0.011122308960465 0.0003
          0.014927498433442 0.011816834084778 0 0.015214955739546 0.01195124117686 0
          0.014868481741766 0.012398226678167 0 0.014927498433442 0.011816834084778 0.00015
          0.015214955739546 0.01195124117686 0.00015 0.014868481741766 0.012398226678167 0.00015
          0.014927498433442 0.011816834084778 0.0003 0.015214955739546 0.01195124117686 0.0003
          0.014868481741766 0.012398226678167 0.0003 0.014887382940214 0.010512753679506 0
          0.01433465747601 0.010724165901292 0 0.014030150330029 0.010370439204794 0
          0.01444626395613 0.010022024912649 0 0.014887382940214 0.010512753679506 0.00015
          0.01433465747601 0.010724165901292 0.00015 0.014030150330029 0.010370439204794 0.00015
          0.01444626395613 0.010022024912649 0.00015 0.014887382940214 0.010512753679506 0.0003
          0.01433465747601 0.010724165901292 0.0003 0.014030150330029 0.010370439204794 0.0003
          0.01444626395613 0.010022024912649 0.0003 0.013388886812482 0.0083497293814167 0
          0.012899574253998 0.0083038014764745 0 0.013388886812482 0.0083497293814167 0.00015
          0.012899574253998 0.0083038014764745 0.00015 0.013388886812482 0.0083497293814167 0.0003
          0.012899574253998 0.0083038014764745 0.0003 0.015784016264429 0.0071345425111119 0
          0.016328429431772 0.0071626451349231 0 0.016328043288569 0.0077322573762078 0
          0.015784016264429 0.0071345425111119 0.00015 0.016328429431772 0.0071626451349231 0.00015
          0.016328043288569 0.0077322573762078 0.00015 0.015784016264429 0.0071345425111119 0.0003
          0.016328429431772 0.0071626451349231 0.0003 0.016328043288569 0.0077322573762078 0.0003
          0.016727166785252 0.0084386331054829 0 0.01644772366367 0.0089064975551763 0
          0.016002189190704 0.0086574712541786 0 0.016221340977963 0.0082297464535469 0
          0.016727166785252 0.0084386331054829 0.00015 0.01644772366367 0.0089064975551763 0.00015
          0.016002189190704 0.0086574712541786 0.00015 0.016221340977963 0.0082297464535469 0.00015
          0.016727166785252 0.0084386331054829 0.0003 0.01644772366367 0.0089064975551763 0.0003
          0.016002189190704 0.0086574712541786 0.0003 0.016221340977963 0.0082297464535469 0.0003
          0.018901908985383 0.011783468628847 0 0.018328257152057 0.011560564570719 0
          0.018901908985383 0.011783468628847 0.00015 0.018328257152057 0.011560564570719 0.00015
          0.018901908985383 0.011783468628847 0.0003 0.018328257152057 0.011560564570719 0.0003
          0.016817438697449 0.012401495631919 0 0.016895899239308 0.011880939878953 0
          0.016817438697449 0.012401495631919 0.00015 0.016895899239308 0.011880939878953 0.00015
          0.016817438697449 0.012401495631919 0.0003 0.016895899239308 0.011880939878953 0.0003
          0.010475172867508 0.012102844227475 0 0.010669582432454 0.011743114144408 0
          0.010475172867508 0.012102844227475 0.00015 0.010669582432454 0.011743114144408 0.00015
          0.010475172867508 0.012102844227475 0.0003 0.010669582432454 0.011743114144408 0.0003
          0.018198082784875 0.0097658337520035 0 0.018455934862008 0.010221918525687 0
          0.018019877493881 0.01050989807829 0 0.017698489924893 0.010066971919266 0
          0.018198082784875 0.0097658337520035 0.00015 0.018455934862008 0.010221918525687 0.00015
          0.018019877493881 0.01050989807829 0.00015 0.017698489924893 0.010066971919266 0.00015
          0.018198082784875 0.0097658337520035 0.0003 0.018455934862008 0.010221918525687 0.0003
          0.018019877493881 0.01050989807829 0.0003 0.017698489924893 0.010066971919266 0.0003
          0.015096658749896 0.0059763609132825 0 0.015666288430535 0.0059190759170471 0
          0.015096658749896 0.0059763609132825 0.00015 0.015666288430535 0.0059190759170471 0.00015
          0.015096658749896 0.0059763609132825 0.0003 0.015666288430535 0.0059190759170471 0.0003
          0.013546901289865 0.0069836782833127 0 0.013134929749538 0.0067248500217048 0
          0.013546901289865 0.0069836782833127 0.00015 0.013134929749538 0.0067248500217048 0.00015
          0.013546901289865 0.0069836782833127 0.0003 0.013134929749538 0.0067248500217048 0.0003
          0.013831418153218 0.0064982603089606 0 0.013338214474932 0.0062766362868091 0
          0.013831418153218 0.0064982603089606 0.00015 0.013338214474932 0.0062766362868091 0.00015
          0.013831418153218 0.0064982603089606 0.0003 0.013338214474932 0.0062766362868091 0.0003
          0.017908784385217 0.011229685010797 0 0.017908784385217 0.011229685010797 0.00015
          0.017908784385217 0.011229685010797 0.0003 0.017460830811305 0.0067242961174433 0
          0.017460830811305 0.0067242961174433 0.00015 0.017460830811305 0.0067242961174433 0.0003
          0.016232724398465 0.0059010997942707 0 0.016810957053741 0.0059693958220605 0
          0.016865945400018 0.0066157033945985 0 0.016287343165999 0.0065221003589061 0
          0.016232724398465 0.0059010997942707 0.00015 0.016810957053741 0.0059693958220605 0.00015
          0.016865945400018 0.0066157033945985 0.00015 0.016287343165999 0.0065221003589061 0.00015
          0.016232724398465 0.0059010997942707 0.0003 0.016810957053741 0.0059693958220605 0.0003
          0.016865945400018 0.0066157033945985 0.0003 0.016287343165999 0.0065221003589061 0.0003
          0.015434451036398 0.0088351663483508 0 0.015091649000167 0.0090065479673052 0
          0.0149386527618 0.008562942865766 0 0.015434451036398 0.0088351663483508 0.00015
          0.015091649000167 0.0090065479673052 0.00015 0.0149386527618 0.008562942865766 0.00015
          0.015434451036398 0.0088351663483508 0.0003 0.015091649000167 0.0090065479673052 0.0003
          0.0149386527618 0.008562942865766 0.0003 0.013851103268646 0.0079817773379183 0
          0.013864053371773 0.0083733293390323 0 0.013851103268646 0.0079817773379183 0.00015
          0.013864053371773 0.0083733293390323 0.00015 0.013851103268646 0.0079817773379183 0.0003
          0.013864053371773 0.0083733293390323 0.0003 0.016873832756735 0.0078915607150548 0
          0.016873832756735 0.0078915607150548 0.00015 0.016873832756735 0.0078915607150548 0.0003
          0.011740832768399 0.012550565772382 0 0.011781425344485 0.012080160842703 0
          0.012267797740114 0.012087686226532 0 0.012238354096222 0.012547223275944 0
          0.011740832768399 0.012550565772382 0.00015 0.011781425344485 0.012080160842703 0.00015
          0.012267797740114 0.012087686226532 0.00015 0.012238354096222 0.012547223275944 0.00015
          0.011740832768399 0.012550565772382 0.0003 0.011781425344485 0.012080160842703 0.0003
          0.012267797740114 0.012087686226532 0.0003 0.012238354096222 0.012547223275944 0.0003
          0.015724816214821 0.0065169349202822 0 0.015724816214821 0.0065169349202822 0.00015
          0.015724816214821 0.0065169349202822 0.0003 0.016904663245172 0.0072759580116152 0
          0.016904663245172 0.0072759580116152 0.00015 0.016904663245172 0.0072759580116152 0.0003
          0.016212759806586 0.0053000490100875 0 0.016212759806586 0.0053000490100875 0.00015
          0.016212759806586 0.0053000490100875 0.0003 0.017422284858474 0.011679101640391 0
          0.017908527792884 0.011814582379248 0 0.017422284858474 0.011679101640391 0.00015
          0.017908527792884 0.011814582379248 0.00015 0.017422284858474 0.011679101640391 0.0003
          0.017908527792884 0.011814582379248 0.0003 0.017261702763099 0.0086939606584207 0
          0.017434489396122 0.0080779876667089 0 0.017261702763099 0.0086939606584207 0.00015
          0.017434489396122 0.0080779876667089 0.00015 0.017261702763099 0.0086939606584207 0.0003
          0.017434489396122 0.0080779876667089 0.0003 0.014181033506022 0.0077713348891544 0
          0.014325604474543 0.0082610969383043 0 0.014181033506022 0.0077713348891544 0.00015
          0.014325604474543 0.0082610969383043 0.00015 0.014181033506022 0.0077713348891544 0.0003
          0.014325604474543 0.0082610969383043 0.0003 0.016099115219063 0.0099899847281115 0
          0.016520689982407 0.0096278486407962 0 0.016099115219063 0.0099899847281115 0.00015
          0.016520689982407 0.0096278486407962 0.00015 0.016099115219063 0.0099899847281115 0.0003
          0.016520689982407 0.0096278486407962 0.0003 0.014613026918956 0.0092413149543641 0
          0.014613026918956 0.0092413149543641 0.00015 0.014613026918956 0.0092413149543641 0.0003
          0.016937453954769 0.0092095292918499 0 0.017364558514239 0.0096012653805297 0
          0.016937453954769 0.0092095292918499 0.00015 0.017364558514239 0.0096012653805297 0.00015
          0.016937453954769 0.0092095292918499 0.0003 0.017364558514239 0.0096012653805297 0.0003
          0.015712843676617 0.010331364913168 0 0.016032046384524 0.010629553115583 0
          0.015712843676617 0.010331364913168 0.00015 0.016032046384524 0.010629553115583 0.00015
          0.015712843676617 0.010331364913168 0.0003 0.016032046384524 0.010629553115583 0.0003
          0.01346343572409 0.0057857389411653 0 0.01346343572409 0.0057857389411653 0.00015
          0.01346343572409 0.0057857389411653 0.0003 0.015150761096164 0.0066142159223768 0
          0.015150761096164 0.0066142159223768 0.00015 0.015150761096164 0.0066142159223768 0.0003
          0.015453261139866 0.010697023165802 0 0.015761290368715 0.010819971207646 0
          0.015453261139866 0.010697023165802 0.00015 0.015761290368715 0.010819971207646 0.00015
          0.015453261139866 0.010697023165802 0.0003 0.015761290368715 0.010819971207646 0.0003
          0.013975551316416 0.0059398855735222 0 0.013975551316416 0.0059398855735222 0.00015
          0.013975551316416 0.0059398855735222 0.0003 0.017479032913359 0.0074088673936633 0
          0.017479032913359 0.0074088673936633 0.00015 0.017479032913359 0.0074088673936633 0.0003
          0.014439802315681 0.0067889662935499 0 0.014530319307898 0.006021518089632 0
          0.014439802315681 0.0067889662935499 0.00015 0.014530319307898 0.006021518089632 0.00015
          0.014439802315681 0.0067889662935499 0.0003 0.014530319307898 0.006021518089632 0.0003
          0.014431521900925 0.0087663339265048 0 0.013899975831329 0.0088854517032459 0
          0.014431521900925 0.0087663339265048 0.00015 0.013899975831329 0.0088854517032459 0.00015
          0.014431521900925 0.0087663339265048 0.0003 0.013899975831329 0.0088854517032459 0.0003
          0.015334349753872 0.011547922560075 0 0.015363465895193 0.011114260619116 0
          0.015801980011793 0.011137474992711 0 0.015334349753872 0.011547922560075 0.00015
          0.015363465895193 0.011114260619116 0.00015 0.015801980011793 0.011137474992711 0.00015
          0.015334349753872 0.011547922560075 0.0003 0.015363465895193 0.011114260619116 0.0003
          0.015801980011793 0.011137474992711 0.0003 0.01326617738197 0.0093680808515997 0
          0.012793423392144 0.00921210926252 0 0.012882512800283 0.0087881474090036 0
          0.013365259810227 0.0088714473068585 0 0.01326617738197 0.0093680808515997 0.00015
          0.012793423392144 0.00921210926252 0.00015 0.012882512800283 0.0087881474090036 0.00015
          0.013365259810227 0.0088714473068585 0.00015 0.01326617738197 0.0093680808515997 0.0003
          0.012793423392144 0.00921210926252 0.0003 0.012882512800283 0.0087881474090036 0.0003
          0.013365259810227 0.0088714473068585 0.0003 0.011993243876189 0.010936510200926 0
          0.011726815341297 0.011491075647124 0 0.011222013645511 0.011097826594996 0
          0.011481744371717 0.010688234667639 0 0.011993243876189 0.010936510200926 0.00015
          0.011726815341297 0.011491075647124 0.00015 0.011222013645511 0.011097826594996 0.00015
          0.011481744371717 0.010688234667639 0.00015 0.011993243876189 0.010936510200926 0.0003
          0.011726815341297 0.011491075647124 0.0003 0.011222013645511 0.011097826594996 0.0003
          0.011481744371717 0.010688234667639 0.0003 0.013923252507151 0.0073329122207352 0
          0.013923252507151 0.0073329122207352 0.00015 0.013923252507151 0.0073329122207352 0.0003
          0.013063793506476 0.0098271989985527 0 0.012601634550352 0.009590277262082 0
          0.013063793506476 0.0098271989985527 0.00015 0.012601634550352 0.009590277262082 0.00015
          0.013063793506476 0.0098271989985527 0.0003 0.012601634550352 0.009590277262082 0.0003
          0.014102855237989 0.0047969187863067 0 0.013905759673286 0.0043612537888552 0
          0.014102855237989 0.0047969187863067 0.00015 0.013905759673286 0.0043612537888552 0.00015
          0.014102855237989 0.0047969187863067 0.0003 0.013905759673286 0.0043612537888552 0.0003
          0.012852488428802 0.010265076045094 0 0.012374691983482 0.010000797580735 0
          0.012852488428802 0.010265076045094 0.00015 0.012374691983482 0.010000797580735 0.00015
          0.012852488428802 0.010265076045094 0.0003 0.012374691983482 0.010000797580735 0.0003
          0.011668611956603 0.010219239111219 0 0.012182731119778 0.010462377133106 0
          0.011668611956603 0.010219239111219 0.00015 0.012182731119778 0.010462377133106 0.00015
          0.011668611956603 0.010219239111219 0.0003 0.012182731119778 0.010462377133106 0.0003
          0.011158560753842 0.010029990414111 0 0.011017968815575 0.010465683342369 0
          0.011158560753842 0.010029990414111 0.00015 0.011017968815575 0.010465683342369 0.00015
          0.011158560753842 0.010029990414111 0.0003 0.011017968815575 0.010465683342369 0.0003
          0.014820390261339 0.0080402105998384 0 0.014820390261339 0.0080402105998384 0.00015
          0.014820390261339 0.0080402105998384 0.0003 0.015228397699353 0.0072512250897894 0
          0.015228397699353 0.0072512250897894 0.00015 0.015228397699353 0.0072512250897894 0.0003
          0.0130361735465 0.011522072885309 0 0.012689359184487 0.011761634268536 0
          0.012340499111532 0.011632501505239 0 0.012497431968462 0.011183651982421 0
          0.0130361735465 0.011522072885309 0.00015 0.012689359184487 0.011761634268536 0.00015
          0.012340499111532 0.011632501505239 0.00015 0.012497431968462 0.011183651982421 0.00015
          0.0130361735465 0.011522072885309 0.0003 0.012689359184487 0.011761634268536 0.0003
          0.012340499111532 0.011632501505239 0.0003 0.012497431968462 0.011183651982421 0.0003
          0.013528941600065 0.0052742966774397 0 0.014027103455945 0.0053875982273864 0
          0.013528941600065 0.0052742966774397 0.00015 0.014027103455945 0.0053875982273864 0.00015
          0.013528941600065 0.0052742966774397 0.0003 0.014027103455945 0.0053875982273864 0.0003
          0.010128205128219 0.013 0 0.010310686327751 0.012539165738252 0
          0.010788384596096 0.012564579045747 0 0.01064102564104 0.013 0
          0.010128205128219 0.013 0.00015 0.010310686327751 0.012539165738252 0.00015
          0.010788384596096 0.012564579045747 0.00015 0.01064102564104 0.013 0.00015
          0.010128205128219 0.013 0.0003 0.010310686327751 0.012539165738252 0.0003
          0.010788384596096 0.012564579045747 0.0003 0.01064102564104 0.013 0.0003
          0.010783127360108 0.010836567412064 0 0.010385522435479 0.010608007769118 0
          0.010601303654319 0.010290632654442 0 0.010783127360108 0.010836567412064 0.00015
          0.010385522435479 0.010608007769118 0.00015 0.010601303654319 0.010290632654442 0.00015
          0.010783127360108 0.010836567412064 0.0003 0.010385522435479 0.010608007769118 0.0003
          0.010601303654319 0.010290632654442 0.0003 0.011818930007254 0.009602160287834 0
          0.011818930007254 0.009602160287834 0.00015 0.011818930007254 0.009602160287834 0.0003
          0.015715008716269 0.0090308288850156 0 0.01610853428864 0.0093166480881369 0
          0.015715008716269 0.0090308288850156 0.00015 0.01610853428864 0.0093166480881369 0.00015
          0.015715008716269 0.0090308288850156 0.0003 0.01610853428864 0.0093166480881369 0.0003
          0.013952831965685 0.0095243725467762 0 0.013572358856734 0.010071658883703 0
          0.013952831965685 0.0095243725467762 0.00015 0.013572358856734 0.010071658883703 0.00015
          0.013952831965685 0.0095243725467762 0.0003 0.013572358856734 0.010071658883703 0.0003
          0.012677817340078 0.010719835797972 0 0.012677817340078 0.010719835797972 0.00015
          0.012677817340078 0.010719835797972 0.0003 0.014678664229456 0.0074733115324236 0
          0.014678664229456 0.0074733115324236 0.00015 0.014678664229456 0.0074733115324236 0.0003
          0.012261506677236 0.0092701804285872 0 0.012499922412859 0.0090879994978671 0
          0.012261506677236 0.0092701804285872 0.00015 0.012499922412859 0.0090879994978671 0.00015
          0.012261506677236 0.0092701804285872 0.0003 0.012499922412859 0.0090879994978671 0.0003
          0.011270478587413 0.012561768236337 0 0.011153846153863 0.013 0
          0.011270478587413 0.012561768236337 0.00015 0.011153846153863 0.013 0.00015
          0.011270478587413 0.012561768236337 0.0003 0.011153846153863 0.013 0.0003
          0.012179487179506 0.013 0 0.012692307692328 0.013 0
          0.012179487179506 0.013 0.00015 0.012692307692328 0.013 0.00015
          0.012179487179506 0.013 0.0003 0.012692307692328 0.013 0.0003
          0.013205128205151 0.013 0 0.013721380024409 0.012538570920528 0
          0.013717948717973 0.013 0 0.013205128205151 0.013 0.00015
          0.013721380024409 0.012538570920528 0.00015 0.013717948717973 0.013 0.00015
          0.013205128205151 0.013 0.0003 0.013721380024409 0.012538570920528 0.0003
          0.013717948717973 0.013 0.0003 0.013680323008888 0.01206206640945 0
          0.0136362676363 0.011582155921186 0 0.013680323008888 0.01206206640945 0.00015
          0.0136362676363 0.011582155921186 0.00015 0.013680323008888 0.01206206640945 0.0003
          0.0136362676363 0.011582155921186 0.0003 0.011306940297591 0.012129646322267 0
          0.011212076662234 0.01173976422044 0 0.011306940297591 0.012129646322267 0.00015
          0.011212076662234 0.01173976422044 0.00015 0.011306940297591 0.012129646322267 0.0003
          0.011212076662234 0.01173976422044 0.0003 0.014247558447628 0.012512499343239 0
          0.014230769230793 0.013 0 0.014247558447628 0.012512499343239 0.00015
          0.014230769230793 0.013 0.00015 0.014247558447628 0.012512499343239 0.0003
          0.014230769230793 0.013 0.0003 0.010925822172272 0.011428925131881 0
          0.010925822172272 0.011428925131881 0.00015 0.010925822172272 0.011428925131881 0.0003
          0.017598702187272 0.012594388856786 0 0.018138509806267 0.012585421267124 0
          0.018333333333352 0.013 0 0.017820512820533 0.013 0
          0.017598702187272 0.012594388856786 0.00015 0.018138509806267 0.012585421267124 0.00015
          0.018333333333352 0.013 0.00015 0.017820512820533 0.013 0.00015
          0.017598702187272 0.012594388856786 0.0003 0.018138509806267 0.012585421267124 0.0003
          0.018333333333352 0.013 0.0003 0.017820512820533 0.013 0.0003
          0.01884615384617 0.013 0 0.018647619061649 0.012577247456601 0
          0.01884615384617 0.013 0.00015 0.018647619061649 0.012577247456601 0.00015
          0.01884615384617 0.013 0.0003 0.018647619061649 0.012577247456601 0.0003
          0.010939820280367 0.01187760398484 0 0.010939820280367 0.01187760398484 0.00015
          0.010939820280367 0.01187760398484 0.0003 0.014743589743616 0.013 0
          0.014743589743616 0.013 0.00015 0.014743589743616 0.013 0.0003
          0.013168261777023 0.010955167755454 0 0.013168261777023 0.010955167755454 0.00015
          0.013168261777023 0.010955167755454 0.0003 0.011620435633551 0.0089440866322713 0
          0.011620435633551 0.0089440866322713 0.00015 0.011620435633551 0.0089440866322713 0.0003
          0.01333281098878 0.010501143990949 0 0.01333281098878 0.010501143990949 0.00015
          0.01333281098878 0.010501143990949 0.0003 0.013640766026071 0.011115210745046 0
          0.014063261910082 0.011165191959691 0 0.013640766026071 0.011115210745046 0.00015
          0.014063261910082 0.011165191959691 0.00015 0.013640766026071 0.011115210745046 0.0003
          0.014063261910082 0.011165191959691 0.0003 0.013761635093034 0.010714997264381 0
          0.013761635093034 0.010714997264381 0.00015 0.013761635093034 0.010714997264381 0.0003
          0.01790845301636 0.0090613468730877 0 0.01790845301636 0.0090613468730877 0.00015
          0.01790845301636 0.0090613468730877 0.0003 0.010691300612525 0.0099168298135774 0
          0.010691300612525 0.0099168298135774 0.00015 0.010691300612525 0.0099168298135774 0.0003
          0.014509683505008 0.0050450954358061 0 0.014509683505008 0.0050450954358061 0.00015
          0.014509683505008 0.0050450954358061 0.0003 0.012373637985884 0.0077974643404521 0
          0.012419274731686 0.0083019280664676 0 0.012373637985884 0.0077974643404521 0.00015
          0.012419274731686 0.0083019280664676 0.00015 0.012373637985884 0.0077974643404521 0.0003
          0.012419274731686 0.0083019280664676 0.0003 0.014523119140279 0.0054383897453177 0
          0.014523119140279 0.0054383897453177 0.00015 0.014523119140279 0.0054383897453177 0.0003
          0.012468015808598 0.0087643938641043 0 0.012468015808598 0.0087643938641043 0.00015
          0.012468015808598 0.0087643938641043 0.0003 0.014041697947841 0.010862771985015 0
          0.014041697947841 0.010862771985015 0.00015 0.014041697947841 0.010862771985015 0.0003
          0.012067821946234 0.0088387705315247 0 0.012067821946234 0.0088387705315247 0.00015
          0.012067821946234 0.0088387705315247 0.0003 0.018063704813091 0.0075049932447581 0
          0.018063704813091 0.0075049932447581 0.00015 0.018063704813091 0.0075049932447581 0.0003
          0.01801805728244 0.008218173104411 0 0.01801805728244 0.008218173104411 0.00015
          0.01801805728244 0.008218173104411 0.0003 0.019162849649621 0.012571706415164 0
          0.019358974358988 0.013 0 0.019162849649621 0.012571706415164 0.00015
          0.019358974358988 0.013 0.00015 0.019162849649621 0.012571706415164 0.0003
          0.019358974358988 0.013 0.0003 0.015469042768348 0.012527612124711 0
          0.015256410256436 0.013 0 0.015469042768348 0.012527612124711 0.00015
          0.015256410256436 0.013 0.00015 0.015469042768348 0.012527612124711 0.0003
          0.015256410256436 0.013 0.0003 0.017482035345823 0.012218317378284 0
          0.017482035345823 0.012218317378284 0.00015 0.017482035345823 0.012218317378284 0.0003
          0.011666666666685 0.013 0 0.011666666666685 0.013 0.00015
          0.011666666666685 0.013 0.0003 0.013552812333296 0.0042895499786344 0
          0.013552812333296 0.0042895499786344 0.00015 0.013552812333296 0.0042895499786344 0.0003
          0.019003973493589 0.012129001566083 0 0.018491681451249 0.012137078785851 0
          0.019003973493589 0.012129001566083 0.00015 0.018491681451249 0.012137078785851 0.00015
          0.019003973493589 0.012129001566083 0.0003 0.018491681451249 0.012137078785851 0.0003
          0.016282051282076 0.013 0 0.016335894010033 0.012686725241599 0
          0.016794871794894 0.013 0 0.016282051282076 0.013 0.00015
          0.016335894010033 0.012686725241599 0.00015 0.016794871794894 0.013 0.00015
          0.016282051282076 0.013 0.0003 0.016335894010033 0.012686725241599 0.0003
          0.016794871794894 0.013 0.0003 0.017307692307713 0.013 0
          0.017281329535555 0.012689387511733 0 0.017307692307713 0.013 0.00015
          0.017281329535555 0.012689387511733 0.00015 0.017307692307713 0.013 0.0003
          0.017281329535555 0.012689387511733 0.0003 0.017996855365792 0.012159940978259 0
          0.017996855365792 0.012159940978259 0.00015 0.017996855365792 0.012159940978259 0.0003
          0.016023960213719 0.012601258532672 0 0.016023960213719 0.012601258532672 0.00015
          0.016023960213719 0.012601258532672 0.0003 0.015769230769256 0.013 0
          0.015769230769256 0.013 0.00015 0.015769230769256 0.013 0.0003
          0.013549428097692 0.0047645614477775 0 0.013549428097692 0.0047645614477775 0.00015
          0.013549428097692 0.0047645614477775 0.0003 0.010881954871342 0.01216105032025 0
          0.010881954871342 0.01216105032025 0.00015 0.010881954871342 0.01216105032025 0.0003
          0.010057653370411 0.0084974472595183 0 0.01054988842507 0.0084422245958245 0
          0.010057653370411 0.0084974472595183 0.00015 0.01054988842507 0.0084422245958245 0.00015
          0.010057653370411 0.0084974472595183 0.0003 0.01054988842507 0.0084422245958245 0.0003
          0.015535554193674 0.0045828394817383 0 0.015535554193674 0.0045828394817383 0.00015
          0.015535554193674 0.0045828394817383 0.0003 0.011832021157187 0.0073476785459853 0
          0.011779780861271 0.0068646395959748 0 0.012243708910156 0.0068324173193727 0
          0.011832021157187 0.0073476785459853 0.00015 0.011779780861271 0.0068646395959748 0.00015
          0.012243708910156 0.0068324173193727 0.00015 0.011832021157187 0.0073476785459853 0.0003
          0.011779780861271 0.0068646395959748 0.0003 0.012243708910156 0.0068324173193727 0.0003
          0.019357361519954 0.01157618305141 0 0.01884046117173 0.011223113854601 0
          0.019357361519954 0.01157618305141 0.00015 0.01884046117173 0.011223113854601 0.00015
          0.019357361519954 0.01157618305141 0.0003 0.01884046117173 0.011223113854601 0.0003
          0.014554004584986 0.0044253882271801 0 0.015005639561329 0.0040763460944633 0
          0.014554004584986 0.0044253882271801 0.00015 0.015005639561329 0.0040763460944633 0.00015
          0.014554004584986 0.0044253882271801 0.0003 0.015005639561329 0.0040763460944633 0.0003
          0.018384253973557 0.010894663204421 0 0.018384253973557 0.010894663204421 0.00015
          0.018384253973557 0.010894663204421 0.0003 0.017413401850906 0.0060417176080878 0
          0.018057579772584 0.0060827128421873 0 0.018070157245618 0.0068021820766994 0
          0.017413401850906 0.0060417176080878 0.00015 0.018057579772584 0.0060827128421873 0.00015
          0.018070157245618 0.0068021820766994 0.00015 0.017413401850906 0.0060417176080878 0.0003
          0.018057579772584 0.0060827128421873 0.0003 0.018070157245618 0.0068021820766994 0.0003
          0.016291762387835 0.0047307906783276 0 0.016291762387835 0.0047307906783276 0.00015
          0.016291762387835 0.0047307906783276 0.0003 0.012879713087233 0.0060908484912964 0
          0.012982043505355 0.0056371881930815 0 0.012879713087233 0.0060908484912964 0.00015
          0.012982043505355 0.0056371881930815 0.00015 0.012879713087233 0.0060908484912964 0.0003
          0.012982043505355 0.0056371881930815 0.0003 0.01678493258985 0.0053840721103251 0
          0.016848637368385 0.0048798435935376 0 0.01678493258985 0.0053840721103251 0.00015
          0.016848637368385 0.0048798435935376 0.00015 0.01678493258985 0.0053840721103251 0.0003
          0.016848637368385 0.0048798435935376 0.0003 0.012723582323863 0.006509831652106 0
          0.012723582323863 0.006509831652106 0.00015 0.012723582323863 0.006509831652106 0.0003
          0.014128459199836 0.0039835282877348 0 0.014128459199836 0.0039835282877348 0.00015
          0.014128459199836 0.0039835282877348 0.0003 0.018817000838468 0.010560792840001 0
          0.018817000838468 0.010560792840001 0.00015 0.018817000838468 0.010560792840001 0.0003
          0.011043213382792 0.0084269911709333 0 0.011043213382792 0.0084269911709333 0.00015
          0.011043213382792 0.0084269911709333 0.0003 0.011511795106494 0.0083968566041475 0
          0.011511795106494 0.0083968566041475 0.00015 0.011511795106494 0.0083968566041475 0.0003
          0.017341722495578 0.0054175123203669 0 0.017341722495578 0.0054175123203669 0.00015
          0.017341722495578 0.0054175123203669 0.0003 0.01196380743939 0.0083394019710021 0
          0.011894488312007 0.0078344841271679 0 0.01196380743939 0.0083394019710021 0.00015
          0.011894488312007 0.0078344841271679 0.00015 0.01196380743939 0.0083394019710021 0.0003
          0.011894488312007 0.0078344841271679 0.0003 0.018719100515555 0.0096191331103102 0
          0.018769006148643 0.010016813571171 0 0.018719100515555 0.0096191331103102 0.00015
          0.018769006148643 0.010016813571171 0.00015 0.018719100515555 0.0096191331103102 0.0003
          0.018769006148643 0.010016813571171 0.0003 0.019142781766586 0.010156284019367 0
          0.019142781766586 0.010156284019367 0.00015 0.019142781766586 0.010156284019367 0.0003
          0.019871794871807 0.013 0 0.019671681078705 0.012567114388191 0
          0.019871794871807 0.013 0.00015 0.019671681078705 0.012567114388191 0.00015
          0.019871794871807 0.013 0.0003 0.019671681078705 0.012567114388191 0.0003
          0.013590285783394 0.0038446716816234 0 0.013590285783394 0.0038446716816234 0.00015
          0.013590285783394 0.0038446716816234 0.0003 0.018696511924608 0.0075816988835645 0
          0.018734278863615 0.0068564365277259 0 0.018696511924608 0.0075816988835645 0.00015
          0.018734278863615 0.0068564365277259 0.00015 0.018696511924608 0.0075816988835645 0.0003
          0.018734278863615 0.0068564365277259 0.0003 0.013091675611077 0.0041736873632184 0
          0.013121586466294 0.0036708577033715 0 0.013091675611077 0.0041736873632184 0.00015
          0.013121586466294 0.0036708577033715 0.00015 0.013091675611077 0.0041736873632184 0.0003
          0.013121586466294 0.0036708577033715 0.0003 0.019497075330812 0.012129782091497 0
          0.019497075330812 0.012129782091497 0.00015 0.019497075330812 0.012129782091497 0.0003
          0.012592651705639 0.0068198098450163 0 0.012592651705639 0.0068198098450163 0.00015
          0.012592651705639 0.0068198098450163 0.0003 0.018655444813331 0.0089912542068827 0
          0.018655444813331 0.0089912542068827 0.00015 0.018655444813331 0.0089912542068827 0.0003
          0.018643245907353 0.0082916041839039 0 0.018643245907353 0.0082916041839039 0.00015
          0.018643245907353 0.0082916041839039 0.0003 0.013048655853798 0.0051555709380823 0
          0.013048655853798 0.0051555709380823 0.00015 0.013048655853798 0.0051555709380823 0.0003
          0.013084530633285 0.0046685927017207 0 0.013084530633285 0.0046685927017207 0.00015
          0.013084530633285 0.0046685927017207 0.0003
          <InformationKey name="L2_NORM_RANGE" location="vtkDataArray" length="2">
            <Value index="0">
              0.013166738444
            </Value>
            <Value index="1">
              0.023748225859
            </Value>
          </InformationKey>
        </DataArray>
      </Points>
      <Cells>
        <DataArray type="Int64" Name="connectivity" format="ascii" RangeMin="0" RangeMax="794">
          0 1 2 3 4 5
          6 7 4 5 6 7
          8 9 10 11 12 13
          14 15 16 17 18 19
          16 17 18 19 20 21
          22 23 666 667 14 24
          668 669 18 25 668 669
          18 25 670 671 22 26
          24 14 13 27 25 18
          17 28 25 18 17 28
          26 22 21 29 30 31
          3 2 32 33 7 6
          32 33 7 6 34 35
          11 10 36 37 38 39
          40 41 42 43 40 41
          42 43 44 45 46 47
          48 49 50 51 52 53
          54 55 52 53 54 55
          56 57 58 59 60 61
          62 63 64 65 66 67
          64 65 66 67 68 69
          70 71 72 73 672 74
          75 76 673 77 75 76
          673 77 78 79 674 80
          81 82 83 84 85 86
          87 88 85 86 87 88
          89 90 91 92 93 675
          676 677 94 678 679 680
          94 678 679 680 95 681
          682 683 2 96 97 30
          6 98 99 32 6 98
          99 32 10 100 101 34
          102 103 0 104 105 106
          4 107 105 106 4 107
          108 109 8 110 111 112
          113 114 115 116 117 118
          115 116 117 118 119 120
          121 122 123 124 50 125
          126 127 54 128 126 127
          54 128 129 130 58 131
          132 133 134 51 135 136
          137 55 135 136 137 55
          138 139 140 59 141 142
          143 144 145 146 147 148
          145 146 147 148 149 150
          151 152 112 141 144 113
          116 145 148 117 116 145
          148 117 120 149 152 121
          84 83 153 154 88 87
          155 156 88 87 155 156
          92 91 157 158 159 160
          161 38 162 163 164 42
          162 163 164 42 165 166
          167 46 168 169 170 171
          172 173 174 175 172 173
          174 175 176 177 178 179
          684 180 181 685 686 182
          183 687 686 182 183 687
          688 184 185 689 186 104
          0 187 188 107 4 189
          188 107 4 189 190 110
          8 191 690 691 672 73
          692 693 673 76 692 693
          673 76 694 695 674 79
          198 199 200 201 202 203
          204 205 202 203 204 205
          206 207 208 209 210 72
          74 211 212 75 77 213
          212 75 77 213 214 78
          80 215 216 82 81 217
          218 86 85 219 218 86
          85 219 220 90 89 221
          222 216 217 223 224 218
          219 225 224 218 219 225
          226 220 221 227 171 39
          38 161 175 43 42 164
          175 43 42 164 179 47
          46 167 228 696 685 181
          229 697 687 183 229 697
          687 183 230 698 689 185
          231 699 700 701 232 702
          703 704 232 702 703 704
          233 705 706 707 31 30
          201 200 33 32 205 204
          33 32 205 204 35 34
          209 208 234 235 236 237
          238 239 240 241 238 239
          240 241 242 243 244 245
          36 246 247 248 40 249
          250 251 40 249 250 251
          44 252 253 254 83 255
          256 153 87 257 258 155
          87 257 258 155 91 259
          260 157 235 699 231 236
          239 702 232 240 239 702
          232 240 243 705 233 244
          168 171 161 261 172 175
          164 262 172 175 164 262
          176 179 167 263 171 170
          36 39 175 174 40 43
          175 174 40 43 179 178
          44 47 264 265 266 267
          268 269 270 271 268 269
          270 271 272 273 274 275
          237 276 211 234 241 277
          213 238 241 277 213 238
          245 278 215 242 279 160
          237 236 280 163 241 240
          280 163 241 240 281 166
          245 244 234 211 74 282
          238 213 77 283 238 213
          77 283 242 215 80 284
          285 228 181 286 287 229
          183 288 287 229 183 288
          289 230 185 290 291 168
          261 292 293 172 262 294
          293 172 262 294 295 176
          263 296 297 298 256 255
          299 300 258 257 299 300
          258 257 301 302 260 259
          303 304 97 96 305 306
          99 98 305 306 99 98
          307 308 101 100 309 247
          114 113 310 250 118 117
          310 250 118 117 311 253
          122 121 304 312 313 97
          306 314 315 99 306 314
          315 99 308 316 317 101
          282 74 672 708 283 77
          673 709 283 77 673 709
          284 80 674 710 318 303
          96 319 320 305 98 321
          320 305 98 321 322 307
          100 323 285 187 0 3
          287 189 4 7 287 189
          4 7 289 191 8 11
          223 711 712 324 225 713
          714 325 225 713 714 325
          227 715 716 326 327 210
          211 276 328 212 213 277
          328 212 213 277 329 214
          215 278 717 282 708 718
          719 283 709 720 719 283
          709 720 721 284 710 722
          276 237 160 159 277 241
          163 162 277 241 163 162
          278 245 166 165 330 318
          319 331 332 320 321 333
          332 320 321 333 334 322
          323 335 324 336 222 223
          325 337 224 225 325 337
          224 225 326 338 226 227
          292 261 279 339 294 262
          280 340 294 262 280 340
          296 263 281 341 342 343
          210 327 344 345 212 328
          344 345 212 328 346 347
          214 329 696 228 31 200
          697 229 33 204 697 229
          33 204 698 230 35 208
          298 348 349 256 300 350
          351 258 300 350 351 258
          302 352 353 260 336 343
          342 222 337 345 344 224
          337 345 344 224 338 347
          346 226 96 2 1 319
          98 6 5 321 98 6
          5 321 100 10 9 323
          103 354 355 356 106 357
          358 359 106 357 358 359
          109 360 361 362 339 279
          236 231 340 280 240 232
          340 280 240 232 341 281
          244 233 363 364 365 366
          367 368 369 370 367 368
          369 370 371 372 373 374
          375 376 377 378 379 380
          381 382 379 380 381 382
          383 384 385 386 169 168
          291 312 173 172 293 314
          173 172 293 314 177 176
          295 316 216 222 342 387
          218 224 344 388 218 224
          344 388 220 226 346 389
          223 217 723 711 225 219
          724 713 225 219 724 713
          227 221 725 715 160 279
          261 161 163 280 262 164
          163 280 262 164 166 281
          263 167 356 355 330 331
          359 358 332 333 359 358
          332 333 362 361 334 335
          363 390 391 364 367 392
          393 368 367 392 393 368
          371 394 395 372 396 397
          726 690 398 399 727 692
          398 399 727 692 400 401
          728 694 390 402 403 391
          392 404 405 393 392 404
          405 393 394 406 407 395
          235 234 282 717 239 238
          283 719 239 238 283 719
          243 242 284 721 313 201
          30 97 315 205 32 99
          315 205 32 99 317 209
          34 101 248 247 309 348
          251 250 310 350 251 250
          310 350 254 253 311 352
          200 199 729 696 204 203
          730 697 204 203 730 697
          208 207 731 698 408 409
          375 378 410 411 379 382
          410 411 379 382 412 413
          383 386 153 256 349 366
          155 258 351 370 155 258
          351 370 157 260 353 374
          414 408 378 415 416 410
          382 417 416 410 382 417
          418 412 386 419 420 248
          348 298 421 251 350 300
          421 251 350 300 422 254
          352 302 423 327 276 159
          424 328 277 162 424 328
          277 162 425 329 278 165
          426 427 428 429 430 431
          432 433 430 431 432 433
          434 435 436 437 336 324
          438 439 337 325 440 441
          337 325 440 441 338 326
          442 443 667 732 15 14
          669 733 19 18 669 733
          19 18 671 734 23 22
          444 445 446 447 448 449
          450 451 448 449 450 451
          452 453 454 455 415 456
          457 458 417 459 460 461
          417 459 460 461 419 462
          463 464 12 465 408 414
          16 466 410 416 16 466
          410 416 20 467 412 418
          465 403 409 408 466 405
          411 410 466 405 411 410
          467 407 413 412 376 375
          429 428 380 379 433 432
          380 379 433 432 384 383
          437 436 114 468 469 111
          118 470 471 115 118 470
          471 115 122 472 473 119
          37 423 159 38 41 424
          162 42 41 424 162 42
          45 425 165 46 474 475
          390 363 476 477 392 367
          476 477 392 367 478 479
          394 371 429 375 409 480
          433 379 411 481 433 379
          411 481 437 383 413 482
          342 483 297 387 344 484
          299 388 344 484 299 388
          346 485 301 389 348 309
          474 349 350 310 476 351
          350 310 476 351 352 311
          478 353 480 409 403 402
          481 411 405 404 481 411
          405 404 482 413 407 406
          266 265 376 428 270 269
          380 432 270 269 380 432
          274 273 384 436 486 487
          364 391 488 489 368 393
          488 489 368 393 490 491
          372 395 447 446 492 493
          451 450 494 495 451 450
          494 495 455 454 496 497
          483 420 298 297 484 421
          300 299 484 421 300 299
          485 422 302 301 498 267
          63 499 500 271 67 501
          500 271 67 501 502 275
          71 503 378 377 456 415
          382 381 459 417 382 381
          459 417 386 385 462 419
          504 62 505 506 507 66
          508 509 507 66 508 509
          510 70 511 512 513 61
          426 514 515 65 430 516
          515 65 430 516 517 69
          434 518 499 63 62 504
          501 67 66 507 501 67
          66 507 503 71 70 510
          474 363 366 349 476 367
          370 351 476 367 370 351
          478 371 374 353 519 520
          376 265 521 522 380 269
          521 522 380 269 523 524
          384 273 506 505 525 526
          509 508 527 528 509 508
          527 528 512 511 529 530
          531 377 376 520 532 381
          380 522 532 381 380 522
          533 385 384 524 534 535
          536 537 538 539 540 541
          538 539 540 541 542 543
          544 545 546 536 535 547
          548 540 539 549 548 540
          539 549 550 544 543 551
          141 330 355 123 145 332
          358 126 145 332 358 126
          149 334 361 129 327 423
          483 342 328 424 484 344
          328 424 484 344 329 425
          485 346 193 531 520 552
          195 532 522 553 195 532
          522 553 197 533 524 554
          134 555 526 525 137 556
          528 527 137 556 528 527
          140 557 530 529 480 558
          426 429 481 559 430 433
          481 559 430 433 482 560
          434 437 391 403 465 486
          393 405 466 488 393 405
          466 488 395 407 467 490
          465 12 15 561 466 16
          19 562 466 16 19 562
          467 20 23 563 402 390
          475 564 404 392 477 565
          404 392 477 565 406 394
          479 566 567 568 49 514
          569 570 53 516 569 570
          53 516 571 572 57 518
          558 567 514 426 559 569
          516 430 559 569 516 430
          560 571 518 434 564 475
          143 573 565 477 147 574
          565 477 147 574 566 479
          151 575 561 15 732 735
          562 19 733 736 562 19
          733 736 563 23 734 737
          228 285 3 31 229 287
          7 33 229 287 7 33
          230 289 11 35 576 198
          201 313 577 202 205 315
          577 202 205 315 578 206
          209 317 356 331 319 1
          359 333 321 5 359 333
          321 5 362 335 323 9
          1 0 103 356 5 4
          106 359 5 4 106 359
          9 8 109 362 558 480
          402 564 559 481 404 565
          559 481 404 565 560 482
          406 566 699 235 717 738
          702 239 719 739 702 239
          719 739 705 243 721 740
          73 582 396 690 76 583
          398 692 76 583 398 692
          79 584 400 694 741 742
          585 586 743 744 587 588
          743 744 587 588 745 746
          589 590 72 210 343 591
          75 212 345 592 75 212
          345 592 78 214 347 593
          439 591 343 336 441 592
          345 337 441 592 345 337
          443 593 347 338 576 313
          312 291 577 315 314 293
          577 315 314 293 578 317
          316 295 469 169 312 304
          471 173 314 306 471 173
          314 306 473 177 316 308
          594 365 364 487 595 369
          368 489 595 369 368 489
          596 373 372 491 591 439
          396 582 592 441 398 583
          592 441 398 583 593 443
          400 584 564 573 567 558
          565 574 569 559 565 574
          569 559 566 575 571 560
          573 597 568 567 574 598
          570 569 574 598 570 569
          575 599 572 571 747 748
          199 198 749 750 203 202
          749 750 203 202 751 752
          207 206 420 483 423 37
          421 484 424 41 421 484
          424 41 422 485 425 45
          600 486 465 561 601 488
          466 562 601 488 466 562
          602 490 467 563 561 735
          741 600 562 736 743 601
          562 736 743 601 563 737
          745 602 37 36 248 420
          41 40 251 421 41 40
          251 421 45 44 254 422
          594 487 486 600 595 489
          488 601 595 489 488 601
          596 491 490 602 468 170
          169 469 470 174 173 471
          470 174 173 471 472 178
          177 473 264 492 519 265
          268 494 521 269 268 494
          521 269 272 496 523 273
          414 579 13 12 416 580
          17 16 416 580 17 16
          418 581 21 20 154 153
          366 365 156 155 370 369
          156 155 370 369 158 157
          374 373 339 231 701 603
          340 232 704 604 340 232
          704 604 341 233 707 605
          591 582 73 72 592 583
          76 75 592 583 76 75
          593 584 79 78 606 292
          339 603 607 294 340 604
          607 294 340 604 608 296
          341 605 547 609 610 546
          549 611 612 548 549 611
          612 548 551 613 614 550
          60 427 426 61 64 431
          430 65 64 431 430 65
          68 435 434 69 576 291
          292 606 577 293 294 607
          577 293 294 607 578 295
          296 608 615 616 555 134
          617 618 556 137 617 618
          556 137 619 620 557 140
          586 594 600 741 588 595
          601 743 588 595 601 743
          590 596 602 745 83 387
          297 255 87 388 299 257
          87 388 299 257 91 389
          301 259 144 143 475 474
          148 147 477 476 148 147
          477 476 152 151 479 478
          111 469 304 303 115 471
          306 305 115 471 306 305
          119 473 308 307 753 729
          199 748 754 730 203 750
          754 730 203 750 755 731
          207 752 505 62 61 513
          508 66 65 515 508 66
          65 515 511 70 69 517
          756 610 609 757 758 612
          611 759 758 612 611 759
          760 614 613 761 216 387
          83 82 218 388 87 86
          218 388 87 86 220 389
          91 90 285 621 186 187
          287 622 188 189 287 622
          188 189 289 623 190 191
          264 624 493 492 268 625
          495 494 268 625 495 494
          272 626 497 496 726 397
          627 762 727 399 628 763
          727 399 628 763 728 401
          629 764 630 631 181 180
          632 633 183 182 632 633
          183 182 634 635 185 184
          586 154 365 594 588 156
          369 595 588 156 369 595
          590 158 373 596 765 603
          701 766 767 604 704 768
          767 604 704 768 769 605
          707 770 636 637 186 638
          639 640 188 641 639 640
          188 641 642 643 190 644
          125 50 49 568 128 54
          53 570 128 54 53 570
          131 58 57 572 645 638
          186 646 647 641 188 648
          647 641 188 648 649 644
          190 650 534 646 186 621
          538 648 188 622 538 648
          188 622 542 650 190 623
          93 585 742 675 94 587
          744 678 94 587 744 678
          95 589 746 681 48 51
          134 525 52 55 137 527
          52 55 137 527 56 59
          140 529 627 771 772 762
          628 773 774 763 628 773
          774 763 629 775 776 764
          630 180 684 777 632 182
          686 778 632 182 686 778
          634 184 688 779 154 586
          585 84 156 588 587 88
          156 588 587 88 158 590
          589 92 651 286 181 631
          652 288 183 633 652 288
          183 633 653 290 185 635
          186 637 654 104 188 640
          655 107 188 640 655 107
          190 643 656 110 474 309
          113 144 476 310 117 148
          476 310 117 148 478 311
          121 152 63 267 266 60
          67 271 270 64 67 271
          270 64 71 275 274 68
          616 615 654 657 618 617
          655 658 618 617 655 658
          620 619 656 659 627 397
          396 660 628 399 398 661
          628 399 398 661 629 401
          400 662 579 414 415 458
          580 416 417 461 580 416
          417 461 581 418 419 464
          651 631 547 535 652 633
          549 539 652 633 549 539
          653 635 551 543 723 217
          81 780 724 219 85 781
          724 219 85 781 725 221
          89 782 663 446 445 192
          664 450 449 194 664 450
          449 194 665 454 453 196
          142 597 573 143 146 598
          574 147 146 598 574 147
          150 599 575 151 783 747
          198 576 784 749 202 577
          784 749 202 577 785 751
          206 578 48 513 514 49
          52 515 516 53 52 515
          516 53 56 517 518 57
          318 330 141 112 320 332
          145 116 320 332 145 116
          322 334 149 120 651 621
          285 286 652 622 287 288
          652 622 287 288 653 623
          289 290 60 266 428 427
          64 270 432 431 64 270
          432 431 68 274 436 435
          354 124 123 355 357 127
          126 358 357 127 126 358
          360 130 129 361 303 318
          112 111 305 320 116 115
          305 320 116 115 307 322
          120 119 630 777 757 609
          632 778 759 611 632 778
          759 611 634 779 761 613
          468 246 36 170 470 249
          40 174 470 249 40 174
          472 252 44 178 615 102
          104 654 617 105 107 655
          617 105 107 655 619 108
          110 656 786 783 576 606
          787 784 577 607 787 784
          577 607 788 785 578 608
          519 492 446 663 521 494
          450 664 521 494 450 664
          523 496 454 665 637 636
          657 654 640 639 658 655
          640 639 658 655 643 642
          659 656 663 192 193 552
          664 194 195 553 664 194
          195 553 665 196 197 554
          789 438 324 712 790 440
          325 714 790 440 325 714
          791 442 326 716 102 133
          354 103 105 136 357 106
          105 136 357 106 108 139
          360 109 646 534 537 645
          648 538 541 647 648 538
          541 647 650 542 545 649
          525 505 513 48 527 508
          515 52 527 508 515 52
          529 511 517 56 660 396
          439 438 661 398 441 440
          661 398 441 440 662 400
          443 442 765 786 606 603
          767 787 607 604 767 787
          607 604 769 788 608 605
          624 264 267 498 625 268
          271 500 625 268 271 500
          626 272 275 502 468 114
          247 246 470 118 250 249
          470 118 250 249 472 122
          253 252 535 534 621 651
          539 538 622 652 539 538
          622 652 543 542 623 653
          93 81 84 585 94 85
          88 587 94 85 88 587
          95 89 92 589 438 789
          792 660 440 790 793 661
          440 790 793 661 442 791
          794 662 124 132 51 50
          127 135 55 54 127 135
          55 54 130 138 59 58
          663 552 520 519 664 553
          522 521 664 553 522 521
          665 554 524 523 609 547
          631 630 611 549 633 632
          611 549 633 632 613 551
          635 634 125 142 141 123
          128 146 145 126 128 146
          145 126 131 150 149 129
          102 615 134 133 105 617
          137 136 105 617 137 136
          108 619 140 139 142 125
          568 597 146 128 570 598
          146 128 570 598 150 131
          572 599 124 354 133 132
          127 357 136 135 127 357
          136 135 130 360 139 138
          660 792 771 627 661 793
          773 628 661 793 773 628
          662 794 775 629 81 93
          677 780 85 94 680 781
          85 94 680 781 89 95
          683 782
        </DataArray>
        <DataArray type="Int64" Name="offsets" format="ascii" RangeMin="8" RangeMax="3632">
          8 16 24 32 40 48
          56 64 72 80 88 96
          104 112 120 128 136 144
          152 160 168 176 184 192
          200 208 216 224 232 240
          248 256 264 272 280 288
          296 304 312 320 328 336
          344 352 360 368 376 384
          392 400 408 416 424 432
          440 448 456 464 472 480
          488 496 504 512 520 528
          536 544 552 560 568 576
          584 592 600 608 616 624
          632 640 648 656 664 672
          680 688 696 704 712 720
          728 736 744 752 760 768
          776 784 792 800 808 816
          824 832 840 848 856 864
          872 880 888 896 904 912
          920 928 936 944 952 960
          968 976 984 992 1000 1008
          1016 1024 1032 1040 1048 1056
          1064 1072 1080 1088 1096 1104
          1112 1120 1128 1136 1144 1152
          1160 1168 1176 1184 1192 1200
          1208 1216 1224 1232 1240 1248
          1256 1264 1272 1280 1288 1296
          1304 1312 1320 1328 1336 1344
          1352 1360 1368 1376 1384 1392
          1400 1408 1416 1424 1432 1440
          1448 1456 1464 1472 1480 1488
          1496 1504 1512 1520 1528 1536
          1544 1552 1560 1568 1576 1584
          1592 1600 1608 1616 1624 1632
          1640 1648 1656 1664 1672 1680
          1688 1696 1704 1712 1720 1728
          1736 1744 1752 1760 1768 1776
          1784 1792 1800 1808 1816 1824
          1832 1840 1848 1856 1864 1872
          1880 1888 1896 1904 1912 1920
          1928 1936 1944 1952 1960 1968
          1976 1984 1992 2000 2008 2016
          2024 2032 2040 2048 2056 2064
          2072 2080 2088 2096 2104 2112
          2120 2128 2136 2144 2152 2160
          2168 2176 2184 2192 2200 2208
          2216 2224 2232 2240 2248 2256
          2264 2272 2280 2288 2296 2304
          2312 2320 2328 2336 2344 2352
          2360 2368 2376 2384 2392 2400
          2408 2416 2424 2432 2440 2448
          2456 2464 2472 2480 2488 2496
          2504 2512 2520 2528 2536 2544
          2552 2560 2568 2576 2584 2592
          2600 2608 2616 2624 2632 2640
          2648 2656 2664 2672 2680 2688
          2696 2704 2712 2720 2728 2736
          2744 2752 2760 2768 2776 2784
          2792 2800 2808 2816 2824 2832
          2840 2848 2856 2864 2872 2880
          2888 2896 2904 2912 2920 2928
          2936 2944 2952 2960 2968 2976
          2984 2992 3000 3008 3016 3024
          3032 3040 3048 3056 3064 3072
          3080 3088 3096 3104 3112 3120
          3128 3136 3144 3152 3160 3168
          3176 3184 3192 3200 3208 3216
          3224 3232 3240 3248 3256 3264
          3272 3280 3288 3296 3304 3312
          3320 3328 3336 3344 3352 3360
          3368 3376 3384 3392 3400 3408
          3416 3424 3432 3440 3448 3456
          3464 3472 3480 3488 3496 3504
          3512 3520 3528 3536 3544 3552
          3560 3568 3576 3584 3592 3600
          3608 3616 3624 3632
        </DataArray>
        <DataArray type="UInt8" Name="types" format="ascii" RangeMin="12" RangeMax="12">
          12 12 12 12 12 12
          12 12 12 12 12 12
          12 12 12 12 12 12
          12 12 12 12 12 12
          12 12 12 12 12 12
          12 12 12 12 12 12
          12 12 12 12 12 12
          12 12 12 12 12 12
          12 12 12 12 12 12
          12 12 12 12 12 12
          12 12 12 12 12 12
          12 12 12 12 12 12
          12 12 12 12 12 12
          12 12 12 12 12 12
          12 12 12 12 12 12
          12 12 12 12 12 12
          12 12 12 12 12 12
          12 12 12 12 12 12
          12 12 12 12 12 12
          12 12 12 12 12 12
          12 12 12 12 12 12
          12 12 12 12 12 12
          12 12 12 12 12 12
          12 12 12 12 12 12
          12 12 12 12 12 12
          12 12 12 12 12 12
          12 12 12 12 12 12
          12 12 12 12 12 12
          12 12 12 12 12 12
          12 12 12 12 12 12
          12 12 12 12 12 12
          12 12 12 12 12 12
          12 12 12 12 12 12
          12 12 12 12 12 12
          12 12 12 12 12 12
          12 12 12 12 12 12
          12 12 12 12 12 12
          12 12 12 12 12 12
          12 12 12 12 12 12
          12 12 12 12 12 12
          12 12 12 12 12 12
          12 12 12 12 12 12
          12 12 12 12 12 12
          12 12 12 12 12 12
          12 12 12 12 12 12
          12 12 12 12 12 12
          12 12 12 12 12 12
          12 12 12 12 12 12
          12 12 12 12 12 12
          12 12 12 12 12 12
          12 12 12 12 12 12
          12 12 12 12 12 12
          12 12 12 12 12 12
          12 12 12 12 12 12
          12 12 12 12 12 12
          12 12 12 12 12 12
          12 12 12 12 12 12
          12 12 12 12 12 12
          12 12 12 12 12 12
          12 12 12 12 12 12
          12 12 12 12 12 12
          12 12 12 12 12 12
          12 12 12 12 12 12
          12 12 12 12 12 12
          12 12 12 12 12 12
          12 12 12 12 12 12
          12 12 12 12 12 12
          12 12 12 12 12 12
          12 12 12 12 12 12
          12 12 12 12 12 12
          12 12 12 12 12 12
          12 12 12 12 12 12
          12 12 12 12 12 12
          12 12 12 12 12 12
          12 12 12 12 12 12
          12 12 12 12
        </DataArray>
      </Cells>
    </Piece>
  </UnstructuredGrid>
</VTKFile>
