<?xml version="1.0"?>
<VTKFile type="UnstructuredGrid" version="0.1" byte_order="LittleEndian" header_type="UInt32" compressor="vtkZLibDataCompressor">
  <UnstructuredGrid>
    <Piece NumberOfPoints="789" NumberOfCells="452">
      <PointData>
        <DataArray type="Int32" Name="libmesh_node_id" format="ascii" RangeMin="0" RangeMax="1901">
          0 1 2 3 4 5
          6 7 8 9 10 11
          12 13 14 15 16 17
          18 19 20 21 22 23
          24 25 26 27 28 29
          30 31 32 33 34 35
          36 37 38 39 40 41
          42 43 44 45 46 47
          48 49 50 51 52 53
          54 55 56 57 58 59
          60 61 62 63 64 65
          66 67 68 69 70 71
          72 73 74 75 76 77
          78 79 80 81 82 83
          84 85 86 87 88 89
          90 91 92 93 94 95
          96 97 98 99 100 101
          102 103 104 105 106 107
          108 109 110 111 112 113
          114 115 116 117 118 119
          180 181 182 183 184 185
          186 187 188 189 190 191
          192 193 194 195 196 197
          198 199 200 201 202 203
          204 205 206 207 208 209
          210 211 212 213 214 215
          216 217 218 219 220 221
          222 223 224 225 226 227
          228 229 230 231 232 233
          234 235 236 237 238 239
          270 271 272 273 274 275
          276 277 278 279 280 281
          282 283 284 285 286 287
          288 289 290 291 292 293
          294 295 296 297 298 299
          300 301 302 303 304 305
          306 307 308 309 310 311
          312 313 314 315 316 317
          318 319 320 321 322 323
          324 325 326 327 328 329
          360 361 362 363 364 365
          366 367 368 369 370 371
          372 373 374 375 376 377
          378 379 380 381 382 383
          384 385 386 387 388 389
          390 391 392 393 394 395
          396 397 398 399 400 401
          402 403 404 405 406 407
          408 409 410 411 412 413
          414 415 416 417 418 419
          450 451 452 453 454 455
          456 457 458 459 460 461
          462 463 464 465 466 467
          468 469 470 471 472 473
          474 475 476 477 478 479
          480 481 482 483 484 485
          486 487 488 489 490 491
          492 493 494 495 496 497
          498 499 500 501 502 503
          504 505 506 507 508 509
          540 541 542 543 544 545
          546 547 548 549 550 551
          552 553 554 555 556 557
          558 559 560 561 562 563
          564 565 566 567 568 569
          570 571 572 573 574 575
          576 577 578 579 580 581
          582 583 584 585 586 587
          588 589 590 591 592 593
          594 595 596 597 598 599
          630 631 632 633 634 635
          636 637 638 639 640 641
          642 643 644 645 646 647
          648 649 650 651 652 653
          654 655 656 657 658 659
          660 661 662 663 664 665
          666 667 668 669 670 671
          672 673 674 675 676 677
          678 679 680 681 682 683
          684 685 686 687 688 689
          720 721 722 723 724 725
          726 727 728 729 730 731
          732 733 734 735 736 737
          738 739 740 741 742 743
          744 745 746 747 748 749
          750 751 752 753 754 755
          756 757 758 759 760 761
          762 763 764 765 766 767
          768 769 770 771 772 773
          774 775 776 777 778 779
          810 811 812 813 814 815
          816 817 818 819 820 821
          822 823 824 825 826 827
          828 829 830 831 832 833
          834 835 836 837 838 839
          840 841 842 843 844 845
          846 847 848 849 850 851
          852 853 854 855 856 857
          858 859 860 861 862 863
          864 865 866 867 868 869
          870 871 872 873 874 875
          1272 1273 1274 1275 1276 1277
          1326 1327 1328 1353 1354 1355
          1380 1381 1382 1407 1408 1409
          1434 1435 1436 1677 1678 1679
          1704 1705 1706 1731 1732 1733
          1758 1759 1760 1785 1786 1787
          1788 1789 1790 1812 1813 1814
          1815 1816 1817 1839 1840 1841
          1842 1843 1844 1866 1867 1868
          1869 1870 1871 120 121 122
          123 124 125 240 241 242
          330 331 332 420 421 422
          510 511 512 600 601 602
          690 691 692 780 781 782
          783 784 785 876 786 877
          787 878 788 1278 1279 1280
          1281 1282 1283 1329 1330 1331
          1356 1357 1358 1383 1384 1385
          1410 1411 1412 1437 1438 1439
          1461 1462 1463 1464 1465 1466
          1488 1489 1490 1515 1516 1517
          1542 1543 1544 1569 1570 1571
          1596 1597 1598 1623 1624 1625
          1650 1651 1652 1680 1653 1681
          1654 1682 1655 1707 1708 1709
          1734 1735 1736 1761 1762 1763
          1791 1764 1792 1765 1793 1766
          1818 1819 1820 1845 1846 1847
          1872 1873 1874 1893 879 1894
          880 1895 881 1896 1897 1898
          1899 1900 1901
        </DataArray>
        <DataArray type="Float64" Name="resid_x" format="ascii" RangeMin="-16.78947730754759" RangeMax="6.525740982061969">
          -4.034195411228371 -0.000004969921118203047 0.010445836649749296 -8.042567294166659 -8.069882935270813 -0.000013470102893542446
          0.0016334864985090292 -16.05199609814301 -4.036975673271123 -0.00007025797295234781 -0.0014268780297221895 -8.002613319991319
          0.08437922304231149 -8.056490717571418 -0.011980923572740831 -15.852240340978886 -0.19850926342318553 -7.752728956088502
          0.046490737107397706 -7.866729295087772 0.0414636303000151 -15.636609552194006 -0.02150512241440028 -7.740293428548334
          0.011518048218863264 -7.832776637140426 0.04681592528398326 -15.64594097613289 0.037587335039847236 -7.798470131376062
          0.1508916348318352 -7.9934599161622275 0.5828566814019811 -16.09790328247449 0.34662975713096333 -8.039077173961225
          0.03417750626695826 -7.980312632116476 0.12157311562020512 -15.973536395117097 0.07194879712295332 -7.975936247685175
          -0.0002562931808380853 -8.084252400919233 -0.0004190595186130963 -16.16255487215855 -0.00007286548274620941 -8.079333132950307
          -0.0003589240104293623 -8.220270328685668 -0.0003065205593690834 -16.442058815571226 -0.000036518523407913506 -8.221887789917337
          -0.00028911076785309575 -8.303396728749142 -0.00032171924146151554 -16.60793549866303 -0.00010872947236073571 -8.30479759578456
          -0.0002811780249860618 -8.347063056680152 -0.0003182007259390218 -16.69539769955427 -0.0000818280673442473 -8.348709126497146
          -0.0002704581436532294 -8.366722061778496 -0.00028982626606133266 -16.734802743147448 -0.00008023023587977463 -8.36871661995708
          -0.00027226394705426316 -8.363052692577462 -0.0002958012855485137 -16.725834473125296 -0.00007377684399845208 -8.363017746952272
          0.0005977250474940021 -8.368578324362302 0.002444293252522378 -16.7293640238734 0.00184987735172637 -8.35822299735781
          0.014280533517412763 -8.406100183994191 0.03543298430490793 -16.78947730754759 0.021411050532333498 -8.369577364858793
          0.01158259791604177 -8.35194584825965 0.022555618668648414 -16.66284594290251 0.024001610623789915 -8.299961611299754
          0.017578633588269277 -8.204777913510632 0.03414188917325589 -16.379814563019973 0.01665091962136156 -8.157808733032505
          0.003061272664944603 -7.99791256490807 -0.0038313014852517924 -15.986787428844643 -0.008889897773317834 -7.987671075673671
          -0.01930878282053028 -7.795607155212734 -0.05728247574408618 -15.61444627969562 -0.041065679345701156 -7.838191202111362
          -0.05178161783878732 -7.633521212243602 -0.13144284454821564 -15.339927875807595 -0.08704586316538876 -7.75295189371551
          0.00037829811975953476 0.0007337434650307451 0.0001521267068120835 0.018514221108842488 -0.00010284267057070196 0.02224577987601739
          0.010628674867059651 0.15237405971201268 0.28922437578033655 0.05464939745208941 0.1264282243031758 0.08250541629145403
          0.038348842066045385 0.09090196371007009 0.05353173244254039 -0.004015897101256716 -0.530004849750128 -0.11849567455329746
          0.0032190561139335827 -0.11862129228775897 -0.02610579844760519 0.0004588783045633704 0.0008476081385300205 0.0005826217393334332
          0.0005892280679402617 0.0007455569975478582 0.00018552232233748356 0.00041739868808843283 0.00042310656324318074 0.00011748216859608362
          0.00017508503857932567 0.00031926541052040847 0.0002774726379213277 0.00018848970396678766 0.00034344460870183724 0.00030593230111897185
          0.0003165437784540259 0.0005636508538975349 0.00043557004496008744 0.0025437830455876664 0.00678512055316105 0.00449339503475521
          0.032028194158972845 0.07505273106453192 0.0432956442701844 0.06864550275739933 0.1262689615267787 0.05598030515826835
          0.05217713678859859 0.08435413632006217 0.028714279181558666 0.0056827036273405795 -0.0168948269650655 -0.02721732991485659
          -0.04165310739627692 -0.1290368551842178 -0.09572975030110831 -0.1036807728418605 -0.27882889617061 -0.19024342715509057
          -0.00006198027444437315 0.0032155229928081397 -0.00006786111606160716 0.026678380288639225 0.000014123304984181573 0.034133533813827555
          0.016760767553770428 0.16570111892443817 0.17107212779819925 0.07350936239648975 0.14162047539285094 0.054255132765472336
          0.09126220148851871 0.16203503750018955 0.06787646567128913 -0.05854508052750962 0.04662004833396116 0.08834155694410573
          -0.009608462937287676 0.0037621635137012888 0.010220159695795594 -0.0000010038365196862742 -0.00006936501808851858 0.000025195345015660564
          -0.000034693653335970964 -0.00016027906425453153 -0.000023285074704837427 0.00009418643110592484 -0.00008035172208131769 -0.000023165425827365027
          0.000026918959615152005 -0.00005638151636411237 -0.0000036031427148586204 -0.000007218288528676453 -0.00007254694191072275 0.000016128804762871596
          0.00001756923879892014 -0.0000834063297148191 0.0000184810862133844 0.00585741329560463 0.008137356837502274 0.00345450553615656
          0.06491853415123217 0.10048865643735372 0.042704640501037616 0.09610477795012873 0.16684507927912762 0.066712247706878
          0.06434016548166 0.09001675458510316 0.018584804381816866 -0.0015588491245579483 -0.05979297669397754 -0.06766745078703629
          -0.07780786817117358 -0.23960192141025471 -0.17807127393937883 -0.18541951571866377 -0.46531505415243135 -0.2619111965901917
          -0.00012835974726765897 0.01109745732479972 -0.00007503524324192767 0.015302473153989471 -0.00008222728674933677 0.0038722137627074105
          0.06179746734143121 0.06237055359069954 -0.0050239970082794905 0.06323922097505541 0.07362708940145302 0.006637227927832168
          0.14020380061984916 0.20460239434232852 0.05275896975625205 -0.03024628162795917 0.24069026196992782 0.21326974272088695
          -0.01398099439859557 0.025721083177711712 0.02838458528693133 0.000026113994692877895 -0.00010508921695873141 -0.00002840701100570442
          -0.000025651915524171898 -0.00012430548964292853 -0.000040661622763060734 0.00007508543230905218 -0.00006597830892740575 -0.00001812215020269292
          0.00003466024010201352 -0.00003084531910246824 0.000011883506632059948 0.000008944172286362573 -0.000053169139691888745 0.000037239660787058426
          0.000026402123832092173 -0.00007318321087623758 0.000018956295552818858 0.009371151825206425 0.008148010261123773 -0.01150832875434471
          0.09224432124802018 0.1123189704781451 -0.025723714156851152 0.10560076702267107 0.16857555451127304 0.05668357166116156
          0.05303418982371655 0.0432500104437068 -0.02093852130483853 -0.03581385566665185 -0.15560468219320356 -0.1273597809206315
          -0.15710037049360626 -0.35073492551368624 -0.14498693293466935 -0.247952088544249 -0.3145196893557207 -0.03952334898394305
          0.00001845730892391373 0.013069469809316114 -0.00007846216502294112 0.019450084803610324 -0.0003676997279740135 0.006362506432371795
          0.059420112700701466 0.06448359341461263 0.005268068141308646 -0.0017833500173147776 -0.020509079584495105 -0.021925646462720216
          0.11082126171326268 0.11582557537892058 -0.01886088653672857 0.4529383870150241 0.4591250298031002 -0.06674318814723401
          0.0612471437751787 0.05394668660464852 -0.011745662772174814 0.00001905727738193974 -0.0001556989996105429 -0.000020532901096714795
          -0.00003555448513736792 -0.00011114031729864138 -0.00007176327022229145 0.000045517684623241905 -0.00002867620897450962 -0.00003065230497867333
          0.000016076648971186103 -0.00003683139226318133 0.00005545982064436572 0.000023581187170051976 -0.00008261850106805468 0.000008419146563909408
          0.00003185256743698517 -0.00005460106351229399 0.000029717682369145848 0.010506810389345311 0.043693698929531344 0.08750852042447477
          0.0918947141514792 0.21528532862042038 0.174889055988249 0.07828645109925292 0.10208670704656786 0.011490322030828004
          -0.0036825948611722836 -0.08025015401467339 -0.08655985387789134 -0.12745158806631274 -0.2591201926780169 -0.09595696631505302
          -0.17502783906304042 -0.17954700871462492 -0.010572754592811151 -0.03590468113783096 -0.01993498843146302 -0.002564602546780037
          0.0003970778003061781 0.010398534600475351 -0.00014306154154475337 0.022505150246453276 -0.0007894692294341255 0.011681750042546568
          0.04124076856901926 0.07197352280963853 0.030339895054758426 -0.040756293196162474 -0.06375672418047396 -0.02866360519666733
          -0.027183647103374398 -0.08795311444641563 -0.07078424098525637 3.7697690155363843 3.029017623903304 -0.16271215080118884
          0.8234458327770353 0.6623946156436187 -0.020392682585342214 -0.000032459986267774354 -0.00027672166003256393 -0.00005859644531369668
          0.000018924227179972775 -0.0000329147534694485 -0.00009051490754607983 -0.00000467698490602686 -0.000022438474514885343 0.00000797674549168903
          0.00002577623978972099 -0.00008870006234307226 0.00002081320934887998 0.00003848583750887258 -0.00006892459013041474 0.000015855674949882825
          0.00002820199274644608 -0.000054086355363303085 0.00007293681104236782 0.11019284420722286 0.3309719713511008 0.058106044030985515
          0.11333049000921092 0.25201503055962204 0.06907040664213682 -0.004816586161554781 -0.04130105145325924 -0.048893499398658946
          -0.13355173001088083 -0.260441815401216 -0.11144831167058822 -0.168349467322626 -0.18652268518788429 -0.020831533875472097
          -0.02109799930872569 -0.012699593671681164 -0.001903436884294507 -0.0022523807775867155 -0.0021960561736493744 -0.0020504282491575765
          0.0007643018949918812 0.018532350193743774 -0.00006367902074000398 0.09494872529339338 -0.0009089960916561779 0.23187115145235992
          0.014696260751628554 0.06595086024482866 0.09726331124780607 -0.06161826108113155 -0.08198904454378209 -0.027524966692698882
          -0.2731988039526865 -0.3889878639885156 -0.09391917113989612 -4.345593592312014 -4.039637275145154 -0.26035496221441967
          -0.8951311646083275 -0.8089480325095353 -0.05262657230624157 0.00014407134175886682 -0.00009826819695657463 -0.00013403879033457855
          0.00003370866663576777 -0.00006435897672929514 -0.00003257126164246671 -0.000030900707558068063 -0.00010223412557941458 -0.00003129362443043959
          0.00006251686092628717 -0.00004732937518259206 0.000016706496370311186 0.000015870623029101694 -0.00008907730748219933 0.00006293049603023348
          0.00003190323354651525 0.02041891289378306 0.03008923101070593 0.05905515520981375 0.06595933000228182 0.16166402264410173
          0.023976452123465997 -0.009383454896591648 -0.006820194778693001 -0.15698934992116298 -0.2578252251428159 -0.10790364050869261
          -0.21083455474521084 -0.28302154690242887 -0.060390879673184905 -0.025704896282358725 -0.02082977032851474 -0.0034021152021921353
          -0.000813623150861531 -0.0013871332910753154 -0.00447845617032705 -0.0006253585324698108 -0.002044096308082999 -0.004432922850512888
          0.01529929260493823 0.026297250477570255 0.00562437598019816 0.06371532229491184 0.0009374654814884309 0.03256761214701864
          0.013319138111673734 0.011130927057264373 -0.029525478740776823 -0.1747768589377907 -0.34706635626998805 -0.13155446219115774
          -0.49496275913842425 -0.8341369168722359 -0.3159214288316594 -0.15678936933783216 -0.5410085703094412 -0.2739378167572295
          0.021227511613180816 0.003994412233699229 -0.00034832982613952623 0.00022252341295381228 0.00003799860614428496 -0.000057881335746579055
          -0.000026295970084966314 -0.0001873756124481929 -0.00009936881136063391 0.000017259509289324626 -0.00008722871739585969 -0.00005356645216991751
          0.000013059735598730526 -0.000043431279914685206 0.00005056897467259347 0.000045897513257564526 -0.000005866156884692941 0.00023852119374723202
          0.04940365099921795 0.07236194838909338 0.011132097968018506 0.22849709583583477 0.32969776479778057 0.04185830325362705
          -0.11567423736839944 -0.23355141079677288 -0.10807152689399402 -0.2198755906104619 -0.3954812313237239 -0.1439957644330132
          -0.035851262239349424 -0.050741545289514356 -0.013507722377488207 -0.0010016061530313536 0.0006866076236597962 -0.0019381724229230457
          -0.0014888110421864553 -0.0009338523398181309 -0.002602881849540495 0.0008353855266687304 0.0033411485192322843 -0.0016576006307795765
          0.47312732096427546 0.7480003498398897 0.9490673713261844 1.4491505848707131 0.8784426873612152 0.8601266293965693
          -0.00285485304737243 -0.026620973002695614 -0.06711621556142866 -0.5708680329077955 -1.1492035871500104 -0.6005531322255804
          -0.2771459255590285 -0.6911720721904562 -0.41573595279022957 -0.05440159428780422 -0.06360526082374474 -0.03958239779838468
          -0.007115892488185338 -0.0020786305963200746 0.0003264018367978849 0.0007340440555916317 0.00005677785302093952 0.00036618190229464886
          0.00037709989567069613 0.0005481345619742228 0.0002760720283214724 0.0009433283821076444 0.0015978771820179816 0.0007247916037771418
          0.10729114728055844 0.21068067988166117 0.10303353243074653 0.4124103486008379 0.8022318033666005 0.3813343944380829
          0.3806591649144129 0.7210494661794296 0.3277944419039116 -0.22715905615470255 -0.453304768970364 -0.21353410951126683
          -0.3358335532510015 -0.6061911973042218 -0.25845458997083615 -0.07038026390177965 -0.1096507267973248 -0.0412978094477392
          0.001044515947460134 0.0022485288120828173 -0.012328314479642 -0.0018119880912657038 0.0007523508541602553 -0.01222955645256718
          0.0016674807571068762 0.002858570917696035 -0.01409605920293222 0.0016566854252859642 -0.0007922053494571202 -0.014398465660544701
          -0.009195506428594236 -0.03540329076290405 -0.03406835110523243 0.016538039146588357 0.026426307232513935 -0.030623394079394295
          0.8124719464227677 3.104508782483574 1.5928708344740128 6.525740982061969 -0.557956887908698 -0.5684322693301889
          -0.4304559325258821 -0.9059742871317491 -0.39868387275897277 -0.04877868876832281 -0.09254255828261382 -0.04288784153555092
          0.0031398586586171007 0.004108169079270141 0.0019114909337636377 0.0014585647228200216 0.003393762551405999 0.0021530187462124317
          0.0026694718033262177 0.0030656878988564173 0.00205029601735518 -0.00019249097113727132 -0.00013466171863818488 -0.004196618587479328
          -0.0029462107785453995 -0.005798290291060937 -0.009819107866050558 -0.004725589017309684 -0.006082867569615846 -0.011311762168326744
          -0.0009458209789028338 -0.002122333884838401 -0.014065631514150745 0.0002339794879295809 0.001596898246871703 -0.009911136031675483
          -0.007043765888672393 -0.009268337817274208 -0.011392130836576975 0.000624093059157449 0.009767740723476859 -0.001354944434350358
          0.007122041345223096 0.012996399085164256 -0.0044005162208033965 0.0004946027739554104 -0.002575348883373074 -0.023681595527774046
          -0.00003856316641437374 -0.009140052858376713 -0.016872530226229365 0.01717980940316499 0.02715451464771368 0.001812545973626456
          0.003073812532943254 0.0060099045158192865 0.0005564217048741327 -0.03710730664818351 -7.647367335289888 -0.1936806266595017
          -15.399468573119767 -0.15284897324913604 -7.834829799443925 -0.18706856528804305 -0.4682311867124809 -0.2820299199441685
          -0.31190580251846445 -0.4976762310187093 -0.11300554848325728 -0.08312696748726633 -0.07020820734347755 0.0014877720854515886
          -0.001891026739666124 0.005629241411639896 -0.0014538830722488072 0.00001008444657646379 0.009452998414760216 -0.004024633174106285
          0.0014495207507838614 0.004381015301876623 -0.004526585665029614 -0.013481060610772921 -0.024158130240842013 -0.01687325983248389
          -0.009481994399436644 -0.012179025182483372 -0.007069229263011678 0.005713530001156819 -0.004146404234736778 0.008423823994540669
          -0.006485590572939515 -0.018418548752462627 -0.005614940825432235 -2.0142373112954317 -2.5968323040552095 -4.050955214144736
          -5.159937414422987 -1.7964267996124477 -1.56789125799048 -0.20245001897155568 -0.3638219498555664 -0.08268924164758396
          0.07490980006783943 0.16096090270008645 0.10615834199266239 0.0020106686605334545 0.0027175235526470942 0.0032525103159990465
          0.0022781786118954983 0.004838254517913754 0.0032147775362396658 0.2527069602496539 0.5005318293749035 0.24843162872430824
          0.23848442926026614 0.4747487160965598 0.2380469533957701 0.40579030802796723 0.7872051077359039 0.37627941957644895
          0.6043951376531123 1.195640742829566 0.5905378248191706 0.6258382958224491 1.2222493800660086 0.5894777213630169
          0.39788086868081507 0.755390516279931 0.34711770203640846 -0.17481406961716672 -0.379674466925195 -0.2107020680955678
          -0.4054064856980908 -0.7763481769879128 -0.36491417307740015 -0.19331135888864104 -0.3418284504449858 -0.1458807487278655
          -0.01150715007531744 -0.017626641769615148 -0.010086581357223068 -0.0012403418850617243 -0.0018779332810430205 0.0013142955651623822
          -0.0014430439461747824 -0.008617530327146739 -0.008091385236506987 -0.0018321408350310264 -0.00419817573176573 -0.01382343951890519
          -0.0007335568436079853 -0.005628605250496577 -0.015268670672540452 -0.0019162610233030009 -0.0036656675185522403 -0.009589941048256279
          0.00009800457639741467 -0.0021020126409085904 0.003542028077312409 -0.0005226386440959629 -0.0051515536340591694 -0.009072973332597378
          -0.0041288613030960875 -0.005029344462990082 -0.005071132482878937 0.00019020356157106733 0.0015082971490443242 -0.0005555109146051507
          -0.004187092994644814 -0.008731868852439817 -0.0032196560290174148 0.0001970811421383445 0.0007612024144556528 0.0018518838314416364
          -0.0022557495001098715 0.00014991365046279626 -0.008992960868078548 -0.0020237922689432253 -0.004421357485899335 -0.00011294037876030671
          0.0010619768922950357 0.0020050550105299436 0.006639022249218307
        </DataArray>
        <DataArray type="Float64" Name="resid_y" format="ascii" RangeMin="-2.0851691590222683" RangeMax="2.1069207713772893">
          -0.009961719038133162 -0.01860098045258392 -0.026779386255867118 -0.011617297859045354 -0.02289265106541969 -0.038110547180377284
          -0.043687944685368456 -0.022224143495285453 -0.01575389079883062 -0.014345378955374749 -0.004640731546714155 -0.0027197854163633307
          -0.052021663456741994 -0.02522572353165805 -0.1116525537095683 -0.056292470675507474 -0.06878885212545616 -0.04190312289154509
          -0.01753011483893216 -0.014013175018810942 -0.04311901792308584 -0.026621773038377997 -0.03276095105059561 -0.010320848591581527
          0.015337323114398588 0.007216755891484794 0.02874053847198537 0.018399105885810133 0.016487508277784668 0.010677531784803088
          0.0687502402086545 0.03696470473403073 0.07698729721857213 0.05124526930988594 0.056425303011703655 0.037100565609445385
          0.009932767979472054 0.00014495889661309685 0.08371927884992475 0.020707671564485823 0.02682201517540886 -0.0015402181648120107
          0.00000975493649321528 -0.0010999526521723174 0.00018923921665711663 -0.002957317916669446 -0.00014771267364231677 -0.0019445153563932664
          -0.00014442907837008273 -0.0010895968926168658 0.00012614287329724277 -0.0029142283315840393 -0.00009200591840028902 -0.0020155663766635336
          -0.00010224168660887944 -0.0009965046675219236 0.0001499296862975544 -0.002744620623603332 -0.000037929784583361735 -0.0018701783612234887
          -0.00007828667225590752 -0.00097753501846321 0.0001439677771686524 -0.002673875463457806 -0.000058647922491928545 -0.0018397879675569103
          -0.0001644023622395241 -0.0010957877614195533 0.00012160652143885196 -0.002957419552995319 -0.00006324321132484406 -0.00201789427329724
          -0.0001612236175675824 -0.001208455799883778 0.0001292855981425388 -0.003260668531212676 -0.00008232313506694247 -0.0022054728794625583
          -0.0027539218807490183 -0.0024692799196829526 -0.006144548759428953 -0.00627368292068782 -0.004017372870249444 -0.00408516539711341
          -0.003416516796433511 -0.002323323721899098 -0.008358047650668209 -0.006699523465638159 -0.0058946306273538265 -0.004831642691000624
          -0.011489065257607935 -0.008007932438597744 -0.021771175258455757 -0.01663997805237055 -0.009627415912655687 -0.007853864029417634
          -0.015093933133158783 -0.008233292056477583 -0.02810763648722591 -0.01708112994735587 -0.013911210172444892 -0.009808149307785518
          -0.018527433186452183 -0.011469051486334467 -0.03311022133006391 -0.022452428136028938 -0.01405415559074577 -0.01066280040773092
          -0.017781662493828836 -0.011008996281453827 -0.030500524501415018 -0.021044519487606744 -0.011974506621869819 -0.009699114082994066
          -0.013585845919153473 -0.009308425982591179 -0.019534135373714304 -0.015721635259806976 -0.005071125037600486 -0.005820853337743492
          -0.017658821240975797 -0.029266294960016065 -0.03233519612521166 -0.04954546146056465 -0.011573636433945045 -0.013623118656567604
          -0.05580560468029802 -0.11507855604357053 -0.05892075786269715 -0.01466992758366907 -0.04192351208497503 -0.03357634877909821
          0.018970850234260497 0.0326841081683821 0.014021039091142162 0.05374598579161679 0.0830751232338206 0.05225808086332946
          0.024922876823410794 0.08851673715191805 0.037576278582831815 -0.0021294403900002333 -0.0032544770336286853 -0.0019360527383535248
          -0.002346461157682282 -0.0034990745445478764 -0.0019763861430458435 -0.0020671498557956218 -0.0030765177350519975 -0.0017892896920041722
          -0.001896162849034641 -0.002857510056508049 -0.0017348684585191936 -0.001996324647173765 -0.002909049601834933 -0.0017727534238350297
          -0.0021999848312147484 -0.0032201180520178424 -0.001960534357261689 -0.0059757183398687075 -0.012614172960161709 -0.007876147550116638
          -0.01010464933851983 -0.020438935494495675 -0.011811591117533519 -0.013182659658870936 -0.02290963204399948 -0.010534114900358806
          -0.015495234001527323 -0.02730397480684094 -0.01209052227187455 -0.016120806083342112 -0.02658831985401303 -0.010558212218826524
          -0.01549125953693347 -0.023422843248073446 -0.0073715828294639435 -0.006941569339746174 -0.0061139052674599285 0.002808479128792757
          -0.016745172806098177 -0.02945588204140099 -0.03133147164426282 -0.05971937849844004 -0.02174680732084553 -0.022990938212544308
          -0.061343702007923426 -0.12628067577677585 -0.07153222324781419 -0.025829778044709664 -0.04894161158961696 -0.02112374738261749
          0.03004238715670668 0.05002172679205351 0.01397401873137974 0.058779770401911256 0.12028844572578587 0.061315502267082274
          0.021136731640676143 0.050555984907678306 0.03243607953822028 -0.0005253788565892648 -0.00015161444767625154 -0.0007344839578976373
          -0.0005614038194367292 -0.00013339542530537872 -0.0005792292387920273 -0.0006410802342353321 -0.00012984592952058546 -0.000560449343434891
          -0.0006039025076147279 -0.0001344232170042911 -0.0006476124346827539 -0.0006538330531059636 -0.0001434918145494877 -0.000705367936403618
          -0.0007108778376344015 -0.00016640202106801838 -0.0007497858693564993 -0.006520862685765242 -0.013308891728635284 -0.008692964467596884
          -0.014892295070003687 -0.029047959349991683 -0.015688738602248585 -0.01188291533162858 -0.019048550595688538 -0.007528507691305586
          -0.006959517140504107 -0.009090775008092133 -0.0027584429679195083 -0.005993412976316746 -0.004743891175159554 0.0011838689117014273
          -0.004821546304214537 0.00003748277239048331 0.005176589577791935 0.009123625145938424 0.021425213854632533 0.008157209145183721
          -0.01617344016734515 -0.03212882822673428 -0.027476766458602343 -0.07054973263392685 -0.01872028974039018 -0.03828581688561971
          -0.06508566192220085 -0.13159058517531594 -0.06700805858397346 -0.03723121705120781 -0.054712265559070286 -0.017165648821515528
          0.03900985422950143 0.04296994113721833 -0.0007408735997704585 0.07211244237560294 0.13335878455282077 0.06412656093491377
          0.012258518463770782 0.05790454284789499 0.04350447930335918 -0.0006697409168242088 -0.00015882826462064112 -0.0006964287537232286
          -0.0005641859889784877 -0.00015759856821973397 -0.0005886458619221583 -0.0007197555733368378 -0.00015380067883646517 -0.0006019855109110626
          -0.0006964100215908226 -0.0001598654070363182 -0.0007264794810245036 -0.0007372299426215544 -0.00017324269088912596 -0.000794598458518446
          -0.0007940691371744642 -0.00019517621814100702 -0.0008100622700669378 -0.011126036451171384 -0.018063647080436465 -0.0063205658889806185
          -0.02332292037800076 -0.04487868190386486 -0.025541039814941532 -0.009781343244858326 -0.016228102290036073 -0.006496840540395524
          0.0013719120008736027 0.010334165547631904 0.00864910101837292 0.005635068392588545 0.019703153372521987 0.012435048215542865
          0.011522819910373117 0.021841806158106797 0.007818858805359971 0.018899859853148376 0.022097021279109036 -0.0009499867903987463
          -0.021530645077474188 -0.03737490477850683 -0.03249393185359385 -0.0769127173709908 -0.017345436577027494 -0.03907375658439008
          -0.06767585066620198 -0.1382369817947007 -0.06978967387216739 -0.03944984062123903 -0.0551619081093464 -0.01566724433730378
          0.018605500966924482 0.005235939981961757 -0.010798376704364274 0.07571910858502641 0.14754425158875495 0.07214041317732131
          0.02654042168475236 0.08158854180766632 0.04949337438045904 -0.0007408937425311601 -0.0001475947191823578 -0.0006665313928565179
          -0.0005281992216763292 -0.0001614767287128364 -0.0005793903042121944 -0.000719229130865499 -0.00016670375702481852 -0.0006448934696465414
          -0.0007252090272005223 -0.00016131459892759423 -0.0007638386237812534 -0.0007852001759904182 -0.0001625765022703618 -0.0008053502574728397
          -0.0008214871248217667 -0.00020692531346163529 -0.0008320991153173175 -0.016931002022698306 -0.02961016347241874 -0.01501766106426705
          -0.031309547889839286 -0.05568028848687749 -0.023502532731419862 -0.0044767869328948134 -0.003466479580488374 0.0011783321003342034
          0.01165480252967245 0.032065258328016766 0.01914914554534776 0.02170213277933396 0.04019218420215875 0.012493388039735223
          0.0181762062721997 0.019853359030838933 0.0020494350836803843 0.0016103814797344268 -0.0029820740823367393 -0.004663905295951773
          -0.029511000329204208 -0.042089538254703046 -0.04617752684635383 -0.08437312160154063 -0.020931729522568318 -0.04174131171550741
          -0.07548079067833316 -0.1467890126140171 -0.06884452635367519 -0.005674853436862942 -0.020504710013202296 -0.011072109313104928
          -0.0872179220549889 -0.0900804408104624 -0.0014854656967697444 -0.16531835606015416 -0.04174076291544642 0.07517316905732044
          0.27840755809537776 0.28745891576539523 0.038281017099278454 -0.0006126569391278463 -0.00008194470998952944 -0.0006129080944395396
          -0.0005996240143489023 -0.00019222761263055187 -0.0005784684336450525 -0.0006609306371503781 -0.0001562331217524679 -0.0006807804600792704
          -0.0007600485420542098 -0.00013937021671163626 -0.0007399832980787609 -0.0008108367364761861 -0.00017446574985174185 -0.000799755585890803
          -0.0008160465880802832 -0.00020071786899388336 -0.0008311677311323845 -0.030105359574273446 -0.07357455521295687 -0.034966227001672665
          -0.027609788811779647 -0.028287219050416264 -0.011085072535709214 0.006050260648009481 0.02181686948580641 0.01651331731177952
          0.02584259273130323 0.051236044031258636 0.02032466411290121 0.021938825583803816 0.02811077576651195 0.00375994639859642
          0.0033798401857804625 0.003118573499463248 -0.000811090864137165 -0.0016289522580734267 -0.0020903186224843218 -0.0022249534477200295
          -0.04247625494957681 -0.04731307772885751 -0.06742690708525254 -0.09400225083609849 -0.010846513248520422 -0.04306206293563627
          -0.0742683807901443 -0.1408269903213356 -0.04053379930719905 0.005217108423180794 -0.0020975131417902415 -0.0033111874925032814
          -0.06187016832782166 -0.04793140689408942 0.012621430672519834 -0.020295802977164767 0.09542508631926218 0.0841949823016474
          0.2775779937958545 0.2529522271207198 0.014745445941087114 -0.000668884935431005 -0.00012752350981843383 -0.0005504730243149747
          -0.0006217470657416523 -0.00017452462174214617 -0.0005990955577402229 -0.0006472601645936184 -0.00011654886092363377 -0.0006418182025582381
          -0.0007775114603949754 -0.00014041083856785978 -0.0007133435967871422 -0.0007893668902488084 -0.00017129795881649576 -0.0007778358808355288
          -0.0007940182833592255 -0.003828146241777887 -0.008729020209847869 -0.0497224021909283 -0.09680597126993895 -0.03783778679425282
          -0.008426101299219134 -0.003034150430826152 0.0020603319735550824 0.02442463689251824 0.05299335693026487 0.026916461952012236
          0.025802262156582427 0.04284067052332621 0.011352229439534706 0.004153736704585326 0.003832545602313414 -0.0013077947706803539
          -0.0024041526734694604 -0.003395939177791782 -0.002440691725489663 -0.0018080795719796587 -0.002269474324521816 -0.0020071634136975686
          -0.061195087165515666 -0.056765153347251976 -0.10206510624649363 -0.12798683985471584 -0.010303390683464732 -0.09567341526100562
          -0.07316967413638975 -0.14283126077162286 -0.02504402400771627 0.014833053490254475 0.03442177341857089 0.014975579742983372
          0.06892417005229232 0.10544634447757131 0.039292389358674504 0.05048391170854702 0.1215822804171248 0.06774878161487105
          -0.003127167705308645 -0.0006089626901642255 -0.0006247086172246922 -0.0007166518691230118 -0.000218131106676526 -0.0006144688632880838
          -0.0005989476532610501 -0.00011598148418122574 -0.0006025027985927661 -0.0006968945355860009 -0.00013249716134111286 -0.000635045141729039
          -0.0007082979997129202 -0.00012797110447016619 -0.0007135439649345963 -0.0007711415338567257 -0.00019802784781735097 -0.000747957633628598
          -0.014955866491569152 -0.03522450454311058 -0.022133693889093527 -0.04230121397765817 -0.07107769247573047 -0.02819720996881321
          0.016627117426835807 0.036043021997404445 0.019058558262855588 0.03063780203145454 0.05478629156039167 0.02103937514280141
          0.006165656606995765 0.011487668755239322 0.001499112749298731 -0.002046860824073904 -0.0022402884681242963 -0.002057032044489787
          -0.002176723065496197 -0.0029671058292875807 -0.0018991330315241417 -0.004554940906688704 -0.005741675332746887 -0.0018352409287714783
          -0.13054128299499496 -0.1195391554903516 -0.2949365159087055 -0.305729045949038 -0.08300500712722358 0.01694003369893382
          0.13953706707313995 0.291702293434545 0.1369895221146783 0.1356635288449722 0.2741124804760593 0.13353555593527816
          0.042872248357713416 0.09164109755128315 0.048572958171253955 -0.0009886877932171745 0.007155713724737389 0.0051319921324950585
          0.0011061632156921242 -0.00007331776827912417 -0.001350202467585826 -0.001390790396873981 -0.001355708219152471 -0.001703514065947223
          -0.0015082270970818712 -0.0010175190413222873 -0.0016846313791708811 -0.001989127473504132 -0.001762267493547312 -0.0019181838362684334
          -0.060381046332518756 -0.11654992074056224 -0.057065990960676494 -0.05965350263969525 -0.1118157607394309 -0.051955214342692985
          0.007338468484588093 0.02401731867027415 0.01588180061993133 0.05800655608914182 0.1117982080035923 0.04833579800463622
          0.03403510463784348 0.05987805595596808 0.02045626438214354 0.008332214734329657 0.014596856655209933 0.0026439536184557633
          -0.002890280669275991 -0.002852174805328511 -0.004102772311062042 -0.002880796214141723 -0.0029492165919761115 -0.0041572996995615785
          -0.004386355424616517 -0.005873165159932969 -0.004526867419547109 -0.0023401544062775503 -0.0012774788148973704 -0.0044460339843039876
          -0.0038424112652546416 -0.002591655602345644 0.0023323482462663803 -0.0038737441517338045 -0.006216618008142327 -0.005525621234476974
          1.0415129553928932 -1.060121794207273 2.1069207713772893 -2.0851691590222683 -0.05880171288642838 -2.0414328643418944
          0.3446233897996452 0.61766460268915 0.2643170160508279 0.08742133014244517 0.17227444468643596 0.08849975666297175
          -0.00449379237195538 -0.0030139355491192107 -0.0010829421719621146 -0.0007651034744644153 -0.0010862601475114947 -0.0016741983547929884
          -0.002921471443479068 -0.003907419433021225 -0.0027620234827211015 -0.00899750063511806 -0.015807980112153897 -0.010315334246229213
          -0.002644873680697546 -0.004193616980350479 -0.005827764335458729 -0.0021897145116626104 -0.00017334604968921585 -0.0023008655180076776
          -0.0026134512187770964 -0.001019199626320355 -0.0011008031063867163 -0.0035234922847469097 -0.005405027706803733 -0.008069556490988505
          -0.006912053847704214 -0.01166350279632522 -0.005617371066410026 -0.0010646892465997482 -0.002486986155584292 -0.0023406662280528456
          -0.003982744937381044 -0.005003224486532121 -0.003448919626518998 -0.0007908909588993929 0.0037856718674035283 0.0013554885352073942
          -0.0007632374571994727 0.0020432743245404894 -0.0005238387220191654 -0.0012649195403095503 -0.0030946933771288654 -0.006358449794911847
          -0.00830100236328854 -0.008583138350825331 -0.0007292995403251484 0.012342670571328169 0.01654205136272055 0.02428043116319621
          0.012822014275992083 0.01727984307972078 0.0042186817784756955 0.016742055411451337 0.044686548794483326 0.021972316193140683
          0.03862117432996991 0.05392925294215111 0.009671754468332877 0.013111312589449767 0.009309783873256261 0.0001528908616914848
          -0.0041946659421130406 -0.0005891121127065413 0.0022722244657562563 -0.006842385699821277 -0.006730157659282088 0.0011438838954344055
          -0.008378099168784625 -0.012693532077967529 -0.0027093282208077163 -0.020392169086792478 -0.03463236551864424 -0.012425678791718298
          -0.00958201219457322 -0.022512303030298275 -0.012356624299111774 0.004301693390084127 -0.0010392982270822637 0.001987823064929839
          -0.004562819258974171 -0.006094827260201052 -0.004628051816435663 0.8715568588557356 -1.0692687187884007 1.765669344450503
          -2.054461822421464 0.010364824557037883 -1.8911539164322113 0.14873851736058918 0.24101210325163414 0.04821805049039497
          0.01929508614061659 0.06031880601966272 0.08363750848201641 -0.002052559659614584 -0.001492274314474764 -0.0007980486701816246
          -0.0015703323106596306 -0.0009685457912755671 -0.0014691717987439512 -0.13837218880317642 -0.2698856482633085 -0.13281848494640025
          -0.12949715156339184 -0.2590325530267203 -0.12980317261470803 -0.18271649546635518 -0.35753454869109536 -0.1762158249601208
          -0.03802156274566004 -0.07104197457426698 -0.03292516793510794 0.006218767775787837 0.019668228014251152 0.0117845947910655
          -0.04717410744400684 -0.08585223463556829 -0.03996878019471373 0.04754484910597283 0.09645907780852227 0.045047427310703436
          0.0594084714984186 0.11702923172972338 0.05178494650839596 0.07358446035917644 0.13716587778293154 0.05523589745962626
          -0.003173264474542359 -0.008818629854333349 -0.007650626369338942 -0.0036600431930016164 -0.0077495056607459305 -0.0033149033291309804
          -0.009754327042333283 -0.00379690309974956 -0.006571954030402227 -0.004313640422390463 -0.006587069744308227 -0.005771275530567277
          -0.007743978265658702 -0.012321557676625572 -0.005475145019323502 -0.010283837040851562 -0.016721430469302856 -0.009154618734765307
          0.000015187074639044784 -0.000759934150513869 0.003105173896889357 0.001213309936107132 0.0006915520890737326 -0.002571358886242714
          0.00008365010655003724 0.0013890397918623343 -0.0007963231489943601 0.004133710469615137 0.006644375888257836 -0.0004951551121338826
          -0.009306364704789738 -0.013390788127993158 -0.004976478372694049 -0.0013796148259754837 0.0018902352616401163 -0.003965826047933385
          0.0038225152726245604 -0.004915142012829554 0.0000072774562918098695 -0.0023546814180992887 -0.007391418391765825 -0.0061268705282650215
          0.0004058338414750784 -0.002220709261099185 -0.002318907706971962
        </DataArray>
        <DataArray type="Float64" Name="resid_z" format="ascii" RangeMin="0" RangeMax="0">
          0 0 0 0 0 0
          0 0 0 0 0 0
          0 0 0 0 0 0
          0 0 0 0 0 0
          0 0 0 0 0 0
          0 0 0 0 0 0
          0 0 0 0 0 0
          0 0 0 0 0 0
          0 0 0 0 0 0
          0 0 0 0 0 0
          0 0 0 0 0 0
          0 0 0 0 0 0
          0 0 0 0 0 0
          0 0 0 0 0 0
          0 0 0 0 0 0
          0 0 0 0 0 0
          0 0 0 0 0 0
          0 0 0 0 0 0
          0 0 0 0 0 0
          0 0 0 0 0 0
          0 0 0 0 0 0
          0 0 0 0 0 0
          0 0 0 0 0 0
          0 0 0 0 0 0
          0 0 0 0 0 0
          0 0 0 0 0 0
          0 0 0 0 0 0
          0 0 0 0 0 0
          0 0 0 0 0 0
          0 0 0 0 0 0
          0 0 0 0 0 0
          0 0 0 0 0 0
          0 0 0 0 0 0
          0 0 0 0 0 0
          0 0 0 0 0 0
          0 0 0 0 0 0
          0 0 0 0 0 0
          0 0 0 0 0 0
          0 0 0 0 0 0
          0 0 0 0 0 0
          0 0 0 0 0 0
          0 0 0 0 0 0
          0 0 0 0 0 0
          0 0 0 0 0 0
          0 0 0 0 0 0
          0 0 0 0 0 0
          0 0 0 0 0 0
          0 0 0 0 0 0
          0 0 0 0 0 0
          0 0 0 0 0 0
          0 0 0 0 0 0
          0 0 0 0 0 0
          0 0 0 0 0 0
          0 0 0 0 0 0
          0 0 0 0 0 0
          0 0 0 0 0 0
          0 0 0 0 0 0
          0 0 0 0 0 0
          0 0 0 0 0 0
          0 0 0 0 0 0
          0 0 0 0 0 0
          0 0 0 0 0 0
          0 0 0 0 0 0
          0 0 0 0 0 0
          0 0 0 0 0 0
          0 0 0 0 0 0
          0 0 0 0 0 0
          0 0 0 0 0 0
          0 0 0 0 0 0
          0 0 0 0 0 0
          0 0 0 0 0 0
          0 0 0 0 0 0
          0 0 0 0 0 0
          0 0 0 0 0 0
          0 0 0 0 0 0
          0 0 0 0 0 0
          0 0 0 0 0 0
          0 0 0 0 0 0
          0 0 0 0 0 0
          0 0 0 0 0 0
          0 0 0 0 0 0
          0 0 0 0 0 0
          0 0 0 0 0 0
          0 0 0 0 0 0
          0 0 0 0 0 0
          0 0 0 0 0 0
          0 0 0 0 0 0
          0 0 0 0 0 0
          0 0 0 0 0 0
          0 0 0 0 0 0
          0 0 0 0 0 0
          0 0 0 0 0 0
          0 0 0 0 0 0
          0 0 0 0 0 0
          0 0 0 0 0 0
          0 0 0 0 0 0
          0 0 0 0 0 0
          0 0 0 0 0 0
          0 0 0 0 0 0
          0 0 0 0 0 0
          0 0 0 0 0 0
          0 0 0 0 0 0
          0 0 0 0 0 0
          0 0 0 0 0 0
          0 0 0 0 0 0
          0 0 0 0 0 0
          0 0 0 0 0 0
          0 0 0 0 0 0
          0 0 0 0 0 0
          0 0 0 0 0 0
          0 0 0 0 0 0
          0 0 0 0 0 0
          0 0 0 0 0 0
          0 0 0 0 0 0
          0 0 0 0 0 0
          0 0 0 0 0 0
          0 0 0 0 0 0
          0 0 0 0 0 0
          0 0 0 0 0 0
          0 0 0 0 0 0
          0 0 0 0 0 0
          0 0 0 0 0 0
          0 0 0 0 0 0
          0 0 0 0 0 0
          0 0 0 0 0 0
          0 0 0 0 0 0
          0 0 0 0 0 0
          0 0 0 0 0 0
          0 0 0 0 0 0
          0 0 0 0 0 0
          0 0 0 0 0 0
          0 0 0
        </DataArray>
        <DataArray type="Float64" Name="stress_zz" format="ascii" RangeMin="-12724653.75456505" RangeMax="48565687.66456771">
          -398732.96343231277 -466193.06802285847 1872688.1648047208 1567955.2489401756 -274226.3719371008 -368674.6722098813
          1537962.8374835125 792647.0622168942 -149719.78044188875 -271156.27639690426 1203237.510162304 17338.87549361265
          7656783.4042969365 6864748.858382804 7254401.101081841 5395143.714840985 6852018.797866745 3925538.571299166
          12020693.9705596 11340803.996218521 12167318.876204653 10895267.309899723 12313943.781849701 10449730.623580923
          11267670.094066698 11530541.45925336 11851928.222727424 11967739.047104247 12436186.35138815 12404936.634955134
          5937064.275694359 7037082.750938354 6808619.5782230925 7545848.870276831 7680174.880751826 8054614.989615306
          882957.922349481 1516718.7258748435 1340931.5584841978 1788241.8951959144 1798905.1946189152 2059765.0645169853
          -331861.9682810735 -315018.8246740093 -292201.15639094147 -272824.10529004375 -252540.34450080944 -230629.38590607815
          -89131.03331677287 -96553.48540371188 -68647.11158553246 -79414.2627080582 -48163.18985429206 -62275.04001240454
          -15710.747475693197 -19300.293670904368 -26568.894754029927 -28544.264204215688 -37427.04203236666 -37788.234737527004
          -3714.0545210495006 -4636.7789458994985 -1421.6934416671968 -3446.116145628103 870.667637715107 -2255.453345356707
          -20039.75298121215 -14657.97541955852 -10512.57152818914 -8616.852001950065 -985.3900751661263 -2575.7285843416093
          -74190.03295551412 -66073.3350737349 -50861.0243406313 -44493.14220920524 -27532.01572574848 -22912.94934467558
          97148.63510459088 80019.1650012672 180720.29159583 155062.40889263264 264291.94808706915 230105.65278399806
          839604.3579823565 691574.4992857784 1007879.9048086407 845541.6770394878 1176155.4516349249 999508.8547931972
          2378468.628914805 2217553.190766597 2491338.85652367 2314689.3495405423 2604209.0841325335 2411825.508314487
          4405762.661708703 4270830.068173308 4417678.100501311 4304333.17495754 4429593.539293919 4337836.281741772
          6649955.453449272 6535259.339779548 6503678.410776361 6471122.824328739 6357401.368103451 6406986.30887793
          9069013.194090642 9114132.76281539 8596727.39902221 8768974.760106362 8124441.603953778 8423816.757397335
          11158116.712177733 11440480.829943173 10183787.517211748 10639049.633192323 9209458.322245765 9837618.436441476
          -538419.812029775 2001689.4048666072 -436895.5904382295 1727588.6340183523 -335371.3688466839 1453487.8631700983
          8198770.323155506 7830244.17799232 7461718.032829134 12822976.598707406 12886826.015407221 12950675.432107035
          11570648.725582909 12293093.280345581 13015537.835108252 5524081.680911904 6767204.305046842 8010326.929181781
          559985.8271342728 1178577.0449905233 1797168.2628467735 -366871.3738849119 -335861.1153675627 -304850.85685021343
          -87834.4129266084 -62779.38021175796 -37724.347496907525 -9869.39357403315 -20998.196567786643 -32126.999561540135
          -10608.044636852086 -5075.792896024615 456.4588448028521 -46308.00692991937 -25184.50162668986 -4060.996323460347
          -103301.75473195413 -74317.83114232459 -45333.90755269501 180201.42144579196 269092.65760490834 357983.8937640248
          1328996.832033914 1499126.0324005813 1669255.2327672483 3119716.6067036036 3189105.3834464406 3258494.160189277
          5028025.298769369 4895922.811384784 4763820.324000198 6947975.013605822 6531081.78196421 6114188.550322599
          8828381.12568837 7961283.14134761 7094185.15700685 10060878.005251113 8580160.460723802 7099442.916196493
          -553188.6602854608 1601020.807693948 -505957.62182580045 1345236.1486725812 -458726.58336614026 1089451.4896512143
          7521393.327270115 7074243.068208428 6627092.809146741 13123375.480247626 12900093.57443633 12676811.66862503
          12867445.131282713 13446782.298932992 14026119.46658327 6658678.681750322 7886130.716574302 9113582.751398282
          1048730.3024134736 1583310.1713747212 2117890.0403359686 -341500.58094909904 -346529.1139769568 -351557.64700481464
          -116512.51054639232 -79475.39918957878 -42438.28783276524 -3948.341738444908 -11031.517836954114 -18114.69393546332
          -38195.82019348924 -22065.90171404912 -5935.983234608997 -102227.90560805018 -61470.62768481345 -20713.34976157672
          -141283.6458769592 -103554.97394667528 -65826.30201639139 509353.1903483703 444593.1693674122 379833.1483864542
          2402678.2365517067 2281329.7087618583 2159981.1809720094 4546126.077840181 4369627.017642175 4193127.957444168
          6074936.166967346 5633310.798388713 5191685.429810081 7213464.131625602 6305111.227263238 5396758.3229008755
          7966149.248216866 6444429.184033416 4922709.119849968 7367296.5132822925 5406801.615356908 3446306.717431525
          -623359.8347200728 1568516.6587562282 -652771.6737072405 1719271.570288977 -682183.5126944084 1870026.4818217256
          7598703.199282652 8108605.016470256 8618506.83365786 13781175.48465798 13799929.125445748 13818682.766233515
          15027940.481864419 15118678.21430849 15209415.946752556 9561121.205328554 10373190.881180746 11185260.557032939
          2527059.9414426144 2756229.646279766 2985399.3511169176 -248929.12023368455 -325247.4246719947 -401565.7291103049
          -154131.50815200573 -87785.61268552515 -21439.717219044578 12843.984174281024 1541.5973271838634 -9760.789519913298
          -75760.80526187773 -44557.57718584791 -13354.349109818082 -180113.89705304184 -116028.19069458212 -51942.48433612242
          -145850.90377136003 -102804.16455729076 -59757.425343221505 1164663.4093863769 1025566.0164231278 886468.6234598788
          4006324.8434959804 3652372.1229716754 3298419.4024473703 6214976.38602649 5707833.112733517 5200689.839440544
          6947102.193237985 6065490.546256547 5183878.899275111 6789664.153424077 5309271.056356545 3828877.959289013
          5460211.096477656 3737719.842309617 2015228.5881415787 2818129.7317362414 1530848.9798344274 243568.22793261404
          -663127.1490093265 2002643.060155938 -708313.3205851474 2069334.1066948827 -753499.4921609685 2136025.1532338276
          8848710.171251778 9075161.463103246 9301612.754954718 14154873.981512472 14098804.392444845 14042734.803377217
          18864703.648150716 17262757.749693844 15660811.85123697 19231298.345699597 15889957.497840885 12548616.649982173
          7756366.94005457 5688381.978359008 3620397.016663444 -335598.73745567515 -397011.4488702301 -458424.1602847851
          -104014.58382042407 -37955.49119645906 28103.601427505953 -63844.01224880773 -47703.424397625466 -31562.8365464432
          -131985.5856615975 -78714.40331586791 -25443.2209701383 -243762.61407134024 -161839.6545721907 -79916.69507304108
          30872.473733022434 16710.92300913308 2549.3722852437636 2141833.822637459 1859341.655592678 1576849.4885478974
          5555228.785223887 5012101.008658813 4468973.23209374 7317161.242187439 6518103.16193302 5719045.081678599
          6713817.260433098 5476829.986033312 4239842.711633526 4365415.436833216 3043209.059824952 1721002.6828166882
          975279.3122720718 390055.1940926083 -195168.9240868552 -2273606.4166030386 -1833625.9767860037 -1393645.5369689688
          -686341.4639364069 2438513.9409231064 -643291.9060185535 2559150.3287970014 -600242.3481007 2679786.7166708964
          9613200.930093186 9721609.371771377 9830017.813449569 14300996.883729083 14216039.0771044 14131081.270479722
          17509346.620508768 15547716.52590358 13586086.431298394 17509359.560840115 12885741.534171037 8262123.507501961
          6993350.933959636 4211302.304998022 1429253.6760364077 -419153.0112735509 -427890.5186248289 -436628.02597610676
          -102330.95000675187 -41631.61041258062 19067.72918159062 -272106.8119358913 -184470.56917237918 -96834.32640886711
          -173755.0077470453 -103077.62437106296 -32400.240995080592 -64138.73233559838 -47628.7938343564 -31118.855333114414
          461237.99742280436 376266.32367901667 291294.649935229 2903981.761141088 2674516.087859254 2445050.4145774203
          6151950.815547823 5703879.070035719 5255807.324523615 6748932.728276679 5986845.75326417 5224758.778251662
          3875595.495261519 3121867.8425351745 2368140.1898088288 -616292.5670267094 -439392.65079326584 -262492.73455982225
          -4601281.282639384 -3122139.207356261 -1642997.1320731381 -7572796.54786308 -5117410.596030824 -2662024.6441985676
          -487716.4891034803 3060404.4885959 -604744.5642785523 3177359.260800417 -721772.6394536244 3294314.033004934
          9746192.143960126 10047726.88921848 10349261.634476833 11960560.19509468 12594622.73082016 13228685.266545637
          14528727.463393295 12978305.74729413 11427884.031194963 16560467.32382334 11277308.378364563 5994149.432905784
          7128252.127756723 3943812.86774073 759373.6077247357 -501973.4219618216 -422719.7622996373 -343466.1026374529
          -436074.2540185664 -278288.1454595601 -120502.03690055374 -604218.3903735921 -399177.17799590016 -194135.96561820814
          -41002.19795538622 -17529.610100788283 5942.9777538096605 884482.052700342 522103.26264496974 159724.4725895975
          1880482.6186299105 1437874.2478042482 995265.8769785855 3983855.1823005304 3928746.4465296343 3873637.710758738
          5598586.76787614 5650971.724112231 5703356.680348322 3435583.1567910835 3423259.1181831756 3410935.0795752676
          -1664850.1049236264 -927420.0469809894 -189989.9890383523 -6555761.9378192965 -4476534.563434079 -2397307.189048861
          -10093895.691356327 -6895332.092304272 -3696768.493252214 -12437050.57077019 -8505177.544781234 -4573304.518792283
          -1265901.6848318032 4186519.6937379953 1451375.378023266 5716455.081123223 4168652.4408783354 7246390.468508448
          10049116.421623 10388793.784223642 10728471.146824282 8046915.557091679 8778478.194877999 9510040.83266432
          11112188.828458212 9627715.179601368 8143241.530744523 15954379.12233639 11008653.504506238 6062927.886676082
          7441767.352708788 4559232.769345841 1676698.1859828946 -646880.0155373738 -574636.3087937089 -502392.60205004405
          -987851.9342084243 -866269.7874704696 -744687.6407325151 -970354.1949322759 -882370.1174409542 -794386.0399496326
          533859.012468207 411862.1511115222 289865.2897548373 3260663.452763022 2705589.313444765 2150515.174126509
          4613602.798124162 4098472.981901613 3583343.165679065 4830882.003803617 4834595.00110886 4838307.998414101
          3434057.717286219 3459416.4475606396 3484775.177835061 -1239605.3542212904 -1141586.4253681256 -1043567.4965149602
          -6295653.573434811 -5639387.417955041 -4983121.262475268 -9689376.344012097 -8668611.580411447 -7647846.816810796
          -11692096.960774219 -10703548.222302748 -9714999.483831275 -11898634.381928183 -11303172.557694668 -10707710.733461153
          13089459.828082783 12479849.399072116 12990644.624892214 12845611.578477278 12891829.421701645 13211373.75788244
          9806435.519935565 10198935.469207523 10591435.41847948 5783450.439606268 5532400.759449325 5281351.079292381
          4257022.170749811 3707968.415252383 3158914.6597549543 3670933.01836834 3014951.6656032573 2358970.3128381753
          1298967.4097622146 936001.9013670469 573036.3929718792 286670.8618632584 231697.37164679286 176723.88143032737
          1053427.41246242 939165.8593837379 824904.3063050555 1539813.2222474148 1310970.0264171043 1082126.8305867938
          2782699.97664712 2535641.036031461 2288582.0954158017 4844141.512289487 4614975.720535915 4385809.928782342
          4755818.82153369 4586682.82065256 4417546.8197714295 2227610.716327822 2153517.636950081 2079424.5575723408
          -1038215.4356459067 -1299923.3736309968 -1561631.3116160866 -4586912.71613214 -4991168.695464833 -5395424.674797526
          -7371957.418498752 -7873446.318411452 -8374935.218324152 -8788750.064764606 -9745041.807668032 -10701333.550571455
          -8909847.361148987 -10604513.750884248 -12299180.140619503 -7483367.716333272 -10104010.735449161 -12724653.75456505
          -4984979.645614671 -8457459.442377303 -11929939.239139935 -2341648.521093501 -6280279.652804279 -10218910.784515059
          29891509.75328794 48565687.66456771 27101318.69776236 42173894.98266673 24311127.642236784 35782102.30076576
          8145708.287026264 8461727.968766335 8777747.650506407 2778989.346175099 2567930.2492654794 2356871.1523558605
          -94062.39707507173 -84611.21245228787 -75160.02782950405 -667785.6195376182 -439622.9469722692 -211460.27440692
          442987.2031271013 511091.0090040367 579194.814880972 -5159541.929767717 -5158968.801331986 -5158395.672896253
          -5541536.870294776 -5568850.92077402 -5596164.971253267 -5286978.474625843 -5389601.903166636 -5492225.33170743
          -4408270.321564548 -4613347.842210835 -4818425.362857121 -3127022.640543546 -3420663.7841443988 -3714304.9277452515
          2034471.358725103 2633155.855774087 3231840.3528230703 -1739560.5850105067 -2044494.8521230742 -2349429.1192356413
          2979329.9598525222 3788770.397785915 4598210.835719307 -403543.0560722482 -615795.2129929491 -828047.36991365
          3741099.650347845 4715150.283959584 5689200.917571323 911885.4997243483 825547.3617936341 739209.2238629196
          4268021.677459687 5308900.538442089 6349779.39942449 10690776.94663981 11364668.92092482 9418431.730354972
          10403936.705971908 8146086.5140701365 9443204.491018994 8429826.802246608 6551561.194006633 4673295.58576666
          4247502.677501814 2612043.4188499013 976584.1601979876 -262911.7777895136 -661336.84624509 -1059761.9147006664
          -4247863.969626168 -3137699.3473171606 -2027534.7250081538 -8753326.995220404 -5826010.413456129 -2898693.8316918537
          -12342764.717122875 -8334312.41799083 -4325860.118858784 -9865241.892390262 -10024640.55438419 -10184039.216378119
          -6493248.444766324 -7497973.738946117 -8502699.033125907 -121419.5763285766 -3266411.2235447355 -4000668.9779180163
          -4839734.25813348 -7879918.379507456 -6413057.292722223 26043390.60017635 44148963.2095094 22687581.504724607
          37169916.77097359 19331772.40927287 30190870.332437783 5867610.335448494 6067805.476365563 6268000.617282633
          2417011.5657765297 2445706.5233307625 2474401.4808849953 1115379.0578013163 1110276.3975202658 1105173.7372392155
          1577374.4233564837 1554741.7349576838 1532109.046558884 3533476.981494949 3414484.2346732244 3295491.4878514996
          3218683.3348346245 3131883.9555635913 3045084.5762925576 6658928.100256197 6570154.871018461 6481381.641780724
          5345658.575730706 5206863.535935574 5068068.496140443 5331759.81194968 5103446.278978458 4875132.746007235
          4475629.804917657 4225853.191539615 3976076.5781615735 2780999.7111992226 2657333.981149256 2533668.2510992894
          381798.9440370586 303223.38555871067 224647.8270803627 -2114825.678803965 -2208870.7751614964 -2302915.8715190277
          -4173301.6859805756 -4208213.888459204 -4243126.090937831 -2930681.301338004 -3464348.791148425 -2748239.053561722
          -3331962.4148426023 -2565796.8057854394 -3199576.0385367796 -1883506.4133742568 -1655436.2476107706 -1427366.0818472845
          -523163.61200218345 -227423.4223899867 68316.76722220995 861673.7779004194 1274447.590556968 1687221.4032135166
          5114359.639116487 4033690.982855309 4873693.005632598 3816454.8827615287 4633026.372148711 3599218.7826677486
          5878313.575814605 5630263.385028206 5382213.194241807 6219945.899312612 5974950.774563514 5729955.649814418
          6051166.910095431 5819134.827824725 5587102.745554019 2213368.420859351 1964299.2622734332 2242263.6048065545
          -1412935.4786286056 2271158.7887537587 -4790170.219530644 4395889.118499102 5384863.690654993 6373838.262810882
          5190141.594476076 4985990.056321831 4781838.518167588
        </DataArray>
        <DataArray type="Float64" Name="peeq" format="ascii" RangeMin="0" RangeMax="0.0072671186910843325">
          0 0 0 0 0 0
          0.000003967627975064111 0 0 0 0.000007935255950128223 0
          0 0 0.000010302388907044012 0 0.000020604777814088024 0
          0 0 0.000006334760931979901 0 0.000012669521863959802 0
          0 0 0 0 0 0
          0 0 0 0 0 0
          0 0 0 0 0 0
          0 0 0 0 0 0
          0 0 0 0 0 0
          0 0 0 0 0 0
          0 0 0 0 0 0
          0 0 0 0 0 0
          0 0 0 0 0 0
          0 0 0 0 0 0
          0 0 0 0 0 0
          0.000001595852475580264 0.000003191704951160528 0.0000012037025248163298 0.0000024074050496326595 8.115525740523956e-7 0.0000016231051481047911
          0.000001595852475580264 0.000003191704951160528 0.0000012037025248163298 0.0000024074050496326595 8.115525740523956e-7 0.0000016231051481047911
          0 0 0 0 0 0
          0 0 0 0 0 0
          0 0 0 0 0 0
          0 0 0 0.000003967627975064111 0 0.000007935255950128223
          0 0.000010302388907044012 0.000020604777814088024 0 0.000006334760931979901 0.000012669521863959802
          0 0 0 0 0 0
          0 0 0 0 0 0
          0 0 0 0 0 0
          0 0 0 0 0 0
          0 0 0 0 0 0
          0 0 0 0 0 0
          0 0 0 0 0 0
          0 0 0 0 0 0
          0 0 0 0 0 0
          0 0 0 0 0 0
          0 0 0 0 0 0
          0 0 0 0 0 0
          0 0 0 0 0 0
          0 0 0 0 0 0
          0 0 0 0 0 0
          0 0 0 0 0 0
          0 0 0 0 0 0
          0 6.194080133322548e-8 1.2388160266645096e-7 0 0.000003949045396332524 0.000007898090792665047
          0 0 0 0 0 0
          0 0 0 0 0 0
          0 0 0 0 0 0
          0 0 0 0 0 0
          0 0 0 1.224035315115515e-7 6.120176575577575e-8 0
          1.224035315115515e-7 6.120176575577575e-8 0 0 0 0
          0 0 0 0 0.0000010230184855446136 0.0000020460369710892272
          0 0.0000011849761420045326 0.0000023699522840090653 0 1.619576564599189e-7 3.239153129198378e-7
          0 0 0 0 5.638953846863852e-7 0.0000011277907693727704
          3.9262489290378377e-7 0.000007438141202058275 0.000014483657511212767 0.000016602644969470272 0.00003947653647273241 0.00006235042797599454
          0 0 0 0 0 0
          0 0 0 0 0 0
          0 0 0 0 0 0
          0 0 0 0 0 0
          0 0 0 1.224035315115515e-7 6.120176575577575e-8 0
          1.224035315115515e-7 6.120176575577575e-8 0 0 0 0
          0 0 0 0 0.0000010230184855446136 0.0000020460369710892272
          0 0.0000011849761420045326 0.0000023699522840090653 0 1.619576564599189e-7 3.239153129198378e-7
          0 3.5785547507932945e-7 7.157109501586589e-7 0.0000013257883315752804 0.000008573460306215628 0.000015821132280855977
          0.000022167909599995266 0.00004707169895102757 0.00007197548830205987 0.00009908024434142106 0.00014554588473026568 0.00019201152511911035
          0 0 0 0 0 0
          0 0 0 0 0 0
          0 0 0 0 0 0
          0 0 0 0 0 0
          0 0 0 0 0 0
          0 0 0 0 0 0
          0 0 0 0 0 0
          0 0 0 0 0 0
          8.529078326398536e-7 0.0000049074507544059845 0.000008961993676172115 0.00002428388136417322 0.00004266887783031932 0.00006105387429646543
          0.00011010538645529581 0.00014668000576832717 0.0001832546250813585 0.00029030399142063266 0.00034133015012455963 0.0003923563088284864
          0 0 0 0 0 0
          0 0 0 0 0 0
          0 0 0 0 0 0
          0 0 0 0 0 0
          0 0 0 0 0 0
          0 0 0 0 0 0
          0 0 0 0 0 0
          0 0 0 1.7960043844212186e-7 0.0000011074892362611463 0.0000020353780340801706
          0.000021586511073684474 0.00002892686011135456 0.00003626720914902465 0.00011070004679344883 0.00012745249071614015 0.0001442049346388315
          0.0003003765234052731 0.00032221324093045865 0.0003440499584556443 0.0006194089065791951 0.000641534495212564 0.000663660083845933
          0.0000011930907955286568 5.965453977643284e-7 5.965453977643284e-7 2.982726988821642e-7 0 0
          0 0 0 0 0 0
          9.126522856915897e-7 4.5632614284579484e-7 0 0.0000020703497562169963 0.0000010351748781084981 0
          0.0000011576974705254064 5.788487352627032e-7 0 0 0 0
          0 0 0 0 0 0
          0 0 0 0 0 0
          0 0 0 0 0 0
          0 5.373758715092823e-8 1.0747517430185645e-7 0.00001605432029607172 0.000018130083805878467 0.000020205847315685213
          0.00009678756017167438 0.00010169081845982537 0.00010659407674797637 0.0002828905601759696 0.000286318662010154 0.0002897467638443384
          0.0006011285808064442 0.0005972462347275481 0.000593363888648652 0.0010948480048134867 0.0010779267309610912 0.0010610054571086958
          0.0000011930907955286568 5.965453977643284e-7 5.965453977643284e-7 3.282130332142894e-7 0 5.988066866425047e-8
          0 2.9940334332125234e-8 5.988066866425047e-8 0 0 0
          9.865488684684723e-7 4.932744342342362e-7 0 0.0000021442463389938787 0.0000010721231694969394 0
          0.0000011576974705254064 5.788487352627032e-7 0 0 0 0
          0 0 0 0 0 0
          0 0 0 0 0 0
          0 0 0 0.000004330698939810529 0.0000052741729472151485 0.000006217646954619768
          0.00003887273607766607 0.00004121544456699688 0.0000435581530563277 0.00013469753380656297 0.00013845994498407307 0.0001422223561615832
          0.00032066251239394714 0.00032398148583686454 0.000327300459279782 0.0006287750071609197 0.0006275528291163492 0.0006263306510717788
          0.0010951059717115561 0.0010851172331302686 0.001075128494548981 0.0017600200191629403 0.0017362737087790242 0.0017125273983951078
          0.002641891050514624 0.002599870119771681 0.002557849189028738 0.003728482601197382 0.0036663209097387846 0.0036041592182801873
          0.00010936567573765025 0.00021018876508929304 0.00011602200575038939 0.00022746947702076203 0.00012267833576312854 0.00024475018895223104
          0.000004271293193003725 0.0000022872672400083753 3.0324128701302574e-7 0 0 0
          7.389658277688268e-8 3.694829138844134e-8 0 7.389658277688268e-8 3.694829138844134e-8 0
          0 0 0 0.0005054565395996942 0.0005115214768706904 0.0005175864141416867
          0.0008449401334662092 0.0008499566160746076 0.0008549730986830062 0.001310737131531457 0.0013130843294501097 0.0013154315273687627
          0.001927184547906441 0.0019247604455987924 0.001922336343291144 0.002706876734813951 0.0026974629311570376 0.0026880491275001243
          0.0038414316824122168 0.0038386371087174038 0.0038358425350225904 0.003640799864360955 0.0036229285626695282 0.003605057260978101
          0.004717567836388116 0.004713271649227798 0.004708975462067482 0.004695738803956632 0.00466953561010855 0.004643332416260469
          0.005620176766927214 0.005615136502056296 0.005610096237185377 0.005817574808188904 0.005785121010348357 0.005752667212507811
          0.006495227310987124 0.006490083638816821 0.006484939966646517 0 0 0
          0 0 0 0 0.000003012875710131155 0.00000602575142026231
          0.000013830242573024015 0.00003346991931165224 0.00005310959605028047 0.00009242219655090418 0.00013906008626999266 0.00018569797598908113
          0.00028369319986250584 0.00034945014178124143 0.00041520708369997703 0.0006158606233760318 0.0006775337897213586 0.0007392069560666854
          0.0011260450585631292 0.0011425332428111716 0.0011590214270592138 0.001810139619737496 0.0017736361079838136 0.0017371325962301308
          0.0027740437186459096 0.002713125250255112 0.0026522067818643144 0.004973925646852593 0.003974925837275172 0.004895177866313289
          0.003890155834377838 0.004816430085773986 0.0038053858314805035 0.00011997960843658785 0.00022298916554026727 0.0001275502515539965
          0.00024330120918783087 0.00013512089467140515 0.0002636132528353945 0.000008485025666454206 0.000005899646960081057 0.000003314268253707908
          0 0 0 0 0 0
          0 0 0 0 0 0
          0 0 0 0 0 0
          0 0 0 0 0 0
          0 0 0 0.000002482685195244344 0.000003294639587899769 0.000004106593980555194
          0.00003302980630717346 0.00003545598864009305 0.00003788217097301264 0.0001142831974411165 0.0001185561370849648 0.00012282907672881305
          0.00026560241621562954 0.00027138871981598753 0.0002771750234163455 0.0011878004245624444 0.0007851141779808199 0.0011930366043199107
          0.000791079168439118 0.0011982727840773773 0.0007970441588974161 0.001694131823586058 0.001697871186800972 0.0017016105500158858
          0.002309645313984776 0.0023112829708422994 0.002312920627699823 0.003030286427832394 0.003029598688542228 0.003028910949252063
          0.00489491017542244 0.004143003263842946 0.004888032609943981 0.004137186566703125 0.004881155044465521 0.004131369869563301
          0.005630655294991245 0.005623701936986754 0.005616748578982261 0.0063094137962535855 0.006303173674212373 0.006296933552171161
          0.006875622549142918 0.006870626163555275 0.006865629777967633 0.006924249251068631 0.006296398934859774 0.0068895368815301995
          0.006210226460060971 0.006854824511991769 0.006124053985262168 0.0072671186910843325 0.007262382543951021 0.00725764639681771
          0.007255275934589482 0.007251914152622407 0.007248552370655332
        </DataArray>
        <DataArray type="Float64" Name="pe11" format="ascii" RangeMin="0" RangeMax="0.007257917899811778">
          0 0 0 0 0 0
          0.000003957361483051623 0 0 0 0.000007914722966103246 0
          0 0 0.00001028412783735299 0 0.00002056825567470598 0
          0 0 0.000006326766354301366 0 0.000012653532708602731 0
          0 0 0 0 0 0
          0 0 0 0 0 0
          0 0 0 0 0 0
          0 0 0 0 0 0
          0 0 0 0 0 0
          0 0 0 0 0 0
          0 0 0 0 0 0
          0 0 0 0 0 0
          0 0 0 0 0 0
          0 0 0 0 0 0
          0 0 0 0 0 0
          0.0000015947153925077891 0.0000031894307850155783 0.0000012027629494128956 0.0000024055258988257913 8.108105063180022e-7 0.0000016216210126360045
          0.0000015947153925077891 0.0000031894307850155783 0.0000012027629494128956 0.0000024055258988257913 8.108105063180022e-7 0.0000016216210126360045
          0 0 0 0 0 0
          0 0 0 0 0 0
          0 0 0 0 0 0
          0 0 0 0.000003957361483051623 0 0.000007914722966103246
          0 0.00001028412783735299 0.00002056825567470598 0 0.000006326766354301366 0.000012653532708602731
          0 0 0 0 0 0
          0 0 0 0 0 0
          0 0 0 0 0 0
          0 0 0 0 0 0
          0 0 0 0 0 0
          0 0 0 0 0 0
          0 0 0 0 0 0
          0 0 0 0 0 0
          0 0 0 0 0 0
          0 0 0 0 0 0
          0 0 0 0 0 0
          0 0 0 0 0 0
          0 0 0 0 0 0
          0 0 0 0 0 0
          0 0 0 0 0 0
          0 0 0 0 0 0
          0 0 0 0 0 0
          0 6.193286884494717e-8 1.2386573768989434e-7 0 0.00000394626945061032 0.00000789253890122064
          0 0 0 0 0 0
          0 0 0 0 0 0
          0 0 0 0 0 0
          0 0 0 0 0 0
          0 0 0 1.2229846270831673e-7 6.114923135415836e-8 0
          1.2229846270831673e-7 6.114923135415836e-8 0 0 0 0
          0 0 0 0 0.0000010221981967159842 0.0000020443963934319684
          0 0.0000011838372683315944 0.000002367674536663189 0 1.616390716156103e-7 3.232781432312206e-7
          0 0 0 0 5.636290864693284e-7 0.0000011272581729386568
          3.925363124302205e-7 0.000007433738735358916 0.000014474941158287611 0.000016571625378991876 0.00003941509251262658 0.00006225855964626129
          0 0 0 0 0 0
          0 0 0 0 0 0
          0 0 0 0 0 0
          0 0 0 0 0 0
          0 0 0 1.2229846270831673e-7 6.114923135415836e-8 0
          1.2229846270831673e-7 6.114923135415836e-8 0 0 0 0
          0 0 0 0 0.0000010221981967159842 0.0000020443963934319684
          0 0.0000011838372683315944 0.000002367674536663189 0 1.616390716156103e-7 3.232781432312206e-7
          0 3.575545985849505e-7 7.15109197169901e-7 0.0000013256446445137708 0.000008566050984539084 0.0000158064573245644
          0.000022150433202808576 0.00004701488989930461 0.00007187934659580065 0.00009882333650037464 0.00014514588554285287 0.0001914684345853311
          0 0 0 0 0 0
          0 0 0 0 0 0
          0 0 0 0 0 0
          0 0 0 0 0 0
          0 0 0 0 0 0
          0 0 0 0 0 0
          0 0 0 0 0 0
          0 0 0 0 0 0
          8.525964540317256e-7 0.000004902021282754738 0.000008951446111477752 0.000024265470478988127 0.00004261263267639414 0.000060959794873800166
          0.0001098951527071674 0.0001463447194202575 0.00018279428613334758 0.0002888924965273196 0.0003396424470436313 0.000390392397559943
          0 0 0 0 0 0
          0 0 0 0 0 0
          0 0 0 0 0 0
          0 0 0 0 0 0
          0 0 0 0 0 0
          0 0 0 0 0 0
          0 0 0 0 0 0
          0 0 0 1.7945878460064067e-7 0.0000011062826274788113 0.000002033106470356982
          0.000021556122555071836 0.000028881444577073523 0.00003620676659907522 0.00011042425285666048 0.0001271276249156021 0.00014383099697454376
          0.00029887856074598684 0.0003206769753773477 0.00034247539000870845 0.0006134517774776339 0.0006357643310245011 0.0006580768845713683
          0.0000011897093546410918 5.948546773205459e-7 5.948546773205459e-7 2.9742733866027294e-7 0 0
          0 0 0 0 0 0
          9.120820398216106e-7 4.560410199108053e-7 0 0.000002067677817568358 0.000001033838908784179 0
          0.0000011555957777467472 5.777978888733736e-7 0 0 0 0
          0 0 0 0 0 0
          0 0 0 0 0 0
          0 0 0 0 0 0
          0 5.364226608078318e-8 1.0728453216156635e-7 0.000016029067066542036 0.00001809306460904517 0.000020157062151548296
          0.00009652387225390566 0.00010136120266294871 0.00010619853307199176 0.00028147147182148253 0.00028470798543728715 0.00028794449905309176
          0.0005956393669342831 0.0005913856723594572 0.0005871319777846312 0.0010784836169595521 0.0010610623957992553 0.0010436411746389583
          0.0000011897093546410918 5.948546773205459e-7 5.948546773205459e-7 3.2731701318303473e-7 0 5.977934904552358e-8
          0 2.988967452276179e-8 5.977934904552358e-8 0 0 0
          9.859665148405877e-7 4.929832574202939e-7 0 0.000002141562292587335 0.0000010707811462936676 0
          0.0000011555957777467472 5.777978888733736e-7 0 0 0 0
          0 0 0 0 0 0
          0 0 0 0 0 0
          0 0 0 0.000004327086334540143 0.0000052690252302985835 0.000006210964126057023
          0.00003881315044649699 0.00004114615995301039 0.00004347916945952379 0.00013434403978281523 0.00013806660176649213 0.00014178916375016904
          0.00031923393485208695 0.00032243961072155996 0.0003256452865910329 0.0006241732872316983 0.000622689371467918 0.0006212054557041377
          0.001082735046566056 0.0010722131163269644 0.0010616911860878728 0.0017322860816581813 0.0017075669289110702 0.001682847776163959
          0.002590596457119729 0.0025471053585258752 0.0025036142599320216 0.003649719228061546 0.0035858194564228766 0.003521919684784207
          0.00010866283792467847 0.00020879856319572763 0.00011498766039255455 0.00022540907225089617 0.00012131248286043066 0.0002420195813060647
          0.000004263556326814651 0.0000022831242671064787 3.0269220739830626e-7 0 0 0
          7.388447501897704e-8 3.694223750948852e-8 0 7.388447501897704e-8 3.694223750948852e-8 0
          0 0 0 0.0005033140910618749 0.0005093167069052298 0.0005153193227485847
          0.0008399320209159407 0.0008448439161121005 0.0008497558113082605 0.0013004393915043832 0.0013026293652941977 0.0013048193390840122
          0.0019083967467801277 0.001905755767526295 0.0019031147882724619 0.0026765914142618035 0.002666904714727167 0.0026572180151925315
          0.0038175935115582838 0.00381449047200259 0.0038113874324468954 0.003598133567270308 0.003579955352580389 0.0035617771378904702
          0.0046931106046779305 0.00468844538582121 0.00468378016696449 0.004643566651031916 0.004617079226568402 0.004590591802104888
          0.005598643188136455 0.005593240463691695 0.005587837739246935 0.005762726442601209 0.005730053488306449 0.0056973805340116875
          0.006479572990161782 0.006474140098339503 0.006468707206517226 0 0 0
          0 0 0 0 0.0000030083201161886975 0.000006016640232377395
          0.00001377804677139187 0.000033374930034711085 0.000052971813298030307 0.00009198152077669926 0.00013845789671964334 0.00018493427266258746
          0.0002818046264429278 0.0003471491167124766 0.0004124936069820254 0.0006095454590763231 0.0006707574015269112 0.0007319693439774991
          0.001108251200724263 0.0011254998029864296 0.0011427484052485965 0.0017722203692994707 0.0017353173655345086 0.0016984143617695463
          0.002704573998183104 0.0026435909714982884 0.0025826079448134733 0.0048724341826852195 0.0038716309702360794 0.004792075786022514
          0.003787120687060018 0.004711717389359808 0.003702610403883956 0.00011921815964031192 0.00022149174912315181 0.0001264060746685584
          0.000241029625665112 0.00013359398969680484 0.00026056750220707217 0.000008472285078736016 0.000005891261836002383 0.0000033102385932687494
          0 0 0 0 0 0
          0 0 0 0 0 0
          0 0 0 0 0 0
          0 0 0 0 0 0
          0 0 0 0.0000024812386515039268 0.0000032921673606059976 0.0000041030960697080685
          0.00003298984556791527 0.000035410687959845926 0.00003783153035177657 0.00011406087550757162 0.00011831958215527427 0.00012257828880297693
          0.0002648204011243144 0.0002705757788014587 0.000276331156478603 0.0011816294622009214 0.000781853500786046 0.0011868246989548143
          0.0007877911108920984 0.001192019935708707 0.0007937287209981508 0.0016838131734000367 0.0016874838738271027 0.0016911545742541686
          0.00229426482965924 0.002295779309447696 0.0022972937892361527 0.0030099247627721633 0.00300902491102884 0.0030081250592855174
          0.004880624271630852 0.004126989255136001 0.004873516309249531 0.00412101641291612 0.004866408346868209 0.004115043570696238
          0.005619987424728273 0.0056127545738893815 0.005605521723050488 0.0063029944124306896 0.006296477063372304 0.006289959714313919
          0.0068717486247662175 0.006866544990910561 0.006861341357054904 0.006876040938707376 0.0061862694615917825 0.0068411591843405865
          0.006098842732864096 0.006806277429973799 0.00601141600413641 0.007257917899811778 0.007253013278341745 0.007248108656871711
          0.007248971204836189 0.007245534797678184 0.007242098390520178
        </DataArray>
        <DataArray type="Float64" Name="pe22" format="ascii" RangeMin="-0.0037583316720786277" RangeMax="0">
          0 0 0 0 0 0
          -0.0000017818649912824505 0 0 0 -0.000003563729982564901 0
          0 0 -0.0000047577037695230825 0 -0.000009515407539046165 0
          0 0 -0.000002975838778240632 0 -0.000005951677556481264 0
          0 0 0 0 0 0
          0 0 0 0 0 0
          0 0 0 0 0 0
          0 0 0 0 0 0
          0 0 0 0 0 0
          0 0 0 0 0 0
          0 0 0 0 0 0
          0 0 0 0 0 0
          0 0 0 0 0 0
          0 0 0 0 0 0
          0 0 0 0 0 0
          -7.454811753802617e-7 -0.0000014909623507605234 -5.606039768903089e-7 -0.0000011212079537806178 -3.7572677840035627e-7 -7.514535568007125e-7
          -7.454811753802617e-7 -0.0000014909623507605234 -5.606039768903089e-7 -0.0000011212079537806178 -3.7572677840035627e-7 -7.514535568007125e-7
          0 0 0 0 0 0
          0 0 0 0 0 0
          0 0 0 0 0 0
          0 0 0 -0.0000017818649912824505 0 -0.000003563729982564901
          0 -0.0000047577037695230825 -0.000009515407539046165 0 -0.000002975838778240632 -0.000005951677556481264
          0 0 0 0 0 0
          0 0 0 0 0 0
          0 0 0 0 0 0
          0 0 0 0 0 0
          0 0 0 0 0 0
          0 0 0 0 0 0
          0 0 0 0 0 0
          0 0 0 0 0 0
          0 0 0 0 0 0
          0 0 0 0 0 0
          0 0 0 0 0 0
          0 0 0 0 0 0
          0 0 0 0 0 0
          0 0 0 0 0 0
          0 0 0 0 0 0
          0 0 0 0 0 0
          0 0 0 0 0 0
          0 -3.08562516100505e-8 -6.1712503220101e-8 0 -0.0000019098398336226174 -0.000003819679667245235
          0 0 0 0 0 0
          0 0 0 0 0 0
          0 0 0 0 0 0
          0 0 0 0 0 0
          0 0 0 -5.6840523130502925e-8 -2.8420261565251462e-8 0
          -5.6840523130502925e-8 -2.8420261565251462e-8 0 0 0 0
          0 0 0 0 -4.794648666783163e-7 -9.589297333566326e-7
          0 -5.53298164142042e-7 -0.000001106596328284084 0 -7.383329746372563e-8 -1.4766659492745127e-7
          0 0 0 0 -2.771925189249914e-7 -5.543850378499828e-7
          -1.9957043037225727e-7 -0.000003607232871414758 -0.000007014895312457259 -0.000008255232981429804 -0.00001876511376671222 -0.000029274994551994638
          0 0 0 0 0 0
          0 0 0 0 0 0
          0 0 0 0 0 0
          0 0 0 0 0 0
          0 0 0 -5.6840523130502925e-8 -2.8420261565251462e-8 0
          -5.6840523130502925e-8 -2.8420261565251462e-8 0 0 0 0
          0 0 0 0 -4.794648666783163e-7 -9.589297333566326e-7
          0 -5.53298164142042e-7 -0.000001106596328284084 0 -7.383329746372563e-8 -1.4766659492745127e-7
          0 -1.730952015437741e-7 -3.461904030875482e-7 -6.622745069439271e-7 -0.0000041118937472883155 -0.000007561512987632704
          -0.000010913626903537061 -0.000022308509921899214 -0.00003370339294026137 -0.00004738059284282578 -0.00006685823850535139 -0.00008633588416787698
          0 0 0 0 0 0
          0 0 0 0 0 0
          0 0 0 0 0 0
          0 0 0 0 0 0
          0 0 0 0 0 0
          0 0 0 0 0 0
          0 0 0 0 0 0
          0 0 0 0 0 0
          -4.121608140732386e-7 -0.0000023183989474561355 -0.000004224637080839033 -0.00001159598464979685 -0.00001994439870388928 -0.000028292812757981715
          -0.00005138141700072922 -0.00006679286280692875 -0.00008220430861312826 -0.00012971321315438102 -0.00014836676052055006 -0.00016702030788671911
          0 0 0 0 0 0
          0 0 0 0 0 0
          0 0 0 0 0 0
          0 0 0 0 0 0
          0 0 0 0 0 0
          0 0 0 0 0 0
          0 0 0 0 0 0
          0 0 0 -8.45146859453611e-8 -5.213009097822381e-7 -9.58087133619115e-7
          -0.000009958749306647732 -0.000013319357911559003 -0.000016679966516470276 -0.00004981702593137818 -0.00005708219350631137 -0.00006434736108124457
          -0.00012946624578736551 -0.000138037071140014 -0.0001466078964926625 -0.00025151123017847524 -0.0002589446217447083 -0.00026637801331094144
          -5.350091898705229e-7 -2.6750459493526146e-7 -2.6750459493526146e-7 -1.3375229746763073e-7 0 0
          0 0 0 0 0 0
          -4.403139248537587e-7 -2.2015696242687935e-7 0 -9.973226934342253e-7 -4.986613467171127e-7 0
          -5.570087685804667e-7 -2.7850438429023333e-7 0 0 0 0
          0 0 0 0 0 0
          0 0 0 0 0 0
          0 0 0 0 0 0
          0 -2.467641176144693e-8 -4.935282352289386e-8 -0.0000073153451234208995 -0.000008213879874501465 -0.000009112414625582034
          -0.000042804539500629594 -0.00004471920350805077 -0.00004663386751547193 -0.00011946629982652359 -0.00012020971204701797 -0.00012095312426751236
          -0.0002383656658571906 -0.00023562816820892285 -0.00023289067056065515 -0.00040503179292245836 -0.0003975737546315352 -0.000390115716340612
          -5.350091898705229e-7 -2.6750459493526146e-7 -2.6750459493526146e-7 -1.487143866007407e-7 0 -2.992417826621992e-8
          0 -1.496208913310996e-8 -2.992417826621992e-8 0 0 0
          -4.7618952016169376e-7 -2.3809476008084688e-7 0 -0.0000010331982887421604 -5.165991443710802e-7 0
          -5.570087685804667e-7 -2.7850438429023333e-7 0 0 0 0
          0 0 0 0 0 0
          0 0 0 0 0 0
          0 0 0 -0.0000020334223113244026 -0.0000024600656950635556 -0.000002886709078802708
          -0.00001793158441960625 -0.00001886248293855528 -0.0000197933814575043 -0.00006043372713044487 -0.00006158771562142282 -0.00006274170411240075
          -0.00013846993166900912 -0.00013864280052897744 -0.00013881566938894573 -0.00025885965113502 -0.0002560068725259908 -0.00025315409391696157
          -0.00042703877126715347 -0.00041974025788353087 -0.00041244174449990817 -0.0006521351308710659 -0.0006397453689471643 -0.0006273556070232626
          -0.0009447199692750232 -0.0009281798212384475 -0.0009116396732018716 -0.0013192118177792994 -0.001301215507563238 -0.0012832191973471772
          -0.000050699514266161316 -0.00009750849542581043 -0.000051551321867991795 -0.00010101468169513664 -0.00005240312946982227 -0.00010452086796446284
          -0.0000019452665532560995 -0.000001043981020423477 -1.426954875908543e-7 0 0 0
          -3.587559530793505e-8 -1.7937797653967526e-8 0 -3.587559530793505e-8 -1.7937797653967526e-8 0
          0 0 0 -0.00022449651520050717 -0.0002254948016583447 -0.00022649308811618227
          -0.00036544985077370377 -0.0003650119630320706 -0.0003645740752904374 -0.0005523577405189538 -0.0005499714576247682 -0.0005475851747305825
          -0.0007943729685286452 -0.0007898962247119617 -0.0007854194808952784 -0.0011001464521272466 -0.0010941328214523428 -0.0010881191907774388
          -0.001698108449253763 -0.0016971198804548756 -0.0016961313116559882 -0.0014766426960864036 -0.0014704305406668457 -0.0014642183852472883
          -0.0021219925956267077 -0.002122882109548289 -0.0021237716234698695 -0.0019271395579041858 -0.0019225152806262905 -0.0019178910033483955
          -0.0025893255281504344 -0.0025927143158680837 -0.0025961031035857335 -0.0024482251085758498 -0.002446823129512314 -0.0024454211504487777
          -0.0030801799823473477 -0.00308639195125473 -0.003092603920162113 0 0 0
          0 0 0 0 -0.0000014137223617392076 -0.000002827444723478415
          -0.000006774181358796103 -0.000015595908119909107 -0.000024417634881022114 -0.000044106390028269 -0.00006324275136981423 -0.00008237911271135946
          -0.00012892476284425124 -0.00015199882269109123 -0.0001750728825379312 -0.00025898549696123734 -0.00027677669395357864 -0.0002945678909459199
          -0.0004291958515349092 -0.00043333156249686263 -0.000437467273458816 -0.0006313484165658529 -0.0006189398639923477 -0.0006065313114188424
          -0.0009374274841769562 -0.000921571658442005 -0.0009057158327070536 -0.001788942958433618 -0.0013452314174512807 -0.001773175284489468
          -0.0013290320606651218 -0.0017574076105453175 -0.0013128327038789626 -0.00005579856755537004 -0.00010369961945165898 -0.000056881568677306207
          -0.00010820535743667887 -0.00005796456979924237 -0.00011271109542169878 -0.000003948757829540552 -0.000002778889958966767 -0.000001609022088392982
          0 0 0 0 0 0
          0 0 0 0 0 0
          0 0 0 0 0 0
          0 0 0 0 0 0
          0 0 0 -0.0000011759344293033982 -0.0000015484264125375288 -0.0000019209183957716593
          -0.00001554427163420451 -0.000016564204969095766 -0.000017584138303987023 -0.000052996449346656054 -0.00005458669253567907 -0.0000561769357247021
          -0.00012077598638778465 -0.0001225056544916581 -0.00012423532259553158 -0.0005276775381396146 -0.00035398883290453523 -0.0005272437549570653
          -0.00035455614514345955 -0.0005268099717745162 -0.00035512345738238386 -0.0007442480875120295 -0.0007428315411862642 -0.000741414994860499
          -0.001009177100816193 -0.001007129412364494 -0.0010050817239127948 -0.0013265361372529131 -0.0013245567912250633 -0.0013225774451972136
          -0.0022851169964102397 -0.0019008472221878274 -0.002285485650492982 -0.0018999071631158953 -0.0022858543045757235 -0.0018989671040439634
          -0.0026861357553488643 -0.0026881602663549877 -0.002690184777361112 -0.0030854844971410405 -0.003089386965785097 -0.0030932894344291527
          -0.003452912801200931 -0.0034588239185711477 -0.003464735035941365 -0.003020183296422535 -0.0023547528166224844 -0.0030232517301236337
          -0.0023444889173241364 -0.003026320163824733 -0.002334225018025789 -0.0035569128883677953 -0.003566129509538692 -0.0035753461307095878
          -0.003742333008394343 -0.0037503323402364856 -0.0037583316720786277
        </DataArray>
        <DataArray type="Float64" Name="pe33" format="ascii" RangeMin="-0.0038558576422848406" RangeMax="0">
          0 0 0 0 0 0
          -0.0000021754964917691727 0 0 0 -0.000004350992983538345 0
          0 0 -0.0000055264240678299046 0 -0.000011052848135659809 0
          0 0 -0.0000033509275760607323 0 -0.000006701855152121465 0
          0 0 0 0 0 0
          0 0 0 0 0 0
          0 0 0 0 0 0
          0 0 0 0 0 0
          0 0 0 0 0 0
          0 0 0 0 0 0
          0 0 0 0 0 0
          0 0 0 0 0 0
          0 0 0 0 0 0
          0 0 0 0 0 0
          0 0 0 0 0 0
          -8.49234217127527e-7 -0.000001698468434255054 -6.421589725225864e-7 -0.0000012843179450451728 -4.350837279176457e-7 -8.701674558352914e-7
          -8.49234217127527e-7 -0.000001698468434255054 -6.421589725225864e-7 -0.0000012843179450451728 -4.350837279176457e-7 -8.701674558352914e-7
          0 0 0 0 0 0
          0 0 0 0 0 0
          0 0 0 0 0 0
          0 0 0 -0.0000021754964917691727 0 -0.000004350992983538345
          0 -0.0000055264240678299046 -0.000011052848135659809 0 -0.0000033509275760607323 -0.000006701855152121465
          0 0 0 0 0 0
          0 0 0 0 0 0
          0 0 0 0 0 0
          0 0 0 0 0 0
          0 0 0 0 0 0
          0 0 0 0 0 0
          0 0 0 0 0 0
          0 0 0 0 0 0
          0 0 0 0 0 0
          0 0 0 0 0 0
          0 0 0 0 0 0
          0 0 0 0 0 0
          0 0 0 0 0 0
          0 0 0 0 0 0
          0 0 0 0 0 0
          0 0 0 0 0 0
          0 0 0 0 0 0
          0 -3.107661723489665e-8 -6.21532344697933e-8 0 -0.000002036429616987703 -0.000004072859233975406
          0 0 0 0 0 0
          0 0 0 0 0 0
          0 0 0 0 0 0
          0 0 0 0 0 0
          0 0 0 -6.545793957781374e-8 -3.272896978890687e-8 0
          -6.545793957781374e-8 -3.272896978890687e-8 0 0 0 0
          0 0 0 0 -5.427333300376678e-7 -0.0000010854666600753355
          0 -6.305391041895523e-7 -0.0000012610782083791047 0 -8.780577415188461e-8 -1.7561154830376923e-7
          0 0 0 0 -2.864365675443371e-7 -5.728731350886742e-7
          -1.929658820579632e-7 -0.0000038265058639441575 -0.000007460045845830352 -0.000008316392397562066 -0.00002064997874591435 -0.00003298356509426664
          0 0 0 0 0 0
          0 0 0 0 0 0
          0 0 0 0 0 0
          0 0 0 0 0 0
          0 0 0 -6.545793957781374e-8 -3.272896978890687e-8 0
          -6.545793957781374e-8 -3.272896978890687e-8 0 0 0 0
          0 0 0 0 -5.427333300376678e-7 -0.0000010854666600753355
          0 -6.305391041895523e-7 -0.0000012610782083791047 0 -8.780577415188461e-8 -1.7561154830376923e-7
          0 -1.844593970411763e-7 -3.689187940823526e-7 -6.633701375698438e-7 -0.000004454157237250768 -0.000008244944336931692
          -0.000011236806299271511 -0.000024706379977405386 -0.00003817595365553927 -0.000051442743657548837 -0.00007828764703750145 -0.00010513255041745408
          0 0 0 0 0 0
          0 0 0 0 0 0
          0 0 0 0 0 0
          0 0 0 0 0 0
          0 0 0 0 0 0
          0 0 0 0 0 0
          0 0 0 0 0 0
          0 0 0 0 0 0
          -4.4043563995848697e-7 -0.0000025836223352986024 -0.000004726809030638718 -0.000012669485829191278 -0.00002266823397250486 -0.00003266698211581844
          -0.00005851373570643816 -0.00007955185661332873 -0.0001005899775202193 -0.0001591792833729385 -0.0001912756865230812 -0.00022337208967322385
          0 0 0 0 0 0
          0 0 0 0 0 0
          0 0 0 0 0 0
          0 0 0 0 0 0
          0 0 0 0 0 0
          0 0 0 0 0 0
          0 0 0 0 0 0
          0 0 0 -9.494409865527958e-8 -5.849817176965731e-7 -0.0000010750193367378666
          -0.000011597373248424099 -0.000015562086665514518 -0.000019526800082604937 -0.00006060722692528228 -0.00007004543140929072 -0.00007948363589329917
          -0.00016941231495862133 -0.00018263990423733362 -0.0001958674935160459 -0.00036194054729915873 -0.0003768197092797927 -0.00039169887126042676
          -6.547001647705687e-7 -3.2735008238528433e-7 -3.2735008238528433e-7 -1.6367504119264216e-7 0 0
          0 0 0 0 0 0
          -4.7176811496785154e-7 -2.3588405748392577e-7 0 -0.0000010703551241341321 -5.351775620670661e-7 0
          -5.985870091662807e-7 -2.9929350458314034e-7 0 0 0 0
          0 0 0 0 0 0
          0 0 0 0 0 0
          0 0 0 0 0 0
          0 -2.8965854319336248e-8 -5.7931708638672496e-8 -0.000008713721943121134 -0.000009879184734543699 -0.00001104464752596626
          -0.000053719332753276056 -0.000056641999154897926 -0.000059564665556519816 -0.0001620051719949589 -0.00016449827339026912 -0.00016699137478557938
          -0.0003572737010770925 -0.0003557575041505343 -0.00035424130722397606 -0.0006734518240370938 -0.0006634886411677201 -0.0006535254582983462
          -6.547001647705687e-7 -3.2735008238528433e-7 -3.2735008238528433e-7 -1.78602626582294e-7 0 -2.985517077930368e-8
          0 -1.492758538965184e-8 -2.985517077930368e-8 0 0 0
          -5.097769946788935e-7 -2.5488849733944674e-7 0 -0.0000011083640038451742 -5.541820019225871e-7 0
          -5.985870091662807e-7 -2.9929350458314034e-7 0 0 0 0
          0 0 0 0 0 0
          0 0 0 0 0 0
          0 0 0 -0.0000022936640232157403 -0.000002808959535235027 -0.000003324255047254314
          -0.00002088156602689073 -0.000022283677014455104 -0.00002368578800201948 -0.00007391031265237034 -0.00007647888614506932 -0.00007904745963776827
          -0.00018076400318307783 -0.00018379681019258252 -0.0001868296172020872 -0.0003653136360966783 -0.0003666824989419272 -0.0003680513617871761
          -0.0006556962752989024 -0.0006524728584434335 -0.0006492494415879645 -0.001080150950787115 -0.0010678215599639056 -0.0010554921691406963
          -0.0016458764878447055 -0.0016189255372874279 -0.00159197458673015 -0.002330507410282246 -0.0022846039488596376 -0.002238700487437029
          -0.000057963323658517156 -0.0001112900677699172 -0.00006343633852456276 -0.00012439439055575953 -0.00006890935339060838 -0.00013749871334160186
          -0.0000023182897735585525 -0.0000012391432466830021 -1.5999671980745196e-7 0 0 0
          -3.800887971104195e-8 -1.9004439855520975e-8 0 -3.800887971104195e-8 -1.9004439855520975e-8 0
          0 0 0 -0.00027881757586136765 -0.000283821905246885 -0.0002888262346324023
          -0.00047448217014223686 -0.00047983195308003005 -0.0004851817360178231 -0.0007480816509854293 -0.0007526579076694294 -0.0007572341643534294
          -0.0011140237782514826 -0.001115859542814333 -0.0011176953073771833 -0.0015764449621345567 -0.0015727718932748247 -0.0015690988244150925
          -0.002119485062304521 -0.002117370591547714 -0.0021152561207909075 -0.0021214908711839043 -0.002109524811913543 -0.002097558752643182
          -0.002571118009051223 -0.002565563276272922 -0.00256000854349462 -0.00271642709312773 -0.002694563945942111 -0.0026727007987564924
          -0.003009317659986019 -0.00300052614782361 -0.002991734635661201 -0.00331450133402536 -0.003283230358794135 -0.0032519593835629093
          -0.003399393007814433 -0.0033877481470847713 -0.0033761032863551107 0 0 0
          0 0 0 0 -0.0000015945977544494895 -0.000003189195508898979
          -0.0000070038654125957685 -0.00001777902191480198 -0.000028554178417008193 -0.00004787513074843026 -0.00007521514534982913 -0.000102555159951228
          -0.00015287986359867654 -0.00019515029402138536 -0.00023742072444409414 -0.0003505599621150857 -0.00039398070757333244 -0.0004374014530315792
          -0.0006790553491893535 -0.0006921682404895668 -0.0007052811317897804 -0.0011408719527336178 -0.0011163775015421607 -0.0010918830503507035
          -0.0017671465140061471 -0.0017220193130562831 -0.0016768921121064193 -0.003083491224251602 -0.0025263995527847983 -0.0030189005015330457
          -0.002458088626394896 -0.0029543097788144903 -0.0023897777000049933 -0.00006341959208494189 -0.00011779212967149285 -0.00006952450599125217
          -0.00013282426822843312 -0.00007562941989756246 -0.00014785640678537337 -0.000004523527249195464 -0.000003112371877035616 -0.0000017012165048757684
          0 0 0 0 0 0
          0 0 0 0 0 0
          0 0 0 0 0 0
          0 0 0 0 0 0
          0 0 0 -0.000001305304222200528 -0.0000017437409480684684 -0.0000021821776739364087
          -0.000017445573933710754 -0.000018846482990750153 -0.00002024739204778955 -0.00006106442616091554 -0.00006373288961959517 -0.0000664013530782748
          -0.00014404441473652975 -0.00014807012430980056 -0.0001520958338830714 -0.0006539519240613066 -0.0004278646678815108 -0.0006595809439977486
          -0.0004332349657486387 -0.0006652099639341905 -0.00043860526361576665 -0.0009395650858880071 -0.0009446523326408382 -0.0009497395793936693
          -0.001285087728843047 -0.0012886498970832022 -0.0012922120653233574 -0.00168338862551925 -0.0016844681198037767 -0.0016855476140883036
          -0.002595507275220612 -0.002226142032948173 -0.0025880306587565483 -0.0022211092498002237 -0.002580554042292485 -0.002216076466652275
          -0.002933851669379409 -0.002924594307534392 -0.0029153369456893755 -0.0032175099152896474 -0.003207090097587206 -0.003196670279884765
          -0.003418835823565284 -0.003407721072339411 -0.0033966063211135376 -0.0038558576422848406 -0.0038315166449692972 -0.003817907454216953
          -0.003754353815539959 -0.003779957266149065 -0.0036771909861106206 -0.003701005011443982 -0.0036868837688030526 -0.003672762526162123
          -0.003506638196441843 -0.003495202457441696 -0.003483766718441549
        </DataArray>
        <DataArray type="Float64" Name="disp_x" format="ascii" RangeMin="0" RangeMax="0.000014873105950542673">
          0 1.3767058488304632e-7 1.3607140001283784e-7 0 0 1.3758768404704955e-7
          1.362874662767488e-7 0 0 1.3704679081948424e-7 1.375809573803834e-7 0
          1.3479347832430202e-7 0 1.338205290961935e-7 0 1.2729447230792506e-7 0
          1.2832740523301225e-7 0 1.2781863839807833e-7 0 1.2645800938678167e-7 0
          1.2745112524594155e-7 0 1.2687762434641585e-7 0 1.2573848688562313e-7 0
          1.3336359091156693e-7 0 1.3486144723565003e-7 0 1.3542494241959258e-7 0
          1.3486244886327556e-7 0 1.344834443660776e-7 0 1.3425448416881813e-7 0
          1.374416410052178e-7 0 1.3749566926999196e-7 0 1.3745654968304053e-7 0
          1.4010014141694059e-7 0 1.4010064472067471e-7 0 1.4014526335256816e-7 0
          1.4135553299155306e-7 0 1.413736120311286e-7 0 1.4140114129955034e-7 0
          1.4194076244670866e-7 0 1.4195243366796966e-7 0 1.41985104443098e-7 0
          1.4221328326904585e-7 0 1.4222642456646387e-7 0 1.4227393320923378e-7 0
          1.4199121122200814e-7 0 1.4199608508621362e-7 0 1.4201621178445184e-7 0
          1.4191899902631317e-7 0 1.4184682101726756e-7 0 1.4176649413285295e-7 0
          1.4280204742657238e-7 0 1.426204224504954e-7 0 1.420106077700813e-7 0
          1.424104901563105e-7 0 1.4199964256881674e-7 0 1.4073918178594927e-7 0
          1.3916287921455673e-7 0 1.3882720765538239e-7 0 1.3785844873197157e-7 0
          1.3501490020634583e-7 0 1.349322461134785e-7 0 1.3481148749283582e-7 0
          1.3129684167091155e-7 0 1.314417520864862e-7 0 1.3223723804968418e-7 0
          1.2761369473366195e-7 0 1.2824956109282636e-7 0 1.301934248059375e-7 0
          2.7529968984857695e-7 2.7266746916103726e-7 2.753656841029084e-7 2.7254043517894685e-7 2.760527179178212e-7 2.713301435502306e-7
          2.653219474211385e-7 2.6766406773852923e-7 2.7519454315746775e-7 2.5556261614858134e-7 2.5428205475803245e-7 2.5140615545909813e-7
          2.548163139080375e-7 2.5525383743785516e-7 2.518552686499028e-7 2.6679802269979824e-7 2.6155369226664593e-7 2.643312735851218e-7
          2.697585268065967e-7 2.693046238157736e-7 2.685872899708661e-7 2.750360607160677e-7 2.750685296966603e-7 2.750654418113926e-7
          2.802368165613093e-7 2.8025613412469e-7 2.8033392797956663e-7 2.827172426697221e-7 2.8274807685462207e-7 2.828155179614288e-7
          2.838557523083828e-7 2.8387623713996455e-7 2.8394003511164176e-7 2.8443024588749455e-7 2.844454169314586e-7 2.8454053102880245e-7
          2.8397835703114053e-7 2.839741228752775e-7 2.8400507504953135e-7 2.838463660995094e-7 2.8370433958338774e-7 2.835305107351353e-7
          2.854149102433706e-7 2.8484804492646543e-7 2.8337024282795687e-7 2.8386636623156024e-7 2.8311729447367304e-7 2.8077829849190266e-7
          2.77573444158153e-7 2.7699500011318994e-7 2.75336668739974e-7 2.6995882093065625e-7 2.6988301661416285e-7 2.6994701661973524e-7
          2.6292430476666913e-7 2.634815971088534e-7 2.655447561339217e-7 2.5631169172104965e-7 2.5780266501744673e-7 2.626782952820795e-7
          4.1338301899233383e-7 4.091199287957657e-7 4.135744737498305e-7 4.088189782433908e-7 4.1396713900744414e-7 4.0853371606977095e-7
          3.965972050280828e-7 3.999769637336758e-7 4.032808423455341e-7 3.806662271508019e-7 3.795340911661879e-7 3.763885952883136e-7
          3.8159181165811556e-7 3.80135552534076e-7 3.7560032455310305e-7 3.9918761338762e-7 3.967676801477523e-7 3.9409755778434234e-7
          4.0476454643190354e-7 4.037701605187387e-7 4.024123324559891e-7 4.1271174178513174e-7 4.1283348249821367e-7 4.129108896496835e-7
          4.205016781399337e-7 4.2053567867179514e-7 4.206654636493558e-7 4.2405110939030044e-7 4.2410688221520484e-7 4.242254598801986e-7
          4.257154340185336e-7 4.257398931961217e-7 4.258282612630416e-7 4.2665637414937713e-7 4.2665684376111354e-7 4.267798714528636e-7
          4.25951903833333e-7 4.258969925850115e-7 4.2589712869196496e-7 4.25753658557838e-7 4.2558934056974456e-7 4.2529203550694164e-7
          4.275955351561755e-7 4.2620216279773547e-7 4.2339058864572905e-7 4.233571991883168e-7 4.2252377390710736e-7 4.196361090789732e-7
          4.145817035325869e-7 4.1397843044542834e-7 4.122921287293871e-7 4.0466308742078146e-7 4.0495351726194085e-7 4.0603185709136616e-7
          3.9530289644725597e-7 3.968048094186639e-7 4.014859846123625e-7 3.8692313287691596e-7 3.9027227968097587e-7 4.001720456881823e-7
          5.521178095936487e-7 5.452983766914937e-7 5.522345087642945e-7 5.453673393903006e-7 5.52725058942317e-7 5.455498940986547e-7
          5.289532074729292e-7 5.29381789408237e-7 5.287358061888733e-7 5.0376605741318e-7 5.029948572133454e-7 5.007470960511957e-7
          5.039052980897938e-7 5.023900932074524e-7 4.984112270180765e-7 5.380172409321213e-7 5.321132101531511e-7 5.192018477467329e-7
          5.393014864428059e-7 5.380806673790521e-7 5.362387383639817e-7 5.505264745112178e-7 5.50804989737379e-7 5.510387530231582e-7
          5.609983826456892e-7 5.610264098906561e-7 5.61222686212218e-7 5.653301019000054e-7 5.654308891588199e-7 5.65604473255043e-7
          5.67498237791423e-7 5.675131560841526e-7 5.676074927883448e-7 5.689352380685858e-7 5.688781324544403e-7 5.68979553383517e-7
          5.679000318559245e-7 5.677269005249946e-7 5.675661350727391e-7 5.676565437761594e-7 5.674973279710888e-7 5.670192190580189e-7
          5.679055610514253e-7 5.666321180138123e-7 5.621708535892697e-7 5.602579147705448e-7 5.594745833459285e-7 5.570858799886354e-7
          5.497599314732958e-7 5.496510233394556e-7 5.491657818260651e-7 5.390639576501766e-7 5.404668626172197e-7 5.44323332288053e-7
          5.289560194318245e-7 5.324947442326989e-7 5.424233176058151e-7 5.208780318037144e-7 5.276030846694376e-7 5.467033840177364e-7
          6.913523195678104e-7 6.816287260523753e-7 6.914874561387051e-7 6.81826785169437e-7 6.922207068443553e-7 6.821857908939864e-7
          6.586534784734375e-7 6.57889802605839e-7 6.560731607760283e-7 6.262280128121393e-7 6.256062141456099e-7 6.242699055538678e-7
          6.190371864804593e-7 6.216619391765421e-7 6.232505887445821e-7 6.835919892377795e-7 6.635860026169264e-7 6.342713491614399e-7
          6.725564531604094e-7 6.720285785352315e-7 6.710381777522541e-7 6.888260046144556e-7 6.892856986932395e-7 6.896242297367158e-7
          7.017051222870375e-7 7.016988877651216e-7 7.019962929099378e-7 7.066216545583567e-7 7.066919475595256e-7 7.069420175315669e-7
          7.091854649734184e-7 7.091555014109923e-7 7.092165982672879e-7 7.113387567131642e-7 7.111417524186063e-7 7.110528445413525e-7
          7.098071684105407e-7 7.094210551766345e-7 7.089395162836638e-7 7.09492553103051e-7 7.093791679326635e-7 7.084042865298852e-7
          7.053940010764031e-7 7.051100178921821e-7 7.038547696962797e-7 6.942568545181816e-7 6.939541877929075e-7 6.924782137209433e-7
          6.832102018545161e-7 6.844586261942344e-7 6.87486436377066e-7 6.735946167672309e-7 6.772777137835618e-7 6.866110297304475e-7
          6.652176874883724e-7 6.724243469949464e-7 6.916989364470151e-7 6.613698417483822e-7 6.735552560378572e-7 7.07764504875147e-7
          8.310875815282968e-7 8.18047768034153e-7 8.312164751760048e-7 8.182993327480833e-7 8.321593240385167e-7 8.188196012122542e-7
          7.855660838389279e-7 7.852106877559761e-7 7.836630870810605e-7 7.492870696813956e-7 7.483720846356198e-7 7.483245314227453e-7
          7.322739928571021e-7 7.407701955971169e-7 7.48625658084607e-7 8.149626832708558e-7 7.83398186358232e-7 7.579856944738181e-7
          8.049323056361618e-7 8.057264800316209e-7 8.062782829724615e-7 8.284922634572578e-7 8.286681426475992e-7 8.290330241445215e-7
          8.422934203372431e-7 8.423741840481879e-7 8.428472558400734e-7 8.478794775627182e-7 8.479454653745833e-7 8.482491455196606e-7
          8.507182279652836e-7 8.505919544222155e-7 8.505914656520584e-7 8.539235319461827e-7 8.535193319658668e-7 8.527188348174416e-7
          8.517666920791406e-7 8.508806830136203e-7 8.503072171334116e-7 8.50445609100093e-7 8.513270515033058e-7 8.478226219782793e-7
          8.402315709772849e-7 8.406586391814207e-7 8.39342400139718e-7 8.257802373517239e-7 8.268658982930964e-7 8.293729556487834e-7
          8.161162072045713e-7 8.197082552355862e-7 8.284368313292655e-7 8.100759741161547e-7 8.172659846569179e-7 8.354985873425137e-7
          8.077372964036329e-7 8.20126305795342e-7 8.532525075741164e-7 8.153453916065928e-7 8.347922676288467e-7 8.895572717962355e-7
          9.714270105615617e-7 9.543718472364128e-7 9.716570003815892e-7 9.541818494673619e-7 9.725059923889081e-7 9.5541309526637e-7
          9.123751338175886e-7 9.114883155517383e-7 9.096284174069169e-7 8.66682175447137e-7 8.696395175662265e-7 8.741421179103672e-7
          8.726337016411655e-7 8.686843166107751e-7 8.714554954416574e-7 8.430755167190367e-7 8.729363369772374e-7 9.041182213964683e-7
          9.413232265870809e-7 9.407869874916324e-7 9.412266847627161e-7 9.680610408706955e-7 9.68209319861677e-7 9.6891985390758e-7
          9.830949957630595e-7 9.831866452250462e-7 9.837260803810466e-7 9.892399749399177e-7 9.891797415690178e-7 9.895038762869033e-7
          9.920901009281237e-7 9.91843320472365e-7 9.915518967055754e-7 9.965803789349925e-7 9.957192972805223e-7 9.939494136667535e-7
          9.938037978553845e-7 9.93183381621532e-7 9.90820637605289e-7 9.89311607769171e-7 9.883506608316886e-7 9.87266405635889e-7
          9.721839990664428e-7 9.727005599533549e-7 9.738128283735403e-7 9.57073149241239e-7 9.601579543029188e-7 9.679527359954798e-7
          9.515669465277704e-7 9.576313953163636e-7 9.738229018005224e-7 9.533943334632264e-7 9.639091506209265e-7 9.930709074813558e-7
          9.64871665572714e-7 9.815739707081819e-7 0.0000010302601751924594 9.966197366662057e-7 0.0000010212238383055639 0.0000010965729416929066
          0.000001112359059505962 0.0000010903136408122884 0.00000111296395840266 0.000001089487073770626 0.000001117426514852587 0.0000010840355400739137
          0.000001036816159034911 0.0000010362465259362124 0.0000010337468851326997 9.918334509413149e-7 9.928145718714528e-7 9.995902168420107e-7
          9.922875272215611e-7 9.925318298420435e-7 9.991105521351588e-7 9.906807828020657e-7 0.000001006095049913466 0.0000010335585446216761
          0.0000010737742203119977 0.0000010748769209317547 0.0000010772618286638035 0.00000110782291656284 0.000001107494944463001 0.000001107926675275089
          0.0000011244133095314682 0.0000011242960830604918 0.0000011247073829828796 0.0000011308983078626401 0.0000011304998395430535 0.0000011304729371390095
          0.0000011333417941770568 0.0000011327725943438868 0.0000011319519604137414 0.0000011386574778029902 0.0000011380084367187984 0.0000011346087041576387
          0.0000011351395755840424 0.0000011346267377716142 0.0000011309671981719279 0.0000011254572347966588 0.0000011244725690089075 0.0000011214817497949446
          0.0000011025637883765563 0.0000011040271470237748 0.0000011096472792435978 0.0000010923997968842086 0.0000010960281315230554 0.000001108792038089286
          0.000001095435963138351 0.0000011016533362179533 0.0000011243845961964865 0.0000011128082357883737 0.0000011227226341896687 0.0000011600083808578434
          0.0000011509811833257374 0.0000011656645404986327 0.00000122336088226075 0.0000012259117263899955 0.0000012465067134735314 0.0000013298068313264112
          0.000001262369943367123 0.000001223074375764721 0.0000012529740097012098 0.0000012213436091694654 0.0000012598969114402804 0.0000012105515729635457
          0.000001160096816843364 0.0000011595405098534706 0.0000011582685967950323 0.0000011191766165577726 0.000001120462786444081 0.0000011253817375500088
          0.0000011264984507324627 0.000001126944615929521 0.0000011313213070508956 0.0000011439845540954522 0.0000011515670944540336 0.0000011631844030817239
          0.0000012084665275168438 0.0000012096927933189785 0.00000121193886657052 0.0000012464095438526814 0.0000012461957009363012 0.000001246348980271497
          0.0000012664634062105562 0.0000012661333850821443 0.0000012652183335995243 0.0000012728627653509895 0.0000012723269568121115 0.0000012709099570643127
          0.0000012743858273491023 0.000001273737301018489 0.0000012716009161869387 0.0000012794057210378834 0.0000012786793103479512 0.0000012751561019142378
          0.0000012745507670864807 0.000001273958808453561 0.0000012708443590781882 0.0000012553806829646717 0.0000012551507269640644 0.0000012562583816735535
          0.0000012365154061786127 0.0000012390067278180276 0.0000012471009444895848 0.0000012345189068943143 0.0000012390841121393576 0.000001253722259070293
          0.000001252158595891257 0.0000012593091814825558 0.0000012823389246104678 0.0000012945819919431111 0.0000013053157201772464 0.0000013400667553118012
          0.000001374391274447776 0.0000013894072991027073 0.000001438703418342538 0.0000015129987756869182 0.0000015330877694128288 0.0000015990262950875513
          0.000001746064954747514 0.0000017708965823219925 0.0000018529448730991405 0.0000021334119616422783 0.000002161955471918424 0.000002253444082163204
          0.00000167126823823514 0.0000017940069735973652 0.0000016696678140074058 0.0000017645879816875467 0.000001675607746972926 0.0000016487993534871001
          0.0000016599038356264832 0.0000016611966430567977 0.0000016639864864684164 0.0000016778910568555499 0.0000016784543985997055 0.0000016794868391890975
          0.0000016939871441411961 0.000001694534798208315 0.0000016950426134719508 0.0000017227974150780286 0.0000017222474034727739 0.0000017208762400927166
          0.0000017602866068065907 0.000001760107468962189 0.000001759879158188491 0.0000019015960177610851 0.0000019091767201185885 0.000001930866494466772
          0.000002026740686453404 0.000002036683759054306 0.00000206491081085074 0.0000022323962310777923 0.000002244662707981183 0.0000022786150673554487
          0.0000025493498398138567 0.000002563290563459253 0.000002600170623826969 0.0000030134903129097507 0.0000030280239397627974 0.000003063359989053583
          0.000005019364072301279 0.000005029993605867262 0.000005068573585389148 0.0000036652190955817736 0.000003679053463938401 0.000003707543506498336
          0.000006088991488802092 0.000006095774567961472 0.000006125136134064237 0.000004547933644061157 0.0000045589668513107154 0.000004575811171245366
          0.000007424547200396279 0.0000074263953636955114 0.000007443044248399952 0.000005710710017802408 0.000005717610323222596 0.00000571939979825565
          0.000009052366612448782 0.000009048761514803554 0.000009049936741438845 1.2587390501016178e-7 0 1.2721217920671982e-7
          0 1.3147334862077369e-7 0 2.5358023045297396e-7 2.570068433105592e-7 2.6663574797880077e-7
          3.8508453723890347e-7 3.913035987174625e-7 4.103104319144774e-7 5.234223752982334e-7 5.347135465929909e-7 5.684698641004991e-7
          6.752405914736393e-7 6.943254108130281e-7 7.496651664648703e-7 8.52467100701495e-7 8.807438198181582e-7 9.632627493399334e-7
          0.0000010752289416667116 0.000001108689389703353 0.000001215226736324487 0.000001369496014062291 0.0000013963678448761564 0.000001506718161741566
          0.000001639743379545106 0.0000016725703246956074 0.0000018043225171061384 0.0000027397046761585453 0.00000210572357862009 0.000002768830667873298
          0.0000021414710530387743 0.000002861988911571009 0.0000022826953107260105 0.000002146606567821033 0.000002100406692142571 0.0000021472984153512815
          0.0000021202753852453022 0.0000021497544538089656 0.000002184144926287828 0.0000021993743641747016 0.000002200472359705819 0.0000022046418228117484
          0.0000022410785705760955 0.0000022407147773600954 0.0000022392653964124785 0.00000226422259214554 0.000002263448192886481 0.0000022618569338601876
          0.000002288016373432948 0.0000022872094256355594 0.0000022855163841169686 0.000002318335595107847 0.0000023175209716606452 0.0000023150236671527063
          0.0000018007951912093798 0.000001800203685719648 0.0000017981885776522443 0.00000234039330126811 0.0000023396082394721945 0.0000023366175730038653
          0.0000018285972970261706 0.0000018275823327111603 0.0000018236802947266563 0.0000018337725831862506 0.0000018326822534641069 0.0000018286609784505123
          0.000001826900380687514 0.0000018262608744122596 0.0000018236367523977846 0.0000018091920187203152 0.0000018094606568606645 0.000001810797633656621
          0.0000018013839241303043 0.0000018030864338608506 0.0000018085856542113468 0.0000018046528138561653 0.0000018083142237638125 0.0000018189018342096362
          0.0000018332670915535323 0.0000018386881469801417 0.0000018542487470770307 0.000002803690509089505 0.0000025957245149403647 0.000002814525808763534
          0.0000026045880108228886 0.000002848537708951914 0.0000026320614515859924 0.000003116668392067031 0.00000312907620178626 0.0000031687721347569675
          0.0000035670671112713906 0.000003580255218757272 0.000003623379347757878 0.000004189827401921628 0.0000042025427713703154 0.000004245596732017167
          0.000007558511651007295 0.0000063659797637353975 0.000007569053811140714 0.000006378478435544892 0.000007599163915731283 0.000006414980767716587
          0.000009000495055572842 0.000009008162259984438 0.000009029333927230347 0.00001070400819591864 0.000010707830288614923 0.000010717373645464721
          0.000012667355894057901 0.000012666545890215964 0.000012662547597879298 0.000007199111301654703 0.000003652283154330884 0.000007200721347807279
          0.0000036781002375297106 0.000007186143401214092 0.0000037596007084989926 0.000010986609775523548 0.00001097721570495471 0.000010960944671094769
          0.000014873105950542673 0.000014867049458544805 0.00001484778285509056
        </DataArray>
        <DataArray type="Float64" Name="disp_y" format="ascii" RangeMin="-0.000011937350325819168" RangeMax="0">
          0 0 -1.4689106318330143e-7 -1.4671447163705355e-7 0 0
          -1.471325040121926e-7 -1.4710127439162426e-7 0 0 -1.469859759463761e-7 -1.477903788119226e-7
          -2.856960115068679e-7 -2.8550559294856003e-7 -2.86541942236642e-7 -2.863869891865742e-7 -2.890703343236774e-7 -2.8966455315333473e-7
          -4.072930244238531e-7 -4.076908841981732e-7 -4.0785401174357304e-7 -4.081043448397803e-7 -4.1023968886290055e-7 -4.0848044542472195e-7
          -5.190860958704343e-7 -5.190515458358192e-7 -5.186320397603593e-7 -5.183676416214999e-7 -5.173396354038299e-7 -5.17505341341664e-7
          -6.385090784142482e-7 -6.384313976447833e-7 -6.389038901113779e-7 -6.385996714423822e-7 -6.361215638370338e-7 -6.356939922572636e-7
          -7.750820562228173e-7 -7.755719106519208e-7 -7.735446714799147e-7 -7.745539175409381e-7 -7.731041692511669e-7 -7.744194809976495e-7
          -9.190939914675662e-7 -9.189647777899443e-7 -9.191028778600982e-7 -9.188961736522939e-7 -9.187178258138024e-7 -9.185028350070717e-7
          -0.0000010699658666919499 -0.0000010697648017425184 -0.0000010698392436774278 -0.0000010696751750212586 -0.0000010694644691835966 -0.0000010693232307120484
          -0.0000012231395862693654 -0.0000012229284953387182 -0.0000012230376070496763 -0.000001222840589354791 -0.0000012227545455074425 -0.0000012225732255954033
          -0.0000013761498807521487 -0.0000013760152109004498 -0.0000013760914023957486 -0.000001375971838183851 -0.00000137590347785655 -0.000001375801184179502
          -0.0000015284776709008354 -0.0000015284296795487986 -0.0000015284420242422292 -0.0000015284129926873788 -0.0000015283633616447617 -0.000001528351345211528
          -0.0000016798848176987286 -0.0000016799078011219774 -0.0000016798937407144523 -0.0000016799345103899137 -0.0000016798799123028513 -0.0000016799401037749004
          -0.0000018303019829890737 -0.0000018303649227981235 -0.0000018304286384720502 -0.0000018304835360680177 -0.0000018306411173604784 -0.0000018306582942468362
          -0.0000019807572891977184 -0.000001980915866681098 -0.0000019810518889720672 -0.0000019812180105236075 -0.000001981679089583016 -0.000001981782315861641
          -0.0000021321799274965013 -0.000002132783622280927 -0.0000021325492277262823 -0.00000213320575265214 -0.0000021336619536222155 -0.0000021343455819060666
          -0.000002283759948998677 -0.0000022848563834779614 -0.0000022841389234316583 -0.0000022852880942737883 -0.000002285650670951752 -0.0000022869253513931074
          -0.0000024355692128398803 -0.000002436735830454145 -0.000002435895639904346 -0.0000024371433315632283 -0.0000024373116583095673 -0.0000024387214808335038
          -0.000002588031306510648 -0.0000025888216933337275 -0.0000025881619611270537 -0.0000025890816602469087 -0.0000025891580431408676 -0.000002590296980943622
          -0.0000027393892522097334 -0.000002739661944684721 -0.000002738990693085095 -0.0000027392511873900907 -0.000002738924735457171 -0.0000027394075602950778
          0 -1.4738748519185795e-7 0 -1.476121672881412e-7 0 -1.4787393715915757e-7
          -2.86035329987432e-7 -2.867801059843043e-7 -2.8876001200290245e-7 -4.0678287046471687e-7 -4.0759530825749214e-7 -4.102893526967788e-7
          -5.184838935989178e-7 -5.182098334263914e-7 -5.170886918688134e-7 -6.38758336690758e-7 -6.384676349253607e-7 -6.357407471295503e-7
          -7.744647407325013e-7 -7.733078021283813e-7 -7.721960576856916e-7 -9.195528710324325e-7 -9.194001222863603e-7 -9.190467093040368e-7
          -0.0000010706565213142013 -0.0000010705510469486414 -0.0000010701660057943483 -0.0000012238671248556555 -0.000001223748547112414 -0.0000012234673443311583
          -0.000001376629719114191 -0.0000013765636181141013 -0.0000013763717468836287 -0.0000015287058696210773 -0.0000015286614916857037 -0.000001528586901608589
          -0.0000016799058633061327 -0.0000016799051575153556 -0.0000016798872419220138 -0.0000018301851753303344 -0.0000018303833788698653 -0.0000018307706103114714
          -0.000001980348337193562 -0.0000019806624065994496 -0.000001981525422243418 -0.0000021304578933715296 -0.0000021307277248218824 -0.00000213178439022839
          -0.0000022806415225192417 -0.0000022809125986056703 -0.0000022821196213652754 -0.000002432342365039582 -0.000002432473011925038 -0.000002433440670528388
          -0.000002585872660801949 -0.0000025857077704367375 -0.0000025861241809837794 -0.0000027393530326040665 -0.0000027386760641500605 -0.0000027377330541730513
          0 -1.4786129259566102e-7 0 -1.485198026966178e-7 0 -1.501771228926265e-7
          -2.8607625285300785e-7 -2.867889458169898e-7 -2.8986313017634644e-7 -4.0667247319604996e-7 -4.0711725324754135e-7 -4.0794653039446833e-7
          -5.170819038574616e-7 -5.172400446568569e-7 -5.170144548282908e-7 -6.383020677086906e-7 -6.374613165827021e-7 -6.346391795745694e-7
          -7.751708261701714e-7 -7.742434023669428e-7 -7.720807168599245e-7 -9.20081697710996e-7 -9.197607103440316e-7 -9.194432141081108e-7
          -0.000001071821280241359 -0.0000010717641062933964 -0.0000010713839090886411 -0.0000012250521158897803 -0.0000012249220294724558 -0.0000012246475636943802
          -0.0000013773755367813535 -0.0000013773129647129448 -0.0000013771176300359656 -0.0000015290415393200439 -0.0000015289998615944858 -0.0000015289470247005134
          -0.0000016798587528682275 -0.000001679877921569632 -0.0000016798580874592489 -0.000001829890372001886 -0.0000018301186573737597 -0.0000018307804026682613
          -0.000001979420241045178 -0.0000019797753250530842 -0.000001980964486844529 -0.000002127405231425184 -0.000002127589467476538 -0.0000021284899321538156
          -0.0000022756828912251815 -0.000002275736165810707 -0.0000022764154994065876 -0.0000024273893195174445 -0.000002427192225528313 -0.0000024273458748273934
          -0.0000025827481852377313 -0.0000025820919729496323 -0.0000025814275350022955 -0.0000027401392322112465 -0.000002738789234378818 -0.0000027362383941663127
          0 -1.4800033433326193e-7 0 -1.4889836034277933e-7 0 -1.512313099085969e-7
          -2.850980550293865e-7 -2.859939578976661e-7 -2.890899906697705e-7 -4.064803562414893e-7 -4.0614421649014726e-7 -4.067602256283494e-7
          -5.160140134251403e-7 -5.17398918225423e-7 -5.184987531829674e-7 -6.378519747933585e-7 -6.373563892062241e-7 -6.342742633003535e-7
          -7.765633908028073e-7 -7.741949840802113e-7 -7.705130195036902e-7 -9.208289517163557e-7 -9.207135644732896e-7 -9.204867832940257e-7
          -0.0000010737008025877133 -0.0000010736293453022622 -0.0000010732392927786248 -0.0000012267423057080004 -0.0000012266173365046942 -0.0000012263530779560888
          -0.00000137845323949587 -0.0000013783940338291007 -0.0000013782022342598998 -0.0000015295328591269074 -0.0000015295016679359235 -0.0000015294524229233084
          -0.0000016797820937512493 -0.0000016798484051224923 -0.0000016799687194615075 -0.0000018294095299888681 -0.0000018296379819901055 -0.000001830173857399402
          -0.0000019777839586119826 -0.000001978090804726493 -0.0000019797950304465016 -0.0000021229954914116268 -0.0000021230551333081225 -0.000002123774738942637
          -0.0000022694760453239514 -0.0000022691718778598326 -0.0000022689061410004656 -0.000002421562474697097 -0.000002420843453029266 -0.0000024198024994817254
          -0.000002579559994684144 -0.0000025782148247222503 -0.0000025756748115206796 -0.0000027427055011495292 -0.0000027403206650114554 -0.0000027352637232188264
          0 -1.4754206608450298e-7 0 -1.483563740196058e-7 0 -1.5085592066836417e-7
          -2.826388275492333e-7 -2.836582380987578e-7 -2.86996851002093e-7 -4.0451583670711857e-7 -4.038614873085315e-7 -4.0415580054593497e-7
          -5.176626593881483e-7 -5.193272401384229e-7 -5.215492818378967e-7 -6.39571789537941e-7 -6.388180680995371e-7 -6.353155013114895e-7
          -7.758686301684465e-7 -7.732584844517722e-7 -7.683313538723748e-7 -9.222497961499024e-7 -9.224006689530699e-7 -9.22421744636327e-7
          -0.0000010765207819663446 -0.000001076336132012516 -0.0000010758297137494162 -0.0000012288524320327262 -0.0000012287745548424687 -0.0000012285693804684987
          -0.000001379873638295458 -0.0000013798268985317472 -0.0000013796671792832319 -0.0000015301348864343414 -0.0000015301401678716775 -0.000001530078192964133
          -0.0000016796518027104134 -0.000001679765160958486 -0.0000016800859343730911 -0.0000018286713971131558 -0.0000018289073651619238 -0.0000018300052315551794
          -0.0000019749418015425672 -0.000001975098582477794 -0.0000019764693333687233 -0.0000021172459197170033 -0.000002116985805791768 -0.000002117012288009796
          -0.000002262778769679454 -0.0000022619991311254477 -0.000002260531593956287 -0.000002415899970769218 -0.000002414468847165295 -0.0000024116198577555215
          -0.0000025775539190357426 -0.0000025752590951020295 -0.0000025699641248248905 -0.000002748877358409352 -0.0000027454077555496946 -0.000002736496610618019
          0 -1.4576785750070386e-7 0 -1.4670266843788038e-7 0 -1.495744555728463e-7
          -2.794468658186246e-7 -2.7972271740911715e-7 -2.8265788754783283e-7 -3.9728977554646713e-7 -3.9831061088917227e-7 -3.990182036958363e-7
          -5.246978642759554e-7 -5.227291209430629e-7 -5.234660896234154e-7 -6.497848045807712e-7 -6.439509471363453e-7 -6.376943337177935e-7
          -7.646747057208807e-7 -7.701642114081103e-7 -7.692887938538614e-7 -9.275161373396842e-7 -9.262575671210153e-7 -9.255573754747539e-7
          -0.000001079532194798036 -0.0000010795415899781945 -0.000001079074022001352 -0.0000012315292172079402 -0.0000012314475754359779 -0.000001231317540294841
          -0.000001381634019372915 -0.0000013816553283110076 -0.0000013815670418672267 -0.00000153079715074871 -0.0000015308414242824922 -0.0000015308696281872351
          -0.0000016794224500452223 -0.0000016796098888791582 -0.0000016801129141955584 -0.0000018274659210610273 -0.000001827982912806471 -0.0000018294998710766542
          -0.0000019703594763769442 -0.000001969828677166753 -0.0000019706907171630413 -0.0000021105704504318097 -0.000002109929252552314 -0.0000021085531478620547
          -0.0000022565497738882766 -0.0000022551912943668906 -0.0000022522092290003847 -0.0000024117259488732967 -0.000002409476812856995 -0.0000024039810282521803
          -0.0000025788008473272605 -0.000002575394601953583 -0.0000025663698188264578 -0.0000027619778082598756 -0.000002757270378157723 -0.0000027431761607608386
          0 -1.428855934909196e-7 0 -1.4384299273882732e-7 0 -1.4748343943029282e-7
          -2.7311200893719735e-7 -2.7302433928381174e-7 -2.7429320328164113e-7 -3.9100820625811165e-7 -3.918292270959028e-7 -3.918483971897587e-7
          -5.223598389832107e-7 -5.203887238682118e-7 -5.208466929791604e-7 -6.503098819479798e-7 -6.465244598481913e-7 -6.422234762409179e-7
          -7.718734223889311e-7 -7.773084746608224e-7 -7.768296914347136e-7 -9.320269535759465e-7 -9.308739266240096e-7 -9.301659641376183e-7
          -0.0000010832996256803414 -0.0000010832794063173 -0.0000010828048943149838 -0.0000012346745868404533 -0.0000012346395985030745 -0.0000012345952957311067
          -0.0000013838108821769709 -0.0000013839083589599598 -0.00000138404736636892 -0.000001531575096433839 -0.0000015317139448545223 -0.0000015318668621290522
          -0.000001678840610494405 -0.0000016791189236101293 -0.0000016801800704496294 -0.0000018252153716534716 -0.000001825269269398362 -0.0000018262777971976077
          -0.0000019639377978655636 -0.000001963307583922899 -0.0000019630283276221123 -0.0000021040140519449435 -0.0000021029230830836786 -0.000002100174289825668
          -0.00000225195510315618 -0.000002249978360804204 -0.000002244809122038465 -0.00000241094259947663 -0.0000024078111491585317 -0.0000023990152264845433
          -0.000002586350364322663 -0.0000025817951413842455 -0.0000025679914184103276 -0.000002787079978749825 -0.0000027808743131083523 -0.000002760420602554835
          0 -1.3934159158518836e-7 0 -1.390761430197952e-7 0 -1.442244760450403e-7
          -2.629014634348786e-7 -2.6301701293557425e-7 -2.617640422634407e-7 -3.8529349473463443e-7 -3.842566220258374e-7 -3.83001350758828e-7
          -5.12273280555368e-7 -5.141798842483589e-7 -5.156161440610259e-7 -6.519553343041982e-7 -6.512816599663847e-7 -6.493600261774507e-7
          -7.941892592437562e-7 -7.92231620138974e-7 -7.892584350188744e-7 -9.360725099364783e-7 -9.363388301330292e-7 -9.361310309049284e-7
          -0.0000010877080351048195 -0.0000010874809185987617 -0.00000108701709481503 -0.0000012382018100605178 -0.0000012382406912004067 -0.0000012382829470858978
          -0.000001386568070036071 -0.000001386770709492809 -0.0000013873400721199533 -0.0000015325631786278653 -0.0000015328622492710687 -0.00000153336542253716
          -0.0000016779090470725263 -0.0000016780212328928204 -0.0000016790510849222842 -0.0000018203004233224374 -0.0000018198040246678676 -0.000001820097248313121
          -0.0000019568789120481877 -0.000001956203459638948 -0.0000019542883378053276 -0.0000020991713630558882 -0.0000020975673850545237 -0.000002093115155335943
          -0.0000022507367493144217 -0.0000022480234733721548 -0.000002240209253605927 -0.0000024164126430970197 -0.0000024122560079342455 -0.0000023995120384678022
          -0.0000026049839873875943 -0.0000025989612344408804 -0.0000025794910745305624 -0.000002831076255468463 -0.0000028227503745201215 -0.0000027947936383759106
          0 -1.3556746101295044e-7 0 -1.350097886316221e-7 0 -1.294590060744793e-7
          -2.4723096683764224e-7 -2.467295131390234e-7 -2.467459191195762e-7 -3.762487760042397e-7 -3.7583836948357515e-7 -3.7302449354333943e-7
          -5.147651983375661e-7 -5.150310738431305e-7 -5.146169334770403e-7 -6.597669483778521e-7 -6.594385213160631e-7 -6.589079414192831e-7
          -8.031830064850682e-7 -8.022096580495137e-7 -8.015406905703293e-7 -9.437900806193968e-7 -9.437438963161094e-7 -9.431264514472219e-7
          -0.0000010921045655586528 -0.0000010920622169267168 -0.0000010917672742683089 -0.0000012418729204344103 -0.000001241950559122535 -0.0000012420742725069136
          -0.0000013903330991064193 -0.0000013904931535393653 -0.0000013916936123259352 -0.0000015347594398415976 -0.0000015348750950056964 -0.000001536027141460739
          -0.0000016746263865850938 -0.0000016745863947488587 -0.0000016748349605086696 -0.0000018125909678183556 -0.000001812190239525007 -0.0000018112049973164652
          -0.0000019512391765347597 -0.000001950214612958301 -0.000001946548977054193 -0.0000020976329362177316 -0.0000020955107594705495 -0.000002088732739810419
          -0.0000022553664255093058 -0.0000022520398494457623 -0.000002240958686909096 -0.0000024321688185519724 -0.0000024271634579873703 -0.0000024096231428283517
          -0.0000026408907443258026 -0.0000026336639246578302 -0.000002607308596596797 -0.0000029019015479733335 -0.0000028918980079175623 -0.000002855029658631858
          -0.000003245848760528129 -0.000003232531216873403 -0.00000318502224487173 -0.0000037121005897904663 -0.00000369545237609097 -0.000003639223323843753
          -1.0590037799251224e-7 0 -1.0306242300109913e-7 0 -1.013551864798744e-7 0
          -2.277662012280568e-7 -2.272928592238489e-7 -2.2123574610125227e-7 -3.7746837976813077e-7 -3.7637037427439617e-7 -3.73479309989955e-7
          -5.31836038912275e-7 -5.315842261040091e-7 -5.315068911694986e-7 -6.846613143546603e-7 -6.848538679325447e-7 -6.851489587926356e-7
          -8.32458852232747e-7 -8.327830246715218e-7 -8.33504429250838e-7 -0.00000217588675814517 -0.000002171341980907122 -0.0000021576328743122315
          -0.0000024050169074844345 -0.000002398687606966729 -0.0000023793710371778654 -0.0000026885911810293993 -0.000002679997819203592 -0.0000026536823303490137
          -0.000003051496449704303 -0.000003040342532423244 -0.000003006343543158684 -0.000003525058127652264 -0.0000035114687938104966 -0.000003470355002821508
          -0.000004625409130806177 -0.000004613755761397458 -0.0000045780698729499265 -0.000004145291036207837 -0.000004129963468490045 -0.000004083930408584148
          -0.000005546544698392525 -0.000005534810747538885 -0.000005499142674127401 -0.000004950129859859834 -0.000004934128563756877 -0.0000048865687284968534
          -0.000006669016056808949 -0.0000066580748225756565 -0.000006624989677133921 -0.000005976740842408698 -0.000005961638719239514 -0.000005916542945670267
          -0.000008010325603580684 -0.000008001110555006786 -0.000007973397664602282 -0.000002886905313862091 -0.0000028845622583449148 -0.000002885704140192468
          -0.0000028843358738634354 -0.0000028828899410530922 -0.0000028820805597643577 -0.000002891642767218588 -0.0000028894613102670518 -0.000002885433859042894
          -0.0000028990322461484514 -0.0000028960244733796275 -0.0000028897706496299282 -0.0000029116465242085505 -0.0000029077341111823356 -0.0000028978394365144856
          -0.000002933497176123187 -0.000002928457607855931 -0.000002913559443061606 -0.0000029700587265109923 -0.0000029637183490073345 -0.0000029422684199487024
          -0.000003028372903943757 -0.0000030203665634058146 -0.000002991405550184943 -0.000003117788662748959 -0.0000031067967979335474 -0.000003069133697999309
          -0.0000034999357599497945 -0.0000034861571853170578 -0.000003438640369405627 -0.000004347615281083918 -0.000004026399992658306 -0.000004328225172281206
          -0.000004009536005993527 -0.0000042670724110828095 -0.000003953354662729661 -1.1936542858704905e-7 0 -1.1876229412388931e-7
          0 -1.1969466456243484e-7 0 -2.568144373065968e-7 -2.5692024007596353e-7 -2.5623074121349423e-7
          -4.0502783295135415e-7 -4.044506811517214e-7 -4.0260422314264346e-7 -5.551891211470204e-7 -5.550727824865817e-7 -5.550191722282187e-7
          -7.081895215190565e-7 -7.08467967761408e-7 -7.090909830240145e-7 -8.591672780454351e-7 -8.597458939256497e-7 -8.619304397551981e-7
          -9.773727637743022e-7 -9.777433005823893e-7 -9.789903757144604e-7 -9.993381824935046e-7 -9.998922237948712e-7 -0.0000010025330988543546
          -0.0000011151466069952468 -0.0000011153614370313755 -0.000001116247445563239 -0.0000012520958410502857 -0.0000012521531424176801 -0.0000012523544149269815
          -0.0000013915460289490526 -0.0000013914882675257254 -0.0000013919645005583355 -0.0000015288265828373782 -0.0000015284105134070834 -0.00000152777526458653
          -0.0000016678610662235154 -0.0000016666596802154309 -0.0000016632276773832652 -0.0000018162384138290038 -0.0000018141104608649066 -0.0000018076786630256514
          -0.000001983316669012909 -0.0000019800965045587355 -0.000001970501969314735 -0.0000024478397158015492 -0.0000021514571571156356 -0.000002441073767959903
          -0.0000021461145642385782 -0.0000024200275797026095 -0.0000021296578318851005 -0.00000281928265937408 -0.000002810982615519541 -0.0000027850721870356116
          -0.000003288609667063088 -0.000003278847695642851 -0.0000032484664728388106 -0.0000038816672257754405 -0.000003870721936256025 -0.000003836916773047791
          -0.0000061289357856377705 -0.0000051159161778519925 -0.0000061194852524727925 -0.000005105982509391451 -0.000006091122019468485 -0.000005075848883078327
          -0.000007318182066138065 -0.000007309852926620635 -0.000007285026942082141 -0.00000868882984253851 -0.000008682357038751502 -0.000008663066004673025
          -0.000010235996068620232 -0.000010232087517199598 -0.000010220550927398749 -0.0000072575499847208865 -0.00000520422604166364 -0.000007245003311233086
          -0.000005183286450990463 -0.000007207063022895583 -0.000005122586850938679 -0.000009575369600961226 -0.000009569170755293261 -0.000009550420765113786
          -0.000011937350325819168 -0.000011936987681138853 -0.000011935898519144928
        </DataArray>
        <DataArray type="Float64" Name="disp_z" format="ascii" RangeMin="-0.0000013486725223528254" RangeMax="1.4215461615841951e-8">
          0 0 0 0 -5.6699643749972494e-8 -5.6385225646396485e-8
          -5.68326326602888e-8 -5.618549804951307e-8 -1.1280038432660884e-7 -1.1314376867584575e-7 -1.1273322915771878e-7 -1.1333006184932734e-7
          0 0 -5.066672454316877e-8 -5.513589928610656e-8 -1.0845827909340543e-7 -1.0577976952299533e-7
          0 0 -4.999662287689413e-8 -5.0318525859811326e-8 -9.866074179356637e-8 -9.987865894855584e-8
          0 0 -4.943746590269431e-8 -4.987016903032701e-8 -9.938558355909141e-8 -9.876020884906287e-8
          0 0 -5.3543081768220027e-8 -5.235324196655095e-8 -1.0295679490612719e-7 -1.076638660921775e-7
          0 0 -5.6419108584923596e-8 -5.647553599220423e-8 -1.1272590826645692e-7 -1.1257490460525911e-7
          0 0 -5.654383007718844e-8 -5.651875321237431e-8 -1.12856840082514e-7 -1.1294399776774107e-7
          0 0 -5.7248332389246795e-8 -5.725330242003954e-8 -1.1458456533032755e-7 -1.1455003758427903e-7
          0 0 -5.790357510709259e-8 -5.789706740229866e-8 -1.1579456251137727e-7 -1.1579482485598698e-7
          0 0 -5.8331195688563996e-8 -5.832519861044175e-8 -1.1666297922841119e-7 -1.166501224940851e-7
          0 0 -5.86035758283825e-8 -5.859294345126669e-8 -1.1722084663609465e-7 -1.1720087798689992e-7
          0 0 -5.867695852206014e-8 -5.8666394063920406e-8 -1.1730955147637485e-7 -1.1730253168231403e-7
          0 0 -5.878776817226836e-8 -5.878200050825838e-8 -1.1746738005609029e-7 -1.174572108723232e-7
          0 0 -5.8621528097038446e-8 -5.871127777936044e-8 -1.1667690192908121e-7 -1.1696394316542301e-7
          0 0 -5.7530747527675615e-8 -5.790733748202531e-8 -1.1440465508412477e-7 -1.1508699530014689e-7
          0 0 -5.457164174912357e-8 -5.4890343210691456e-8 -1.0865508359825556e-7 -1.0919191679993527e-7
          0 0 -5.0883114965365465e-8 -5.098402092086397e-8 -1.0182784432987193e-7 -1.0189673533594335e-7
          0 0 -4.748242322720248e-8 -4.7390776194526224e-8 -9.576596782508762e-8 -9.538689631183143e-8
          0 0 -4.473844478229283e-8 -4.446497802016824e-8 -9.130255419667028e-8 -9.038081989425785e-8
          0 0 -5.646505731458671e-8 -5.6891527614735275e-8 -1.1331066474579034e-7 -1.1272244518909115e-7
          0 -4.9430621439722447e-8 -1.0662790916340332e-7 0 -4.8673403477023487e-8 -9.659143925355637e-8
          0 -4.888929770822739e-8 -9.757717958071568e-8 0 -5.3480506217713615e-8 -1.0281574414675012e-7
          0 -5.646438004805872e-8 -1.126988711224636e-7 0 -5.653664240207938e-8 -1.1283329001023759e-7
          0 -5.7264420356406606e-8 -1.146254428876592e-7 0 -5.791920922710719e-8 -1.1583428909762994e-7
          0 -5.835602345791275e-8 -1.1670444173023712e-7 0 -5.864573238810271e-8 -1.1729926557160621e-7
          0 -5.871939521154968e-8 -1.1734344562230235e-7 0 -5.88003871529363e-8 -1.1751045936931515e-7
          0 -5.831884953492026e-8 -1.1571759635011725e-7 0 -5.639821125264815e-8 -1.1242167470848632e-7
          0 -5.365799703273592e-8 -1.0716592170988657e-7 0 -5.058833036077823e-8 -1.0171559444954028e-7
          0 -4.774939789815782e-8 -9.703611565709817e-8 0 -4.567786379505088e-8 -9.434475357078412e-8
          0 0 -5.6961478868190444e-8 -5.6353387132566846e-8 -1.1332064355748841e-7 -1.1332777841848355e-7
          0 -5.236498451112355e-8 -1.0153151509339745e-7 0 -4.68735147777881e-8 -9.407533274636977e-8
          0 -4.6896745497317595e-8 -9.297303783410853e-8 0 -5.465967710933637e-8 -1.065732587920782e-7
          0 -5.638303592943758e-8 -1.1231758773671144e-7 0 -5.654313208166242e-8 -1.1290210146566238e-7
          0 -5.72946449358935e-8 -1.146722007389006e-7 0 -5.795360413463288e-8 -1.1591959363084153e-7
          0 -5.8401584235674234e-8 -1.1677667182456934e-7 0 -5.873714266402598e-8 -1.1745409615520078e-7
          0 -5.879882067575245e-8 -1.174113059629188e-7 0 -5.880077471342352e-8 -1.1755540235696631e-7
          0 -5.752835048268196e-8 -1.1391526091541158e-7 0 -5.457972882615679e-8 -1.093649513668291e-7
          0 -5.230078744045448e-8 -1.051353242937189e-7 0 -5.016971060231268e-8 -1.0194428469160332e-7
          0 -4.837052067302572e-8 -9.98023839720488e-8 0 -4.7698512169619975e-8 -1.0060926899025602e-7
          0 0 -5.7225589512478674e-8 -5.6512957686796966e-8 -1.138405393451816e-7 -1.134148855266411e-7
          0 -5.1180485013504264e-8 -9.932934593610228e-8 0 -4.5440251341630754e-8 -9.155266687192581e-8
          0 -4.280045733915014e-8 -8.784251458876609e-8 0 -5.614128328195669e-8 -1.0214825504580965e-7
          0 -5.559612822107087e-8 -1.1158588977886156e-7 0 -5.666111955492284e-8 -1.12912211523363e-7
          0 -5.7321642900959254e-8 -1.1480609782950504e-7 0 -5.804132141959866e-8 -1.1604694078724108e-7
          0 -5.846266979290639e-8 -1.1687778693072064e-7 0 -5.890259733331703e-8 -1.176998963271648e-7
          0 -5.889934537993597e-8 -1.1750366340084328e-7 0 -5.8733210072220095e-8 -1.1748567743436635e-7
          0 -5.51480123258469e-8 -1.120277599462711e-7 0 -5.257474760336261e-8 -1.0560421991177322e-7
          0 -5.0798291218326394e-8 -1.0349166971757774e-7 0 -5.004963807863632e-8 -1.0340558449970295e-7
          0 -5.0025646765491435e-8 -1.05535577671227e-7 0 -5.2091928760470684e-8 -1.126643201361088e-7
          0 0 -5.761694049191379e-8 -5.66957626090176e-8 -1.1462778602287067e-7 -1.1361798635993218e-7
          0 -4.906385919239702e-8 -9.763746335095431e-8 0 -4.4689369849940605e-8 -8.987659893039616e-8
          0 -3.94158744769413e-8 -8.462717920411102e-8 0 -4.747989157800684e-8 -8.550067781697782e-8
          0 -5.434572929357185e-8 -1.1023258879877697e-7 0 -5.6756454003473134e-8 -1.1293845799351115e-7
          0 -5.742890249846793e-8 -1.1505724304798119e-7 0 -5.815543272717714e-8 -1.1623303089809354e-7
          0 -5.8541062871259924e-8 -1.169980663364004e-7 0 -5.914469987153881e-8 -1.1802322941072834e-7
          0 -5.899619008822377e-8 -1.176155016605611e-7 0 -5.845617367401462e-8 -1.1682391894285734e-7
          0 -5.309846621729021e-8 -1.0843914572396333e-7 0 -5.0565336906923925e-8 -1.027689171442103e-7
          0 -5.003064328852926e-8 -1.0360734683148213e-7 0 -5.133248722636225e-8 -1.0794764292241906e-7
          0 -5.4445888859402666e-8 -1.1705954859791925e-7 0 -6.160408663866875e-8 -1.3529321549436255e-7
          0 0 -5.8348293548404307e-8 -5.6614701042718083e-8 -1.1573468541665112e-7 -1.1400163209206044e-7
          0 -4.8041217810472656e-8 -9.594220123732832e-8 0 -4.314923397832578e-8 -8.89420957001379e-8
          0 -4.4776287819715426e-8 -8.729684454526599e-8 0 -1.1642631173337966e-8 -6.041222958299358e-8
          0 -5.430996785168955e-8 -1.0919312002721918e-7 0 -5.643138818326361e-8 -1.1297249364573794e-7
          0 -5.782292728931902e-8 -1.155387086091421e-7 0 -5.8274477330736177e-8 -1.1648865447739826e-7
          0 -5.8668561563812814e-8 -1.1715797162625688e-7 0 -5.9313978058338604e-8 -1.1821151469801143e-7
          0 -5.916858715868822e-8 -1.1788443231086448e-7 0 -5.6840842554084976e-8 -1.1410017210512281e-7
          0 -5.1769987504257195e-8 -1.0387438977574607e-7 0 -4.962897231111527e-8 -1.0258581195222178e-7
          0 -5.148568689856354e-8 -1.0749404083496536e-7 0 -5.608623156639002e-8 -1.1874204091599732e-7
          0 -6.480055243478072e-8 -1.3892871347638396e-7 0 -8.070065973895248e-8 -1.7463497260128458e-7
          0 0 -5.903192231592921e-8 -5.725477333537022e-8 -1.1788683848437552e-7 -1.1306970067737095e-7
          0 -4.7321614230308796e-8 -9.413851918741548e-8 0 -4.4137914287197394e-8 -9.020027303657193e-8
          0 -4.7913336622916746e-8 -9.138578541302145e-8 0 -1.6344424272754833e-8 -6.907817091993113e-8
          0 -5.4385206485007055e-8 -1.0958540948516965e-7 0 -5.674743149319025e-8 -1.1354580637263797e-7
          0 -5.8222137715624214e-8 -1.1616038594230205e-7 0 -5.862500043177271e-8 -1.1696585456387619e-7
          0 -5.8798977347268274e-8 -1.1730860946340848e-7 0 -5.912261343692862e-8 -1.1786472334308511e-7
          0 -5.8763756468974916e-8 -1.17454436722312e-7 0 -5.520826427647033e-8 -1.1000449531959354e-7
          0 -5.037874149584149e-8 -1.0221795946408834e-7 0 -5.1729244764845815e-8 -1.0637440631891893e-7
          0 -5.711931991501094e-8 -1.1763989084981027e-7 0 -6.752271449413435e-8 -1.3925220789900188e-7
          0 -8.557481510133591e-8 -1.7625366641572853e-7 0 -1.1557740695217803e-7 -2.370226695180168e-7
          0 0 -6.030151805535019e-8 -5.610530460377223e-8 -1.2280030659018758e-7 -1.0988723585714545e-7
          0 -4.613189813492493e-8 -9.220974844382177e-8 0 -4.891355364867026e-8 -9.527819452539816e-8
          0 -4.986301131277784e-8 -9.814625594499758e-8 0 -5.476342828296622e-8 -1.0414484993779915e-7
          0 -5.5282402291540615e-8 -1.1124420156172359e-7 0 -5.753260247311848e-8 -1.1463570499692175e-7
          0 -5.886607111303272e-8 -1.1702023180100926e-7 0 -5.9309526161472e-8 -1.1772094063539482e-7
          0 -5.896865425934469e-8 -1.173419461891815e-7 0 -5.745479182665189e-8 -1.1608918395431851e-7
          0 -5.655679779882496e-8 -1.151122361665976e-7 0 -5.293078087164476e-8 -1.0503236394341058e-7
          0 -5.186181461673152e-8 -1.0528435958515001e-7 0 -5.77571553059509e-8 -1.1595454309881319e-7
          0 -6.870196334142183e-8 -1.3651590309717397e-7 0 -8.784568856868438e-8 -1.7287969547547488e-7
          0 -1.197296119588837e-7 -2.331441828435216e-7 0 -1.6921775130098733e-7 -3.2708688371713475e-7
          0 0 -7.494424519086874e-8 -4.9295244523214797e-8 -1.1909605791020847e-7 -9.657502339704048e-8
          0 -4.5275277339806026e-8 -9.058225612594486e-8 0 -5.384393007280797e-8 -1.092277227596307e-7
          0 -5.636475428977009e-8 -1.1328564921847392e-7 0 -6.104130515216063e-8 -1.1989794767521636e-7
          0 -5.7231670509492184e-8 -1.1394071799253609e-7 0 -5.794189161837512e-8 -1.1566412268547015e-7
          0 -5.959499031002423e-8 -1.1931811330148684e-7 0 -5.978627478629402e-8 -1.193792083526283e-7
          0 -5.8776628050298654e-8 -1.1789284902867584e-7 0 -5.411912149247937e-8 -1.0762696518834039e-7
          0 -5.25369307952032e-8 -1.0528502212201156e-7 0 -5.1132633570165105e-8 -1.0396534839129138e-7
          0 -5.624305809630601e-8 -1.148507380657196e-7 0 -6.626805140299277e-8 -1.354620791871129e-7
          0 -8.337581695443095e-8 -1.7059641709834543e-7 0 -1.121180031018022e-7 -2.2898278537330488e-7
          0 -1.5844437783955616e-7 -3.2198654302256305e-7 0 -2.2782370670692389e-7 -4.596306918101252e-7
          0 -3.2220538859588447e-7 -6.450022968448495e-7 0 -4.363289822135093e-7 -8.667926964789688e-7
          0 0 -3.5451976237816614e-8 1.4215461615841951e-8 -6.902998611194335e-8 -1.52896527322849e-8
          0 -4.6588869655169214e-8 -9.428729798415487e-8 0 -5.892329554034249e-8 -1.1722658695122997e-7
          0 -5.9512908550391364e-8 -1.1779963372912129e-7 0 -5.955048403359009e-8 -1.1788363992179557e-7
          0 -5.8517608322625204e-8 -1.1646522707930892e-7 0 -9.779871184076919e-8 -1.971906418765268e-7
          0 -1.2812521476837397e-7 -2.5759896851158603e-7 0 -1.7089041161159437e-7 -3.4223462953806945e-7
          0 -2.2809510550434535e-7 -4.5482195676695323e-7 0 -2.998316214593976e-7 -5.951652254452473e-7
          0 -3.819816149390719e-7 -7.655854286346258e-7 0 -3.8366490901089263e-7 -7.590185125651271e-7
          0 -4.4945234772318157e-7 -9.001648866995736e-7 0 -4.7264654374791844e-7 -9.335489533885965e-7
          0 -5.146390849283144e-7 -0.000001030288348642413 0 -5.610890746960649e-7 -0.0000011080752287083272
          0 -5.716980314586362e-7 -0.000001143930008183139 0 0 -4.4183447172414575e-8
          -4.3580931196362857e-8 -9.212692358077076e-8 -9.041692334928374e-8 0 -4.616051685665665e-8 -9.778636225105042e-8
          0 -5.059091916124919e-8 -1.0939191378187259e-7 0 -5.970434180947556e-8 -1.3169891153074819e-7
          0 -7.712106621853393e-8 -1.710946825814686e-7 0 -1.091415369782065e-7 -2.3571213763769472e-7
          0 -1.6304907000344119e-7 -3.319099617200245e-7 0 -2.402803735941637e-7 -4.6241196664738607e-7
          0 -3.3564002870401334e-7 -6.447195562920365e-7 0 0 -5.621327814042266e-7
          -4.506668979938222e-7 -0.0000011113151039661807 -8.667890022008647e-7 0 0 -5.5138868035248865e-8
          -1.8217927619982283e-8 -1.0820665701366297e-7 -7.688004078497664e-8 0 -5.579393429387072e-8 -1.1050050562432064e-7
          0 -5.835446062174207e-8 -1.1655724656455207e-7 0 -5.917093209471994e-8 -1.179890036545802e-7
          0 -5.867217863157885e-8 -1.1745888290829911e-7 0 -5.6410085705740874e-8 -1.1288129644850142e-7
          0 -5.7024099037446364e-8 -1.1412268029480541e-7 0 -4.996296181399796e-8 -1.0018141524419667e-7
          0 -5.3841006402530955e-8 -1.0760913184323224e-7 0 -5.311176092169027e-8 -1.0659858820846513e-7
          0 -5.181655997603691e-8 -1.0416193314841846e-7 0 -5.0135527708288194e-8 -1.0159380389818332e-7
          0 -5.290915560115837e-8 -1.0762994250286655e-7 0 -6.22119809128785e-8 -1.26280453956568e-7
          0 -7.681137401121027e-8 -1.5512856352150613e-7 0 0 -1.556974276343878e-7
          -1.2052930797886617e-7 -3.142855145640924e-7 -2.437262187922516e-7 0 -2.0035721339260597e-7 -4.0358512684010737e-7
          0 -2.542094669083852e-7 -5.109415879716126e-7 0 -3.156396382453838e-7 -6.332887551591887e-7
          0 0 -4.564485385160745e-7 -4.0035264200700847e-7 -9.096223937555513e-7 -7.983647293083762e-7
          0 -5.067785409964117e-7 -0.0000010097683226029838 0 -5.486422526475337e-7 -0.0000010931397839723559
          0 -5.777095460272088e-7 -0.0000011511335597557422 0 0 -6.404837125395732e-7
          -6.834758510008141e-7 -0.0000012656796252103343 -0.0000013486725223528254 0 -6.163725612738905e-7 -0.0000012323880332757382
          0 -5.896263669550617e-7 -0.0000011749481649656438
        </DataArray>
      </PointData>
      <CellData>
        <DataArray type="Int32" Name="libmesh_elem_id" format="ascii" RangeMin="0" RangeMax="1173">
          0 1 2 3 4 5
          6 7 8 9 10 11
          12 13 14 15 16 17
          18 19 20 21 22 23
          24 25 26 27 28 29
          30 31 32 33 34 35
          36 37 38 39 58 59
          60 61 62 63 64 65
          66 67 68 69 70 71
          72 73 74 75 76 77
          78 79 80 81 82 83
          84 85 86 87 88 89
          90 91 92 93 94 95
          96 97 116 117 118 119
          120 121 122 123 124 125
          126 127 128 129 130 131
          132 133 134 135 136 137
          138 139 140 141 142 143
          144 145 146 147 148 149
          150 151 152 153 154 155
          174 175 176 177 178 179
          180 181 182 183 184 185
          186 187 188 189 190 191
          192 193 194 195 196 197
          198 199 200 201 202 203
          204 205 206 207 208 209
          210 211 212 213 232 233
          234 235 236 237 238 239
          240 241 242 243 244 245
          246 247 248 249 250 251
          252 253 254 255 256 257
          258 259 260 261 262 263
          264 265 266 267 268 269
          270 271 290 291 292 293
          294 295 296 297 298 299
          300 301 302 303 304 305
          306 307 308 309 310 311
          312 313 314 315 316 317
          318 319 320 321 322 323
          324 325 326 327 328 329
          348 349 350 351 352 353
          354 355 356 357 358 359
          360 361 362 363 364 365
          366 367 368 369 370 371
          372 373 374 375 376 377
          378 379 380 381 382 383
          384 385 386 387 406 407
          408 409 410 411 412 413
          414 415 416 417 418 419
          420 421 422 423 424 425
          426 427 428 429 430 431
          432 433 434 435 436 437
          438 439 440 441 442 443
          444 445 464 465 466 467
          468 469 470 471 472 473
          474 475 476 477 478 479
          480 481 482 483 484 485
          486 487 488 489 490 491
          492 493 494 495 496 497
          498 499 500 501 502 503
          504 505 506 507 772 773
          774 775 790 791 792 793
          808 809 810 811 826 827
          828 829 844 845 846 847
          862 863 864 865 880 881
          882 883 898 899 916 917
          934 935 952 953 970 971
          988 989 1006 1007 1024 1025
          1026 1027 1042 1043 1044 1045
          1060 1061 1062 1063 1078 1079
          1080 1081 1096 1097 1098 1099
          1100 1101 1114 1115 1116 1117
          1118 1119 1132 1133 1134 1135
          1136 1137 1150 1151 1152 1153
          1154 1155 1168 1169 1170 1171
          1172 1173
        </DataArray>
        <DataArray type="Int32" Name="subdomain_id" format="ascii" RangeMin="103" RangeMax="105">
          103 103 103 103 103 103
          103 103 103 103 103 103
          103 103 103 103 103 103
          103 103 103 103 103 103
          103 103 103 103 103 103
          103 103 103 103 103 103
          103 103 103 103 103 103
          103 103 103 103 103 103
          103 103 103 103 103 103
          103 103 103 103 103 103
          103 103 103 103 103 103
          103 103 103 103 103 103
          103 103 103 103 103 103
          103 103 103 103 103 103
          103 103 103 103 103 103
          103 103 103 103 103 103
          103 103 103 103 103 103
          103 103 103 103 103 103
          103 103 103 103 103 103
          103 103 103 103 103 103
          103 103 103 103 103 103
          103 103 103 103 103 103
          103 103 103 103 103 103
          103 103 103 103 103 103
          103 103 103 103 103 103
          103 103 103 103 103 103
          103 103 103 103 103 103
          103 103 103 103 103 103
          103 103 103 103 103 103
          103 103 103 103 103 103
          103 103 103 103 103 103
          103 103 103 103 103 103
          103 103 103 103 103 103
          103 103 103 103 103 103
          103 103 103 103 103 103
          103 103 103 103 103 103
          103 103 103 103 103 103
          103 103 103 103 103 103
          103 103 103 103 103 103
          103 103 103 103 103 103
          103 103 103 103 103 103
          103 103 103 103 103 103
          103 103 103 103 103 103
          103 103 103 103 103 103
          103 103 103 103 103 103
          103 103 103 103 103 103
          103 103 103 103 103 103
          103 103 103 103 103 103
          103 103 103 103 103 103
          103 103 103 103 103 103
          103 103 103 103 103 103
          103 103 103 103 103 103
          103 103 103 103 103 103
          103 103 103 103 103 103
          103 103 103 103 103 103
          103 103 103 103 103 103
          103 103 103 103 103 103
          103 103 103 103 103 103
          103 103 103 103 103 103
          103 103 103 103 103 103
          103 103 103 103 105 105
          105 105 105 105 105 105
          105 105 105 105 105 105
          105 105 105 105 105 105
          105 105 105 105 105 105
          105 105 105 105 105 105
          105 105 105 105 105 105
          105 105 105 105 105 105
          105 105 105 105 105 105
          105 105 105 105 105 105
          105 105 105 105 105 105
          105 105 105 105 105 105
          105 105 105 105 105 105
          105 105 105 105 105 105
          105 105 105 105 105 105
          105 105
        </DataArray>
        <DataArray type="Int32" Name="processor_id" format="ascii" RangeMin="7" RangeMax="7">
          7 7 7 7 7 7
          7 7 7 7 7 7
          7 7 7 7 7 7
          7 7 7 7 7 7
          7 7 7 7 7 7
          7 7 7 7 7 7
          7 7 7 7 7 7
          7 7 7 7 7 7
          7 7 7 7 7 7
          7 7 7 7 7 7
          7 7 7 7 7 7
          7 7 7 7 7 7
          7 7 7 7 7 7
          7 7 7 7 7 7
          7 7 7 7 7 7
          7 7 7 7 7 7
          7 7 7 7 7 7
          7 7 7 7 7 7
          7 7 7 7 7 7
          7 7 7 7 7 7
          7 7 7 7 7 7
          7 7 7 7 7 7
          7 7 7 7 7 7
          7 7 7 7 7 7
          7 7 7 7 7 7
          7 7 7 7 7 7
          7 7 7 7 7 7
          7 7 7 7 7 7
          7 7 7 7 7 7
          7 7 7 7 7 7
          7 7 7 7 7 7
          7 7 7 7 7 7
          7 7 7 7 7 7
          7 7 7 7 7 7
          7 7 7 7 7 7
          7 7 7 7 7 7
          7 7 7 7 7 7
          7 7 7 7 7 7
          7 7 7 7 7 7
          7 7 7 7 7 7
          7 7 7 7 7 7
          7 7 7 7 7 7
          7 7 7 7 7 7
          7 7 7 7 7 7
          7 7 7 7 7 7
          7 7 7 7 7 7
          7 7 7 7 7 7
          7 7 7 7 7 7
          7 7 7 7 7 7
          7 7 7 7 7 7
          7 7 7 7 7 7
          7 7 7 7 7 7
          7 7 7 7 7 7
          7 7 7 7 7 7
          7 7 7 7 7 7
          7 7 7 7 7 7
          7 7 7 7 7 7
          7 7 7 7 7 7
          7 7 7 7 7 7
          7 7 7 7 7 7
          7 7 7 7 7 7
          7 7 7 7 7 7
          7 7 7 7 7 7
          7 7 7 7 7 7
          7 7 7 7 7 7
          7 7 7 7 7 7
          7 7 7 7 7 7
          7 7 7 7 7 7
          7 7 7 7 7 7
          7 7 7 7 7 7
          7 7 7 7 7 7
          7 7 7 7 7 7
          7 7 7 7 7 7
          7 7 7 7 7 7
          7 7 7 7 7 7
          7 7
        </DataArray>
      </CellData>
      <Points>
        <DataArray type="Float64" Name="Points" NumberOfComponents="3" format="ascii" RangeMin="0" RangeMax="0.009803689505302022">
          0 0 0 0.00011111111111093 0 0
          0.00011111111111095 0.00041379310344969 0 0 0.00041379310344996 0
          0 0 0.00015 0.00011111111111093 0 0.00015
          0.00011111111111095 0.00041379310344969 0.00015 0 0.00041379310344996 0.00015
          0 0 0.0003 0.00011111111111093 0 0.0003
          0.00011111111111095 0.00041379310344969 0.0003 0 0.00041379310344996 0.0003
          0.00011111111111096 0.00082758620689912 0 0 0.00082758620689964 0
          0.00011111111111096 0.00082758620689912 0.00015 0 0.00082758620689964 0.00015
          0.00011111111111096 0.00082758620689912 0.0003 0 0.00082758620689964 0.0003
          0.00011111111111098 0.0012413793103467 0 0 0.0012413793103472 0
          0.00011111111111098 0.0012413793103467 0.00015 0 0.0012413793103472 0.00015
          0.00011111111111098 0.0012413793103467 0.0003 0 0.0012413793103472 0.0003
          0.00011111111111099 0.0016551724137963 0 0 0.0016551724137971 0
          0.00011111111111099 0.0016551724137963 0.00015 0 0.0016551724137971 0.00015
          0.00011111111111099 0.0016551724137963 0.0003 0 0.0016551724137971 0.0003
          0.00011111111111101 0.002068965517246 0 0 0.0020689655172471 0
          0.00011111111111101 0.002068965517246 0.00015 0 0.0020689655172471 0.00015
          0.00011111111111101 0.002068965517246 0.0003 0 0.0020689655172471 0.0003
          0.00011111111111102 0.0024827586206956 0 0 0.002482758620697 0
          0.00011111111111102 0.0024827586206956 0.00015 0 0.002482758620697 0.00015
          0.00011111111111102 0.0024827586206956 0.0003 0 0.002482758620697 0.0003
          0.00011111111111104 0.0028965517241444 0 0 0.002896551724146 0
          0.00011111111111104 0.0028965517241444 0.00015 0 0.002896551724146 0.00015
          0.00011111111111104 0.0028965517241444 0.0003 0 0.002896551724146 0.0003
          0.00011111111111105 0.0033103448275919 0 0 0.0033103448275936 0
          0.00011111111111105 0.0033103448275919 0.00015 0 0.0033103448275936 0.00015
          0.00011111111111105 0.0033103448275919 0.0003 0 0.0033103448275936 0.0003
          0.00011111111111107 0.0037241379310415 0 0 0.0037241379310435 0
          0.00011111111111107 0.0037241379310415 0.00015 0 0.0037241379310435 0.00015
          0.00011111111111107 0.0037241379310415 0.0003 0 0.0037241379310435 0.0003
          0.00011111111111108 0.0041379310344912 0 0 0.0041379310344935 0
          0.00011111111111108 0.0041379310344912 0.00015 0 0.0041379310344935 0.00015
          0.00011111111111108 0.0041379310344912 0.0003 0 0.0041379310344935 0.0003
          0.0001111111111111 0.0045517241379399 0 0 0.0045517241379424 0
          0.0001111111111111 0.0045517241379399 0.00015 0 0.0045517241379424 0.00015
          0.0001111111111111 0.0045517241379399 0.0003 0 0.0045517241379424 0.0003
          0.00011111111111111 0.004965517241389 0 0 0.0049655172413917 0
          0.00011111111111111 0.004965517241389 0.00015 0 0.0049655172413917 0.00015
          0.00011111111111111 0.004965517241389 0.0003 0 0.0049655172413917 0.0003
          0.00011111111111113 0.0053793103448383 0 0 0.0053793103448414 0
          0.00011111111111113 0.0053793103448383 0.00015 0 0.0053793103448414 0.00015
          0.00011111111111113 0.0053793103448383 0.0003 0 0.0053793103448414 0.0003
          0.00011111111111114 0.005793103448287 0 0 0.0057931034482903 0
          0.00011111111111114 0.005793103448287 0.00015 0 0.0057931034482903 0.00015
          0.00011111111111114 0.005793103448287 0.0003 0 0.0057931034482903 0.0003
          0.00011111111111116 0.0062068965517355 0 0 0.0062068965517387 0
          0.00011111111111116 0.0062068965517355 0.00015 0 0.0062068965517387 0.00015
          0.00011111111111116 0.0062068965517355 0.0003 0 0.0062068965517387 0.0003
          0.00011111111111117 0.006620689655183 0 0 0.006620689655186 0
          0.00011111111111117 0.006620689655183 0.00015 0 0.006620689655186 0.00015
          0.00011111111111117 0.006620689655183 0.0003 0 0.006620689655186 0.0003
          0.00011111111111119 0.0070344827586302 0 0 0.007034482758633 0
          0.00011111111111119 0.0070344827586302 0.00015 0 0.007034482758633 0.00015
          0.00011111111111119 0.0070344827586302 0.0003 0 0.007034482758633 0.0003
          0.0001111111111112 0.0074482758620775 0 0 0.00744827586208 0
          0.0001111111111112 0.0074482758620775 0.00015 0 0.00744827586208 0.00015
          0.0001111111111112 0.0074482758620775 0.0003 0 0.00744827586208 0.0003
          0.00011111111111122 0.0078620689655252 0 0 0.0078620689655276 0
          0.00011111111111122 0.0078620689655252 0.00015 0 0.0078620689655276 0.00015
          0.00011111111111122 0.0078620689655252 0.0003 0 0.0078620689655276 0.0003
          0.00022222222222175 0 0 0.00022222222222178 0.00041379310344941 0
          0.00022222222222175 0 0.00015 0.00022222222222178 0.00041379310344941 0.00015
          0.00022222222222175 0 0.0003 0.00022222222222178 0.00041379310344941 0.0003
          0.00022222222222182 0.0008275862068986 0 0.00022222222222182 0.0008275862068986 0.00015
          0.00022222222222182 0.0008275862068986 0.0003 0.00022222222222185 0.0012413793103461 0
          0.00022222222222185 0.0012413793103461 0.00015 0.00022222222222185 0.0012413793103461 0.0003
          0.00022222222222188 0.0016551724137956 0 0.00022222222222188 0.0016551724137956 0.00015
          0.00022222222222188 0.0016551724137956 0.0003 0.00022222222222192 0.0020689655172449 0
          0.00022222222222192 0.0020689655172449 0.00015 0.00022222222222192 0.0020689655172449 0.0003
          0.00022222222222195 0.0024827586206942 0 0.00022222222222195 0.0024827586206942 0.00015
          0.00022222222222195 0.0024827586206942 0.0003 0.00022222222222199 0.0028965517241428 0
          0.00022222222222199 0.0028965517241428 0.00015 0.00022222222222199 0.0028965517241428 0.0003
          0.00022222222222202 0.0033103448275902 0 0.00022222222222202 0.0033103448275902 0.00015
          0.00022222222222202 0.0033103448275902 0.0003 0.00022222222222205 0.0037241379310395 0
          0.00022222222222205 0.0037241379310395 0.00015 0.00022222222222205 0.0037241379310395 0.0003
          0.00022222222222209 0.0041379310344889 0 0.00022222222222209 0.0041379310344889 0.00015
          0.00022222222222209 0.0041379310344889 0.0003 0.00022222222222212 0.0045517241379374 0
          0.00022222222222212 0.0045517241379374 0.00015 0.00022222222222212 0.0045517241379374 0.0003
          0.00022222222222216 0.0049655172413862 0 0.00022222222222216 0.0049655172413862 0.00015
          0.00022222222222216 0.0049655172413862 0.0003 0.00022222222222219 0.0053793103448353 0
          0.00022222222222219 0.0053793103448353 0.00015 0.00022222222222219 0.0053793103448353 0.0003
          0.00022222222222222 0.0057931034482838 0 0.00022222222222222 0.0057931034482838 0.00015
          0.00022222222222222 0.0057931034482838 0.0003 0.00022222222222226 0.0062068965517323 0
          0.00022222222222226 0.0062068965517323 0.00015 0.00022222222222226 0.0062068965517323 0.0003
          0.00022222222222229 0.0066206896551799 0 0.00022222222222229 0.0066206896551799 0.00015
          0.00022222222222229 0.0066206896551799 0.0003 0.00022222222222232 0.0070344827586275 0
          0.00022222222222232 0.0070344827586275 0.00015 0.00022222222222232 0.0070344827586275 0.0003
          0.00022222222222236 0.007448275862075 0 0.00022222222222236 0.007448275862075 0.00015
          0.00022222222222236 0.007448275862075 0.0003 0.00022222222222239 0.0078620689655229 0
          0.00022222222222239 0.0078620689655229 0.00015 0.00022222222222239 0.0078620689655229 0.0003
          0.00033333333333257 0 0 0.00033333333333262 0.00041379310344914 0
          0.00033333333333257 0 0.00015 0.00033333333333262 0.00041379310344914 0.00015
          0.00033333333333257 0 0.0003 0.00033333333333262 0.00041379310344914 0.0003
          0.00033333333333268 0.00082758620689808 0 0.00033333333333268 0.00082758620689808 0.00015
          0.00033333333333268 0.00082758620689808 0.0003 0.00033333333333273 0.0012413793103456 0
          0.00033333333333273 0.0012413793103456 0.00015 0.00033333333333273 0.0012413793103456 0.0003
          0.00033333333333278 0.0016551724137948 0 0.00033333333333278 0.0016551724137948 0.00015
          0.00033333333333278 0.0016551724137948 0.0003 0.00033333333333283 0.0020689655172438 0
          0.00033333333333283 0.0020689655172438 0.00015 0.00033333333333283 0.0020689655172438 0.0003
          0.00033333333333289 0.0024827586206928 0 0.00033333333333289 0.0024827586206928 0.00015
          0.00033333333333289 0.0024827586206928 0.0003 0.00033333333333294 0.0028965517241412 0
          0.00033333333333294 0.0028965517241412 0.00015 0.00033333333333294 0.0028965517241412 0.0003
          0.00033333333333299 0.0033103448275885 0 0.00033333333333299 0.0033103448275885 0.00015
          0.00033333333333299 0.0033103448275885 0.0003 0.00033333333333305 0.0037241379310375 0
          0.00033333333333305 0.0037241379310375 0.00015 0.00033333333333305 0.0037241379310375 0.0003
          0.0003333333333331 0.0041379310344865 0 0.0003333333333331 0.0041379310344865 0.00015
          0.0003333333333331 0.0041379310344865 0.0003 0.00033333333333315 0.0045517241379349 0
          0.00033333333333315 0.0045517241379349 0.00015 0.00033333333333315 0.0045517241379349 0.0003
          0.0003333333333332 0.0049655172413834 0 0.0003333333333332 0.0049655172413834 0.00015
          0.0003333333333332 0.0049655172413834 0.0003 0.00033333333333326 0.0053793103448322 0
          0.00033333333333326 0.0053793103448322 0.00015 0.00033333333333326 0.0053793103448322 0.0003
          0.00033333333333331 0.0057931034482806 0 0.00033333333333331 0.0057931034482806 0.00015
          0.00033333333333331 0.0057931034482806 0.0003 0.00033333333333336 0.006206896551729 0
          0.00033333333333336 0.006206896551729 0.00015 0.00033333333333336 0.006206896551729 0.0003
          0.00033333333333342 0.0066206896551769 0 0.00033333333333342 0.0066206896551769 0.00015
          0.00033333333333342 0.0066206896551769 0.0003 0.00033333333333347 0.0070344827586248 0
          0.00033333333333347 0.0070344827586248 0.00015 0.00033333333333347 0.0070344827586248 0.0003
          0.00033333333333352 0.0074482758620725 0 0.00033333333333352 0.0074482758620725 0.00015
          0.00033333333333352 0.0074482758620725 0.0003 0.00033333333333357 0.0078620689655205 0
          0.00033333333333357 0.0078620689655205 0.00015 0.00033333333333357 0.0078620689655205 0.0003
          0.00044444444444337 0 0 0.00044444444444345 0.00041379310344886 0
          0.00044444444444337 0 0.00015 0.00044444444444345 0.00041379310344886 0.00015
          0.00044444444444337 0 0.0003 0.00044444444444345 0.00041379310344886 0.0003
          0.00044444444444352 0.00082758620689756 0 0.00044444444444352 0.00082758620689756 0.00015
          0.00044444444444352 0.00082758620689756 0.0003 0.00044444444444359 0.0012413793103451 0
          0.00044444444444359 0.0012413793103451 0.00015 0.00044444444444359 0.0012413793103451 0.0003
          0.00044444444444367 0.001655172413794 0 0.00044444444444367 0.001655172413794 0.00015
          0.00044444444444367 0.001655172413794 0.0003 0.00044444444444374 0.0020689655172427 0
          0.00044444444444374 0.0020689655172427 0.00015 0.00044444444444374 0.0020689655172427 0.0003
          0.00044444444444382 0.0024827586206914 0 0.00044444444444382 0.0024827586206914 0.00015
          0.00044444444444382 0.0024827586206914 0.0003 0.00044444444444389 0.0028965517241395 0
          0.00044444444444389 0.0028965517241395 0.00015 0.00044444444444389 0.0028965517241395 0.0003
          0.00044444444444397 0.0033103448275869 0 0.00044444444444397 0.0033103448275869 0.00015
          0.00044444444444397 0.0033103448275869 0.0003 0.00044444444444404 0.0037241379310355 0
          0.00044444444444404 0.0037241379310355 0.00015 0.00044444444444404 0.0037241379310355 0.0003
          0.00044444444444412 0.0041379310344842 0 0.00044444444444412 0.0041379310344842 0.00015
          0.00044444444444412 0.0041379310344842 0.0003 0.00044444444444419 0.0045517241379324 0
          0.00044444444444419 0.0045517241379324 0.00015 0.00044444444444419 0.0045517241379324 0.0003
          0.00044444444444426 0.0049655172413807 0 0.00044444444444426 0.0049655172413807 0.00015
          0.00044444444444426 0.0049655172413807 0.0003 0.00044444444444434 0.0053793103448292 0
          0.00044444444444434 0.0053793103448292 0.00015 0.00044444444444434 0.0053793103448292 0.0003
          0.00044444444444441 0.0057931034482774 0 0.00044444444444441 0.0057931034482774 0.00015
          0.00044444444444441 0.0057931034482774 0.0003 0.00044444444444449 0.0062068965517258 0
          0.00044444444444449 0.0062068965517258 0.00015 0.00044444444444449 0.0062068965517258 0.0003
          0.00044444444444456 0.0066206896551738 0 0.00044444444444456 0.0066206896551738 0.00015
          0.00044444444444456 0.0066206896551738 0.0003 0.00044444444444464 0.007034482758622 0
          0.00044444444444464 0.007034482758622 0.00015 0.00044444444444464 0.007034482758622 0.0003
          0.00044444444444471 0.00744827586207 0 0.00044444444444471 0.00744827586207 0.00015
          0.00044444444444471 0.00744827586207 0.0003 0.00044444444444479 0.0078620689655182 0
          0.00044444444444479 0.0078620689655182 0.00015 0.00044444444444479 0.0078620689655182 0.0003
          0.00055555555555442 0 0 0.0005555555555545 0.00041379310344859 0
          0.00055555555555442 0 0.00015 0.0005555555555545 0.00041379310344859 0.00015
          0.00055555555555442 0 0.0003 0.0005555555555545 0.00041379310344859 0.0003
          0.00055555555555458 0.00082758620689704 0 0.00055555555555458 0.00082758620689704 0.00015
          0.00055555555555458 0.00082758620689704 0.0003 0.00055555555555465 0.0012413793103446 0
          0.00055555555555465 0.0012413793103446 0.00015 0.00055555555555465 0.0012413793103446 0.0003
          0.00055555555555473 0.0016551724137932 0 0.00055555555555473 0.0016551724137932 0.00015
          0.00055555555555473 0.0016551724137932 0.0003 0.00055555555555481 0.0020689655172416 0
          0.00055555555555481 0.0020689655172416 0.00015 0.00055555555555481 0.0020689655172416 0.0003
          0.00055555555555489 0.0024827586206899 0 0.00055555555555489 0.0024827586206899 0.00015
          0.00055555555555489 0.0024827586206899 0.0003 0.00055555555555497 0.0028965517241379 0
          0.00055555555555497 0.0028965517241379 0.00015 0.00055555555555497 0.0028965517241379 0.0003
          0.00055555555555504 0.0033103448275852 0 0.00055555555555504 0.0033103448275852 0.00015
          0.00055555555555504 0.0033103448275852 0.0003 0.00055555555555512 0.0037241379310336 0
          0.00055555555555512 0.0037241379310336 0.00015 0.00055555555555512 0.0037241379310336 0.0003
          0.0005555555555552 0.0041379310344819 0 0.0005555555555552 0.0041379310344819 0.00015
          0.0005555555555552 0.0041379310344819 0.0003 0.00055555555555528 0.0045517241379299 0
          0.00055555555555528 0.0045517241379299 0.00015 0.00055555555555528 0.0045517241379299 0.0003
          0.00055555555555535 0.0049655172413779 0 0.00055555555555535 0.0049655172413779 0.00015
          0.00055555555555535 0.0049655172413779 0.0003 0.00055555555555543 0.0053793103448261 0
          0.00055555555555543 0.0053793103448261 0.00015 0.00055555555555543 0.0053793103448261 0.0003
          0.00055555555555551 0.0057931034482741 0 0.00055555555555551 0.0057931034482741 0.00015
          0.00055555555555551 0.0057931034482741 0.0003 0.00055555555555559 0.0062068965517226 0
          0.00055555555555559 0.0062068965517226 0.00015 0.00055555555555559 0.0062068965517226 0.0003
          0.00055555555555566 0.0066206896551708 0 0.00055555555555566 0.0066206896551708 0.00015
          0.00055555555555566 0.0066206896551708 0.0003 0.00055555555555574 0.0070344827586193 0
          0.00055555555555574 0.0070344827586193 0.00015 0.00055555555555574 0.0070344827586193 0.0003
          0.00055555555555582 0.0074482758620675 0 0.00055555555555582 0.0074482758620675 0.00015
          0.00055555555555582 0.0074482758620675 0.0003 0.0005555555555559 0.0078620689655158 0
          0.0005555555555559 0.0078620689655158 0.00015 0.0005555555555559 0.0078620689655158 0.0003
          0.00066666666666586 0 0 0.0006666666666659 0.00041379310344831 0
          0.00066666666666586 0 0.00015 0.0006666666666659 0.00041379310344831 0.00015
          0.00066666666666586 0 0.0003 0.0006666666666659 0.00041379310344831 0.0003
          0.00066666666666595 0.00082758620689653 0 0.00066666666666595 0.00082758620689653 0.00015
          0.00066666666666595 0.00082758620689653 0.0003 0.00066666666666599 0.0012413793103441 0
          0.00066666666666599 0.0012413793103441 0.00015 0.00066666666666599 0.0012413793103441 0.0003
          0.00066666666666604 0.0016551724137924 0 0.00066666666666604 0.0016551724137924 0.00015
          0.00066666666666604 0.0016551724137924 0.0003 0.00066666666666608 0.0020689655172404 0
          0.00066666666666608 0.0020689655172404 0.00015 0.00066666666666608 0.0020689655172404 0.0003
          0.00066666666666613 0.0024827586206885 0 0.00066666666666613 0.0024827586206885 0.00015
          0.00066666666666613 0.0024827586206885 0.0003 0.00066666666666617 0.0028965517241363 0
          0.00066666666666617 0.0028965517241363 0.00015 0.00066666666666617 0.0028965517241363 0.0003
          0.00066666666666622 0.0033103448275835 0 0.00066666666666622 0.0033103448275835 0.00015
          0.00066666666666622 0.0033103448275835 0.0003 0.00066666666666626 0.0037241379310316 0
          0.00066666666666626 0.0037241379310316 0.00015 0.00066666666666626 0.0037241379310316 0.0003
          0.0006666666666663 0.0041379310344796 0 0.0006666666666663 0.0041379310344796 0.00015
          0.0006666666666663 0.0041379310344796 0.0003 0.00066666666666635 0.0045517241379274 0
          0.00066666666666635 0.0045517241379274 0.00015 0.00066666666666635 0.0045517241379274 0.0003
          0.00066666666666639 0.0049655172413752 0 0.00066666666666639 0.0049655172413752 0.00015
          0.00066666666666639 0.0049655172413752 0.0003 0.00066666666666644 0.0053793103448231 0
          0.00066666666666644 0.0053793103448231 0.00015 0.00066666666666644 0.0053793103448231 0.0003
          0.00066666666666648 0.0057931034482709 0 0.00066666666666648 0.0057931034482709 0.00015
          0.00066666666666648 0.0057931034482709 0.0003 0.00066666666666653 0.0062068965517194 0
          0.00066666666666653 0.0062068965517194 0.00015 0.00066666666666653 0.0062068965517194 0.0003
          0.00066666666666657 0.0066206896551677 0 0.00066666666666657 0.0066206896551677 0.00015
          0.00066666666666657 0.0066206896551677 0.0003 0.00066666666666661 0.0070344827586165 0
          0.00066666666666661 0.0070344827586165 0.00015 0.00066666666666661 0.0070344827586165 0.0003
          0.00066666666666666 0.0074482758620651 0 0.00066666666666666 0.0074482758620651 0.00015
          0.00066666666666666 0.0074482758620651 0.0003 0.0006666666666667 0.0078620689655135 0
          0.0006666666666667 0.0078620689655135 0.00015 0.0006666666666667 0.0078620689655135 0.0003
          0.00077777777777724 0 0 0.00077777777777728 0.00041379310344804 0
          0.00077777777777724 0 0.00015 0.00077777777777728 0.00041379310344804 0.00015
          0.00077777777777724 0 0.0003 0.00077777777777728 0.00041379310344804 0.0003
          0.00077777777777731 0.00082758620689601 0 0.00077777777777731 0.00082758620689601 0.00015
          0.00077777777777731 0.00082758620689601 0.0003 0.00077777777777734 0.0012413793103436 0
          0.00077777777777734 0.0012413793103436 0.00015 0.00077777777777734 0.0012413793103436 0.0003
          0.00077777777777737 0.0016551724137916 0 0.00077777777777737 0.0016551724137916 0.00015
          0.00077777777777737 0.0016551724137916 0.0003 0.0007777777777774 0.0020689655172393 0
          0.0007777777777774 0.0020689655172393 0.00015 0.0007777777777774 0.0020689655172393 0.0003
          0.00077777777777743 0.0024827586206871 0 0.00077777777777743 0.0024827586206871 0.00015
          0.00077777777777743 0.0024827586206871 0.0003 0.00077777777777747 0.0028965517241347 0
          0.00077777777777747 0.0028965517241347 0.00015 0.00077777777777747 0.0028965517241347 0.0003
          0.0007777777777775 0.0033103448275818 0 0.0007777777777775 0.0033103448275818 0.00015
          0.0007777777777775 0.0033103448275818 0.0003 0.00077777777777753 0.0037241379310296 0
          0.00077777777777753 0.0037241379310296 0.00015 0.00077777777777753 0.0037241379310296 0.0003
          0.00077777777777756 0.0041379310344773 0 0.00077777777777756 0.0041379310344773 0.00015
          0.00077777777777756 0.0041379310344773 0.0003 0.00077777777777759 0.0045517241379249 0
          0.00077777777777759 0.0045517241379249 0.00015 0.00077777777777759 0.0045517241379249 0.0003
          0.00077777777777762 0.0049655172413724 0 0.00077777777777762 0.0049655172413724 0.00015
          0.00077777777777762 0.0049655172413724 0.0003 0.00077777777777765 0.00537931034482 0
          0.00077777777777765 0.00537931034482 0.00015 0.00077777777777765 0.00537931034482 0.0003
          0.00077777777777769 0.0057931034482677 0 0.00077777777777769 0.0057931034482677 0.00015
          0.00077777777777769 0.0057931034482677 0.0003 0.00077777777777772 0.0062068965517161 0
          0.00077777777777772 0.0062068965517161 0.00015 0.00077777777777772 0.0062068965517161 0.0003
          0.00077777777777775 0.0066206896551647 0 0.00077777777777775 0.0066206896551647 0.00015
          0.00077777777777775 0.0066206896551647 0.0003 0.00077777777777778 0.0070344827586137 0
          0.00077777777777778 0.0070344827586137 0.00015 0.00077777777777778 0.0070344827586137 0.0003
          0.00077777777777781 0.0074482758620625 0 0.00077777777777781 0.0074482758620625 0.00015
          0.00077777777777781 0.0074482758620625 0.0003 0.00077777777777784 0.0078620689655112 0
          0.00077777777777784 0.0078620689655112 0.00015 0.00077777777777784 0.0078620689655112 0.0003
          0.00088888888888862 0 0 0.00088888888888863 0.00041379310344776 0
          0.00088888888888862 0 0.00015 0.00088888888888863 0.00041379310344776 0.00015
          0.00088888888888862 0 0.0003 0.00088888888888863 0.00041379310344776 0.0003
          0.00088888888888864 0.00082758620689549 0 0.00088888888888864 0.00082758620689549 0.00015
          0.00088888888888864 0.00082758620689549 0.0003 0.00088888888888865 0.0012413793103431 0
          0.00088888888888865 0.0012413793103431 0.00015 0.00088888888888865 0.0012413793103431 0.0003
          0.00088888888888866 0.0016551724137908 0 0.00088888888888866 0.0016551724137908 0.00015
          0.00088888888888866 0.0016551724137908 0.0003 0.00088888888888867 0.0020689655172382 0
          0.00088888888888867 0.0020689655172382 0.00015 0.00088888888888867 0.0020689655172382 0.0003
          0.00088888888888868 0.0024827586206857 0 0.00088888888888868 0.0024827586206857 0.00015
          0.00088888888888868 0.0024827586206857 0.0003 0.00088888888888868 0.002896551724133 0
          0.00088888888888868 0.002896551724133 0.00015 0.00088888888888868 0.002896551724133 0.0003
          0.00088888888888869 0.0033103448275802 0 0.00088888888888869 0.0033103448275802 0.00015
          0.00088888888888869 0.0033103448275802 0.0003 0.0008888888888887 0.0037241379310276 0
          0.0008888888888887 0.0037241379310276 0.00015 0.0008888888888887 0.0037241379310276 0.0003
          0.00088888888888871 0.004137931034475 0 0.00088888888888871 0.004137931034475 0.00015
          0.00088888888888871 0.004137931034475 0.0003 0.00088888888888872 0.0045517241379224 0
          0.00088888888888872 0.0045517241379224 0.00015 0.00088888888888872 0.0045517241379224 0.0003
          0.00088888888888873 0.0049655172413697 0 0.00088888888888873 0.0049655172413697 0.00015
          0.00088888888888873 0.0049655172413697 0.0003 0.00088888888888874 0.005379310344817 0
          0.00088888888888874 0.005379310344817 0.00015 0.00088888888888874 0.005379310344817 0.0003
          0.00088888888888875 0.0057931034482644 0 0.00088888888888875 0.0057931034482644 0.00015
          0.00088888888888875 0.0057931034482644 0.0003 0.00088888888888876 0.0062068965517129 0
          0.00088888888888876 0.0062068965517129 0.00015 0.00088888888888876 0.0062068965517129 0.0003
          0.00088888888888877 0.0066206896551616 0 0.00088888888888877 0.0066206896551616 0.00015
          0.00088888888888877 0.0066206896551616 0.0003 0.00088888888888877 0.007034482758611 0
          0.00088888888888877 0.007034482758611 0.00015 0.00088888888888877 0.007034482758611 0.0003
          0.00088888888888878 0.00744827586206 0 0.00088888888888878 0.00744827586206 0.00015
          0.00088888888888878 0.00744827586206 0.0003 0.00088888888888879 0.0078620689655088 0
          0.00088888888888879 0.0078620689655088 0.00015 0.00088888888888879 0.0078620689655088 0.0003
          0.001 0 0 0.001 0.00041379310344749 0
          0.001 0 0.00015 0.001 0.00041379310344749 0.00015
          0.001 0 0.0003 0.001 0.00041379310344749 0.0003
          0.001 0.00082758620689497 0 0.001 0.00082758620689497 0.00015
          0.001 0.00082758620689497 0.0003 0.001 0.0012413793103426 0
          0.001 0.0012413793103426 0.00015 0.001 0.0012413793103426 0.0003
          0.001 0.0016551724137901 0 0.001 0.0016551724137901 0.00015
          0.001 0.0016551724137901 0.0003 0.001 0.0020689655172371 0
          0.001 0.0020689655172371 0.00015 0.001 0.0020689655172371 0.0003
          0.001 0.0024827586206843 0 0.001 0.0024827586206843 0.00015
          0.001 0.0024827586206843 0.0003 0.001 0.0028965517241314 0
          0.001 0.0028965517241314 0.00015 0.001 0.0028965517241314 0.0003
          0.001 0.0033103448275785 0 0.001 0.0033103448275785 0.00015
          0.001 0.0033103448275785 0.0003 0.001 0.0037241379310256 0
          0.001 0.0037241379310256 0.00015 0.001 0.0037241379310256 0.0003
          0.001 0.0041379310344727 0 0.001 0.0041379310344727 0.00015
          0.001 0.0041379310344727 0.0003 0.001 0.0045517241379199 0
          0.001 0.0045517241379199 0.00015 0.001 0.0045517241379199 0.0003
          0.001 0.0049655172413669 0 0.001 0.0049655172413669 0.00015
          0.001 0.0049655172413669 0.0003 0.001 0.0053793103448139 0
          0.001 0.0053793103448139 0.00015 0.001 0.0053793103448139 0.0003
          0.001 0.0057931034482612 0 0.001 0.0057931034482612 0.00015
          0.001 0.0057931034482612 0.0003 0.001 0.0062068965517097 0
          0.001 0.0062068965517097 0.00015 0.001 0.0062068965517097 0.0003
          0.001 0.0066206896551586 0 0.001 0.0066206896551586 0.00015
          0.001 0.0066206896551586 0.0003 0.001 0.0070344827586082 0
          0.001 0.0070344827586082 0.00015 0.001 0.0070344827586082 0.0003
          0.001 0.0074482758620575 0 0.001 0.0074482758620575 0.00015
          0.001 0.0074482758620575 0.0003 0.001 0.0078620689655065 0
          0.001 0.0078620689655065 0.00015 0.001 0.0078620689655065 0.0003
          0.001 0.0082758620689564 0 0.001 0.0082758620689564 0.00015
          0.001 0.0082758620689564 0.0003 0.001 0.0086896551724064 0
          0.001 0.0086896551724064 0.00015 0.001 0.0086896551724064 0.0003
          0.0014444444444438 0.00041379310344749 0 0.0014444444444438 0 0
          0.0014444444444438 0.00041379310344749 0.00015 0.0014444444444438 0 0.00015
          0.0014444444444438 0.00041379310344749 0.0003 0.0014444444444438 0 0.0003
          0.0014444444444439 0.00082758620689497 0 0.0014444444444439 0.00082758620689497 0.00015
          0.0014444444444439 0.00082758620689497 0.0003 0.001444444444444 0.0012413793103426 0
          0.001444444444444 0.0012413793103426 0.00015 0.001444444444444 0.0012413793103426 0.0003
          0.001444444444444 0.0016551724137901 0 0.001444444444444 0.0016551724137901 0.00015
          0.001444444444444 0.0016551724137901 0.0003 0.0014444444444441 0.0020689655172371 0
          0.0014444444444441 0.0020689655172371 0.00015 0.0014444444444441 0.0020689655172371 0.0003
          0.0014444444444441 0.0024827586206843 0 0.0014444444444441 0.0024827586206843 0.00015
          0.0014444444444441 0.0024827586206843 0.0003 0.0014444444444446 0.0062068965517097 0
          0.0014444444444446 0.0062068965517097 0.00015 0.0014444444444446 0.0062068965517097 0.0003
          0.0014444444444447 0.0066206896551586 0 0.0014444444444447 0.0066206896551586 0.00015
          0.0014444444444447 0.0066206896551586 0.0003 0.0014444444444448 0.0070344827586082 0
          0.0014444444444448 0.0070344827586082 0.00015 0.0014444444444448 0.0070344827586082 0.0003
          0.0014444444444448 0.0074482758620576 0 0.0014444444444448 0.0074482758620576 0.00015
          0.0014444444444448 0.0074482758620576 0.0003 0.0014444444444449 0.0078620689655065 0
          0.0014444444444449 0.0078620689655065 0.00015 0.0014444444444449 0.0078620689655065 0.0003
          0.0018888888888896 0.0078620689655065 0 0.0018888888888896 0.0078620689655065 0.00015
          0.0018888888888896 0.0078620689655065 0.0003 0.0014444444444449 0.0082758620689564 0
          0.0014444444444449 0.0082758620689564 0.00015 0.0014444444444449 0.0082758620689564 0.0003
          0.0018888888888898 0.0082758620689564 0 0.0018888888888898 0.0082758620689564 0.00015
          0.0018888888888898 0.0082758620689564 0.0003 0.001444444444445 0.0086896551724064 0
          0.001444444444445 0.0086896551724064 0.00015 0.001444444444445 0.0086896551724064 0.0003
          0.0018888888888899 0.0086896551724064 0 0.0018888888888899 0.0086896551724064 0.00015
          0.0018888888888899 0.0086896551724064 0.0003 0.0014444444444451 0.0091034482758539 0
          0.0014444444444451 0.0091034482758539 0.00015 0.0014444444444451 0.0091034482758539 0.0003
          0.00188888888889 0.0091034482758539 0 0.00188888888889 0.0091034482758539 0.00015
          0.00188888888889 0.0091034482758539 0.0003 0.00011111111111123 0.0082758620689751 0
          0 0.0082758620689774 0 0.00011111111111123 0.0082758620689751 0.00015
          0 0.0082758620689774 0.00015 0.00011111111111123 0.0082758620689751 0.0003
          0 0.0082758620689774 0.0003 0.00022222222222243 0.0082758620689727 0
          0.00022222222222243 0.0082758620689727 0.00015 0.00022222222222243 0.0082758620689727 0.0003
          0.00033333333333363 0.0082758620689704 0 0.00033333333333363 0.0082758620689704 0.00015
          0.00033333333333363 0.0082758620689704 0.0003 0.00044444444444486 0.0082758620689681 0
          0.00044444444444486 0.0082758620689681 0.00015 0.00044444444444486 0.0082758620689681 0.0003
          0.00055555555555597 0.0082758620689657 0 0.00055555555555597 0.0082758620689657 0.00015
          0.00055555555555597 0.0082758620689657 0.0003 0.00066666666666675 0.0082758620689634 0
          0.00066666666666675 0.0082758620689634 0.00015 0.00066666666666675 0.0082758620689634 0.0003
          0.00077777777777787 0.0082758620689611 0 0.00077777777777787 0.0082758620689611 0.00015
          0.00077777777777787 0.0082758620689611 0.0003 0.0008888888888888 0.0082758620689588 0
          0.0008888888888888 0.0082758620689588 0.00015 0.0008888888888888 0.0082758620689588 0.0003
          0.00088888888888881 0.0086896551724084 0 0.00088888888888881 0.0086896551724084 0.00015
          0.00088888888888881 0.0086896551724084 0.0003 0.001 0.0091034482758539 0
          0.00088888888888882 0.0091034482758559 0 0.001 0.0091034482758539 0.00015
          0.00088888888888882 0.0091034482758559 0.00015 0.001 0.0091034482758539 0.0003
          0.00088888888888882 0.0091034482758559 0.0003 0.0018888888888873 0.00041379310344749 0
          0.0018888888888872 0 0 0.0018888888888873 0.00041379310344749 0.00015
          0.0018888888888872 0 0.00015 0.0018888888888873 0.00041379310344749 0.0003
          0.0018888888888872 0 0.0003 0.0018888888888875 0.00082758620689497 0
          0.0018888888888875 0.00082758620689497 0.00015 0.0018888888888875 0.00082758620689497 0.0003
          0.0018888888888876 0.0012413793103426 0 0.0018888888888876 0.0012413793103426 0.00015
          0.0018888888888876 0.0012413793103426 0.0003 0.0018888888888877 0.0016551724137901 0
          0.0018888888888877 0.0016551724137901 0.00015 0.0018888888888877 0.0016551724137901 0.0003
          0.0018888888888879 0.0020689655172371 0 0.0018888888888879 0.0020689655172371 0.00015
          0.0018888888888879 0.0020689655172371 0.0003 0.001888888888888 0.0024827586206843 0
          0.001888888888888 0.0024827586206843 0.00015 0.001888888888888 0.0024827586206843 0.0003
          0.0014444444444442 0.0028965517241314 0 0.0014444444444442 0.0028965517241314 0.00015
          0.0014444444444442 0.0028965517241314 0.0003 0.0018888888888881 0.0028965517241314 0
          0.0018888888888881 0.0028965517241314 0.00015 0.0018888888888881 0.0028965517241314 0.0003
          0.0014444444444442 0.0033103448275785 0 0.0014444444444442 0.0033103448275785 0.00015
          0.0014444444444442 0.0033103448275785 0.0003 0.0014444444444443 0.0037241379310256 0
          0.0014444444444443 0.0037241379310256 0.00015 0.0014444444444443 0.0037241379310256 0.0003
          0.0014444444444444 0.0041379310344727 0 0.0014444444444444 0.0041379310344727 0.00015
          0.0014444444444444 0.0041379310344727 0.0003 0.0014444444444444 0.0045517241379199 0
          0.0014444444444444 0.0045517241379199 0.00015 0.0014444444444444 0.0045517241379199 0.0003
          0.0014444444444445 0.0049655172413669 0 0.0014444444444445 0.0049655172413669 0.00015
          0.0014444444444445 0.0049655172413669 0.0003 0.0014444444444445 0.0053793103448139 0
          0.0014444444444445 0.0053793103448139 0.00015 0.0014444444444445 0.0053793103448139 0.0003
          0.0014444444444446 0.0057931034482612 0 0.0014444444444446 0.0057931034482612 0.00015
          0.0014444444444446 0.0057931034482612 0.0003 0.0018888888888891 0.0062068965517097 0
          0.001888888888889 0.0057931034482612 0 0.0018888888888891 0.0062068965517097 0.00015
          0.001888888888889 0.0057931034482612 0.00015 0.0018888888888891 0.0062068965517097 0.0003
          0.001888888888889 0.0057931034482612 0.0003 0.0018888888888893 0.0066206896551586 0
          0.0018888888888893 0.0066206896551586 0.00015 0.0018888888888893 0.0066206896551586 0.0003
          0.0018888888888894 0.0070344827586082 0 0.0018888888888894 0.0070344827586082 0.00015
          0.0018888888888894 0.0070344827586082 0.0003 0.0018888888888895 0.0074482758620575 0
          0.0018888888888895 0.0074482758620575 0.00015 0.0018888888888895 0.0074482758620575 0.0003
          0.0023333333333346 0.0078620689655065 0 0.0023333333333344 0.0074482758620575 0
          0.0023333333333346 0.0078620689655065 0.00015 0.0023333333333344 0.0074482758620575 0.00015
          0.0023333333333346 0.0078620689655065 0.0003 0.0023333333333344 0.0074482758620575 0.0003
          0.0023333333333348 0.0082758620689564 0 0.0023333333333348 0.0082758620689564 0.00015
          0.0023333333333348 0.0082758620689564 0.0003 0.002333333333335 0.0086896551724064 0
          0.002333333333335 0.0086896551724064 0.00015 0.002333333333335 0.0086896551724064 0.0003
          0.0023333333333351 0.0091034482758539 0 0.0023333333333351 0.0091034482758539 0.00015
          0.0023333333333351 0.0091034482758539 0.0003 0.0014444444444451 0.0095172413793029 0
          0.001 0.0095172413793029 0 0.0014444444444451 0.0095172413793029 0.00015
          0.001 0.0095172413793029 0.00015 0.0014444444444451 0.0095172413793029 0.0003
          0.001 0.0095172413793029 0.0003 0.0018888888888902 0.0095172413793029 0
          0.0018888888888902 0.0095172413793029 0.00015 0.0018888888888902 0.0095172413793029 0.0003
          0.0023333333333353 0.0095172413793029 0 0.0023333333333353 0.0095172413793029 0.00015
          0.0023333333333353 0.0095172413793029 0.0003
          <InformationKey name="L2_NORM_RANGE" location="vtkDataArray" length="2">
            <Value index="0">
              0
            </Value>
            <Value index="1">
              0.0098036895053
            </Value>
          </InformationKey>
        </DataArray>
      </Points>
      <Cells>
        <DataArray type="Int64" Name="connectivity" format="ascii" RangeMin="0" RangeMax="788">
          0 1 2 3 4 5
          6 7 4 5 6 7
          8 9 10 11 3 2
          12 13 7 6 14 15
          7 6 14 15 11 10
          16 17 13 12 18 19
          15 14 20 21 15 14
          20 21 17 16 22 23
          19 18 24 25 21 20
          26 27 21 20 26 27
          23 22 28 29 25 24
          30 31 27 26 32 33
          27 26 32 33 29 28
          34 35 31 30 36 37
          33 32 38 39 33 32
          38 39 35 34 40 41
          37 36 42 43 39 38
          44 45 39 38 44 45
          41 40 46 47 43 42
          48 49 45 44 50 51
          45 44 50 51 47 46
          52 53 49 48 54 55
          51 50 56 57 51 50
          56 57 53 52 58 59
          55 54 60 61 57 56
          62 63 57 56 62 63
          59 58 64 65 61 60
          66 67 63 62 68 69
          63 62 68 69 65 64
          70 71 67 66 72 73
          69 68 74 75 69 68
          74 75 71 70 76 77
          73 72 78 79 75 74
          80 81 75 74 80 81
          77 76 82 83 79 78
          84 85 81 80 86 87
          81 80 86 87 83 82
          88 89 85 84 90 91
          87 86 92 93 87 86
          92 93 89 88 94 95
          91 90 96 97 93 92
          98 99 93 92 98 99
          95 94 100 101 97 96
          102 103 99 98 104 105
          99 98 104 105 101 100
          106 107 103 102 108 109
          105 104 110 111 105 104
          110 111 107 106 112 113
          109 108 114 115 111 110
          116 117 111 110 116 117
          113 112 118 119 115 114
          663 664 117 116 665 666
          117 116 665 666 119 118
          667 668 1 120 121 2
          5 122 123 6 5 122
          123 6 9 124 125 10
          2 121 126 12 6 123
          127 14 6 123 127 14
          10 125 128 16 12 126
          129 18 14 127 130 20
          14 127 130 20 16 128
          131 22 18 129 132 24
          20 130 133 26 20 130
          133 26 22 131 134 28
          24 132 135 30 26 133
          136 32 26 133 136 32
          28 134 137 34 30 135
          138 36 32 136 139 38
          32 136 139 38 34 137
          140 40 36 138 141 42
          38 139 142 44 38 139
          142 44 40 140 143 46
          42 141 144 48 44 142
          145 50 44 142 145 50
          46 143 146 52 48 144
          147 54 50 145 148 56
          50 145 148 56 52 146
          149 58 54 147 150 60
          56 148 151 62 56 148
          151 62 58 149 152 64
          60 150 153 66 62 151
          154 68 62 151 154 68
          64 152 155 70 66 153
          156 72 68 154 157 74
          68 154 157 74 70 155
          158 76 72 156 159 78
          74 157 160 80 74 157
          160 80 76 158 161 82
          78 159 162 84 80 160
          163 86 80 160 163 86
          82 161 164 88 84 162
          165 90 86 163 166 92
          86 163 166 92 88 164
          167 94 90 165 168 96
          92 166 169 98 92 166
          169 98 94 167 170 100
          96 168 171 102 98 169
          172 104 98 169 172 104
          100 170 173 106 102 171
          174 108 104 172 175 110
          104 172 175 110 106 173
          176 112 108 174 177 114
          110 175 178 116 110 175
          178 116 112 176 179 118
          114 177 669 663 116 178
          670 665 116 178 670 665
          118 179 671 667 120 180
          181 121 122 182 183 123
          122 182 183 123 124 184
          185 125 121 181 186 126
          123 183 187 127 123 183
          187 127 125 185 188 128
          126 186 189 129 127 187
          190 130 127 187 190 130
          128 188 191 131 129 189
          192 132 130 190 193 133
          130 190 193 133 131 191
          194 134 132 192 195 135
          133 193 196 136 133 193
          196 136 134 194 197 137
          135 195 198 138 136 196
          199 139 136 196 199 139
          137 197 200 140 138 198
          201 141 139 199 202 142
          139 199 202 142 140 200
          203 143 141 201 204 144
          142 202 205 145 142 202
          205 145 143 203 206 146
          144 204 207 147 145 205
          208 148 145 205 208 148
          146 206 209 149 147 207
          210 150 148 208 211 151
          148 208 211 151 149 209
          212 152 150 210 213 153
          151 211 214 154 151 211
          214 154 152 212 215 155
          153 213 216 156 154 214
          217 157 154 214 217 157
          155 215 218 158 156 216
          219 159 157 217 220 160
          157 217 220 160 158 218
          221 161 159 219 222 162
          160 220 223 163 160 220
          223 163 161 221 224 164
          162 222 225 165 163 223
          226 166 163 223 226 166
          164 224 227 167 165 225
          228 168 166 226 229 169
          166 226 229 169 167 227
          230 170 168 228 231 171
          169 229 232 172 169 229
          232 172 170 230 233 173
          171 231 234 174 172 232
          235 175 172 232 235 175
          173 233 236 176 174 234
          237 177 175 235 238 178
          175 235 238 178 176 236
          239 179 177 237 672 669
          178 238 673 670 178 238
          673 670 179 239 674 671
          180 240 241 181 182 242
          243 183 182 242 243 183
          184 244 245 185 181 241
          246 186 183 243 247 187
          183 243 247 187 185 245
          248 188 186 246 249 189
          187 247 250 190 187 247
          250 190 188 248 251 191
          189 249 252 192 190 250
          253 193 190 250 253 193
          191 251 254 194 192 252
          255 195 193 253 256 196
          193 253 256 196 194 254
          257 197 195 255 258 198
          196 256 259 199 196 256
          259 199 197 257 260 200
          198 258 261 201 199 259
          262 202 199 259 262 202
          200 260 263 203 201 261
          264 204 202 262 265 205
          202 262 265 205 203 263
          266 206 204 264 267 207
          205 265 268 208 205 265
          268 208 206 266 269 209
          207 267 270 210 208 268
          271 211 208 268 271 211
          209 269 272 212 210 270
          273 213 211 271 274 214
          211 271 274 214 212 272
          275 215 213 273 276 216
          214 274 277 217 214 274
          277 217 215 275 278 218
          216 276 279 219 217 277
          280 220 217 277 280 220
          218 278 281 221 219 279
          282 222 220 280 283 223
          220 280 283 223 221 281
          284 224 222 282 285 225
          223 283 286 226 223 283
          286 226 224 284 287 227
          225 285 288 228 226 286
          289 229 226 286 289 229
          227 287 290 230 228 288
          291 231 229 289 292 232
          229 289 292 232 230 290
          293 233 231 291 294 234
          232 292 295 235 232 292
          295 235 233 293 296 236
          234 294 297 237 235 295
          298 238 235 295 298 238
          236 296 299 239 237 297
          675 672 238 298 676 673
          238 298 676 673 239 299
          677 674 240 300 301 241
          242 302 303 243 242 302
          303 243 244 304 305 245
          241 301 306 246 243 303
          307 247 243 303 307 247
          245 305 308 248 246 306
          309 249 247 307 310 250
          247 307 310 250 248 308
          311 251 249 309 312 252
          250 310 313 253 250 310
          313 253 251 311 314 254
          252 312 315 255 253 313
          316 256 253 313 316 256
          254 314 317 257 255 315
          318 258 256 316 319 259
          256 316 319 259 257 317
          320 260 258 318 321 261
          259 319 322 262 259 319
          322 262 260 320 323 263
          261 321 324 264 262 322
          325 265 262 322 325 265
          263 323 326 266 264 324
          327 267 265 325 328 268
          265 325 328 268 266 326
          329 269 267 327 330 270
          268 328 331 271 268 328
          331 271 269 329 332 272
          270 330 333 273 271 331
          334 274 271 331 334 274
          272 332 335 275 273 333
          336 276 274 334 337 277
          274 334 337 277 275 335
          338 278 276 336 339 279
          277 337 340 280 277 337
          340 280 278 338 341 281
          279 339 342 282 280 340
          343 283 280 340 343 283
          281 341 344 284 282 342
          345 285 283 343 346 286
          283 343 346 286 284 344
          347 287 285 345 348 288
          286 346 349 289 286 346
          349 289 287 347 350 290
          288 348 351 291 289 349
          352 292 289 349 352 292
          290 350 353 293 291 351
          354 294 292 352 355 295
          292 352 355 295 293 353
          356 296 294 354 357 297
          295 355 358 298 295 355
          358 298 296 356 359 299
          297 357 678 675 298 358
          679 676 298 358 679 676
          299 359 680 677 300 360
          361 301 302 362 363 303
          302 362 363 303 304 364
          365 305 301 361 366 306
          303 363 367 307 303 363
          367 307 305 365 368 308
          306 366 369 309 307 367
          370 310 307 367 370 310
          308 368 371 311 309 369
          372 312 310 370 373 313
          310 370 373 313 311 371
          374 314 312 372 375 315
          313 373 376 316 313 373
          376 316 314 374 377 317
          315 375 378 318 316 376
          379 319 316 376 379 319
          317 377 380 320 318 378
          381 321 319 379 382 322
          319 379 382 322 320 380
          383 323 321 381 384 324
          322 382 385 325 322 382
          385 325 323 383 386 326
          324 384 387 327 325 385
          388 328 325 385 388 328
          326 386 389 329 327 387
          390 330 328 388 391 331
          328 388 391 331 329 389
          392 332 330 390 393 333
          331 391 394 334 331 391
          394 334 332 392 395 335
          333 393 396 336 334 394
          397 337 334 394 397 337
          335 395 398 338 336 396
          399 339 337 397 400 340
          337 397 400 340 338 398
          401 341 339 399 402 342
          340 400 403 343 340 400
          403 343 341 401 404 344
          342 402 405 345 343 403
          406 346 343 403 406 346
          344 404 407 347 345 405
          408 348 346 406 409 349
          346 406 409 349 347 407
          410 350 348 408 411 351
          349 409 412 352 349 409
          412 352 350 410 413 353
          351 411 414 354 352 412
          415 355 352 412 415 355
          353 413 416 356 354 414
          417 357 355 415 418 358
          355 415 418 358 356 416
          419 359 357 417 681 678
          358 418 682 679 358 418
          682 679 359 419 683 680
          360 420 421 361 362 422
          423 363 362 422 423 363
          364 424 425 365 361 421
          426 366 363 423 427 367
          363 423 427 367 365 425
          428 368 366 426 429 369
          367 427 430 370 367 427
          430 370 368 428 431 371
          369 429 432 372 370 430
          433 373 370 430 433 373
          371 431 434 374 372 432
          435 375 373 433 436 376
          373 433 436 376 374 434
          437 377 375 435 438 378
          376 436 439 379 376 436
          439 379 377 437 440 380
          378 438 441 381 379 439
          442 382 379 439 442 382
          380 440 443 383 381 441
          444 384 382 442 445 385
          382 442 445 385 383 443
          446 386 384 444 447 387
          385 445 448 388 385 445
          448 388 386 446 449 389
          387 447 450 390 388 448
          451 391 388 448 451 391
          389 449 452 392 390 450
          453 393 391 451 454 394
          391 451 454 394 392 452
          455 395 393 453 456 396
          394 454 457 397 394 454
          457 397 395 455 458 398
          396 456 459 399 397 457
          460 400 397 457 460 400
          398 458 461 401 399 459
          462 402 400 460 463 403
          400 460 463 403 401 461
          464 404 402 462 465 405
          403 463 466 406 403 463
          466 406 404 464 467 407
          405 465 468 408 406 466
          469 409 406 466 469 409
          407 467 470 410 408 468
          471 411 409 469 472 412
          409 469 472 412 410 470
          473 413 411 471 474 414
          412 472 475 415 412 472
          475 415 413 473 476 416
          414 474 477 417 415 475
          478 418 415 475 478 418
          416 476 479 419 417 477
          684 681 418 478 685 682
          418 478 685 682 419 479
          686 683 420 480 481 421
          422 482 483 423 422 482
          483 423 424 484 485 425
          421 481 486 426 423 483
          487 427 423 483 487 427
          425 485 488 428 426 486
          489 429 427 487 490 430
          427 487 490 430 428 488
          491 431 429 489 492 432
          430 490 493 433 430 490
          493 433 431 491 494 434
          432 492 495 435 433 493
          496 436 433 493 496 436
          434 494 497 437 435 495
          498 438 436 496 499 439
          436 496 499 439 437 497
          500 440 438 498 501 441
          439 499 502 442 439 499
          502 442 440 500 503 443
          441 501 504 444 442 502
          505 445 442 502 505 445
          443 503 506 446 444 504
          507 447 445 505 508 448
          445 505 508 448 446 506
          509 449 447 507 510 450
          448 508 511 451 448 508
          511 451 449 509 512 452
          450 510 513 453 451 511
          514 454 451 511 514 454
          452 512 515 455 453 513
          516 456 454 514 517 457
          454 514 517 457 455 515
          518 458 456 516 519 459
          457 517 520 460 457 517
          520 460 458 518 521 461
          459 519 522 462 460 520
          523 463 460 520 523 463
          461 521 524 464 462 522
          525 465 463 523 526 466
          463 523 526 466 464 524
          527 467 465 525 528 468
          466 526 529 469 466 526
          529 469 467 527 530 470
          468 528 531 471 469 529
          532 472 469 529 532 472
          470 530 533 473 471 531
          534 474 472 532 535 475
          472 532 535 475 473 533
          536 476 474 534 537 477
          475 535 538 478 475 535
          538 478 476 536 539 479
          477 537 687 684 478 538
          688 685 478 538 688 685
          479 539 689 686 480 540
          541 481 482 542 543 483
          482 542 543 483 484 544
          545 485 481 541 546 486
          483 543 547 487 483 543
          547 487 485 545 548 488
          486 546 549 489 487 547
          550 490 487 547 550 490
          488 548 551 491 489 549
          552 492 490 550 553 493
          490 550 553 493 491 551
          554 494 492 552 555 495
          493 553 556 496 493 553
          556 496 494 554 557 497
          495 555 558 498 496 556
          559 499 496 556 559 499
          497 557 560 500 498 558
          561 501 499 559 562 502
          499 559 562 502 500 560
          563 503 501 561 564 504
          502 562 565 505 502 562
          565 505 503 563 566 506
          504 564 567 507 505 565
          568 508 505 565 568 508
          506 566 569 509 507 567
          570 510 508 568 571 511
          508 568 571 511 509 569
          572 512 510 570 573 513
          511 571 574 514 511 571
          574 514 512 572 575 515
          513 573 576 516 514 574
          577 517 514 574 577 517
          515 575 578 518 516 576
          579 519 517 577 580 520
          517 577 580 520 518 578
          581 521 519 579 582 522
          520 580 583 523 520 580
          583 523 521 581 584 524
          522 582 585 525 523 583
          586 526 523 583 586 526
          524 584 587 527 525 585
          588 528 526 586 589 529
          526 586 589 529 527 587
          590 530 528 588 591 531
          529 589 592 532 529 589
          592 532 530 590 593 533
          531 591 594 534 532 592
          595 535 532 592 595 535
          533 593 596 536 534 594
          597 537 535 595 598 538
          535 595 598 538 536 596
          599 539 537 597 600 687
          538 598 601 688 538 598
          601 688 539 599 602 689
          687 600 603 690 688 601
          604 691 688 601 604 691
          689 602 605 692 690 603
          693 694 691 604 695 696
          691 604 695 696 692 605
          697 698 606 541 540 607
          608 543 542 609 608 543
          542 609 610 545 544 611
          699 606 607 700 701 608
          609 702 701 608 609 702
          703 610 611 704 612 546
          541 606 613 547 543 608
          613 547 543 608 614 548
          545 610 705 612 606 699
          706 613 608 701 706 613
          608 701 707 614 610 703
          615 549 546 612 616 550
          547 613 616 550 547 613
          617 551 548 614 708 615
          612 705 709 616 613 706
          709 616 613 706 710 617
          614 707 618 552 549 615
          619 553 550 616 619 553
          550 616 620 554 551 617
          711 618 615 708 712 619
          616 709 712 619 616 709
          713 620 617 710 621 555
          552 618 622 556 553 619
          622 556 553 619 623 557
          554 620 714 621 618 711
          715 622 619 712 715 622
          619 712 716 623 620 713
          624 558 555 621 625 559
          556 622 625 559 556 622
          626 560 557 623 717 624
          621 714 718 625 622 715
          718 625 622 715 719 626
          623 716 720 561 558 624
          721 562 559 625 721 562
          559 625 722 563 560 626
          723 720 624 717 724 721
          625 718 724 721 625 718
          725 722 626 719 726 564
          561 720 727 565 562 721
          727 565 562 721 728 566
          563 722 729 567 564 726
          730 568 565 727 730 568
          565 727 731 569 566 728
          732 570 567 729 733 571
          568 730 733 571 568 730
          734 572 569 731 735 573
          570 732 736 574 571 733
          736 574 571 733 737 575
          572 734 738 576 573 735
          739 577 574 736 739 577
          574 736 740 578 575 737
          741 579 576 738 742 580
          577 739 742 580 577 739
          743 581 578 740 744 582
          579 741 745 583 580 742
          745 583 580 742 746 584
          581 743 627 585 582 744
          628 586 583 745 628 586
          583 745 629 587 584 746
          747 627 744 748 749 628
          745 750 749 628 745 750
          751 629 746 752 630 588
          585 627 631 589 586 628
          631 589 586 628 632 590
          587 629 753 630 627 747
          754 631 628 749 754 631
          628 749 755 632 629 751
          633 591 588 630 634 592
          589 631 634 592 589 631
          635 593 590 632 756 633
          630 753 757 634 631 754
          757 634 631 754 758 635
          632 755 636 594 591 633
          637 595 592 634 637 595
          592 634 638 596 593 635
          759 636 633 756 760 637
          634 757 760 637 634 757
          761 638 635 758 639 597
          594 636 640 598 595 637
          640 598 595 637 641 599
          596 638 642 639 636 759
          643 640 637 760 643 640
          637 760 644 641 638 761
          762 642 759 763 764 643
          760 765 764 643 760 765
          766 644 761 767 645 600
          597 639 646 601 598 640
          646 601 598 640 647 602
          599 641 648 645 639 642
          649 646 640 643 649 646
          640 643 650 647 641 644
          768 648 642 762 769 649
          643 764 769 649 643 764
          770 650 644 766 651 603
          600 645 652 604 601 646
          652 604 601 646 653 605
          602 647 654 651 645 648
          655 652 646 649 655 652
          646 649 656 653 647 650
          771 654 648 768 772 655
          649 769 772 655 649 769
          773 656 650 770 657 693
          603 651 658 695 604 652
          658 695 604 652 659 697
          605 653 660 657 651 654
          661 658 652 655 661 658
          652 655 662 659 653 656
          774 660 654 771 775 661
          655 772 775 661 655 772
          776 662 656 773 777 778
          693 657 779 780 695 658
          779 780 695 658 781 782
          697 659 783 777 657 660
          784 779 658 661 784 779
          658 661 785 781 659 662
          786 783 660 774 787 784
          661 775 787 784 661 775
          788 785 662 776
        </DataArray>
        <DataArray type="Int64" Name="offsets" format="ascii" RangeMin="8" RangeMax="3616">
          8 16 24 32 40 48
          56 64 72 80 88 96
          104 112 120 128 136 144
          152 160 168 176 184 192
          200 208 216 224 232 240
          248 256 264 272 280 288
          296 304 312 320 328 336
          344 352 360 368 376 384
          392 400 408 416 424 432
          440 448 456 464 472 480
          488 496 504 512 520 528
          536 544 552 560 568 576
          584 592 600 608 616 624
          632 640 648 656 664 672
          680 688 696 704 712 720
          728 736 744 752 760 768
          776 784 792 800 808 816
          824 832 840 848 856 864
          872 880 888 896 904 912
          920 928 936 944 952 960
          968 976 984 992 1000 1008
          1016 1024 1032 1040 1048 1056
          1064 1072 1080 1088 1096 1104
          1112 1120 1128 1136 1144 1152
          1160 1168 1176 1184 1192 1200
          1208 1216 1224 1232 1240 1248
          1256 1264 1272 1280 1288 1296
          1304 1312 1320 1328 1336 1344
          1352 1360 1368 1376 1384 1392
          1400 1408 1416 1424 1432 1440
          1448 1456 1464 1472 1480 1488
          1496 1504 1512 1520 1528 1536
          1544 1552 1560 1568 1576 1584
          1592 1600 1608 1616 1624 1632
          1640 1648 1656 1664 1672 1680
          1688 1696 1704 1712 1720 1728
          1736 1744 1752 1760 1768 1776
          1784 1792 1800 1808 1816 1824
          1832 1840 1848 1856 1864 1872
          1880 1888 1896 1904 1912 1920
          1928 1936 1944 1952 1960 1968
          1976 1984 1992 2000 2008 2016
          2024 2032 2040 2048 2056 2064
          2072 2080 2088 2096 2104 2112
          2120 2128 2136 2144 2152 2160
          2168 2176 2184 2192 2200 2208
          2216 2224 2232 2240 2248 2256
          2264 2272 2280 2288 2296 2304
          2312 2320 2328 2336 2344 2352
          2360 2368 2376 2384 2392 2400
          2408 2416 2424 2432 2440 2448
          2456 2464 2472 2480 2488 2496
          2504 2512 2520 2528 2536 2544
          2552 2560 2568 2576 2584 2592
          2600 2608 2616 2624 2632 2640
          2648 2656 2664 2672 2680 2688
          2696 2704 2712 2720 2728 2736
          2744 2752 2760 2768 2776 2784
          2792 2800 2808 2816 2824 2832
          2840 2848 2856 2864 2872 2880
          2888 2896 2904 2912 2920 2928
          2936 2944 2952 2960 2968 2976
          2984 2992 3000 3008 3016 3024
          3032 3040 3048 3056 3064 3072
          3080 3088 3096 3104 3112 3120
          3128 3136 3144 3152 3160 3168
          3176 3184 3192 3200 3208 3216
          3224 3232 3240 3248 3256 3264
          3272 3280 3288 3296 3304 3312
          3320 3328 3336 3344 3352 3360
          3368 3376 3384 3392 3400 3408
          3416 3424 3432 3440 3448 3456
          3464 3472 3480 3488 3496 3504
          3512 3520 3528 3536 3544 3552
          3560 3568 3576 3584 3592 3600
          3608 3616
        </DataArray>
        <DataArray type="UInt8" Name="types" format="ascii" RangeMin="12" RangeMax="12">
          12 12 12 12 12 12
          12 12 12 12 12 12
          12 12 12 12 12 12
          12 12 12 12 12 12
          12 12 12 12 12 12
          12 12 12 12 12 12
          12 12 12 12 12 12
          12 12 12 12 12 12
          12 12 12 12 12 12
          12 12 12 12 12 12
          12 12 12 12 12 12
          12 12 12 12 12 12
          12 12 12 12 12 12
          12 12 12 12 12 12
          12 12 12 12 12 12
          12 12 12 12 12 12
          12 12 12 12 12 12
          12 12 12 12 12 12
          12 12 12 12 12 12
          12 12 12 12 12 12
          12 12 12 12 12 12
          12 12 12 12 12 12
          12 12 12 12 12 12
          12 12 12 12 12 12
          12 12 12 12 12 12
          12 12 12 12 12 12
          12 12 12 12 12 12
          12 12 12 12 12 12
          12 12 12 12 12 12
          12 12 12 12 12 12
          12 12 12 12 12 12
          12 12 12 12 12 12
          12 12 12 12 12 12
          12 12 12 12 12 12
          12 12 12 12 12 12
          12 12 12 12 12 12
          12 12 12 12 12 12
          12 12 12 12 12 12
          12 12 12 12 12 12
          12 12 12 12 12 12
          12 12 12 12 12 12
          12 12 12 12 12 12
          12 12 12 12 12 12
          12 12 12 12 12 12
          12 12 12 12 12 12
          12 12 12 12 12 12
          12 12 12 12 12 12
          12 12 12 12 12 12
          12 12 12 12 12 12
          12 12 12 12 12 12
          12 12 12 12 12 12
          12 12 12 12 12 12
          12 12 12 12 12 12
          12 12 12 12 12 12
          12 12 12 12 12 12
          12 12 12 12 12 12
          12 12 12 12 12 12
          12 12 12 12 12 12
          12 12 12 12 12 12
          12 12 12 12 12 12
          12 12 12 12 12 12
          12 12 12 12 12 12
          12 12 12 12 12 12
          12 12 12 12 12 12
          12 12 12 12 12 12
          12 12 12 12 12 12
          12 12 12 12 12 12
          12 12 12 12 12 12
          12 12 12 12 12 12
          12 12 12 12 12 12
          12 12 12 12 12 12
          12 12 12 12 12 12
          12 12 12 12 12 12
          12 12 12 12 12 12
          12 12 12 12 12 12
          12 12
        </DataArray>
      </Cells>
    </Piece>
  </UnstructuredGrid>
</VTKFile>
