<?xml version="1.0"?>
<VTKFile type="UnstructuredGrid" version="0.1" byte_order="LittleEndian" header_type="UInt32" compressor="vtkZLibDataCompressor">
  <UnstructuredGrid>
    <Piece NumberOfPoints="756" NumberOfCells="468">
      <PointData>
        <DataArray type="Int32" Name="libmesh_node_id" format="ascii" RangeMin="120" RangeMax="2168">
          120 121 122 123 124 125
          126 127 128 129 130 131
          132 133 134 135 136 137
          138 139 140 141 142 143
          144 145 146 147 148 149
          150 151 152 153 154 155
          156 157 158 159 160 161
          162 163 164 165 166 167
          168 169 170 171 172 173
          174 175 176 177 178 179
          240 241 242 243 244 245
          246 247 248 249 250 251
          252 253 254 255 256 257
          258 259 260 261 262 263
          264 265 266 267 268 269
          330 331 332 333 334 335
          336 337 338 339 340 341
          342 343 344 345 346 347
          348 349 350 351 352 353
          354 355 356 357 358 359
          420 421 422 423 424 425
          426 427 428 429 430 431
          432 433 434 435 436 437
          438 439 440 441 442 443
          444 445 446 447 448 449
          510 511 512 513 514 515
          516 517 518 519 520 521
          522 523 524 525 526 527
          528 529 530 531 532 533
          534 535 536 537 538 539
          600 601 602 603 604 605
          606 607 608 609 610 611
          612 613 614 615 616 617
          618 619 620 621 622 623
          624 625 626 627 628 629
          690 691 692 693 694 695
          696 697 698 699 700 701
          702 703 704 705 706 707
          708 709 710 711 712 713
          714 715 716 717 718 719
          780 781 782 783 784 785
          786 787 788 789 790 791
          792 793 794 795 796 797
          798 799 800 801 802 803
          804 805 806 807 808 809
          876 877 878 879 880 881
          882 883 884 885 886 887
          888 889 890 891 892 893
          894 895 896 897 898 899
          900 901 902 903 904 905
          906 907 908 909 910 911
          912 913 914 915 916 917
          918 919 920 921 922 923
          924 925 926 927 928 929
          930 931 932 933 934 935
          936 937 938 939 940 941
          942 943 944 945 946 947
          948 949 950 951 952 953
          954 955 956 957 958 959
          960 961 962 963 964 965
          966 967 968 969 970 971
          972 973 974 975 976 977
          978 979 980 981 982 983
          984 985 986 987 988 989
          990 991 992 993 994 995
          996 997 998 999 1000 1001
          1002 1003 1004 1005 1006 1007
          1008 1009 1010 1011 1012 1013
          1014 1015 1016 1017 1018 1019
          1020 1021 1022 1023 1024 1025
          1026 1027 1028 1029 1030 1031
          1032 1033 1034 1035 1036 1037
          1038 1039 1040 1041 1042 1043
          1044 1045 1046 1047 1048 1049
          1050 1051 1052 1053 1054 1055
          1056 1057 1058 1059 1060 1061
          1062 1063 1064 1065 1066 1067
          1068 1069 1070 1071 1072 1073
          1074 1075 1076 1077 1078 1079
          1080 1081 1082 1083 1084 1085
          1086 1087 1088 1089 1090 1091
          1092 1093 1094 1095 1096 1097
          1098 1099 1100 1101 1102 1103
          1104 1105 1106 1107 1108 1109
          1110 1111 1112 1113 1114 1115
          1116 1117 1118 1119 1120 1121
          1122 1123 1124 1125 1126 1127
          1128 1129 1130 1131 1132 1133
          1134 1135 1136 1137 1138 1139
          1140 1141 1142 1143 1144 1145
          1146 1147 1148 1149 1150 1151
          1152 1153 1154 1155 1156 1157
          1158 1159 1160 1161 1162 1163
          1164 1165 1166 1167 1168 1169
          1170 1171 1172 1173 1174 1175
          1176 1177 1178 1179 1180 1181
          1182 1183 1184 1185 1186 1187
          1188 1189 1190 1191 1192 1193
          1194 1195 1196 1197 1198 1199
          1200 1201 1202 1203 1204 1205
          1206 1207 1208 1209 1210 1211
          1212 1213 1214 1215 1216 1217
          1218 1219 1220 1221 1222 1223
          1224 1225 1226 1227 1228 1229
          1230 1231 1232 1233 1234 1235
          1236 1237 1238 1239 1240 1241
          1242 1243 1244 1245 1246 1247
          1248 1249 1250 1251 1252 1253
          1254 1255 1256 1257 1258 1259
          1260 1261 1262 1263 1264 1265
          1266 1267 1268 1269 1270 1271
          1893 1894 1895 1896 1897 1898
          1920 1921 1922 1923 1924 1925
          1947 1948 1949 1974 1975 1976
          2001 2002 2003 2028 2029 2030
          2055 2056 2057 2112 2113 2114
          2115 2116 2117 2124 2125 2126
          2127 2128 2129 2130 2131 2132
          2133 2134 2135 2148 2149 2150
          2151 2152 2153 2164 2166 2168
          1926 1899 1927 1900 1928 1901
          1950 1951 1952 1953 1954 1955
          1977 1978 1979 2004 2005 2006
          2031 2032 2033 2058 2059 2060
          2142 2144 2146 2163 2143 2096
          2165 2145 2100 2167 2147 2104
        </DataArray>
        <DataArray type="Float64" Name="resid_x" format="ascii" RangeMin="-19.211957946531523" RangeMax="0.01901625324108519">
          -0.00002238934543630222 -8.449081653664201 -0.0000625338018283017 -16.899193914398182 -0.00002930227966491117 -8.444776349688839
          0.00000828833769972448 -8.416226136277437 -0.000007076719624521388 -16.84874214888594 0.0000011015350001031265 -8.424708186640416
          0.0000328121190635855 -8.406678150519124 0.000007672314208839737 -16.888233885465098 -0.00002557659137103485 -8.483422465098649
          0.0011258970878165186 -8.470343732855156 0.0009432831239992723 -17.165845926713907 0.002645847458921935 -8.772610120013011
          0.004170357474315267 -8.70514178694603 0.0007822349909520909 -17.686678093547634 -0.0010035273469934936 -9.252602346695454
          -0.0004000346795818288 -8.845594202084971 -0.0009499458881503386 -17.900070039548208 -0.0022525849688834754 -9.53203411771699
          -0.00015543270830864486 -8.991334936688865 -0.0005496522496972744 -18.132301427622316 -0.0022415308504823983 -9.654311243047161
          0.0000993952665195863 -9.21879924617227 0.00003785898537955745 -18.45055517923409 -0.0005496949253300798 -9.57769901325953
          0.0010659207735610465 -9.66022516137988 0.0015854761114271199 -19.211957946531523 0.004205383441897581 -9.150319852027112
          0.0029916462782051956 -6.018265055007829 0.005082084127846553 -11.86787071820578 0.008728619515882274 -4.9853749340411175
          -0.000055560772387330815 -0.00008941657198846542 -0.000032270645660581465 -2.5608621001538268e-8 -0.00005226315252127023 -0.00003028950010453002
          -0.000006963084249633766 -0.00006961390967763492 -0.00003861329884990994 -0.000612415563118418 -0.0006740049601612341 -0.0023019597377595957
          -0.003597701096708761 -0.003500090090232 -0.002667460047968362 -0.0008101346904236806 -0.0014547678866927427 -0.003982670630415797
          -0.0004789470791743966 -0.0010691619249989515 -0.003946856472353488 -0.00032780535500887 -0.00047487138639468185 -0.0009198897981690379
          0.0004741121547668925 0.0009090208423137014 0.0071166350551155055 0.002743990880109015 0.0049226023649582284 0.014429171077553704
          0.000011923280737846653 0.000001812357234065587 -0.000005494101832148601 0.00003017861525478338 -0.000005903292495723633 -0.00007202151223317799
          -0.00014108190215633698 -0.00011518256002851501 -0.00008554724280340764 0.0008689614589005856 0.0011197588036226946 -0.0009635543623973675
          0.0001923943037471787 -0.00017042593277682982 -0.003328580194349229 -0.000539394263793902 -0.0008931332990620433 -0.004997177420082544
          -0.00030924304217716525 -0.0006431021271353643 -0.004644425250831752 -0.00015387673171307625 -0.00015206829528313648 -0.0007753233047571584
          0.0008720800247798977 0.0015733244316802342 0.00926543895579135 0.0030527943968088403 0.005500604586403085 0.01901625324108519
          0.00003541957624886294 0.0014728434261979118 0.005299186830847624 0.00011270976323185522 0.0006780367851284552 0.0014057418413955247
          -0.00009888006329195065 0.000891345279865341 -0.0009345342420088443 0.0008674482533042038 0.0011296713396813374 -0.002162757114315461
          -0.00021396947117935383 -0.00031786327323768404 -0.0044991441758961415 -0.00041197685951832597 -0.0005657022703386971 -0.005623242511256343
          -0.0003270756249582618 -0.00042142783971232944 -0.004616966991327409 -0.00035168231983551124 -0.00033393191649366827 -0.0001448062070839029
          0.0001835288332330265 0.0005263866482767554 0.010251157196600857 0.0013483455128380228 0.0024564832441844597 0.017578802582403297
          0.0002782273191650475 0.002268913346915369 -0.002898112717039325 0.0007539074563487347 0.003166645722187056 -0.002207168226757261
          -0.0004078096816000354 -0.0013030520038572746 -0.002186012222891165 0.0015117051533675152 0.0016194383820256064 -0.004028021664487014
          -0.00023339505627628654 -0.00029253077384261417 -0.005642767277321603 -0.00043645241879897156 -0.00046796888842504103 -0.005842700970563719
          -0.00042465117655154927 -0.00032376394003463815 -0.0039780916560072654 -0.00048402553543436255 -0.00035674262827889436 0.0010565457010702772
          -0.0003096761317928909 -0.00005026056714729776 0.01092396695126574 -0.00015874785744851572 0.00013989215669174548 0.015280558818443701
          0.006682503754597668 -0.001352624080606546 -0.0034981630112280726 -0.0011444462037299985 -0.0038429818956196016 -0.0022855856871197844
          0.0006078786703387351 0.0006853731619989034 -0.0035857023898593354 0.0010951546453679128 0.0012768421103999117 -0.005409355710518149
          -0.00027550270130216603 -0.00037821190302089747 -0.006396105554626885 -0.0005389762981673485 -0.0005210478614907643 -0.005624323369300299
          -0.0004545897270036292 -0.00023548862772759804 -0.002853162515595642 -0.0004367014576391881 -0.00012374969113881917 0.0026285076747516456
          -0.00047403068149165506 -0.00002901117323084179 0.011487842556423544 -0.00037234438960942473 -0.00021429386679927553 0.012906824981547715
          -0.006870704246355608 -0.0018140903510550643 -0.0017243021895803068 -0.00018056823168333125 0.00010217229702380592 -0.0033802042420578715
          0.0008740742900261722 0.0010966032934751624 -0.004969547881434444 0.0004665939280688036 0.0006055576879600011 -0.006355174182057333
          -0.00044337704428443203 -0.0005700487668507392 -0.006558610512581886 -0.0006523168795240508 -0.0006418130621730356 -0.004935415451390313
          -0.00040795395767734277 -0.00008542294039326492 -0.001364264925281411 -0.00016789066404054864 0.00042467554884684233 0.004320613861354516
          -0.00038195127822682196 0.0002622163907188835 0.011619071976983086 -0.0007963469299832049 -0.0009652367753613111 0.010379959374073655
          -0.0010084414856637025 -0.0014163502363544467 -0.003377909250642297 -0.0009920829673966125 -0.001648142303153577 -0.005760731783659878
          0.00014287042420324525 0.00019317293875076302 -0.006335876362920878 -0.00021714431583408356 -0.0001710653479722879 -0.006889660248876162
          -0.0007100342277226446 -0.0009343459942927623 -0.006280443988639917 -0.0006883377675821478 -0.0008036746734170208 -0.00394804663118542
          -0.0002801855237510864 0.00008502914566133057 0.0002715177855314721 0.00021227208259499974 0.0013104505720091808 0.006293007554294405
          -0.00019872701617007493 0.0010944759486335442 0.012235392259403177 -0.0013349653926590932 -0.001829782414552339 0.008369521862807261
          -0.00022761785104563614 -0.001155227512102286 -0.007057182878456469 -0.0006608275754969029 -0.001628859126533655 -0.006539643607371026
          -0.0005450419221659786 -0.0009071237968578671 -0.004469114264470608 -0.0007161935795645391 -0.0007621940391100424 -0.001580500893727077
          -0.0007998430755540298 -0.00043316192994957703 0.002515049021279303 -0.0010163728463723487 -0.0005299694833125201 0.007524175598925709
          -0.0014774930341214798 -0.0012524742666064625 0.012430651120707736 -0.0017089938317584874 -0.0025440052446863426 0.007745058942984162
          -0.0009399838978154454 -0.00026172260690626725 -0.0032478065674744136 -0.002731066914699598 -0.002325870421974137 -0.0037932385333529495
          -0.006689002304974337 -0.005625767703651807 -0.0004899714929502696 -0.0007039471161713606 -0.003270405396455567 -0.002619849050614076
          -0.0013175943704581 -0.0023341352539042407 -0.003050978403024429 -0.004852894128227946 -0.002099168125081402 -0.002538092197972658
          -0.003613720039294603 -0.001275177835415784 -0.0026772643669112847 -0.006761714167743668 -0.0027217953860089114 -0.005595270007626524
          -0.0021722159643274286 -0.001178383532650925 -0.00304252241392243 0.00023228253576179636 0.001982867529927823 -0.0026463573616373193
          -0.000125189134414172 0.0005620355585242987 0.0027082446260774384 -0.003544538480470094 -0.0001547593805668046 0.005118379741280932
          0.0094862471348236 0.004022507173857548 0.0024890641699508997 -0.0016660090153440832 -0.0017874654934760814 -0.0023380136310537925
          -0.00410737693594336 -0.003374925714522803 -0.00638447498250716 -0.0033700293830357664 -0.002552733491406556 0.008425326831241975
          0.006049929557154665 0.007490204130498834 0.0035749333721801016 0.0003265550528792627 0.0015516047656436438 -0.001162509270796086
          -0.0008972819645853836 -0.00042527499038902405 0.0022258771705927494 -0.0019779120154921337 -0.0019537581216440003 0.006935895952814075
          0.008070808572884891 0.005026828349375734 0.005285796752119154 -0.0004512456382296248 0.00011273706038461562 -0.0024639898708692654
          -0.0006810675591140125 -0.002415458068698584 -0.0007050630644436229 -0.004953516000295366 -0.001651726746762061 0.0035024342302800715
          0.004788352475918689 0.00349913957015624 0.004265602449859074 -0.0011951811720614103 -0.0031111823677121286 -0.0025403942371129418
          -0.00612224405318651 0.001610830865205637 0.0011044997932478928 0.00027047343343622465 -0.0006075894168148244 -0.00023227630834121715
          -0.0009252190002706495 0.0033815231257330325 0.006809365405922252 -0.0023944098069151737 -0.00046097417798079965 -0.000048509926950289495
          -0.00045444495583132904 -0.004785951772231325 -0.0012793563321500763 -0.0008691706833578875 -0.0008306940102356941 -0.002885813711975327
          -0.0009073028501295211 -0.0009913693139530638 -0.001283065390460164 -0.00008554170535957084 0.001014486639736134 0.0006793299922853713
          -1.5759504742489108 -0.00026720498012244853 0.0014401338235588979 0.0013736534670202305 -3.0560516549919226 0.00046533188299624495
          0.0034115846701375796 0.002955595301222691 -1.174522684604901 0.0007273731926301652 -0.0020287690245884733 0.00012787551985704582
          -0.0023031647182622794 0.005588634152674521 0.010329159058160411 -0.0018230315866991642 -0.0006405495504957504 -0.0015076184216820665
          -0.004044155353668311 -0.0043625573997376765 -0.0008741633424831363 -0.003771409024266703 -0.008765672729285634 -0.0019284140671393946
          0.00008198128378522629 -0.0020121001390368543 -0.004560663223495132 0.00612216302698354 -0.0030796080704673656 0.009358909629223755
          0.010627229297832497 0.005186971771887983 -0.009493018747754545 0.014266240281931963 0.01638376879187997 0.002436487858485936
          -0.004003731940652622 0.009319042576251213 0.01785150906857408 0.0002964332163660293 -0.00005293046549981195 -0.0028390767595274854
          -0.0011393390279519355 0.00035206719942068587 0.0001299575333024599 -0.005895873624954806 -0.002315856153150199 -0.0002665860284473062
          0.0010133934042945991 -0.003057767289468584 -0.0011713218152046671 -0.001565743893131355 -0.0022023369220660616 -0.0030115427228500913
          -0.003975366329041052 0.0022268539654537456 0.004207052580071369 0.0008578078331356043 0.0011778900485246435 0.008267032274013597
          -0.005686834933269713 -0.0038471375709223654 -0.011643269529522327 -0.006816904140332425 -0.006831910158554666 -0.006088213094956357
          -0.0014144727212510588 -0.002663454134966159 -0.0018904295513387792 -0.003930183850999525 -0.0067937088482519226 -0.0050226941966085015
          -0.003868113960235453 -0.0032525756879981937 -0.003799668478308038 -0.00023797873813480308 -0.0016467572317759305 -0.0008564694419819219
          -0.0001560990885340896 -0.00008589550701848525 -0.0024303321398452538 -0.001992315338999573 -0.0001159114396889066 0.009536591860590082
          0.009956229617882395 0.014360090287263594 0.0162134691916999 -1.3288785016353066 0.00036516310938056185 -1.5047227538967298
          -2.6524703364598414 0.0007954094544664336 -2.9087116165986626 -1.0497543550640676 0.001724555916970294 -1.1342457964820987
          -0.0008867873778636501 -0.002173223149272152 -0.0017578215675478626 -0.004248895646540296 0.0037739139521955206 0.0036208045874224215
          -0.004188248605284273 -0.002852376861737671 -0.0034661160220136322 -0.005246135096068361 0.0009114217044593476 -0.0013643763582482649
          -0.001508039318122295 -0.0016010245545879376 -0.003550117385199114 -0.0029885363820896793 0.0018112792562721136 0.0033559433713020725
          -1.3258301404861035 0.0007896193238001725 0.001564130081322463 -1.5196210033929605 -2.5973632719222315 0.0008536713697669951
          0.0023678425654228077 -2.933204971075062 -1.1732008944924377 0.0015780529513172992 0.0029132224934900752 -1.2745120410020547
          -0.001083998519405105 -0.0014319504816593387 -0.001632305696711689 -0.0022966100483381435 -0.0028735056080850807 -0.003845109271888414
          0.006494048434649513 0.0077831185992387475 0.005264381500229232 -0.0016894778046081665 -0.0048774199395585915 -0.0033310000506368703
          -0.010015638997465826 -0.0001869867253569829 -0.00385517809585334 -0.0022898474332437857 -0.00163026906190189 -0.004534554649006095
          -0.0033172643722685358 0.008350406372092944 0.00552751726787859 -0.0032640719641349875 -0.006118564583477704 -0.006821276361681949
          -0.012076506697734912 0.00796224654302588 0.003001428553770835 -0.003988208479305699 -0.00040604942768596164 -0.007908734659230143
          -0.0010978370117223912 -0.00037899162533872044 0.002230321023170667 -0.00008508819930538869 -0.0037116474861259366 -0.0006427602820688466
          -0.0005041955301507174 -0.0072127844398966745 -0.0013379299135380524 -0.0003198276248219771 -0.0033817259357889493 -0.0005975897182788174
          -0.000538120471677006 -0.0003711460698054836 -0.003062364463267686 -0.0016641305927798111 -0.0011392995383687765 -0.006922354183182877
          0.0012938476767918594 0.0009633830822445288 -0.0016439254593471064 -0.0006204636266279318 0.000012023485995382721 -1.4015972065856732
          -0.0010878172769796524 0.00007799453591661454 -2.739209831188299 0.0005759645039502548 0.0010186232906579384 -1.0948825317799882
          -1.2812942495450235 -2.5357200574746077 -1.1169009111072765 -0.00003738777596240875 -0.00021506135572715857 -0.004405505168399701
          -0.00186704046058213 -0.00029706874047484653 -0.0006999584450965296 -0.00886414451177589 -0.003738778001584426 -0.0001868915225985996
          -0.00027917012141383257 -0.004453334450370355 -0.0018473477765248488 -0.0008160285437998072 0.0003821906275231213 -0.0022396299359705996
          0.00030358476667732837 0.0017083188101666424 0.004270014353356388 -0.002358130691034112 -0.002822435274573279 -0.004614165088534065
          -0.005595856783279125 -0.0020415022195307657 -0.0026205477242403873 0.0012581883681684336 0.002127131443655686 0.0023198428815702776
          0.002441324699905864 0.003689589966690776 0.008350540654438965 0.0061188168759143124 -0.011416307536964432 0.009956955772773002
          -0.015765951731582684 0.01605439239424533 0.008611803943217256 -0.0024164973333648254 -0.0044928104503000055 -0.002083086797129409
          -0.0033414616581922685 -0.005783839373647015 -0.00027665030336931906 -0.005499796978588822 -0.0009071017363396217 -0.011666453866519655
          -0.003104336234744015 0.003001903750743662 0.0004018983697263723 -0.005039969250068332 -0.009687812243069915 -0.0032324734082707085
          -0.003902114662059253 -0.007542238153100511 -0.0009645456633080585 -0.002386706563515542 -0.004669527176242309 -0.0020719871749794415
          -0.004037457764055619 -0.007511163772863316 -0.0027242428790579254 -0.0011596384544561023 -0.0024108979303583133 -0.001203473778870645
          -0.0008039065209637583 -0.0013844333829673428 -0.002046376834462557 0.006223975942260651 0.0069053402806438235 0.008385745339601791
          -1.0549705081380922 -2.0394708775998085 -0.9026189654784715 -1.484746729584646 -2.9125208122513673 -1.1255855795173257
          -0.002687715588514994 -0.005074869399654819 -0.00238020252573512 -0.0029128825460977767 -0.0057903622162068236 -0.0027425146038200926
          -0.0014121684772918641 -0.0020282092228285364 -0.003370772136633171 -0.004449133569758956 -0.006599910872520098 -0.003380915325523759
          -0.0011351820186007444 -0.001185662714791924 -0.0005085699283959855 -0.004542624391719485 -0.006654188720980336 -0.0008949122795414155
          -0.0038767688220069374 -0.004872926099159791 0.0011758708843494503 -0.0054615182553350294 -0.007414978812978035 0.0033834807841754966
          -0.006285572041758947 -0.00769061772675439 0.005757063338254653 -0.007758758000547594 -0.009781549974992032 0.0061916702854949435
          -0.007303958452071768 -0.011217835834525403 0.0011279175528293717 -0.0025331361718583523 -0.001890224469621643 -0.003121025722091275
          -0.0028090224863396573 -0.0002605655307261756 0.0002827125290266741 -0.004601013290199796 -0.008269311203464635 -0.005137466498482679
          -0.002919277336487225 -0.009511058690786056 -0.016723015163536026 -0.010317584531430946 -0.004953715362571831 -0.004863209536836499
          -0.008662166190166243 -0.00493566614879537 -0.0022308025413484422 -0.003440453820368339 -0.00438414273186577 -0.0025400090207393644
          -0.005326164995207439 -0.008225126457990228 -0.0032275812113766733 -0.008366658003968186 -0.0158561536648823 -0.008655546068452091
          -0.0015393360541970935 -0.0034861359742679454 -0.005364465641068961 -0.008326193965277895 -0.00009944065520350875 -0.0032490673806586656
          -0.005520583352636166 -0.007321723347036624 0.002066950075168883 -0.0011746564365164858 -0.0025128567094938603 0.002532958994595269
          -0.003965403358165531 -0.007978759578676886 0.0031911718002675116 -0.004897326643842348 -0.009635452101004915 0.0033462068528518074
          -0.006242183232282095 -0.012323089071811566 0.001193314202865281 -0.006669585163256997 -0.012654317980915764 -0.003634492985259641
          -0.0091003472261324 -0.013599546471182222 -0.006837011450416597 -0.005902977107533625 -0.01055931134387178 -0.0018906593076168932
          -0.010154649134994642 -0.016063555967706478 -0.005925746688202338 -0.006852726041951529 -0.008760634597967165 -0.006543467133577785
        </DataArray>
        <DataArray type="Float64" Name="resid_y" format="ascii" RangeMin="-0.021137758174604837" RangeMax="0.015621782839220874">
          0.00006781422331608722 0.000030676917586111574 0.00013754384405773035 0.00010915828353527668 0.00007363291870796096 0.00008348261657967204
          0.000032191966483824386 0.00004551598081563302 0.00005595230701464782 0.0001438569411238294 0.000026570800104097625 0.00010132653979050277
          0.00007217480213615735 0.0000832356929146294 0.00010151142426936821 0.00019742854077842154 0.00003066750909988536 0.0001156515799921598
          -0.00010578367416157197 0.00012346440596483488 -0.00047717886502723905 0.0001819468053876061 -0.0001778701534351501 0.00008359392391935061
          0.0002479466793573193 0.00007074336885495858 -0.0003135821857177534 -0.0004703720547244439 -0.0006980322017222651 -0.0002951416579924926
          -0.0007346752058562112 -0.0010135344053310291 -0.0013977868559035822 -0.001156736055542562 -0.0012855198416326652 -0.00043443280538896234
          0.0007597849192266248 0.0006493976205638741 0.0017262973248790003 0.0015971289692230939 -0.0012088884014221368 -0.00020728195161928697
          0.0011580622012445918 0.000873460475057708 0.00275221862249464 0.0021900489274883084 -0.0023228353549765712 -0.0007636664405872295
          0.00044920224050870594 0.00044297036577650717 0.0018389438880024311 0.001675910055977059 -0.004568463503393849 -0.0019619937346244676
          -0.0001735810336349064 -0.00027052540027394656 0.00031681621940865545 -0.000039558613884937976 -0.005128388014486923 -0.0022953598743620796
          0.00012643600638073682 0.00020219236389190653 0.0001148416652470563 0.00011808866465834456 0.00017243883208623023 0.00008681958001935386
          0.00017356333676878805 0.0002475631440156806 0.000036073353960955346 -0.0001420406435322201 0.00031703966964127805 0.00028588430087678196
          0.000595112251065788 0.0006631054826919391 0.00027246614586629025 0.0008127252348785197 0.0011424814671652517 -0.0004281933119604231
          0.0011094588919450254 0.0022531254368220455 -0.0005529061016585346 0.0016288222492472637 0.00332294190721949 -0.0013454591389819304
          0.001264453859495862 0.0029397184134758447 -0.0027977351734231326 0.000623304807744085 0.0015591411283347734 -0.003721028552128247
          0.00010213883445947536 0.00016037415693442858 0.00009501580224208217 0.00005988158550680571 0.000048464742039740216 0.000030099022543278453
          -0.00033994652146695364 -0.000544592415807732 0.00005109185781773662 -0.0002277149341512255 -0.0006773281598245959 0.00006157697042660781
          0.0013697111688302788 0.0020917785600151895 0.00025248440757613677 0.0006304236050922452 0.0010223864028509333 -0.0002085567949002276
          0.0006378802869172473 0.001263684960831235 -0.000513371443148114 0.000934293404253328 0.0018234987561962512 -0.0010968707635025665
          0.0013881501072527391 0.0028959232793754897 -0.0015655540757998632 0.0015911978701060314 0.0033846758215119177 -0.0016774830646900107
          0.00009612643002201993 0.00010500308711852702 -0.0000760529270337762 0.000048586422966834936 0.0000734407213642263 0.0003554735621262295
          -0.0004481693822330768 -0.0008013229629080555 0.0003057413315134816 -0.00043863544406358423 -0.00009202000159284907 0.00021393624844309733
          0.0011426746516418201 0.0016116309623030456 0.00022415664770206178 0.0005423850123724705 0.0009133916670880232 0.000052021417537656545
          0.0005632734599826383 0.0009807109973957173 -0.00019329034393517075 0.0007601886182370676 0.0012781704371052083 -0.0005639791184680054
          0.0014818888277625675 0.002723555387833282 -0.0005287429277895106 0.0028514251791053047 0.005352374363742252 0.0007814479465222957
          0.00005923577297312077 -0.00017993921840725458 0.00002175323729142198 -0.0001503797104657062 0.00015726766744286053 0.0007102914772547098
          -0.0006231331316285532 -0.00034760857421583906 0.0003381974167287194 0.00029597153097606077 0.0008176009735214214 0.00042215193481370816
          0.0004419019082173431 0.0005298377097583233 0.00011315689930768702 0.0003799081507855351 0.0005477639813885188 0.0001589200764019888
          0.0005192111518335929 0.0007299473593877503 0.00006047398112554725 0.0007046649948553863 0.0009357526556927065 -0.00017407798418977993
          0.0015661916405545484 0.0026176592280346966 0.00035525556225535215 0.002173825066358756 0.004059610937063751 0.0015901148419030509
          0.00008088315834235693 -0.0002169997313690719 0.00046912028592960286 0.00002772536543450138 0.0002877721085846677 0.000040054749866902384
          0.00023974545222446575 0.0004464420908269033 0.00037106389032165454 0.00012568093291470683 0.00029989441439263326 0.0003983703480598261
          -0.000058713041594105064 -0.0002177553757964669 0.00007729420130592538 0.00023201089446420187 0.00019021288653545826 0.000235183986491104
          0.0005198279856359345 0.0005605848132134161 0.00021038090896068062 0.0007685655655316204 0.0008185004019252151 0.00005905953829479782
          0.0017748648492840746 0.002780789790026522 0.0010383832683182326 0.0019732314379025118 0.003445455676427067 0.0019312067428475799
          0.0009677931337656598 0.00014490846228754073 -0.000027311882310032676 -0.000005841670893107914 0.000017756200135263245 0.00012481057366124648
          0.00027850107379860656 0.000561560927795083 0.0004247941241657671 -0.00018415825607715885 -0.0002940895363284547 0.00026895451290388436
          -0.0002836123276894753 -0.0006221664578839655 0.00013736779712761327 0.00013624775169999992 -0.00007340128900595877 0.0002910220731435001
          0.0005762453315150268 0.0005070491018909357 0.00025441477969548494 0.0010288782095854432 0.0010589709635420858 0.00018534605361049394
          0.002207981785236679 0.0032839507014108815 0.001402999181046083 0.002262616628573799 0.003949499616329441 0.002322517995065554
          0.0004246058343840564 0.0007774067868981382 0.0003105422779365874 0.0005135765058673636 0.0010053457274682431 0.0005300291025732151
          0.00009337959513522343 0.00023773873579480131 0.0004897197488447635 -0.00032603532221268244 -0.0007432045899480599 0.00021040007726250143
          -0.0002943792353291494 -0.0009445773087742547 0.00017984658658221075 0.00012567933083598715 -0.0003579633963659151 0.00023174635643179176
          0.0006646129618124857 0.0004704312285864973 0.00012599843217894757 0.0013994644466985562 0.0016679810831088798 0.00018498644678757725
          0.0024629535489706367 0.003911037828207065 0.0013544281018685322 0.0010976156394508774 0.0018053306575636502 0.0009085267306502068
          0.0002991229837391862 0.0008145734994705611 0.0002700849243657544 0.0004124301405503683 0.00042170997225099427 -0.00026872113173581624
          0.00012239563313998225 -0.0006976974334034214 -0.0005950337927660421 0.00037141710480664836 -0.0005243279498679532 -0.00029188478747799174
          0.0005829002024450164 -0.0003616584723917238 0.00019703978698279445 0.0010546120891119226 0.0002981729001675648 0.001439991715244504
          0.0027527365035510676 0.0037403703632889473 0.004611447827439719 0.0024616259156509113 0.003567504183133785 0.0036112750721709608
          -0.00015781292846203318 0.0013068394983597083 0.0010351152806054864 -0.000011160941878224362 0.0005087917539784229 0.0026354043978393804
          0.0024612944847317193 0.0002603472368276766 -0.0003334444565775557 -0.0025098706181845287 0.0012299704518142843 0.0005281707680372533
          0.0017985651097576563 0.0006932369985024282 0.003108279443346254 0.0013591764490164665 0.0007936951996438124 0.0005511124960309241
          0.0018873477711999793 0.0003434659095054018 0.00040663170300762885 0.003690721725647099 0.000765761116875846 0.0006001366458484314
          0.002555483761968163 0.000285022671069092 -0.00001342428805678475 -0.00016519626962285816 -0.0003617918211981097 0.00455914223086995
          -0.00007735658745228191 0.0001545263921294282 0.0002391646416927129 0.00777113814660052 0.0002921538583833816 -0.0010587964923720605
          -0.0006179065922043425 0.0023527502224801183 -0.0005593712403286211 0.0000792302690694191 0.00008928013195616535 0.001375651400073355
          0.0020182170482948092 0.00022432305073671888 0.0003734743881794733 0.008570316661812044 0.0031790277835533343 0.0016709881790013537
          0.004036668920714581 0.013744706291101583 0.002344500957378204 0.0012955781472169803 0.0013523193660932575 0.0008942113494129211
          0.001720727883185627 0.002932114070644476 0.0027607034762991978 0.001858420985016096 0.003404780059502538 0.0013031252227412027
          0.0014370438795834328 0.00048402015833737266 0.000995656243559781 0.0002904955670247067 0.00252021877878994 0.0019337064481326494
          0.0012018086732932254 0.000060545378169990505 0.0049498929068364506 0.004035613089661244 0.0024070327809581626 0.0006148881979280429
          0.0030933429263380052 0.002986895419800798 0.002591158842033592 0.0010423284385906728 0.0024042277709357407 0.0019042979969507157
          0.004323053132629345 0.0014540335378917107 0.002649946486216803 0.0007494816275859517 0.0016356747719301068 0.0017974417627865946
          0.003104638534623144 0.0005505328436135118 0.0012296719225609598 -0.0006762791430335192 0.0013726678200489395 0.0015196702742227425
          0.0008574649586247651 -0.000969971537435263 0.0029371361635207593 0.0021766996654924917 -0.0015090882178228626 -0.0005661213330522552
          0.0013693701509475686 0.0003210431821558668 -0.0026151811459760588 -0.00025570358665723963 0.00002976143637972717 -0.000978249530985434
          -0.0008164082799782535 -0.000385751123590284 0.0006968561508099436 -0.0015979108011264054 -0.0013799790958394231 -0.0011194384439829376
          -0.0006153001152459647 -0.0019607977434463447 -0.0013274357461346836 -0.0003909631714372197 -0.003234290329174161 0.00048247074956037084
          -0.004399527415251542 0.0008908246735930825 -0.0010053913711032814 0.0008956946435994262 0.0007694568475132245 0.0005633835124815023
          0.0017359265159719722 0.002500678768696696 0.0027467552451703042 0.0019904048920917905 0.003986111256746888 0.00157364451793357
          0.0015254410887589054 0.0014774661509585618 0.0022547229014866776 -0.01205828148090271 -0.006707398004343057 -0.003814789392980744
          0.001704610522285023 -0.021137758174604837 -0.012225409171557122 -0.006098621654041736 0.003946609573303443 -0.0064961612123366486
          -0.005056737456263893 -0.0009339367110859087 0.003562375601853726 0.00013004665414064268 0.00020665630214176944 0.0015688795912176395
          0.00012398334071244028 0.0001068032164625865 0.0005012441707044121 0.0035589935462859643 -0.00006436940280344847 -0.00019656189050828998
          0.0007465754297362459 0.0024603310942785117 -0.0005687186223539767 0.0010453822105683241 0.002920062059746563 0.0021744284858729312
          0.0058459912869255485 0.001333339911661277 0.003411517667169739 0.0014495978378169239 0.003273140770383348 -0.00006565618904441628
          0.0016239973727870949 0.000004334291069107987 0.0025049566394967915 -0.0014177684864875445 0.001499158944228196 0.00006272686706276787
          -0.0008361864800295882 0.0006267572345432793 0.00044808284672111925 -0.0015407892599001811 -0.00031845003617825274 0.002821112000232745
          0.0021846522410562917 0.0008315630710929445 0.001798151858756647 0.0012992679993436423 0.004901849104460537 0.004969952443328207
          0.0029674397036512645 0.003980767262641266 0.010699543662882005 0.010202875491793328 0.007215908948404792 0.0032686097840121386
          0.008604235456286462 0.0078017118155605525 0.0053067682435474495 0.0001415029689237346 -0.0007675676583167312 -0.0010154414556327734
          0.000552492174360486 -0.001168419055823211 -0.0017216188449641623 0.00011870593473847779 -0.0013309334953549024 -0.0011966869081879612
          0.00005546850742776943 0.0032227496250468723 -0.00017484532301384123 0.006052980381399259 0.0005946807823410671 0.00375654325411362
          -0.0007000856778359432 -0.0005952428565627055 -0.0013002986486037038 -0.0038411053503751846 0.0023370354906365742 -0.0017661866106415403
          0.002275580392702703 -0.0005252054582736976 0.0032364509622139215 -0.0011643255056671409 0.0022995180613559207 0.0019722879337998496
          -0.0025204609338653483 -0.0005506439692723603 -0.0003995823600521642 -0.0020410012984487524 -0.0034021423115535854 -0.00045255995628935494
          -0.00037817447026172735 -0.0026577957103122093 -0.0009839888432875074 -0.0006783207628311694 -0.0008042826611526221 -0.0007162233549395866
          0.0010293251663563326 0.0040999246962392655 0.002553489199336012 0.002050470801942362 0.007248239615632424 0.004772596703100471
          0.0015738054969514914 0.004009981174336513 0.002423330364561077 -0.0006263881330912102 0.0034349105094092225 -0.001515458397338243
          0.007428024669640265 0.0004951759276019541 0.004046297396884557 0.003612909343391424 0.0029677820397688015 0.0064854913700100325
          0.005551901846713253 0.003396431141438311 0.003425782653852627 0.004149233365675409 0.0018818105034591748 0.006873800318670409
          0.004347910318209358 0.005082575678703807 0.004588224316307454 0.002647348730800525 0.0008579094816753563 0.00509046046859285
          0.00123362724444126 0.004018057820097343 0.0013371464602563443 -0.00022305820250732335 0.001780857549644188 -0.0002742299623325183
          -0.00040168661756572474 0.0035482121916350987 -0.0005275827501422543 -0.00015297659322948375 0.001677658465422182 -0.00018255392997552997
          -0.00030468681201456516 0.003109588773894334 0.0010982438860387966 0.0001280001097994088 0.005857358481733632 0.0021277231289565934
          0.0008963501557399667 0.0036177129385164264 0.0020320186787229355 -0.00027806781595851593 0.00172057179613741 -0.0011135751167207983
          -0.0002969682902522197 0.0029970338869970137 -0.0017663662451008616 -0.0006013727016132564 0.0001341824656094781 -0.000816524619060342
          -0.0009313382375783948 -0.0010844751662265062 -0.0003115630639705944 0.00001632659630444646 -0.00003756314108278175 0.0019065928976926515
          -0.0003074539032395414 0.00024374077288166762 0.00009164721066731718 0.0035893978070356027 -0.0006038099009155161 0.0001096026771493213
          0.0001495694330850804 0.001603871743105046 -0.0002279080367068309 -0.00037831361826239085 0.001990657813045249 -0.0003669168774067394
          0.003465659499672147 -0.0005709482343754652 -0.00007533442830842674 0.0003879090529787972 0.0026942096101017776 0.0008305028732932956
          0.005328861695283413 0.0004055782272540803 0.0026469231774036307 -0.00010048731278095024 -0.00408663870563819 -0.0003552380124591248
          -0.006788179405133932 -0.0012394072012572865 -0.002708528647004327 -0.004762138076649047 0.009747685700959352 -0.008102231816815852
          0.015621782839220874 -0.002833350574645871 0.007116240856460482 0.002574745911908276 0.004539411035464374 0.001957109772100245
          0.0050003889768597265 0.009118113005239237 0.005282401494679512 -0.003734595988326317 -0.00005738563030838195 -0.0030721986099572773
          -0.0020950945841265167 0.0008705105505922295 -0.00228905186879913 0.0036944012652415092 0.00718416732990057 0.004230039240748773
          -0.000556768567214691 0.0010592235575438008 -0.0005708648891512014 0.0009771559237372733 0.0018732340156731413 0.0008696415434984485
          0.0029354071419076533 0.005247834484278485 0.0031721217884065345 0.000006425076426737342 -0.00024538505542806566 -0.00034591736390796046
          -0.0004755628213287677 -0.0012645661213740444 -0.0012852843815478465 -0.0005135327530847444 -0.003938304270934723 -0.00001851683155601469
          -0.005166515180593488 -0.008907401231351756 -0.003949539986181454 0.0004906674185037596 0.0009379471543435325 -0.000020842778659442562
          0.0003565379273536423 0.0002987634642289197 0.0003235941110834653 0.0017141386043647193 0.0031959372436857446 0.0011409427445639789
          0.0013698705672686717 0.002641178805195654 0.0014348904037227994 0.0014064615883920273 0.0025990511279942174 0.0018411400250733512
          0.00029234579355053025 -0.0005848521898960124 -0.00005206693694770337 0.002433972098500742 0.004484740394745529 0.002546221247335112
          0.0010099959755319465 -0.0006053212739997038 0.00034565585831394796 0.0022875451755385856 0.0021596486233425582 0.002304512812911108
          0.0030008347860966955 0.0034465836815744666 0.0038532264072993483 0.003993067633530023 0.005812529096966168 0.005622471067483592
          0.0008595044936893226 -0.00010334773730935609 0.0013976416247481471 0.0027426598492734655 0.00026286079969117804 0.005113618592792857
          -0.00023119594640252927 0.003389709095636906 0.00011666740173915668 0.00018568996058915266 0.0015480253951967726 0.00036625259910338936
          0.0018321932391729412 0.00138359365031826 0.004004084117015305 0.0013117617589310515 0.003597059927323093 0.0013164123915530568
          0.0026135573220413544 0.0011897906148127246 0.0024750740342665 0.002439169778713446 0.002802000703238633 0.0014742302315272626
          0.0039644774862336585 0.004668737387539354 0.002369330997870983 0.004162405966674304 0.007496679796964667 0.00349591765414789
          -0.0010221674223357263 0.0028647195584323715 -0.0018699869835170357 0.007608744653231192 0.0007247213541379804 0.005173074129729838
          0.003505135056218134 0.0058676183003526505 0.0043770930318667856 0.0030194687715930923 0.0023912206461896846 0.003616015479112805
          0.002543720746347511 0.003262621961976797 0.0029647116957393083 0.004684611612635781 0.004928028777409166 0.004430863672824081
          0.004139414213476744 0.003090561321521079 0.003294360621140191 0.0021606111203467115 -0.0011271189919881408 0.0007972207650992491
          0.003511687951379794 0.0036874378656757134 0.0033987853101116183 0.003361674996976205 0.0023212180374163477 -0.00005150416632493382
          0.0012225515815966759 0.0038404120381006768 0.00018514947899328504 0.0007166222511189035 0.00254417618388178 0.0017688090852446825
        </DataArray>
        <DataArray type="Float64" Name="resid_z" format="ascii" RangeMin="0" RangeMax="0">
          0 0 0 0 0 0
          0 0 0 0 0 0
          0 0 0 0 0 0
          0 0 0 0 0 0
          0 0 0 0 0 0
          0 0 0 0 0 0
          0 0 0 0 0 0
          0 0 0 0 0 0
          0 0 0 0 0 0
          0 0 0 0 0 0
          0 0 0 0 0 0
          0 0 0 0 0 0
          0 0 0 0 0 0
          0 0 0 0 0 0
          0 0 0 0 0 0
          0 0 0 0 0 0
          0 0 0 0 0 0
          0 0 0 0 0 0
          0 0 0 0 0 0
          0 0 0 0 0 0
          0 0 0 0 0 0
          0 0 0 0 0 0
          0 0 0 0 0 0
          0 0 0 0 0 0
          0 0 0 0 0 0
          0 0 0 0 0 0
          0 0 0 0 0 0
          0 0 0 0 0 0
          0 0 0 0 0 0
          0 0 0 0 0 0
          0 0 0 0 0 0
          0 0 0 0 0 0
          0 0 0 0 0 0
          0 0 0 0 0 0
          0 0 0 0 0 0
          0 0 0 0 0 0
          0 0 0 0 0 0
          0 0 0 0 0 0
          0 0 0 0 0 0
          0 0 0 0 0 0
          0 0 0 0 0 0
          0 0 0 0 0 0
          0 0 0 0 0 0
          0 0 0 0 0 0
          0 0 0 0 0 0
          0 0 0 0 0 0
          0 0 0 0 0 0
          0 0 0 0 0 0
          0 0 0 0 0 0
          0 0 0 0 0 0
          0 0 0 0 0 0
          0 0 0 0 0 0
          0 0 0 0 0 0
          0 0 0 0 0 0
          0 0 0 0 0 0
          0 0 0 0 0 0
          0 0 0 0 0 0
          0 0 0 0 0 0
          0 0 0 0 0 0
          0 0 0 0 0 0
          0 0 0 0 0 0
          0 0 0 0 0 0
          0 0 0 0 0 0
          0 0 0 0 0 0
          0 0 0 0 0 0
          0 0 0 0 0 0
          0 0 0 0 0 0
          0 0 0 0 0 0
          0 0 0 0 0 0
          0 0 0 0 0 0
          0 0 0 0 0 0
          0 0 0 0 0 0
          0 0 0 0 0 0
          0 0 0 0 0 0
          0 0 0 0 0 0
          0 0 0 0 0 0
          0 0 0 0 0 0
          0 0 0 0 0 0
          0 0 0 0 0 0
          0 0 0 0 0 0
          0 0 0 0 0 0
          0 0 0 0 0 0
          0 0 0 0 0 0
          0 0 0 0 0 0
          0 0 0 0 0 0
          0 0 0 0 0 0
          0 0 0 0 0 0
          0 0 0 0 0 0
          0 0 0 0 0 0
          0 0 0 0 0 0
          0 0 0 0 0 0
          0 0 0 0 0 0
          0 0 0 0 0 0
          0 0 0 0 0 0
          0 0 0 0 0 0
          0 0 0 0 0 0
          0 0 0 0 0 0
          0 0 0 0 0 0
          0 0 0 0 0 0
          0 0 0 0 0 0
          0 0 0 0 0 0
          0 0 0 0 0 0
          0 0 0 0 0 0
          0 0 0 0 0 0
          0 0 0 0 0 0
          0 0 0 0 0 0
          0 0 0 0 0 0
          0 0 0 0 0 0
          0 0 0 0 0 0
          0 0 0 0 0 0
          0 0 0 0 0 0
          0 0 0 0 0 0
          0 0 0 0 0 0
          0 0 0 0 0 0
          0 0 0 0 0 0
          0 0 0 0 0 0
          0 0 0 0 0 0
          0 0 0 0 0 0
          0 0 0 0 0 0
          0 0 0 0 0 0
          0 0 0 0 0 0
          0 0 0 0 0 0
          0 0 0 0 0 0
          0 0 0 0 0 0
          0 0 0 0 0 0
          0 0 0 0 0 0
        </DataArray>
        <DataArray type="Float64" Name="stress_zz" format="ascii" RangeMin="-87953838.82114328" RangeMax="119459609.24912235">
          481092.1210013526 333740.15832673415 292716.5231788139 193044.1859117637 104340.92535627524 52348.21349679325
          1184888.3670937796 976960.0503589369 729918.766684361 588334.4941646329 274949.16627494234 199708.93797032884
          2487488.938549245 2525252.96935842 1639193.755830627 1649386.2421672996 790898.573112009 773519.5149761796
          2136056.138983215 3472966.3310934706 1202088.1426331953 2129883.4180664793 268120.14628317574 786800.5050394872
          -1660649.370727194 -385263.39754282613 -1507074.1260781344 -614901.741703285 -1353498.8814290748 -844540.0858637439
          -4234519.416320085 -4560228.374824367 -3112686.707468668 -3385451.2623860105 -1990853.9986172519 -2210674.149947654
          -3449918.739970002 -4239327.163391587 -2553489.999155326 -3213446.804654211 -1657061.2583406495 -2187566.445916834
          -1547721.2782912077 -2677561.5911186025 -472138.72758426075 -1614194.13167342 603443.8231226862 -550826.6722282381
          1686167.3836765648 1460870.20577604 908919.5753645357 516577.50283545716 131671.7670525067 -427715.2001051255
          18557262.138835717 8560689.30887054 13026583.708178949 3947647.587225418 7495905.277522181 -665394.1344197028
          901187.1645126552 575146.596666076 249106.02881949674 1630308.850683011 1058619.9155239572 486930.98036490317
          1888415.0199913182 1102624.7547433113 316834.4894953041 -696720.1069382841 -899678.3014097697 -1102636.4958812553
          -3409826.4019701527 -2678368.4483851753 -1946910.4948001974 -2976169.1018812107 -2112307.808475409 -1248446.5150696074
          -1297740.5503591036 -701625.4671800202 -105510.38400093705 754402.9021734119 1811308.9464185848 2868214.9906637575
          1861390.532773282 1482245.991914355 1103101.451055428 -690057.7302299644 -3874670.5922486014 -7059283.454267242
          1425236.3644307163 945490.1841570919 465744.0038834675 1669375.6917138114 985371.6617339825 301367.63175415376
          -327861.71914428426 -710298.0113653383 -1092734.3035863924 -3472364.2249706006 -2879584.1669615502 -2286804.108952502
          -3340371.7370755593 -2468175.3783590524 -1595979.0196425454 -948183.2279794845 -508740.5856339632 -69297.94328844191
          1472498.2650609552 1730559.2553396253 1988620.2456182954 2997557.887881103 3929113.9490158157 4860670.010150529
          -128750.40498155914 25289.275782286655 179328.95654613222 -3364454.4794370243 -4338465.535300026 -5312476.591163026
          1485387.816378389 876427.7599502621 267467.70352213527 -24284.603932584287 -491149.8740692411 -958015.1442058978
          -3682880.5567372944 -3067116.012516362 -2451351.468295429 -4730818.218456169 -3478742.837417226 -2226667.456378284
          -2018593.9619630668 -1338335.9254884408 -658077.8890138151 994103.6205617499 1103771.4305748686 1213439.2405879872
          3985116.3186705853 3917584.663799724 3850053.0089288615 4586138.515841413 5261623.51439456 5937108.5129477065
          -1703292.851488911 -1433839.6993605017 -1164386.547232092 -8198274.389847185 -9172233.29837267 -10146192.206898155
          -405894.6780142081 -618632.6203431203 -831370.5626720323 -4154691.9726268006 -3282265.08102382 -2409838.189420839
          -6477513.706886831 -4596883.236334689 -2716252.7657825453 -4405198.581081162 -2908648.683127133 -1412098.7851731034
          -881830.718018173 -299129.79300283553 283571.1320125021 2407330.110613023 2357589.483134976 2307848.8556569293
          5659255.408552697 5302461.979826208 4945668.551099718 5526820.150592194 5657411.466353064 5788002.782113936
          -1060440.9355065685 -1400510.6098397058 -1740580.2841728427 -12669514.376968887 -14177804.9107281 -15686095.444487317
          -5410992.173274644 -3841891.278905723 -2272790.384536802 -8751759.729137294 -5927662.872486871 -3103566.0158364456
          -7941788.728460675 -5152978.852544679 -2364168.976628686 -4263941.612372653 -2483980.4133605976 -704019.2143485432
          -463421.12014122243 279958.47153600573 1023338.0632132335 3226114.9306771867 3094038.540743914 2961962.1508106403
          6468272.852884709 5799629.77988989 5130986.706895071 6232976.763295254 5453806.488937486 4674636.214579716
          536677.114953459 -875657.800751362 -2287992.716456183 -3486480.859951635 -6359345.038377182 -9232209.216802727
          -10513135.520490237 -7196181.1893665455 -3879226.8582428554 -11084664.009200241 -7500103.904865179 -3915543.80053012
          -8353481.596299874 -5479070.178302086 -2604658.760304298 -4350733.46227984 -2532015.9171060794 -713298.371932319
          -240443.59661549272 458775.7715223326 1157995.139660158 3661784.470513812 3332429.02497237 3003073.5794309275
          6710356.504215384 5636349.006242401 4562341.508269416 7114162.523471119 5324613.146185811 3535063.7689005025
          4384558.675330131 1820343.7087235572 -743871.2578830179 2410254.4270088226 -372633.3499264276 -3155521.1268616775
          -10617719.026197122 -9472128.392477762 -8326537.7587584015 -8780277.977536052 -8558667.3871761 -8337056.796816144
          -5354974.958166099 -6080115.26302127 -6805255.56787644 -1606184.8162753317 -3018900.0694798147 -4431615.322684299
          1840221.6638738876 123607.37049068871 -1593006.9228925102 4861108.264171715 3213323.098454973 1565537.9327382324
          6554191.129405294 5457668.267216849 4361145.405028405 6741268.680398855 6235423.268731034 5729577.857063213
          6737691.225690255 7091758.008765485 7445824.791840716 3670820.065135902 5665417.0207969295 7660013.976457957
          -1481524.7051241058 -4502920.411077579 -7524316.117031051 1009688.0816897547 -2071231.0464953305 -5152150.1746804165
          3076630.499440457 469888.7349443846 -2136853.0295516877 4695226.308074747 2999669.047902224 1304111.7877297006
          5078256.243831552 4800675.942424785 4523095.64101802 4414553.0722172465 5430875.211264994 6447197.3503127415
          7106488.440732066 9824598.902293433 12542709.3638548 7549710.696966826 11139231.35689203 14728752.016817238
          14733217.555023571 -2668567.578694877 1569765.6798069952 10542671.55494019 9864682.665625844 -4541409.685430015
          -1618643.9946692514 6758748.559013578 4996147.776228115 -6414251.792165155 -4807053.669145498 2974825.563086966
          21364215.22744277 13942714.334794322 12544986.929938726 9756875.959562592 3725758.6324346834 5571037.584330866
          25229357.767028607 26604154.23704638 35356680.17873774 17205393.964562155 17129964.945005998 29216860.67741268
          9181430.1620957 7655775.652965616 23077041.176087625 23383008.16597423 11789694.542506212 53923929.92611425
          29245444.654059354 18679566.785761364 9374167.53696774 46320997.748617 23341442.090913016 13976125.405548498
          6958640.531429264 38718065.57111974 17437439.527766675 -25814316.11348768 -46736509.23345305 -56825624.006014556
          -67409256.55021493 -5281852.756039594 -30511246.541133773 -35857986.3673841 -45682936.29121418 15250610.60140849
          -14285983.848814499 -14890348.728753647 -23956616.032213423 1157768.857671783 -1802897.367852178 18073319.74435279
          4304413.974213188 2453355.67253887 -1196364.964372961 16798802.48833486 3768044.8867474403 3748942.4874059563
          -589832.5608937452 15524285.23231693 3231675.7992816935 -12373649.96559837 12412329.026998289 -6558309.548568165
          -16494258.071224784 -7932762.091631797 17306734.859495122 -4026070.9353592335 -12502464.44111241 -3491874.2176652234
          22201140.691991962 -1493832.3221503035 -8510670.811000038 6394105.919088017 5299069.223445786 9315434.528743643
          3712950.361748705 12236763.138399271 2126831.500051623 18111256.992967673 3508199.718075667 16746988.114087498
          891984.7422879832 15382719.23520732 -1724230.2334997007 404916.5883522164 16308316.007652227 14620591.161416648
          -49049714.545963876 3673956.0122819645 9020779.084242458 -6583527.315110192 -35556432.22808514 6942995.436211713
          1733242.1608326882 -27787645.791637033 -22063149.91020642 24977972.035861656 31515497.136562727 26481895.89672518
          16310809.346348189 17648880.007343892 25309679.060030144 20764364.919340998 10846131.090362975 10319787.978826137
          19103860.98349755 15046833.941956814 5381452.834377758 -32243849.50794403 -10295523.338199412 -32225055.819453325
          -14111933.836624097 -32206262.130962614 -17928344.33504879 -2232275.3374908967 -3176968.134227925 3571834.22108873
          5209058.380654028 -4497749.654239074 -3333280.7482974785 2652090.324385576 3026378.6352602607 -6763223.97098725
          -3489593.362367031 1732346.4276824219 843698.8898664939 69846609.17127539 119459609.24912235 29548660.91817892
          33847319.995327726 51786236.24687235 103405848.95796867 26964586.752309427 25347372.928849548 33725863.3224693
          87352088.66681497 24380512.58643993 16847425.86237137 39711009.00548649 33576117.49528616 36993214.363215975
          48468736.53552387 12996807.873149127 6182915.962042913 22818265.51309835 31203610.842017695 -13717393.259188235
          -21210285.571200337 8643316.662980724 13938485.148511523 9354198.457527012 -6482222.938020386 15612519.289114803
          -1936514.2139386255 21870840.120702595 2609194.510143133 6437156.150403686 4113317.3940344155 1789478.6376651446
          -9550480.938545913 -15008967.107156498 -3477613.1091799242 -15992836.678352257 2595254.720186066 -16976706.24954802
          -36461232.41347485 -47163778.338435374 -23014767.974592008 -33239289.47796207 -36495334.761257805 -23898931.461122148
          -30017346.542449296 -25826891.184080243 -24783094.94765229 -9016489.004451845 -13500911.055355923 28396531.186132587
          20111204.674083024 -20397905.268360194 -23400608.96045064 26444455.20985306 14350945.385756573 -31779321.53226854
          -33300306.865545362 24492379.233573534 8590686.097430125 30202951.17751304 19735942.48341052 28040255.351668242
          23720508.534901325 12786350.089359455 19706612.704061177 17238065.89228961 5836757.69530839 11372970.056454109
          5554643.865339272 -5474130.342480975 8478005.11272396 -7723499.052714385 11401366.36010865 -9972867.762947794
          -74496289.96441883 -78496601.73410374 -49740506.61800992 -70193860.77069177 -24984723.271600995 -61891119.807279795
          -45608572.62800947 -35673535.97800354 -24070941.530411243 -26728278.421008185 -2533310.4328130116 -17783020.864012834
          52991154.222340435 60698766.50373411 48603555.22588159 36298062.45041546 49483129.024742834 54761860.32634208
          42081149.93326329 31968725.93672256 45975103.827145234 48824954.148950055 35558744.64064499 27639389.42302967
          -6942188.657345407 6621084.62812914 2691334.122028657 -4742783.552418124 4644014.678697902 159500.44245002908
          -2543378.447490843 2666944.729266665 -2372333.2371285977 -16895524.507100537 -9059064.436982786 -16133513.743655745
          -9742920.602785543 -15371502.980210949 -10426776.768588299 -4880875.205412874 -1196927.5642679855 -2853940.431699662
          -315612.6582379318 -827005.6579864497 565702.2477921192 -21481432.90107401 -31303084.591998704 -16183099.7864331
          -34642490.41718398 -10884766.671792196 -37981896.242369264 -21363697.928028654 -15804766.594609447 -16814403.695682105
          -9319224.347593656 -12265109.46333556 -2833682.1005778643 29790925.825194642 18028831.451127514 19894666.29175819
          18214479.827691328 11315268.214041239 12376622.38306044 6638033.830188017 4601704.976954964 4858578.474362692
          -3850368.0777058676 -5654460.94141258 1905371.7445399263 -3114246.970404513 -3276899.9573675664 9153095.870614259
          -2378125.863103158 -899338.9733225513 16400819.99668859 16795816.538887866 17265326.58098734 1482147.6783260088
          12838790.23106746 16968994.798045907 -506496.08005740214 8881763.923247052 16672663.015104469 -2495139.838440813
          21267804.84105397 21726629.178224854 22185453.515395734 7069956.63192588 7066539.52998798 3875050.896686158
          1322543.8221413451 3482021.7709569866 3939167.84891676 1376023.4531357174 -1396608.6063737876 -105913.0900119067
          811796.1678455404 -1123003.990414723 -4115761.0348889204 39466413.214556746 4570818.858607344 35594576.6645477
          212068.81081804004 31722740.11453865 -4146681.236971261 12285296.87136104 13134169.387639958 7683760.065779658
          7489414.999370573 3082223.260198274 1844660.611101189 43099015.45763717 -16574594.86180665 37104305.33198405
          -15788606.820633898 31109595.206330925 -15002618.779461151 71267834.08161421 -27397667.583017763 61462565.72761571
          -28973366.778500687 51657297.37361722 -30549065.973983616 8473977.522548378 5502052.528428031 2530127.534307684
          -347708.5563500279 1008910.5018935009 2365529.5601370307 20278935.059797257 14845730.065444916 30626973.837675937
          11284087.527135722 40975012.615554616 7722444.988826536 -8170824.032388471 -938667.0231809281 6293489.986026618
          -57721043.0858014 -43030559.38261835 -28340075.67943532 41998282.67001361 29947722.61714501 17897162.564276412
          -16982910.872421626 -13442520.127140597 -9902129.38185957 4149108.6004832066 2094122.0563166547 39135.512150102484
          -87953838.82114328 -73125705.05914487 -58297571.29714644 42998437.13160262 35109905.65484952 27221374.178096425
          74353581.03336687 65215520.65792206 56077460.28247723 1387387.5589043377 -4566687.3278263565 -10520762.214557052
          1616396.1670384174 -508288.6845098611 -2632973.5360581395 30190279.92407323 2066635.4679602534 -26057008.988152724
          2010158.999589861 1970580.7287465194 1931002.4579031784 4210393.610216932 4860139.6435550535 5509885.676893175
          2821896.1717347815 2929012.6361567476 3036129.100578713 3715668.924633423 4294512.384606598 4873355.844579774
          3180299.452061016 3380822.046670493 3581344.641279972 2625478.3526823656 2913673.3547860053 3201868.3568896446
          1545782.3316422135 1330942.3495910722 1116102.367539931 2647923.5807070374 2442875.9756936207 2237828.3706802037
          4071522.8630670635 3924024.9389257566 3776527.0147844506 725031.2715195525 -3066592.158613678 -1337099.654179173
          -4657323.246600464 -3399230.579877898 -6248054.33458725 -1918261.9711615897 -923507.2591791416 1552062.6278494701
          -2874657.5444325935 -1868134.067839856 -1176434.7428480838 1373751.2830431832 -2925411.9052192317 -1818006.1645181226
          -1429362.2265170263 1195439.938236896 -2976166.26600587 3837433.9948699013 2978236.0255972296 2119038.0563245574
          1586298.1453250498 1574379.7610926898 1562461.3768603299 1941818.6427197559 1453637.6732605426 965456.7038013289
          3007196.4940057 4454869.377516416 2782379.0871191006 4225772.377316428 2557561.6802325007 3996675.3771164403
          2398582.639408923 2759051.017952974 3119519.3964970247 646677.2818832042 450145.7820844345 253614.28228566487
          115168.4185376839 132461.5816409695 149754.74474425532 -2662228.7625378785 -3267679.25678446 -3873129.751031041
          -3802192.1414975077 -4634511.216464877 -5466830.291432247 1531032.1541145323 1526532.3273245415 1522032.500534551
          3151288.652406368 3334560.757628492 3517832.862850616 1895477.5491538097 359484.6224646857 971898.8332096689
          1750240.022631826 23567.56217691122 751879.8259365949 1605002.4961098426 -312349.49811086326 531860.8186635206
        </DataArray>
        <DataArray type="Float64" Name="peeq" format="ascii" RangeMin="0" RangeMax="0.04902487009748903">
          0 0 0 0 0 0
          0 0 0 0 0 0
          0 0 0 0 0 0
          8.592194533920741e-7 0 0.000007456703300638389 0.000002285924803901226 0.000014054187147884705 0.000004571849607802452
          0.0001333114169555133 0.00010213446199293296 0.0001720523744649276 0.00013560809603486008 0.00021079333197434187 0.00016908173007678718
          0.0007449650826472788 0.0006651811660422165 0.0008215940146283267 0.0007439317552167602 0.0008982229466093748 0.000822682344391304
          0.0021985152096724494 0.0020961079908672618 0.002276941088667259 0.002181222097042353 0.002355366967662069 0.002266336203217444
          0.0048856900036199575 0.004798807063852644 0.004893375491147246 0.004810550519169671 0.004901060978674534 0.004822293974486698
          0.009791529986624064 0.00988745359421123 0.009593108760596526 0.009671717618943726 0.00939468753456899 0.009455981643676222
          0.016510415483209584 0.01603990255426921 0.015973315044566082 0.015517576216757983 0.015436214605922583 0.014995249879246757
          0 0 0 0 0 0
          0 4.847405705819285e-7 9.69481141163857e-7 0.000020822647264377524 0.00003793987691511965 0.00005505710656586178
          0.0002493562546150691 0.00029851149287220946 0.0003476667311293498 0.0009840167891558098 0.0010527524854061373 0.0011214881816564645
          0.002494701007788211 0.002554388313319468 0.002614075618850725 0.0051269787544379625 0.0051236004254255575 0.005120222096413152
          0.00951951291941743 0.00936462176874717 0.00920973061807691 0.014601984286518762 0.014245293835735242 0.013888603384951723
          0 0 0 0 4.52332347696754e-8 9.04664695393508e-8
          0.0000029108402321478216 0.000011297206576868703 0.000019683572921589583 0.00009520488572612803 0.00012931147370197409 0.00016341806167782016
          0.00048664547788876314 0.0005417091646933099 0.0005967728514978567 0.0013733312790206666 0.0014269293281968475 0.0014805273773730282
          0.0029498642077273947 0.0029822022438574882 0.003014540279987581 0.005469168781849525 0.005449525469789218 0.005429882157728909
          0.009106305277576436 0.00900761549341848 0.008908925709260523 0.012958624776095103 0.012811847737656428 0.012665070699217757
          0 2.1799192723998014e-7 4.359838544799603e-7 0 0.0000063876293186364515 0.000012775258637272903
          0.0000386725906263738 0.00006789201153386473 0.00009711143244135566 0.0002699812398644081 0.00032232680198160185 0.0003746723640987956
          0.0008553579354846309 0.0009072094870822565 0.0009590610386798823 0.001888083376288101 0.001920399242241608 0.001952715108195115
          0.0035062373956625597 0.003507078712685068 0.003507920029707575 0.0058284497816879595 0.0057905379309223315 0.005752626080156703
          0.008610498997823315 0.008564995912993055 0.008519492828162792 0.010499483279786356 0.010522443847131017 0.010545404414475677
          0 0.0000063234824331271776 0.000012646964866254355 0.000020731400170681062 0.00004768001595781407 0.00007462863174494708
          0.00016499563091638806 0.00021701318198324404 0.0002690307330501001 0.0005809541740515471 0.0006377493706719725 0.0006945445672923976
          0.0013442187593357604 0.001382139059723902 0.0014200593601120435 0.0024912929404817567 0.0024973663819554417 0.002503439823429127
          0.004088439817935548 0.0040588583742904435 0.004029276930645339 0.006111376787847992 0.006059817555156438 0.006008258322464884
          0.00804816946115178 0.0080434171616114 0.00803866486207102 0.008846701121920705 0.00897096391459922 0.009095226707277738
          0.00001889531276055333 0.00004045314759517017 0.00006201098242978701 0.0001255791285261523 0.00016935026884579182 0.00021312140916543134
          0.0004346857565812926 0.0004859105403268683 0.000537135324072444 0.0010317146240114603 0.001068789154286238 0.0011058636845610156
          0.0019345718662426633 0.0019436279614167495 0.0019526840565908354 0.0031357082015298085 0.0031108829918975083 0.0030860577822652085
          0.004615431456524899 0.004563175425677855 0.004510919394830811 0.006236237004885142 0.006185850789717341 0.0061354645745495375
          0.007381823498704974 0.007414953164033864 0.0074480828293627555 0.00741371659875413 0.00760114849470174 0.0077885803906493495
          0.00011904667828493283 0.00014198477199386212 0.00016492286570279145 0.0003763437567527383 0.0004010140377154554 0.00042568431867817246
          0.0008623611953931369 0.0008734793518964672 0.0008845975083997975 0.0016084012036955673 0.0015965522656235477 0.0015847033275515282
          0.0025953931975086515 0.0025577921724872386 0.002520191147465826 0.0037643528721158477 0.003706876204413621 0.0036493995367113943
          0.005015388215506254 0.004956509886389236 0.004897631557272218 0.006145209659687522 0.006122663866397511 0.006100118073107499
          0.00659793894968142 0.006681430153813629 0.006764921357945838 0.006083485931068989 0.006306690534426848 0.006529895137784708
          0.0003408226948861054 0.0003451307404663446 0.0003494387860465839 0.0007641039338500998 0.0007525169343938463 0.0007409299349375927
          0.0014079311775890184 0.001373877151767852 0.0013398231259466858 0.002261903545976989 0.0022052743738308384 0.002148645201684688
          0.003264147433722283 0.003192179647548615 0.0031202118613749465 0.004308597689375976 0.004236998439317857 0.004165399189259737
          0.005239382799099415 0.005193273834347742 0.00514716486959607 0.005834339811349395 0.005849674099421021 0.005865008387492647
          0.005713987015395007 0.005830101275827034 0.00594621553625906 0.004870847090324002 0.005076395155886352 0.0052819432214487
          0.0020263284298931996 0.0019889293723798548 0.0019515303148665106 0.0028977064383954145 0.002846419245158379 0.0027951320519213436
          0.0038152652040341723 0.003758144979086071 0.0037010247541379698 0.004647859798730253 0.0045983121920467876 0.004548764585363324
          0.005222205919118624 0.0051981134149342465 0.005174020910749868 0.005327767557280608 0.00535079223547342 0.005373816913666233
          0.004743494378063665 0.004825300061280556 0.004907105744497448 0.0037821155024816387 0.003907327875801409 0.0040325402491211805
          0 0 0 0 0.0004236417586392828 0.0010904151533832238
          0.000011455911857760621 0 0.0008472835172785656 0.0021808303067664477 0.000022911823715521242 0
          0 0 0.00012114051787522787 0 0.00024228103575045574 0
          0 0 0 0.00027757157604378104 0.00003733473050451098 0.00012099967038415829
          0.0005551431520875621 0.00007466946100902196 0.00024199934076831657 0.02302084862526271 0.021039056294241066 0.027093171780790612
          0.027148143517568054 0.022227001641657498 0.020556244317187784 0.026192360934836047 0.026067079331769848 0.02143315465805229
          0.020073432340134503 0.025291550088881478 0.02498601514597164 0.006670219979777367 0.004031026710480436 0.00421689267864768
          0.00523022772884374 0.00882602437066156 0.005704539938486028 0.006620081569419672 0.007611233560302147 0.010981828761545756
          0.007378053166491622 0.009023270460191666 0.009992239391760555 0.013138367625429774 0.013098996663944698 0.015980083191239877
          0.015404863693687994 0.01313055585889635 0.013210319649570519 0.01582874948096671 0.015194856342231161 0.013122744092362923
          0.013321642635196343 0.01567741577069355 0.014984848990774327 0.00596361650767467 0.006705184213385234 0.004553363632455035
          0.0034850336957865866 0.006435102695517907 0.00709460657825092 0.004912268993446264 0.0038994161742368165 0.006906588883361145
          0.007484028943116607 0.005271174354437493 0.004313798652687046 0.003872282455808 0.00501141303857581 0.004101848181225341
          0.005304654120784132 0.004331413906642681 0.005597895202992451 0.01846303810683991 0.016659133216195027 0.018065731690482954
          0.016559750932775674 0.017668425274125998 0.01646036864935632 0.000007264178620147327 0 0
          0.00035593084216720513 0.0005926853077337016 0.00047844781729246906 0.0005565711305669099 0.0017940564567257664 0.001178106436847256
          0.0009568956345849381 0.0011131422611338198 0.0032321820712843275 0.020568858602562884 0.020354494071295026 0.024607783377034922
          0.023068831265439283 0.019796864016793727 0.019604625837871627 0.02357388904521029 0.02212273600984024 0.019024869431024563
          0.01885475760444823 0.022539994713385657 0.021176640754241197 0.02171665082376847 0.029363834577216873 0.021284859832670675
          0.02845621955202294 0.020853068841572887 0.027548604526829012 8.895943045662871e-7 0.00005478747634916552 0
          0 0.000008457550632180372 0.0000709662932797404 0 0 0.000016025506959794456
          0.00008714511021031527 0 0 0.04033271271239451 0.04838184479973052 0.04555586270056207
          0.03604253931236488 0.039118620513879265 0.04644358346254579 0.04363764894074535 0.03504221065634339 0.037904528315364026
          0.044505322125361055 0.04171943518092863 0.03404188200032189 0 0 0
          0 0.0007713887970630779 0.0007973612367663793 0.0005517357550557048 0.000511488572265624 0.0015427775941261558
          0.0015947224735327586 0.0011034715101114097 0.001022977144531248 0.008192770983186956 0.0081678624835283 0.008569371017103056
          0.008626381888127867 0.008945971051019158 0.009084901292727432 0.01857700886475539 0.018055035300523763 0.017533061736292137
          0.00011971590879007096 0.00017581621028966694 0.00192619706294706 0.0031870065211032856 0.0037326782171040493 0.006198196831916903
          0.0021159994506244483 0.0014064059030377577 0.00007372321349941945 0.005211252479172146 0.003476770768810927 0.001536929133384998
          0.008306505507719844 0.005547135634584096 0.003000135053270576 0.010536402940375247 0.009221702214544299 0.017792462373815633
          0.0164661681942682 0.011238541199195307 0.010434713396493194 0.01877198630396409 0.016579824164576377 0.011940679458015375
          0.011647724578442091 0.019751510234112545 0.016693480134884555 0.026548711894136018 0.028397456481704886 0.030699854335356398
          0.02534255265603722 0.027114764184586287 0.029178901346798587 0.02413639341793842 0.025832071887467695 0.027657948358240772
          0.003246832085918401 0.006326676279373247 0.0034921765071171894 0.006634467609385974 0.003737520928315978 0.0069422589393987036
          0.004023743083674214 0.004558775502031078 0.005454173428292133 0.0062351667516762 0.006884603772910049 0.007911558001321319
          0.0030369270824103975 0.0012440006867231758 0.0036603016537016253 0.0017057125258907156 0.0042836762249928535 0.0021674243650582556
          0.0409903516690086 0.039391396707363066 0.04363874795720813 0.04475974988778712 0.0386174618777095 0.03725699393758517
          0.0414223166281613 0.04232911847651033 0.036244572086410395 0.03512259116780728 0.03920588529911448 0.03989848706523354
          0.010392071886241243 0.010399745290189655 0.013372858085444528 0.010712258832346354 0.010902593752175234 0.013623170986745606
          0.011032445778451461 0.011405442214160816 0.013873483888046685 0.00013707087584533822 0.000026109437083565715 0.0002880526549052669
          0.00014089765522984284 0.00043903443396519563 0.00025568587337612 0.010211317604007803 0.008016191817766683 0.010407297244839183
          0.008285484104181095 0.010603276885670566 0.008554776390595507 0.006118162928032112 0.007014039652387902 0.0066976444960085285
          0.007792183563268349 0.007277126063984943 0.008570327474148797 0.0031362088791017525 0.001490548388718436 0.003636646412666821
          0.0017923735461860633 0.00413708394623189 0.0020941987036536907 0 0 0
          0.000005681076951731729 0 0 0.000011362153903463459 0 0
          0.001823176119848231 0.0007837905365978469 0.0019961669309067 0.0019522321606569837 0.0008733882453166172 0.002226497913410171
          0.002081288201465736 0.0009629859540353876 0.002456828895913642 0.03194600251875021 0.035684688326292124 0.03557438876083284
          0.03036458813528614 0.0337849991772045 0.033624255237563044 0.02878317375182207 0.03188531002811688 0.031674121714293235
          0.03769027179817592 0.035562326776633124 0.03343438175509033 0 0 0
          0 0 0 0 0 0
          0 0 0 0.03177769553342276 0.03575887761120098 0.030356622033921164
          0.03412522687621429 0.02893554853441958 0.032491576141227586 0 0 0
          0 0 0 0.04750970291614572 0.03899239649793175 0.04539606825283998
          0.03734247242543072 0.04328243358953424 0.0356925483529297 0.024768374359446024 0.028074647748910428 0.02449629025863381
          0.02841877655628902 0.02422420615782159 0.028762905363667615 0 0 0
          0.002821403042987908 0.002962704738263734 0.0031040064335395605 0.013815239989220823 0.009184579629771443 0.015989625119803386
          0.011454425147295237 0.018164010250385953 0.013724270664819037 0.002934870193726251 0.003263061513012597 0.003591252832298943
          0.0018406097036157646 0.0038674849002372615 0.005894360096858757 0 0.000005681076951731729 0.000011362153903463459
          0.0004064465007968935 0.0005350478412848086 0.0006636491817727237 0 0 0
          0.002325625880067681 0.004019675945701975 0.005713726011336271 0.024907551624268224 0.02595191280685465 0.026996273989441082
          0.04902487009748903 0.046812263028528894 0.04459965595956876 0.020153752474807524 0.019419190131754027 0.01868462778870053
          0 0 0 0 0.0005198004495949076 0.0010396008991898152
          0.0034476992670480324 0.003427464448312425 0.0034072296295768172 0.0038241086998911196 0.0038189923288606503 0.0038138759578301806
          0.004149690496170297 0.004128686872678261 0.004107683249186225 0.004211549557203723 0.004207550216042391 0.0042035508748810586
          0.004677623674504741 0.004660886139102793 0.004644148603700846 0.004872929960904758 0.004866576165419082 0.004860222369933406
          0.004561717377622522 0.004572941470437238 0.004584165563251957 0.003617875528202192 0.003646687449084256 0.0036754993699663198
          0.002178480444625536 0.002217073055574391 0.0022556656665232455 0.001969221595511907 0.0011126123391601947 0.0020443292016646356
          0.001163569833682538 0.0021194368078173644 0.0012145273282048812 0.0002490534434646076 0.000023493316675388136 0.000036447507828528386
          0.00038501259070492964 0.0002520049970913318 0.000024283030978591733 0.000038620775507534166 0.00040389217720532045 0.00025495655071805604
          0.00002507274528179533 0.00004079404318653995 0.0004227717637057111 0 0 0
          0.0007558699593781686 0.0007669195435743464 0.0007779691277705244 0 0 0
          0.00394243831816511 0.0038979351604212765 0.003939642227028629 0.003892987735287205 0.003936846135892147 0.003888040310153134
          0.004361368884301345 0.00435948832997092 0.004357607775640496 0.0037201739578028577 0.0037203788739868155 0.003720583790170774
          0.00415566016179243 0.004157300098423177 0.004158940035053922 0.003498600877922959 0.0035053926436934856 0.0035121844094640124
          0.002409148062110061 0.0024184746338391516 0.0024278012055682424 0.0012305550590052772 0.0012352983006770947 0.0012400415423489124
          0.0003829587633362757 0.00038399336570860544 0.00038502796808093516 0 0.000026339863545608718 0.00001552683820903158
          0 0.000026939559842632892 0.000015722828232342897 0 0.000027539256139657066 0.000015918818255654215
        </DataArray>
        <DataArray type="Float64" Name="pe11" format="ascii" RangeMin="-0.0018208971921287473" RangeMax="0.04814704864302505">
          0 0 0 0 0 0
          0 0 0 0 0 0
          0 0 0 0 0 0
          8.475240964954391e-7 0 0.000007317611823245568 0.0000022440387385696256 0.000013787699549995697 0.000004488077477139251
          0.00013053217212688356 0.00010002791189894353 0.0001674787686298121 0.00013184979611475685 0.0002044253651327406 0.00016367168033057014
          0.0007246374575356132 0.000646496770958037 0.0007942579395965001 0.0007180618288958387 0.0008638784216573868 0.0007896268868336405
          0.0021214211534633797 0.002019656909783417 0.0021850969293910343 0.002089251497268304 0.002248772705318689 0.0021588460847531913
          0.004670016435397328 0.004575149749337186 0.0046596472662565 0.004567581054797329 0.004649278097115671 0.004560012360257472
          0.009228420356716638 0.009276021821321756 0.009021398280000446 0.00905166010323832 0.008814376203284256 0.008827298385154884
          0.015471221038389877 0.014916584314354091 0.014946429999819858 0.014395492945377886 0.014421638961249834 0.013874401576401683
          0 0 0 0 0 0
          0 4.80320043380501e-7 9.60640086761002e-7 0.000020470265072643748 0.000037253410597887285 0.000054036556123130825
          0.00024419992146512947 0.0002912936701158443 0.0003383874187665591 0.000958929738468866 0.0010212490587674 0.0010835683790659338
          0.002416128974542946 0.0024632044288279767 0.002510279883113008 0.004933001434076396 0.004914729652576262 0.004896457871076128
          0.009073291827297983 0.00891194390691902 0.008750595986540056 0.013835482962763983 0.013499633880019991 0.013163784797275997
          0 0 0 0 4.500102969987698e-8 9.000205939975396e-8
          0.0000028802529978408524 0.000011175491523591716 0.00001947073004934258 0.00009354725252014515 0.00012703031619989676 0.00016051337987964834
          0.0004767638234154947 0.0005296375186119066 0.0005825112138083185 0.0013409072163896856 0.0013891159879984264 0.001437324759607167
          0.0028701133764242066 0.0028927853475943267 0.002915457318764446 0.005305878932302778 0.005275449798093714 0.005245020663884649
          0.00879325779531395 0.008692400499546827 0.008591543203779703 0.012439920408832232 0.012321663743849545 0.012203407078866862
          0 2.1725562146815903e-7 4.3451124293631805e-7 0 0.000006348131296840312 0.000012696262593680624
          0.00003819067313748795 0.00006709472451104962 0.00009599877588461126 0.0002652770076368135 0.0003166985141649343 0.0003681200206930551
          0.0008381848555143815 0.0008879595124713809 0.0009377341694283803 0.0018468604153903782 0.0018750537295237353 0.0019032470436570923
          0.003427194230173752 0.0034213646731371863 0.003415535116100621 0.005699596883590918 0.0056551632355125265 0.005610729587434134
          0.00841343878903504 0.008369915385209675 0.008326391981384313 0.01019440355352277 0.010241412099830812 0.010288420646138854
          0 0.0000062959912993046145 0.000012591982598609229 0.00002056671070723726 0.000047322095072930504 0.00007407747943862376
          0.00016276710633865419 0.0002142109231401436 0.0002656547399416329 0.000570614776969309 0.0006263857311331504 0.0006821566852969921
          0.0013174927920820742 0.0013537132558395205 0.001389933719596967 0.0024414950419853025 0.002444691036455762 0.002447887030926222
          0.0040136651003495095 0.003979901083827208 0.003946137067304907 0.0060165674063222775 0.005962066733692495 0.005907566061062713
          0.007933228155657404 0.007933506453138216 0.007933784750619028 0.00864556496261604 0.008788246697998372 0.008930928433380704
          0.00001878493460480856 0.00004022487914484063 0.0000616648236848727 0.00012431804909775703 0.00016775349915649105 0.0002111889492152251
          0.0004281156596212863 0.00047884437637320146 0.0005295730931251165 0.0010124790416282288 0.001049003624876334 0.0010855282081244397
          0.0018967604438142047 0.0019049526965665324 0.0019131449493188593 0.0030794693344242522 0.0030529387968391375 0.0030264082592540223
          0.004549429925100768 0.004494697250319814 0.004439964575538862 0.006172603065618904 0.006121483316911747 0.006070363568204589
          0.007313102442448305 0.0073521842022182 0.007391265961988099 0.0072575411604187436 0.007457450816366857 0.00765736047231497
          0.00011799071166778094 0.00014083789078668657 0.0001636850699055922 0.0003713247930313292 0.00039605664823753254 0.00042078850344373577
          0.0008471363927120702 0.0008587929003449062 0.0008704494079777422 0.0015766177837055182 0.0015657041707639384 0.0015547905578223585
          0.0025462148515282487 0.0025092515498118697 0.0024722882480954908 0.0037056438975939833 0.0036476022749192304 0.0035895606522444766
          0.004962418841149877 0.00490184331540341 0.004841267789656944 0.0061073196405609965 0.006084513184935509 0.006061706729310021
          0.006548713104012697 0.00663712375318601 0.006725534402359323 0.0059420952646969385 0.0061723848016232595 0.0064026743385495796
          0.00033680777077507436 0.00034091086595542487 0.0003450139611357755 0.0007516278134857524 0.0007399621321039741 0.0007282964507221955
          0.0013803096358037223 0.001346573718348915 0.0013128378008941078 0.0022164108472445105 0.002160477985950569 0.002104545124656628
          0.00320658317703665 0.0031352011729285536 0.003063819168820457 0.004253259825393678 0.004181259612443011 0.004109259399492343
          0.005202197355846073 0.005154308957257426 0.00510642055866878 0.005814106854200342 0.005827784805999052 0.005841462757797762
          0.005660267129752147 0.00577778866760097 0.005895310205449792 0.0047105909784526815 0.0049173007465920845 0.005124010514731488
          0.001994248320576757 0.001956418238358905 0.001918588156141052 0.0028547742881585947 0.002803122883865919 0.0027514714795732437
          0.0037706801474350522 0.0037133022910231525 0.0036559244346112533 0.004613944643435836 0.004564017986099278 0.004514091328762721
          0.005204124076630655 0.005179287548155905 0.005154451019681154 0.005308142954569347 0.005330364525593497 0.005352586096617647
          0.004670678003063179 0.00475212799331565 0.0048335779835681205 0.0036079859835396614 0.0037307164744609872 0.0038534469653823135
          0 0 0 0 -0.00000991537828215954 -0.0003715123573702325
          0.000005581084119824403 0 -0.00001983075656431908 -0.000743024714740465 0.000011162168239648806 0
          0 0 -0.000022412866795378836 0 -0.00004482573359075767 0
          0 0 0 0.00009148074846975588 -0.000009428566352654209 0.000012799102722341759
          0.00018296149693951177 -0.000018857132705308418 0.000025598205444683517 0.021970688638723757 0.019832156301737475 0.025903172798001237
          0.026103002811334618 0.021180928943413245 0.019431519288376876 0.025031436587427503 0.025022428325880322 0.020391169248102737
          0.019030882275016276 0.024159700376853777 0.02394185384042602 0.003944226934783447 0.001858159649788349 -0.0008066553093369457
          0.001695279767755254 0.004959832061539635 0.0020650031598887105 0.0003105817525221693 0.003446139009440633 0.005975437188295823
          0.002271846669989072 0.0014278188143812842 0.005196998251126012 0.012638347365869928 0.012503456618005213 0.01514074697383155
          0.014691427450212957 0.012680540685011007 0.012676194712510821 0.015081229929961564 0.014543778456387019 0.012722734004152088
          0.012848932807016428 0.015021712886091578 0.014396129462561084 0.005479368437103779 0.0063580930470688215 0.004196288297978646
          0.003085683446430228 0.005940889630653249 0.006751185982441253 0.004541893624187623 0.0034705340614147617 0.006402410824202718
          0.007144278917813685 0.004887498950396599 0.0038553846763992954 0.003641997575077203 0.004782459332390072 0.003864963211203491
          0.005077107279745924 0.0040879288473297795 0.005371755227101778 0.017470962025932218 0.01558389578999984 0.01717129876161888
          0.015619676223247295 0.01687163549730554 0.015655456656494753 0.0000021139093183790035 0 0
          0.000010665380024197646 0.00004304870218996923 0.0002244699753479156 0.00012034148959941318 -0.0005690756598552867 0.00008398349506155944
          0.00044893995069583123 0.00024068297919882636 -0.0011488166997347708 0.019360181791119615 0.01924119037455189 0.023671847969962894
          0.022035599489106484 0.018582224719544602 0.018507350862909795 0.022605529282951536 0.02105901501401983 0.017804267647969593
          0.0177735113512677 0.02153921059594018 0.020082430538933178 0.01999507755577336 0.02769343878395451 0.019722412560821592
          0.026937657539513958 0.01944974756586982 0.026181876295073403 8.379202093031014e-7 0.00005353953016514173 0
          0 0.000007485097970285046 0.00006806040583297993 0 0 0.00001413227573126699
          0.00008258128150081814 0 0 0.03450346175751029 0.04591989142489504 0.043692947546135084
          0.03223808110773158 0.03384316861282359 0.04408692194079307 0.04181855835750313 0.0316370163809429 0.03318287546813689
          0.042253952456691085 0.039944169168871176 0.03103595165415423 0 0 0
          0 -0.00021316553631253875 -0.000018786001084855244 0.00003123631858274532 -0.0001669692356697572 -0.0004263310726250775
          -0.00003757200216971049 0.00006247263716549064 -0.0003339384713395144 0.007847207043610352 0.0076842829159890925 0.008248188693056163
          0.008158614122854116 0.008649170342501976 0.008632945329719139 0.017615030560276006 0.01714233669504724 0.01666964282981847
          0.000016741680885146514 -0.000015674954018348288 -0.000128173071239686 -0.0009182860730735479 -0.0002730878233645185 -0.0018208971921287473
          -0.0009127704315082115 0.000022931385426305 -0.000002851002409232596 -0.0012551152251802779 -0.0004847562628096053 -0.0005185516493617204
          -0.0015974600188523444 -0.0009924439110455155 -0.0010342522963142085 0.009492480204164728 0.007526314475576771 0.013979380250077314
          0.01467567103036975 0.010181325203714117 0.008262491667442515 0.014788697807613849 0.014970464541366241 0.010870170203263505
          0.008998668859308258 0.01559801536515038 0.015265258052362734 0.025772323943251053 0.027566002578820307 0.030065178555877897
          0.024508955735484443 0.026226249683981073 0.028457894145952702 0.02324558752771783 0.024886496789141836 0.02685060973602751
          0.0030144441013700263 0.0060608810776816855 0.0032447563903505866 0.006376459588319552 0.003475068679331147 0.006692038098957419
          -0.0017116260593161533 0.00018741719090911314 0.00036638341276528746 0.0021334902894820915 0.002444392884846728 0.00407956338805507
          0.002480646261784618 0.0010382646092080806 0.003010687700972563 0.0014296679425781424 0.003540729140160508 0.001821071275948205
          0.04047824281536895 0.038751132557091124 0.042876686035084974 0.044133723101625534 0.038013272234644256 0.03656171331320446
          0.040547304713653066 0.041595396581294554 0.03554830165391956 0.0343722940693178 0.03821792339222115 0.03905707006096357
          0.009888207805856858 0.009674874249303411 0.01256821331655721 0.010257163501188013 0.010224743583977448 0.012904394546296546
          0.01062611919651917 0.010774612918651484 0.013240575776035882 0.00012476718830225467 0.000024309548587592457 0.0002486746085666941
          0.00011143572115433396 0.00037258202883113354 0.00019856189372107543 0.00984323252279806 0.007729802404769906 0.010079591056522553
          0.0080186978249977 0.010315949590247044 0.008307593245225496 0.005465760201610767 0.006020425789225305 0.006015627550454316
          0.006605953761141743 0.006565494899297866 0.00719148173305818 0.0026795619915516017 0.0013275634714857987 0.0031302809070194626
          0.0015882661263888643 0.0035809998224873244 0.0018489687812919295 0 0 0
          0.0000024596101104959553 0 0 0.000004919220220991911 0 0
          0.0016649539190017896 0.0007154120965317424 0.0018187047147872211 0.0017784684366450457 0.0007900497818441692 0.0020209924111700517
          0.001891982954288302 0.0008646874671565961 0.002223280107552882 0.03132641965403805 0.035218569790675565 0.03519789291530604
          0.029673109345950795 0.03323274975088665 0.033137270323793655 0.028019799037863547 0.031246929711097753 0.031076647732281276
          0.03723655099789987 0.035005386901236064 0.03277422280457226 0 0 0
          0 0 0 0 0 0
          0 0 0 0.030933493185219856 0.03473973980996686 0.029508058878213634
          0.0331503333546408 0.028082624571207415 0.031560926899314744 0 0 0
          0 0 0 0.04663635116268572 0.0375888881842947 0.04434267251567175
          0.036023070051699094 0.04204899386865777 0.03445725191910346 0.021828496823361968 0.02182785614494387 0.02190165637836129
          0.022393398934710262 0.021974815933360613 0.022958941724476652 0 0 0
          0.002601838266839578 0.0027336520437545118 0.0028654658206694454 0.00810813371648701 0.004231001717182894 0.009573962122033156
          0.005908778550527836 0.011039790527579302 0.007586555383872778 0.0026358878817905012 0.0029368066288834593 0.003237725375976417
          -0.0008737187557785445 -0.0006333862076648644 -0.00039305365955118394 0 0.0000024596101104959553 0.000004919220220991911
          0.0003650474347894806 0.0004714992844530743 0.0005779511341166679 0 0 0
          -0.00098064686435649 -0.0010151207236370275 -0.0010495945829175652 0.016708064841992276 0.01768220832998212 0.01865635181797196
          0.04814704864302505 0.04578405302490262 0.04342105740678019 0.018890049762499365 0.018137857445980572 0.017385665129461783
          0 0 0 0 -0.00009239260128556312 -0.00018478520257112624
          0.003426941277709605 0.003406577232154817 0.0033862131866000296 0.0038197173622522623 0.0038145186823173123 0.003809320002382362
          0.004133810576260979 0.004112724303827621 0.004091638031394263 0.004207936003867386 0.0042039648934214776 0.00419999378297557
          0.004667914300360249 0.0046512277584928275 0.004634541216625407 0.004860669933941984 0.0048546195253882755 0.004848569116834567
          0.004525558343141188 0.004537247710541169 0.00454893707794115 0.003538407856944814 0.003566670273480719 0.003594932690016624
          0.002083355587933375 0.002119464842561547 0.0021555740971897198 0.0018422024309180946 0.0010527648448881417 0.001911576151496238
          0.0010983135695826103 0.001980949872074381 0.001143862294277079 0.00024184612201818233 0.0000230335086439388 0.0000355821940054404
          0.00036851619408123995 0.00024414376859113355 0.000023753104639694134 0.000037517886721900794 0.0003847616911792983 0.00024644141516408477
          0.000024472700635449464 0.00003945357943836119 0.0004010071882773566 0 0 0
          0.0007330662151799493 0.0007424417949944193 0.0007518173748088893 0 0 0
          0.003933634351230664 0.003894796236276077 0.003930955463703492 0.003889858157978211 0.00392827657617632 0.003884920079680345
          0.0043523096124591055 0.004350564806158112 0.004348819999857119 0.0037008582747762326 0.0037012270708612297 0.0037015958669462286
          0.00413138716354544 0.004133104578016088 0.004134821992486736 0.003452947322927833 0.003459298071297521 0.0034656488196672087
          0.0023534618382237125 0.0023614159023827596 0.002369369966541807 0.001196472808796381 0.0011999269383091914 0.001203381067822002
          0.00037457933921725123 0.00037514720506101227 0.00037571507090477325 0 0.000025992506529281773 0.000015319871204150773
          0 0.000026550169148005672 0.000015493669831106277 0 0.000027107831766729575 0.000015667468458061782
        </DataArray>
        <DataArray type="Float64" Name="pe22" format="ascii" RangeMin="-0.021537243875090442" RangeMax="0.0010789449390724859">
          0 0 0 0 0 0
          0 0 0 0 0 0
          0 0 0 0 0 0
          -3.140076482113869e-7 0 -0.0000024830420525070516 -7.551309786135823e-7 -0.000004652076456802716 -0.0000015102619572271646
          -0.00004311359897542347 -0.000032535828560674816 -0.00005119386825053963 -0.00003926862319736203 -0.0000592741375256558 -0.00004600141783404924
          -0.00021882201924366783 -0.00019129883039219203 -0.0002219898690688997 -0.0001952489072922391 -0.0002251577188941316 -0.00019919898419228617
          -0.0005763020927881946 -0.0005353680700769388 -0.0005542780296999266 -0.0005138850910748978 -0.0005322539666116587 -0.0004924021120728569
          -0.001119413833918505 -0.0010555462224700301 -0.0010652136012993948 -0.0009984851019871964 -0.0010110133686802847 -0.0009414239815043626
          -0.0018369286956742836 -0.0017227995979370325 -0.001760185381544675 -0.0016375078077349513 -0.0016834420674150664 -0.0015522160175328705
          -0.0028749602782674522 -0.002431914580921282 -0.002751867856600373 -0.002303803755245831 -0.002628775434933294 -0.0021756929295703793
          0 0 0 0 0 0
          0 -1.8640554078707946e-7 -3.728110815741589e-7 -0.000007640104344535487 -0.000013127813747375605 -0.00001861552315021572
          -0.00008396838664102346 -0.00009429482794682677 -0.00010462126925263009 -0.00030341828455362834 -0.00030398493212257393 -0.00030455157969151963
          -0.0006979116253280355 -0.0006748731318248322 -0.000651834638321629 -0.0013002385898593651 -0.0012538949448580557 -0.001207551299856746
          -0.0021156322622930446 -0.002062438718777981 -0.002009245175262917 -0.003069283922319088 -0.0030148119719659115 -0.0029603400216127347
          0 0 0 0 -1.8781646406831032e-8 -3.7563292813662063e-8
          -0.0000011784249293435747 -0.000004342007730874391 -0.000007505590532405208 -0.00003567895887405963 -0.000046316930518224385 -0.00005695490216238914
          -0.00017070405056403748 -0.00018096118412523645 -0.0001912183176864354 -0.00044639907957957583 -0.000442829045121027 -0.000439259010662478
          -0.0008931805749269497 -0.0008699108182309633 -0.000846641061534977 -0.0015666554686621038 -0.001531683878662544 -0.0014967122886629844
          -0.00243717608050029 -0.002416753089460732 -0.002396330098421174 -0.0034654720566074477 -0.00350245093729296 -0.003539429817978472
          0 -9.385168266294873e-8 -1.8770336532589746e-7 0 -0.0000026136382362539803 -0.000005227276472507961
          -0.00001563899790100387 -0.00002635249439557212 -0.00003706599089014038 -0.00010321916811981716 -0.00011843640938184109 -0.00013365365064386505
          -0.0003089059830368366 -0.00031588726792535166 -0.00032286855281386676 -0.0006431636377813932 -0.000635426616864534 -0.0006276895959476748
          -0.0011455527975342639 -0.0011238507341957296 -0.0011021486708571954 -0.0018694180272067723 -0.0018479229027864308 -0.0018264277783660897
          -0.0027284815257087912 -0.0027385471620910914 -0.0027486127984733917 -0.0034388820280997334 -0.0035114895776139758 -0.0035840971271282195
          0 -0.00000266686057555229 -0.00000533372115110458 -0.00000869696145400151 -0.000019349984494697398 -0.000030003007535393283
          -0.00006619242101782525 -0.00008411621510352973 -0.00010204000918923423 -0.00022281468277624163 -0.00023695330173906416 -0.0002510919207018867
          -0.0004936533286652069 -0.0004954815849993627 -0.0004973098413335185 -0.0008834145031339467 -0.000872802712867839 -0.0008621909226017311
          -0.0014297224544826568 -0.0014118098105643218 -0.0013938971666459872 -0.002157950003216456 -0.002149850366575576 -0.002141750729934696
          -0.002933242486355886 -0.0029628109905761846 -0.002992379494796484 -0.0034231611494820917 -0.003505019041479248 -0.0035868769334764052
          -0.000007924310767315428 -0.000016716176756315446 -0.000025508042745315463 -0.00005088998093648676 -0.00006729178973439851 -0.00008369359853231025
          -0.0001695425354906984 -0.00018548713863318308 -0.00020143174177566776 -0.00038963973268258913 -0.00039656201097436995 -0.0004034842892661508
          -0.0007152834595690551 -0.0007114292626388697 -0.0007075750657086842 -0.0011515694935855382 -0.0011399194408197395 -0.0011282693880539413
          -0.0017162895003169027 -0.0017040549085251427 -0.0016918203167333827 -0.0023933124909754117 -0.0023964347424396478 -0.0023995569939038834
          -0.0030066413853931284 -0.003045981931806427 -0.0030853224782197244 -0.0032805423138786228 -0.0033603397961698353 -0.0034401372784610474
          -0.00004747970259969519 -0.00005665123368921065 -0.0000658227647787261 -0.00014453912191458585 -0.00015364514060746252 -0.00016275115930033916
          -0.00032102388899544934 -0.0003244483483726445 -0.00032787280774983983 -0.0005909591603938801 -0.0005871898188199602 -0.0005834204772460403
          -0.0009605465487825241 -0.0009514090035618917 -0.0009422714583412593 -0.0014278407083010228 -0.0014172220176016266 -0.0014066033269022305
          -0.0019781730748735685 -0.001972952969200148 -0.001967732863526729 -0.0025500418838473576 -0.0025622348942737 -0.002574427904700042
          -0.002959582193660112 -0.003002492414449754 -0.0030454026352393954 -0.0029968799414895153 -0.0030705532663398236 -0.0031442265911901324
          -0.00012952596562851453 -0.00013056798915278656 -0.00013161001267705862 -0.00027861573936399127 -0.0002738879747013869 -0.00026916021003878254
          -0.0005023385004103438 -0.000491581236805871 -0.0004808239732013982 -0.000812895182987788 -0.000798748776439033 -0.0007846023698902784
          -0.0012139017294177012 -0.0012005508767311112 -0.0011872000240445207 -0.001691142707187497 -0.0016830018513280761 -0.0016748609954686552
          -0.002195185938787081 -0.00219812400740777 -0.002201062076028458 -0.0026209543608156577 -0.0026427175424554275 -0.0026644807240951978
          -0.002801729072104858 -0.002847119210252916 -0.0028925093484009753 -0.002614727095439224 -0.0026792282234802227 -0.0027437293515212204
          -0.0007615369274503385 -0.000748726994571835 -0.0007359170616933315 -0.001110537484442189 -0.0010977307780808832 -0.001084924071719577
          -0.0015261355824468313 -0.0015174369152885327 -0.0015087382481302342 -0.001973183760920346 -0.001972070056890766 -0.0019709563528611863
          -0.002372192690000408 -0.002382524168082397 -0.0023928556461643865 -0.002589514346096551 -0.002614193493348596 -0.00263887264060064
          -0.0024861295823769003 -0.002521785007153497 -0.0025574404319300935 -0.0021443276041594505 -0.002183871981314507 -0.0022234163584695637
          0 0 0 0 -0.00012622436308394044 -0.00004976382378237931
          -2.456043158310038e-7 0 -0.0002524487261678809 -0.00009952764756475862 -4.912086316620076e-7 0
          0 0 0.000013704761251506296 0 0.000027409522503012592 0
          0 0 0 -0.00009128494667509816 0.000009796075121142865 -0.000014258703326224476
          -0.00018256989335019636 0.00001959215024228573 -0.000028517406652448953 -0.005882639884117499 -0.005464760016766825 -0.008204581746757342
          -0.007932406106096359 -0.005562760042563926 -0.005386582629636187 -0.007721478353489712 -0.007346712479908004 -0.005242880201010353
          -0.005308405242505547 -0.007238374960222082 -0.006761018853719647 -0.0006321678624475755 -0.0007112706834532411 -0.000023967544210845234
          -0.0007343016811806279 -0.0008325635948780592 -0.0003060115103106801 -0.00009790387025464203 -0.0009617049383345857 -0.0010329593273085429
          0.00009924766283188083 -0.0001718401962984388 -0.0011891081954885435 -0.004042431164018144 -0.004133231562008771 -0.004180047750190806
          -0.003985003779702458 -0.004167603741241682 -0.004306164879765126 -0.004308436316028341 -0.0040594245144025135 -0.004292776318465219
          -0.00447909819752148 -0.004436824881865877 -0.004133845249102569 -0.0029360384306946234 -0.003148066145754885 -0.0023319695632869246
          -0.0017365978642308235 -0.003075521571288765 -0.0032939490301620877 -0.0024212687587732372 -0.001826791771963108 -0.003215004711882906
          -0.00343983191456929 -0.0025105679542595503 -0.0019169856796953915 -0.002172435770860008 -0.0026702404303345314 -0.002235897846823697
          -0.0027511211178114633 -0.0022993599227873855 -0.0028320018052883957 -0.0045457040863269675 -0.004425408767003105 -0.004573876621514337
          -0.004604934876919189 -0.004602049156701707 -0.004784460986835274 -8.09546126667829e-7 0 0
          0.00004026132137084213 -0.00014663050614651806 -0.00023202666545073169 -0.00010521541897378849 -0.00008637614924666093 -0.0002924514661663683
          -0.00046405333090146337 -0.00021043083794757694 -0.000213013619864164 -0.003824043158357626 -0.004143088109173269 -0.00644633906348063
          -0.0053162941465477315 -0.003582782573315294 -0.003928972309639267 -0.0059438257717904725 -0.004912046464143278 -0.0033415219882729627
          -0.003714856510105265 -0.005441312480100312 -0.004507798781738825 -0.00591383246552121 -0.01029250289137917 -0.005870511385063085
          -0.009778596821997642 -0.00582719030460496 -0.009264690752616118 -4.7193427245936656e-7 -0.000028802057309541698 0
          0 -0.000003216960535837061 -0.00003370874355931345 0 0 -0.000005961986799214756
          -0.0000386154298090852 0 0 -0.015482791833649635 -0.021537243875090442 -0.02037214940187781
          -0.013999430200203927 -0.014853686925635115 -0.019907525564161338 -0.018763724520938697 -0.013526335850017788 -0.014224582017620595
          -0.01827780725323223 -0.017155299639999583 -0.01305324149983165 0 0 0
          0 0.00030273826333205537 0.000039422409780752865 -0.000044118090294714265 0.00020347802496623223 0.0006054765266641107
          0.00007884481956150573 -0.00008823618058942853 0.00040695604993246445 -0.0035470014292036055 -0.0036994480985833417 -0.0037282107220222953
          -0.0038845816776519534 -0.003909420014840985 -0.004069715256720565 -0.004251247201792439 -0.004170194557542148 -0.004089141913291856
          -0.000024018521449915978 -0.000006722268531657723 -0.00068136203697067 -0.00029529260182052826 -0.001338705552491424 -0.0005838629351093988
          0.000309695005126864 -0.000027555911137559115 0.000003829671231294568 0.0000019353102387597233 0.0005256945139674634 0.00020600859633770202
          -0.00030582438464934466 0.0010789449390724859 0.00040818752144410953 -0.003319624673468271 -0.002067194964302902 -0.003992495070768714
          -0.0040669913618597104 -0.003563922720189537 -0.0022751040458511623 -0.004589438052803829 -0.004336773188173636 -0.0038082207669108037
          -0.0024830131273994227 -0.005186381034838941 -0.004606555014487561 -0.007594690999902561 -0.008663328082832142 -0.010382009900235127
          -0.006937759500851071 -0.00786655303561065 -0.009321495006121727 -0.006280828001799579 -0.007069777988389158 -0.008260980112008326
          -0.0017782180452866312 -0.0030580177854217525 -0.0018347844804391799 -0.0031560779388736405 -0.0018913509155917287 -0.0032541380923255293
          0.0005611375873540705 -0.0003885847516162903 -0.0009130093146441214 -0.0012028667078175389 -0.0023871562166423136 -0.0020171486640187873
          -0.0010551344308735273 -0.0005110287752253061 -0.0012432752051271616 -0.0006307380075492743 -0.001431415979380796 -0.0007504472398732427
          -0.017064964877814413 -0.016035359009807702 -0.01847004414031731 -0.01854531596380854 -0.015124597506034043 -0.014335518461975704
          -0.016505685553780458 -0.016372281135035673 -0.013184230134253672 -0.012635677914143707 -0.014541326967243601 -0.014199246306262809
          -0.003954747439698707 -0.0037580970759535483 -0.003945533478995483 -0.004141151428902054 -0.0040281512477442945 -0.004212250259033023
          -0.004327555418105401 -0.0042982054195350415 -0.004478967039070565 -0.00006531044491871191 -0.000011227456517490849 -0.00011042323596244958
          -0.000040869662008289006 -0.00015553602700618725 -0.00007051186749908718 -0.003772997969838565 -0.0033870684207928333 -0.003921605601146937
          -0.0035126905505274094 -0.004070213232455308 -0.0036383126802619855 -0.0026117367175492903 -0.0024118077232379597 -0.002799805106627857
          -0.002515654378357747 -0.002987873495706424 -0.0026195010334775348 -0.0013766026590776624 -0.0007802690271112498 -0.0014766658462750787
          -0.0008534130025663397 -0.0015767290334724945 -0.0009265569780214298 0 0 0
          -0.0000021392976124760052 0 0 -0.0000042785952249520104 0 0
          -0.0010170087044293838 -0.00042577023028315876 -0.0010799931384100027 -0.0010432879066354275 -0.00044565640109684715 -0.0011314416237987925
          -0.0010695671088414712 -0.00046554257191053564 -0.001182890109187582 -0.011269456489638736 -0.013980373483462006 -0.014221217617720577
          -0.010160748836083502 -0.012529194122873908 -0.012665588933414434 -0.009052041182528267 -0.011078014762285805 -0.011109960249108292
          -0.01532750904408291 -0.013622377768714992 -0.011917246493347074 0 0 0
          0 0 0 0 0 0
          0 0 0 -0.011071146611322661 -0.013995650758551153 -0.010144136022076884
          -0.01276855501713806 -0.009217125432831107 -0.011541459275724968 0 0 0
          0 0 0 -0.020903906908920116 -0.01655341601871293 -0.018887215187862155
          -0.015277301609598773 -0.016870523466804194 -0.014001187200484618 -0.00734186087642065 -0.00843473738491852 -0.007534578531289875
          -0.008915703400737307 -0.007727296186159099 -0.009396669416556093 0 0 0
          -0.0016281560976745659 -0.001662372629239339 -0.0016965891608041127 -0.0012460566282966722 -0.00009244545544023243 -0.0022373082472501235
          -0.0008775558100880767 -0.0032285598662035743 -0.001662666164735921 -0.0015614670061159372 -0.0016322520199760725 -0.0017030370338362076
          0.000494513568804009 -0.0006895123435577683 -0.0018735382559195452 0 -0.0000021392976124760052 -0.0000042785952249520104
          -0.00020835138293408476 -0.0002439993583756436 -0.0002796473338172024 0 0 0
          0.0008203256291814097 -0.00018109225066384493 -0.0011825101305090995 -0.005463466119084618 -0.006239169721071546 -0.007014873323058476
          -0.02138110634903119 -0.019268667128435016 -0.017156227907838842 -0.003491424106184405 -0.0032532626982077688 -0.0030151012902311317
          0 0 0 0 0.0001985204767316463 0.0003970409534632926
          -0.0015149178043583524 -0.0015138455543731665 -0.0015127733043879808 -0.0018586770989679096 -0.001863152178518943 -0.0018676272580699766
          -0.001893234386870809 -0.0018960079163029774 -0.0018987814457351458 -0.0021124546958946108 -0.002119258966082442 -0.0021260632362702734
          -0.002229072762721116 -0.002236457631423235 -0.0022438425001253537 -0.002426549659861196 -0.002439146712382881 -0.002451743764904565
          -0.0023625475472931344 -0.0023788421663270437 -0.0023951367853609525 -0.0019504612945785023 -0.0019640560967356725 -0.001977650898892843
          -0.0012330147445891453 -0.0012384174475195396 -0.0012438201504499338 -0.0011502621829285265 -0.0006273719229093433 -0.0011609038531497269
          -0.0006329641174797006 -0.0011715455233709273 -0.0006385563120500582 -0.0001336200824169029 -0.000011822905276752791 -0.000019098773022900763
          -0.0002124265982811339 -0.00013212398812949576 -0.000011909166581273526 -0.000019363082469685517 -0.000214572850993923 -0.00013062789384208858
          -0.00001199542788579426 -0.000019627391916470275 -0.00021671910370671215 0 0 0
          -0.0004131602065099788 -0.00040911437075506665 -0.00040506853500015455 0 0 0
          -0.002061871192057233 -0.0019883301094112014 -0.002066929915737255 -0.001992303918043427 -0.0020719886394172772 -0.0019962777266756527
          -0.0022534067800366485 -0.002261967735657645 -0.002270528691278642 -0.001987819353383086 -0.0019932112730534465 -0.001998603192723807
          -0.0021997678595055657 -0.002208950459424979 -0.002218133059344392 -0.0018806324535044876 -0.0018879498874390885 -0.0018952673213736896
          -0.0013044143372183323 -0.001306099219931403 -0.0013077841026444734 -0.0006662812226552775 -0.0006626087504275478 -0.0006589362781998179
          -0.0002048451776529505 -0.00020213329426394533 -0.0001994214108749401 0 -0.00001273170300625733 -0.000007428738478576565
          0 -0.00001281490975378459 -0.0000074310608371337796 0 -0.00001289811650131185 -0.000007433383195690994
        </DataArray>
        <DataArray type="Float64" Name="pe33" format="ascii" RangeMin="-0.02676594229399373" RangeMax="0.0024047601272424745">
          0 0 0 0 0 0
          0 0 0 0 0 0
          0 0 0 0 0 0
          -5.335164482840522e-7 0 -0.000004834569770738516 -0.0000014889077599560435 -0.00000913562309319298 -0.000002977815519912087
          -0.0000874185731514601 -0.00006749208333826871 -0.00011628490037927244 -0.0000925811729173948 -0.00014515122760708478 -0.00011767026249652089
          -0.0005058154382919452 -0.0004551979405658448 -0.0005722680705276002 -0.0005228129216035995 -0.0006387207027632552 -0.0005904279026413543
          -0.0015451190606751847 -0.0014842888397064774 -0.0016308188996911074 -0.0015753664061934059 -0.0017165187387070302 -0.0016664439726803342
          -0.003550602601478822 -0.0035196035268671546 -0.003594433664957104 -0.003569095952810132 -0.003638264728435386 -0.0036185883787531094
          -0.007391491661042353 -0.007553222223384724 -0.007261212898455771 -0.007414152295503369 -0.0071309341358691885 -0.007275082367622015
          -0.012596260760122407 -0.012484669733432808 -0.012194562143219467 -0.012091689190132059 -0.011792863526316527 -0.011698708646831311
          0 0 0 0 0 0
          0 -2.939145025934215e-7 -5.87829005186843e-7 -0.000012830160728108258 -0.00002412559685051167 -0.00003542103297291509
          -0.000160231534824106 -0.0001969988421690174 -0.00023376614951392885 -0.0006555114539152375 -0.0007172641266448259 -0.0007790167993744141
          -0.0017182173492149098 -0.0017883312970031443 -0.0018584452447913786 -0.00363276284421703 -0.0036608347077182043 -0.0036889065712193804
          -0.0069576595650049314 -0.006849505188141031 -0.0067413508112771315 -0.010766199040444818 -0.010484821908053981 -0.010203444775663144
          0 0 0 0 -2.621938329304595e-8 -5.24387665860919e-8
          -0.0000017018280684972773 -0.000006833483792717325 -0.000011965139516937372 -0.0000578682936460855 -0.00008071338568167235 -0.00010355847771725921
          -0.0003060597728514572 -0.00034867633448667004 -0.00039129289612188287 -0.0008945081368101094 -0.0009462869428773992 -0.000998065748944689
          -0.001976932801497256 -0.0020228745293633626 -0.002068816257229469 -0.0037392234636406743 -0.0037437659194311684 -0.0037483083752216624
          -0.0063560817148136444 -0.006275647410086074 -0.006195213105358503 -0.008974448352224615 -0.008819212806556356 -0.008663977260888097
          0 -1.2340393880521035e-7 -2.468078776104207e-7 0 -0.000003734493060586332 -0.000007468986121172664
          -0.00002255167523648407 -0.00004074223011547747 -0.00005893278499447087 -0.0001620578395169963 -0.0001982621047830932 -0.00023446637004919004
          -0.0005292788724775449 -0.0005720722445460291 -0.0006148656166145134 -0.0012036967776089846 -0.0012396271126592009 -0.001275557447709417
          -0.0022816414326394872 -0.002297513938941456 -0.0023133864452434248 -0.0038301788563841416 -0.0038072403327260905 -0.0037843018090680403
          -0.0056849572633262185 -0.005631368223118549 -0.0055777791829108815 -0.006755521525422892 -0.006729922522216646 -0.0067043235190104005
          0 -0.000003629130723752325 -0.00000725826144750465 -0.000011869749253235746 -0.000027972110578233103 -0.00004407447190323046
          -0.00009657468532082891 -0.00013009470803661375 -0.0001636147307523986 -0.0003478000941930672 -0.0003894324293940862 -0.0004310647645951052
          -0.0008238394634168671 -0.0008582316708401576 -0.0008926238782634482 -0.0015580805388513553 -0.0015718883235879225 -0.00158569610832449
          -0.002583942645866851 -0.002568091273262885 -0.002552239900658919 -0.003858617403105814 -0.0038122163671169117 -0.00376581533112801
          -0.004999985669301486 -0.004970695462561994 -0.0049414052558225015 -0.005222403813133854 -0.005283227656519003 -0.005344051499904153
          -0.000010860623837493132 -0.000023508702388525183 -0.000036156780939557234 -0.00007342806816127026 -0.00010046170942209254 -0.00012749535068291482
          -0.0002585731241305879 -0.00029335723774001827 -0.00032814135134944867 -0.0006228393089456395 -0.000652441613901964 -0.0006820439188582885
          -0.0011814769842451495 -0.0011935234339276622 -0.0012055698836101751 -0.0019278998408387134 -0.001913019356019397 -0.0018981388712000803
          -0.002833140424783863 -0.0027906423417946697 -0.0027481442588054763 -0.003779290574643481 -0.0037250485744720874 -0.0036708065743006942
          -0.004306461057055146 -0.004306202270411742 -0.0043059434837683375 -0.00397699884654007 -0.004097111020196958 -0.004217223193853847
          -0.00007051100906808574 -0.00008418665709747592 -0.00009786230512686608 -0.00022678567111674341 -0.00024241150763006997 -0.00025803734414339653
          -0.000526112503716621 -0.0005343445519722616 -0.0005425766002279022 -0.000985658623311638 -0.000978514351943978 -0.000971370080576318
          -0.0015856683027457243 -0.0015578425462499778 -0.0015300167897542313 -0.0022778031892929595 -0.002230380257317603 -0.0021829573253422463
          -0.0029842457662763054 -0.002928890346203258 -0.002873534926130211 -0.0035572777567136273 -0.003522278290661798 -0.003487278824609967
          -0.003589130910352563 -0.003634631338736232 -0.0036801317671199007 -0.0029452153232073968 -0.0031018315352834033 -0.0032584477473594094
          -0.0002072818051465598 -0.00021034287680263833 -0.00021340394845871687 -0.0004730120741217611 -0.000466074157402587 -0.0004591362406834129
          -0.0008779711353933784 -0.0008549924815430438 -0.0008320138276927094 -0.0014035156642567223 -0.0013617292095115358 -0.0013199427547663494
          -0.001992681447618948 -0.0019346502961974418 -0.0018766191447759362 -0.0025621171182061797 -0.0024982577611149335 -0.0024343984040236877
          -0.003007011417058987 -0.0029561849498496526 -0.0029053584826403177 -0.003193152493384673 -0.003185067263543613 -0.003176982033702553
          -0.0028585380576472736 -0.0029306694573480365 -0.0030028008570487986 -0.0020958638830134452 -0.0022380725231118483 -0.0023802811632102506
          -0.0012327113931264186 -0.0012076912437870694 -0.0011826710944477204 -0.0017442368037164052 -0.0017053921057850355 -0.0016665474078536662
          -0.002244544564988221 -0.00219586537573462 -0.0021471861864810183 -0.0026407608825154884 -0.0025919479292085107 -0.002543134975901533
          -0.0028319313866302432 -0.002796763380073504 -0.0027615953735167648 -0.0027186286084727885 -0.0027161710322448946 -0.002713713456017001
          -0.0021845484206862715 -0.0022303429861621447 -0.002276137551638018 -0.0014636583793802068 -0.0015468444931464758 -0.0016300306069127446
          0 0 0 0 0.00013613974136486286 0.00042127618114335053
          -0.000005335479803993397 0 0.0002722794827297257 0.0008425523622867011 -0.000010670959607986795 0
          0 0 0.00000870810554387254 0 0.00001741621108774508 0
          0 0 0 -1.95801794659256e-7 -3.675087684886496e-7 0.0000014596006038825932
          -3.916035893185123e-7 -7.350175369772992e-7 0.0000029192012077651865 -0.01608804875460611 -0.014367396284970219 -0.017698591051243696
          -0.018170596705238223 -0.015618168900849109 -0.014044936658739734 -0.01730995823393735 -0.017675715845972287 -0.01514828904709211
          -0.013722477032509253 -0.016921325416631 -0.01718083498670635 -0.0033120590723331638 -0.0011468889663347071 0.0008306228535496524
          -0.0009609780865733688 -0.004127268466649798 -0.001758991649565721 -0.00021267788224657957 -0.002484434071096422 -0.004942477860966431
          -0.0023710943327967344 -0.0012559786180428116 -0.0040078900556194735 -0.008595916201851461 -0.008370225055995871 -0.010960699223640149
          -0.010706423670510144 -0.00851293694376886 -0.008370029832744817 -0.010772793613932307 -0.010484353941984008 -0.008429957685686256
          -0.008369834609493764 -0.010584888004224465 -0.010262284213457873 -0.00254333000640907 -0.003210026901313855 -0.0018643187346917018
          -0.0013490855821993927 -0.00286536805936434 -0.0034572369522790397 -0.002120624865414356 -0.0016437422894516357 -0.00318740611231961
          -0.003704447003244224 -0.0023769309961370103 -0.0019383989967038783 -0.001469561804217187 -0.002112218902055521 -0.0016290653643797831
          -0.0023259861619344346 -0.0017885689245423792 -0.0025397534218133486 -0.012925257939604811 -0.011158487022995735 -0.012597422140103842
          -0.011014741346326521 -0.012269586340602876 -0.010870995669657312 -0.00000130436319171117 0 0
          -0.000050926701395038695 0.00010358180395667289 0.0000075566901028141595 -0.000015126070625624695 0.0006554518091023332 0.00020846797110505693
          0.000015113380205628316 -0.000030252141251249393 0.001361830319599705 -0.015536138632761983 -0.015098102265378579 -0.017225508906482237
          -0.01671930534255875 -0.014999442146229312 -0.014578378553270488 -0.016661703511161065 -0.01614696854987656 -0.014462745659696644
          -0.014058654841162397 -0.0160978981158399 -0.015574631757194373 -0.014081245090251186 -0.017400935892574874 -0.01385190117575589
          -0.017159060717515013 -0.013622557261260597 -0.016917185542455145 -3.6598593684373485e-7 -0.000024737472855600033 0
          0 -0.000004268137434447984 -0.00003435166227366648 0 0 -0.000008170288932052232
          -0.00004396585169173292 0 0 -0.01902066992386048 -0.02438264754980442 -0.02332079814425711
          -0.018238650907527524 -0.01898948168718855 -0.024179396376656486 -0.02305483383657754 -0.018110680530924395 -0.018958293450516618
          -0.023976145203508548 -0.022788869528897974 -0.01798271015432127 0 0 0
          0 -0.00008957272701951832 -0.000020636408695898586 0.000012881771711968397 -0.00003650878929647613 -0.00017914545403903664
          -0.00004127281739179718 0.000025763543423936794 -0.00007301757859295226 -0.004300205614406621 -0.003984834817405594 -0.0045199779710336655
          -0.004274032445201889 -0.004739750327660711 -0.004563230072998182 -0.013363783358483317 -0.012972142137504744 -0.012580500916526174
          0.0000072768405647687355 0.000022397222550005235 0.0008095351082065595 0.00121357867489624 0.0016117933758483505 0.0024047601272424745
          0.0006030754263821626 0.000004624525710650026 -9.786688220620092e-7 0.0012531799149646387 -0.000040938251136500904 0.0003125430530288876
          0.0019032844035471147 -0.00008650102798365184 0.0006260647748798371 -0.006172855530695425 -0.0054591195112717004 -0.00998688517930663
          -0.010608679668508772 -0.006617402483522472 -0.00598738762158606 -0.01019925975479626 -0.010633691353189511 -0.007061949436349517
          -0.006515655731900418 -0.010411634330285892 -0.010658703037870249 -0.018177632943348485 -0.01890267449598815 -0.019683168655642763
          -0.0175711962346334 -0.01835969664837046 -0.019136399139831024 -0.01696475952591832 -0.01781671880075276 -0.01858962962401928
          -0.0012362260560833875 -0.0030028632922598883 -0.0014099719099113963 -0.00322038164944585 -0.0015837177637394047 -0.0034379000066318125
          0.0011504884719640794 0.0002011675607072811 0.0005466259018865825 -0.0009306235816623493 -0.000057236668190914714 -0.00206241472403198
          -0.0014255118309110726 -0.0005272358339827714 -0.001767412495845358 -0.0007989299350288629 -0.0021093131607796433 -0.0010706240360749543
          -0.023413277937554544 -0.02271577354728342 -0.02440664189476768 -0.025588407137817036 -0.022888674728613265 -0.022226194851230705
          -0.024041619159880928 -0.02522311544627326 -0.022364071519671985 -0.021736616155177982 -0.023676596424994183 -0.024857823754729478
          -0.00593346036615785 -0.005916777173349358 -0.008622679837560638 -0.006116012072285467 -0.006196592336232244 -0.008692144287261887
          -0.006298563778413084 -0.006476407499115129 -0.008761608736963133 -0.00005945674338354272 -0.000013082092070101607 -0.00013825137260424446
          -0.00007056605914604489 -0.0002170460018249462 -0.0001280500262219882 -0.0060702345529592815 -0.004342733983976959 -0.0061579854553753125
          -0.004506007274470136 -0.006245736357791344 -0.004669280564963313 -0.0028540234840613277 -0.003608618065986998 -0.0032158224438261773
          -0.004090299382783109 -0.003577621403591026 -0.004571980699579221 -0.0013029593324739282 -0.0005472944443745474 -0.0016536150607443657
          -0.0007348531238225214 -0.0020042707890148025 -0.0009224118032704955 0 0 0
          -3.203124980199491e-7 0 0 -6.406249960398982e-7 0 0
          -0.0006479452145724049 -0.0002896418662485834 -0.0007387115763772159 -0.0007351805300096171 -0.0003443933807473219 -0.0008895507873712556
          -0.0008224158454468295 -0.0003991448952460603 -0.0010403899983652952 -0.02005696316439931 -0.021238196307213554 -0.020976675297585463
          -0.019512360509867346 -0.020703555628012914 -0.020471681390379286 -0.01896775785533538 -0.02016891494881228 -0.019966687483173103
          -0.02190904195381696 -0.02138300913252129 -0.02085697631122562 0 0 0
          0 0 0 0 0 0
          0 0 0 -0.01986234657389719 -0.020744089051415705 -0.01936392285613687
          -0.02038177833750333 -0.018865499138376547 -0.020019467623590956 0 0 0
          0 0 0 -0.02573244425376552 -0.02103547216558172 -0.025455457327828664
          -0.020745768442101138 -0.025178470401891802 -0.02045606471862056 -0.014486635946940789 -0.013393118760024686 -0.014367077847068302
          -0.01347769553395149 -0.014247519747195812 -0.013562272307878294 0 0 0
          -0.0009736821691650106 -0.0010712794145151703 -0.00116887665986533 -0.006862077088188303 -0.0041385562617423715 -0.007336653874764282
          -0.005031222740433961 -0.007811230661340261 -0.005923889219125549 -0.0010744208756745587 -0.001304554608907378 -0.0015346883421401974
          0.0003792051869757352 0.0013228985512243054 0.0022665919154728755 0 -3.203124980199491e-7 -6.406249960398982e-7
          -0.00015669605185539582 -0.00022749992607743065 -0.00029830380029946546 0 0 0
          0.00016032123517523963 0.0011962129743012732 0.0022321047134273068 -0.011244598722907 -0.011443038608884773 -0.01164147849486255
          -0.02676594229399373 -0.02651538589649465 -0.02626482949899557 -0.015398625656314956 -0.014884594747772813 -0.014370563839230665
          0 0 0 0 -0.0001061278754460844 -0.0002122557508921688
          -0.0019120234733512524 -0.0018927316777816502 -0.0018734398822120482 -0.001961040263284352 -0.0019513665037983684 -0.0019416927443123848
          -0.0022405761893901695 -0.002216716387524643 -0.0021928565856591162 -0.0020954813079727746 -0.002084705927339035 -0.0020739305467052946
          -0.0024388415376391318 -0.0024147701270695915 -0.002390698716500052 -0.002434120274080787 -0.0024154728130053927 -0.002396825351929999
          -0.0021630107958480515 -0.0021584055442141234 -0.0021538002925801957 -0.00158794656236631 -0.0016026141767450446 -0.0016172817911237788
          -0.0008503408433442288 -0.0008810473950420068 -0.000911753946739785 -0.0006919402479895675 -0.0004253929219787981 -0.0007506722983465103
          -0.00046534945210290936 -0.0008094043487034533 -0.0005053059822270204 -0.00010822603960127936 -0.000011210603367186003 -0.00001648342098253964
          -0.000156089595800106 -0.0001120197804616378 -0.000011843938058420602 -0.000018154804252215277 -0.0001701888401853752 -0.00011581352132199622
          -0.000012477272749655202 -0.000019826187521890912 -0.00018428808457064444 0 0 0
          -0.00031990600866997024 -0.0003333274242393525 -0.0003467488398087347 0 0 0
          -0.0018717631591734316 -0.0019064661268648748 -0.0018640255479662367 -0.0018975542399347835 -0.0018562879367590413 -0.0018886423530046922
          -0.0020989028324224566 -0.0020885970705004663 -0.0020782913085784756 -0.0017130389213931467 -0.0017080157978077843 -0.0017029926742224213
          -0.0019316193040398745 -0.0019241541185911091 -0.0019166889331423435 -0.0015723148694233452 -0.0015713481838584317 -0.001570381498293518
          -0.00104904750100538 -0.0010553166824513564 -0.0010615858638973327 -0.0005301915861411035 -0.0005373181878816438 -0.0005444447896221839
          -0.00016973416156430067 -0.00017301391079706688 -0.00017629366002983306 0 -0.000013260803523024436 -0.000007891132725574207
          0 -0.000013735259394221075 -0.000008062608993972494 0 -0.000014209715265417715 -0.000008234085262370783
        </DataArray>
        <DataArray type="Float64" Name="disp_x" format="ascii" RangeMin="0" RangeMax="0.000015788910408361263">
          1.405222663294514e-7 0 1.406019400459597e-7 0 1.4050984632717474e-7 0
          1.3924795264191515e-7 0 1.3952494289241626e-7 0 1.3952328628611902e-7 0
          1.3764355193722848e-7 0 1.385775213198725e-7 0 1.3949000764161071e-7 0
          1.3626035858936085e-7 0 1.3819048100134474e-7 0 1.4174301643832015e-7 0
          1.398710535036641e-7 0 1.428805208517915e-7 0 1.5668924160112963e-7 0
          1.8966401509737218e-7 0 1.9890593969827865e-7 0 2.2748580635948498e-7 0
          3.352897434596506e-7 0 3.444476959543523e-7 0 3.7360335585666583e-7 0
          6.070020225452008e-7 0 6.087894497466397e-7 0 6.181311139558185e-7 0
          0.0000010772894773773336 0 0.0000010589449260169481 0 0.0000010048615690581771 0
          0.000002021603801569807 0 0.0000019576606324303137 0 0.0000017460474133780454 0
          2.8094080490755433e-7 2.812540987860709e-7 2.8126984497909856e-7 2.782800030672294e-7 2.790863878308791e-7 2.7958332040582385e-7
          2.7498976546150087e-7 2.7730147854449553e-7 2.8033822602687017e-7 2.7272482248384496e-7 2.7601156384569416e-7 2.8491562946514556e-7
          2.8414926054538464e-7 2.9330748468631025e-7 3.2609267316568106e-7 3.9967239620190294e-7 4.1692272266614343e-7 4.711696552608242e-7
          6.953674785357477e-7 7.120614763677663e-7 7.65704316829929e-7 0.000001238598592111038 0.0000012414389650900943 0.0000012559936944756341
          0.000002168693724018174 0.0000021326021694257267 0.0000020301239488995527 0.000003941530516297361 0.0000038249413621676265 0.0000034469691308451494
          4.2110170927070144e-7 4.219636300012167e-7 4.226078193916063e-7 4.16786044327334e-7 4.187088323912096e-7 4.2115576937667587e-7
          4.1236125029328087e-7 4.160233600677257e-7 4.2290094432614505e-7 4.0945678843382154e-7 4.152338174171477e-7 4.37159035047482e-7
          4.480373984443126e-7 4.6473344203056084e-7 5.190612871627614e-7 6.473013038853137e-7 6.710942138636442e-7 7.464514729437641e-7
          0.0000011023495703609263 0.0000011237523049075136 0.0000011932281368805126 0.000001917457964268883 0.0000019192146390433783 0.0000019311229296965483
          0.0000032730321820422978 0.000003222053827799507 0.0000030814903657532572 0.000005678633626439408 0.000005528851009028409 0.00000505355471698074
          5.607360606972331e-7 5.626110930003123e-7 5.652263380494421e-7 5.549333568692402e-7 5.585305578292418e-7 5.648676178335552e-7
          5.492830394353952e-7 5.544087664380525e-7 5.708344092066646e-7 5.538923426839916e-7 5.669775835768706e-7 6.11277467097561e-7
          6.474634551725557e-7 6.710276261279979e-7 7.45546318060291e-7 9.479846182441084e-7 9.76542732074699e-7 0.0000010668389888492275
          0.00000157358773864536 0.0000015961504587774663 0.000001670086871290578 0.0000026555014019271654 0.000002653091573717629 0.0000026529439279036802
          0.000004381951661107317 0.00000432027319064265 0.000004151533230061826 0.0000071728767905850485 0.000007013302666262909 0.0000065202027462352535
          6.997502361213733e-7 7.033312666026335e-7 7.095995623701687e-7 6.928956633580135e-7 6.981494039530896e-7 7.135787341663515e-7
          6.879288961316249e-7 6.991846482398688e-7 7.3750148451064e-7 7.253225539268616e-7 7.473011888225918e-7 8.156564144893377e-7
          8.955240351652008e-7 9.248965788389697e-7 0.0000010166546441140798 0.0000013150705332357465 0.0000013458265009373784 0.0000014426367597475254
          0.00000211876799649725 0.0000021385307291741135 0.000002204806927395754 0.000003451114637998881 0.00000344204746231618 0.0000034211248053274213
          0.000005473416085462083 0.000005404272201795766 0.000005216728010532724 0.000008444763898517309 0.000008295730408364626 0.000007840180195708123
          8.38797440678378e-7 8.439478777000424e-7 8.59059278537436e-7 8.310322919482854e-7 8.422609381665384e-7 8.779368878490277e-7
          8.457205888212558e-7 8.665884412603638e-7 9.301024215393485e-7 9.406230429469948e-7 9.696375145139175e-7 0.0000010591086095185004
          0.0000012056645024437923 0.0000012384510568596143 0.0000013407706291745157 0.0000017577878377029592 0.0000017871314832728087 0.0000018802386732397025
          0.000002737944073873006 0.000002751494320625212 0.000002799341322259053 0.00000428827538973659 0.000004271233467414567 0.000004224661660859911
          0.000006521807450543275 0.000006450076586892354 0.000006251841788434167 0.000009503062630086593 0.000009377493666045 0.000008991330049015942
          9.787771885370154e-7 9.885777485459501e-7 0.000001019746467703657 9.871401447213783e-7 0.0000010050259442798372 0.000001061399326847843
          0.000001045033300035407 0.000001070767055115475 0.0000011534943258233327 0.0000012165023208502047 0.0000012471841876646786 0.0000013473486419528498
          0.0000015903920283030584 0.0000016210202770917601 0.0000017217598401076723 0.0000022798217680130845 0.00000230321172047195 0.000002380981702726761
          0.0000034206562036788103 0.0000034262639572278346 0.000003448817834413099 0.0000051403137354712045 0.000005117222014742715 0.000005047073618338546
          0.0000074947365205433555 0.000007428615936130952 0.000007232228416255018 0.00001037023509185879 0.000010277062101281633 0.000009974913735306354
          0.0000011386880440179626 0.0000011489772705797778 0.0000011914872820704983 0.0000011839768054077319 0.0000011997842527443736 0.000001264695912037003
          0.000001305636187044263 0.0000013259885363870888 0.0000014092982504076048 0.0000015687766839953092 0.0000015912253789055378 0.0000016814460576486619
          0.0000020577068129083267 0.0000020782992492220715 0.0000021588969168489735 0.000002877045561503083 0.000002890342003173544 0.00000294105314736924
          0.000004148010204116801 0.000004146847484883398 0.000004143702218773026 0.000005973289945533883 0.0000059512186363322725 0.000005870393821301883
          0.000008361543999372558 0.000008312693962158122 0.000008141475608974876 0.000011074409743108774 0.000011018983027282117 0.000010809192586320963
          0.0000016319897050374952 0.0000016501488900833753 0.000001707985419690286 0.00000199669584706379 0.0000020149336679772658 0.0000020717258153090583
          0.0000025998575777645523 0.0000026147245076604475 0.0000026591910820893966 0.000003532670570986374 0.0000035399600185400437 0.0000035588876378420366
          0.000004896062935643651 0.000004890958785926319 0.0000048701567201176055 0.000006763701344861249 0.000006742064015989561 0.0000066697537796955684
          0.000009110082896439385 0.000009070807896768839 0.000008947874442283126 0.000011642466563977948 0.000011603273899567517 0.000011480175280207725
          0.000014695710495370585 0.000014375744082923608 0.00001438053313388837 0.000014701880138309571 0.000014693659741380092 0.000014352232747201055
          0.00001437860359989564 0.000014700446547700965 0.000014665295416870944 0.00001445476220373181 0.000014390764267282244 0.000014708801147326118
          0.000015000106107998568 0.000015021910382896636 0.000014993592106015014 0.00001502157710319964 0.000015024790108094502 0.000015033323429168252
          0.000014981712880207964 0.00001521075004293984 0.000015220606311379912 0.000014963646173346608 0.000015206717494011475 0.000015207751855791786
          0.00001500176095119966 0.000015225628075441944 0.000015248208454976791 0.000003957921926824044 0.000006065926588788092 0.00000491200292570058
          0.000003480891629953149 0.000003784153382107412 0.000005822745097647983 0.000004680035500412887 0.0000033067936828855314 0.000003258692645163855
          0.000005067221051175835 0.000003983542763271531 0.0000028096380048684103 0.000013093660350854108 0.000013310856761453664 0.000013861638348469707
          0.000013760196504813034 0.00001297166045084295 0.000013217456648501919 0.000014078864663161503 0.000013787128038946997 0.000012584069267368183
          0.000012737968440977433 0.000014583596826029432 0.00001381936586628277 0.000007519840229070989 0.000008371591186437928 0.000006997761317198201
          0.000006166589686597671 0.000007327675620023507 0.000008144841556755699 0.000006768193603917782 0.000005984110214904227 0.000006718346804801582
          0.000007443262403102611 0.000006064271859953291 0.000005400149813314583 0.000011755493972359834 0.000010973551324200563 0.000011876633147377786
          0.000012583086922020659 0.00001163561878174635 0.000010837147519210875 0.000011793592605324564 0.00001251357232960892 0.000011223014222051777
          0.000010412499355802411 0.000011515761097036109 0.000012241069586901388 0.000011857000280451608 0.000011285059048474644 0.000011806755215744559
          0.000011208240331978633 0.000011630522211064342 0.000010944576538568804 0.000005912336977520326 0.000007695950820255534 0.000005695504857823066
          0.000007437975163682157 0.000005027077761431954 0.000006637972819445478 0.000014827267466809472 0.000015068880666596914 0.000015123397304138112
          0.00001480845430933224 0.000014823598287752308 0.000015056726834089617 0.000015104934777917779 0.00001480627769178783 0.000014737791349924877
          0.000014998553771896182 0.000015024889433789007 0.0000146857995355256 0.0000011201486170215673 0.0000024832195376025668 0.0000018851170541180827
          0 0.0000010844542776970245 0.000002397066461482743 0.0000017991046735317327 0 9.440323670352643e-7
          0.000002098028211682956 0.00000154109363034947 0 0.000007251110659950833 0.00000645902769970275 0.000006970008948015479
          0.0000061790512507184125 0.0000060755412773967335 0.0000052689834557928445 0.000014325111359907731 0.000014212504335132429 0.000014626662733557264
          0.000014731886558954357 0.000014324934590918956 0.000014211259509348479 0.000014626273589427015 0.000014731942734850701 0.000014320120888451962
          0.00001420655029669398 0.000014627175682904411 0.000014736926243754682 0.00000928394625976374 0.000005071979186338586 0.000004962802523582945
          0.000008291063474477835 0.000009127028504315093 0.0000049744830822445696 0.0000048328621420309955 0.000008046217755599055 0.000008005090188460433
          0.000004206521515208613 0.000003992454602807463 0.0000067571264129391865 0.00001544825396741832 0.0000152918302263923 0.000015253947107300782
          0.00001542927102685725 0.00001540935755810259 0.00001526018758800894 0.000015228987893313344 0.000015416681647995457 0.00001553704786398825
          0.000015295034226644216 0.00001530555367099974 0.000015370796288819564 0.0000103893128293508 0.000010804666603177517 0.000010226093571345478
          0.000010637987461812707 0.000009704816298313928 0.000010081813085101767 0.0000044963133788493696 0.0000043359382563493004 0.0000038273975943254635
          0.000014538489064448058 0.000014225761500742836 0.000014526910499403838 0.000014225612404560043 0.000014406808294433744 0.00001471710155376385
          0.000013949110520386798 0.000013764560152926075 0.00001403112407622313 0.000014118685663887673 0.000013706058746260209 0.000014026278077495344
          0.000014945036937297564 0.000013491317401965752 0.000013980286668327827 0.000011000901722301006 0.000011943959264011827 0.000011061070098806339
          0.000009229890369212585 0.000010738692450789528 0.000011701910054634006 0.000010726914207707226 0.00000890737336306114 0.000009940725199767365
          0.000010990006574046559 0.000009781513572276574 0.00000793640003490639 0 0.0000018688845941652822 0
          0 0.0000017731384707128945 0 0 0.0000015075535158967297 0
          0.000012444734493474208 0.000010708180105412638 0.000012397611000398185 0.000010589373268070736 0.000012233486896509242 0.000010233153438656957
          0.000014182349981698081 0.000014456037085831818 0.000014312332126012354 0.000014316841722170352 0.000014405255260646831 0.000013841681724540172
          0.000013045398976922727 0.000013538727384056494 0.000012963974618072137 0.000013496693500184517 0.00001255800588851851 0.000013322125100774987
          0 0.0000020202264552278587 0.0000025070957656978195 0 0 0.000001919498636864683
          0.000002410530614305706 0 0 0.0000015493525645454086 0.000001907496627351842 0
          0.00000975940036672764 0.000010489783943582265 0.000009120202426723821 0.000009553242411100104 0.000010275514719619475 0.000008867030716635481
          0.000008902712437394868 0.000009567256658627025 0.000008087526258271816 0.000013974604116564369 0.000014113557785656244 0.000013976397296043882
          0.000014113451412235964 0.000013961391606124863 0.000014109719164567677 0.00000901002786422971 0.000009864442890777144 0.000008825879084035217
          0.000009712904306856099 0.000008257190281747067 0.000009254096552931904 0.00001215550150350554 0.000012283298957585208 0.00001202712904172693
          0.000012109101584179178 0.000011527639909962328 0.000011492182427090977 0.000012819205572289762 0.00001334242375297299 0.000012738560600403807
          0.000013312793869528465 0.000012415219779492886 0.000013190988823730968 0.000015399116966150686 0.00001522668743102721 0.0000153865126117484
          0.000015389541131169873 0.000015224232171888377 0.000015381768865701043 0.00001539458686870246 0.000015241512118668748 0.00001539284639738856
          0.000013200812301908726 0.000013782935524611584 0.000013076158479852773 0.000013179289575713276 0.000013776846276262102 0.000013041268783597636
          0.000013111088043414419 0.000013754475538736231 0.000012917941329454038 0.0000017306197401233045 0.0000014132366637201506 0
          0.0000016418109254220242 0.000001343520776157282 0 0.0000013502188822937037 0.000001092722159699785 0
          0 0 0 0.000015373755826791034 0.000015217345053671154 0.000015164335612786676
          0.000015371587564226086 0.000015373484266664526 0.000015218019816316886 0.000015165418058228168 0.000015371921128399355 0.000015383702733955918
          0.000015229142565139069 0.000015175433944338143 0.000015381131156407265 0.0000032628237434462565 0.000003852185658613994 0.000003098976880243192
          0.0000036684570751100524 0.0000025716157130666253 0.0000030500130392726747 0.000015229204614021692 0.000015377942455861452 0.000015229055863849026
          0.000015376113307174366 0.000015241734988509967 0.00001538805621619839 0.0000027062751443242915 0.000005314177407485871 0.000002634195871129384
          0.000005108578208247124 0.0000021435781908872445 0.000004124969572258288 0.000008940096779633634 0.000010576454828615907 0.000008605171279099636
          0.000010327125451148238 0.0000075008667091566646 0.000009189737951054416 0.000015025141991493739 0.000015025987087090812 0.000015036680386091209
          0.000012474198417676423 0.000012435136896417108 0.000012328011671604848 0.000012903869932464062 0.000013608544871790274 0.000012726934959799695
          0.000013622732775271654 0.000011990055021280633 0.00001309620965517753 0.000012661735058071437 0.000012615151357682925 0.000012419203253075485
          0.000014296651827091128 0.000014334899722939176 0.000014518207098822457 0.000015414584644966796 0.000015401216021342707 0.000015386299006142913
          0.0000138160070450994 0.000013812639010365815 0.000013780044633311899 0.00001502220017721737 0.000015024201968028304 0.000015031310957631337
          0.000014312745984179735 0.000014559583410190886 0.000014749809003006222 0.000012673343484618224 0.000012515654689055999 0.000011405389267146467
          0 0 0 0 0 0
          0.000015372242084598005 0.000015373142483379367 0.000015381405261584403 0.000015455682264589795 0.00001539740653875514 0.000015577784976274262
          0.000003993098930312763 0.000003996639747732287 0.000003997178863694837 0.0000062282103341091135 0.000006225227898549505 0.0000062232705953406076
          0.000004991197279893269 0.0000049897218600507415 0.0000049758022329116975 0.000007489874139606985 0.0000074822955651834 0.000007466255920499951
          0.0000062637507658193274 0.000006256389069362233 0.00000622813597171308 0.000007825992127723945 0.000007812604602184494 0.000007772170650171797
          0.0000096477310715591 0.000009629175280976725 0.000009581252843390022 0.000011588423648385985 0.000011569488187238338 0.000011524772936388183
          0.000013366528543695007 0.000013359463737299323 0.000013338667074436208 0.000013219877522833618 0.000013706550741046063 0.000013205827184252021
          0.000013704896944565338 0.000013163560655459386 0.000013683139822170783 0.000014508337068252447 0.00001489378985800858 0.00001464203812794292
          0.00001418342228087735 0.00001450660955204409 0.000014894266031212359 0.000014641560763276713 0.000014181594327505194 0.000014502803337811538
          0.000014896202838193811 0.000014642350961213712 0.000014175577273315446 0.000015038261924577251 0.000015039622850655629 0.000015045397322195863
          0.000014090392090164753 0.00001408818608917127 0.000014076193350762061 0.0000155155137360751 0.00001551674476056881 0.000015521298888094263
          0.000009944778189338913 0.000008582648680443282 0.000009938048140344452 0.000008579890791547737 0.00000991656279306272 0.000008570127585848436
          0.00000893206712256831 0.000008920564358796223 0.000008890856944821081 0.000011364569267538932 0.00001135431558890852 0.000011322146107274524
          0.000010497616912812697 0.000010483766498487031 0.000010443079672586894 0.000012075861315975594 0.00001206200047861274 0.000012016665156864023
          0.000013488852157656207 0.000013480087395683058 0.000013441999419348504 0.000014484393176282692 0.000014480177502969764 0.000014464890243491671
          0.000014776337814707518 0.000014774141290796142 0.000014769737692667245 0.000015784758888350408 0.000015182046465396826 0.000015600342579462956
          0.000015785782021407475 0.000015182264224722525 0.000015600479846840125 0.000015788910408361263 0.00001518344710384343 0.000015601206617340057
        </DataArray>
        <DataArray type="Float64" Name="disp_y" format="ascii" RangeMin="-0.000012104886487519427" RangeMax="-0.0000025526346639562362">
          -0.0000025529885301733094 -0.0000025527160463306466 -0.0000025529377129301033 -0.0000025526816119133247 -0.0000025528981183204934 -0.0000025526346639562362
          -0.0000026675606187163105 -0.0000026668671300422375 -0.000002667337133941106 -0.00000266668668232414 -0.0000026669171401710195 -0.000002666333579340879
          -0.0000027738993008305063 -0.0000027723380295812407 -0.0000027731784179445103 -0.0000027717755050582838 -0.0000027720742754314185 -0.0000027707916400369577
          -0.0000028686926517147157 -0.0000028653974479703066 -0.000002865591303767621 -0.0000028628780128030804 -0.000002860370060162165 -0.000002859048046893189
          -0.000002951352092479211 -0.000002944716067449537 -0.0000029422499397197484 -0.0000029357886212196026 -0.0000029198467018856258 -0.000002914985028389994
          -0.0000030521806647282937 -0.000003035639050548697 -0.0000030339114577934486 -0.0000030171387616741135 -0.0000029772527258900417 -0.000002960895144185718
          -0.0000032379299943754077 -0.000003205254075756134 -0.000003204974512646866 -0.0000031721465620906937 -0.0000030967679085542384 -0.000003063206197988656
          -0.000003582676749643377 -0.000003528493205212861 -0.000003526569293318704 -0.000003471653638116062 -0.0000033449904800430576 -0.00000328703791517402
          -0.000004162802227637263 -0.000004070164852999216 -0.0000040843905655146706 -0.00000398835637396359 -0.000003794297477438512 -0.000003686544982756754
          -0.000005033647970583748 -0.000004868421959964747 -0.000004930916486774746 -0.000004761094776609325 -0.000004529693735396059 -0.000004324924774823212
          -0.00000255380480182871 -0.0000025536900706219526 -0.000002553612117193687 -0.000002669631275601808 -0.0000026692379174200534 -0.000002668640605943287
          -0.0000027787331365142063 -0.0000027773868626020357 -0.0000027753774664115343 -0.000002878094668671182 -0.000002873609344478256 -0.000002864458529380186
          -0.0000029727125307818295 -0.0000029634279893047816 -0.0000029372111685426075 -0.0000031049027089709236 -0.0000030868682610399575 -0.000003028773160375704
          -0.0000033368207601445228 -0.000003304560819393689 -0.000003198653681345844 -0.0000037468460445599167 -0.0000036929977910158727 -0.0000035206697658914233
          -0.000004430959731927081 -0.0000043603568612645105 -0.0000041027973832320475 -0.000005500684899403075 -0.0000054132289200141454 -0.000005093138637058173
          -0.0000025551451274912615 -0.0000025548594953037333 -0.000002554591246465771 -0.000002673200666390735 -0.0000026723504895513146 -0.0000026712528024426406
          -0.000002786883619111595 -0.0000027841577367782623 -0.000002779119419770312 -0.000002893958546842739 -0.0000028881822235926712 -0.0000028737698260851035
          -0.0000030149089701132172 -0.000003005403527094869 -0.000002974413409893261 -0.000003199861954302383 -0.000003181893366423975 -0.0000031218504812452702
          -0.0000035054293215839965 -0.0000034744916457827144 -0.0000033729736349347297 -0.000004020466232266829 -0.000003970820764617068 -0.0000038141070693824254
          -0.000004856401730816736 -0.000004797025251443388 -0.000004585072400447586 -0.000006069514607278204 -0.000006009578904248651 -0.00000580694628542241
          -0.0000025570504302446502 -0.0000025563456456592384 -0.000002555577083076827 -0.0000026785155836227113 -0.0000026766375292778365 -0.0000026732664113100074
          -0.0000027978696116712977 -0.0000027934236610405474 -0.000002783763400063354 -0.000002920985131921342 -0.000002914820121082987 -0.0000028951457504312103
          -0.000003086817786155585 -0.0000030768474721478388 -0.0000030405436023715823 -0.000003343636924087334 -0.000003325864429410458 -0.0000032647121388743316
          -0.000003748235453346196 -0.0000037194528510995203 -0.0000036249420853109914 -0.000004395471638801877 -0.000004351707198476594 -0.0000042166440147638105
          -0.000005389804398170845 -0.000005344138560491789 -0.000005186050221456768 -0.000006743690261029571 -0.000006714860018132023 -0.000006628063236145602
          -0.00000255975939929272 -0.0000025581879308602585 -0.000002555401162545794 -0.00000268537187715404 -0.000002681768624734871 -0.000002674443015396625
          -0.0000028139622165329017 -0.000002808934208439982 -0.0000027947113837859924 -0.0000029689229617916203 -0.0000029624169206296015 -0.0000029371575149111176
          -0.0000031961398748904927 -0.000003185393250939669 -0.0000031445839701177355 -0.00000354230941651735 -0.000003525075280499426 -0.0000034648266392572266
          -0.000004066276991094374 -0.000004040244964012304 -0.0000039558239696381 -0.00000485530109931895 -0.000004819442203953886 -0.000004711203717067042
          -0.000005985231794333334 -0.000005954941398735499 -0.000005853700245087838 -0.0000074343960993525705 -0.000007422646298596142 -0.000007412097347671994
          -0.000002563190277308967 -0.000002560194692242893 -0.000002553928336208337 -0.000002694417636698775 -0.000002690111816392215 -0.0000026786868424061766
          -0.0000028439599252246713 -0.0000028387921317681443 -0.000002819307744274262 -0.0000030465665594920903 -0.000003039004660477221 -0.0000030081182652340544
          -0.0000033489146550524743 -0.000003337432966413825 -0.000003293943357750169 -0.0000037995897029204734 -0.000003783098034448545 -0.0000037262351527918615
          -0.000004453873297798621 -0.000004431161770575735 -0.00000436016385305315 -0.000005377173776557136 -0.000005350670219827528 -0.000005272318411551185
          -0.000006606945878567153 -0.000006589155119711164 -0.000006537953370820956 -0.000008058362120038536 -0.000008063985984257689 -0.000008108482176818884
          -0.0000025678814801741904 -0.0000025642446622512117 -0.000002554262997552448 -0.000002713041264669967 -0.000002708398100721912 -0.00000269186681799385
          -0.0000028972289850325667 -0.000002890797471411014 -0.000002865230803745876 -0.0000031598900182298407 -0.000003150696633452216 -0.0000031151394958209454
          -0.0000035491393502355936 -0.000003536776960043668 -0.0000034925620439140535 -0.000004113756442107666 -0.0000040979786944811016 -0.000004046942286346803
          -0.000004898597750278869 -0.000004879854224482624 -0.000004824994205828927 -0.000005936255177118958 -0.000005919097872908864 -0.000005870535455256423
          -0.000007217981068059722 -0.00000721200903572025 -0.000007203019736907536 -0.000008626232288158941 -0.000008641352605604199 -0.000008714142167590175
          -0.0000025803913411419353 -0.000002575971426117782 -0.000002561294698701845 -0.0000027501562353694327 -0.000002743735885418194 -0.0000027209180874757747
          -0.0000029802765806691415 -0.0000029712930210669497 -0.000002939389923039799 -0.0000033133801922259397 -0.0000033017487088393323 -0.0000032621519472836033
          -0.0000037970511640101952 -0.000003783492409959956 -0.0000037397780302168513 -0.000004475680179292675 -0.000004461459341153357 -0.000004418272472897805
          -0.000005380429769507584 -0.000005367571536178827 -0.000005330693756974209 -0.000006507533763623793 -0.000006501269295767322 -0.000006481518604231987
          -0.00000779707006220053 -0.000007801493110873695 -0.000007824211363053797 -0.000009138426689303181 -0.000009155154594105004 -0.000009239958151937488
          -0.000003097194572636003 -0.0000030861549202826648 -0.000003047989906706272 -0.0000035074508125096146 -0.0000034940833743476835 -0.0000034516517875640024
          -0.000004086546524858241 -0.00000407230591071103 -0.000004031526567359138 -0.000004871073989979248 -0.0000048581226959297245 -0.000004826276917805089
          -0.000005876269166932193 -0.000005867150841843226 -0.0000058518547083864235 -0.0000070701739094962 -0.000007070302004048517 -0.000007081296695862064
          -0.000008345876316620201 -0.0000083560688301115 -0.000008407527410378638 -0.000009540416669101618 -0.000009563983097318902 -0.000009638441979480563
          -0.00000956941649688212 -0.000009568749155057422 -0.000009816383521495136 -0.000009892647813942798 -0.000009607656904882937 -0.000009611005568756454
          -0.00000984637356906907 -0.000009917857098443171 -0.000009671403033024183 -0.000009698774035904691 -0.000009925762847331474 -0.000009961962223945296
          -0.000009680803506730722 -0.000009933717418687985 -0.000009712851431042701 -0.000009952456224245638 -0.000009745540848452987 -0.000009996735960452837
          -0.00000940476999595692 -0.000009689336541038415 -0.00000947023643532661 -0.000009437772782056252 -0.00000971893212569383 -0.000009507356846122334
          -0.0000095880161807058 -0.00000975965550467444 -0.000009606428344424493 -0.0000059259672080368215 -0.000006472420103792035 -0.000006466864121351741
          -0.000006222453531494382 -0.000005804460656262511 -0.000006381321772687512 -0.000006338455470978822 -0.000006066213608987364 -0.00000530900396617752
          -0.000005977660339242449 -0.000005757913462722913 -0.0000054326599680335545 -0.000008336894223631951 -0.00000880096577295952 -0.000008756221052261106
          -0.000008380367775096348 -0.000008419421558950129 -0.000008987889111514953 -0.000008906561747371182 -0.00000842216293280679 -0.000008417246536287595
          -0.000009172647090311264 -0.00000858288694723756 -0.000008565920788407537 -0.000006786620599394637 -0.000007124970758978426 -0.00000657317268200934
          -0.000006302524531732999 -0.00000675512048602701 -0.000007111049211067771 -0.000006534322075851255 -0.0000062433581337184625 -0.000006651845946499321
          -0.000007032082267228976 -0.0000063451348677371465 -0.000006019957055639517 -0.000008852835493088033 -0.000008599219946955555 -0.000009183976659725336
          -0.000009319984556532348 -0.00000888658188698884 -0.000008616787226317195 -0.000009204412625693898 -0.000009350620277002882 -0.000009030440250218578
          -0.00000872835640241343 -0.000009326120519748529 -0.000009490805264653961 -0.000009510901946693617 -0.000009052487241550391 -0.00000953372794598464
          -0.000009069710663809373 -0.00000963936179848193 -0.000009168435906023817 -0.000006272074509652037 -0.000006773547612867174 -0.000006195773181718483
          -0.000006753565021384879 -0.000005882108737826706 -0.000006602603645209635 -0.000009123648217420433 -0.000009143861776949937 -0.000008854841797715881
          -0.000008715893371711256 -0.000009188255509043027 -0.00000918424061059582 -0.00000890963678213093 -0.000008778270229691876 -0.00000925736512085668
          -0.000009342557057718189 -0.000009126166618762272 -0.000009191489312742011 -0.000005120754716053275 -0.0000053475427063306755 -0.000005561144177828706
          -0.000005260866429154605 -0.000005010166945879213 -0.000005235600741815766 -0.000005432846350281464 -0.000005135320173186015 -0.000004554103189119327
          -0.000004790390405598851 -0.000004892915228311762 -0.000004612979338140235 -0.000006920900704072986 -0.000007042866769116326 -0.000006849310992099051
          -0.000006909640993469514 -0.000006485340678828917 -0.000006303865216469859 -0.000010076216680691393 -0.000010418275540266621 -0.000010469488421343442
          -0.000010214052776233881 -0.000010100807407412586 -0.000010436787862800438 -0.0000104850011848318 -0.000010231149151190702 -0.0000101618217860059
          -0.000010484865014514172 -0.000010519946762145992 -0.000010271561251835774 -0.000009940163324492519 -0.000010845562701215296 -0.000009691962630999633
          -0.000008524468013346475 -0.000009633445409940355 -0.000010421061175384818 -0.000009313814327665286 -0.000008314637435854225 -0.000008718765179239495
          -0.000008462984089790656 -0.000007764818078197494 -0.000007723174820033826 -0.000009112032658702535 -0.000009088204252051767 -0.000009248974343740146
          -0.000009328183789434661 -0.000009155628953012301 -0.000009130460679084236 -0.000009277299377441314 -0.000009364266950956529 -0.000009305390204039654
          -0.000009378980930587042 -0.00000950136234580375 -0.000009532980857838855 -0.00000815198216114945 -0.000008269542687578259 -0.000008165547096237009
          -0.00000829335653288365 -0.000008246140355407244 -0.000008402679059375017 -0.00000577557189821645 -0.000005676129249437566 -0.000005312861329747494
          -0.00000921867750816748 -0.000009306134729468513 -0.000009303820075474786 -0.000009357050044447072 -0.000009377543465950451 -0.000009192336153178252
          -0.000009118145912371832 -0.000009172928873668632 -0.00000947797670428665 -0.000008954543234247253 -0.000009197577196768998 -0.00000949960636578048
          -0.000008703330165252668 -0.000009448247683372816 -0.00000970267934062301 -0.000007951355143610992 -0.000008117661061287013 -0.000007453414919106398
          -0.0000072070876647924655 -0.000008020859227449132 -0.00000818898417078454 -0.000007512111840764223 -0.000007224134268749883 -0.000008111858779982422
          -0.000008257670557584676 -0.000007691648662621456 -0.000007173065156229624 -0.000005675323659445255 -0.0000060830305375994666 -0.0000061253477240478476
          -0.00000551952924287583 -0.000005906348393957362 -0.0000059296424332644335 -0.000004896972613204486 -0.000005225084869366762 -0.000005187215785037869
          -0.000009670054401906095 -0.0000086447493230313 -0.000009695643568160309 -0.00000866052403195577 -0.00000981290148963104 -0.000008754035515894578
          -0.00000867026988755926 -0.000008346418338748507 -0.000008834687975941622 -0.000008270759572939786 -0.000008797927515139045 -0.000008809461634792341
          -0.00000902943871643003 -0.000009450851792729598 -0.000009072116560118869 -0.000009479509147701549 -0.000009265397929593865 -0.000009652959921353326
          -0.000008808968600817895 -0.000008009558111402316 -0.000009007779850200511 -0.000009863472188198347 -0.000008395499606620096 -0.000007665619516552665
          -0.000008610931382728158 -0.000009383445268058784 -0.0000067109639388936605 -0.000006396667022445666 -0.000006997369141696187 -0.00000726361410066043
          -0.00000778962417801989 -0.000007938041958358616 -0.000007354497735604429 -0.000007800061988846414 -0.000007975789503069436 -0.000007354129766338886
          -0.000007829337277482535 -0.00000803829958055036 -0.0000072851185486407684 -0.000009844798002655938 -0.000009715614704555232 -0.00000988066175112805
          -0.000009753002551071148 -0.000009984638163272853 -0.000009867126408176472 -0.000007520201326625148 -0.000008079345626549741 -0.000007510058094007441
          -0.000008079004125005056 -0.0000075102797855234695 -0.000008136779892318919 -0.000008792058291723138 -0.00000852996234878765 -0.000008839615459022711
          -0.000008621800789942758 -0.000009005958935224474 -0.000008802834647137796 -0.000009209809880663993 -0.000009729287505711156 -0.000009242418645428036
          -0.00000975809939595375 -0.000009401577472956481 -0.00000987675535544295 -0.000009726076098119307 -0.00000987434540252061 -0.00000990752708635967
          -0.000009752922931662528 -0.00000989512799408786 -0.000009926719765058437 -0.000009791299196815737 -0.000009929899313688806 -0.000009960699700879013
          -0.00001015351688800118 -0.000010340592230554132 -0.000009826930835957806 -0.000010175840747397447 -0.000010362948066523269 -0.000009855111192856593
          -0.000010255693520916785 -0.000010434154121619777 -0.000009969874557863481 -0.000006505409495821797 -0.000007200544887949499 -0.00000696792295226791
          -0.000006280778023408573 -0.000006914774566371925 -0.000006695490678387133 -0.000005466452412692095 -0.0000058760476176664815 -0.000005680376393159685
          -0.000007845725413177815 -0.000007501018332358098 -0.0000061820129845467555 -0.000010236308420624485 -0.000010176853422510726 -0.000010322838275722678
          -0.000010388529244462541 -0.00001024951345540777 -0.000010191312978400113 -0.000010335784217137399 -0.000010399967823687882 -0.000010281396065175247
          -0.000010225155032248892 -0.000010367601455163224 -0.000010428744363771553 -0.0000067929300006677205 -0.000007480971616565693 -0.000006573343867986621
          -0.000007220137064258859 -0.00000577283609645204 -0.000006297410474643964 -0.00001003676461973531 -0.000010076320095416103 -0.000010053026142709977
          -0.000010091745886977044 -0.000010089239931692045 -0.00001012509781125251 -0.00000971687932691725 -0.000008329511639625245 -0.000009287592610677159
          -0.00000803203889931184 -0.000007442897734294546 -0.000006967097474639801 -0.0000074672841635270695 -0.000008048153388073236 -0.0000073929672792402446
          -0.000007960660028559915 -0.000007044512134477913 -0.000007995075544494822 -0.000010163329696803859 -0.000010179094011939535 -0.000010214072901641339
          -0.000009886493599714684 -0.000009913809669711075 -0.00000998884393310474 -0.000007642288778860075 -0.000007539316128545098 -0.000007777035568874206
          -0.000007715730639288168 -0.000008234944582013594 -0.000008636845100198192 -0.000009514869183303323 -0.000009537524795241211 -0.00000965792592698903
          -0.00000883757383221483 -0.000008883014338568364 -0.000009236700804839604 -0.000009532550707074938 -0.000009567138870578468 -0.00000964130298925846
          -0.000010029696940283547 -0.000010059615469576964 -0.000010149936950908376 -0.000010513251199120176 -0.000010524939314024888 -0.00001055296716249523
          -0.00000840055853081757 -0.00000867152312494784 -0.00000908322144523461 -0.000008551984971303414 -0.000008449785087256654 -0.000008875248067309902
          -0.000010929360173141198 -0.000010391862136836605 -0.000007804662645511896 -0.0000050212401565243785 -0.000004907353111537788 -0.000004443791709943491
          -0.000010533001155329042 -0.000010542925141307442 -0.000010568664102092453 -0.000008899211635678706 -0.000008949999933294692 -0.00000911021216861287
          -0.000004508827959982741 -0.000004499181636918997 -0.000004470336326796018 -0.000005749670085122576 -0.000005744950163744528 -0.00000573065102325456
          -0.0000053679660877299235 -0.000005361044315251053 -0.000005339760723215346 -0.000006761396049995446 -0.000006759566382846405 -0.00000675409618564314
          -0.0000064077364498978795 -0.000006405368090798203 -0.00000639689275188826 -0.000007591035923357227 -0.000007594702932195101 -0.000007604268879902327
          -0.00000882492765831435 -0.00000883775108515443 -0.000008871099711987648 -0.000009962984775761337 -0.000009980918538818882 -0.000010043777797681524
          -0.000010853040066345098 -0.000010871029835848852 -0.000010935642325231713 -0.00001044092584575394 -0.000010673453206749633 -0.000010461639992727822
          -0.000010689872102321537 -0.000010529806117449546 -0.000010751300746939026 -0.000011209994880773986 -0.000011294272329269259 -0.000010855807758335968
          -0.000010797657906133644 -0.000011220633400172809 -0.000011302178472561069 -0.000010867412054484125 -0.00001081275020675739 -0.000011249789127026385
          -0.000011323792990721358 -0.00001089733943035337 -0.000010856835396108664 -0.000010900822257155233 -0.00001091003065095005 -0.000010933207619830147
          -0.000011102097623915834 -0.000011116616899444471 -0.000011156631869591475 -0.000011471894414913939 -0.000011477786817303718 -0.00001149246770978466
          -0.000008100947971265038 -0.000007057493834349051 -0.000008103715056623774 -0.000007057069306661813 -0.00000811208507885397 -0.000007056009236669952
          -0.000007876365563941066 -0.000007878574254543968 -0.000007885354243736158 -0.000009155717930309084 -0.000009162077880548783 -0.000009181240520597505
          -0.00000902646843604368 -0.000009033626664615678 -0.000009055862827130872 -0.000010104668989749072 -0.00001011710676214297 -0.00001015562812707668
          -0.00001097996613021795 -0.000010994890169954301 -0.000011044039108831895 -0.00001153854070841188 -0.000011550491034540377 -0.000011588401952151329
          -0.000011639569553782983 -0.000011648590523675658 -0.000011673000206572838 -0.000012012456417889712 -0.000011708239763916187 -0.000012087642502327032
          -0.00001201702032022588 -0.000011714324152328731 -0.000012092060649435358 -0.000012031765762366015 -0.00001173225842781772 -0.000012104886487519427
        </DataArray>
        <DataArray type="Float64" Name="disp_z" format="ascii" RangeMin="-0.000008947405360775504" RangeMax="8.559716677194924e-7">
          0 0 -6.279920915092545e-8 -6.292181932153333e-8 -1.2580484305196067e-7 -1.2593948307076265e-7
          0 0 -6.282313914380335e-8 -6.304250927845469e-8 -1.261367367958945e-7 -1.2644071353418263e-7
          0 0 -6.289846414207571e-8 -6.332439367648305e-8 -1.2767797328496565e-7 -1.2794554591443932e-7
          0 0 -6.343729588718102e-8 -6.33494743324669e-8 -1.3051338351297547e-7 -1.3084612012669722e-7
          0 0 -7.100099731955024e-8 -6.882602193336967e-8 -1.5370214728523232e-7 -1.4674167024297476e-7
          0 0 -1.273805156754878e-7 -1.1912261646611148e-7 -2.8047526984540566e-7 -2.6490323775929964e-7
          0 0 -2.7542121472843073e-7 -2.6548048137794125e-7 -5.834531299691261e-7 -5.654829619865778e-7
          0 0 -5.585524249056222e-7 -5.51537112024629e-7 -0.0000011425310265872682 -0.0000011308481530005939
          0 0 -0.0000010651169791265137 -0.0000010719032708425564 -0.000002105967492215187 -0.0000021208580492567074
          0 0 -0.0000021170255586867718 -0.0000022199927603627973 -0.000004104865611564867 -0.000004291761294361133
          0 -6.242973840140985e-8 -1.2537322732744655e-7 0 -6.21002105955724e-8 -1.2534187207064816e-7
          0 -6.20719292949953e-8 -1.2687111669635587e-7 0 -6.393013541332135e-8 -1.3200870454179574e-7
          0 -8.08438379314375e-8 -1.7789854252060554e-7 0 -1.5119385453686017e-7 -3.25663584305528e-7
          0 -3.03711921577626e-7 -6.342290901224199e-7 0 -5.790317618156007e-7 -0.000001177132087758985
          0 -0.0000010394654697884316 -0.0000020517076102031084 0 -0.0000018612303220346326 -0.0000036296019779651083
          0 -6.177557176428229e-8 -1.2463445429424411e-7 0 -6.105157441838554e-8 -1.2445703089798996e-7
          0 -6.17213539167712e-8 -1.2623873870734978e-7 0 -6.726958231958288e-8 -1.4455238637961812e-7
          0 -1.0277052533154256e-7 -2.2349410825527196e-7 0 -1.8850078765201647e-7 -3.9668781666900177e-7
          0 -3.4667265205488673e-7 -7.115848502291024e-7 0 -6.069775223439261e-7 -0.0000012213636134664696
          0 -9.988287674424186e-7 -0.000001972233414462326 0 -0.0000015361793661415207 -0.0000030215433083058286
          0 -6.096730492530742e-8 -1.2393158698151315e-7 0 -6.057196905398093e-8 -1.241245814827211e-7
          0 -6.274927255244003e-8 -1.3295011490656038e-7 0 -8.06289666327035e-8 -1.7791432225387358e-7
          0 -1.3693425838479633e-7 -2.9108870186673525e-7 0 -2.3715934330053956e-7 -4.885765366375837e-7
          0 -3.982538276339712e-7 -8.035981884415168e-7 0 -6.346819901997144e-7 -0.0000012648084990661138
          0 -9.410434965169175e-7 -0.0000018546407385246719 0 -0.0000012033305934250916 -0.000002400003610005633
          0 -6.077395560183237e-8 -1.2426641631817452e-7 0 -6.147875897448732e-8 -1.3014944573168213e-7
          0 -7.165922917050435e-8 -1.5854316006324783e-7 0 -1.0906799127654649e-7 -2.3606087487983425e-7
          0 -1.8262269332998623e-7 -3.794882360991627e-7 0 -2.9389722338164424e-7 -5.942011095712386e-7
          0 -4.5060544082016915e-7 -8.965053765241713e-7 0 -6.522548875286808e-7 -0.000001288848383658205
          0 -8.649415038917683e-7 -0.0000017045231805765198 0 -9.113734489205736e-7 -0.0000018541588571437209
          0 -6.245587255189977e-8 -1.30899089118614e-7 0 -7.037870039899551e-8 -1.5314165013261522e-7
          0 -9.710502007358747e-8 -2.0984024187024147e-7 0 -1.5292100652334642e-7 -3.1902564810661244e-7
          0 -2.3935056759064854e-7 -4.850828913517448e-7 0 -3.542380491462958e-7 -7.044829029709233e-7
          0 -4.952586320298731e-7 -9.757548763110492e-7 0 -6.493562612317464e-7 -0.0000012771224861263126
          0 -7.71713628630349e-7 -0.0000015283702330124598 0 -6.70500098876274e-7 -0.0000013880657102575925
          0 -7.292144123410056e-8 -1.5210763289072896e-7 0 -9.629183898401445e-8 -1.996521543254343e-7
          0 -1.4156727989909352e-7 -2.877379618522011e-7 0 -2.1229752663764104e-7 -4.2371300314580297e-7
          0 -3.0501832135109554e-7 -6.015811092121952e-7 0 -4.1252759676229923e-7 -8.087684030664293e-7
          0 -5.239977688529256e-7 -0.0000010279440616028723 0 -6.197075390143683e-7 -0.0000012225692317361998
          0 -6.571831606421933e-7 -0.0000013190042803634062 0 -4.76758548903289e-7 -0.0000010183508740509382
          0 -9.781843895065643e-8 -1.9306408641307617e-7 0 -1.392518904697762e-7 -2.7053697976852526e-7
          0 -2.0200341384371335e-7 -3.888733722886959e-7 0 -2.831484839165145e-7 -5.440255108253277e-7
          0 -3.7392631214898645e-7 -7.206948724154067e-7 0 -4.6182317901458583e-7 -8.966821775540282e-7
          0 -5.307495559209185e-7 -0.0000010434574407458382 0 -5.608664539591446e-7 -0.000001121872225543029
          0 -5.221594721391775e-7 -0.0000010808785812148016 0 -3.207684595727842e-7 -7.13856073966798e-7
          0 -2.6079070706384296e-7 -5.205592395067149e-7 0 -3.4676688345223586e-7 -6.87223904616237e-7
          0 -4.289287373596212e-7 -8.467280171269987e-7 0 -4.903873296347265e-7 -9.673342250002632e-7
          0 -5.134835157261371e-7 -0.00000101515472606052 0 -4.849909543594337e-7 -9.620695764014678e-7
          0 -3.923555684487374e-7 -7.90975177993125e-7 0 -2.1637967309750174e-7 -4.4552343185410815e-7
          0 0 0 0 -5.311278108011798e-10 -2.5201499260397746e-8
          -3.014452768856091e-8 -1.2379267683261043e-8 -3.175701987870132e-8 -4.357023236327443e-8 -6.838913784183902e-8 -3.5977777187731503e-8
          0 0 5.049869255951398e-9 -8.17996483670679e-10 8.246841071018718e-9 -8.791561545485248e-9
          0 0 0 1.2821466059171074e-8 1.622226284451839e-8 2.6916013186223527e-8
          2.5965288786751347e-8 2.4932714161787178e-8 2.3865278499091286e-8 0 0 0
          0 -0.0000025013047158906678 -0.000002219158958534435 -0.0000027331330791379634 -0.0000028094403678150928 -0.00000485861169205053
          -0.00000434282254446378 -0.000005379116051192157 -0.0000054939731914088095 0 0 0
          0 -4.858148940868185e-7 -3.333023643424002e-7 5.779625998698917e-7 -3.205568675426986e-7 -0.0000010806039950610534
          -6.179218186746357e-7 1.575361895163045e-7 -0.0000011608702632693334 0 0 0
          0 -0.000001346862605859784 -0.0000013111977247773025 -0.0000017191317803710405 -0.0000017046743666117144 -0.0000026546322466114975
          -0.000002617588516950346 -0.0000033876203487228745 -0.000003345739421128435 0 0 0
          0 -4.0566402241473737e-7 -5.071488752335118e-7 -3.071059580239666e-7 -2.2398205671254896e-7 -8.802278960629825e-7
          -0.000001075619151699254 -7.21969240464188e-7 -5.77211696104919e-7 0 0 -2.4801540568030746e-7
          -3.576992356647865e-7 -5.294180094719865e-7 -8.034911632353676e-7 0 0 -0.000001981709306919952
          -0.0000017773957003637445 -0.000003838667400651069 -0.0000035299499423704837 0 0 0
          0 2.7818498668410013e-9 1.973352990306137e-8 6.20132406675874e-9 1.6345939312607713e-8 -7.694674251832163e-8
          6.080635366214345e-8 2.6562094980897048e-8 -9.017138399554971e-8 0 0 0
          0 -0.000002411009804540268 -0.00000234174173070871 -0.0000026705155481635804 -0.0000026185930601360598 -0.000004666080877281774
          -0.0000045094379557323855 -0.0000051731894616074095 -0.0000050896047976604645 0 0 -0.0000021729598831538835
          -0.0000026717502684115725 -0.000004228084932256541 -0.000005361417511022365 0 0 0
          0 -3.76067017241624e-8 -4.9102990544250396e-8 -3.1628862350855215e-8 -2.0803446173810457e-8 -8.233860236138346e-8
          -9.937264075783355e-8 -6.881101637074627e-8 -4.733314641523211e-8 0 0 0
          0 -0.000003068859340538882 -0.000003928914681337485 -0.0000035046089409362222 -0.000002797805619726881 -0.000006252058767822428
          -0.00000785666950577582 -0.000006820960925894064 -0.000005585259932396522 0 0 0
          0 4.130265573234532e-8 1.5128542953406103e-8 3.384270594848614e-8 4.816490674590627e-8 -1.0915323312849755e-7
          -6.03707803730762e-9 6.998839817748884e-8 1.0671399178080273e-7 0 0 -6.962754323871018e-7
          -6.638093969289877e-7 -0.0000014536214649965775 -0.0000014460196029284694 0 -0.000002083888102810545 -0.00000405799584412919
          0 0 -1.2618362495320272e-9 -3.8606809557421925e-8 -5.3637988963606866e-8 8.559716677194924e-7
          0 0 0 6.913393119654546e-8 -9.261660741473628e-8 -3.5684336777237126e-8
          6.149632345362881e-7 -3.7080756269100405e-7 -1.3404094976642104e-7 0 0 0
          0 -9.852284335688748e-7 -8.06229357272553e-7 -0.000001481798509679358 -0.0000016284985018206893 -0.000002127617360277346
          -0.0000019832628591650585 -0.0000030462981614760676 -0.0000032389294987175513 0 0 0
          -0.0000027905118178557703 -0.000002915466931791485 -0.0000030196041384193616 -0.000005367870874902406 -0.000005713213298430933 -0.0000058866397238799045
          0 0 -1.9590556523437663e-7 -4.964327845384532e-7 -4.4994767905585576e-7 -0.000001070686525800019
          0 0 1.780387510736284e-7 2.622443157738287e-8 -5.59611169759435e-8 -5.324858870428624e-7
          0 0 -2.3942403316142656e-7 -1.1168232140118705e-7 -5.685394865061997e-7 -3.071356903644921e-7
          0 0 0 0 -0.0000035418790608881134 -0.0000034233371286684
          -0.000003744693541557266 -0.000003943219226370448 -0.000006903665140873386 -0.000006703118209493626 -0.000007417488742296377 -0.000007775884624163067
          0 0 0 -9.559862527311776e-7 -9.312579310818785e-7 -0.0000013218255664233864
          -0.0000019657138405963306 -0.0000019594705526298714 -0.000002676241672259305 0 0 -5.213939415906206e-8
          -4.3437038056053444e-8 -1.2859758723808588e-7 -1.105844754718288e-7 0 0 -9.703493202722726e-7
          -6.977431340952384e-7 -0.0000019660716708456057 -0.000001442193673416401 0 0 -4.3591771309156994e-7
          -5.593704096866484e-7 -9.92184273515763e-7 -0.0000012898321188455692 0 0 -2.24404417806487e-7
          -1.1354853833992186e-7 -6.054400991588272e-7 -2.7760901501610647e-7 0 0 0
          2.994164395403061e-8 1.1115321883098952e-8 1.9554876622507448e-8 3.68348442980575e-8 1.3945869327133793e-8 2.5859168784922924e-8
          0 0 0 -1.2573835730781956e-7 -7.689274008170223e-8 -1.3024728741393205e-7
          -2.879163937643248e-7 -1.6931504100060155e-7 -2.938421492758068e-7 0 0 0
          -0.0000030601768916142485 -0.000003236240663465688 -0.0000031749013459225336 -0.000005959826602579202 -0.000006329355921017856 -0.000006237821239449848
          0 -0.0000033109073027592858 -0.000006458464335630991 0 0 0
          0 7.083329633686367e-9 6.344919445845251e-10 -6.120506101309639e-9 1.9689648063138507e-9 9.103272812238087e-9
          -2.2597840919727385e-9 -1.5010540969583848e-8 1.7428564308437568e-9 0 0 -0.0000030308755644361893
          -0.000003208692997149777 -0.000005859128236124724 -0.000006337838084622372 0 0 5.903763291441549e-9
          1.2633802812545206e-8 5.5911587511315785e-9 1.6879835380104556e-8 0 0 -0.000003885930971058106
          -0.0000032583260928120234 -0.000007807327892610946 -0.000006424897181149064 0 0 -0.000002203349583914452
          -0.0000021674097611932526 -0.000004348200162227921 -0.000004359414748265795 0 -7.63606765194946e-9 -1.8580365011271205e-8
          0 -1.7983475402409558e-7 -3.916054836046297e-7 0 0 -0.0000010826317241377501
          -6.126803052464993e-7 -0.0000021988822377475803 -0.000001428356329058556 0 -1.9326143163959114e-7 -4.245215116582347e-7
          0 -7.785544426699724e-8 6.456220995786815e-7 0 4.448299260845126e-8 6.652715934906003e-8
          0 -6.973479357271239e-8 -1.6549185362303554e-7 0 -1.7280029669197158e-8 -3.9148044956044e-8
          0 -7.250386096203697e-8 4.7670147465769655e-7 0 -0.0000016904567292877998 -0.0000034949922023796472
          0 -0.000004502492416069653 -0.000008947405360775504 0 -0.00000241250651037428 -0.000004684575169283173
          0 -2.3764804208043983e-9 -7.974668519526539e-9 0 3.1692180705914004e-8 -4.7217883592520854e-8
          0 -3.539648141875915e-7 -6.982446267031215e-7 0 -3.582433465973323e-7 -7.158057061361291e-7
          0 -4.0225161935745425e-7 -7.941352764972708e-7 0 -3.7760220974860207e-7 -7.539547855895147e-7
          0 -4.31462438675388e-7 -8.536028388118713e-7 0 -4.3124395133468524e-7 -8.563492605999559e-7
          0 -3.91626498313275e-7 -7.811687094010415e-7 0 -3.00914411693744e-7 -6.129361278479949e-7
          0 -1.456987067110789e-7 -3.017285483430755e-7 0 0 -1.4015674137658557e-7
          -1.0487758718734172e-7 -3.2253343265336143e-7 -2.2290998741039615e-7 0 0 0
          0 -6.433250586400255e-8 -4.369016195981664e-8 -4.018781000757022e-8 -6.597793925825033e-8 -1.3371913851642935e-7
          -8.668061345428278e-8 -8.60189469743881e-8 -1.352875082520991e-7 0 -2.5180628306970818e-8 -4.754055416054745e-8
          0 -8.714818899132128e-8 -1.7326644921346225e-7 0 -2.0958367275549184e-8 -4.439513261511258e-8
          0 0 -3.431355302620382e-7 -3.503632356051595e-7 -6.827634928997479e-7 -6.968498571703424e-7
          0 -3.774716190666972e-7 -7.529664286862016e-7 0 -3.1606618433039724e-7 -6.295942729479956e-7
          0 -3.511764821206618e-7 -6.998424338111761e-7 0 -2.929653861223856e-7 -5.837036450086073e-7
          0 -2.047226375363364e-7 -4.1012789967791814e-7 0 -1.1099103515664622e-7 -2.2256028503267112e-7
          0 -7.40776971491258e-8 -1.5269369747178112e-7 0 0 0
          -2.756682181169914e-8 -4.780765460622439e-8 -4.920604434649335e-8 -5.3873384195504606e-8 -9.554423871214762e-8 -9.952528343985868e-8
        </DataArray>
      </PointData>
      <CellData>
        <DataArray type="Int32" Name="libmesh_elem_id" format="ascii" RangeMin="40" RangeMax="1373">
          40 41 42 43 44 45
          46 47 48 49 50 51
          52 53 54 55 56 57
          98 99 100 101 102 103
          104 105 106 107 108 109
          110 111 112 113 114 115
          156 157 158 159 160 161
          162 163 164 165 166 167
          168 169 170 171 172 173
          214 215 216 217 218 219
          220 221 222 223 224 225
          226 227 228 229 230 231
          272 273 274 275 276 277
          278 279 280 281 282 283
          284 285 286 287 288 289
          330 331 332 333 334 335
          336 337 338 339 340 341
          342 343 344 345 346 347
          388 389 390 391 392 393
          394 395 396 397 398 399
          400 401 402 403 404 405
          446 447 448 449 450 451
          452 453 454 455 456 457
          458 459 460 461 462 463
          508 509 510 511 512 513
          514 515 516 517 518 519
          520 521 522 523 524 525
          526 527 528 529 530 531
          532 533 534 535 536 537
          538 539 540 541 542 543
          544 545 546 547 548 549
          550 551 552 553 554 555
          556 557 558 559 560 561
          562 563 564 565 566 567
          568 569 570 571 572 573
          574 575 576 577 578 579
          580 581 582 583 584 585
          586 587 588 589 590 591
          592 593 594 595 596 597
          598 599 600 601 602 603
          604 605 606 607 608 609
          610 611 612 613 614 615
          616 617 618 619 620 621
          622 623 624 625 626 627
          628 629 630 631 632 633
          634 635 636 637 638 639
          640 641 642 643 644 645
          646 647 648 649 650 651
          652 653 654 655 656 657
          658 659 660 661 662 663
          664 665 666 667 668 669
          670 671 672 673 674 675
          676 677 678 679 680 681
          682 683 684 685 686 687
          688 689 690 691 692 693
          694 695 696 697 698 699
          700 701 702 703 704 705
          706 707 708 709 710 711
          712 713 714 715 716 717
          718 719 720 721 722 723
          724 725 726 727 728 729
          730 731 732 733 734 735
          736 737 738 739 740 741
          742 743 744 745 746 747
          748 749 750 751 752 753
          754 755 756 757 758 759
          760 761 762 763 764 765
          766 767 768 769 770 771
          1186 1187 1188 1189 1190 1191
          1204 1205 1206 1207 1208 1209
          1222 1223 1224 1225 1240 1241
          1242 1243 1258 1259 1260 1261
          1276 1277 1278 1279 1300 1301
          1304 1305 1306 1307 1314 1315
          1316 1317 1326 1327 1328 1329
          1330 1331 1338 1339 1344 1345
          1348 1349 1356 1357 1358 1359
          1360 1361 1366 1367 1372 1373
        </DataArray>
        <DataArray type="Int32" Name="subdomain_id" format="ascii" RangeMin="103" RangeMax="143">
          103 103 103 103 103 103
          103 103 103 103 103 103
          103 103 103 103 103 103
          103 103 103 103 103 103
          103 103 103 103 103 103
          103 103 103 103 103 103
          103 103 103 103 103 103
          103 103 103 103 103 103
          103 103 103 103 103 103
          103 103 103 103 103 103
          103 103 103 103 103 103
          103 103 103 103 103 103
          103 103 103 103 103 103
          103 103 103 103 103 103
          103 103 103 103 103 103
          103 103 103 103 103 103
          103 103 103 103 103 103
          103 103 103 103 103 103
          103 103 103 103 103 103
          103 103 103 103 103 103
          103 103 103 103 103 103
          103 103 103 103 103 103
          103 103 103 103 103 103
          103 103 103 103 103 103
          103 103 103 103 103 103
          103 103 103 103 103 103
          103 103 104 104 104 104
          104 104 104 104 104 104
          104 104 104 104 104 104
          104 104 104 104 104 104
          104 104 104 104 104 104
          104 104 104 104 104 104
          104 104 104 104 104 104
          104 104 104 104 104 104
          104 104 104 104 104 104
          104 104 104 104 104 104
          104 104 104 104 104 104
          104 104 104 104 104 104
          104 104 104 104 104 104
          104 104 104 104 104 104
          104 104 104 104 104 104
          104 104 104 104 104 104
          104 104 104 104 104 104
          104 104 104 104 104 104
          104 104 104 104 104 104
          104 104 104 104 104 104
          104 104 104 104 104 104
          104 104 104 104 104 104
          104 104 104 104 104 104
          104 104 104 104 104 104
          104 104 104 104 104 104
          104 104 104 104 104 104
          104 104 104 104 104 104
          104 104 104 104 104 104
          104 104 104 104 104 104
          104 104 104 104 104 104
          104 104 104 104 104 104
          104 104 104 104 104 104
          104 104 104 104 104 104
          141 141 141 141 141 141
          141 141 141 141 141 141
          141 141 141 141 141 141
          141 141 141 141 141 141
          141 141 141 141 141 141
          141 141 141 141 141 141
          141 141 141 141 141 141
          141 141 141 141 141 141
          141 141 141 141 141 141
          105 105 105 105 105 105
          105 105 105 105 105 105
          105 105 105 105 105 105
          105 105 105 105 105 105
          105 105 105 105 106 106
          106 106 106 106 106 106
          106 106 106 106 106 106
          106 106 106 106 106 106
          106 106 106 106 106 106
          143 143 143 143 143 143
        </DataArray>
        <DataArray type="Int32" Name="processor_id" format="ascii" RangeMin="5" RangeMax="5">
          5 5 5 5 5 5
          5 5 5 5 5 5
          5 5 5 5 5 5
          5 5 5 5 5 5
          5 5 5 5 5 5
          5 5 5 5 5 5
          5 5 5 5 5 5
          5 5 5 5 5 5
          5 5 5 5 5 5
          5 5 5 5 5 5
          5 5 5 5 5 5
          5 5 5 5 5 5
          5 5 5 5 5 5
          5 5 5 5 5 5
          5 5 5 5 5 5
          5 5 5 5 5 5
          5 5 5 5 5 5
          5 5 5 5 5 5
          5 5 5 5 5 5
          5 5 5 5 5 5
          5 5 5 5 5 5
          5 5 5 5 5 5
          5 5 5 5 5 5
          5 5 5 5 5 5
          5 5 5 5 5 5
          5 5 5 5 5 5
          5 5 5 5 5 5
          5 5 5 5 5 5
          5 5 5 5 5 5
          5 5 5 5 5 5
          5 5 5 5 5 5
          5 5 5 5 5 5
          5 5 5 5 5 5
          5 5 5 5 5 5
          5 5 5 5 5 5
          5 5 5 5 5 5
          5 5 5 5 5 5
          5 5 5 5 5 5
          5 5 5 5 5 5
          5 5 5 5 5 5
          5 5 5 5 5 5
          5 5 5 5 5 5
          5 5 5 5 5 5
          5 5 5 5 5 5
          5 5 5 5 5 5
          5 5 5 5 5 5
          5 5 5 5 5 5
          5 5 5 5 5 5
          5 5 5 5 5 5
          5 5 5 5 5 5
          5 5 5 5 5 5
          5 5 5 5 5 5
          5 5 5 5 5 5
          5 5 5 5 5 5
          5 5 5 5 5 5
          5 5 5 5 5 5
          5 5 5 5 5 5
          5 5 5 5 5 5
          5 5 5 5 5 5
          5 5 5 5 5 5
          5 5 5 5 5 5
          5 5 5 5 5 5
          5 5 5 5 5 5
          5 5 5 5 5 5
          5 5 5 5 5 5
          5 5 5 5 5 5
          5 5 5 5 5 5
          5 5 5 5 5 5
          5 5 5 5 5 5
          5 5 5 5 5 5
          5 5 5 5 5 5
          5 5 5 5 5 5
          5 5 5 5 5 5
          5 5 5 5 5 5
          5 5 5 5 5 5
          5 5 5 5 5 5
          5 5 5 5 5 5
          5 5 5 5 5 5
        </DataArray>
      </CellData>
      <Points>
        <DataArray type="Float64" Name="Points" NumberOfComponents="3" format="ascii" RangeMin="0.0082758620689774" RangeMax="0.013139935358843113">
          0.00011111111111123 0.0082758620689751 0 0 0.0082758620689774 0
          0.00011111111111123 0.0082758620689751 0.00015 0 0.0082758620689774 0.00015
          0.00011111111111123 0.0082758620689751 0.0003 0 0.0082758620689774 0.0003
          0.00011111111111125 0.0086896551724226 0 0 0.0086896551724246 0
          0.00011111111111125 0.0086896551724226 0.00015 0 0.0086896551724246 0.00015
          0.00011111111111125 0.0086896551724226 0.0003 0 0.0086896551724246 0.0003
          0.00011111111111126 0.0091034482758696 0 0 0.0091034482758716 0
          0.00011111111111126 0.0091034482758696 0.00015 0 0.0091034482758716 0.00015
          0.00011111111111126 0.0091034482758696 0.0003 0 0.0091034482758716 0.0003
          0.00011111111111128 0.0095172413793168 0 0 0.0095172413793185 0
          0.00011111111111128 0.0095172413793168 0.00015 0 0.0095172413793185 0.00015
          0.00011111111111128 0.0095172413793168 0.0003 0 0.0095172413793185 0.0003
          0.00011111111111129 0.0099310344827632 0 0 0.0099310344827645 0
          0.00011111111111129 0.0099310344827632 0.00015 0 0.0099310344827645 0.00015
          0.00011111111111129 0.0099310344827632 0.0003 0 0.0099310344827645 0.0003
          0.00011111111111131 0.01034482758621 0 0 0.01034482758621 0
          0.00011111111111131 0.01034482758621 0.00015 0 0.01034482758621 0.00015
          0.00011111111111131 0.01034482758621 0.0003 0 0.01034482758621 0.0003
          0.00011111111111132 0.010758620689657 0 0 0.010758620689657 0
          0.00011111111111132 0.010758620689657 0.00015 0 0.010758620689657 0.00015
          0.00011111111111132 0.010758620689657 0.0003 0 0.010758620689657 0.0003
          0.00011111111111134 0.011172413793104 0 0 0.011172413793104 0
          0.00011111111111134 0.011172413793104 0.00015 0 0.011172413793104 0.00015
          0.00011111111111134 0.011172413793104 0.0003 0 0.011172413793104 0.0003
          0.00011111111111135 0.011586206896551 0 0 0.011586206896551 0
          0.00011111111111135 0.011586206896551 0.00015 0 0.011586206896551 0.00015
          0.00011111111111135 0.011586206896551 0.0003 0 0.011586206896551 0.0003
          0.00011111111111137 0.012 0 0 0.012 0
          0.00011111111111137 0.012 0.00015 0 0.012 0.00015
          0.00011111111111137 0.012 0.0003 0 0.012 0.0003
          0.00022222222222243 0.0082758620689727 0 0.00022222222222243 0.0082758620689727 0.00015
          0.00022222222222243 0.0082758620689727 0.0003 0.00022222222222246 0.0086896551724206 0
          0.00022222222222246 0.0086896551724206 0.00015 0.00022222222222246 0.0086896551724206 0.0003
          0.00022222222222249 0.0091034482758676 0 0.00022222222222249 0.0091034482758676 0.00015
          0.00022222222222249 0.0091034482758676 0.0003 0.00022222222222253 0.0095172413793151 0
          0.00022222222222253 0.0095172413793151 0.00015 0.00022222222222253 0.0095172413793151 0.0003
          0.00022222222222256 0.0099310344827619 0 0.00022222222222256 0.0099310344827619 0.00015
          0.00022222222222256 0.0099310344827619 0.0003 0.0002222222222226 0.010344827586209 0
          0.0002222222222226 0.010344827586209 0.00015 0.0002222222222226 0.010344827586209 0.0003
          0.00022222222222263 0.010758620689656 0 0.00022222222222263 0.010758620689656 0.00015
          0.00022222222222263 0.010758620689656 0.0003 0.00022222222222266 0.011172413793103 0
          0.00022222222222266 0.011172413793103 0.00015 0.00022222222222266 0.011172413793103 0.0003
          0.0002222222222227 0.011586206896551 0 0.0002222222222227 0.011586206896551 0.00015
          0.0002222222222227 0.011586206896551 0.0003 0.00022222222222273 0.012 0
          0.00022222222222273 0.012 0.00015 0.00022222222222273 0.012 0.0003
          0.00033333333333363 0.0082758620689704 0 0.00033333333333363 0.0082758620689704 0.00015
          0.00033333333333363 0.0082758620689704 0.0003 0.00033333333333368 0.0086896551724185 0
          0.00033333333333368 0.0086896551724185 0.00015 0.00033333333333368 0.0086896551724185 0.0003
          0.00033333333333373 0.0091034482758657 0 0.00033333333333373 0.0091034482758657 0.00015
          0.00033333333333373 0.0091034482758657 0.0003 0.00033333333333379 0.0095172413793133 0
          0.00033333333333379 0.0095172413793133 0.00015 0.00033333333333379 0.0095172413793133 0.0003
          0.00033333333333384 0.0099310344827607 0 0.00033333333333384 0.0099310344827607 0.00015
          0.00033333333333384 0.0099310344827607 0.0003 0.00033333333333389 0.010344827586208 0
          0.00033333333333389 0.010344827586208 0.00015 0.00033333333333389 0.010344827586208 0.0003
          0.00033333333333394 0.010758620689656 0 0.00033333333333394 0.010758620689656 0.00015
          0.00033333333333394 0.010758620689656 0.0003 0.000333333333334 0.011172413793103 0
          0.000333333333334 0.011172413793103 0.00015 0.000333333333334 0.011172413793103 0.0003
          0.00033333333333405 0.011586206896551 0 0.00033333333333405 0.011586206896551 0.00015
          0.00033333333333405 0.011586206896551 0.0003 0.0003333333333341 0.012 0
          0.0003333333333341 0.012 0.00015 0.0003333333333341 0.012 0.0003
          0.00044444444444486 0.0082758620689681 0 0.00044444444444486 0.0082758620689681 0.00015
          0.00044444444444486 0.0082758620689681 0.0003 0.00044444444444493 0.0086896551724165 0
          0.00044444444444493 0.0086896551724165 0.00015 0.00044444444444493 0.0086896551724165 0.0003
          0.00044444444444501 0.0091034482758637 0 0.00044444444444501 0.0091034482758637 0.00015
          0.00044444444444501 0.0091034482758637 0.0003 0.00044444444444508 0.0095172413793116 0
          0.00044444444444508 0.0095172413793116 0.00015 0.00044444444444508 0.0095172413793116 0.0003
          0.00044444444444516 0.0099310344827594 0 0.00044444444444516 0.0099310344827594 0.00015
          0.00044444444444516 0.0099310344827594 0.0003 0.00044444444444523 0.010344827586207 0
          0.00044444444444523 0.010344827586207 0.00015 0.00044444444444523 0.010344827586207 0.0003
          0.00044444444444531 0.010758620689655 0 0.00044444444444531 0.010758620689655 0.00015
          0.00044444444444531 0.010758620689655 0.0003 0.00044444444444538 0.011172413793103 0
          0.00044444444444538 0.011172413793103 0.00015 0.00044444444444538 0.011172413793103 0.0003
          0.00044444444444546 0.011586206896551 0 0.00044444444444546 0.011586206896551 0.00015
          0.00044444444444546 0.011586206896551 0.0003 0.00044444444444553 0.012 0
          0.00044444444444553 0.012 0.00015 0.00044444444444553 0.012 0.0003
          0.00055555555555597 0.0082758620689657 0 0.00055555555555597 0.0082758620689657 0.00015
          0.00055555555555597 0.0082758620689657 0.0003 0.00055555555555605 0.0086896551724145 0
          0.00055555555555605 0.0086896551724145 0.00015 0.00055555555555605 0.0086896551724145 0.0003
          0.00055555555555613 0.0091034482758618 0 0.00055555555555613 0.0091034482758618 0.00015
          0.00055555555555613 0.0091034482758618 0.0003 0.00055555555555621 0.0095172413793099 0
          0.00055555555555621 0.0095172413793099 0.00015 0.00055555555555621 0.0095172413793099 0.0003
          0.00055555555555629 0.0099310344827581 0 0.00055555555555629 0.0099310344827581 0.00015
          0.00055555555555629 0.0099310344827581 0.0003 0.00055555555555636 0.010344827586206 0
          0.00055555555555636 0.010344827586206 0.00015 0.00055555555555636 0.010344827586206 0.0003
          0.00055555555555644 0.010758620689655 0 0.00055555555555644 0.010758620689655 0.00015
          0.00055555555555644 0.010758620689655 0.0003 0.00055555555555652 0.011172413793102 0
          0.00055555555555652 0.011172413793102 0.00015 0.00055555555555652 0.011172413793102 0.0003
          0.0005555555555566 0.011586206896551 0 0.0005555555555566 0.011586206896551 0.00015
          0.0005555555555566 0.011586206896551 0.0003 0.00055555555555667 0.012 0
          0.00055555555555667 0.012 0.00015 0.00055555555555667 0.012 0.0003
          0.00066666666666675 0.0082758620689634 0 0.00066666666666675 0.0082758620689634 0.00015
          0.00066666666666675 0.0082758620689634 0.0003 0.00066666666666679 0.0086896551724125 0
          0.00066666666666679 0.0086896551724125 0.00015 0.00066666666666679 0.0086896551724125 0.0003
          0.00066666666666684 0.0091034482758598 0 0.00066666666666684 0.0091034482758598 0.00015
          0.00066666666666684 0.0091034482758598 0.0003 0.00066666666666688 0.0095172413793081 0
          0.00066666666666688 0.0095172413793081 0.00015 0.00066666666666688 0.0095172413793081 0.0003
          0.00066666666666693 0.0099310344827568 0 0.00066666666666693 0.0099310344827568 0.00015
          0.00066666666666693 0.0099310344827568 0.0003 0.00066666666666697 0.010344827586205 0
          0.00066666666666697 0.010344827586205 0.00015 0.00066666666666697 0.010344827586205 0.0003
          0.00066666666666701 0.010758620689654 0 0.00066666666666701 0.010758620689654 0.00015
          0.00066666666666701 0.010758620689654 0.0003 0.00066666666666706 0.011172413793102 0
          0.00066666666666706 0.011172413793102 0.00015 0.00066666666666706 0.011172413793102 0.0003
          0.0006666666666671 0.01158620689655 0 0.0006666666666671 0.01158620689655 0.00015
          0.0006666666666671 0.01158620689655 0.0003 0.00066666666666715 0.012 0
          0.00066666666666715 0.012 0.00015 0.00066666666666715 0.012 0.0003
          0.00077777777777787 0.0082758620689611 0 0.00077777777777787 0.0082758620689611 0.00015
          0.00077777777777787 0.0082758620689611 0.0003 0.00077777777777791 0.0086896551724104 0
          0.00077777777777791 0.0086896551724104 0.00015 0.00077777777777791 0.0086896551724104 0.0003
          0.00077777777777794 0.0091034482758578 0 0.00077777777777794 0.0091034482758578 0.00015
          0.00077777777777794 0.0091034482758578 0.0003 0.00077777777777797 0.0095172413793064 0
          0.00077777777777797 0.0095172413793064 0.00015 0.00077777777777797 0.0095172413793064 0.0003
          0.000777777777778 0.0099310344827555 0 0.000777777777778 0.0099310344827555 0.00015
          0.000777777777778 0.0099310344827555 0.0003 0.00077777777777803 0.010344827586205 0
          0.00077777777777803 0.010344827586205 0.00015 0.00077777777777803 0.010344827586205 0.0003
          0.00077777777777806 0.010758620689654 0 0.00077777777777806 0.010758620689654 0.00015
          0.00077777777777806 0.010758620689654 0.0003 0.00077777777777809 0.011172413793101 0
          0.00077777777777809 0.011172413793101 0.00015 0.00077777777777809 0.011172413793101 0.0003
          0.00077777777777813 0.01158620689655 0 0.00077777777777813 0.01158620689655 0.00015
          0.00077777777777813 0.01158620689655 0.0003 0.00077777777777816 0.012 0
          0.00077777777777816 0.012 0.00015 0.00077777777777816 0.012 0.0003
          0.0008888888888888 0.0082758620689588 0 0.0008888888888888 0.0082758620689588 0.00015
          0.0008888888888888 0.0082758620689588 0.0003 0.00088888888888881 0.0086896551724084 0
          0.00088888888888881 0.0086896551724084 0.00015 0.00088888888888881 0.0086896551724084 0.0003
          0.00088888888888882 0.0091034482758559 0 0.00088888888888882 0.0091034482758559 0.00015
          0.00088888888888882 0.0091034482758559 0.0003 0.00088888888888883 0.0095172413793047 0
          0.00088888888888883 0.0095172413793047 0.00015 0.00088888888888883 0.0095172413793047 0.0003
          0.00088888888888884 0.0099310344827542 0 0.00088888888888884 0.0099310344827542 0.00015
          0.00088888888888884 0.0099310344827542 0.0003 0.00088888888888885 0.010344827586204 0
          0.00088888888888885 0.010344827586204 0.00015 0.00088888888888885 0.010344827586204 0.0003
          0.00088888888888885 0.010758620689653 0 0.00088888888888885 0.010758620689653 0.00015
          0.00088888888888885 0.010758620689653 0.0003 0.00088888888888886 0.011172413793101 0
          0.00088888888888886 0.011172413793101 0.00015 0.00088888888888886 0.011172413793101 0.0003
          0.00088888888888887 0.01158620689655 0 0.00088888888888887 0.01158620689655 0.00015
          0.00088888888888887 0.01158620689655 0.0003 0.00088888888888888 0.012 0
          0.00088888888888888 0.012 0.00015 0.00088888888888888 0.012 0.0003
          0.001 0.0091034482758539 0 0.001 0.0091034482758539 0.00015
          0.001 0.0091034482758539 0.0003 0.001 0.0095172413793029 0
          0.001 0.0095172413793029 0.00015 0.001 0.0095172413793029 0.0003
          0.001 0.0099310344827529 0 0.001 0.0099310344827529 0.00015
          0.001 0.0099310344827529 0.0003 0.001 0.010344827586203 0
          0.001 0.010344827586203 0.00015 0.001 0.010344827586203 0.0003
          0.001 0.010758620689653 0 0.001 0.010758620689653 0.00015
          0.001 0.010758620689653 0.0003 0.001 0.0111724137931 0
          0.001 0.0111724137931 0.00015 0.001 0.0111724137931 0.0003
          0.001 0.01158620689655 0 0.001 0.01158620689655 0.00015
          0.001 0.01158620689655 0.0003 0.001 0.012 0
          0.001 0.012 0.00015 0.001 0.012 0.0003
          0.00067947077571632 0.012798245728111 0 0.00068678568032061 0.012710429785181 0
          0.00076344362314339 0.012698069087358 0 0.00078000626700894 0.012788238676479 0
          0.00067947077571632 0.012798245728111 0.00015 0.00068678568032061 0.012710429785181 0.00015
          0.00076344362314339 0.012698069087358 0.00015 0.00078000626700894 0.012788238676479 0.00015
          0.00067947077571632 0.012798245728111 0.0003 0.00068678568032061 0.012710429785181 0.0003
          0.00076344362314339 0.012698069087358 0.0003 0.00078000626700894 0.012788238676479 0.0003
          0.0007101811699723 0.012881232243155 0 0.00078737528777453 0.012884598822829 0
          0.0007101811699723 0.012881232243155 0.00015 0.00078737528777453 0.012884598822829 0.00015
          0.0007101811699723 0.012881232243155 0.0003 0.00078737528777453 0.012884598822829 0.0003
          0.00063149088332091 0.012876508075697 0 0.00071156048039536 0.012943694476106 0
          0.00064992343237843 0.012944046337553 0 0.00063149088332091 0.012876508075697 0.00015
          0.00071156048039536 0.012943694476106 0.00015 0.00064992343237843 0.012944046337553 0.00015
          0.00063149088332091 0.012876508075697 0.0003 0.00071156048039536 0.012943694476106 0.0003
          0.00064992343237843 0.012944046337553 0.0003 0.00014271480927744 0.012184528409521 0
          0.00021074182908597 0.012239195039162 0 0.00014617236906556 0.012274772666576 0
          0.00010836971036758 0.0122326927564 0 0.00014271480927744 0.012184528409521 0.00015
          0.00021074182908597 0.012239195039162 0.00015 0.00014617236906556 0.012274772666576 0.00015
          0.00010836971036758 0.0122326927564 0.00015 0.00014271480927744 0.012184528409521 0.0003
          0.00021074182908597 0.012239195039162 0.0003 0.00014617236906556 0.012274772666576 0.0003
          0.00010836971036758 0.0122326927564 0.0003 0.00040316247653445 0.012523054457121 0
          0.00050524235438491 0.012516470580574 0 0.00047556583290331 0.012611926172403 0
          0.00040677839563254 0.01259579728731 0 0.00040316247653445 0.012523054457121 0.00015
          0.00050524235438491 0.012516470580574 0.00015 0.00047556583290331 0.012611926172403 0.00015
          0.00040677839563254 0.01259579728731 0.00015 0.00040316247653445 0.012523054457121 0.0003
          0.00050524235438491 0.012516470580574 0.0003 0.00047556583290331 0.012611926172403 0.0003
          0.00040677839563254 0.01259579728731 0.0003 0.00038389728538556 0.012111104172094 0
          0.00037958632650406 0.012195366170904 0 0.00029855370140418 0.012181148574691 0
          0.00029802321336891 0.012105931916082 0 0.00038389728538556 0.012111104172094 0.00015
          0.00037958632650406 0.012195366170904 0.00015 0.00029855370140418 0.012181148574691 0.00015
          0.00029802321336891 0.012105931916082 0.00015 0.00038389728538556 0.012111104172094 0.0003
          0.00037958632650406 0.012195366170904 0.0003 0.00029855370140418 0.012181148574691 0.0003
          0.00029802321336891 0.012105931916082 0.0003 0.00062435778703091 0.012280526392523 0
          0.00063694887874418 0.012191685157308 0 0.00075163746499696 0.012211869018538 0
          0.0007101306235237 0.012330652999586 0 0.00062435778703091 0.012280526392523 0.00015
          0.00063694887874418 0.012191685157308 0.00015 0.00075163746499696 0.012211869018538 0.00015
          0.0007101306235237 0.012330652999586 0.00015 0.00062435778703091 0.012280526392523 0.0003
          0.00063694887874418 0.012191685157308 0.0003 0.00075163746499696 0.012211869018538 0.0003
          0.0007101306235237 0.012330652999586 0.0003 0.00090036231429234 0.012108977226849 0
          0.00080269198720626 0.012096984730608 0 0.00090036231429234 0.012108977226849 0.00015
          0.00080269198720626 0.012096984730608 0.00015 0.00090036231429234 0.012108977226849 0.0003
          0.00080269198720626 0.012096984730608 0.0003 0.00023865656240352 0.012177237347116 0
          0.00029061852669854 0.01224857812735 0 0.00023865656240352 0.012177237347116 0.00015
          0.00029061852669854 0.01224857812735 0.00015 0.00023865656240352 0.012177237347116 0.0003
          0.00029061852669854 0.01224857812735 0.0003 0.00056164385173704 0.012835416164401 0
          0.00056508360468666 0.012898794448667 0 0.00049240387645224 0.012913175910861 0
          0.00046984631090009 0.012828989929731 0 0.00056164385173704 0.012835416164401 0.00015
          0.00056508360468666 0.012898794448667 0.00015 0.00049240387645224 0.012913175910861 0.00015
          0.00046984631090009 0.012828989929731 0.00015 0.00056164385173704 0.012835416164401 0.0003
          0.00056508360468666 0.012898794448667 0.0003 0.00049240387645224 0.012913175910861 0.0003
          0.00046984631090009 0.012828989929731 0.0003 0.000050495613361417 0.012066083920595 0
          0.00011131843390441 0.012086989142678 0 0.000069577205110887 0.012153607960951 0
          0 0.012111111111109 0 0.000050495613361417 0.012066083920595 0.00015
          0.00011131843390441 0.012086989142678 0.00015 0.000069577205110887 0.012153607960951 0.00015
          0 0.012111111111109 0.00015 0.000050495613361417 0.012066083920595 0.0003
          0.00011131843390441 0.012086989142678 0.0003 0.000069577205110887 0.012153607960951 0.0003
          0 0.012111111111109 0.0003 0.00022470825547396 0.012306913365418 0
          0.00017103954025546 0.012340304715306 0 0.00022470825547396 0.012306913365418 0.00015
          0.00017103954025546 0.012340304715306 0.00015 0.00022470825547396 0.012306913365418 0.0003
          0.00017103954025546 0.012340304715306 0.0003 0.00085640575367095 0.012657655614724 0
          0.001 0.012571428571438 0 0.001 0.012714285714292 0
          0.00089085524488654 0.012778191533234 0 0.00085640575367095 0.012657655614724 0.00015
          0.001 0.012571428571438 0.00015 0.001 0.012714285714292 0.00015
          0.00089085524488654 0.012778191533234 0.00015 0.00085640575367095 0.012657655614724 0.0003
          0.001 0.012571428571438 0.0003 0.001 0.012714285714292 0.0003
          0.00089085524488654 0.012778191533234 0.0003 0.00017101007138246 0.012530153689505 0
          0.000086824088695593 0.01250759612347 0 0.00010015626416536 0.012463076177022 0
          0.00018026894988108 0.012457509098897 0 0.00017101007138246 0.012530153689505 0.00015
          0.000086824088695593 0.01250759612347 0.00015 0.00010015626416536 0.012463076177022 0.00015
          0.00018026894988108 0.012457509098897 0.00015 0.00017101007138246 0.012530153689505 0.0003
          0.000086824088695593 0.01250759612347 0.0003 0.00010015626416536 0.012463076177022 0.0003
          0.00018026894988108 0.012457509098897 0.0003 0.00055555555555552 0.013 0
          0.00054972466987376 0.012958523613261 0 0.00059017772624368 0.012950117696029 0
          0.00061111111111072 0.013 0 0.00055555555555552 0.013 0.00015
          0.00054972466987376 0.012958523613261 0.00015 0.00059017772624368 0.012950117696029 0.00015
          0.00061111111111072 0.013 0.00015 0.00055555555555552 0.013 0.0003
          0.00054972466987376 0.012958523613261 0.0003 0.00059017772624368 0.012950117696029 0.0003
          0.00061111111111072 0.013 0.0003 0.00056012017374448 0.012193168747791 0
          0.00054338833040714 0.012250054231166 0 0.00056012017374448 0.012193168747791 0.00015
          0.00054338833040714 0.012250054231166 0.00015 0.00056012017374448 0.012193168747791 0.0003
          0.00054338833040714 0.012250054231166 0.0003 0.00020164702899907 0.012111009853496 0
          0.00020164702899907 0.012111009853496 0.00015 0.00020164702899907 0.012111009853496 0.0003
          0.00058698867508036 0.01276393301723 0 0.00061242021253103 0.012689969395149 0
          0.00058698867508036 0.01276393301723 0.00015 0.00061242021253103 0.012689969395149 0.00015
          0.00058698867508036 0.01276393301723 0.0003 0.00061242021253103 0.012689969395149 0.0003
          0.00054704952286259 0.01264760123259 0 0.00058547756026548 0.012574831423214 0
          0.00066845126455385 0.012625352450745 0 0.00054704952286259 0.01264760123259 0.00015
          0.00058547756026548 0.012574831423214 0.00015 0.00066845126455385 0.012625352450745 0.00015
          0.00054704952286259 0.01264760123259 0.0003 0.00058547756026548 0.012574831423214 0.0003
          0.00066845126455385 0.012625352450745 0.0003 0.00040316497174951 0.012375710115571 0
          0.00038996592658543 0.012448925709731 0 0.00030251984068288 0.012451026681152 0
          0.00030273327950676 0.012339921797294 0 0.00040316497174951 0.012375710115571 0.00015
          0.00038996592658543 0.012448925709731 0.00015 0.00030251984068288 0.012451026681152 0.00015
          0.00030273327950676 0.012339921797294 0.00015 0.00040316497174951 0.012375710115571 0.0003
          0.00038996592658543 0.012448925709731 0.0003 0.00030251984068288 0.012451026681152 0.0003
          0.00030273327950676 0.012339921797294 0.0003 0 0.012166666666663 0
          0.000060257043043922 0.012213388328671 0 0 0.012222222222217 0
          0 0.012166666666663 0.00015 0.000060257043043922 0.012213388328671 0.00015
          0 0.012222222222217 0.00015 0 0.012166666666663 0.0003
          0.000060257043043922 0.012213388328671 0.0003 0 0.012222222222217 0.0003
          0.00086766031505541 0.012218873949421 0 0.00070802748250363 0.01210226547145 0
          0.00086766031505541 0.012218873949421 0.00015 0.00070802748250363 0.01210226547145 0.00015
          0.00086766031505541 0.012218873949421 0.0003 0.00070802748250363 0.01210226547145 0.0003
          0.00045681564832724 0.012667985356076 0 0.00038302222240927 0.012678606196169 0
          0.00045681564832724 0.012667985356076 0.00015 0.00038302222240927 0.012678606196169 0.00015
          0.00045681564832724 0.012667985356076 0.0003 0.00038302222240927 0.012678606196169 0.0003
          0.00057343997443155 0.012462111372123 0 0.00067467937701806 0.012497336760124 0
          0.00057343997443155 0.012462111372123 0.00015 0.00067467937701806 0.012497336760124 0.00015
          0.00057343997443155 0.012462111372123 0.0003 0.00067467937701806 0.012497336760124 0.0003
          0 0.012388888888886 0 0.00004805763346656 0.012364070531781 0
          0.000052775834931525 0.012418323433379 0 0 0.012444444444443 0
          0 0.012388888888886 0.00015 0.00004805763346656 0.012364070531781 0.00015
          0.000052775834931525 0.012418323433379 0.00015 0 0.012444444444443 0.00015
          0 0.012388888888886 0.0003 0.00004805763346656 0.012364070531781 0.0003
          0.000052775834931525 0.012418323433379 0.0003 0 0.012444444444443 0.0003
          0.0004655657017567 0.012222981448331 0 0.0004403524252846 0.012306679111378 0
          0.00036518397892919 0.012268658791136 0 0.0004655657017567 0.012222981448331 0.00015
          0.0004403524252846 0.012306679111378 0.00015 0.00036518397892919 0.012268658791136 0.00015
          0.0004655657017567 0.012222981448331 0.0003 0.0004403524252846 0.012306679111378 0.0003
          0.00036518397892919 0.012268658791136 0.0003 0.00079059026611164 0.012574208252283 0
          0.00074033738884001 0.012629472897336 0 0.00079059026611164 0.012574208252283 0.00015
          0.00074033738884001 0.012629472897336 0.00015 0.00079059026611164 0.012574208252283 0.0003
          0.00074033738884001 0.012629472897336 0.0003 0.00049134001885305 0.012124425854677 0
          0.00060162315338905 0.012101782274206 0 0.00049134001885305 0.012124425854677 0.00015
          0.00060162315338905 0.012101782274206 0.00015 0.00049134001885305 0.012124425854677 0.0003
          0.00060162315338905 0.012101782274206 0.0003 0.00055165526617401 0.012365152711649 0
          0.00046621557592763 0.012427373679685 0 0.00055165526617401 0.012365152711649 0.00015
          0.00046621557592763 0.012427373679685 0.00015 0.00055165526617401 0.012365152711649 0.0003
          0.00046621557592763 0.012427373679685 0.0003 0.00065175768920993 0.012395993188634 0
          0.00078658012555766 0.01242031863996 0 0.00065175768920993 0.012395993188634 0.00015
          0.00078658012555766 0.01242031863996 0.00015 0.00065175768920993 0.012395993188634 0.0003
          0.00078658012555766 0.01242031863996 0.0003 0.00072222222222142 0.013 0
          0.00076767785213736 0.012949407633443 0 0.00077777777777722 0.013 0
          0.00072222222222142 0.013 0.00015 0.00076767785213736 0.012949407633443 0.00015
          0.00077777777777722 0.013 0.00015 0.00072222222222142 0.013 0.0003
          0.00076767785213736 0.012949407633443 0.0003 0.00077777777777722 0.013 0.0003
          0.001 0.01228571428572 0 0.001 0.012428571428581 0
          0.00085243404696798 0.012340254950119 0 0.001 0.01228571428572 0.00015
          0.001 0.012428571428581 0.00015 0.00085243404696798 0.012340254950119 0.00015
          0.001 0.01228571428572 0.0003 0.001 0.012428571428581 0.0003
          0.00085243404696798 0.012340254950119 0.0003 0.000047305708530005 0.012255757186949 0
          0.000035989657241992 0.012305788523607 0 0 0.012277777777773 0
          0.000047305708530005 0.012255757186949 0.00015 0.000035989657241992 0.012305788523607 0.00015
          0 0.012277777777773 0.00015 0.000047305708530005 0.012255757186949 0.0003
          0.000035989657241992 0.012305788523607 0.0003 0 0.012277777777773 0.0003
          0 0.01233333333333 0 0 0.01233333333333 0.00015
          0 0.01233333333333 0.0003 0.00088888888888861 0.013 0
          0.00086852226729803 0.012945143609779 0 0.00092105077811413 0.012923509600428 0
          0.0009444444444442 0.013 0 0.00088888888888861 0.013 0.00015
          0.00086852226729803 0.012945143609779 0.00015 0.00092105077811413 0.012923509600428 0.00015
          0.0009444444444442 0.013 0.00015 0.00088888888888861 0.013 0.0003
          0.00086852226729803 0.012945143609779 0.0003 0.00092105077811413 0.012923509600428 0.0003
          0.0009444444444442 0.013 0.0003 0.000088322519872331 0.012287262323421 0
          0.000098057359918883 0.01234321954228 0 0.000088322519872331 0.012287262323421 0.00015
          0.000098057359918883 0.01234321954228 0.00015 0.000088322519872331 0.012287262323421 0.0003
          0.000098057359918883 0.01234321954228 0.0003 0.00082037799021753 0.012949927278989 0
          0.00083333333333302 0.013 0 0.00082037799021753 0.012949927278989 0.00015
          0.00083333333333302 0.013 0.00015 0.00082037799021753 0.012949927278989 0.0003
          0.00083333333333302 0.013 0.0003 0.000055423585756317 0.01245648439217 0
          0.00011750487062481 0.01240389197138 0 0.000055423585756317 0.01245648439217 0.00015
          0.00011750487062481 0.01240389197138 0.00015 0.000055423585756317 0.01245648439217 0.0003
          0.00011750487062481 0.01240389197138 0.0003 0.00022703795328819 0.012397087263253 0
          0.00024412512388832 0.012487409031957 0 0.00022703795328819 0.012397087263253 0.00015
          0.00024412512388832 0.012487409031957 0.00015 0.00022703795328819 0.012397087263253 0.0003
          0.00024412512388832 0.012487409031957 0.0003 0.00086622784349606 0.012879340816766 0
          0.00086622784349606 0.012879340816766 0.00015 0.00086622784349606 0.012879340816766 0.0003
          0.001 0.01214285714286 0 0.001 0.01214285714286 0.00015
          0.001 0.01214285714286 0.0003 0.00032807036377433 0.012530514194312 0
          0.00032139380548758 0.012616977778981 0 0.00032807036377433 0.012530514194312 0.00015
          0.00032139380548758 0.012616977778981 0.00015 0.00032807036377433 0.012530514194312 0.0003
          0.00032139380548758 0.012616977778981 0.0003 0.00078653837511981 0.012300730611142 0
          0.00078653837511981 0.012300730611142 0.00015 0.00078653837511981 0.012300730611142 0.0003
          0.00050187285486533 0.012723776617989 0 0.00050187285486533 0.012723776617989 0.00015
          0.00050187285486533 0.012723776617989 0.0003 0.00066666666666612 0.013 0
          0.00066666666666612 0.013 0.00015 0.00066666666666612 0.013 0.0003
          0.00086640285866826 0.012499721374928 0 0.00086640285866826 0.012499721374928 0.00015
          0.00086640285866826 0.012499721374928 0.0003 0.001 0.012857142857146 0
          0.001 0.012857142857146 0.00015 0.001 0.012857142857146 0.0003
          0.00043301270230906 0.012750000000722 0 0.00043301270230906 0.012750000000722 0.00015
          0.00043301270230906 0.012750000000722 0.0003 0.00025000000019401 0.01256698729822 0
          0.00025000000019401 0.01256698729822 0.00015 0.00025000000019401 0.01256698729822 0.0003
          0 0.0125 0 0 0.0125 0.00015
          0 0.0125 0.0003 0 0.012055555555554 0
          0 0.012055555555554 0.00015 0 0.012055555555554 0.0003
          0.001 0.013 0 0.001 0.013 0.00015
          0.001 0.013 0.0003 0.0005 0.013 0
          0.0005 0.013 0.00015 0.0005 0.013 0.0003
          0.0014444444444451 0.0095172413793029 0 0.0014444444444451 0.0095172413793029 0.00015
          0.0014444444444451 0.0095172413793029 0.0003 0.0018888888888902 0.0095172413793029 0
          0.0018888888888902 0.0095172413793029 0.00015 0.0018888888888902 0.0095172413793029 0.0003
          0.0014444444444452 0.0099310344827529 0 0.0014444444444452 0.0099310344827529 0.00015
          0.0014444444444452 0.0099310344827529 0.0003 0.0018888888888903 0.0099310344827529 0
          0.0018888888888903 0.0099310344827529 0.00015 0.0018888888888903 0.0099310344827529 0.0003
          0.0014444444444452 0.010344827586203 0 0.0014444444444452 0.010344827586203 0.00015
          0.0014444444444452 0.010344827586203 0.0003 0.0014444444444453 0.010758620689653 0
          0.0014444444444453 0.010758620689653 0.00015 0.0014444444444453 0.010758620689653 0.0003
          0.0014444444444453 0.0111724137931 0 0.0014444444444453 0.0111724137931 0.00015
          0.0014444444444453 0.0111724137931 0.0003 0.0014444444444454 0.01158620689655 0
          0.0014444444444454 0.01158620689655 0.00015 0.0014444444444454 0.01158620689655 0.0003
          0.0014444444444455 0.012 0 0.0014444444444455 0.012 0.00015
          0.0014444444444455 0.012 0.0003 0.0011659770658264 0.012184916069452 0
          0.0011978981211319 0.012291694091132 0 0.0011659770658264 0.012184916069452 0.00015
          0.0011978981211319 0.012291694091132 0.00015 0.0011659770658264 0.012184916069452 0.0003
          0.0011978981211319 0.012291694091132 0.0003 0.0014134281085546 0.012468353283698 0
          0.001412897365997 0.01265802692797 0 0.0011710921098332 0.012660749606473 0
          0.0011928404820732 0.012464476127519 0 0.0014134281085546 0.012468353283698 0.00015
          0.001412897365997 0.01265802692797 0.00015 0.0011710921098332 0.012660749606473 0.00015
          0.0011928404820732 0.012464476127519 0.00015 0.0014134281085546 0.012468353283698 0.0003
          0.001412897365997 0.01265802692797 0.0003 0.0011710921098332 0.012660749606473 0.0003
          0.0011928404820732 0.012464476127519 0.0003 0.0011801499871676 0.012824831216028 0
          0.0011801499871676 0.012824831216028 0.00015 0.0011801499871676 0.012824831216028 0.0003
          0.0014335559245349 0.012265987585326 0 0.0014335559245349 0.012265987585326 0.00015
          0.0014335559245349 0.012265987585326 0.0003 0.0014444444444455 0.013 0
          0.0014444444444455 0.013 0.00015 0.0014444444444455 0.013 0.0003
          0.0023333333333355 0.0099310344827529 0 0.0023333333333353 0.0095172413793029 0
          0.0023333333333355 0.0099310344827529 0.00015 0.0023333333333353 0.0095172413793029 0.00015
          0.0023333333333355 0.0099310344827529 0.0003 0.0023333333333353 0.0095172413793029 0.0003
          0.0018888888888904 0.010344827586203 0 0.0018888888888904 0.010344827586203 0.00015
          0.0018888888888904 0.010344827586203 0.0003 0.0023333333333357 0.010344827586203 0
          0.0023333333333357 0.010344827586203 0.00015 0.0023333333333357 0.010344827586203 0.0003
          0.0018888888888905 0.010758620689653 0 0.0018888888888905 0.010758620689653 0.00015
          0.0018888888888905 0.010758620689653 0.0003 0.0018888888888907 0.0111724137931 0
          0.0018888888888907 0.0111724137931 0.00015 0.0018888888888907 0.0111724137931 0.0003
          0.0018888888888908 0.01158620689655 0 0.0018888888888908 0.01158620689655 0.00015
          0.0018888888888908 0.01158620689655 0.0003 0.0018888888888909 0.012 0
          0.0018888888888909 0.012 0.00015 0.0018888888888909 0.012 0.0003
          0.0017386847932316 0.012348636106575 0 0.0017386847932316 0.012348636106575 0.00015
          0.0017386847932316 0.012348636106575 0.0003 0.0018888888888909 0.013 0
          0.001702980389272 0.012655949584096 0 0.0020604062010233 0.012679406151259 0
          0.0018888888888909 0.013 0.00015 0.001702980389272 0.012655949584096 0.00015
          0.0020604062010233 0.012679406151259 0.00015 0.0018888888888909 0.013 0.0003
          0.001702980389272 0.012655949584096 0.0003 0.0020604062010233 0.012679406151259 0.0003
          <InformationKey name="L2_NORM_RANGE" location="vtkDataArray" length="2">
            <Value index="0">
              0.008275862069
            </Value>
            <Value index="1">
              0.013139935359
            </Value>
          </InformationKey>
        </DataArray>
      </Points>
      <Cells>
        <DataArray type="Int64" Name="connectivity" format="ascii" RangeMin="0" RangeMax="755">
          1 0 6 7 3 2
          8 9 3 2 8 9
          5 4 10 11 7 6
          12 13 9 8 14 15
          9 8 14 15 11 10
          16 17 13 12 18 19
          15 14 20 21 15 14
          20 21 17 16 22 23
          19 18 24 25 21 20
          26 27 21 20 26 27
          23 22 28 29 25 24
          30 31 27 26 32 33
          27 26 32 33 29 28
          34 35 31 30 36 37
          33 32 38 39 33 32
          38 39 35 34 40 41
          37 36 42 43 39 38
          44 45 39 38 44 45
          41 40 46 47 43 42
          48 49 45 44 50 51
          45 44 50 51 47 46
          52 53 49 48 54 55
          51 50 56 57 51 50
          56 57 53 52 58 59
          0 60 63 6 2 61
          64 8 2 61 64 8
          4 62 65 10 6 63
          66 12 8 64 67 14
          8 64 67 14 10 65
          68 16 12 66 69 18
          14 67 70 20 14 67
          70 20 16 68 71 22
          18 69 72 24 20 70
          73 26 20 70 73 26
          22 71 74 28 24 72
          75 30 26 73 76 32
          26 73 76 32 28 74
          77 34 30 75 78 36
          32 76 79 38 32 76
          79 38 34 77 80 40
          36 78 81 42 38 79
          82 44 38 79 82 44
          40 80 83 46 42 81
          84 48 44 82 85 50
          44 82 85 50 46 83
          86 52 48 84 87 54
          50 85 88 56 50 85
          88 56 52 86 89 58
          60 90 93 63 61 91
          94 64 61 91 94 64
          62 92 95 65 63 93
          96 66 64 94 97 67
          64 94 97 67 65 95
          98 68 66 96 99 69
          67 97 100 70 67 97
          100 70 68 98 101 71
          69 99 102 72 70 100
          103 73 70 100 103 73
          71 101 104 74 72 102
          105 75 73 103 106 76
          73 103 106 76 74 104
          107 77 75 105 108 78
          76 106 109 79 76 106
          109 79 77 107 110 80
          78 108 111 81 79 109
          112 82 79 109 112 82
          80 110 113 83 81 111
          114 84 82 112 115 85
          82 112 115 85 83 113
          116 86 84 114 117 87
          85 115 118 88 85 115
          118 88 86 116 119 89
          90 120 123 93 91 121
          124 94 91 121 124 94
          92 122 125 95 93 123
          126 96 94 124 127 97
          94 124 127 97 95 125
          128 98 96 126 129 99
          97 127 130 100 97 127
          130 100 98 128 131 101
          99 129 132 102 100 130
          133 103 100 130 133 103
          101 131 134 104 102 132
          135 105 103 133 136 106
          103 133 136 106 104 134
          137 107 105 135 138 108
          106 136 139 109 106 136
          139 109 107 137 140 110
          108 138 141 111 109 139
          142 112 109 139 142 112
          110 140 143 113 111 141
          144 114 112 142 145 115
          112 142 145 115 113 143
          146 116 114 144 147 117
          115 145 148 118 115 145
          148 118 116 146 149 119
          120 150 153 123 121 151
          154 124 121 151 154 124
          122 152 155 125 123 153
          156 126 124 154 157 127
          124 154 157 127 125 155
          158 128 126 156 159 129
          127 157 160 130 127 157
          160 130 128 158 161 131
          129 159 162 132 130 160
          163 133 130 160 163 133
          131 161 164 134 132 162
          165 135 133 163 166 136
          133 163 166 136 134 164
          167 137 135 165 168 138
          136 166 169 139 136 166
          169 139 137 167 170 140
          138 168 171 141 139 169
          172 142 139 169 172 142
          140 170 173 143 141 171
          174 144 142 172 175 145
          142 172 175 145 143 173
          176 146 144 174 177 147
          145 175 178 148 145 175
          178 148 146 176 179 149
          150 180 183 153 151 181
          184 154 151 181 184 154
          152 182 185 155 153 183
          186 156 154 184 187 157
          154 184 187 157 155 185
          188 158 156 186 189 159
          157 187 190 160 157 187
          190 160 158 188 191 161
          159 189 192 162 160 190
          193 163 160 190 193 163
          161 191 194 164 162 192
          195 165 163 193 196 166
          163 193 196 166 164 194
          197 167 165 195 198 168
          166 196 199 169 166 196
          199 169 167 197 200 170
          168 198 201 171 169 199
          202 172 169 199 202 172
          170 200 203 173 171 201
          204 174 172 202 205 175
          172 202 205 175 173 203
          206 176 174 204 207 177
          175 205 208 178 175 205
          208 178 176 206 209 179
          180 210 213 183 181 211
          214 184 181 211 214 184
          182 212 215 185 183 213
          216 186 184 214 217 187
          184 214 217 187 185 215
          218 188 186 216 219 189
          187 217 220 190 187 217
          220 190 188 218 221 191
          189 219 222 192 190 220
          223 193 190 220 223 193
          191 221 224 194 192 222
          225 195 193 223 226 196
          193 223 226 196 194 224
          227 197 195 225 228 198
          196 226 229 199 196 226
          229 199 197 227 230 200
          198 228 231 201 199 229
          232 202 199 229 232 202
          200 230 233 203 201 231
          234 204 202 232 235 205
          202 232 235 205 203 233
          236 206 204 234 237 207
          205 235 238 208 205 235
          238 208 206 236 239 209
          210 240 243 213 211 241
          244 214 211 241 244 214
          212 242 245 215 213 243
          246 216 214 244 247 217
          214 244 247 217 215 245
          248 218 216 246 249 219
          217 247 250 220 217 247
          250 220 218 248 251 221
          219 249 252 222 220 250
          253 223 220 250 253 223
          221 251 254 224 222 252
          255 225 223 253 256 226
          223 253 256 226 224 254
          257 227 225 255 258 228
          226 256 259 229 226 256
          259 229 227 257 260 230
          228 258 261 231 229 259
          262 232 229 259 262 232
          230 260 263 233 231 261
          264 234 232 262 265 235
          232 262 265 235 233 263
          266 236 234 264 267 237
          235 265 268 238 235 265
          268 238 236 266 269 239
          246 270 273 249 247 271
          274 250 247 271 274 250
          248 272 275 251 249 273
          276 252 250 274 277 253
          250 274 277 253 251 275
          278 254 252 276 279 255
          253 277 280 256 253 277
          280 256 254 278 281 257
          255 279 282 258 256 280
          283 259 256 280 283 259
          257 281 284 260 258 282
          285 261 259 283 286 262
          259 283 286 262 260 284
          287 263 261 285 288 264
          262 286 289 265 262 286
          289 265 263 287 290 266
          264 288 291 267 265 289
          292 268 265 289 292 268
          266 290 293 269 294 295
          296 297 298 299 300 301
          298 299 300 301 302 303
          304 305 306 294 297 307
          308 298 301 309 308 298
          301 309 310 302 305 311
          312 306 313 314 315 308
          316 317 315 308 316 317
          318 310 319 320 321 322
          323 324 325 326 327 328
          325 326 327 328 329 330
          331 332 333 334 335 336
          337 338 339 340 337 338
          339 340 341 342 343 344
          345 346 347 348 349 350
          351 352 349 350 351 352
          353 354 355 356 357 358
          359 360 361 362 363 364
          361 362 363 364 365 366
          367 368 267 369 370 237
          268 371 372 238 268 371
          372 238 269 373 374 239
          375 347 376 322 377 351
          378 326 377 351 378 326
          379 355 380 330 381 382
          383 384 385 386 387 388
          385 386 387 388 389 390
          391 392 393 394 395 396
          397 398 399 400 397 398
          399 400 401 402 403 404
          323 322 405 406 327 326
          407 408 327 326 407 408
          331 330 409 410 411 412
          413 414 415 416 417 418
          415 416 417 418 419 420
          421 422 423 424 425 426
          427 428 429 430 427 428
          429 430 431 432 433 434
          435 436 437 438 439 440
          441 442 439 440 441 442
          443 444 445 446 447 358
          357 448 449 362 361 450
          449 362 361 450 451 366
          365 452 54 87 453 394
          56 88 454 398 56 88
          454 398 58 89 455 402
          456 457 295 294 458 459
          299 298 458 459 299 298
          460 461 303 302 457 462
          463 464 459 465 466 467
          459 465 466 467 461 468
          469 470 456 294 312 381
          458 298 315 385 458 298
          315 385 460 302 318 389
          471 472 473 474 475 476
          477 478 475 476 477 478
          479 480 481 482 483 395
          484 485 486 399 487 488
          486 399 487 488 489 403
          490 491 370 492 359 493
          372 494 363 495 372 494
          363 495 374 496 367 497
          237 370 493 207 238 372
          495 208 238 372 495 208
          239 374 497 209 336 335
          498 499 340 339 500 501
          340 339 500 501 344 343
          502 503 463 334 504 505
          466 338 506 507 466 338
          506 507 469 342 508 509
          510 511 512 513 514 515
          516 517 514 515 516 517
          518 519 520 521 522 523
          524 346 525 526 527 350
          525 526 527 350 528 529
          530 354 531 532 464 505
          533 534 467 507 533 534
          467 507 535 536 470 509
          537 147 177 538 539 148
          178 540 539 148 178 540
          541 149 179 542 523 543
          544 471 526 545 546 475
          526 545 546 475 529 547
          548 479 549 360 550 505
          551 364 552 507 551 364
          552 507 553 368 554 509
          555 313 556 557 558 316
          559 560 558 316 559 560
          561 319 562 563 564 565
          566 492 567 568 569 494
          567 568 569 494 570 571
          572 496 573 574 575 485
          576 577 578 488 576 577
          578 488 579 580 581 491
          582 574 511 510 583 577
          515 514 583 577 515 514
          584 580 519 518 87 117
          348 453 88 118 352 454
          88 118 352 454 89 119
          356 455 504 334 544 543
          506 338 546 545 506 338
          546 545 508 342 548 547
          585 586 587 588 589 590
          591 592 589 590 591 592
          593 594 595 596 574 597
          598 511 577 599 600 515
          577 599 600 515 580 601
          602 519 375 322 321 453
          377 326 325 454 377 326
          325 454 379 330 329 455
          557 556 603 604 560 559
          605 606 560 559 605 606
          563 562 607 608 425 609
          512 610 429 611 516 612
          429 611 516 612 433 613
          520 614 207 493 538 177
          208 495 540 178 208 495
          540 178 209 497 542 179
          615 473 616 426 617 477
          618 430 617 477 618 430
          619 481 620 434 297 414
          621 307 301 418 622 309
          301 418 622 309 305 422
          623 311 492 369 624 564
          494 371 625 567 494 371
          625 567 496 373 626 570
          627 333 336 628 629 337
          340 630 629 337 340 630
          631 341 344 632 360 633
          566 550 364 634 569 552
          364 634 569 552 368 635
          572 554 457 456 636 462
          459 458 637 465 459 458
          637 465 461 460 638 468
          357 360 549 543 361 364
          551 545 361 364 551 545
          365 368 553 547 295 464
          532 296 299 467 534 300
          299 467 534 300 303 470
          536 304 639 314 313 555
          640 317 316 558 640 317
          316 558 641 320 319 561
          471 474 524 523 475 478
          527 526 475 478 527 526
          479 482 530 529 426 610
          406 615 430 612 408 617
          430 612 408 617 434 614
          410 619 504 543 549 505
          506 545 551 507 506 545
          551 507 508 547 553 509
          566 565 642 550 569 568
          643 552 569 568 643 552
          572 571 644 554 610 512
          511 598 612 516 515 600
          612 516 515 600 614 520
          519 602 621 414 645 587
          622 418 646 591 622 418
          646 591 623 422 647 595
          405 474 615 406 407 478
          617 408 407 478 617 408
          409 482 619 410 381 384
          636 456 385 388 637 458
          385 388 637 458 389 392
          638 460 648 499 498 636
          649 501 500 637 649 501
          500 637 650 503 502 638
          616 651 423 426 618 652
          427 430 618 652 427 430
          620 653 431 434 324 597
          573 484 328 599 576 487
          328 599 576 487 332 601
          579 490 642 412 411 531
          643 416 415 533 643 416
          415 533 644 420 419 535
          538 358 447 537 540 362
          449 539 540 362 449 539
          542 366 451 541 524 376
          347 346 527 378 351 350
          527 378 351 350 530 380
          355 354 627 651 616 473
          629 652 618 477 629 652
          618 477 631 653 620 481
          405 322 376 474 407 326
          378 478 407 326 378 478
          409 330 380 482 306 307
          556 313 308 309 559 316
          308 309 559 316 310 311
          562 319 345 117 147 537
          349 118 148 539 349 118
          148 539 353 119 149 541
          414 297 296 411 418 301
          300 415 418 301 300 415
          422 305 304 419 621 586
          603 307 622 590 605 309
          622 590 605 309 623 594
          607 311 544 334 333 472
          546 338 337 476 546 338
          337 476 548 342 341 480
          348 347 375 453 352 351
          377 454 352 351 377 454
          356 355 379 455 531 505
          550 642 533 507 552 643
          533 507 552 643 535 509
          554 644 321 324 484 395
          325 328 487 399 325 328
          487 399 329 332 490 403
          598 597 323 406 600 599
          327 408 600 599 327 408
          602 601 331 410 447 448
          522 537 449 450 525 539
          449 450 525 539 451 452
          528 541 513 512 609 654
          517 516 611 655 517 516
          611 655 521 520 613 656
          604 603 586 585 606 605
          590 589 606 605 590 589
          608 607 594 593 463 462
          335 334 466 465 339 338
          466 465 339 338 469 468
          343 342 438 437 314 639
          442 441 317 640 442 441
          317 640 446 445 320 641
          436 383 382 437 440 387
          386 441 440 387 386 441
          444 391 390 445 393 657
          55 54 397 658 57 56
          397 658 57 56 401 659
          59 58 312 314 437 382
          315 317 441 386 315 317
          441 386 318 320 445 390
          346 345 537 522 350 349
          539 525 350 349 539 525
          354 353 541 528 498 335
          462 636 500 339 465 637
          500 339 465 637 502 343
          468 638 369 267 291 624
          371 268 292 625 371 268
          292 625 373 269 293 626
          358 538 493 359 362 540
          495 363 362 540 495 363
          366 542 497 367 394 453
          321 395 398 454 325 399
          398 454 325 399 402 455
          329 403 587 645 660 588
          591 646 661 592 591 646
          661 592 595 647 662 596
          448 543 523 522 450 545
          526 525 450 545 526 525
          452 547 529 528 472 333
          627 473 476 337 629 477
          476 337 629 477 480 341
          631 481 436 435 663 383
          440 439 664 387 440 439
          664 387 444 443 665 391
          411 296 532 531 415 300
          534 533 415 300 534 533
          419 304 536 535 609 425
          424 654 611 429 428 655
          611 429 428 655 613 433
          432 656 492 566 633 359
          494 569 634 363 494 569
          634 363 496 572 635 367
          393 394 54 397 398 56
          397 398 56 401 402 58
          413 414 645 417 418 646
          417 418 646 421 422 647
          628 627 651 630 629 652
          630 629 652 632 631 653
          117 348 345 118 352 349
          118 352 349 119 356 353
          565 642 412 568 643 416
          568 643 416 571 644 420
          457 295 464 459 299 467
          459 299 467 461 303 470
          463 464 505 466 467 507
          466 467 507 469 470 509
          499 336 628 501 340 630
          501 340 630 503 344 632
          384 636 648 388 637 649
          388 637 649 392 638 650
          492 369 370 494 371 372
          494 371 372 496 373 374
          473 474 615 477 478 617
          477 478 617 481 482 619
          381 382 312 385 386 315
          385 386 315 389 390 318
          471 472 544 475 476 546
          475 476 546 479 480 548
          582 574 575 583 577 578
          583 577 578 584 580 581
          312 306 294 315 308 298
          315 308 298 318 310 302
          524 376 474 527 378 478
          527 378 478 530 380 482
          396 393 657 400 397 658
          400 397 658 404 401 659
          483 395 396 486 399 400
          486 399 400 489 403 404
          357 448 543 361 450 545
          361 450 545 365 452 547
          485 573 484 488 576 487
          488 576 487 491 579 490
          621 586 587 622 590 591
          622 590 591 623 594 595
          324 597 323 328 599 327
          328 599 327 332 601 331
          603 307 556 605 309 559
          605 309 559 607 311 562
          610 425 426 612 429 430
          612 429 430 614 433 434
          360 633 359 364 634 363
          364 634 363 368 635 367
          598 610 406 600 612 408
          600 612 408 602 614 410
          574 597 573 577 599 576
          577 599 576 580 601 579
          672 276 273 666 673 277
          274 667 673 277 274 667
          674 278 275 668 675 672
          666 669 676 673 667 670
          676 673 667 670 677 674
          668 671 720 675 669 721
          722 676 670 723 722 676
          670 723 724 677 671 725
          678 279 276 672 679 280
          277 673 679 280 277 673
          680 281 278 674 726 678
          672 675 727 679 673 676
          727 679 673 676 728 680
          674 677 729 726 675 720
          730 727 676 722 730 727
          676 722 731 728 677 724
          681 282 279 678 682 283
          280 679 682 283 280 679
          683 284 281 680 732 681
          678 726 733 682 679 727
          733 682 679 727 734 683
          680 728 684 285 282 681
          685 286 283 682 685 286
          283 682 686 287 284 683
          735 684 681 732 736 685
          682 733 736 685 682 733
          737 686 683 734 687 288
          285 684 688 289 286 685
          688 289 286 685 689 290
          287 686 738 687 684 735
          739 688 685 736 739 688
          685 736 740 689 686 737
          690 291 288 687 691 292
          289 688 691 292 289 688
          692 293 290 689 741 690
          687 738 742 691 688 739
          742 691 688 739 743 692
          689 740 693 694 564 624
          695 696 567 625 695 696
          567 625 697 698 570 626
          699 700 701 702 703 704
          705 706 703 704 705 706
          707 708 709 710 702 701
          412 565 706 705 416 568
          706 705 416 568 710 709
          420 571 413 701 711 645
          417 705 712 646 417 705
          712 646 421 709 713 647
          690 741 744 714 691 742
          745 715 691 742 745 715
          692 743 746 716 714 699
          702 694 715 703 706 696
          715 703 706 696 716 707
          710 698 694 702 565 564
          696 706 568 567 696 706
          568 567 698 710 571 570
          747 717 748 749 750 718
          751 752 750 718 751 752
          753 719 754 755 699 744
          748 700 703 745 751 704
          703 745 751 704 707 746
          754 708 711 701 700 717
          712 705 704 718 712 705
          704 718 713 709 708 719
          714 694 693 690 715 696
          695 691 715 696 695 691
          716 698 697 692 291 690
          693 624 292 691 695 625
          292 691 695 625 293 692
          697 626 711 717 660 645
          712 718 661 646 712 718
          661 646 713 719 662 647
          714 699 744 715 703 745
          715 703 745 716 707 746
          748 700 717 751 704 718
          751 704 718 754 708 719
          413 701 412 417 705 416
          417 705 416 421 709 420
        </DataArray>
        <DataArray type="Int64" Name="offsets" format="ascii" RangeMin="8" RangeMax="3624">
          8 16 24 32 40 48
          56 64 72 80 88 96
          104 112 120 128 136 144
          152 160 168 176 184 192
          200 208 216 224 232 240
          248 256 264 272 280 288
          296 304 312 320 328 336
          344 352 360 368 376 384
          392 400 408 416 424 432
          440 448 456 464 472 480
          488 496 504 512 520 528
          536 544 552 560 568 576
          584 592 600 608 616 624
          632 640 648 656 664 672
          680 688 696 704 712 720
          728 736 744 752 760 768
          776 784 792 800 808 816
          824 832 840 848 856 864
          872 880 888 896 904 912
          920 928 936 944 952 960
          968 976 984 992 1000 1008
          1016 1024 1032 1040 1048 1056
          1064 1072 1080 1088 1096 1104
          1112 1120 1128 1136 1144 1152
          1160 1168 1176 1184 1192 1200
          1208 1216 1224 1232 1240 1248
          1256 1264 1272 1280 1288 1296
          1304 1312 1320 1328 1336 1344
          1352 1360 1368 1376 1384 1392
          1400 1408 1416 1424 1432 1440
          1448 1456 1464 1472 1480 1488
          1496 1504 1512 1520 1528 1536
          1544 1552 1560 1568 1576 1584
          1592 1600 1608 1616 1624 1632
          1640 1648 1656 1664 1672 1680
          1688 1696 1704 1712 1720 1728
          1736 1744 1752 1760 1768 1776
          1784 1792 1800 1808 1816 1824
          1832 1840 1848 1856 1864 1872
          1880 1888 1896 1904 1912 1920
          1928 1936 1944 1952 1960 1968
          1976 1984 1992 2000 2008 2016
          2024 2032 2040 2048 2056 2064
          2072 2080 2088 2096 2104 2112
          2120 2128 2136 2144 2152 2160
          2168 2176 2184 2192 2200 2208
          2216 2224 2232 2240 2248 2256
          2264 2272 2280 2288 2296 2304
          2312 2320 2328 2336 2344 2352
          2360 2368 2376 2384 2392 2400
          2408 2416 2424 2432 2440 2448
          2456 2464 2472 2480 2488 2496
          2504 2512 2520 2528 2536 2544
          2552 2560 2568 2576 2584 2592
          2600 2608 2616 2624 2632 2640
          2648 2656 2664 2672 2680 2688
          2696 2704 2712 2720 2728 2736
          2744 2752 2760 2768 2776 2784
          2792 2800 2808 2816 2824 2832
          2838 2844 2850 2856 2862 2868
          2874 2880 2886 2892 2898 2904
          2910 2916 2922 2928 2934 2940
          2946 2952 2958 2964 2970 2976
          2982 2988 2994 3000 3006 3012
          3018 3024 3030 3036 3042 3048
          3054 3060 3066 3072 3078 3084
          3090 3096 3102 3108 3114 3120
          3126 3132 3138 3144 3150 3156
          3164 3172 3180 3188 3196 3204
          3212 3220 3228 3236 3244 3252
          3260 3268 3276 3284 3292 3300
          3308 3316 3324 3332 3340 3348
          3356 3364 3372 3380 3388 3396
          3404 3412 3420 3428 3436 3444
          3452 3460 3468 3476 3484 3492
          3500 3508 3516 3524 3532 3540
          3548 3556 3564 3572 3580 3588
          3594 3600 3606 3612 3618 3624
        </DataArray>
        <DataArray type="UInt8" Name="types" format="ascii" RangeMin="12" RangeMax="13">
          12 12 12 12 12 12
          12 12 12 12 12 12
          12 12 12 12 12 12
          12 12 12 12 12 12
          12 12 12 12 12 12
          12 12 12 12 12 12
          12 12 12 12 12 12
          12 12 12 12 12 12
          12 12 12 12 12 12
          12 12 12 12 12 12
          12 12 12 12 12 12
          12 12 12 12 12 12
          12 12 12 12 12 12
          12 12 12 12 12 12
          12 12 12 12 12 12
          12 12 12 12 12 12
          12 12 12 12 12 12
          12 12 12 12 12 12
          12 12 12 12 12 12
          12 12 12 12 12 12
          12 12 12 12 12 12
          12 12 12 12 12 12
          12 12 12 12 12 12
          12 12 12 12 12 12
          12 12 12 12 12 12
          12 12 12 12 12 12
          12 12 12 12 12 12
          12 12 12 12 12 12
          12 12 12 12 12 12
          12 12 12 12 12 12
          12 12 12 12 12 12
          12 12 12 12 12 12
          12 12 12 12 12 12
          12 12 12 12 12 12
          12 12 12 12 12 12
          12 12 12 12 12 12
          12 12 12 12 12 12
          12 12 12 12 12 12
          12 12 12 12 12 12
          12 12 12 12 12 12
          12 12 12 12 12 12
          12 12 12 12 12 12
          12 12 12 12 12 12
          12 12 12 12 12 12
          12 12 12 12 12 12
          12 12 12 12 12 12
          12 12 12 12 12 12
          12 12 12 12 12 12
          12 12 12 12 12 12
          12 12 12 12 12 12
          12 12 12 12 12 12
          12 12 12 12 12 12
          12 12 12 12 12 12
          12 12 12 12 12 12
          12 12 12 12 12 12
          12 12 12 12 12 12
          12 12 12 12 12 12
          12 12 12 12 12 12
          12 12 12 12 12 12
          13 13 13 13 13 13
          13 13 13 13 13 13
          13 13 13 13 13 13
          13 13 13 13 13 13
          13 13 13 13 13 13
          13 13 13 13 13 13
          13 13 13 13 13 13
          13 13 13 13 13 13
          13 13 13 13 13 13
          12 12 12 12 12 12
          12 12 12 12 12 12
          12 12 12 12 12 12
          12 12 12 12 12 12
          12 12 12 12 12 12
          12 12 12 12 12 12
          12 12 12 12 12 12
          12 12 12 12 12 12
          12 12 12 12 12 12
          13 13 13 13 13 13
        </DataArray>
      </Cells>
    </Piece>
  </UnstructuredGrid>
</VTKFile>
