<?xml version="1.0"?>
<VTKFile type="UnstructuredGrid" version="0.1" byte_order="LittleEndian" header_type="UInt32" compressor="vtkZLibDataCompressor">
  <UnstructuredGrid>
    <Piece NumberOfPoints="774" NumberOfCells="452">
      <PointData>
        <DataArray type="Int32" Name="libmesh_node_id" format="ascii" RangeMin="2286" RangeMax="4991">
          2286 2287 2288 2289 2290 2291
          2292 2293 2294 2295 2296 2297
          2340 2341 2342 2343 2344 2345
          2346 2347 2348 2349 2350 2351
          2400 2401 2403 2404 2406 2407
          2412 2413 2414 2415 2416 2417
          2418 2419 2420 2421 2422 2423
          2487 2488 2489 2490 2491 2492
          2523 2524 2525 2526 2527 2528
          2529 2530 2531 2532 2533 2534
          2550 2551 2552 2553 2554 2555
          2556 2557 2558 2559 2560 2561
          2580 2581 2582 2583 2584 2585
          2685 2686 2687 2688 2689 2690
          2691 2692 2693 2694 2695 2696
          2698 2699 2700 2702 2703 2704
          2706 2707 2708 2796 2797 2798
          2799 2800 2801 2802 2803 2804
          2805 2806 2807 2838 2839 2840
          2841 2842 2843 2844 2845 2846
          2847 2848 2849 2881 2883 2885
          2949 2950 2951 2952 2953 2954
          2955 2956 2957 3054 3055 3056
          3057 3058 3059 3093 3094 3095
          3096 3097 3098 3099 3100 3101
          3102 3103 3104 3117 3118 3119
          3120 3121 3122 3123 3124 3125
          3126 3127 3128 3195 3196 3197
          3198 3199 3200 3201 3202 3203
          3210 3211 3212 3213 3214 3215
          3216 3217 3218 3219 3220 3221
          3222 3223 3224 3225 3226 3227
          3252 3253 3254 3255 3256 3257
          3300 3301 3302 3303 3304 3305
          3306 3307 3308 3309 3310 3311
          3318 3319 3320 3321 3322 3323
          3324 3325 3326 3327 3328 3329
          3330 3331 3332 3333 3334 3335
          3366 3367 3368 3378 3379 3380
          3381 3382 3383 3384 3385 3386
          3387 3388 3389 3390 3391 3392
          3453 3454 3455 3456 3457 3458
          3459 3460 3461 3483 3484 3485
          3492 3493 3494 3525 3526 3528
          3529 3531 3532 3543 3544 3545
          3564 3565 3566 3567 3568 3569
          3570 3571 3572 3588 3589 3590
          3591 3592 3593 3609 3610 3611
          3612 3613 3614 3615 3616 3617
          3618 3619 3620 3630 3631 3632
          3633 3634 3635 3636 3637 3638
          3639 3640 3641 3654 3655 3656
          3657 3658 3659 3660 3661 3662
          3684 3685 3686 3687 3689 3691
          3693 3694 3695 3696 3697 3698
          3708 3709 3710 3711 3712 3713
          3735 3736 3737 3738 3739 3740
          3741 3742 3743 3744 3745 3746
          3747 3748 3749 3762 3763 3764
          3771 3772 3773 3774 3775 3776
          3777 3778 3779 3786 3787 3788
          3795 3796 3797 3798 3799 3800
          3801 3802 3803 3804 3805 3806
          3807 3808 3809 3816 3817 3818
          3834 3835 3836 3837 3838 3839
          3846 3847 3848 3849 3850 3851
          3861 3862 3863 3882 3884 3885
          3887 3888 3890 3900 3901 3902
          3903 3904 3905 3906 3907 3908
          3924 3925 3926 3927 3928 3929
          3930 3931 3932 3939 3940 3941
          3942 3943 3944 3954 3955 3956
          3958 3959 3960 3962 3963 3964
          3969 3970 3971 3972 3973 3974
          3993 3994 3995 4032 4033 4034
          4035 4036 4037 4053 4054 4055
          4056 4057 4058 4059 4060 4061
          4062 4063 4064 4089 4090 4091
          4104 4105 4106 4107 4108 4109
          4116 4117 4118 4128 4129 4130
          4167 4168 4169 4170 4171 4172
          4185 4186 4187 4208 4209 4212
          4213 4216 4217 4233 4234 4235
          4236 4237 4238 4254 4255 4256
          4257 4258 4259 4269 4270 4271
          4272 4273 4274 4284 4285 4286
          4287 4288 4289 4290 4291 4292
          4293 4294 4295 4302 4303 4304
          4314 4315 4316 4317 4318 4319
          4320 4321 4322 4323 4324 4325
          4326 4327 4328 4338 4339 4340
          4344 4345 4346 4350 4351 4352
          4353 4354 4355 4365 4366 4367
          4368 4369 4370 4371 4372 4373
          4374 4375 4376 4377 4378 4379
          4380 4381 4382 4383 4384 4385
          4386 4387 4388 4389 4390 4391
          4398 4399 4400 4416 4417 4418
          4422 4423 4424 4425 4426 4427
          4428 4429 4430 4434 4435 4436
          4437 4438 4439 4440 4441 4442
          4443 4444 4445 4458 4459 4460
          4482 4483 4484 4485 4486 4487
          4488 4489 4490 4491 4492 4493
          4494 4495 4496 4497 4498 4499
          4500 4501 4502 4506 4507 4508
          4509 4510 4511 4518 4519 4520
          4521 4522 4523 4545 4546 4547
          4566 4567 4568 4569 4570 4571
          4572 4573 4574 4599 4600 4601
          4602 4603 4604 4605 4606 4607
          4611 4612 4613 4647 4648 4649
          4650 4651 4652 4653 4654 4655
          4656 4657 4658 4677 4678 4679
          4689 4690 4691 4692 4693 4694
          4695 4696 4697 4716 4717 4718
          4743 4744 4745 4746 4747 4748
          4749 4750 4751 4779 4780 4781
          4788 4789 4790 4800 4801 4802
          4803 4804 4805 4806 4807 4808
          4809 4810 4811 4830 4831 4832
          4872 4873 4874 4902 4903 4904
          4923 4924 4925 4968 4969 4970
          4986 4987 4988 4989 4990 4991
          2880 2882 2884 3883 3873 3886
          3876 3889 3879 3957 3961 3965
          3875 3878 3881 4119 4120 4121
          4206 4207 4210 4211 4214 4215
          4347 4348 4349 4251 4252 4253
        </DataArray>
        <DataArray type="Float64" Name="resid_x" format="ascii" RangeMin="-0.05502466507291093" RangeMax="0.030086551952662965">
          0.00003894604864607132 0.00044534693322972885 0.0005005054994429159 0.0011359782989277534 -0.001941637713064992 -0.0007059537949478667
          -0.004213629735283497 -0.0027367364569297337 -0.010228499815842618 -0.010801479398496738 -0.01128955700406653 -0.010001246696808685
          -0.003825609341820524 0.0005809996807837337 0.00037462870956360417 0.001880757328651228 -0.010753727322751594 -0.0017330781983311283
          -0.003079011398254519 -0.00142835618561854 -0.021601951338951153 -0.01222145835691002 -0.01129841289982425 -0.014137431286965096
          -0.01579439727304255 -0.0022778925275099837 -0.02433298012724272 -0.0032388413004671435 -0.016308762087540174 -0.005117443912335595
          -0.002065252525630612 0.0003282131614747996 0.00040930827719876106 -0.002063426406135882 -0.00643228486417069 -0.002008461940791406
          -0.004239726579819525 -0.010087372987424459 -0.009820647597487131 -0.00832232645084563 -0.0098949240706383 -0.012133207145169855
          -0.006417761407005562 -0.004149993755516057 -0.00428486855244925 -0.0034238734030509477 -0.009877897089190402 -0.010712339364244983
          -0.00013569998388440752 0.0006520270471865874 -0.005508150862176819 -0.005152423294200403 -0.00022371501586526676 0.0007228728505355164
          -0.012707268289521068 -0.013844017013163068 -0.0009169165760303244 -0.000037019054516029826 -0.006428847758020773 -0.008276280739965003
          0.000020206151711832376 0.00020217073477768466 0.0005286720926536148 0.0003811008562664142 -0.0006569910054148309 0.000014645024472237367
          0.0002684499097753701 -0.0025671364631572047 -0.005259848913455212 -0.0030934469711252355 -0.003601095294932577 -0.005819673665341085
          -0.0011935552392987603 -0.0013931603393277925 -0.0020543853534329415 -0.00313261447874158 -0.006905006413921555 -0.009010825276503098
          -0.000008320231926539634 -0.0002698724563252597 0.0001526317826110457 -0.000038342805248170464 -0.000006882108921857366 -0.00019959247903411637
          0.000491716725794511 0.00033635515259877735 -0.0033197911033981953 -0.003716304952572358 -0.0036377497548389925 -0.003285763766677441
          -0.00763660333583438 -0.009261113148018474 -0.004139830713651094 -0.014608574505601268 -0.005862767190269125 -0.0014586306761685819
          -0.011989171780555807 -0.010390682639173754 -0.006337034801941144 0.000026236615046748568 0.00011764288793436606 0.0004139896288526401
          0.000329632509928679 -0.0012946080124960346 -0.0008633820095123035 -0.00022182379168178556 -0.002477314060667535 -0.00516540172634361
          -0.0046437746153285 -0.003841734003262154 -0.005570938232155598 0.00005729601574966381 0.00006376110701911131 0.00021345838374120518
          0.00012449177040307902 -0.0007616959209366669 -0.0013659579229674534 -0.0006479493617890242 -0.0024088366542960316 -0.002686526164500158
          -0.003750448991214128 -0.003566572962994563 -0.003611195201834949 -0.009398272988486944 -0.01504005781388873 -0.013380511965952024
          -0.0019046450161122053 -0.00105124173188198 -0.002538220861804774 -0.0018978698201346234 -0.001237709095430084 -0.003308321258498559
          -0.0023777577965411467 -0.0019092110160148223 -0.0038063922154978336 -0.0008562762318922168 -0.0022930230676987406 -0.0006385758867262226
          -0.0029452193046184405 -0.002619205837607552 -0.004518098571642426 -0.006934325821522869 -0.0057672237560160156 0.00008460227820306088
          0.0005664527669297925 -0.005595895640372106 -0.0032745635032593867 -0.00040439774267353457 0.0008076171325885895 -0.00749549593551091
          -0.006569471522349879 -0.0034114791581121295 -0.0028686365393166824 0.00012785735200981918 -0.000023584799444531512 0.0021827152174846987
          -0.0024135726917879907 0.00014597382813441584 0.00036751078036934004 0.0028724254990493137 -0.004169807434372785 -0.003002867304457979
          -0.0022123400050206854 -0.0015476581151112612 -0.017542616540778155 -0.0005341164658898556 -0.0015239108080660202 -0.0035751229645546445
          -0.002613625698075328 -0.004293450471578808 -0.0032852700175416416 -0.007685377442446573 -0.012070366828769608 -0.006772252153139036
          -0.004371831137826021 0.00029739538317663516 -0.01284175542923549 0.00040473071032121055 -0.02381660124486462 -0.0011304539152519055
          0.00013422456488410006 -0.0014442698974796997 -0.002779749285156008 0.0008850372097395365 0.000039609597322076695 -0.0023244643942437193
          -0.0032256406531430137 0.0005860856704700268 -0.0069009802691670785 -0.0068137572480631015 -0.00667714093972549 -0.004598679089392377
          -0.004501223631143247 -0.008523589379953123 -0.002151129681325692 -0.012743670810420049 -0.007218998351642192 -0.013425201533570963
          -0.00015868167451493775 -0.0003973151910035 -0.0018950112164617394 -0.002836473291026209 -0.003723456262331837 -0.003941611724894045
          -0.004317433665986137 -0.0047505553369324716 -0.0018305547556862756 -0.001893546389408307 -0.005913389349564646 -0.006862014393040461
          -0.0012285133372405 -0.0029200117303251893 -0.0006736566193925597 0.00035749232845561085 -0.002888176267498155 -0.006049360921608571
          -0.003370494480780195 -0.0024485535985401263 -0.007463115855345315 -0.006826380400807075 -0.005946056471884731 -0.007960893974129357
          -0.0026396516046345297 -0.0007517335596505248 -0.0017494313884256485 -0.0008808468622758525 -0.0029128655607790765 -0.002842871998046448
          -0.0003687973709194381 -0.0010971867781783828 -0.0031356089183240954 -0.0023611644779957253 -0.0028255066919262717 -0.0020279538304186495
          -0.0027868488366200594 -0.0034836884157583015 -0.005992646403369051 -0.0009660286432131571 -0.0007070347991842141 -0.001027141250155239
          -0.0007435835344873354 -0.00045794528963316594 -0.003435755925160322 -0.002122556822058641 -0.0017619007846843004 -0.003634437788950784
          0.0000010423773604273379 0.0003123361770489552 0.00010278474418967676 -0.00022890286950616456 0.0006898338603917864 0.000020122953959145207
          -0.002356032408129316 -0.0016707892509515432 -0.0024645876199471672 -0.005359418605528354 -0.0030703364353241724 -0.002897717383634202
          0.000011860231731830595 -0.00027394301149286093 -0.0018044407180601851 -0.009265645705845316 -0.014735268023697401 -0.02101611000590964
          -0.023836535067776055 -0.016257535777409515 -0.015913834362931922 0.00044832163312946705 0.0009044704971730155 -0.0015662916586292042
          -0.0001593163558970545 -0.002871813811064605 -0.0035929892130308616 -0.0004987254894075477 -0.002674443748457822 -0.002165521299699158
          -0.00497069341704881 -0.005622787923891703 -0.007177824257052823 -0.0019358165037219877 -0.0015031417087882915 -0.0026319434035935174
          -0.0013826456830825506 -0.005830887558540887 -0.004859753314474968 -0.01091546173170066 -0.0040947776201882835 -0.012129173063393672
          -0.00004711263804679788 -0.017227953818942154 -0.010220566518283292 -0.02442890192456293 -0.005169373621946249 -0.014172405157021117
          -0.01024710398093176 -0.012944286814388306 -0.01094633749933216 -0.00000592061383830611 -0.0017620293779918583 -0.0023195634550630118
          -0.00013370688074232362 -0.0010464365890809901 -0.004312451256374139 -0.003286597769422528 -0.0019886114912157637 -0.008303113432727827
          -0.010108428001419867 -0.011053204783242343 -0.011281174957536777 -0.007402869890356101 -0.00017961479227279753 0.0006494656624971284
          -0.0162578222680132 -0.001436227825326153 -0.0016574219917950828 -0.01366048400984532 -0.009875202467775068 -0.006645892718160518
          -0.003877995108160448 -0.0017147268526356285 -0.0024972054206022776 -0.003957086165174317 -0.006007344859037644 -0.0037296271804745373
          -0.00960135166247067 -0.0017543935571779912 -0.013779832293695726 0.0007817784289905205 -0.007147909735546243 -0.010908483727219753
          -0.008056654274655628 -0.008642878413525956 -0.004816982617586341 -0.004054307591846218 -0.009667021105222773 -0.009152290546172281
          -0.00896826101125825 -0.0038597803161106725 -0.003171636500724606 -0.008359152924216184 -0.002410807918161867 -0.005521390155267092
          -0.006849176414575275 -0.004845565073574809 -0.0011981834206794273 -0.00240083171567651 -0.00609293703475533 -0.013603040782192322
          -0.003938643562395927 -0.007740237773534275 -0.011951657951005501 -0.010195030475778744 -0.0047976511038720915 -0.010572080957010677
          -0.009264582309204794 -0.005564778756634414 -0.013352228071648042 -0.0030390814073022465 -0.003700352044985422 -0.0011958216954028877
          -0.0030504541870568502 -0.0065268178404975785 -0.007650051047559003 -0.006069737153620913 -0.003963270579948386 -0.005669109348381163
          -0.006536333141762718 -0.005156146354624802 -0.004925812775502081 -0.0031257305086649367 -0.00740737977741901 -0.0076814279272205965
          -0.004256334181498289 -0.0022391884871320045 -0.002345249969866181 -0.005582800087617912 -0.004258872597035612 -0.004715980336191999
          -0.003177084351985826 -0.009660483995650226 -0.009621981833817017 -0.009366542018816704 -0.004435769638315379 -0.01067358607335811
          -0.007249266482003414 -0.0039644553831470475 -0.010367223214179155 -0.00677504375942084 -0.0029370874050078655 -0.00836842707638985
          -0.0012112493088629606 -0.0024255282266825162 -0.0002486817191229562 -0.0025282756501954218 -0.0024297290082717637 -0.004438975296638503
          -0.008183315659187618 -0.0021807670514268074 -0.0073644303661444255 -0.014717317928384155 -0.017955706421027173 -0.02939081959364298
          -0.027227937809447766 -0.01810157348385566 -0.02114532294277538 -0.0017706255906686508 -0.0021010894481037212 -0.001790427799768679
          -0.0010701167605033923 -0.001923745482200978 -0.0018105571162578826 -0.0032654610703928277 -0.0036807187372875916 -0.0027760471300597445
          -0.004894663285045953 -0.0013084394937710186 -0.00582670353307968 -0.0033164770283096168 0.00063819047502367 -0.0037509479803530255
          -0.00678551095851021 -0.0048401310141485965 -0.005919115326966207 -0.00803277405290359 -0.0075756706876259905 -0.011833837435812455
          -0.009408723656884277 -0.0063818670174926595 -0.004498348838798183 -0.012261809705357507 -0.006767138679299123 -0.020926896122151817
          -0.02658959475627043 -0.010344691982144383 -0.026848836310403357 -0.018021723165936976 -0.011375325919502188 -0.019446239227064233
          -0.016822697039071244 -0.01604028941755198 -0.012517574112723473 -0.005810059339432794 -0.008624757053880217 -0.009131871832321004
          -0.007742974309407735 -0.007709211833523355 -0.0075400969468599754 -0.0017001503739209056 -0.002296334747214246 -0.00005609567003084237
          -0.0018133840457732475 -0.0022654180602152962 -0.003953316446419386 -0.0023481116335455354 -0.001136826751390707 -0.0010260952005580748
          -0.0008881661538433505 -0.0022309880362270107 -0.002220136646287507 -0.003394084825312671 -0.0007998163406766068 -0.00361099186055025
          -0.000712600948328479 -0.005568402640277803 -0.00393375144419128 -0.005402633786377287 -0.003937285984030314 -0.005172316715715386
          -0.004660019337333843 -0.012795613011976847 -0.0025648343341249102 -0.006861672950962294 -0.002741360255302361 -0.007465170271728105
          -0.004923716196387318 -0.0019111292668387847 -0.0037342331689238506 -0.00872730328471949 -0.0004005363976657961 -0.009507287125964936
          -0.004030161236967977 -0.0011076285931270746 -0.004672413030858635 -0.008300364107732605 -0.0006015087668700403 -0.0098299587955335
          -0.008255927309496203 -0.001115009928155608 -0.009563075266390886 -0.02024104331809795 -0.011419822452483963 -0.02745098896716902
          -0.01580094909879648 -0.01547294971605151 -0.00868572642165688 -0.010324189800361205 -0.011401106147679307 -0.003858858815693589
          -0.005347108691293734 -0.0075454689282822285 -0.009874145928670863 -0.005992898804608515 -0.0029726736182400515 -0.006952201459636598
          -0.004969859261340304 -0.00035902395012499255 -0.007511602092042935 -0.014522641071836873 -0.0040750035590253475 -0.01015844588709669
          -0.00595386945332077 -0.0026841215815096575 -0.002908768802859285 -0.004466279510378257 -0.003887599799460517 -0.004485755420465587
          -0.006826890071649494 -0.009098823758957764 -0.008075436856793239 -0.004566273068217441 -0.004549826461317075 -0.00147009311053381
          -0.0008699088055772464 -0.005272123170595222 -0.00535439543388172 -0.005601257880484489 -0.002543203335673816 -0.0055823400838326265
          -0.0021362546792422776 -0.004424002644559888 -0.0003591075759801221 -0.005245000760040863 -0.004580471702782862 -0.004623775846110956
          -0.0053913085189343235 -0.009032229179112505 -0.0003690727012513051 -0.001822846107955911 -0.01972931834486147 -0.00005734914521315915
          -0.006694754432334804 -0.015318851950967272 -0.005910850937902445 -0.003168225041703998 -0.003514673756848552 -0.006828502147657289
          -0.005233502214504249 -0.002067763942748435 -0.005082134248707959 -0.006870145190880805 -0.006408686826856247 -0.0010334649090761872
          -0.0006611216853613655 -0.010914441317868118 -0.00798952950050058 -0.008900837121392335 -0.004831525276960402 -0.0032202479805727435
          -0.0004390544251480222 -0.005428443459793542 -0.004029982248339614 -0.0046453558183947585 0.00014035406460566335 -0.003994973537059021
          -0.009443141591424897 -0.008766128396403783 -0.003738994757270575 -0.004438655728515428 -0.005182196401756656 -0.004905311369904464
          -0.004604061838650253 -0.0016489642024426487 -0.0003887604315133686 0.015544539996383833 -0.009586021666969202 -0.002267735917773628
          -0.0033255029505894207 0.030086551952662965 -0.009414810523630024 -0.004910910232606369 -0.006758730023880055 0.00587863268675104
          -0.00734832861313528 -0.0019374020262032943 -0.008388513049866653 -0.00698877713961954 -0.004154279766040769 -0.006831438929638445
          -0.0021171053696535935 -0.0037374136221366427 -0.0016314221473265889 -0.0024178295141910056 -0.0021211027785392744 -0.0018156877674178062
          -0.0098226157437043 -0.0016631449756303596 -0.005860505179436537 -0.013712631792254015 -0.0029237985042591674 -0.027846600080710715
          0.0002274321895843201 -0.020485210387583663 -0.005813572720269278 0.00019821450887391734 0.0007646196353796597 0.00015656847821077235
          0.0009960502076289401 -0.002289630402163567 -0.001747137010955413 -0.010504803409672192 -0.020845477257996237 -0.014880747992928711
          -0.006361561611647026 -0.0061690233717534015 -0.0008525561067003196 -0.0035221065627406567 -0.002894961708071797 -0.0033452136674900768
          -0.00020553815540846898 -0.00538738854267784 -0.0077548886461338284 -0.0034346093728219174 0.000024681133775850128 -0.006890954602822852
          -0.004555208784714715 -0.0031039513200434854 -0.004547274063310347 -0.009792490561011391 -0.008685545551574414 -0.006600459602778663
          -0.0012538172178047091 -0.0005734655932538857 -0.002366802846177407 -0.010712369611531436 -0.027175907455089465 -0.0044471310670486375
          -0.05502466507291093 -0.009702623519751263 -0.024086028548879312 -0.00055188118881766 -0.0009679248545673147 -0.00026359454066327004
          0.000210934766056603 -0.003256364114528232 -0.0034294458096262304 -0.0005988147112931941 0.0001429445345069169 -0.003783262227747386
          -0.00712649176656055 0.00009998087794338417 -0.007870649979956124 -0.0009864015844316398 -0.00039978428680687017 -0.002495574223048358
          -0.009792360931125899 -0.007181054129458797 -0.008390057182615873 -0.011510840444860726 -0.019348791615215077 -0.011594538835187684
          -0.00047274777614081387 -0.002166807118496372 -0.000302839629627627 -0.0012140563119311665 -0.002709608940034691 -0.002930252286762247
          -0.009623182766289595 -0.0050192521478598096 -0.007606799678568699 -0.0069269072577293755 -0.0046555812605069136 -0.00394315119097044
          -0.00910068071815795 0.00044214566774569697 -0.009138569519935302 -0.006966501358941279 -0.0025224577125015912 -0.004264837299357893
          0.00821998618861386 0.03007294701341401 0.017014983081316437 -0.01111001185525562 -0.0027091397001727247 -0.004717961054355513
          -0.0010896693152506742 -0.00267422349409685 -0.0002912584156886666 -0.0005942738664037606 -0.0013706966735060888 0.00003114697684925005
          -0.0018396813031156256 -0.00402554187007631 -0.0018632698427776262 -0.006546659628159368 0.00011277427731126721 -0.003880491469946179
          -0.006611554865740388 -0.007244955304195777 0.00043668113018302535 -0.004801983213150507 -0.0047567468178710826 -0.006102644412776748
          -0.008359795606884823 -0.0016845132274889707 -0.005753625056895473 -0.009117200768467448 -0.007290735676397819 -0.008212388447329744
          0.00007111736929665824 0.00003560077535968986 -0.0020666406211633515 -0.012962982384421728 -0.018884673445835 -0.023898779366928746
          -0.007149532813251369 -0.00779219484560123 -0.002137306999608235 -0.00506423682239987 -0.005532203982458128 -0.00782728195664184
          -0.009439848546605845 -0.003523483215496004 -0.005869577112370017 -0.00864105171215268 -0.005225378188828955 -0.0016146804571244289
          -0.01973140733782297 -0.026108187698680174 -0.014015691214187775 -0.020336630202068662 -0.026830526849995096 -0.016819400677656304
          -0.006941070450932507 -0.003167655000905434 -0.0033714287603086035 -0.014881668305608553 -0.02047930168171863 -0.012511809234547755
          -0.014295260203632587 -0.017080731590440212 -0.003080216837723082 -0.004342011434888882 -0.005484795474739013 -0.009154175790023977
          -0.013221016532246388 -0.024666626683782056 -0.012269875385998219 -0.016830003486168366 -0.01482883064991114 -0.02587906957751329
          -0.0238429176159336 -0.014978321808971629 -0.014584237771495978 -0.016858231090596032 -0.024391810051969998 -0.01344113939167979
          -0.0145775846621099 -0.013605340206449767 -0.012916044819219152 -0.01200856891978841 -0.014180145292748136 -0.01011715238230071
          -0.007959980658644561 -0.01992072250526533 -0.01739061594827973 -0.03391945751335612 -0.011267673597588512 -0.02443562733521709
          -0.01710865830395214 -0.017148617556369317 -0.010510683245759544 -0.0224231278999385 -0.02889552146224794 -0.017012982466839688
        </DataArray>
        <DataArray type="Float64" Name="resid_y" format="ascii" RangeMin="-0.4455528155338943" RangeMax="0.9101830228535206">
          0.00003776811444361136 -0.00023608674171729516 -0.00005731148534653119 -0.000866150243935937 0.0014463443535079265 0.0008136639177954985
          0.0028574149561313156 0.0010457930590088427 0.005164482119955065 0.005800546525983913 0.006532461036677047 0.0054587225863488575
          0.0029607858660059133 0.00012107887388964483 -0.00015782351869859934 -0.00046098311879380627 0.006559043565646135 0.0011527618351229868
          0.00006864106069827403 0.0023409706605274083 0.007876756719148809 0.003311608296043586 0.003981052994382006 0.006161781123459775
          0.006964277865861105 0.004416520937807172 0.007134490176412437 0.008774407138938123 0.004727239433469031 0.005705464594910753
          -0.0015812972603776315 -0.0001645714735716841 0.00019508900916459515 -0.002875697201339039 -0.0025333429532351515 0.0010030040764220094
          0.0016140564052075645 -0.006165426510092664 0.0004535163288087035 0.0021507830162625086 0.0018500783637954155 -0.0015690362150966863
          -0.0008291510764762422 -0.0015384563133230972 0.000992287655664656 0.0019732622415655765 0.0041776049139289895 0.004681009398758457
          0.00017152753394880302 -0.00017874718518789967 0.004101706417259932 0.0022547003129301246 0.0004933960287034564 0.0006719060750393635
          0.010220690640656338 0.0045104112587778245 0.0014950343170897357 0.001491389766575757 0.0062791344316622255 0.0025434221076287566
          -0.0001399302493359511 -0.00018644963694043615 -0.0002322389097998978 -0.0001700720214372342 -0.00011493578591159626 0.00017795509516252417
          0.0005471682849202408 0.0006264037078541895 0.0013852517931739333 0.001397197026343014 0.0020384971030642796 0.0020496291857902416
          0.001856561710262744 0.0037012021323318024 0.002013887862190089 0.003378197523470513 0.004027153852734555 0.004494102171962184
          -0.00007653682804439899 -0.00009104308330926125 -0.00010534148646179631 -0.0001848322644229794 -0.00015615263934916704 0.00012544105281425688
          0.00015488690833995178 -0.00035803473033321764 0.0003088617776220298 0.00038568470732919247 0.0003969963279147337 0.0005172613163609563
          -0.0008774395513493766 0.007483694082180817 0.005465692887210681 -0.00013619132160719305 0.004700371834027439 0.004326566899958868
          0.004409525154814006 0.004900926219412002 0.0031041800935003062 -0.0000017670172010320062 -0.00010518916628603388 -0.00025034772447349307
          0.00008924060648712873 0.00006141758570787914 -0.00017258115341840623 -0.0004648700979557191 0.000017475975030378788 0.0004737357839544182
          0.00025864838394134074 0.000584490235384115 0.0004897695956225384 -0.00005060028472839151 -0.00023633193487773707 -0.0002674492843315751
          -0.0001725289294886717 0.0005629867600825678 0.0007210281267110707 0.0010109507354529174 0.0008711853199755426 0.002055958133263855
          0.003157569861378079 0.0035379235643251683 0.002390353516254884 0.0021987990812437352 0.002391062391212978 0.0026008854584202157
          0.0015291333181762824 0.0003630973066953702 0.0007595384899607704 0.0012272847837436764 0.0009026793208891382 0.003435560153529582
          0.0017246359807814643 0.0026477788483938447 0.004696744051820689 0.0016645036448056233 0.004361745820832472 0.00072504067478181
          0.003344527415702514 0.0013812085640895894 0.002820994795218329 0.0009307534591392885 0.0022338613397909213 0.0004004157888632398
          -0.000052120493191532 0.002023859583031945 0.0016288926019475403 0.0005863931513847565 -0.000023301120753771443 0.0023358909059644772
          0.0017168374695735455 0.0009667805817691888 0.0014524319787174722 -0.00023227391192803815 -0.00004413619973064192 -0.0005120334442641483
          -0.0008398905496356246 0.00002777997507530383 -0.00013033192068876917 -0.0004941912982196484 0.00025076463374262836 0.0003016336872396219
          0.0003232203335173031 -0.0001274891033257175 0.002116061933621266 -0.00005627095494044332 0.0022151094944713456 0.00006548182184681894
          0.0010200436118420753 0.0007806275088146353 0.0034812339510051915 0.0026098684311958997 0.003410972229454634 0.0034839142840963067
          0.03209389547415589 -0.07072148668738104 0.025756442519243472 -0.1950867889807725 -0.0640345656106397 -0.23075968322210122
          -0.00005178453929333138 -0.0005544326897451435 0.0005099981034931492 -0.0003838071210668162 0.00028775540021064305 -0.0005395380804859573
          0.002281828635058464 0.0012853660953485585 0.006030905503249195 0.0043683513776378025 0.005294003680101925 0.0043421351264931254
          0.0014218412429131133 0.006341064967574404 -0.0007999609382769446 0.006898519986179132 0.0011824536080239922 0.004248411026831324
          0.0016085985688384374 0.00026496134502482227 0.0011815340518041562 0.00030059790043834855 0.0015916803646935096 0.001421441902180104
          0.00278001286881166 0.0019741490206195283 0.001805334476606274 0.0007442488104988793 0.0034727300012309947 0.004442674427662982
          0.0014054761076315175 0.0016742103543180564 -0.0001812321509726822 0.00005772926726740901 0.00035893412330065266 0.003759740404810863
          0.0014405277915458259 0.0024628181177684116 0.002118222472242484 0.003906986162853732 0.0036818036935342136 0.00420252140261404
          0.00041514682215976206 0.000271408646603688 0.0015821431083853366 0.0028297234967523954 0.00419032889356713 0.004279410141351525
          0.00029919783143655954 0.0010908062268684127 0.0012201314265011531 0.003299319126428474 0.0038056203360609386 0.00223259483796788
          0.002246173145369623 0.003738848081950061 0.00470336926508555 0.00030657923018850147 0.0014344854145904862 0.0007750000921283844
          0.00014892350265954812 0.0015536095224336355 0.0008394454854908154 0.0015223867099664959 0.0025670419218915552 0.0020010631763211287
          -0.00006308117544842617 -0.00013196315001501313 0.00007248537836992974 0.00007838244502494929 -0.0000023125172008975348 0.0005447528853022021
          0.000666722854545887 0.0008889192708624316 0.0008348860525853041 0.003297616226941469 0.002032666540228878 0.003096257083767373
          -0.20289136028383564 -0.441680050808838 -0.3136743614261533 -0.0002273685505777695 0.00583715352595025 0.0007925841282121759
          0.00507245983895474 0.0034258190214622453 0.004676801857706327 0.0012920531665713553 -0.00007193147550660361 0.0011041804459413496
          0.000331522276652535 0.00360262962866148 0.003828328541935183 0.00018905812406233569 0.0000381583572703903 0.005549929791483443
          0.003305099967206404 0.0034779386190014194 0.007417304917544304 0.0018501953632492074 0.0021706694505617824 0.0005661173895673277
          0.0005845314374119948 0.002311892661377407 0.001957409978438726 0.003906523004092832 0.003351584041227207 -0.0033399851446324624
          -0.0000022564217786180674 0.008471693054863838 0.008251694164539719 -0.0048051372666881795 0.00106878012432806 0.008690602626000299
          0.005215217911147263 0.0015956270308538703 0.003967660605511274 0.0000016524406502155253 0.0020388957171849076 0.004735622189104449
          0.0015141691244419386 0.00022513603689518213 0.0012265345001983285 0.003904397847572863 0.003251912340124355 0.00385316950173141
          0.003524549803826757 0.006004242692248807 0.007031186865072286 -0.0008847313293925303 -0.00008440436094898918 0.0002996618479236598
          -0.0004992178037813294 0.0010172137743240939 0.003311052768258506 0.0022629845473146892 0.005191582346635734 0.004625501560814808
          0.003581529514716436 0.002295662258209402 0.0028803025718112385 0.002219459806943394 0.003347151489542132 0.002433031356306247
          0.011296180248113796 0.012474123590355934 0.01818361362829851 0.023868854858775823 0.011207716576342966 0.013369700205639407
          0.007677196138505288 0.007001742046169407 0.004140463407193561 0.003942763233882096 0.005390714836223644 0.005471113980131309
          0.006960652800288014 0.0030849512720539027 0.003539167600036669 0.0019258063970598518 -0.00047883612915265716 0.001028891172665497
          0.0020006799490872723 0.0009012140029005897 0.0006724437118628135 0.000766831219718711 0.0036847919251784683 0.0055364679432741044
          0.003085319789003546 0.004847772721865901 0.007405394275890861 0.0026891669568470805 0.002351251097853474 0.005286424770910375
          0.004072700675869165 0.0017235525370688162 0.005225500250718468 0.0009435418326537992 0.0016411955950313695 0.001715412931964977
          0.003558856533956295 0.005034221363057145 0.005903698617513303 0.004203435169566588 0.002449145692487359 0.0054699110331261624
          0.00019955516917297134 0.00008037713487293874 0.001633066490522611 0.0033538588916151857 0.0052558505768637576 0.006064388228228412
          0.0026856846063036816 0.0014830438358606757 0.002191006839903406 0.003487199510039188 0.004191089769038314 0.0019161944345363613
          0.0022310849602173027 0.0037376134206595635 0.0037035526528416546 0.0040411543612283995 0.0007331687808077789 0.003822017791077381
          0.003914457022520627 0.001732140581050097 0.004816699532706983 0.003399501508142555 0.0009110531932514376 0.003428843694155831
          0.0015989573990637454 0.003140720094589114 0.00008638077892192397 0.0011440718239187075 0.0026566086329855645 0.0032026532197608065
          0.004031023096059266 0.0017669308529084382 0.004403037139136257 0.0035501548743465117 0.009290667342324366 0.006908934933693323
          0.00978569826876724 0.0038035026667640748 0.0049450011284225825 0.0007133010802971296 0.0024673940465331917 0.0013936986658465295
          0.0003731787319889712 0.0017750540639597384 0.0006444976480316708 0.00045022205545047767 0.0012361800663838463 0.000418700341890961
          -0.0015588154737727067 -0.0002776096428141195 0.0003322198121926724 -0.0006915747182189014 0.0006475449192118454 0.0006251798228011224
          0.0013828090454257869 0.0019345971897811176 0.001611164816280656 0.010951430225430658 0.009176362153111017 0.01576838261461122
          0.013808121881794255 0.008712086129705116 0.007718019012565636 0.0038888218506600084 0.0024413091602202217 0.00301215464236132
          0.008104064990237608 0.0065733829998526755 0.008010802324796895 0.006456838919879346 0.006174281900143977 0.008983167573210465
          0.0056420452468218946 0.005004128251384354 0.01011224319297585 0.0012030277616963334 0.005489800008067397 0.002960764765130297
          0.00796658514708029 0.011146931300169305 0.00636081099027367 0.36201077289360173 0.2644345989206768 0.7438132993622211
          0.5473262991440137 0.40238241184725293 0.3236438842322762 0.09548953771088664 -0.05077477905599993 0.21290565054140678
          -0.08014045666536523 0.16933870085488123 0.01788299667417914 0.0004540681333200722 0.0010816965548763602 -0.0002998183045992489
          -0.00023314169516712446 0.0016503607465793158 0.001072608671531125 0.0043083659033347 0.0023914048632598106 0.002727599079616519
          0.427949915509392 -0.0002593364160128342 0.8685728262228867 0.0010150254278357557 0.43870085837394984 0.0018936385551130697
          0.44697682468794997 0.8980801437879493 0.4183754533891389 0.003850592355550783 0.001319746669049368 0.00388172847469892
          0.4181133343549743 0.821148546741748 0.33153062999070726 0.003205202761315487 -0.0002152816586021289 0.0028614124162942844
          0.004531968877261969 -0.00001476968599574413 0.0023993602235106992 -0.0033020691658157825 0.4742489289816267 -0.004283680968754856
          0.9101830228535206 -0.0013571685989212379 0.34160445871246514 0.006239364295027222 0.00838236261726015 0.0014597737531043542
          0.0019115043999664294 0.002465310539533805 0.00263937880760233 0.0035788134178410536 0.00133374294318378 0.0041105689551737545
          0.004877627063367335 0.0021628477956807945 0.005505826083517226 0.00809516334181798 0.0018139401916167641 0.003110191084331207
          0.004289340285500098 0.0015222921495691155 0.0023016594284143432 0.002880007144403618 0.0013117361837610142 0.0030678878485443928
          0.009151800809722277 0.013541635741167846 0.009481553732355152 0.00209065412916698 0.002482101945277579 0.00012592890187645978
          0.00022413408267095425 0.0016438950873653435 0.002769914565836279 0.001653842896089261 -0.0008266445030762765 0.0013966383466902377
          0.0008054248133227901 0.0012337841679522913 -0.000460072846949211 0.0015153003579835341 0.0005889191897058693 0.0015240936733786695
          0.0028387787384723242 0.00197993312275159 0.000029458884575311872 0.0009226918903531625 0.006542954900176201 0.0015034967228932938
          0.005483329211700784 0.007673315013954338 0.005107537923065314 0.007679508495822274 0.00927922336470803 0.006213913472161915
          0.0023660123801465816 0.0005630128063379772 0.0011336347459743462 0.003389984753974326 0.0025900103127723673 -0.001480463249002771
          -0.00004883311823428854 0.0011896582292264396 0.002545634737467946 0.0032185509448558434 0.0025875016025108943 0.0011398277293330067
          0.0002682454454512595 0.0007229799625690647 0.0006886259493416313 0.0019447943549225355 -0.0001275639793479333 0.0014163778472442434
          0.002119723726413218 0.001284880100841837 -0.000627899710992405 0.0003809409078358028 0.0010498298907491085 0.001157930786157585
          0.0017149054613254666 0.0003760507869483504 -0.0002362601458065286 -0.007359516741447608 0.005172543074194569 0.002019663036373083
          0.001917480503939785 -0.014204136022617248 0.006215691191473749 0.004017314235292731 0.005205794972562782 -0.0042005903846146775
          0.00474885962319295 0.0008709657704436408 0.004806057962392973 0.005806677083259465 0.003759175827913519 0.005592694159829548
          0.0013157385901330365 0.0019232446510766346 0.0005764203403498536 0.0010989615554825548 0.0011613578004961884 0.0015712288353756099
          0.0025360763153252086 -0.0005909932997247014 0.0027806151493406372 0.0007034031447159111 0.002626407358361227 0.001042578843356165
          0.0004378821320178278 0.003317863494675999 0.0025668324197038184 0.0009636464475578088 0.0008365304531471329 0.0004101089765315702
          -0.0000344738254302035 0.0005885514999221797 0.00013258507538380093 0.007496494707290427 0.013365499843287915 0.007927684652820732
          0.0029176317191500767 0.001551263858442009 0.0006818613046801619 0.0018369788887611649 0.0014210507999282973 0.001367281744843074
          0.0002981328161209551 0.0009204898168929353 0.004190738731173316 0.002111849613338721 0.0007368297310615113 0.001579271275806822
          0.0038590911289236307 0.005511371296911947 0.0037772813791084603 0.004392533459438894 0.0063252915125201065 0.007067786504727981
          0.001129094933468612 0.00013953358028018226 0.0011504251024312961 0.0044893431396862415 -0.005886369284985989 0.0019297360120769658
          -0.013900355036035816 0.006543446900102348 -0.0030060237003753723 0.00016016406071500677 0.0005885547142118752 -0.000003480683919809824
          -0.00006175634929536655 0.001033871197608005 0.0006753282151955864 0.00039471978403646246 0.0001407647651333055 0.00034488227812712324
          0.002903712914244641 0.00003094195043545911 0.00263661038210089 0.0008392369799924831 -0.00023962317590155158 0.0006340796181234232
          0.007154161309129693 0.007102274898486626 0.00679211089878471 0.010901815750483962 0.015609913481723303 0.008796793633350952
          0.0011599990105867763 0.0016458953682658428 0.0004022438564043884 0.00021501109429322707 0.0007570295780397474 0.0010850953611741265
          0.005845634540846162 -0.0003329746178594162 0.00414453436858471 0.004242546875051656 0.0019576927160601665 0.0025601615492781837
          0.004036272942520597 0.002376253892555691 0.005379307833944441 0.001610592838480333 -0.00047850202531204977 0.0003334812283593558
          0.010190578705250378 0.015656178100272228 0.00949242835589173 0.0033074548153644717 0.0010844395312274158 0.0020042574908688965
          -0.12119876860751701 0.0004133067775093785 -0.17244897966284645 -0.2206410997360327 -0.00007433886864856298 -0.32977339071742034
          -0.06579740089458866 0.0002640233924514068 -0.14783677387056468 0.005300457767272171 0.0007708164388891547 0.002747642793657634
          0.004962753722193777 0.0029174496774742645 -0.0003482227108535449 -0.00014636900610805713 0.0011653145543273485 0.0005270620181826498
          0.00471327665769955 -0.0010442951557178004 0.0028093787301360362 0.008440452288745447 0.008413135680374662 0.005964754527429582
          -0.2187849898832323 -0.4455528155338943 -0.25360305195317395 0.009223397245841036 0.007056982799055853 0.005783699459020852
          0.004131499444923026 0.0032173074419020314 0.0008313870931623696 0.0013275859254893302 0.003636026134753223 0.004235087940260188
          0.008902552237933146 0.0068959592851514165 0.005864723894557729 0.007585427328120703 0.011265266511267358 0.008108322161636122
          -0.0013377245389229742 -0.0027860625841141518 -0.001439679594062604 0.004611360613595544 -0.0008906898904347677 0.001190321397192634
          0.0006022106651960291 0.0007442804468143771 0.0006270015627523606 0.006584961525131008 0.008750708290930678 0.00488821795407323
          0.0039408821153768675 0.003988489822489741 -0.000997182624733181 -0.0007840231089427663 0.0006182010436164148 0.0012926374569164623
          0.0031576386664556506 0.004056589073317157 0.0012752005515500112 0.0035870285901269255 0.004833454626385486 0.0063074541517645355
          0.008154627656517865 0.002706044815858122 0.0033229171680648206 0.006958773252422584 0.009151249282461693 0.005388994566290162
          0.006033460135853944 0.0051754115411239004 0.0031643026641612615 0.009507881841401777 0.014441076795878749 0.006608471202241728
          0.43502201255609824 -0.008706006746000236 0.8530790733193866 -0.01294282220605908 0.3724626778619344 -0.003584961534031192
          0.005212280073405212 0.007967020207684389 0.003941925951107178 -0.007840074628813531 -0.01574166006477018 -0.0061843957565377305
        </DataArray>
        <DataArray type="Float64" Name="resid_z" format="ascii" RangeMin="0" RangeMax="0">
          0 0 0 0 0 0
          0 0 0 0 0 0
          0 0 0 0 0 0
          0 0 0 0 0 0
          0 0 0 0 0 0
          0 0 0 0 0 0
          0 0 0 0 0 0
          0 0 0 0 0 0
          0 0 0 0 0 0
          0 0 0 0 0 0
          0 0 0 0 0 0
          0 0 0 0 0 0
          0 0 0 0 0 0
          0 0 0 0 0 0
          0 0 0 0 0 0
          0 0 0 0 0 0
          0 0 0 0 0 0
          0 0 0 0 0 0
          0 0 0 0 0 0
          0 0 0 0 0 0
          0 0 0 0 0 0
          0 0 0 0 0 0
          0 0 0 0 0 0
          0 0 0 0 0 0
          0 0 0 0 0 0
          0 0 0 0 0 0
          0 0 0 0 0 0
          0 0 0 0 0 0
          0 0 0 0 0 0
          0 0 0 0 0 0
          0 0 0 0 0 0
          0 0 0 0 0 0
          0 0 0 0 0 0
          0 0 0 0 0 0
          0 0 0 0 0 0
          0 0 0 0 0 0
          0 0 0 0 0 0
          0 0 0 0 0 0
          0 0 0 0 0 0
          0 0 0 0 0 0
          0 0 0 0 0 0
          0 0 0 0 0 0
          0 0 0 0 0 0
          0 0 0 0 0 0
          0 0 0 0 0 0
          0 0 0 0 0 0
          0 0 0 0 0 0
          0 0 0 0 0 0
          0 0 0 0 0 0
          0 0 0 0 0 0
          0 0 0 0 0 0
          0 0 0 0 0 0
          0 0 0 0 0 0
          0 0 0 0 0 0
          0 0 0 0 0 0
          0 0 0 0 0 0
          0 0 0 0 0 0
          0 0 0 0 0 0
          0 0 0 0 0 0
          0 0 0 0 0 0
          0 0 0 0 0 0
          0 0 0 0 0 0
          0 0 0 0 0 0
          0 0 0 0 0 0
          0 0 0 0 0 0
          0 0 0 0 0 0
          0 0 0 0 0 0
          0 0 0 0 0 0
          0 0 0 0 0 0
          0 0 0 0 0 0
          0 0 0 0 0 0
          0 0 0 0 0 0
          0 0 0 0 0 0
          0 0 0 0 0 0
          0 0 0 0 0 0
          0 0 0 0 0 0
          0 0 0 0 0 0
          0 0 0 0 0 0
          0 0 0 0 0 0
          0 0 0 0 0 0
          0 0 0 0 0 0
          0 0 0 0 0 0
          0 0 0 0 0 0
          0 0 0 0 0 0
          0 0 0 0 0 0
          0 0 0 0 0 0
          0 0 0 0 0 0
          0 0 0 0 0 0
          0 0 0 0 0 0
          0 0 0 0 0 0
          0 0 0 0 0 0
          0 0 0 0 0 0
          0 0 0 0 0 0
          0 0 0 0 0 0
          0 0 0 0 0 0
          0 0 0 0 0 0
          0 0 0 0 0 0
          0 0 0 0 0 0
          0 0 0 0 0 0
          0 0 0 0 0 0
          0 0 0 0 0 0
          0 0 0 0 0 0
          0 0 0 0 0 0
          0 0 0 0 0 0
          0 0 0 0 0 0
          0 0 0 0 0 0
          0 0 0 0 0 0
          0 0 0 0 0 0
          0 0 0 0 0 0
          0 0 0 0 0 0
          0 0 0 0 0 0
          0 0 0 0 0 0
          0 0 0 0 0 0
          0 0 0 0 0 0
          0 0 0 0 0 0
          0 0 0 0 0 0
          0 0 0 0 0 0
          0 0 0 0 0 0
          0 0 0 0 0 0
          0 0 0 0 0 0
          0 0 0 0 0 0
          0 0 0 0 0 0
          0 0 0 0 0 0
          0 0 0 0 0 0
          0 0 0 0 0 0
          0 0 0 0 0 0
          0 0 0 0 0 0
          0 0 0 0 0 0
          0 0 0 0 0 0
        </DataArray>
        <DataArray type="Float64" Name="stress_zz" format="ascii" RangeMin="-2787866.399382685" RangeMax="2318396.0953263994">
          -738490.9671563208 -466176.9706860095 -458302.9576468528 -716831.477256291 -768481.9338246776 -493227.17171785736
          -475768.6239072592 -726659.1503168461 -798472.9004930346 -520277.37274970516 -493234.2901676656 -736486.8233774011
          258222.69757811064 297633.3716937299 207307.61995254527 387477.966599371 268468.9355352869 255161.312736199
          184725.60673794194 388334.4175157425 278715.17349246313 212689.25377866812 162143.59352333864 389190.86843211396
          -565417.0195774243 -339620.12010951934 -559504.63542874 -334251.75682391133 -553592.2512800556 -328883.3935383033
          -635834.1485889966 -196233.11297161202 -533756.4051271861 -1316007.1644206515 -608866.7383496712 -186954.6798739224
          -593874.7119328148 -1414823.8437648718 -581899.3281103459 -177676.24677623276 -653993.0187384433 -1513640.5231090917
          337742.3539339511 784623.4023655157 319647.82790705364 762684.1286970762 301553.3018801563 740744.8550286368
          1174609.2923455369 2040211.8748383045 1798308.0544901863 835213.0865464077 1192238.7864871293 2154263.487251965
          1762155.3389346518 728098.337617413 1209868.280628721 2268315.099665625 1726002.6233791173 620983.5886884185
          875338.4850731961 1043615.9484920652 468079.16634666204 717912.2869975095 929687.4836842024 1035356.7156654142
          508918.1917531103 782644.0096651905 984036.482295209 1027097.4828387632 549757.2171595587 847375.7323328714
          -1020266.2297177744 -810102.6324305707 -1026677.5366623579 -844019.1704217967 -1033088.8436069414 -877935.7084130228
          -923703.7060744362 -511693.4238478091 802364.4546172032 467580.2176989911 -940479.7334191712 -488805.9557946744
          771208.441313766 445979.15912331187 -957255.7607639061 -465918.48774153984 740052.4280103287 424378.1005476328
          109791.20531328823 216980.27109965557 560990.5753437898 94737.03683106958 189511.88198332576 612770.2795245908
          79682.86834885093 162043.49286699598 664549.9837053918 1270572.3421261134 1262128.079900823 776917.0268187568
          1324455.2634471282 1241164.6780163913 1276466.1989715237 815294.2849280112 1244129.6897325106 1211757.0139066689
          1290804.3180422245 853671.5430372655 1163804.1160178932 297082.83533074695 532921.5765241493 916127.4166710195
          902580.7942371707 275735.2782482611 573277.9767178382 955951.7123090479 881264.1688790678 254387.72116577526
          613634.3769115272 995776.0079470763 859947.5435209649 276555.96831349574 325460.1542764228 374364.34023934975
          1324649.6411639694 1913589.0712080502 1155279.196388721 1336116.1755516294 1916396.5610864954 1190566.8009379655
          1347582.7099392891 1919204.0509649406 1225854.4054872103 282203.0426839087 309679.93894491007 262843.0040609237
          344056.5453559789 243482.96543793866 378433.1517670476 556952.4693272397 941085.7502809773 1361960.0492766371
          1348471.2327308196 551738.2016768771 960068.6026245994 1349707.7994013156 1334501.2400428131 546523.9340265144
          979051.4549682215 1337455.5495259943 1320531.2473548064 -1634496.831560284 -1737163.5327332276 -1439125.1198713784
          -1761492.735989726 -1631665.1759877794 -1759388.8443194372 -1466006.7110731846 -1706801.8203106716 -1628833.520415275
          -1781614.1559056465 -1492888.3022749908 -1652110.904631617 1616487.4290141072 818620.1574546756 1599075.09637878
          1616344.1521494186 833968.2851495183 1604608.7778855122 1616200.87528473 849316.412844361 1610142.4593922445
          -1722319.7611913178 -1113567.2981037684 -1631642.2892042792 -1071427.1244241742 -1540964.8172172408 -1029286.9507445798
          -165280.0150903045 714351.6286633248 -335328.47852283006 -682250.9652225478 -176984.6915810934 737408.7602674311
          -321941.26249119063 -734601.3123426547 -188689.36807188223 760465.8918715377 -308554.0464595512 -786951.6594627616
          1228426.8074623737 764315.8289966555 1224788.9701956136 793920.3979135798 1221151.1329288534 823524.9668305041
          377988.8824249937 14873.924648209195 417875.87688590906 47011.107545117055 457762.87134682445 79148.29044202491
          194280.23810892602 514154.6221021288 171496.90782254236 539072.6988563271 148713.57753615876 563990.7756105253
          -930368.6673715217 -1181384.92638081 -1249727.9312465996 -889129.6499039095 -954330.5215222008 -1194783.8149618583
          -1237709.8682234143 -873270.0114334471 -978292.3756728799 -1208182.7035429063 -1225691.8052002287 -857410.3729629847
          850979.3363000395 -1237180.7272921535 851674.5310964196 -1411743.984039865 852369.7258928 -1586307.240787576
          58476.207407017035 73325.07022639821 88173.93304577938 973059.257652048 1026374.1040404649 987048.3794719633
          1023488.8767405791 1001037.5012918783 1020603.6494406937 565799.0423132585 651230.6241936353 492576.6824260176
          543122.9051057149 624198.259340384 456643.5580995764 520446.7678981714 597165.8944871328 420710.43377313524
          -614796.5309997108 -269331.9442457259 -524079.0336498663 -619834.8444622041 -260191.309481936 -521675.17727939016
          -624873.1579246975 -251050.6747181461 -519271.32090891415 1472036.8979771133 1563288.8852677555 1654540.8725583977
          -161603.41843220431 -96429.16695904724 -31254.915485890117 119981.37291170147 228902.9461974314 109362.82895029093
          231293.58094481632 98744.28498888039 233684.21569220128 -51185.03593051017 -29970.179080230882 -8755.32222995162
          -1306541.8585441164 300856.51204953116 -373228.780273734 -1319010.5439135812 331638.8959872954 -394502.59390337253
          -1331479.2292830455 362421.27992505976 -415776.407533011 -601685.3204116537 -88462.49673834568 -657286.7370996628
          -133003.8560192241 -712888.1537876718 -177545.21530010249 -459593.96844656055 -364692.971913114 -296174.3509683787
          -281115.2766006441 -456785.75169521605 -333180.0823850168 -293398.1252019083 -296141.4026541796 -453977.53494387155
          -301667.1928569196 -290621.89943543787 -311167.5287077152 -129507.32916996145 -377391.9180308175 -335511.68527880625
          -20302.266338296817 -134245.38460912032 -370496.99402721965 -340978.4430200081 -41725.49103291199 -138983.44004827915
          -363602.0700236218 -346445.2007612099 -63148.71572752716 508176.5935661978 37707.39003527632 203926.89944599746
          531444.8602004234 45731.12135542341 217631.0968121962 554713.1268346491 53754.8526755705 231335.29417839492
          1544939.7980055523 1535708.2361765455 1526476.6743475385 770609.5928686203 718469.1401865543 666328.6875044883
          -180642.70217954216 -251878.88581133043 -177012.38491541322 -245862.35453344905 -173382.06765128428 -239845.82325556775
          -239305.47003731277 -440763.6263116397 -246725.3598236942 -432967.36920172366 -254145.24961007564 -425171.1120918077
          1832935.7283195048 1877671.0598719337 1922406.3914243625 -268842.5477319823 -812699.7416911353 -163725.30879820185
          115900.91923389255 -248270.82719939714 -845893.3963914736 -186158.0555708794 143154.53538325382 -227699.10666681192
          -879087.0510918117 -208590.80234355698 170408.15153261507 -358318.63219088374 -382793.25604714477 -407267.8799034058
          -211933.25129609386 -194377.56568934966 -176821.88008260558 -1438538.281458344 -2065592.6601222672 -1422691.648082755
          -2069323.1392310886 -1406845.0147071662 -2073053.61833991 -669132.9333671 -647027.0385561542 -624921.1437452087
          -1762442.5060681903 -1374517.9191444463 -1744695.0559797538 -1335444.2891748855 -1726947.6058913176 -1296370.659205325
          -2321366.236742227 -2554616.318062456 -2787866.399382685 -447783.5300643946 -451950.4967053699 -430413.42637666943
          -424599.2100268443 -413043.3226889443 -397247.9233483186 -364642.94045715046 -361939.15219744865 -359235.3639377468
          -54678.70741491126 -56842.161726722064 -59005.616038532884 -707001.5895560309 -690026.7775853701 -673051.9656147094
          -1641719.492034271 -1114307.500278697 -1773071.4877161924 -1249013.668480717 -1904423.4833981136 -1383719.8366827366
          -229867.02922615036 -204842.61193317684 -179818.19464020338 -1001955.6914965325 -39660.31147784623 -1041584.5690086698
          -25023.160373087016 -1081213.4465208072 -10386.009268327784 1491132.337972555 978409.8502278574 1114228.145472421
          1449264.6533581195 884889.0269612696 999930.4596833823 1407396.968743684 791368.2036946816 885632.7738943435
          1128289.5946544495 1104397.6469256938 1116507.6215977415 1130030.3664794015 1082149.9057204642 1099164.2019813857
          1131771.1383043542 1059902.1645152343 1081820.7823650297 390483.78486015217 1769997.4231137158 419876.5084113206
          1825138.6161180737 449269.2319624891 1880279.8091224313 90116.49785239244 190891.5812502147 58825.53312354993
          113300.50041079416 199306.34711471695 49375.38497582926 136484.5029691959 207721.11297921918 39925.236828108595
          -337792.25728691823 91462.89773106892 -340562.0390503398 129170.76866779666 -343331.8208137614 166878.63960452433
          -275580.43565224466 -284745.2831721954 -293910.13069214625 861547.8687723198 1178597.419036474 846826.6235975671
          1186552.9087423 832105.3784228143 1194508.398448126 1191997.765077947 958083.5844351419 1172094.3885225854
          916821.2164639251 1152191.0119672238 875558.8484927082 -530630.5928265774 -137806.85832339653 -608279.9235766203
          -183291.67329342745 -685929.2543266631 -228776.48826345833 -400214.4198792428 -372566.4921276493 -344918.5643760559
          732335.1575687523 474557.36079385394 756755.4507910013 463081.32631605014 781175.7440132501 451605.29183824616
          585910.560092808 630493.1897626008 675075.8194323936 341717.2798290793 362906.0307404641 384094.7816518489
          596737.5064191694 642352.6839509238 687967.8614826784 716508.9621662232 746946.7262582643 777384.4903503053
          182517.11107915596 176459.79127759876 170402.4714760416 -825077.9532320282 745343.3317345963 -856248.237632605
          869765.3424778634 -887418.5220331819 994187.3532211306 -145370.54886645149 -170116.62777848006 -145879.15148158054
          -158426.900963662 -146387.7540967096 -146737.17414884394 -1728612.0953491945 -1729939.1834009534 -1731266.2714527124
          -276905.3802903426 -269530.76447223034 -262156.1486541181 -66010.49695082114 -71417.6239776887 -76824.75100455625
          1238312.5111802064 1213193.3177296403 1188074.1242790741 97570.08836857282 272534.9951973899 447499.902026207
          -799264.2599277368 -797990.3486829032 -796716.4374380697 1056512.1283202288 950197.4320932543 1076739.6569146626
          975746.5313274409 1096967.1855090966 1001295.6305616272 781372.9410245944 794532.6072386366 807692.2734526787
          357292.54280957894 124112.26486337169 348035.0523975082 48308.18207722852 338777.5619854374 -27495.900708914658
          -86068.50463694148 -138729.52504239377 -190241.8915518514 -95088.3093866766 -130650.46299695101 -193116.48566834195
          -104108.1141364117 -122571.40095150824 -195991.0797848325 -221816.14154124627 -228636.7216692965 -235457.30179734676
          843101.2659671898 856566.6065130355 870031.9470588809 660464.5012225311 1116027.347359294 634212.1062996369
          1118587.9674677702 607959.7113767427 1121148.587576246 1263721.156178514 1439548.3371411345 1269981.2431719115
          1448994.949911797 1276241.3301653087 1458441.5626824591 1715762.8026224251 1740287.5016631905 1764812.2007039567
          1495832.499435249 1959112.1198419905 1479311.1420498258 1984082.5289126616 1462789.7846644023 2009052.9379833331
          -1481723.0407540882 218244.25165263237 -892302.3255894732 -1360147.1039410348 -1490133.3518530305 349897.9396604555
          -886199.1686565485 -1299430.8044402276 -1498543.6629519728 481551.62766827876 -880096.0117236237 -1238714.5049394204
          -384830.9962780605 -374765.64281319146 -364700.2893483223 -977901.5802538678 -966309.4064263208 -954717.2325987734
          -292201.58891639975 246372.38443742963 -346496.8033385044 173767.385478209 -400792.0177606091 101162.38651898837
          295119.54039829224 298275.98037423234 301432.4203501723 -2632.1579989436395 149663.97800904952 33847.74647602465
          127461.32292549625 70327.65095099295 105258.66784194298 -1069548.7847292845 -1091884.9128328203 -1074836.8831879995
          -1095884.4776109504 -1080124.9816467143 -1099884.0423890804 -10278.06991334723 15917.16975997499 42112.4094332972
          1668306.8364836874 2209919.604878849 1693774.282882981 2264157.850102624 1719241.7292822748 2318396.0953263994
          -1441692.0290448335 -982119.7197546151 -720705.510611871 -1059882.2987851133 -1423805.2659796847 -966528.819996639
          -709334.5057797986 -1064954.121218725 -1405918.5029145356 -950937.9202386626 -697963.5009477262 -1070025.943652337
          -164209.13708333136 -178791.0710714887 -193373.00505964604 -720730.0987749211 -1101891.1557256188 -733651.9246624955
          -1048120.3341670199 -746573.7505500698 -994349.5126084212 -58279.83425171792 1203119.1664718112 -76022.21298324017
          1281311.2607571392 -93764.59171476238 1359503.3550424674 1335177.2421886397 1356743.89124008 1378310.54029152
          1125185.4072022652 1120053.5230680448 1114921.6389338246 -374694.5117995384 -396998.37020012597 -419302.22860071366
          -727368.7012216074 -768650.2999156094 -809931.8986096114 -1157212.7420306336 -1197898.1193178757 -1238583.4966051178
          -733719.3777516776 22658.065448689034 -762707.0993908565 -11169.98650185352 -791694.8210300351 -44998.03845239614
          -322513.73292512813 -352615.4293187424 -382717.12571235665 645041.8814575366 894145.1674922624 1143248.453526988
          652451.7493379654 647797.454755645 643143.1601733246 566275.0118432709 547324.3337359461 528373.6556286215
          -839305.2876405846 -811019.3790171188 -782733.4703936529 972931.7838197246 967776.9830601984 962622.182300672
          1308258.9950934025 1300811.8947817595 1493503.6341131206 1277323.8873100015 1305850.0802295855 1471142.4696051416
          1246388.779526601 1310888.2656774116 1448781.3050971623 372325.724283408 481854.5230172721 591383.3217511362
          329858.1931547621 917561.3716095189 280114.4501903997 849072.5099059964 230370.70722603737 780583.6482024742
          -1410439.8984383433 -1431167.9780730745 -1451896.0577078057 -1181461.2075241036 -1169342.140757336 -1157223.073990568
          898451.3956034692 889118.036188978 879784.6767744868 -747029.0850313219 -712884.9599131468 -678740.8347949719
          -302999.9733184839 -266139.2984044479 -299522.74443112704 -260919.66248620726 -296045.51554377016 -255700.02656796665
          -1717578.3991448348 -1711638.8082773006 -1705699.2174097665 -282605.46885415324 -311883.6838062317 -341161.89875831007
          -1939419.4490596608 -2112642.0342894755 -2285864.61951929 34999.51836982921 47106.661933534444 59213.80549723967
          457041.45912605216 452559.17654232914 448076.893958606 792931.0647902852 884850.624739383 976770.1846884807
          753253.5214337187 511851.4938399851 715447.5325884584 512001.2341715449 677641.543743198 512150.9745031047
          -269957.5170406905 -314364.655323841 -358771.7936069915 -157228.32818646717 138083.57677636534 -183005.60829684185
          111952.7141201387 -208782.8884072165 85821.85146391203 -14794.532371067093 -38029.79631728829 -61265.06026350949
          188008.67410100534 165764.1801266885 143519.6861523716 -356433.6937121304 -405819.79556221387 -455205.8974122972
          -30177.908110133896 -970694.75777741 17266.61006795516 -930155.2679091595 64711.128246044216 -889615.7780409089
          1394.078078370231 -8311.919183373762 -18017.916445117753 -745751.7317820442 -772494.0126578764 -799236.2935337084
        </DataArray>
        <DataArray type="Float64" Name="peeq" format="ascii" RangeMin="0.0000010888822584969327" RangeMax="0.002166763754817498">
          0.0005320808234476141 0.00047015167299770295 0.00034475368784564334 0.000412498755254036 0.0005318468930392516 0.0004700178073274813
          0.00034488690154295366 0.00041268336002449856 0.0005316129626308892 0.0004698839416572599 0.0003450201152402638 0.0004128679647949613
          0.0010560792610516834 0.0010028280374799053 0.001034869163723403 0.001115230946874002 0.0010556620159841525 0.0010022980277949102
          0.0010344928109586376 0.0011148531564318218 0.0010552447709166214 0.0010017680181099151 0.0010341164581938722 0.0011144753659896416
          0.000022452962028496868 0.00007802744110572533 0.000022905185742738212 0.00007858830666895796 0.00002335740945697956 0.0000791491722321906
          0.0015430286746645622 0.0015799433087922443 0.0013014560681820424 0.0013218117273807752 0.0015430543098200803 0.0015797149013182061
          0.00130129054148063 0.0013213861298003772 0.0015430799449755984 0.0015794864938441678 0.0013011250147792175 0.0013209605322199785
          0.0010852691140057983 0.0011880413329258446 0.0010853521373339636 0.001187812642634639 0.0010854351606621286 0.0011875839523434331
          0.001305640882973291 0.0012304061021994504 0.0012703546587119986 0.0013837093856101312 0.001304456081593368 0.0012302647217231038
          0.0012688960405411055 0.0013805166112120341 0.0013032712802134453 0.0012301233412467573 0.0012674374223702125 0.0013773238368139373
          0.0015215512219901085 0.0017126142308744848 0.001597579860426345 0.0014626693203895623 0.0015211340418755488 0.0017109029537378934
          0.0015967080836818924 0.0014627075324811375 0.001520716861760989 0.001709191676601302 0.0015958363069374399 0.0014627457445727126
          0.0004761348552998982 0.0005829301065572984 0.00047652147736238263 0.0005827931979834686 0.00047690809942486706 0.0005826562894096386
          0.0008260094349169882 0.0006934873853767895 0.001074079154183519 0.0011476587160957302 0.0008257290961899375 0.0006940194558150104
          0.0010735441724254913 0.0011470812152757756 0.0008254487574628868 0.0006945515262532312 0.0010730091906674634 0.0011465037144558206
          0.0005278313584573301 0.000587114485706208 0.0007038068291218762 0.0005278442749854679 0.0005870247066009442 0.0007038957073430803
          0.0005278571915136057 0.0005869349274956804 0.0007039845855642845 0.001990459291393912 0.002122376844887606 0.0020485891213859334
          0.0019364861358992455 0.001987544109529464 0.002119834510090032 0.0020459437949894074 0.0019334793453344 0.0019846289276650164
          0.0021172921752924574 0.0020432984685928813 0.0019304725547695544 0.001327674651127162 0.0013565314612246063 0.0012636981740380597
          0.0013079728129770623 0.00132715650544765 0.001356801521825413 0.0012640874862933132 0.001307473338589534 0.0013266383597681378
          0.00135707158242622 0.0012644767985485665 0.0013069738642020056 0.0014621672531090987 0.0014622224294979086 0.0014622776058867185
          0.0012915614677252486 0.001180848251370821 0.0011314341667250866 0.0012906926977471127 0.0011802026024829513 0.0011313075672918884
          0.0012898239277689767 0.0011795569535950814 0.00113118096785869 0.0013216447862492322 0.001423205546825788 0.0013210034248915506
          0.001423347669330526 0.001320362063533869 0.0014234897918352642 0.0017638645092107488 0.0016398601151037281 0.0017795561372175096
          0.001934539782725018 0.001763619019701484 0.0016399276986042263 0.0017791909126397974 0.0019336347855363474 0.0017633735301922193
          0.0016399952821047241 0.0017788256880620853 0.0019327297883476769 0.0003743312664785173 0.0005403473346808964 0.00033197559597582265
          0.00014917224338028661 0.00037603138866590185 0.0005408400239744354 0.0003333829124296557 0.0001521029385648911 0.00037773151085328634
          0.0005413327132679745 0.0003347902288834887 0.00015503363374949562 0.0013768679350288663 0.0012736434918720519 0.0012702211033276648
          0.001376883716960369 0.0012735468901390048 0.0012703958126819453 0.0013768994988918716 0.001273450288405958 0.0012705705220362256
          0.00006494358636368356 0.00030036110336784257 0.00006695811146321532 0.0003026046148490328 0.00006897263656274707 0.000304848126330223
          0.0010560404656275338 0.0011805064483385098 0.0013507950885214362 0.0013516779824540148 0.0010558457364094197 0.0011806525868645595
          0.0013505258887086331 0.001350427327772873 0.0010556510071913058 0.0011807987253906096 0.0013502566888958301 0.0013491766730917311
          0.0015028366592228593 0.001366050747382205 0.0015029852943588152 0.0013661322077184697 0.0015031339294947711 0.0013662136680547342
          0.0010735567255389805 0.0012314007216357478 0.001071419706611895 0.0012287530026638962 0.0010692826876848097 0.0012261052836920444
          0.0013859468279630196 0.0011385701048522844 0.0013850605541603476 0.0011388101447518987 0.001384174280357676 0.0011390501846515132
          0.0006108995987839008 0.0005225454202646214 0.0005095335268430683 0.0006258118474169252 0.000611163664483407 0.0005231461838026371
          0.0005105911613815513 0.0006266223962134588 0.0006114277301829129 0.0005237469473406527 0.0005116487959200344 0.0006274329450099924
          0.000977785396413944 0.0009155089569167364 0.0009778334178226955 0.0009151520674322048 0.000977881439231447 0.0009147951779476731
          0.0008895623903514131 0.0008878876624311279 0.0008862129345108427 0.0011570831953569968 0.0010075313250066161 0.0011576391854607815
          0.0010082361128127555 0.0011581951755645662 0.0010089409006188944 0.0012873892261187055 0.001313028894179147 0.0013490478561688792
          0.001285858546306672 0.0013116811789620395 0.001346685483266382 0.0012843278664946387 0.0013103334637449325 0.0013443231103638844
          0.000882599808329655 0.001038961554791912 0.0006958398581352518 0.0008815187242219461 0.001037630364531929 0.0006948951292091051
          0.0008804376401142371 0.001036299174271946 0.0006939504002829582 0.0010592693180260476 0.0010599235144862218 0.0010605777109463958
          0.0006344943477037572 0.0006353714897673618 0.0006362486318309665 0.0009759965018076887 0.0010314971798917555 0.0009753811576801571
          0.0010306055763044174 0.0009747658135526257 0.0010297139727170794 0.0011786033527098404 0.0011770563249130866 0.0011755092971163323
          0.0006321554349045164 0.000835873154216719 0.000826254381764993 0.0006332801015258334 0.0008371010461256067 0.0008267311022596188
          0.0006344047681471501 0.0008383289380344946 0.0008272078227542447 0.0015573783996761367 0.0016157898068814252 0.001555359826782683
          0.001613810104642011 0.0015533412538892293 0.0016118304024025968 0.00003803161376574522 0.000014811803604611787 0.000030506885097995783
          0.00008372781892872764 0.00003859524193773248 0.00001542914175704292 0.00003112765936064987 0.00008422967014898663 0.00003915887010971975
          0.000016046479909474057 0.00003174843362330395 0.00008473152136924563 0.00033190467332042475 0.00021668857322028193 0.0002782586597444228
          0.0004017815831106964 0.0003321505403038646 0.00021706397762544173 0.00027848464718789004 0.0004018150433286711 0.0003323964072873044
          0.0002174393820306016 0.0002787106346313572 0.0004018485035466458 0.0008827730153670747 0.0007937515734081423 0.0009197167658578295
          0.0008825625281072252 0.0007937079981856306 0.0009194305167292801 0.0008823520408473756 0.0007936644229631189 0.0009191442676007305
          0.0012222118877536566 0.0012216223811297377 0.0012210328745058186 0.0013599688245785745 0.001356496665153532 0.0013530245057284899
          0.0000010888822584969327 0.0000032137677444593798 0.0000013997661753231455 0.000003608849487563087 0.0000017106500921493584 0.000004003931230666794
          0.0001246419033991429 0.00016065071085789092 0.00012510583735934156 0.00016112709450560498 0.00012556977131954026 0.00016160347815331904
          0.0010532443326556284 0.0010537819162581286 0.0010543194998606288 0.0006252216666726599 0.0006854882854199674 0.0006411030232113179
          0.0005220126869165658 0.0006253867212019451 0.0006856066417018532 0.0006410812466824932 0.0005221370264597049 0.0006255517757312304
          0.000685724997983739 0.0006410594701536682 0.000522261366002844 0.0008032854023645402 0.0008031389893158645 0.0008029925762671888
          0.0006716541630410458 0.0006716061982130074 0.000671558233384969 0.0007964458781140909 0.0006461632084708064 0.0007972032781491696
          0.0006469080122973549 0.0007979606781842482 0.0006476528161239036 0.0006654124097421551 0.0006669491312474437 0.0006684858527527321
          0.0005370036775878774 0.000668469445037187 0.0005381532353387505 0.0006696277380533073 0.0005393027930896238 0.0006707860310694275
          0.0007173305687880877 0.0007178109139958313 0.0007182912592035751 0.000743292541025356 0.0007636733316541472 0.0007433023849004882
          0.0007641438701221678 0.0007433122287756205 0.0007646144085901889 0.0007158178966256836 0.0007156039557107639 0.0007153900147958442
          0.0004586297289756612 0.0004586932692023682 0.0004587568094290752 0.0008097122165374177 0.0008106758116559648 0.0008116394067745119
          0.0005830804855518593 0.0008046877929996396 0.0005834701049079064 0.0008047174915297176 0.0005838597242639534 0.0008047471900597956
          0.0009295386990800167 0.0009305052119523731 0.0009314717248247294 0.0010877744146026859 0.0010790352610297294 0.00108720858601575
          0.0010785806455717068 0.001086642757428814 0.0010781260301136841 0.0017306047236503362 0.0018441275759816839 0.0017192211257909646
          0.001728643691585762 0.001841462182406208 0.0017176093045531465 0.0017266826595211874 0.0018387967888307325 0.0017159974833153282
          0.0021260247253932617 0.0020340781446511825 0.002013262705866265 0.0021241170108239884 0.0020328040668399867 0.002011793612956665
          0.002122209296254716 0.002031529989028791 0.0020103245200470653 0.0006652745451110211 0.0009842783087182666 0.0006661570636051078
          0.000985236235201035 0.0006670395820991945 0.0009861941616838036 0.0010230989982321927 0.0010357827990313527 0.0010234582875503035
          0.0010224569914201566 0.0010350596620022213 0.001022807314023061 0.0010218149846081205 0.0010343365249730896 0.0010221563404958186
          0.0012199313911546758 0.0011675108591621853 0.0012195278492765716 0.0011672912690119 0.001219124307398467 0.001167071678861615
          0.000161931193836131 0.00016239660126388103 0.00016286200869163107 0.0020638846454545754 0.002166763754817498 0.002062477426174274
          0.002164919288974154 0.0020610702068939724 0.00216307482313081 0.0021491464906402847 0.002013056896825922 0.0021466976630908846
          0.002010261004447287 0.0021442488355414846 0.0020074651120686516 0.0017076011131075047 0.0018026120727220975 0.0017050706803023224
          0.0017999679827450585 0.0017025402474971402 0.0017973238927680196 0.001494695215412404 0.001494139510122755 0.0014935838048331061
          0.001859451198641118 0.0018391344201536557 0.001858630143969858 0.001838519778819097 0.0018578090892985982 0.0018379051374845389
          0.0015818516530032866 0.0015813458394352531 0.0015808400258672194 0.0008041930707739769 0.0008042201578845359 0.0008042472449950951
          0.001273201391135832 0.001272979245825367 0.0012727571005149018 0.000821923652480155 0.0008219502930886264 0.000821976933697098
          0.000857565862375629 0.0008572768702909457 0.0008569878782062622 0.001029697189718651 0.0009704565010590011 0.0010304276831579681
          0.0009713655057128441 0.0010311581765972853 0.0009722745103666871 0.0009549035641698439 0.0009092854445383044 0.0009554912532859414
          0.0009093520869532804 0.000956078942402039 0.0009094187293682563 0.0004829697406741838 0.0004839432023023934 0.00048491666393060304
          0.00026773583120170367 0.00026812966150266073 0.00026852349180361785 0.000885781521471623 0.0008854447826949407 0.0008851080439182585
          0.0012688084238718694 0.0012683167052866624 0.0012678249867014554 0.0004222756263555276 0.00042424096921028954 0.0004262063120650515
          0.000363474027541437 0.0003641459005777672 0.0003648177736140975 0.001433555650269694 0.0012196372195597395 0.0014337543568923134
          0.0012205383197770306 0.0014339530635149326 0.0012214394199943214 0.0016569818768549759 0.0016562084418531107 0.0016554350068512455
          0.0019226552351123652 0.0017936604441626564 0.001919797548289321 0.001790765380630009 0.0019169398614662756 0.0017878703170973616
          0.00039481284475795193 0.00046703547591324455 0.0003305285022320022 0.00039495626952601063 0.000467218809937881 0.0003308554459258291
          0.0003950996942940693 0.0004674021439625176 0.000331182389619656 0.00027132124072800674 0.0002718154898152578 0.0002723097389025088
          0.0018588673384121552 0.0018572615235875097 0.0018556557087628643 0.0009739137342814484 0.0009472618358019205 0.0009735596766631648
          0.0009470211881067178 0.0009732056190448813 0.0009467805404115151 0.001853732518897641 0.00166022791835044 0.0018529596622086086
          0.0016602561650988328 0.0018521868055195755 0.001660284411847225 0.0014643087196342863 0.0014649855293686629 0.0014656623391030397
          0.0016072870538679411 0.0014478176285752126 0.001607443493059648 0.0014482680812864654 0.0016075999322513548 0.0014487185339977179
          0.00012680898288143074 0.00018169516566689267 0.0001031174617400609 0.00004417189881636329 0.00012814741666220068 0.00018370314704848023
          0.000104630060883025 0.00004569591697655423 0.00012948585044297067 0.0001857111284300678 0.00010614266002598909 0.00004721993513674516
          0.00017422212092076057 0.0001747341145236228 0.000175246108126485 0.0004498575328998714 0.0004515709423257535 0.00045328435175163556
          0.0012626641926285604 0.0013018780108569193 0.0012612818019078083 0.0013004937272145167 0.0012598994111870563 0.0012991094435721143
          0.001053786931515286 0.001054747302131682 0.0010557076727480779 0.0010456544693530883 0.0010403385515131507 0.0010450398673776692
          0.0010394257849568162 0.0010444252654022504 0.0010385130184004812 0.0007165529431864209 0.0005074658446492641 0.0007160216161629576
          0.0005075635214929907 0.0007154902891394943 0.0005076611983367172 0.0004047493222317563 0.0004052010300939192 0.00040565273795608215
          0.0012948112543890136 0.001338457658052152 0.0012957395257735661 0.0013390562964388714 0.0012966677971581189 0.0013396549348255904
          0.00028702539097944955 0.0003230262420436604 0.00024060562297296785 0.0001842644731274714 0.00028795269946883275 0.0003238191803305445
          0.0002412532556642791 0.00018503988928062848 0.00028888000795821594 0.00032461211861742865 0.00024190088835559042 0.00018581530543378564
          0.0011875706185083994 0.0011862891891929151 0.0011850077598774306 0.00009220334325107875 0.00002881432942216716 0.000092950518684013
          0.00002994469489714227 0.00009369769411694728 0.00003107506037211738 0.0012272106475516664 0.0014566439697262469 0.0012266037781539201
          0.0014559655851369778 0.0012259969087561736 0.0014552872005477086 0.0014458816217486252 0.0014446142027422447 0.0014433467837358643
          0.0009386761928341056 0.0009381969069471922 0.0009377176210602791 0.0010870170161554702 0.0010858479461265751 0.0010846788760976802
          0.0001999752778766378 0.00020114996131214308 0.00020232464474764846 0.00008498447769127591 0.0000855249234210715 0.00008606536915086712
          0.0009655237921224638 0.0012881375118171845 0.0009645999525706417 0.0012874841966470092 0.0009636761130188197 0.001286830881476834
          0.000054893995347285094 0.00005547115979450261 0.00005604832424172012 0.0003023086382760302 0.0003039103749834465 0.00030551211169086275
          0.0009553604439189354 0.0009547233009746749 0.0009540861580304147 0.0020055762494277894 0.002003467276228395 0.002001358303029
          0.000020006149480720765 0.000020837923600183432 0.000021669697719646102 0.0011682241191453954 0.001168864671920216 0.0011695052246950364
          0.0017759495483529904 0.0017597376850349978 0.0014440848817488022 0.0017736319429853924 0.0017574648107432384 0.001442587694645191
          0.0017713143376177944 0.0017551919364514788 0.0014410905075415799 0.0002904118171106349 0.0002925092222251356 0.00029460662733963623
          0.0010287326956453572 0.001007042990191645 0.001027763112875336 0.0010061492259851319 0.001026793530105314 0.001005255461778619
          0.00032816207778053115 0.0003292453583131522 0.0003303286388457733 0.00041239644295661647 0.0004133669414134455 0.0004143374398702747
          0.0010426115385477413 0.00104208875449953 0.0010415659704513186 0.000014242932927972212 0.000015107673658376245 0.000015972414388780274
          0.00011330837213460534 0.000209956040719988 0.00011383219186361556 0.00021041316913381183 0.00011435601159262579 0.00021087029754763572
          0.00040854246362554986 0.00040959779264670873 0.0004106531216678677 0.000008168919294063543 0.000008360116062831373 0.000008551312831599204
          0.001133744267614883 0.0011337128785707704 0.001133681489526658 0.001051336358033851 0.0010505723647554542 0.0010498083714770576
          0.002083975440555186 0.0020817193654172456 0.0020794632902793046 0.000794656283424581 0.0007946686385763078 0.0007946809937280346
          0.001015937738084798 0.0010284912706950064 0.0010151892076069927 0.0010279706409187283 0.001014440677129187 0.0010274500111424499
          0.001237496783689112 0.001236833739333048 0.0012361706949769835 0.0009674655907526157 0.0009689401443744413 0.000967412696364219
          0.0009684410638086359 0.0009673598019758221 0.0009679419832428305 0.0009813821511772233 0.0009807151237600001 0.0009800480963427767
          0.0008954800879085918 0.000895156214839133 0.0008948323417696739 0.0010454789333902556 0.001045249827737723 0.0010450207220851903
          0.000718007639597553 0.0007602291031164018 0.0007193420402770816 0.0007616315241912431 0.0007206764409566102 0.0007630339452660845
          0.0009534649030256874 0.0009539480303416096 0.0009544311576575319 0.0010147876037224462 0.0010150828647436981 0.0010153781257649498
        </DataArray>
        <DataArray type="Float64" Name="pe11" format="ascii" RangeMin="0.0000010886722647403687" RangeMax="0.002166377601031679">
          0.0005318671648533913 0.00046997044070145585 0.0003446209909485746 0.00041231288341794906 0.0005316333339388196 0.00046983664935767327
          0.00034475506216189496 0.0004124977134494081 0.0005313995030242479 0.00046970285801389074 0.0003448891333752153 0.00041268254348086707
          0.0010557221574631881 0.0010024297754157754 0.0010343539372164351 0.0011147148205910159 0.0010552932075306475 0.0010018851607254235
          0.0010339604377065745 0.0011143212701950767 0.0010548642575981064 0.0010013405460350712 0.0010335669381967142 0.0011139277197991378
          0.000022449171582175126 0.00007801597983646933 0.000022901551292508294 0.00007857739195142726 0.000023353931002841462 0.00007913880406638517
          0.0015421111299270603 0.0015789899875099638 0.0013006513053711848 0.001321046856299375 0.0015421136028377614 0.0015787414027332075
          0.001300482725143979 0.0013206035767349292 0.001542116075748463 0.0015784928179564512 0.001300314144916773 0.0013201602971704834
          0.0010845325212432986 0.0011873047596179143 0.001084597310979189 0.001187055823828801 0.0010846621007150796 0.0011868068880396877
          0.001305137610854314 0.0012296607827069282 0.0012695986524860817 0.0013833855167149599 0.0013039599177792115 0.0012295262795809223
          0.0012681471694282176 0.001380204087838414 0.001302782224704109 0.001229391776454916 0.0012666956863703538 0.0013770226589618676
          0.0015212138842891532 0.0017120956939657827 0.0015969351356500219 0.0014623143825100268 0.0015208086035521516 0.001710399260145309
          0.0015960875348608207 0.0014623712897307002 0.0015204033228151503 0.0017087028263248355 0.0015952399340716196 0.001462428196951373
          0.0004758821088089761 0.0005826588165551692 0.00047626720240309477 0.0005825211587196308 0.0004766522959972134 0.0005823835008840924
          0.0008255591306701889 0.000693091640367256 0.0010736622434332922 0.0011472755428337538 0.0008252723990697296 0.0006936131669310117
          0.0010731223068873232 0.0011466951033162732 0.0008249856674692705 0.0006941346934947674 0.0010725823703413542 0.0011461146637987926
          0.0005277090205157921 0.0005869451625481793 0.0007036087591136805 0.00052772120364911 0.0005868554635479615 0.0007036972095238157
          0.0005277333867824279 0.0005867657645477436 0.000703785659933951 0.0019902846452902333 0.0021221523877895205 0.002048201333933155
          0.0019361896919637784 0.0019873746997454552 0.002119602223010101 0.002045553144220291 0.0019331875230346259 0.0019844647542006776
          0.002117052058230681 0.0020429049545074274 0.001930185354105473 0.001327336419039235 0.0013558998829532097 0.0012628855869643485
          0.001307531671870205 0.001326833951376892 0.00135619220012754 0.0012632957178358149 0.001307045993772189 0.0013263314837145485
          0.0013564845173018702 0.001263705848707281 0.0013065603156741732 0.0014612518270743875 0.0014612885767880629 0.0014613253265017383
          0.0012910579942012523 0.0011801183208508257 0.0011305371738105537 0.0012901923983661843 0.0011794721560368228 0.0011304073768529323
          0.001289326802531116 0.00117882599122282 0.0011302775798953113 0.0013213908339926024 0.0014227581873915258 0.0013207613373892118
          0.001422920522363558 0.0013201318407858212 0.00142308285733559 0.0017628355857865468 0.0016387607162941964 0.0017783683306869435
          0.001933515549134393 0.001762563433094866 0.0016388063944953802 0.0017779791364701963 0.001932583540871798 0.0017622912804031844
          0.0016388520726965635 0.0017775899422534487 0.0019316515326092021 0.0003740904062133889 0.0005399824791749216 0.0003317553435415976
          0.00014908773976110147 0.00037578307271200577 0.0005404694196627252 0.00033315829261593226 0.00015201525178488656 0.00037747573921062267
          0.0005409563601505289 0.0003345612416902669 0.00015494276380867167 0.0013758283181114401 0.0012728693694536307 0.0012692193065898612
          0.001375820642930587 0.0012727551212614048 0.0012693718816854619 0.0013758129677497342 0.0012726408730691784 0.0012695244567810626
          0.00006491722162068567 0.00030019995687571236 0.00006692967214111454 0.0003024347084975351 0.0000689421226615434 0.00030466946011935785
          0.0010547329364246042 0.0011793872371536557 0.001349771056628809 0.0013502547105440348 0.0010545422858304666 0.0011795532454941865
          0.0013495255856555038 0.0013490175648287741 0.001054351635236329 0.0011797192538347172 0.0013492801146821982 0.0013477804191135128
          0.001501739250092419 0.0013652083512406428 0.0015018656188947775 0.0013652745567038578 0.001501991987697136 0.0013653407621670723
          0.00107322996275289 0.0012311741870002103 0.0010710954285931907 0.0012285364961570156 0.0010689608944334913 0.0012258988053138208
          0.001384383838170542 0.0011371509863010976 0.0013834938167975976 0.0011373816595433293 0.0013826037954246528 0.0011376123327855605
          0.000610550764315831 0.0005222300679667251 0.0005091302146702861 0.0006253203708056286 0.0006108115994217009 0.0005228271634632227
          0.0005101818419623885 0.0006261244052774177 0.0006110724345275709 0.0005234242589597203 0.000511233469254491 0.0006269284397492068
          0.0009765828948392432 0.0009140852104036889 0.0009766398163873694 0.0009137199395287015 0.000976696737935496 0.0009133546686537142
          0.0008891480157209887 0.0008874717034499506 0.0008857953911789124 0.0011561497333417898 0.0010064188661728683 0.0011567242817924692
          0.0010071397323841943 0.0011572988302431483 0.0010078605985955206 0.001287123598553692 0.0013126023669198174 0.0013487955933167062
          0.0012856026013255391 0.001311263483680094 0.0013464442625568656 0.0012840816040973861 0.0013099246004403702 0.0013440929317970252
          0.0008821801154629503 0.001038615698558432 0.0006954241214174367 0.0008810955303582195 0.0010372840650279703 0.0006944761075085767
          0.0008800109452534888 0.0010359524314975089 0.0006935280935997166 0.0010581373399668678 0.001058797444688308 0.0010594575494097486
          0.0006341602094635067 0.0006350245710170693 0.000635888932570632 0.0009758141739860892 0.0010313125775387134 0.0009751913121572429
          0.001030411278166085 0.0009745684503283966 0.001029509978793457 0.0011783525333060516 0.0011768107883615238 0.0011752690434169957
          0.00063121679946881 0.000834760403819491 0.0008251591515204147 0.0006323473595576344 0.0008360051376991077 0.0008256409369721976
          0.0006334779196464587 0.0008372498715787243 0.0008261227224239804 0.0015562106356140117 0.0016144970157018843 0.001554210491318747
          0.001612519157889144 0.001552210347023482 0.0016105413000764035 0.000038023818153420424 0.000014808390193496462 0.00003049978149953574
          0.00008370969397727611 0.00003858776599971211 0.000015425813477843577 0.00003112082584290809 0.00008421230002002949 0.0000391517138460038
          0.000016043236762190693 0.00003174187018628044 0.00008471490606278286 0.0003317943570120478 0.00021662881180643453 0.0002781668833019944
          0.00040162573088088984 0.00033204068140289784 0.00021700548231505664 0.00027839402750970226 0.000401659227051473 0.00033228700579374776
          0.00021738215282367875 0.0002786211717174101 0.0004016927232220562 0.0008825687293269793 0.0007935298049417405 0.0009194853000114318
          0.0008823543919055674 0.0007934844614136075 0.0009191926320358535 0.0008821400544841554 0.0007934391178854746 0.0009188999640602752
          0.001221517896758753 0.001220938869960989 0.0012203598431632253 0.0013598215526338506 0.0013563615397958113 0.0013529015269577718
          0.0000010886722647403687 0.0000032131379324560893 0.000001399512843435766 0.0000036081877405296086 0.0000017103534221311632 0.000004003237548603128
          0.00012461172543322548 0.00016061368813728976 0.00012507666345413484 0.00016109117357190322 0.00012554160147504418 0.00016156865900651674
          0.0010522569293173183 0.0010528119249498525 0.0010533669205823864 0.0006249918666619057 0.0006852826229024937 0.0006408926086028475
          0.0005218029813999019 0.0006251560440011532 0.0006854008238516774 0.0006408713791225119 0.0005219269300572318 0.0006253202213404006
          0.000685519024800861 0.0006408501496421765 0.0005220508787145616 0.0008030526957290658 0.0008029040773903451 0.0008027554590516245
          0.0006713845449233784 0.0006713356370665508 0.0006712867292097231 0.0007954777333508249 0.0006453048037076942 0.0007962272453915758
          0.0006460436656386163 0.0007969767574323267 0.0006467825275695382 0.0006643262561719208 0.0006658743773494674 0.000667422498527014
          0.0005364402208161166 0.0006677618451911305 0.000537580914485351 0.000668910759965565 0.0005387216081545853 0.0006700596747399994
          0.0007159870273447557 0.0007164622402488297 0.0007169374531529039 0.0007429093341955 0.0007631502731854471 0.000742916311372801
          0.0007636142690416151 0.0007429232885501018 0.000764078264897783 0.0007154970907466112 0.0007152823670651488 0.0007150676433836864
          0.0004584845929599448 0.00045854795186343227 0.00045861131076691984 0.0008089401871624643 0.0008098941623587833 0.0008108481375551023
          0.0005819473790246463 0.00080324098630492 0.000582320661815401 0.0008032606505628873 0.0005826939446061558 0.0008032803148208544
          0.0009285138375556885 0.0009294702005056645 0.0009304265634556408 0.0010873230514635067 0.001078636029423591 0.001086742566032898
          0.0010781691769897847 0.001086162080602289 0.001077702324555979 0.0017303062261904757 0.0018437074789756105 0.0017188658248137674
          0.0017283544366041264 0.0018410484011869572 0.001717263841572064 0.0017264026470177774 0.0018383893233983037 0.0017156618583303602
          0.0021255040560673433 0.0020332706890191406 0.0020123538812072362 0.002123575075689561 0.00203196381215398 0.0020108645776432364
          0.0021216460953117785 0.0020306569352888195 0.0020093752740792366 0.0006639229836942458 0.00098289815693991 0.0006648041986681534
          0.000983864291645432 0.0006656854136420611 0.000984830426350954 0.0010229120402417138 0.0010355672518575817 0.0010231983027687666
          0.0010222628798802807 0.0010348357369994849 0.0010225388790425008 0.0010216137195188477 0.0010341042221413876 0.0010218794553162349
          0.0012193477797392814 0.0011669766345479282 0.001218930634205384 0.0011667442422451206 0.0012185134886714868 0.001166511849942313
          0.00016191077280831476 0.00016237709250100388 0.000162843412193693 0.002063187944810257 0.002166377601031679 0.0020617447328246177
          0.002164506165153889 0.0020603015208389783 0.002162634729276099 0.0021489876376451942 0.002012924213908988 0.0021465287261131435
          0.0020101342386503267 0.0021440698145810924 0.0020073442633916656 0.001706707288411579 0.0018015943587132446 0.0017041930257301154
          0.0017989536774503107 0.0017016787630486521 0.0017963129961873772 0.0014938576079356921 0.0014933277053294758 0.0014927978027232593
          0.00185847905960497 0.001838163699924519 0.0018576254781263266 0.001837517465343377 0.0018567718966476837 0.0018368712307622345
          0.00158082675979977 0.0015803049481653056 0.0015797831365308415 0.0008039126687192099 0.0008039364368997355 0.0008039602050802611
          0.0012722679848918808 0.0012720546206370243 0.0012718412563821673 0.000821596384286163 0.0008216183608915969 0.0008216403374970308
          0.0008572134749813752 0.0008569185198439282 0.0008566235647064809 0.0010289723145949724 0.0009696504335500638 0.0010297112670031984
          0.0009705820527823135 0.0010304502194114244 0.0009715136720145632 0.0009541516069883836 0.0009087719588539072 0.0009547265558907706
          0.0009088273545158503 0.0009553015047931576 0.0009088827501777935 0.00048235317499352947 0.00048332276877653587 0.0004842923625595424
          0.00026766580138572714 0.00026806068953019166 0.0002684555776746562 0.000885392466227599 0.0008850472277037962 0.0008847019891799936
          0.0012682370237112924 0.0012677586620134414 0.0012672803003155899 0.00042161993045027697 0.00042358407060653685 0.0004255482107627968
          0.0003627778322044481 0.0003634390374346818 0.0003641002426649155 0.0014320596242250636 0.0012182854645637477 0.0014322445511075156
          0.0012191703000751326 0.0014324294779899677 0.0012200551355865175 0.0016556042066590117 0.0016548215840537285 0.0016540389614484459
          0.0019219967754742241 0.0017929781776735633 0.0019191422310912774 0.0017900941720161462 0.0019162876867083306 0.0017872101663587289
          0.00039471226604911175 0.00046694676645048206 0.0003304648701888465 0.0003948561196995703 0.0004671299319986945 0.0003307927030092903
          0.00039499997335002893 0.00046731309754690704 0.00033112053582973417 0.0002712859098878206 0.00027178118388810984 0.0002722764578883991
          0.0018577284835907693 0.001856115078132884 0.0018545016726749992 0.0009735627074895226 0.0009469253411215862 0.000973195829346255
          0.0009466733697505555 0.0009728289512029875 0.0009464213983795249 0.001852524981772287 0.001658834058088234 0.0018517335760043576
          0.0016588460797140189 0.001850942170236428 0.001658858101339804 0.001462872506926414 0.0014635328345555202 0.0014641931621846263
          0.001606010695473531 0.0014465409575880686 0.0016061439835054283 0.0014469696267242523 0.0016062772715373257 0.001447398295860436
          0.00012668768472492417 0.00018151541429679984 0.00010304488269061 0.000044145433960528745 0.00012802299583283437 0.00018352460600113695
          0.00010455859530168749 0.00004566936306296162 0.00012935830694074457 0.0001855337977054741 0.00010607230791276497 0.000047193292165394485
          0.00017416873711248993 0.0001746818040371523 0.00017519487096181465 0.00044915036286905896 0.00045086926016470907 0.0004525881574603593
          0.001262437416916714 0.0013016291445023221 0.0012610657929937555 0.0013002561551461475 0.0012596941690707973 0.001298883165789973
          0.0010527355676231114 0.001053681828074503 0.0010546280885258947 0.0010454773331652891 0.0010401308084783199 0.0010448553258029323
          0.0010392079660199109 0.001044233318440575 0.0010382851235615016 0.0007161279647806473 0.0005071338045979838 0.0007155916298133935
          0.0005072269799212961 0.0007150552948461399 0.0005073201552446083 0.00040469143800443566 0.00040514358954197986 0.00040559574107952405
          0.0012935317454550424 0.0013372475508831392 0.0012944419609275883 0.0013378255507726386 0.0012953521764001346 0.0013384035506621382
          0.00028679617470315534 0.00032284589530760994 0.00024050601481675915 0.00018416352531580663 0.00028772172567413206 0.0003236386329772751
          0.0002411545231219567 0.0001849389762358953 0.0002886472766451088 0.00032443137064694014 0.00024180303142715422 0.00018571442715598391
          0.001187317878742092 0.0011860412914375298 0.0011847647041329677 0.00009217059340282141 0.00002880526752426262 0.0000929182251316343
          0.000029935692602054736 0.0000936658568604472 0.00003106611767984686 0.0012268973616228799 0.001456333661419001 0.0012262933862441268
          0.0014556602331451975 0.0012256894108653733 0.0014549868048713943 0.0014455622741444114 0.001444300466398612 0.0014430386586528126
          0.0009383525407415437 0.0009378641394537696 0.0009373757381659952 0.0010866871222081327 0.001085518395162963 0.0010843496681177932
          0.00019978833862316226 0.00020096400658392824 0.0002021396745446942 0.00008489841971563937 0.00008543587011299618 0.00008597332051035298
          0.0009651148859147904 0.0012878806680728858 0.0009641880891479098 0.0012872353094034446 0.0009632612923810292 0.0012865899507340031
          0.00005488128591095067 0.00005545896129647535 0.00005603663668200001 0.00030183681221136326 0.0003034333113219983 0.00030502981043263334
          0.0009550908640367272 0.0009544452343887347 0.0009537996047407425 0.0020047777168914014 0.0020026616418988355 0.002000545566906269
          0.000019997914714489105 0.00002082930073904784 0.00002166068676360658 0.0011672110192509548 0.0011678330715698204 0.0011684551238886863
          0.0017757211223141636 0.0017595075129180787 0.0014437474004265684 0.0017734156491080743 0.0017572449275047417 0.0014422573947942192
          0.001771110175901985 0.0017549823420914044 0.0014407673891618702 0.0002900242229570181 0.0002921263744296723 0.0002942285259023265
          0.00102850313696383 0.001006760479614669 0.0010275216648772253 0.0010058532645225323 0.0010265401927906205 0.0010049460494303958
          0.0003277825993046646 0.00032886428213446586 0.0003299459649642672 0.00041210522866434626 0.00041307250126219956 0.0004140397738600529
          0.0010422037375606328 0.0010416755365996694 0.0010411473356387057 0.000014240113316486224 0.00001510487129817193 0.000015969629279857632
          0.00011328681270097826 0.0002099166531522085 0.00011381148945999409 0.00021037492421771212 0.00011433616621900991 0.0002108331952832157
          0.0004081395470016432 0.0004091891306018243 0.0004102387142020054 0.000008165797318372963 0.00000835686281750885 0.000008547928316644737
          0.0011330402092371557 0.0011329988639086025 0.0011329575185800493 0.0010511640031530224 0.0010503912318538637 0.0010496184605547055
          0.0020834664300681135 0.002081201471178103 0.0020789365122880926 0.0007944475429433889 0.0007944581749542041 0.0007944688069650191
          0.0010156615206149567 0.001028201458582308 0.0010148994417856227 0.0010276686369897342 0.001014137362956289 0.0010271358153971601
          0.0012368005990223646 0.001236123861202221 0.0012354471233820773 0.000967039173061526 0.0009685967163640122 0.0009669783602793678
          0.0009680900837193268 0.0009669175474972095 0.0009675834510746413 0.0009811497423873833 0.000980476292902546 0.0009798028434177088
          0.0008951798975228467 0.0008948537146184443 0.0008945275317140417 0.0010449538414962238 0.0010447192364246728 0.001044484631353122
          0.0007174463232594993 0.0007597445943214917 0.0007187981982154588 0.000761157260784304 0.0007201500731714183 0.0007625699272471164
          0.000952958988502533 0.0009534399177179489 0.0009539208469333649 0.0010141746224663702 0.0010144677072068966 0.001014760791947423
        </DataArray>
        <DataArray type="Float64" Name="pe22" format="ascii" RangeMin="-0.0011134531972641453" RangeMax="-5.543779247207805e-7">
          -0.0002687518076091058 -0.0002376776598128986 -0.0001747740154233046 -0.0002090769126048957 -0.0002686166593260569 -0.0002375887567224203
          -0.0001747935822448658 -0.00020910086804149368 -0.000268481511043008 -0.00023749985363194197 -0.000174813149066427 -0.00020912482347809164
          -0.0005452133014287881 -0.00051560806447549 -0.0005334171550554234 -0.0005773501984325136 -0.0005451864595780368 -0.0005155417018350945
          -0.0005333371827537614 -0.0005772691747841386 -0.0005451596177272854 -0.0005154753391946991 -0.0005332572104520992 -0.0005771881511357636
          -0.000011429533486266802 -0.00003960740074996988 -0.000011651033158872692 -0.00003986380636043058 -0.000011872532831478583 -0.00004012021197089128
          -0.0008122989386325187 -0.0008338689150814114 -0.0006862402592167052 -0.0006960547450011421 -0.0008126801753218002 -0.0008341256504562779
          -0.0006861700197844856 -0.000696150897633812 -0.0008130614120110816 -0.0008343823858311446 -0.0006860997803522659 -0.0006962470502664818
          -0.0005615453855401529 -0.0006172854322303875 -0.0005615718555697022 -0.0006172195585020926 -0.0005615983255992514 -0.0006171536847737976
          -0.0006639958095086146 -0.000631838285777976 -0.0006488554800810791 -0.0006943112621197663 -0.0006641562593291421 -0.0006322401142098874
          -0.0006489114934692627 -0.0006939390890424598 -0.0006643167091496694 -0.0006326419426417989 -0.0006489675068574463 -0.0006935669159651534
          -0.0007514748948876111 -0.0008528755986522423 -0.0007981844641939566 -0.000727817093236384 -0.0007515826323888564 -0.0008527843457359167
          -0.0007983224533391211 -0.0007281075517686385 -0.0007516903698901018 -0.0008526930928195911 -0.0007984604424842855 -0.000728398010300893
          -0.00024134168245037467 -0.0002947167464605101 -0.00024141913849150254 -0.00029460162408898716 -0.0002414965945326304 -0.0002944865017174643
          -0.000395425712566188 -0.00033117345146703664 -0.0005167247353216228 -0.0005545077355155032 -0.00039518498025597516 -0.0003311120164671644
          -0.0005164053728534284 -0.0005542319857236244 -0.00039494424794576244 -0.00033105058146729206 -0.0005160860103852339 -0.0005539562359317455
          -0.00026628306862844177 -0.00029656032777739064 -0.0003543066106577497 -0.000266291930378895 -0.0002965008867477759 -0.0003543088840847773
          -0.00026630079212934825 -0.0002964414457181612 -0.00035431115751180487 -0.0009861224452135545 -0.0010686809281426244 -0.0010295710965055828
          -0.0009624111576448751 -0.000985921953083449 -0.0010687401048189483 -0.0010295901903159645 -0.0009621334526462539 -0.0009857214609533436
          -0.0010687992814952725 -0.0010296092841263465 -0.0009618557476476329 -0.0006662203770726417 -0.0006875224151429405 -0.0006461167148424029
          -0.0006620349462731815 -0.000666402734336399 -0.0006879561772397464 -0.0006465274317132268 -0.0006622657712782028 -0.0006665850916001563
          -0.0006883899393365521 -0.0006469381485840508 -0.000662496596283224 -0.0007685850760912958 -0.0007687857999505785 -0.000768986523809861
          -0.0006587711240288105 -0.0006068393695138934 -0.0005836956026864411 -0.0006590435519670525 -0.0006069141228464944 -0.0005839914244597151
          -0.0006593159799052943 -0.0006069888761790954 -0.0005842872462329888 -0.0006566754653719013 -0.0007150635719962422 -0.0006567325117806281
          -0.0007154532955545474 -0.000656789558189355 -0.0007158430191128523 -0.0009255419097048715 -0.0008593701228467374 -0.0009271549731868617
          -0.0010072620813323736 -0.0009259498704106567 -0.0008596239092204575 -0.0009274221431686862 -0.0010076278346926439 -0.0009263578311164419
          -0.0008598776955941774 -0.0009276893131505107 -0.001007993588052914 -0.0001789680393936149 -0.0002580857051504225 -0.00015899066574937113
          -0.00007180977039741119 -0.0001795021753544825 -0.0002581482402444301 -0.00015945681236970627 -0.00007307649817021266 -0.00018003631131535016
          -0.0002582107753384377 -0.00015992295899004138 -0.00007434322594301415 -0.000719563737849964 -0.0006641652477666159 -0.0006628318707684133
          -0.0007195488919932919 -0.0006641460656022128 -0.000662856724211603 -0.0007195340461366199 -0.0006641268834378097 -0.000662881577654793
          -0.000031451543419309627 -0.00014417633617689858 -0.00003233829028603141 -0.0001449345048605614 -0.00003322503715275319 -0.00014569267354422417
          -0.0005402674315350719 -0.0006052136333825322 -0.0006855045691098748 -0.000685602151248192 -0.000540066864235629 -0.0006053356723377684
          -0.0006856722841990558 -0.0006853162707726796 -0.000539866296936186 -0.0006054577112930046 -0.000685839999288237 -0.0006850303902971674
          -0.0007864257561142189 -0.0007154984386418802 -0.0007865501443801728 -0.0007155845381794693 -0.0007866745326461265 -0.0007156706377170584
          -0.0005219654424315123 -0.0006039820482105829 -0.0005215784471140825 -0.0006037323893186119 -0.0005211914517966528 -0.0006034827304266411
          -0.0007073274452311172 -0.0005846318852939886 -0.0007071317926827184 -0.0005845516861297931 -0.0007069361401343196 -0.0005844714869655977
          -0.0003093836970935013 -0.0002647105636600094 -0.00025896069970661613 -0.0003180065692937839 -0.0003093635226835262 -0.00026483721091070033
          -0.0002592244351237208 -0.0003181220072921368 -0.000309343348273551 -0.00026496385816139134 -0.0002594881705408255 -0.0003182374452904896
          -0.0005068179280723335 -0.0004744417823847416 -0.0005069189990701608 -0.00047450263284971335 -0.0005070200700679881 -0.00047456348331468515
          -0.0004290894712899746 -0.0004286454224408747 -0.00042820137359177483 -0.00059545171205719 -0.0005207661884935426 -0.0005958346541005414
          -0.0005210015270390566 -0.0005962175961438929 -0.0005212368655845706 -0.000642778408431188 -0.0006640269675259783 -0.0006749509691897776
          -0.0006428032086088975 -0.0006642200882518162 -0.000674929711268543 -0.0006428280087866069 -0.0006644132089776541 -0.0006749084533473083
          -0.0004252250623162759 -0.00050431930457318 -0.0003338346403572828 -0.00042490309148354553 -0.0005040851656032228 -0.0003334825487566267
          -0.000424581120650815 -0.0005038510266332656 -0.00033313045715597047 -0.0005488573242643023 -0.0005494632619081142 -0.0005500691995519261
          -0.00030363669441038735 -0.0003036390664720503 -0.0003036414385337133 -0.0004948985804498541 -0.0005241290387405547 -0.0004948922046843448
          -0.0005240478533036022 -0.0004948858289188357 -0.0005239666678666497 -0.0005780732800702152 -0.000577935088975057 -0.0005777968978798989
          -0.0003259975961805414 -0.0004333300001348875 -0.00042478468371856916 -0.0003263149401882938 -0.0004337440176016192 -0.00042483214093350764
          -0.0003266322841960461 -0.00043415803506835086 -0.0004248795981484461 -0.0007837575877706701 -0.0008185729671661056 -0.0007835187077983277
          -0.000818376759759709 -0.0007832798278259857 -0.0008181805523533126 -0.00001937746224226839 -0.000007578761133270964 -0.000015576441803746366
          -0.00004263093825992634 -0.000019649738250790762 -0.000007886886500418814 -0.00001587989071174703 -0.00004285656928078782 -0.00001992201425931313
          -0.000008195011867566663 -0.000016183339619747687 -0.00004308220030164929 -0.00016829472663763514 -0.00010998568862577425 -0.00014116304983864583
          -0.00020359046962533425 -0.00016838742864733807 -0.0001101274605674526 -0.00014123164976275482 -0.00020358228490592083 -0.00016848013065704103
          -0.00011026923250913092 -0.0001413002496868638 -0.00020357410018650743 -0.00044623260749107374 -0.00040171508872260936 -0.00046761976229751245
          -0.0004462424870323256 -0.0004017570127206583 -0.00046770000244071753 -0.00044625236657357755 -0.0004017989367187072 -0.0004677802425839227
          -0.0006250305577157934 -0.0006251742461450821 -0.0006253179345743708 -0.0006742811828723654 -0.0006738979789564707 -0.0006735147750405763
          -5.543779247207805e-7 -0.0000016417367804928668 -7.123168920617104e-7 -0.0000018419872941033022 -8.702558594026403e-7 -0.0000020422378077137376
          -0.00006345193079026915 -0.00008157846955131299 -0.00006364714127537761 -0.00008177389270229508 -0.00006384235176048606 -0.00008196931585327715
          -0.0005442806868734018 -0.0005445583538656168 -0.0005448360208578319 -0.00031634575053128956 -0.00034605240575012996 -0.00032336133136359827
          -0.0002640134336591437 -0.0003163985688610033 -0.0003460997321876509 -0.0003233400124051972 -0.00026406182664242634 -0.000316451387190717
          -0.00034614705862517193 -0.0003233186934467961 -0.000264110219625709 -0.0004076741498309674 -0.0004076832117460194 -0.0004076922736610714
          -0.0003402696606139697 -0.0003402332747228622 -0.0003401968888317548 -0.0004059207733012965 -0.00032958434508891486 -0.00040599279519500515
          -0.00032969095286950904 -0.0004060648170887138 -0.0003297975606501032 -0.00034517582471205757 -0.0003457392736302086 -0.0003463027225483596
          -0.0002733988772574256 -0.00034015986707936873 -0.0002736600837451867 -0.00034039251866408853 -0.0002739212902329478 -0.0003406251702488083
          -0.00037082446040527533 -0.0003710538907675581 -0.00037128332112984085 -0.0003778652056144634 -0.00038939945062104115 -0.00037778748680345825
          -0.0003894107838393021 -0.0003777097679924531 -0.0003894221170575631 -0.00036310419111436695 -0.0003629963574015255 -0.00036288852368868417
          -0.0002322761382724089 -0.00023231203261224172 -0.00023234792695207455 -0.0004138046100527926 -0.0004139727016791229 -0.00041414079330545325
          -0.0003021140211389048 -0.00041718278207370375 -0.000302212176037382 -0.00041735284680372264 -0.00030231033093585914 -0.00041752291153374153
          -0.0004766159624227974 -0.00047675301691801875 -0.00047689007141324017 -0.0005677218778259637 -0.000560301147464862 -0.0005676604756748912
          -0.0005602554623805934 -0.0005675990735238188 -0.0005602097772963248 -0.0008518572697411 -0.0009186953792398237 -0.0008514663008436467
          -0.000851670853463286 -0.000918431792133142 -0.0008513548854157232 -0.0008514844371854718 -0.0009181682050264606 -0.0008512434699877997
          -0.0010889379225760682 -0.0010588237529614477 -0.00103656904735885 -0.0010892526539036892 -0.0010592804558874056 -0.0010369013387354277
          -0.0010895673852313096 -0.0010597371588133636 -0.0010372336301120056 -0.00034738919952753786 -0.0005129094182562439 -0.0003476993831277557
          -0.0005135467662019631 -0.0003480095667279734 -0.0005141841141476825 -0.0005254497751625562 -0.0005317048476501285 -0.0005284344271529493
          -0.0005254082933510555 -0.0005316021899877826 -0.000528355328778439 -0.0005253668115395547 -0.0005314995323254367 -0.0005282762304039288
          -0.0006374496531296024 -0.0006066858961917641 -0.0006373959455173374 -0.0006066640286140423 -0.0006373422379050724 -0.0006066421610363205
          -0.00008189680576052067 -0.00008207763694644899 -0.00008225846813237727 -0.001074682219894737 -0.0011126473785353281 -0.0010751508681893077
          -0.0011130502878997366 -0.0010756195164838781 -0.0011134531972641453 -0.0010831572465548713 -0.0009958165145822029 -0.0010833022679027533
          -0.0009957234629044305 -0.0010834472892506351 -0.000995630411226658 -0.0008548454019777536 -0.0009095194225721248 -0.0008546205194291453
          -0.0009093736235828328 -0.0008543956368805368 -0.0009092278245935409 -0.0007528335528573759 -0.0007530405922554708 -0.0007532476316535655
          -0.0009789367286072415 -0.0009668961019863995 -0.000979332492228224 -0.0009673525189708022 -0.0009797282558492066 -0.000967808935955205
          -0.0008367679572847919 -0.0008367875493968046 -0.0008368071415088173 -0.00040939748491556266 -0.0004094355547939958 -0.00040947362467242884
          -0.0006743998754533786 -0.0006739902863805813 -0.0006735806973077839 -0.0004192746998492828 -0.0004193092353040926 -0.0004193437707589024
          -0.00043779774055836986 -0.00043774348356539024 -0.0004376892265724108 -0.0005439055518434866 -0.0005152016568996953 -0.0005441031239664648
          -0.0005151294953024251 -0.000544300696089443 -0.0005150573337051548 -0.0004912544719941726 -0.0004660611660035006 -0.0004913706334899298
          -0.00046605489687091893 -0.0004914867949856868 -0.0004660486277383373 -0.0002474432581647393 -0.00024766734536138855 -0.00024789143255803776
          -0.00013568868080109515 -0.00013583995414863658 -0.00013599122749617803 -0.00045277427567566293 -0.00045268943377632686 -0.0004526045918769906
          -0.000645440671983742 -0.0006456891760475772 -0.0006459376801114125 -0.0002198967113807894 -0.00022059716798086146 -0.00022129762458093354
          -0.00018950531209587426 -0.00018966522385595758 -0.00018982513561604085 -0.0007392249748527478 -0.0006310904506347115 -0.0007393484533210188
          -0.000631267386020376 -0.0007394719317892898 -0.0006314443214060406 -0.0008498747736522632 -0.0008499897373596525 -0.0008501047010670417
          -0.000964993651634323 -0.0008944954890271486 -0.0009648802082685636 -0.0008942079071172147 -0.0009647667649028035 -0.0008939203252072808
          -0.00019965848520629966 -0.00023529120148264827 -0.00016697180742925307 -0.00019971490469217803 -0.0002353914256965163 -0.0001670901780452996
          -0.00019977132417805642 -0.0002354916499103843 -0.0001672085486613461 -0.0001369378932268963 -0.00013711380577656628 -0.00013728971832623624
          -0.0009496917311699508 -0.0009498340928585968 -0.0009499764545472427 -0.0004998935649184636 -0.00048547882043482177 -0.0004999222141455985
          -0.00048552842111244455 -0.0004999508633727334 -0.00048557802179006733 -0.0009578793369867682 -0.0008603153164946703 -0.0009581841814935775
          -0.0008605751759034543 -0.000958489026000387 -0.0008608350353122383 -0.0007615818270646383 -0.0007617913595934908 -0.0007620008921223433
          -0.0008379169791562818 -0.0007561757766897078 -0.0008381278834183597 -0.0007562978156869512 -0.0008383387876804375 -0.0007564198546841945
          -0.00006543930615917915 -0.00009447020984035222 -0.00005319515412348744 -0.000022736136184045283 -0.00006602195663984431 -0.00009529634517819343
          -0.000053851660581569144 -0.000023469393671439914 -0.00006660460712050944 -0.00009612248051603464 -0.00005450816703965085 -0.000024202651158834548
          -0.00008868712533973608 -0.00008888764641657889 -0.00008908816749342169 -0.00023305373589305853 -0.0002336150764737457 -0.0002341764170544329
          -0.0006256072205727658 -0.0006514891340964278 -0.0006255087334838094 -0.0006514471324875329 -0.000625410246394853 -0.0006514051308786382
          -0.0005444219531805733 -0.0005446085471301737 -0.000544795141079774 -0.0005350422207790367 -0.0005321749912420141 -0.0005350240006693854
          -0.0005320524201274046 -0.0005350057805597342 -0.0005319298490127953 -0.0003433889034753272 -0.0002428825248234843 -0.000343128035755816
          -0.0002428098345267474 -0.0003428671680363049 -0.0002427371442300105 -0.00020374640372667127 -0.0002039300589103458 -0.0002041137140940203
          -0.0006748037160029994 -0.0006998777628322915 -0.0006750146893908785 -0.0006999971543848386 -0.0006752256627787579 -0.0007001165459373857
          -0.0001468321977981808 -0.00016464445791606995 -0.00012253770337509911 -0.0000942774048968137 -0.00014709662421221682 -0.00016489543752536696
          -0.0001227706462655395 -0.00009454457752289507 -0.00014736105062625282 -0.00016514641713466396 -0.00012300358915597986 -0.00009481175014897645
          -0.0005822627631567018 -0.000582079498049552 -0.0005818962329424023 -0.00004713293229321366 -0.000014714159810845974 -0.000047456013870253044
          -0.000015267202400612077 -0.000047779095447292415 -0.000015820244990378185 -0.0005980617388068141 -0.0007114737796848091 -0.0005978853541162526
          -0.0007114393881641137 -0.0005977089694256914 -0.0007114049966434184 -0.0007028649201982637 -0.0007026871792482515 -0.0007025094382982393
          -0.0004801012035587314 -0.00048004953139169077 -0.00047999785922465 -0.0005282957395097423 -0.0005280132750144605 -0.0005277308105191786
          -0.00010324198092888492 -0.000103635680801138 -0.0001040293806733911 -0.00004374658978675852 -0.000043961684644975744 -0.00004417677950319297
          -0.000465598264623647 -0.0006339443320567265 -0.0004652598872306047 -0.0006338845390988317 -0.00046492150983756255 -0.0006338247461409368
          -0.000028001587135920027 -0.000028270201933244667 -0.00002853881673056931 -0.00015850139860320463 -0.00015907988875958458 -0.00015965837891596452
          -0.0004869273141502149 -0.00048686557931677143 -0.00048680384448332795 -0.0010195737543395532 -0.001019750116965941 -0.001019926479592329
          -0.000010284362060078924 -0.000010694208420304005 -0.000011104054780529086 -0.0006072837210661932 -0.0006074506357790654 -0.0006076175504919377
          -0.0008684729120093135 -0.0008625380666372476 -0.0007002990226864961 -0.0008683408134244147 -0.0008623408843896983 -0.0007000870817052829
          -0.0008682087148395158 -0.0008621437021421488 -0.0006998751407240699 -0.00015130724374411882 -0.00015207205818182232 -0.00015283687261952587
          -0.0005255259037768249 -0.0005153582611901893 -0.0005254049986454566 -0.0005152525497785313 -0.0005252840935140882 -0.0005151468383668734
          -0.00016887543730545397 -0.0001691613795057114 -0.00016944732170596884 -0.00021004612778358433 -0.00021032174690447706 -0.00021059736602536977
          -0.0005013050999386438 -0.0005009622672287007 -0.0005006194345187578 -0.000007272055140232549 -0.000007704329278584596 -0.000008136603416936643
          -0.000057545406786913506 -0.00010631522308710062 -0.00005777253156781173 -0.00010648842385520883 -0.00005799965634870996 -0.00010666162462331707
          -0.00020858736888593044 -0.00020885130633018273 -0.00020911524377443494 -0.00000419167512522368 -0.000004284683895140387 -0.0000043776926650570955
          -0.0005977728292654003 -0.0005979789244040255 -0.0005981850195426508 -0.0005360329082862423 -0.0005359897131877937 -0.0005359465180893452
          -0.0010557374828734168 -0.0010559116792580646 -0.0010560858756427122 -0.00039979840886993713 -0.00039979031468934703 -0.00039978222050875703
          -0.0005204160918468247 -0.0005283953053700851 -0.0005203645688721723 -0.0005283919417577408 -0.00052031304589752 -0.0005283885781453964
          -0.0006508989536815052 -0.000650738006638238 -0.0006505770595949707 -0.0005067553622800097 -0.0005042245709435415 -0.0005068765904038938
          -0.0005041765003541622 -0.0005069978185277778 -0.0005041284297647826 -0.0005066630375187868 -0.0005066099625035765 -0.0005065568874883661
          -0.00046495764043395056 -0.00046494176584943386 -0.00046492589126491716 -0.0005486346945905073 -0.0005485388648220924 -0.0005484430350536776
          -0.0003808804547026797 -0.0004007670918351622 -0.0003811505743365211 -0.00040120681929509014 -0.00038142069397036256 -0.00040164654675501813
          -0.0005016965380712602 -0.0005019134306138313 -0.0005021303231564025 -0.0005346470053432468 -0.0005347777852073286 -0.0005349085650714104
        </DataArray>
        <DataArray type="Float64" Name="pe33" format="ascii" RangeMin="-0.001065830391090323" RangeMax="-5.342943400195882e-7">
          -0.0002631153572442856 -0.00023229278088855715 -0.00016984697552527005 -0.00020323597081305325 -0.0002630166746127627 -0.00023224789263525297
          -0.00016996147991702918 -0.00020339684540791433 -0.00026291799198123987 -0.00023220300438194874 -0.00017007598430878829 -0.0002035577200027754
          -0.0005105088560344002 -0.0004868217109402855 -0.0005009367821610117 -0.0005373646221585025 -0.0005101067479526105 -0.0004863434588903289
          -0.0005006232549528133 -0.0005370520954109383 -0.000509704639870821 -0.00048586520684037223 -0.000500309727744615 -0.0005367395686633741
          -0.00001101963809590832 -0.00003840857908649943 -0.000011250518133635596 -0.00003871358559099666 -0.000011481398171362874 -0.00003901859209549389
          -0.0007298121912945413 -0.0007451210724285524 -0.0006144110461544796 -0.0006249921112982328 -0.0007294334275159611 -0.0007446157522769295
          -0.0006143127053594934 -0.0006244526791011173 -0.0007290546637373813 -0.0007441104321253064 -0.0006142143645645072 -0.0006239132469040017
          -0.0005229871357031457 -0.0005700193273875264 -0.000523025455409487 -0.0005698362653267083 -0.0005230637751158282 -0.0005696532032658903
          -0.0006411418013456991 -0.0005978224969289521 -0.0006207431724050025 -0.0006890742545951935 -0.0006398036584500694 -0.0005972861653710347
          -0.000619235675958955 -0.0006862649987959537 -0.0006384655155544395 -0.0005967498338131172 -0.0006177281795129075 -0.0006834557429967142
          -0.000769738989401542 -0.0008592200953135402 -0.0007987506714560653 -0.0007344972892736428 -0.0007692259711632952 -0.0008576149144093923
          -0.0007977650815216995 -0.0007342637379620613 -0.0007687129529250485 -0.0008560097335052444 -0.0007967794915873338 -0.0007340301866504799
          -0.0002345404263586014 -0.00028794207009465904 -0.00023484806391159215 -0.0002879195346306435 -0.00023515570146458295 -0.00028789699916662807
          -0.00043013341810400077 -0.0003619181889002192 -0.0005569375081116691 -0.0005927678073182502 -0.0004300874188137543 -0.00036250115046384726
          -0.0005567169340338946 -0.0005924631175926485 -0.000430041419523508 -0.0003630841120274753 -0.0005564963599561201 -0.0005921584278670468
          -0.0002614259518873503 -0.0002903848347707887 -0.0003493021484559307 -0.000261429273270215 -0.0002903545768001855 -0.0003493883254390384
          -0.0002614325946530796 -0.0002903243188295823 -0.00034947450242214605 -0.001004162200076679 -0.0010534714596468963 -0.001018630237427572
          -0.0009737785343189036 -0.0010014527466620064 -0.0010508621181911525 -0.0010159629539043264 -0.0009710540703883718 -0.0009987432932473336
          -0.0010482527767354086 -0.001013295670381081 -0.0009683296064578403 -0.0006611160419665935 -0.000668377467810269 -0.0006167688721219456
          -0.0006454967255970236 -0.0006604312170404927 -0.0006682360228877934 -0.0006167682861225879 -0.0006447802224939862 -0.0006597463921143919
          -0.0006680945779653177 -0.0006167677001232301 -0.000644063719390949 -0.0006926667509830917 -0.0006925027768374846 -0.0006923388026918774
          -0.0006322868701724416 -0.0005732789513369322 -0.0005468415711241123 -0.0006311488463991317 -0.0005725580331903283 -0.0005464159523932172
          -0.0006300108226258216 -0.0005718371150437245 -0.0005459903336623222 -0.0006647153686207009 -0.0007076946153952834 -0.0006640288256085834
          -0.0007074672268090104 -0.000663342282596466 -0.0007072398382227374 -0.000837293676081675 -0.0007793905934474585 -0.0008512133575000817
          -0.0009262534678020194 -0.0008366135626842088 -0.0007791824852749225 -0.0008505569933015098 -0.0009249557061791538 -0.0008359334492867424
          -0.000778974377102386 -0.0008499006291029378 -0.0009236579445562883 -0.000195122366819774 -0.0002818967740244991 -0.00017276467779222645
          -0.00007727796936369027 -0.00019628089735752323 -0.00028232117941829514 -0.00017370148024622596 -0.00007893875361467389 -0.00019743942789527248
          -0.00028274558481209116 -0.00017463828270022547 -0.0000805995378656575 -0.0006562645802614757 -0.0006087041216870147 -0.0006063874358214477
          -0.0006562717509372949 -0.0006086090556591917 -0.0006065151574738587 -0.0006562789216131142 -0.0006085139896313688 -0.0006066428791262695
          -0.00003346567820137603 -0.00015602362069881372 -0.00003459138185508312 -0.0001575002036369737 -0.00003571708550879021 -0.00015897678657513366
          -0.000514465504889532 -0.0005741736037711235 -0.0006642664875189345 -0.0006646525592958424 -0.0005144754215948373 -0.000574217573156418
          -0.0006638533014564478 -0.000663701294056094 -0.0005144853383001427 -0.0005742615425417124 -0.0006634401153939609 -0.0006627500288163454
          -0.0007153134939781998 -0.0006497099125987626 -0.0007153154745146046 -0.0006496900185243883 -0.0007153174550510093 -0.0006496701244500141
          -0.0005512645203213779 -0.0006271921387896272 -0.0005495169814791082 -0.0006248041068384034 -0.0005477694426368385 -0.0006224160748871797
          -0.0006770563929394246 -0.0005525191010071092 -0.0006763620241148787 -0.000552829973413536 -0.0006756676552903329 -0.0005531408458199628
          -0.0003011670672223296 -0.00025751950430671564 -0.00025016951496367 -0.00030731380151184456 -0.00030144807673817474 -0.00025798995255252224
          -0.0002509574068386677 -0.0003080023979852809 -0.0003017290862540198 -0.0002584604007983289 -0.00025174529871366545 -0.00030869099445871717
          -0.0004697649667669095 -0.0004396434280189471 -0.00046972081731720856 -0.000439217306678988 -0.00046967666786750764 -0.00043879118533902896
          -0.0004600585444310142 -0.0004588262810090758 -0.0004575940175871375 -0.0005606980212845996 -0.0004856526776793256 -0.0005608896276919275
          -0.00048613820534513776 -0.0005610812340992554 -0.0004866237330109499 -0.000644345190122504 -0.0006485753993938392 -0.000673844624126928
          -0.0006427993927166418 -0.0006470433954282776 -0.0006715145512883225 -0.0006412535953107792 -0.0006455113914627163 -0.0006691844784497169
          -0.0004569550531466743 -0.0005342963939852518 -0.00036158948106015384 -0.00045619243887467403 -0.0005331988994247476 -0.00036099355875194997
          -0.0004554298246026738 -0.0005321014048642434 -0.00036039763644374605 -0.0005092800157025653 -0.0005093341827801938 -0.0005093883498578223
          -0.0003305235150531192 -0.00033138550454501884 -0.00033224749403691856 -0.00048091559353623513 -0.0005071835387981587 -0.000480299107472898
          -0.0005063634248624829 -0.00047968262140956084 -0.000505543310926807 -0.0006002792532358364 -0.0005988756993864666 -0.0005974721455370968
          -0.0003052192032882686 -0.00040143040368460347 -0.00040037446780184555 -0.0003060324193693407 -0.0004022611200974885 -0.00040080879603868994
          -0.0003068456354504127 -0.0004030918365103735 -0.0004012431242755342 -0.0007724530478433415 -0.0007959240485357785 -0.0007706917835204189
          -0.0007941423981294345 -0.0007689305191974964 -0.0007923607477230908 -0.00001864635591115203 -0.000007229629060225497 -0.00001492333969578937
          -0.00004107875571734975 -0.000018938027748921342 -0.000007538926977424762 -0.000015240935131161057 -0.00004135573073924166 -0.000019229699586690656
          -0.000007848224894624027 -0.000015558530566532748 -0.000041632705761133566 -0.00016349963037441274 -0.00010664312318066032 -0.00013700383346334862
          -0.00019803526125555554 -0.00016365325275555971 -0.00010687802174760406 -0.00013716237774694746 -0.00019807694214555216 -0.00016380687513670674
          -0.00010711292031454784 -0.0001373209220305463 -0.00019811862303554877 -0.00043633612183590536 -0.0003918147162191311 -0.0004518655377139193
          -0.00043611190487324153 -0.00039172744869294925 -0.0004514926295951359 -0.0004358876879105777 -0.0003916401811667672 -0.00045111972147635244
          -0.0005964873390429594 -0.000595764623815907 -0.0005950419085888545 -0.000685540369761485 -0.0006824635608393402 -0.0006793867519171954
          -5.342943400195882e-7 -0.000001571401151963223 -6.871959513740555e-7 -0.000001766200446426306 -8.400975627285227e-7 -0.000001960999740889389
          -0.00006115979464295632 -0.00007903521858597674 -0.00006142952217875722 -0.00007931728086960814 -0.0000616992497145581 -0.00007959934315323954
          -0.0005079762424439162 -0.0005082535710842353 -0.0005085308997245542 -0.0003086461161306162 -0.0003392302171523636 -0.00031753127723924926
          -0.00025778954774075815 -0.0003087574751401498 -0.0003393010916640264 -0.0003175313667173148 -0.00025786510341480534 -0.0003088688341496836
          -0.0003393719661756891 -0.0003175314561953803 -0.0002579406590888526 -0.00039537854589809826 -0.00039522086564432554 -0.00039506318539055287
          -0.00033111488430940866 -0.0003311023623436884 -0.00033108984037796824 -0.00038955696004952837 -0.0003157204586187793 -0.0003902344501965706
          -0.00031635271276910713 -0.0003909119403436128 -0.00031698496691943495 -0.00031915043145986315 -0.00032013510371925875 -0.00032111977597865435
          -0.000263041343558691 -0.0003276019781117618 -0.0002639208307401642 -0.0003285182413014764 -0.0002648003179216375 -0.000329434504491191
          -0.00034516256693948 -0.00034540834948127157 -0.000345654132023063 -0.0003650441285810364 -0.0003737508225644059 -0.00036512882456934265
          -0.00037420348520231293 -0.0003652135205576488 -0.0003746561478402198 -0.0003523928996322442 -0.00035228600966362314 -0.0003521791196950021
          -0.00022620845468753593 -0.00022623591925119055 -0.00022626338381484523 -0.0003951355771096717 -0.00039592146067966036 -0.0003967073442496489
          -0.00027983335788574155 -0.00038605820423121614 -0.0002801084857780191 -0.0003859078037591646 -0.0002803836136702966 -0.0003857574032871129
          -0.0004518978751328911 -0.0004527171835876459 -0.0004535364920424007 -0.0005196011736375429 -0.0005183348819587289 -0.0005190820903580066
          -0.0005179137146091914 -0.0005185630070784703 -0.000517492547259654 -0.0008784489564493754 -0.0009250120997357868 -0.0008673995239701207
          -0.0008766835831408405 -0.000922616609053815 -0.0008659089561563406 -0.0008749182098323054 -0.0009202211183718431 -0.0008644183883425605
          -0.0010365661334912752 -0.0009744469360576924 -0.0009757848338483863 -0.0010343224217858717 -0.0009726833562665741 -0.0009739632389078087
          -0.0010320787100804685 -0.000970919776475456 -0.000972141643967231 -0.00031653378416670783 -0.0004699887386836659 -0.00031710481554039777
          -0.00047031752544346873 -0.0003176758469140877 -0.0004706463122032716 -0.0004974622650791574 -0.000503862404207453 -0.000494763875615817
          -0.0004968545865292252 -0.000503233547011702 -0.0004941835502640616 -0.000496246907979293 -0.0005026046898159509 -0.0004936032249123059
          -0.0005818981266096789 -0.000560290738356164 -0.0005815346886880466 -0.0005600802136310782 -0.0005811712507664143 -0.0005598696889059924
          -0.00008001396704779404 -0.00008029945555455489 -0.00008058494406131572 -0.0009885057249155202 -0.0010537302224963509 -0.00098659386463531
          -0.0010514558772541523 -0.0009846820043550998 -0.0010491815320119535 -0.001065830391090323 -0.001017107699326785 -0.0010632264582103902
          -0.0010144107757458962 -0.0010606225253304573 -0.0010117138521650076 -0.0008518618864338253 -0.0008920749361411197 -0.0008495725063009704
          -0.0008895800538674779 -0.0008472831261681153 -0.0008870851715938363 -0.0007410240550783161 -0.0007402871130740049 -0.0007395501710696937
          -0.0008795423309977282 -0.0008712675979381193 -0.0008782929858981027 -0.0008701649463725745 -0.0008770436407984771 -0.0008690622948070297
          -0.000744058802514978 -0.0007435173987685009 -0.0007429759950220239 -0.0003945151838036471 -0.0003945008821057396 -0.00039448658040783203
          -0.000597868109438502 -0.0005980643342564428 -0.0005982605590743836 -0.00040232168443688003 -0.00040230912558750415 -0.00040229656673812823
          -0.00041941573442300523 -0.0004191750362785377 -0.0004189343381340701 -0.00048506676275148587 -0.0004544487766503685 -0.0004856081430367336
          -0.0004554525574798884 -0.00048614952332198135 -0.0004564563383094083 -0.00046289713499421083 -0.00044271079285040644 -0.00046335592240084075
          -0.0004427724576449312 -0.0004638147098074706 -0.000442834122439456 -0.00023490991682879008 -0.00023565542341514732 -0.00023640093000150457
          -0.0001319771205846319 -0.000132220735381555 -0.00013246435017847814 -0.00043261819055193573 -0.0004323577939274693 -0.00043209739730300294
          -0.0006227963517275504 -0.0006220694859658638 -0.0006213426202041772 -0.00020172321906948757 -0.00020298690262567543 -0.00020425058618186323
          -0.0001732725201085738 -0.0001737738135787242 -0.00017427510704887461 -0.0006928346493723157 -0.0005871950139290364 -0.0006928960977864966
          -0.0005879029140547568 -0.0006929575462006776 -0.000588610814180477 -0.0008057294330067482 -0.0008048318466940758 -0.0008039342603814036
          -0.000957003123839901 -0.0008984826886464149 -0.000954262022822714 -0.0008958862648989313 -0.0009515209218055268 -0.0008932898411514479
          -0.00019505378084281209 -0.00023165556496783376 -0.00016349306275959346 -0.00019514121500739228 -0.00023173850630217824 -0.00016370252496399076
          -0.00019522864917197245 -0.0002318214476365227 -0.00016391198716838806 -0.00013434801666092433 -0.00013466737811154356 -0.00013498673956216278
          -0.0009080367524208183 -0.0009062809852742874 -0.0009045252181277564 -0.0004736691425710588 -0.0004614465206867643 -0.00047327361520065644
          -0.00046114494863811086 -0.000472878087830254 -0.0004608433765894575 -0.000894645644785519 -0.0007985187415935637 -0.0008935493945107799
          -0.0007982709038105645 -0.0008924531442360406 -0.0007980230660275651 -0.0007012906798617756 -0.000701741474962029 -0.0007021922700622826
          -0.0007680937163172489 -0.0006903651808983607 -0.0007680161000870682 -0.0006906718110373011 -0.000767938483856888 -0.0006909784411762415
          -0.00006124837856574502 -0.00008704520445644759 -0.00004984972856712255 -0.000021409297776483465 -0.00006200103919299006 -0.00008822826082294351
          -0.000050706934720118335 -0.000022199969391521697 -0.00006275369982023511 -0.00008941131718943943 -0.000051564140873114114 -0.000022990641006559933
          -0.00008548161177275384 -0.0000857941576205734 -0.00008610670346839293 -0.00021609662697600032 -0.00021725418369096332 -0.0002184117404059263
          -0.000636830196343948 -0.0006501400104058944 -0.0006355570595099462 -0.0006488090226586147 -0.0006342839226759444 -0.0006474780349113347
          -0.000508313614442538 -0.0005090732809443293 -0.0005098329474461207 -0.0005104351123862526 -0.0005079558172363057 -0.0005098313251335466
          -0.0005071555458925059 -0.0005092275378808407 -0.0005063552745487065 -0.0003727390613053201 -0.0002642512797744995 -0.0003724635940575775
          -0.0002644171453945486 -0.000372188126809835 -0.00026458301101459775 -0.00020094503427776442 -0.00020121353063163406 -0.00020148202698550368
          -0.000618728029452043 -0.0006373697880508477 -0.0006194272715367098 -0.0006378283963877999 -0.0006201265136213765 -0.0006382870047247521
          -0.0001399639769049745 -0.00015820143739153994 -0.00011796831144166004 -0.0000898861204189929 -0.0001406251014619152 -0.00015874319545190806
          -0.0001183838768564172 -0.0000903943987130002 -0.0001412862260188559 -0.00015928495351227618 -0.00011879944227117435 -0.00009090267700700747
          -0.0006050551155853897 -0.0006039617933879776 -0.0006028684711905654 -0.00004503766110960773 -0.000014091107713416646 -0.00004546221126138125
          -0.000014668490201442661 -0.00004588676141315478 -0.000015245872689468677 -0.0006288356228160657 -0.0007448598817341915 -0.0006284080321278737
          -0.0007442208449810836 -0.0006279804414396819 -0.0007435818082279758 -0.0007426973539461474 -0.0007416132871503603 -0.0007405292203545729
          -0.00045825133718281223 -0.0004578146080620786 -0.00045737787894134497 -0.0005583913826983904 -0.0005575051201485025 -0.0005566188575986145
          -0.00009654635769427731 -0.00009732832578279018 -0.00009811029387130307 -0.000041151829928880854 -0.000041474185468020434 -0.000041796541007160014
          -0.0004995166212911434 -0.000653936336016159 -0.0004989282019173049 -0.0006533507703046127 -0.0004983397825434664 -0.000652765204593066
          -0.000026879698775030634 -0.000027188759363230666 -0.00002749781995143069 -0.00014333541360815862 -0.00014435342256241372 -0.00014537143151666882
          -0.00046816354988651226 -0.00046757965507196334 -0.0004669957602574144 -0.0009852039625518482 -0.000982911524932894 -0.00098061908731394
          -0.000009713552654410183 -0.000010135092318743836 -0.000010556631983077492 -0.0005599272981847615 -0.000560382435790755 -0.0005608375733967486
          -0.0009072482103048502 -0.0008969694462808309 -0.0007434483777400723 -0.0009050748356836595 -0.0008949040431150432 -0.0007421703130889363
          -0.0009029014610624688 -0.0008928386399492554 -0.0007408922484378002 -0.0001387169792128992 -0.00014005431624784993 -0.0001413916532828006
          -0.0005029772331870053 -0.0004914022184244795 -0.0005021166662317687 -0.0004906007147440007 -0.0005012560992765319 -0.0004897992110635222
          -0.00015890716199921056 -0.00015970290262875444 -0.00016049864325829827 -0.00020205910088076195 -0.0002027507543577225 -0.00020344240783468307
          -0.000540898637621989 -0.0005407132693709684 -0.0005405279011199478 -0.000006968058176253672 -0.000007400542019587331 -0.000007833025862920991
          -0.000055741405914064724 -0.00010360143006510783 -0.00005603895789218232 -0.00010388650036250325 -0.000056336509870299936 -0.00010417157065989865
          -0.00019955217811571275 -0.00020033782427164159 -0.00020112347042757037 -0.000003974122193149283 -0.000004072178922368462 -0.0000041702356515876394
          -0.0005352673799717554 -0.0005350199395045769 -0.0005347724990373983 -0.0005151310948667801 -0.00051440151866607 -0.00051367194246536
          -0.0010277289471946958 -0.0010252897919200382 -0.0010228506366453804 -0.0003946491340734517 -0.00039466786026485693 -0.0003946865864562621
          -0.0004952454287681317 -0.0004998061532122228 -0.0004945348729134503 -0.0004992766952319933 -0.0004938243170587689 -0.0004987472372517637
          -0.0005859016453408592 -0.0005853858545639831 -0.0005848700637871068 -0.0004602838107815163 -0.0004643721454204705 -0.00046010176987547395
          -0.0004639135833651645 -0.0004599197289694316 -0.0004634550213098586 -0.0004744867048685964 -0.00047386633039896956 -0.00047324595592934264
          -0.0004302222570888961 -0.0004299119487690103 -0.0004296016404491245 -0.0004963191469057162 -0.0004961803716025802 -0.0004960415962994441
          -0.00033656586855681955 -0.00035897750248632947 -0.0003376476238789376 -0.0003599504414892139 -0.0003387293792010556 -0.0003609233804920983
          -0.0004512624504312726 -0.00045152648710411746 -0.0004517905237769622 -0.0004795276171231233 -0.000479689921999568 -0.00047985222687601256
        </DataArray>
        <DataArray type="Float64" Name="disp_x" format="ascii" RangeMin="0.000006918013070506659" RangeMax="0.000026362762215301952">
          0.000019594536942817038 0.000019641052725448506 0.000018817295922458456 0.000018793974680216627 0.000019595839053435402 0.000019642373294887436
          0.000018818706636724786 0.00001879540423270548 0.000019599851949461122 0.000019646169776246756 0.000018823267481229392 0.000018799873354777692
          0.00002323396406496147 0.000021874370744578386 0.000021239482634044852 0.00002205989992536087 0.000023233721689259276 0.000021874767885144367
          0.00002123987206633251 0.000022059550352828546 0.000023233080808986617 0.000021876055287758077 0.000021241279068598426 0.00002205856990176043
          0.00001861176069225793 0.00001925684724281035 0.00001861217495392762 0.000019257623282984356 0.000018613364683999127 0.000019259994264917034
          0.000022140362534957863 0.000022277149829299162 0.000023605009182686517 0.00002339923863658046 0.000022137918552841877 0.000022274027871409906
          0.000023601700212382586 0.00002339647046117389 0.000022130308276490208 0.000022265070620402915 0.000023591968013085103 0.00002338920197038306
          0.000020405743336694666 0.000021117698194086125 0.000020406030479397558 0.0000211174696296987 0.00002040678626910218 0.0000211165127662457
          0.000011081890856976647 0.00001186028432841146 0.000011507680938586027 0.000010429278089373062 0.000011080041464211604 0.000011857628694660083
          0.000011504706823076438 0.000010427963892392488 0.000011073842553468804 0.000011849403759139024 0.000011495735565663932 0.000010423537268847531
          0.00001177806688383444 0.000013200960332955345 0.000013298913712818427 0.000012051073145453489 0.000011780941982182214 0.000013203251506297306
          0.000013300694330863705 0.000012052933168572995 0.000011789843209961678 0.000013210999722863292 0.00001330665352262468 0.00001205796346070575
          0.000018783376254130618 0.000019482061754449066 0.000018784729746262118 0.00001948340100435542 0.00001878896042177896 0.00001948744350271585
          0.000008986780609643136 0.000008705835264237933 0.000009728999452308335 0.00001000293055053524 0.0000089908846163049 0.000008710423206181441
          0.000009733643950035327 0.000010006755959974795 0.000009003550513300072 0.000008724529601050646 0.000009747641926973952 0.000010018031090474058
          0.000021306089486441104 0.00002132180669791882 0.00002222932817681147 0.000021307572058013452 0.00002132323665703076 0.00002223081484473053
          0.00002131212179055255 0.000021327338059503054 0.000022234510680846387 0.000013735508072096677 0.000015309995378846216 0.00001495404320656102
          0.000013584953403179891 0.000013737333348026466 0.000015310322986312613 0.00001495463321742297 0.000013586946275067828 0.00001374287225285897
          0.000015311403706727532 0.000014956517860260845 0.00001359260746730704 0.000011704508208445916 0.00001285920578193537 0.000013183588351476492
          0.000012021278389241585 0.00001170482508030148 0.000012859388707886832 0.000013182962155726979 0.00001202073582024657 0.000011705589865623332
          0.000012859821961675856 0.000013181089326947823 0.00001201912404600689 0.00002204685385996287 0.000022044994193139633 0.0000220394884851757
          0.00001167257098438665 0.000012523336470801139 0.000012627791021395932 0.000011670913553456103 0.000012521296581342597 0.00001262565868823728
          0.000011666036293362894 0.000012515047593288115 0.00001261958255128794 0.0000112532156697337 0.000012441945583970538 0.000011254422847059717
          0.000012442977793520709 0.000011258086146298136 0.000012446082962804501 0.000020733819880308816 0.00002067973582986613 0.00001937065361546265
          0.000019210791998378315 0.000020731345565171078 0.000020677722577212127 0.000019368633427751303 0.000019208658551204325 0.00002072354377089798
          0.00002067129655018955 0.000019362687043953 0.000019202526223686526 0.00000788020057227279 0.000008173147731344516 0.0000075687419465988535
          0.000007195000734704079 0.00000788411378808609 0.000008177315590024626 0.000007572505033192853 0.000007197789019369063 0.000007895553548911832
          0.000008189523732806305 0.000007584159321655244 0.000007206391516820964 0.00002053481589872125 0.000021582930247098266 0.00002021064431174443
          0.000020533827534029926 0.000021581964734041906 0.00002021021799888625 0.000020531061103964486 0.00002157912590218357 0.000020209143374780285
          0.000006918013070506659 0.000007634986593199285 0.000006919136473337688 0.000007638395051010463 0.000006922889018280313 0.000007648201337345413
          0.00001602108391327012 0.000014463705198004477 0.000014126065817487216 0.000015386703798392386 0.00001602026271551961 0.000014463165202571793
          0.000014126304661594599 0.00001538632039770857 0.00001601776706749662 0.000014461527660984592 0.000014127181771733225 0.000015385403195250773
          0.0000206535571268871 0.000021869237856072756 0.000020652055546654026 0.000021867868469842383 0.000020647255616931692 0.00002186363291582277
          0.000008933824516450726 0.000009416359282508071 0.000008935642461948625 0.000009417122222869097 0.000008940874648327696 0.000009419498881185612
          0.00001654610529116411 0.000017168970473803873 0.000016545019008216057 0.00001716801082006749 0.000016541147574960427 0.000017164905310106764
          0.000019234623063115484 0.000018768235962747534 0.000018312607100425714 0.00001874285001549619 0.000019235870446080298 0.000018769453809542292
          0.000018313401474615623 0.00001874370338932124 0.000019239645192874245 0.000018773195664435742 0.000018315990789325888 0.000018746542567087964
          0.000013652125485471371 0.00001370724881089112 0.000013649588582855883 0.000013704662349185908 0.00001364143971508625 0.000013697502779891945
          0.000008473090054646029 0.000008475855637557332 0.000008484328302956723 0.000013409817155498212 0.000014630623398557943 0.000013408437570799426
          0.000014629594114505243 0.000013404238040363185 0.000014626305586750315 0.00001078617159823366 0.000011296238029002787 0.00001036998225016758
          0.000010786048964777236 0.000011295007332725182 0.00001036937379987771 0.000010786028489643297 0.000011291087332001903 0.000010367838031356885
          0.00000882216296095257 0.000009255928031760533 0.000008102006933910768 0.000008825403657953565 0.00000925828665882991 0.000008105493012147021
          0.000008835050878133957 0.000009265315625828154 0.00000811619376635908 0.000012785300338715309 0.000012782935790526271 0.000012776066832498934
          0.000008493964890178612 0.000008498630400981473 0.000008512988177638896 0.00002388705025494974 0.000024361744682163413 0.0000238882891696002
          0.00002436250723295208 0.00002389204314467457 0.000024364788460230756 0.000009824240491929716 0.000009825654574578258 0.000009830186004268044
          0.00001578228365625742 0.000014724015388037946 0.00001579636524682693 0.00001578130139459398 0.00001472246052850746 0.000015795608084038493
          0.000015778149985820313 0.000014718234929797896 0.00001579330038329233 0.000014888664323890137 0.000016048026503827 0.000014889024425884005
          0.000016047232654126163 0.00001489008854003313 0.000016044952654851676 0.000018318123757364525 0.00001780960823297962 0.00001771538857214596
          0.00001832677314256479 0.000018318726718925898 0.000017809929222000982 0.000017715916400368552 0.000018327557784917107 0.000018320545717427696
          0.000017810992902165964 0.000017717598370351975 0.00001833009490230464 0.000019659313612135694 0.000018921918976736533 0.000018853191092307438
          0.000019637635682813105 0.000019660735005075217 0.000018923125811039583 0.000018854591488364994 0.000019639004377121095 0.000019665059022759284
          0.00001892692118749095 0.000018859023045483575 0.000019643016977997118 0.000023339383439258787 0.000022422802450721712 0.00002319409718874846
          0.00002334084212329572 0.00002242415297373522 0.000023195391959235655 0.000023345673912126964 0.000022428283062231772 0.000023199306847868846
          0.000012384973743646122 0.000012383154535476798 0.000012377398524686515 0.000009627977056948467 0.00000962813957410556 0.000009629350872701088
          0.000017481175477520346 0.000017064725920440778 0.000017481322435266164 0.00001706473657213031 0.000017481497865635953 0.000017064743630362448
          0.000018223548365106576 0.000019001641457503437 0.000018224588121222628 0.000019002793318222402 0.000018227452341708107 0.00001900597898541289
          0.000013558936256026633 0.000013557013621766969 0.000013550958573040011 0.000020720224676262724 0.000021396744787044602 0.00002134068501226647
          0.00002047769768826176 0.0000207215700511533 0.000021398238672812048 0.0000213422035989461 0.000020479135978638802 0.000020725622207597967
          0.00002140305026353442 0.000021346809365078574 0.000020483248865534097 0.000022090475360215526 0.00002209205870224126 0.00002209621103808529
          0.00002052454347759743 0.00002052572890799003 0.00002052892771639656 0.000017223523985718246 0.000016811352465797992 0.000017222878554030218
          0.0000168108059699653 0.00001722074639267673 0.000016809131120466662 0.00001487206295442594 0.000014869829594524478 0.00001486274862365997
          0.000017653907802763905 0.00001805681013933221 0.000017654046702301078 0.00001805703810154599 0.000017654164130211477 0.000018057563527561336
          0.00001442692650699197 0.000014424274533524041 0.000014414941251874846 0.000020007968200286935 0.000019462408017193668 0.000020009177082058016
          0.0000194633460170643 0.00002001271255075312 0.000019466088874250217 0.00002034135648040475 0.000020342638877037807 0.000020346174519111556
          0.000020448252548206853 0.00002044981886074388 0.000020454492750121685 0.000018743228599541643 0.00001874369485308926 0.0000187449467599607
          0.00001471716554099033 0.000013870580216052654 0.000014714410287945638 0.00001386816752024507 0.000014705337437767731 0.000013861542809314098
          0.000017938889250542834 0.000017938580632045882 0.000017937606009205136 0.00002412647105806468 0.000023826407943318135 0.00002412493795602864
          0.00002382571967013489 0.00002412059025835674 0.000023823681998276804 0.00001232102881289813 0.000013385441110008488 0.000012503004717384093
          0.00001232424113182219 0.000013387847328185192 0.000012505997277256898 0.000012334857513244756 0.000013393867873150277 0.000012515827618866105
          0.000017117598589663228 0.000019146223466374507 0.000017727153804072405 0.000017116690958249377 0.000019144131714330565 0.00001772579002835785
          0.000017113910484666655 0.00001913817932145484 0.000017721152523860517 0.00001407794982248346 0.000012927912218483629 0.00001407557969228104
          0.000012924844525334615 0.000014068720489933194 0.000012914894219385197 0.000025454662619539608 0.000024423671746083634 0.000024716770645535744
          0.00002545429704800924 0.000024423558216264906 0.000024716490280274097 0.000025453159390733978 0.000024423368860739827 0.000024715552851961378
          0.000023032007757370083 0.00002266762396318395 0.000023030880319932325 0.00002266704501108933 0.000023027355717948036 0.000022664716828078576
          0.000019943565679347973 0.00001994474743981554 0.00001994817727942126 0.000019343148979696832 0.00001757514186079895 0.000019341008135773454
          0.000017574000043122256 0.00001933446812285695 0.000017570515510336285 0.00001578467996318335 0.000014031677192002205 0.00001578478679226636
          0.000014033286858866252 0.000015784693466451082 0.0000140381732824764 0.000014445239122721113 0.000015560855671968807 0.000014446334839683465
          0.00001556068175632107 0.000014449803809680478 0.000015559729135978728 0.000013689265250004099 0.000013690343410086313 0.000013693335367334153
          0.000021021011228720344 0.00002081342297164581 0.00002101813330941754 0.000020810858249636083 0.000021008941515374026 0.00002080232186786029
          0.000022562214080477546 0.000022559068480050693 0.000022549209275859392 0.000021753219027896992 0.00002175471406288715 0.000021759124059088817
          0.000023936602864310037 0.00002393319681931231 0.00002392210206119605 0.00002149619480264141 0.00002149744246288472 0.000021501015721900527
          0.00002127490496392364 0.000021275954656597384 0.000021279098528472494 0.000024701575465692418 0.000025139071648359274 0.00002469831416923669
          0.0000251361720132715 0.00002468765948148782 0.000025127463170180376 0.000019586734987371653 0.00002033624589387751 0.0000195872687379908
          0.00002033719886472822 0.000019588630483111546 0.000020339816048727405 0.00001668207205644578 0.000016681706175305598 0.000016680510329273834
          0.000019718698681311655 0.000019720125004087384 0.000019724406352127497 0.000020886593394940315 0.00002088778813064691 0.000020891204105836565
          0.000012195159921454193 0.000012194104250691386 0.000012190460419454204 0.00001537669981941254 0.000015374508485946886 0.000015367453826037894
          0.000015179452226629072 0.000015177511613190098 0.000015171644175252939 0.000017609711222217124 0.000018139143267175186 0.000017608374735345986
          0.000018138316043733225 0.000017604142008227178 0.000018136055707421142 0.00001717917922584192 0.000017177809029151806 0.000017173429029806876
          0.000014812699181105846 0.000014112627598877655 0.000014813283560320046 0.00001411419874054119 0.000014815299049529136 0.000014118368565595257
          0.000020480438106484464 0.000021325321131113434 0.000020542762764300175 0.000020482047373048682 0.000021326993402599695 0.00002054426776935272
          0.000020486695063932368 0.00002133214612189817 0.000020548779257079207 0.000020641936514863913 0.000020643326536529074 0.000020647546068247126
          0.000016763456766105813 0.00001676231458893026 0.000016758643597089615 0.0000222672522244062 0.000022432696206432624 0.000022267966639582833
          0.000022433788345421228 0.000022269801928725834 0.000022437072179852853 0.00001804234818300054 0.000018323443173787328 0.000018040852394334045
          0.000018321918725674516 0.000018036132554232657 0.00001831718227733167 0.000018610084415959943 0.00001860891448148488 0.0000186051820631558
          0.000019478399289321044 0.000019565593307596768 0.000019476978298130837 0.000019564690960043157 0.000019472239054673086 0.00001956149721411807
          0.000015976535407363658 0.000016060550401334012 0.00001666236784247519 0.000016569949133371998 0.00001597535177080456 0.000016059527269829404
          0.000016662560564049817 0.000016569767074650462 0.000015971371285378022 0.000016057104454721147 0.000016663301901082143 0.000016569017479123773
          0.00001811934294211581 0.000018120487874956586 0.000018123675610806618 0.000015892434995796297 0.000015891466391350942 0.000015888719535869727
          0.000010710358036442774 0.000011178343360882575 0.000010711254647003661 0.000011178503300809282 0.000010714126772413621 0.000011178381728238007
          0.000018825900015191213 0.000018825871167556598 0.00001882543482529047 0.000025151199496110963 0.000024209491994106623 0.000025151060831779017
          0.000024209716634370005 0.000025150861366117086 0.000024210090703314146 0.000008475162864582498 0.00000781967721489981 0.000008479045215260116
          0.000007823524630804322 0.000008490640378014125 0.00000783534416646293 0.00002137634261719504 0.00002137803602289752 0.000021383143702664706
          0.000019019519518665984 0.000019605507720217454 0.00001901898778672446 0.000019605001714600737 0.000019016757822846927 0.000019603015047173765
          0.00001738425721928335 0.000018074240382992246 0.000018074242003844735 0.00001737407192297981 0.000017384741787310374 0.00001807538834324074
          0.000018075519529916316 0.00001737471944247001 0.00001738645428468803 0.00001807882579828758 0.000018079108718907562 0.00001737679508286673
          0.000010175040469793186 0.000010176878991552811 0.000010182219599903303 0.00001732933097516425 0.000016965980987395683 0.00001733016681562313
          0.00001696639768072364 0.000017332564663165 0.000016968307261099872 0.00001036961766315371 0.000011147445678111443 0.000010372593377167543
          0.000011151163697977605 0.000010381090642807428 0.000011162004532626879 0.000010927849072600801 0.000010931957444437739 0.000010944262608962192
          0.000022658647373349618 0.00002265996866467269 0.000022663782122061448 0.000009700394055767624 0.000009703099754363237 0.000009711375181717287
          0.000016700027355087633 0.00001670029326186501 0.000016700741863583957 0.000015904545696164432 0.00001590378963948445 0.000015901492185085378
          0.00000932254624503827 0.000010789671265944214 0.00000932597312476036 0.000010791729454353177 0.0000093364989509209 0.000010797890194483965
          0.000017580664280127864 0.000017581437666353798 0.00001758365746853148 0.000015582237452468062 0.00001558055646860005 0.000015574265316288823
          0.000023205699530906852 0.000023206932102659174 0.000023210608023589095 0.000016348521226459217 0.000016348004967234262 0.000016346232758680953
          0.000016489641104904876 0.0000164894263571754 0.000016488477708827003 0.00001962429829067181 0.00001962432970629275 0.00001962398367029918
          0.00001237324964874312 0.000012284064339450296 0.000010866081570995683 0.00001237642015173802 0.000012287384296364084 0.000010870421758626087
          0.00001238600986985911 0.000012297051866463631 0.000010883588678170559 0.000016022758628419947 0.00001602200297130952 0.000016020094154229846
          0.000023875263521571617 0.00002327858328831494 0.00002387598013250875 0.00002327952759018262 0.00002387759525832091 0.000023282552628577853
          0.00001668092138496378 0.000016680939197884184 0.000016680490079493907 0.000018139828481457707 0.00001814089441734904 0.00001814378107196998
          0.000009563973777384653 0.000009568956968687784 0.000009584089871430893 0.000017019113195303914 0.000017019436123679086 0.000017020349550663405
          0.000019101054750334863 0.000019810504054401156 0.000019102024487144528 0.000019811793978935015 0.000019104716700711357 0.000019815677231432997
          0.000017458292144787428 0.000017458683399976984 0.000017459666907174738 0.0000163697101421826 0.000016369616747683125 0.000016369066939751192
          0.000024328728248429942 0.00002432576888227699 0.000024316186721869634 0.000024788953062953455 0.00002478928257343149 0.00002478983925953736
          0.00001605697497303019 0.000016056835776997875 0.000016056295676982654 0.00002294028403917558 0.000022941924786022208 0.00002294703257644505
          0.000023310175157184816 0.000023322479167586294 0.000023311064877933877 0.000023322980894307664 0.00002331312877293908 0.000023323874429137236
          0.00002356739177005034 0.000023565179866451095 0.00002355874436889525 0.000025117973450242232 0.000025298174831155552 0.000025116312184479732
          0.00002529700108638383 0.000025111311497792584 0.000025293619763222347 0.00002581506216035249 0.000025814328294949972 0.000025812066085463202
          0.000026362762215301952 0.00002636145084249553 0.00002635719149636221 0.000024551930867197607 0.00002454961062992827 0.000024542134267651254
          0.00002618694772369794 0.000025867976660031344 0.000026185097719629918 0.0000258656050041141 0.00002618028106482117 0.000025858498459894524
          0.00002513094028706525 0.000025129129492519917 0.000025122350069399786 0.000024800856476129913 0.000024797851660915446 0.000024787641406519753
        </DataArray>
        <DataArray type="Float64" Name="disp_y" format="ascii" RangeMin="-0.000007356660987226427" RangeMax="0">
          -0.000005722047348130079 -0.000006011968113516417 -0.0000061212162463259465 -0.000005865903435332797 -0.0000057230033952723565 -0.000006012907835873544
          -0.0000061221209375301234 -0.000005866905286377811 -0.000005725944757281393 -0.000006015700529090863 -0.0000061249469071873895 -0.0000058699285738996656
          -0.0000033781464829673707 -0.0000040725304251487 -0.000003948570063196628 -0.0000033923159557291036 -0.000003378306210073458 -0.000004073220297700816
          -0.000003949549557800957 -0.0000033930003774199703 -0.0000033787367558527275 -0.000004075237406309718 -0.000003952451777307961 -0.0000033949434466338023
          -0.000007330534711711405 -0.0000073442779526405956 -0.000007330802557905248 -0.000007344694036061143 -0.000007331555260471625 -0.000007345987804223472
          -0.0000011609562975966968 -5.726480669512376e-7 -4.895603545928088e-7 -9.816974862613777e-7 -0.0000011616001614478537 -5.72916360760262e-7
          -4.893831832241519e-7 -9.817685681347212e-7 -0.0000011637815788195246 -5.735822150525655e-7 -4.883039678589782e-7 -9.823982966361167e-7
          -0.0000039193927571668375 -0.000003418186603348905 -0.000003920784713410081 -0.0000034193218093790356 -0.000003925225128141447 -0.0000034228531606826118
          -0.00000382376468381754 -0.000004423683291948632 -0.000004492843313610481 -0.0000037313239838328337 -0.000003824399004373726 -0.000004424964735333765
          -0.000004494102270791888 -0.000003731594171470035 -0.000003827066153936874 -0.000004428521643563771 -0.0000044978893143852515 -0.000003732554292267158
          -0.0000016167084988625468 -0.0000020946934699302657 -0.000002569456450519486 -0.0000022027533209317527 -0.0000016172250239851321 -0.000002095924831592845
          -0.0000025708960680701826 -0.0000022033621792127587 -0.000001618854268200712 -0.000002100076387929456 -0.0000025752795284336923 -0.0000022050111386767116
          -0.000005622633630458753 -0.000005464894478406837 -0.0000056237599893357154 -0.000005465962928748546 -0.000005627126268376145 -0.0000054690251458936576
          -6.609635103859115e-7 -3.056435079599468e-7 -3.9503069007536955e-7 -8.222073672583769e-7 -6.599155457646393e-7 -3.0492040006368976e-7
          -3.947842477486494e-7 -8.218501588676137e-7 -6.5680523456947e-7 -3.0253380467103885e-7 -3.938458759137483e-7 -8.207754037850145e-7
          -0.000006660694314996898 -0.000006349074143403812 -0.000006170270138022031 -0.0000066614887682161285 -0.000006349949223200449 -0.000006171085684343974
          -0.000006664137999509008 -0.000006352320279147244 -0.000006173410313526544 -6.056061699684936e-7 -6.819893125967325e-7 -0.0000013082264407671618
          -0.0000011805024139178427 -6.060302501110397e-7 -6.82501488223753e-7 -0.0000013091376368938476 -0.0000011812727621106897 -6.072385021511614e-7
          -6.843918779422133e-7 -0.000001311970627188423 -0.0000011833937605208247 -0.0000028312932523938745 -0.0000032531157000710627 -0.0000037148836737982207
          -0.000003247318335702228 -0.0000028317122099044894 -0.0000032543948808713 -0.0000037164703331865575 -0.000003248024178670555 -0.000002833040297072948
          -0.0000032583009020186587 -0.0000037212238271728826 -0.0000032502644566238354 -0.0000017596041284879183 -0.0000017605388957106959 -0.0000017632755813775526
          -0.000003877750803810314 -0.0000042648125418605125 -0.000004556479259579286 -0.000003878583493976369 -0.00000426625383255945 -0.000004558010560666957
          -0.000003881538459517444 -0.000004270188744609822 -0.0000045628916498393195 -0.0000023408215075872262 -0.000002743553072731227 -0.000002340938956977109
          -0.0000027444683446864335 -0.0000023412697511638687 -0.0000027470592845547473 -0.0000012978788276179097 -0.0000019088850534290585 -0.0000020826055155733066
          -0.0000014311703317198876 -0.0000012989761107448684 -0.000001910371123005507 -0.0000020843988285099163 -0.0000014325609782215634 -0.0000013027654483519054
          -0.0000019147222046839826 -0.0000020898437516151033 -0.000001436903477422777 -2.6097071316428043e-7 -5.580340858637627e-7 -5.283607003114709e-7
          -2.8454167415394513e-7 -2.601367844028996e-7 -5.567338136227605e-7 -5.27012101298139e-7 -2.838750185885741e-7 -2.5703316973078967e-7
          -5.525186099527424e-7 -5.230813223548422e-7 -2.8203546572166573e-7 -0.000002993470615431825 -0.0000029030095162165264 -0.000003435949831554803
          -0.0000029950143367066546 -0.000002904086787783426 -0.000003437554443042761 -0.0000029997613664071343 -0.0000029070171872042294 -0.0000034423767848030875
          0 0 0 0 0 0
          -0.000004554581227702576 -0.000004163655459398809 -0.0000036566802915122053 -0.0000038710670777494225 -0.000004557336413137178 -0.000004165998381682627
          -0.0000036587979160005473 -0.000003873766214629446 -0.000004565750249260103 -0.000004173191389329377 -0.000003665430336375232 -0.000003882213782926797
          -0.000002479973330755056 -0.000002355757523924953 -0.000002481548982603989 -0.000002356750483876063 -0.0000024861591893013274 -0.0000023597469211357983
          -0.0000019829695871715494 -0.000002564448503541847 -0.0000019813547931419725 -0.000002563255517309261 -0.0000019764389736479714 -0.0000025595586389374077
          -0.000003862005815777191 -0.000004336319345792027 -0.00000386494941384543 -0.000004339084710195412 -0.000003873982070852199 -0.0000043475757537254635
          -0.000005284213612036462 -0.000005457303250833172 -0.00000544004840366721 -0.0000051854123905465825 -0.000005285415793121736 -0.000005458536298997311
          -0.0000054415084195369855 -0.000005186895196025641 -0.000005288834005585444 -0.0000054622310717929725 -0.000005445897196722711 -0.000005191307651074603
          -0.000004769043768811738 -0.000005024458747735504 -0.000004770687555879217 -0.000005026250482964705 -0.0000047752641868570645 -0.000005031297971342434
          -0.0000015035997335176382 -0.0000015017306180305805 -0.0000014961726360731949 -0.0000041178610351182545 -0.000004585704424099047 -0.000004119649879524811
          -0.000004588078542339833 -0.000004125152432621123 -0.0000045949922644528085 -0.0000029515324483346238 -0.000003522711987094723 -0.0000032641489743373404
          -0.0000029513243545639033 -0.0000035231402267666887 -0.000003264106729747307 -0.00000295050469829663 -0.000003524579307202559 -0.0000032637741166389387
          -0.0000012494574789012305 -0.0000016907068689522773 -0.0000011062486416774123 -0.000001247953220768108 -0.000001689372585146887 -0.0000011043127833681996
          -0.0000012433413131665655 -0.0000016854356101221987 -0.0000010982920317711745 -0.0000048616786940011236 -0.000004863437154494092 -0.000004868586156809427
          0 0 0 -0.000005273580485912369 -0.000004802250530065418 -0.000005274162845038444
          -0.000004802523678425435 -0.00000527587805121213 -0.000004803265620787902 -0.000002221891814810118 -0.0000022209355624673867 -0.0000022181313124151856
          -0.000005297682974939021 -0.0000049455049141309125 -0.000004969422710917485 -0.000005300115186832137 -0.000004947731852472666 -0.000004971944757530827
          -0.000005307546290017875 -0.0000049546862705455686 -0.0000049795155640095635 -0.0000033064266232868082 -0.0000033045835171326482 -0.0000033088309903112172
          -0.0000033072504896277488 -0.0000033159927851078447 -0.0000033152562959509823 -0.000007073209286688932 -0.000006940486092588508 -0.000006800904848711635
          -0.000006834547477425496 -0.00000707351004656968 -0.000006940676362040248 -0.0000068011833638969885 -0.0000068350235409501465 -0.0000070744747148468095
          -0.000006941125236745487 -0.00000680226979626927 -0.000006836505507159034 -0.000006592830828078297 -0.000006627236164378219 -0.000006381515613489302
          -0.000006318755023169408 -0.0000065937122812127925 -0.000006628020407166997 -0.000006382409527741938 -0.000006319659222354809 -0.000006596518498702895
          -0.000006630445003053832 -0.000006385091248522613 -0.000006322454193510554 -0.000005715751070802771 -0.000005758534740145876 -0.000005347680390523139
          -0.000005716507216879815 -0.000005759373672027041 -0.000005348317924260129 -0.000005719113717612289 -0.000005762132320792719 -0.000005350417968794461
          -0.000003954150847778747 -0.000003955333169689932 -0.000003959097838911857 -0.000003141023781166142 -0.000003140582640915542 -0.0000031383171514910374
          -0.000006984211952696537 -0.000006782844396289183 -0.000006984329261231902 -0.000006782911567648802 -0.0000069844792062363476 -0.00000678300962533214
          -0.000006619833595076647 -0.00000686485348724755 -0.00000662049195356552 -0.000006865586605203855 -0.000006622224177229887 -0.000006867693023958059
          -0.000004467510139611342 -0.000004469308416353701 -0.000004474711216056044 -0.000005773089777495805 -0.000005774996086358483 -0.000006032766903647588
          -0.000006194550258085306 -0.000005773967205797984 -0.000005775778542487259 -0.00000603357567483441 -0.000006195357046044306 -0.000005776591104514927
          -0.000005778189147517607 -0.000006036094877786086 -0.000006197662072546872 -0.000005491067494080752 -0.000005491880656404333 -0.000005494078076928146
          -0.000005433582456621985 -0.000005434568391851926 -0.000005437488344548676 -0.0000049470598943782375 -0.0000052341570517741965 -0.000004949465642544004
          -0.0000052365035924889185 -0.000004956706681827698 -0.000005243767453530191 -0.000005321406783010372 -0.000005323581880484711 -0.0000053299685798525305
          -0.000005378174132053993 -0.000005102913898454155 -0.000005380094302976245 -0.0000051048739369595845 -0.000005385729678434989 -0.000005110958234092595
          -0.000005312041693803148 -0.000005314219039766786 -0.000005319576260939901 -0.000004965510465160078 -0.00000485439531115571 -0.000004966719222471719
          -0.000004855920705298312 -0.000004970117085301259 -0.000004860362845658972 -0.000005159809173849816 -0.000005160895236494414 -0.000005163975015226781
          -0.000006500215493519943 -0.000006501085649122746 -0.0000065035015578119405 -0.000004777865447392665 -0.000004779793362405047 -0.0000047857122687572684
          -0.000005569594655494604 -0.000005315082323775563 -0.000005571625087120562 -0.000005317324513794921 -0.000005578263007570412 -0.00000532477044591782
          -0.000004640303319090791 -0.000004642664528997456 -0.000004649455537983695 -0.000002113567098996194 -0.000002651918629876296 -0.0000021134428161832614
          -0.0000026520207603661165 -0.000002113306214277727 -0.000002652340467619326 -0.000001070215196677403 -0.0000016773989258807894 -0.000001448881698839203
          -0.000001070935806824211 -0.0000016784558471348698 -0.0000014496884960107847 -0.0000010723635659686363 -0.0000016820255389610474 -0.0000014523888177621861
          -9.009079206756983e-7 -7.215704353086941e-7 -0.0000016461911429409808 -9.016837829519048e-7 -7.223238497814247e-7 -0.000001647671249027385
          -9.039512462382983e-7 -7.247298551874089e-7 -0.0000016521214585559646 -0.000005623444731692278 -0.000005163215841312965 -0.000005625848246989934
          -0.0000051653941516855505 -0.0000056337321971053274 -0.0000051715203805618515 -0.000003370823358293294 -0.0000035626542037178356 -0.0000030438006920874853
          -0.000003370411706936569 -0.0000035624921141992274 -0.000003043490420680957 -0.0000033693307306723607 -0.000003562102801962903 -0.000003042641922372523
          -0.000002239663382574637 -0.000002807419817528699 -0.0000022401494526176155 -0.0000028080285459130377 -0.000002241891844969587 -0.000002809667181745306
          -0.000007354217864698183 -0.000007354852988920348 -0.000007356660987226427 0 0 0
          0 0 0 0 0 0
          0 0 0 -0.0000027588469347591325 -0.0000027100558826356978 -0.000002760688796338876
          -0.0000027121546829897857 -0.00000276683033228207 -0.0000027182824707273735 -0.0000031115737641821914 -0.000003113382271787089 -0.000003118507922981883
          0 -6.458828217584893e-7 0 -6.464709554321192e-7 0 -6.480786648651228e-7
          0 0 0 -0.000005277072885827671 -0.000005277873766033034 -0.00000528007053494318
          0 0 0 -0.000005024270826704808 -0.000005025178024650187 -0.000005027950309064055
          -0.000004755585007732051 -0.000004756570682176329 -0.000004759656447010818 -4.552684492056213e-7 0 -4.5479080078290186e-7
          0 -4.519942283522627e-7 0 -0.000004377304896960892 -0.00000443831209087843 -0.000004379119507676473
          -0.000004439700861684684 -0.000004384395230118042 -0.00000444375603201532 -0.000005518962117121314 -0.000005521186157856936 -0.000005528007726852201
          -0.0000068495335359234925 -0.000006850415206743874 -0.0000068529928328578704 -0.0000045617939697103385 -0.000004562938915522701 -0.000004566277367151567
          -0.0000036014180093426396 -0.0000036024434151201695 -0.0000036053138909104 -0.000005716782152456566 -0.000005718644077023638 -0.0000057247982562901065
          -0.0000059587803456229595 -0.000005960553130846946 -0.000005965634294044824 -0.0000036259499755027505 -0.000004028311897727543 -0.000003628619564073964
          -0.00000403081576890935 -0.000003636663349339476 -0.000004038455163504456 -0.000003103848202810748 -0.0000031064113676923074 -0.000003114147572384311
          -0.000002020202726123577 -0.0000023327077467294945 -0.0000020216817072022442 -0.000002334306773240122 -0.0000020257300627415116 -0.0000023385964767462575
          -0.0000067811020143463425 -0.00000696005345692779 -0.00000705719679743798 -0.0000067820212681532055 -0.0000069609378037942905 -0.000007058067027874639
          -0.000006784809150635189 -0.000006963594749592439 -0.000007060752997862527 -0.000007330153836533547 -0.0000073309956002640455 -0.000007333466378949607
          -0.000002514937682930598 -0.000002517103793222103 -0.0000025235782632998385 -0.000004302035241318434 -0.000004597699411062048 -0.000004302763093078038
          -0.000004598406585617027 -0.00000430491903978124 -0.000004600631343250664 -0.0000022729889805561126 -0.0000028487418157627672 -0.0000022750567685443173
          -0.0000028511021855213855 -0.0000022813117269648112 -0.0000028582681621349143 -0.0000033368584460246283 -0.0000033392560947742526 -0.000003346609214653002
          -0.0000026349622696304 -0.000003113986293782376 -0.00000263702582862085 -0.0000031160248952910656 -0.0000026432961327070698 -0.0000031223907541860157
          -0.000006217221785193331 -0.0000060607704202308795 -0.000006203506671508918 -0.000006349859481788838 -0.00000621812811104566 -0.000006061936154753164
          -0.000006204387319267158 -0.00000635046257327613 -0.000006220655299556617 -0.000006065239345423402 -0.000006207254907892529 -0.000006352191438105023
          -0.000006391433651477315 -0.000006392198458693979 -0.000006394366078941699 -0.000005605166824054137 -0.000005607444899795256 -0.000005614511346407866
          -0.0000024803240753984155 -0.0000028771497161019797 -0.000002480073232093712 -0.000002877231034203107 -0.000002479031022871022 -0.0000028775523619968088
          -0.000004261409094029442 -0.000004263576352726473 -0.000004270062948537772 -0.000003837265031292718 -0.000004009815128484075 -0.000003836971179571378
          -0.000004009820806367679 -0.0000038361265546246326 -0.000004009472989301602 -8.787703818809026e-7 -7.881345896113187e-7 -8.772726599733822e-7
          -7.86402177856169e-7 -8.726320424106357e-7 -7.809814788224603e-7 -0.0000072577658717886755 -0.000007258705615323288 -0.000007261744424849814
          -0.000003678850126845028 -0.0000034216834673875257 -0.00000368111104794114 -0.0000034236526300600638 -0.0000036875520377095426 -0.0000034295291082283945
          -0.000005881368235472543 -0.000005914673443732699 -0.000006155604568914122 -0.00000611351734674439 -0.0000058827169436896 -0.0000059157914896615345
          -0.000006156551243412548 -0.0000061145044065955164 -0.000005886821986603172 -0.000005919092144322359 -0.000006159337109670342 -0.000006117358781403241
          -0.0000019727397252571484 -0.0000019720845956600422 -0.0000019699115390160216 -0.000006362086620056074 -0.000006431961906785311 -0.000006362775040248213
          -0.000006432459301730927 -0.000006364789048828053 -0.000006433970897169119 -0.0000013090897164818038 -9.84036006576031e-7 -0.0000013087592231404837
          -9.843267640771377e-7 -0.0000013075218526609754 -9.856299905116482e-7 -4.828779097804194e-7 -4.830992191202743e-7 -4.84116116951604e-7
          -0.000004841537640102125 -0.000004842193310931842 -0.000004844154138871835 -0.0000014850677281773293 -0.0000014841463080137266 -0.0000014814582812348173
          -0.000006013472850616644 -0.000006014871706390907 -0.000006019028955095452 -0.0000063846421493024316 -0.000006385415318519158 -0.000006387723661666229
          -0.0000010562850861727787 -0.0000018222256093256367 -0.000001055265335446875 -0.0000018220538304743773 -0.0000010520259794396607 -0.0000018215911428315105
          -0.000006603466670414989 -0.000006603950070096921 -0.000006605341108806948 -0.000005918431223420122 -0.000005920178538564545 -0.000005923939079892129
          -0.000005013357700243282 -0.000005013926402296184 -0.000005015737442754602 -0.0000018810635390243556 -0.0000018825971985225503 -0.0000018875909682900423
          -0.000006496829798211569 -0.000006497132588589106 -0.000006497665327525005 -0.000003852010493185755 -0.000003853922315780165 -0.000003859481368409986
          0 -5.486547106443377e-7 0 0 -5.489634997697641e-7 0
          0 -5.502061766700856e-7 0 -0.0000058708827670369135 -0.000005872649251262752 -0.000005878155193737248
          -0.000004445832204649405 -0.000004520579937001523 -0.000004446123545647276 -0.000004521037102723089 -0.000004446908367962031 -0.000004522394273410224
          -0.00000578183656848541 -0.000005783746128112897 -0.000005789231479802332 -0.0000056703262704515155 -0.000005671705374993632 -0.000005675613057215822
          0 0 0 -0.000006568393104531474 -0.0000065687071667192735 -0.000006569245667677469
          -0.000007106492605212157 -0.00000710350508748663 -0.00000710708965787963 -0.000007104257812224563 -0.000007108757874904403 -0.000007106543614649129
          -0.000005635640901341424 -0.00000563739173450999 -0.000005642532477287254 -0.000006656018892358143 -0.000006656137322905718 -0.000006656414599546014
          -8.088627892081482e-7 -8.085747685774753e-7 -8.080331350728587e-7 -0.0000043152968730578955 -0.000004315321369571192 -0.000004315082058705239
          -0.0000013999027565924718 -0.0000014011066208171535 -0.0000014040742911870027 -0.000006026875707980959 -0.000006027674933770571 -0.000006029955391535118
          -0.000004257495395608449 -0.000003881211957375547 -0.00000425784680278933 -0.000003881426787489588 -0.000004258503444383143 -0.000003881847744736565
          -0.0000015399827232361047 -0.0000015402778922118859 -0.0000015410038713299345 -0.0000019015357916327167 -0.0000023495403715880485 -0.0000019008689746652556
          -0.000002348916391305456 -0.0000018985876125548856 -0.000002347089874692731 -0.0000028881099777533825 -0.000002887462136883575 -0.0000028855094425145284
          -0.0000023895923676175958 -0.000002388662033118439 -0.000002385560890393506 -0.00000162796414413804 -0.000001627552946895099 -0.0000016260540471188275
          0 -5.047524611154263e-7 0 -5.043567214461448e-7 0 -5.033666963232356e-7
          -0.0000016285902866096955 -0.0000016279352913262486 -0.0000016256729935758604 -9.843052510981226e-7 -9.840484207684752e-7 -9.837040303157531e-7
        </DataArray>
        <DataArray type="Float64" Name="disp_z" format="ascii" RangeMin="-4.4087703377203067e-7" RangeMax="0">
          0 0 0 0 -9.714082989783385e-8 -9.219675526365123e-8
          -8.214863332869889e-8 -8.690151354233976e-8 -1.9422801750571358e-7 -1.8442014613684755e-7 -1.6431435624822165e-7 -1.738182837847611e-7
          0 0 0 0 -1.3278706885793838e-7 -1.3112158568588414e-7
          -1.3180533238405304e-7 -1.36439709803517e-7 -2.6548187427882105e-7 -2.6202164505452314e-7 -2.6339031160527677e-7 -2.7273267627419785e-7
          0 0 -5.781511016195459e-8 -6.202190960763772e-8 -1.1577376893392267e-7 -1.242620320877039e-7
          0 0 0 0 -1.6382585726557676e-7 -1.6806725171266833e-7
          -1.494259644857455e-7 -1.5028517396794922e-7 -3.273991226502186e-7 -3.360439063161721e-7 -2.9902959440934403e-7 -3.000177872969414e-7
          0 0 -1.3397407633168864e-7 -1.4113987081315246e-7 -2.679922333578865e-7 -2.8213937814697083e-7
          0 0 0 0 -1.5517940090447402e-7 -1.4243017008068078e-7
          -1.5105527930569864e-7 -1.6526611081646678e-7 -3.0978891587486984e-7 -2.842087802541199e-7 -3.0136278725087776e-7 -3.296286750346468e-7
          0 0 0 0 -1.720953170045058e-7 -1.8765209614625797e-7
          -1.765271965391698e-7 -1.672007505503078e-7 -3.439959920495933e-7 -3.7487473827926497e-7 -3.5272972120688357e-7 -3.344484328862533e-7
          0 0 -9.186042796978524e-8 -1.0074765979361455e-7 -1.838534846403747e-7 -2.0150208595395843e-7
          0 0 0 0 -1.240421177642912e-7 -1.1292105343973305e-7
          -1.4351337002249557e-7 -1.4884938620559155e-7 -2.479124610329859e-7 -2.2647633557173876e-7 -2.8697152666692633e-7 -2.9773374941133873e-7
          0 0 0 -9.647983224489522e-8 -1.0136005886921259e-7 -1.0868590270882266e-7
          -1.9288970564397754e-7 -2.0274938006677956e-7 -2.1753653687023726e-7 0 0 0
          0 -2.1044538684256165e-7 -2.1729971849704603e-7 -2.1116841295561176e-7 -2.0661405856225433e-7 -4.1971590783043087e-7
          -4.3360339575836104e-7 -4.2131668240489683e-7 -4.123641625236366e-7 0 0 0
          0 -1.5711924438671808e-7 -1.567466323228507e-7 -1.4820501698642294e-7 -1.5308079395593326e-7 -3.139892213521447e-7
          -3.134871967026207e-7 -2.9649635749172804e-7 -3.0570828720338535e-7 0 -1.5880712330332797e-7 -3.176769774321915e-7
          0 0 0 -1.5016592416244558e-7 -1.417499110353622e-7 -1.3804833092410042e-7
          -2.997600872466108e-7 -2.8292674322588044e-7 -2.764621449667308e-7 0 0 -1.5806897587257946e-7
          -1.6355695801844257e-7 -3.158093647473165e-7 -3.2704889180919885e-7 0 0 0
          0 -1.814801929851055e-7 -1.7175712501084983e-7 -1.8366511218847288e-7 -1.9540878755833174e-7 -3.627004939925672e-7
          -3.4347783924161445e-7 -3.6710853000224715e-7 -3.902076520360497e-7 0 0 0
          0 -8.59702947280159e-8 -1.0130170475397431e-7 -8.398506440563811e-8 -6.773990667920983e-8 -1.7241269999562623e-7
          -2.0275220694390013e-7 -1.686811991497342e-7 -1.3676136664725077e-7 0 0 0
          -1.5254373197435812e-7 -1.461764252710391e-7 -1.4537885336019652e-7 -3.0499163074217664e-7 -2.9236013350696453e-7 -2.9081256578762834e-7
          0 0 -5.896302496098188e-8 -7.417640514510049e-8 -1.189652652283208e-7 -1.491845501888228e-7
          0 0 0 0 -1.3268122387216495e-7 -1.4107549492750206e-7
          -1.564454176788505e-7 -1.5883000368203044e-7 -2.653468471931411e-7 -2.8211055215648285e-7 -3.126216803171409e-7 -3.1731207200642874e-7
          0 0 -1.620250668795304e-7 -1.514513008134574e-7 -3.240847170704872e-7 -3.029107302472866e-7
          0 0 -1.4183593699739724e-7 -1.5465220211621066e-7 -2.830852952684433e-7 -3.084654500607232e-7
          0 0 -1.584961632960083e-7 -1.3599847674234947e-7 -3.167592053808543e-7 -2.720067823114766e-7
          0 0 0 0 -1.0222698994737991e-7 -9.535349382344804e-8
          -9.330489138412767e-8 -1.0187499935848212e-7 -2.0460319277679576e-7 -1.9090330313347224e-7 -1.870806680086212e-7 -2.041088445041294e-7
          0 0 -1.2507725954223562e-7 -1.2248667953693014e-7 -2.5007673756440574e-7 -2.44085307927024e-7
          0 -1.2857229452458998e-7 -2.5664563816040376e-7 0 0 -1.3890221558567153e-7
          -1.2690356167856225e-7 -2.778719309248195e-7 -2.5400844881181127e-7 0 0 0
          -1.5611397778107795e-7 -1.556385244002135e-7 -1.6076324910675042e-7 -3.1150546717973974e-7 -3.106870606571615e-7 -3.2049860227046466e-7
          0 0 0 -1.2781212539003928e-7 -1.3954341957522617e-7 -1.1308217069691716e-7
          -2.5531471389904604e-7 -2.787309874286878e-7 -2.2596200676210764e-7 0 -1.3053188370148354e-7 -2.613309734079762e-7
          0 -1.0314878427098813e-7 -2.0685560073801469e-7 0 0 -1.2997842334710388e-7
          -1.3464360767209288e-7 -2.594780423479297e-7 -2.6896651852018006e-7 0 -1.4870617298477599e-7 -2.9685055202435247e-7
          0 0 0 -1.0085473461671569e-7 -1.1443701300992072e-7 -1.1482625946843095e-7
          -2.020374823584578e-7 -2.2939640084715388e-7 -2.297602979300437e-7 0 0 -1.7422333630844468e-7
          -1.773188941426453e-7 -3.4754684745120234e-7 -3.5373217394150886e-7 0 0 0
          0 -5.89845676565851e-8 -5.6922624949330015e-8 -5.78588852750075e-8 -6.276695771221192e-8 -1.1825174243153311e-7
          -1.1383692099888417e-7 -1.1600435643168362e-7 -1.2574161741167948e-7 0 0 0
          0 -8.109428747137108e-8 -7.239026282701585e-8 -7.688369080930408e-8 -8.682690939705244e-8 -1.6226003093010287e-7
          -1.449395259330059e-7 -1.5382115508751949e-7 -1.7373465497358888e-7 0 0 0
          -1.230381651478324e-7 -1.1611272412566142e-7 -1.2498962664341714e-7 -2.4624094165762324e-7 -2.321969324465637e-7 -2.498792757758115e-7
          0 -1.4590733401759823e-7 -2.9156981080211e-7 0 -1.620859816767539e-7 -3.2279821138235864e-7
          0 0 -5.64012383632394e-8 -5.6096717514628124e-8 -1.1292229173407681e-7 -1.1239156686369527e-7
          0 0 -6.540323193556186e-8 -6.811476503023988e-8 -1.3092518035330023e-7 -1.3633519497717503e-7
          0 -1.3005279322465153e-7 -2.6036413294478065e-7 0 0 0
          0 -1.0245855371797927e-7 -1.0906276673744369e-7 -1.0477935666056891e-7 -9.461619194923267e-8 -2.049181832704754e-7
          -2.1854758114970047e-7 -2.0950396558587546e-7 -1.8914572940325273e-7 0 -1.1689094061528099e-7 -2.335659960196242e-7
          0 -1.0662730195049484e-7 -2.1324885935755608e-7 0 0 -1.1370754964188618e-7
          -1.0328919308007915e-7 -2.2775278819256358e-7 -2.068254257041552e-7 0 -1.0002077855950082e-7 -2.0020129481217052e-7
          0 0 -9.459680775578563e-8 -1.0373320060623145e-7 -1.8962519594500806e-7 -2.0787473999906298e-7
          0 -1.09783465921286e-7 -2.209045268398282e-7 0 0 -1.1164617638255681e-7
          -1.1211676467724032e-7 -2.2337668593369702e-7 -2.2449395627782122e-7 0 -1.103460724160349e-7 -2.2061263486522572e-7
          0 -9.085842183169911e-8 -1.8169269804587951e-7 0 -1.144163875829187e-7 -2.2917528045999545e-7
          0 0 -9.80810224865871e-8 -1.1356941780139438e-7 -1.964808183569734e-7 -2.264492329889029e-7
          0 -1.2182695689558162e-7 -2.4417275077254626e-7 0 0 -1.343410804657644e-7
          -1.3358070240347934e-7 -2.6825569448818526e-7 -2.6700899341796243e-7 0 0 0
          -1.9068916355502054e-7 -1.9786563136216354e-7 -1.9013968148894232e-7 -3.805371302387219e-7 -3.943678091662569e-7 -3.8055064875415173e-7
          0 0 0 -2.1428361619147754e-7 -2.0467538928965706e-7 -2.037607065938851e-7
          -4.276394319672353e-7 -4.087094032349758e-7 -4.068092580198268e-7 0 0 -9.867879376160063e-8
          -1.255095518262756e-7 -1.974228850916874e-7 -2.515696386410285e-7 0 0 0
          -1.3148680906771252e-7 -1.3249161793133978e-7 -1.313190292375695e-7 -2.627502979535069e-7 -2.6474538541703776e-7 -2.623941071233736e-7
          0 0 -1.4286918459545033e-7 -1.3884559906092877e-7 -2.8557146913014134e-7 -2.7767589474087e-7
          0 -6.85164592464501e-8 -1.3719893179661233e-7 0 0 -2.0499915053718065e-7
          -2.157481000971252e-7 -4.091021773460491e-7 -4.307272095480608e-7 0 0 -2.2086807622315004e-7
          -2.1529080781491616e-7 -4.4087703377203067e-7 -4.296656254676411e-7 0 0 -1.8763289344439664e-7
          -1.933012902696355e-7 -3.743617281513641e-7 -3.8557658979955654e-7 0 -1.6871516498057627e-7 -3.372236654566729e-7
          0 0 -1.856815210387805e-7 -1.8782095891962418e-7 -3.708158703241211e-7 -3.752131198134506e-7
          0 -1.6305186358981567e-7 -3.255867896733521e-7 0 -1.1590625970616106e-7 -2.319198811393327e-7
          0 -1.394859912527757e-7 -2.790166742128323e-7 0 -1.1666878564708972e-7 -2.334276115383934e-7
          0 -1.2038424015561062e-7 -2.406421374845127e-7 0 0 -1.2775796605568414e-7
          -1.136653851778653e-7 -2.557263331369456e-7 -2.2795965761887336e-7 0 0 -1.246222989529252e-7
          -1.2260460843951794e-7 -2.494549848991119e-7 -2.4524930779515173e-7 0 -8.979994171075843e-8 -1.7994698064216384e-7
          0 -7.635988527376848e-8 -1.5291192289276489e-7 0 -1.2194327363760133e-7 -2.436889714213982e-7
          0 -1.5051479630500213e-7 -3.006618979106073e-7 0 -8.090069375793214e-8 -1.6229080682709159e-7
          0 -8.014925796093952e-8 -1.6086745625418068e-7 0 0 -1.5859872654638526e-7
          -1.4216989491732225e-7 -3.172266789075073e-7 -2.84806403926189e-7 0 -1.776239636679489e-7 -3.549371916914831e-7
          0 0 -2.0273179202724577e-7 -1.9384198673081534e-7 -4.0438586683274966e-7 -3.8658405841436594e-7
          0 0 0 -8.630552657103592e-8 -9.190466845099043e-8 -8.13262369250636e-8
          -1.725976033744342e-7 -1.8380287793169926e-7 -1.627659143525537e-7 0 -7.69308625136661e-8 -1.5404100480351587e-7
          0 -1.9351039977749666e-7 -3.8633554221813214e-7 0 0 -1.2849365674498041e-7
          -1.259752785587446e-7 -2.5684038106944354e-7 -2.5189400369649426e-7 0 0 -1.9069217352299114e-7
          -1.754179774695298e-7 -3.809285537634513e-7 -3.508098052447699e-7 0 -1.5929253669684867e-7 -3.1882492246916303e-7
          0 0 -1.7036040574694958e-7 -1.5737608455385444e-7 -3.40636251360984e-7 -3.149828663857224e-7
          0 0 0 0 -6.357261940466487e-8 -6.564175453806161e-8
          -6.142758045353553e-8 -5.753845352940748e-8 -1.2764955188338095e-7 -1.3232039524206607e-7 -1.2321305756638587e-7 -1.1569397876353436e-7
          0 -6.854044460980497e-8 -1.37215762304433e-7 0 -8.541370371398618e-8 -1.715555871100693e-7
          0 0 -1.5498862972329596e-7 -1.5539678224300253e-7 -3.094175809663054e-7 -3.1045992479951565e-7
          0 -1.3054089867828234e-7 -2.6138733348085986e-7 0 0 -1.3359976604621439e-7
          -1.3349316347732347e-7 -2.670524462566474e-7 -2.6656838656729625e-7 0 0 -1.1519253640793393e-7
          -9.786475455000599e-8 -2.3033177087850116e-7 -1.959027989137702e-7 0 -8.70499999180358e-8 -1.7426527186868203e-7
          0 0 -1.4650829281475038e-7 -1.487188030043189e-7 -2.9337370325890046e-7 -2.974518663883236e-7
          0 0 0 0 -7.568140328044352e-8 -7.922994351237165e-8
          -7.328511416456181e-8 -6.877047390424413e-8 -1.5172270497549073e-7 -1.5880238096699208e-7 -1.4683692806718613e-7 -1.378984711257076e-7
          0 -1.49841681917126e-7 -2.992055531268569e-7 0 0 -6.258601611852347e-8
          -5.780549229621507e-8 -1.2546966598436714e-7 -1.1597240609378212e-7 0 0 -1.5375131575421147e-7
          -1.6880100727617539e-7 -3.075256705876605e-7 -3.372834750136346e-7 0 -1.7135604620343063e-7 -3.423929163223202e-7
          0 -1.251588556419597e-7 -2.500563701058777e-7 0 -1.4309620028303448e-7 -2.857527197442504e-7
          0 -6.845251556141107e-8 -1.3721390936045883e-7 0 -6.099220680947504e-8 -1.2207696917456056e-7
          0 0 -1.349150499151966e-7 -1.5770916599679336e-7 -2.694652401805537e-7 -3.152050356364399e-7
          0 -6.028870699422285e-8 -1.2081095450439788e-7 0 -7.250589947380399e-8 -1.4430586932492922e-7
          0 -1.279241335891112e-7 -2.556263460138684e-7 0 -2.0724628843345774e-7 -4.1359280095482343e-7
          0 -5.6608835387908265e-8 -1.13479896029483e-7 0 -1.3849288218104103e-7 -2.771535187979472e-7
          0 0 0 -1.984112349937407e-7 -1.945044010708282e-7 -1.7189129924950164e-7
          -3.959896109770414e-7 -3.8826658611069336e-7 -3.4312000325233787e-7 0 -7.304723209882679e-8 -1.4731990567363278e-7
          0 0 -1.337619369241272e-7 -1.310230634827802e-7 -2.671634734593375e-7 -2.6177776374905547e-7
          0 -7.77706427230674e-8 -1.5589140465769981e-7 0 -8.60119449840571e-8 -1.7237870313281786e-7
          0 -1.3838455317949398e-7 -2.76719559048988e-7 0 -5.65192528834685e-8 -1.1325759597136033e-7
          0 0 -6.442555379664594e-8 -7.194867665078156e-8 -1.2895539369901132e-7 -1.4409246407603056e-7
          0 -8.510570253608777e-8 -1.7067332442898253e-7 0 -5.697504545628788e-8 -1.1395283577099713e-7
          0 -1.391929182394453e-7 -2.7838275977209185e-7 0 -1.3481996554458722e-7 -2.692419300117969e-7
          0 -2.1312417682569203e-7 -4.2554264598621173e-7 0 -1.1483360055970979e-7 -2.2921022577950141e-7
          0 0 -1.316089432832443e-7 -1.3154615665391752e-7 -2.6288127126346366e-7 -2.6285187414925623e-7
          0 -1.4500301541482358e-7 -2.89697116971699e-7 0 0 -1.246963460268085e-7
          -1.2705008803599257e-7 -2.493050622504145e-7 -2.5383233184744114e-7 0 -1.2882511129489288e-7 -2.57317614608809e-7
          0 -1.208843506435666e-7 -2.415491844772323e-7 0 -1.3103610852259583e-7 -2.620035163176575e-7
          0 0 -1.0075988851797842e-7 -1.0595597855430532e-7 -2.0195129420053986e-7 -2.1252039419049808e-7
          0 -1.2241166276704748e-7 -2.450537839096128e-7 0 -1.269948204671508e-7 -2.5381606743476354e-7
        </DataArray>
      </PointData>
      <CellData>
        <DataArray type="Int32" Name="libmesh_elem_id" format="ascii" RangeMin="1392" RangeMax="3231">
          1392 1393 1402 1403 1418 1419
          1434 1435 1442 1443 1448 1449
          1454 1455 1478 1479 1500 1501
          1512 1513 1522 1523 1546 1547
          1572 1573 1582 1583 1590 1591
          1608 1609 1614 1615 1616 1617
          1630 1631 1638 1639 1650 1651
          1654 1655 1656 1657 1678 1679
          1682 1683 1684 1685 1704 1705
          1714 1715 1718 1719 1746 1747
          1760 1761 1762 1763 1772 1773
          1790 1791 1794 1795 1802 1803
          1816 1817 1824 1825 1832 1833
          1838 1839 1840 1841 1846 1847
          1848 1849 1852 1853 1856 1857
          1858 1859 1862 1863 1864 1865
          1874 1875 1876 1877 1878 1879
          1882 1883 1888 1889 1904 1905
          1906 1907 1910 1911 1916 1917
          1924 1925 1926 1927 1930 1931
          1936 1937 1946 1947 1950 1951
          1956 1957 1960 1961 1982 1983
          1996 1997 1998 1999 2026 2027
          2028 2029 2038 2039 2046 2047
          2048 2049 2052 2053 2054 2055
          2058 2059 2060 2061 2084 2085
          2088 2089 2096 2097 2102 2103
          2106 2107 2110 2111 2126 2127
          2136 2137 2138 2139 2144 2145
          2148 2149 2154 2155 2158 2159
          2162 2163 2164 2165 2170 2171
          2176 2177 2178 2179 2196 2197
          2200 2201 2202 2203 2204 2205
          2212 2213 2220 2221 2222 2223
          2224 2225 2226 2227 2228 2229
          2232 2233 2236 2237 2246 2247
          2250 2251 2252 2253 2254 2255
          2260 2261 2264 2265 2266 2267
          2274 2275 2282 2283 2308 2309
          2310 2311 2312 2313 2318 2319
          2324 2325 2328 2329 2346 2347
          2350 2351 2364 2365 2368 2369
          2370 2371 2402 2403 2416 2417
          2420 2421 2444 2445 2458 2459
          2462 2463 2466 2467 2468 2469
          2470 2471 2478 2479 2484 2485
          2488 2489 2490 2491 2502 2503
          2504 2505 2510 2511 2512 2513
          2524 2525 2550 2551 2566 2567
          2570 2571 2580 2581 2582 2583
          2602 2603 2608 2609 2616 2617
          2628 2629 2634 2635 2636 2637
          2640 2641 2642 2643 2644 2645
          2650 2651 2666 2667 2668 2669
          2684 2685 2690 2691 2696 2697
          2700 2701 2710 2711 2714 2715
          2716 2717 2726 2727 2750 2751
          2760 2761 2766 2767 2772 2773
          2782 2783 2798 2799 2802 2803
          2810 2811 2826 2827 2830 2831
          2838 2839 2860 2861 2868 2869
          2874 2875 2884 2885 2922 2923
          2928 2929 2934 2935 2938 2939
          2946 2947 2948 2949 2960 2961
          2962 2963 2964 2965 2974 2975
          2978 2979 2994 2995 2998 2999
          3004 3005 3008 3009 3020 3021
          3028 3029 3034 3035 3038 3039
          3040 3041 3042 3043 3050 3051
          3052 3053 3054 3055 3060 3061
          3066 3067 3072 3073 3076 3077
          3082 3083 3086 3087 3096 3097
          3100 3101 3102 3103 3112 3113
          3116 3117 3148 3149 3154 3155
          3158 3159 3166 3167 3182 3183
          3230 3231
        </DataArray>
        <DataArray type="Int32" Name="subdomain_id" format="ascii" RangeMin="107" RangeMax="107">
          107 107 107 107 107 107
          107 107 107 107 107 107
          107 107 107 107 107 107
          107 107 107 107 107 107
          107 107 107 107 107 107
          107 107 107 107 107 107
          107 107 107 107 107 107
          107 107 107 107 107 107
          107 107 107 107 107 107
          107 107 107 107 107 107
          107 107 107 107 107 107
          107 107 107 107 107 107
          107 107 107 107 107 107
          107 107 107 107 107 107
          107 107 107 107 107 107
          107 107 107 107 107 107
          107 107 107 107 107 107
          107 107 107 107 107 107
          107 107 107 107 107 107
          107 107 107 107 107 107
          107 107 107 107 107 107
          107 107 107 107 107 107
          107 107 107 107 107 107
          107 107 107 107 107 107
          107 107 107 107 107 107
          107 107 107 107 107 107
          107 107 107 107 107 107
          107 107 107 107 107 107
          107 107 107 107 107 107
          107 107 107 107 107 107
          107 107 107 107 107 107
          107 107 107 107 107 107
          107 107 107 107 107 107
          107 107 107 107 107 107
          107 107 107 107 107 107
          107 107 107 107 107 107
          107 107 107 107 107 107
          107 107 107 107 107 107
          107 107 107 107 107 107
          107 107 107 107 107 107
          107 107 107 107 107 107
          107 107 107 107 107 107
          107 107 107 107 107 107
          107 107 107 107 107 107
          107 107 107 107 107 107
          107 107 107 107 107 107
          107 107 107 107 107 107
          107 107 107 107 107 107
          107 107 107 107 107 107
          107 107 107 107 107 107
          107 107 107 107 107 107
          107 107 107 107 107 107
          107 107 107 107 107 107
          107 107 107 107 107 107
          107 107 107 107 107 107
          107 107 107 107 107 107
          107 107 107 107 107 107
          107 107 107 107 107 107
          107 107 107 107 107 107
          107 107 107 107 107 107
          107 107 107 107 107 107
          107 107 107 107 107 107
          107 107 107 107 107 107
          107 107 107 107 107 107
          107 107 107 107 107 107
          107 107 107 107 107 107
          107 107 107 107 107 107
          107 107 107 107 107 107
          107 107 107 107 107 107
          107 107 107 107 107 107
          107 107 107 107 107 107
          107 107 107 107 107 107
          107 107 107 107 107 107
          107 107 107 107 107 107
          107 107 107 107 107 107
          107 107
        </DataArray>
        <DataArray type="Int32" Name="processor_id" format="ascii" RangeMin="2" RangeMax="2">
          2 2 2 2 2 2
          2 2 2 2 2 2
          2 2 2 2 2 2
          2 2 2 2 2 2
          2 2 2 2 2 2
          2 2 2 2 2 2
          2 2 2 2 2 2
          2 2 2 2 2 2
          2 2 2 2 2 2
          2 2 2 2 2 2
          2 2 2 2 2 2
          2 2 2 2 2 2
          2 2 2 2 2 2
          2 2 2 2 2 2
          2 2 2 2 2 2
          2 2 2 2 2 2
          2 2 2 2 2 2
          2 2 2 2 2 2
          2 2 2 2 2 2
          2 2 2 2 2 2
          2 2 2 2 2 2
          2 2 2 2 2 2
          2 2 2 2 2 2
          2 2 2 2 2 2
          2 2 2 2 2 2
          2 2 2 2 2 2
          2 2 2 2 2 2
          2 2 2 2 2 2
          2 2 2 2 2 2
          2 2 2 2 2 2
          2 2 2 2 2 2
          2 2 2 2 2 2
          2 2 2 2 2 2
          2 2 2 2 2 2
          2 2 2 2 2 2
          2 2 2 2 2 2
          2 2 2 2 2 2
          2 2 2 2 2 2
          2 2 2 2 2 2
          2 2 2 2 2 2
          2 2 2 2 2 2
          2 2 2 2 2 2
          2 2 2 2 2 2
          2 2 2 2 2 2
          2 2 2 2 2 2
          2 2 2 2 2 2
          2 2 2 2 2 2
          2 2 2 2 2 2
          2 2 2 2 2 2
          2 2 2 2 2 2
          2 2 2 2 2 2
          2 2 2 2 2 2
          2 2 2 2 2 2
          2 2 2 2 2 2
          2 2 2 2 2 2
          2 2 2 2 2 2
          2 2 2 2 2 2
          2 2 2 2 2 2
          2 2 2 2 2 2
          2 2 2 2 2 2
          2 2 2 2 2 2
          2 2 2 2 2 2
          2 2 2 2 2 2
          2 2 2 2 2 2
          2 2 2 2 2 2
          2 2 2 2 2 2
          2 2 2 2 2 2
          2 2 2 2 2 2
          2 2 2 2 2 2
          2 2 2 2 2 2
          2 2 2 2 2 2
          2 2 2 2 2 2
          2 2 2 2 2 2
          2 2 2 2 2 2
          2 2 2 2 2 2
          2 2
        </DataArray>
      </CellData>
      <Points>
        <DataArray type="Float64" Name="Points" NumberOfComponents="3" format="ascii" RangeMin="0.0055128205128194" RangeMax="0.014586579917196396">
          0.010655961336451 0.0054415469453289 0 0.010738296327413 0.0059250363170334 0
          0.010252884061106 0.0059462536680524 0 0.010205117478458 0.0054994523140404 0
          0.010655961336451 0.0054415469453289 0.00015 0.010738296327413 0.0059250363170334 0.00015
          0.010252884061106 0.0059462536680524 0.00015 0.010205117478458 0.0054994523140404 0.00015
          0.010655961336451 0.0054415469453289 0.0003 0.010738296327413 0.0059250363170334 0.0003
          0.010252884061106 0.0059462536680524 0.0003 0.010205117478458 0.0054994523140404 0.0003
          0.011940440807394 0.0034141066074527 0 0.011459595517011 0.003824326979063 0
          0.011102612382238 0.0034627190197861 0 0.011355953963772 0.0030463545109029 0
          0.011940440807394 0.0034141066074527 0.00015 0.011459595517011 0.003824326979063 0.00015
          0.011102612382238 0.0034627190197861 0.00015 0.011355953963772 0.0030463545109029 0.00015
          0.011940440807394 0.0034141066074527 0.0003 0.011459595517011 0.003824326979063 0.0003
          0.011102612382238 0.0034627190197861 0.0003 0.011355953963772 0.0030463545109029 0.0003
          0.010057653370411 0.0084974472595183 0 0.01054988842507 0.0084422245958245 0
          0.010057653370411 0.0084974472595183 0.00015 0.01054988842507 0.0084422245958245 0.00015
          0.010057653370411 0.0084974472595183 0.0003 0.01054988842507 0.0084422245958245 0.0003
          0.011046194733105 0.00090743319272295 0 0.011064186406242 0.00044456569898216 0
          0.011549090679959 0.00043919238601916 0 0.011507246232172 0.00087204304167501 0
          0.011046194733105 0.00090743319272295 0.00015 0.011064186406242 0.00044456569898216 0.00015
          0.011549090679959 0.00043919238601916 0.00015 0.011507246232172 0.00087204304167501 0.00015
          0.011046194733105 0.00090743319272295 0.0003 0.011064186406242 0.00044456569898216 0.0003
          0.011549090679959 0.00043919238601916 0.0003 0.011507246232172 0.00087204304167501 0.0003
          0.010695724673322 0.003201084864495 0 0.010922769205465 0.002821493997395 0
          0.010695724673322 0.003201084864495 0.00015 0.010922769205465 0.002821493997395 0.00015
          0.010695724673322 0.003201084864495 0.0003 0.010922769205465 0.002821493997395 0.0003
          0.0063972422249218 0.0045440807567198 0 0.0065062213292024 0.0050164807168814 0
          0.0062389906493372 0.0053128670028646 0 0.0060512178389602 0.0047929387822649 0
          0.0063972422249218 0.0045440807567198 0.00015 0.0065062213292024 0.0050164807168814 0.00015
          0.0062389906493372 0.0053128670028646 0.00015 0.0060512178389602 0.0047929387822649 0.00015
          0.0063972422249218 0.0045440807567198 0.0003 0.0065062213292024 0.0050164807168814 0.0003
          0.0062389906493372 0.0053128670028646 0.0003 0.0060512178389602 0.0047929387822649 0.0003
          0.0077450758336629 0.0014176167893871 0 0.0081853433575 0.0016343392489207 0
          0.0081296210030831 0.0020475545417094 0 0.0077097822266787 0.0019577759081516 0
          0.0077450758336629 0.0014176167893871 0.00015 0.0081853433575 0.0016343392489207 0.00015
          0.0081296210030831 0.0020475545417094 0.00015 0.0077097822266787 0.0019577759081516 0.00015
          0.0077450758336629 0.0014176167893871 0.0003 0.0081853433575 0.0016343392489207 0.0003
          0.0081296210030831 0.0020475545417094 0.0003 0.0077097822266787 0.0019577759081516 0.0003
          0.010163700921554 0.0050965322104848 0 0.010539876174215 0.0050107335132671 0
          0.010163700921554 0.0050965322104848 0.00015 0.010539876174215 0.0050107335132671 0.00015
          0.010163700921554 0.0050965322104848 0.0003 0.010539876174215 0.0050107335132671 0.0003
          0.0067145785472978 0.00092067788586619 0 0.0066311284750677 0.00045344715700039 0
          0.0071039644964018 0.00045254776362746 0 0.0071622170579096 0.00091220258976311 0
          0.0067145785472978 0.00092067788586619 0.00015 0.0066311284750677 0.00045344715700039 0.00015
          0.0071039644964018 0.00045254776362746 0.00015 0.0071622170579096 0.00091220258976311 0.00015
          0.0067145785472978 0.00092067788586619 0.0003 0.0066311284750677 0.00045344715700039 0.0003
          0.0071039644964018 0.00045254776362746 0.0003 0.0071622170579096 0.00091220258976311 0.0003
          0.011832021157187 0.0073476785459853 0 0.011779780861271 0.0068646395959748 0
          0.012243708910156 0.0068324173193727 0 0.011832021157187 0.0073476785459853 0.00015
          0.011779780861271 0.0068646395959748 0.00015 0.012243708910156 0.0068324173193727 0.00015
          0.011832021157187 0.0073476785459853 0.0003 0.011779780861271 0.0068646395959748 0.0003
          0.012243708910156 0.0068324173193727 0.0003 0.0084907788898463 0.00044286110481525 0
          0.0089555217282148 0.00046389179151574 0 0.0088246864415892 0.00090448805343066 0
          0.0084146790711037 0.00087434414493667 0 0.0084907788898463 0.00044286110481525 0.00015
          0.0089555217282148 0.00046389179151574 0.00015 0.0088246864415892 0.00090448805343066 0.00015
          0.0084146790711037 0.00087434414493667 0.00015 0.0084907788898463 0.00044286110481525 0.0003
          0.0089555217282148 0.00046389179151574 0.0003 0.0088246864415892 0.00090448805343066 0.0003
          0.0084146790711037 0.00087434414493667 0.0003 0.0073198391209489 0.002802975731369 0
          0.007729981097025 0.0028801564362105 0 0.0077015154526268 0.0033237594367458 0
          0.0072927827923603 0.0032114269239825 0 0.0073198391209489 0.002802975731369 0.00015
          0.007729981097025 0.0028801564362105 0.00015 0.0077015154526268 0.0033237594367458 0.00015
          0.0072927827923603 0.0032114269239825 0.00015 0.0073198391209489 0.002802975731369 0.0003
          0.007729981097025 0.0028801564362105 0.0003 0.0077015154526268 0.0033237594367458 0.0003
          0.0072927827923603 0.0032114269239825 0.0003 0.011061956134478 0.0014022262787872 0
          0.011061956134478 0.0014022262787872 0.00015 0.011061956134478 0.0014022262787872 0.0003
          0.0067262777673885 0.0043003855308917 0 0.0070184374453973 0.0044097475846897 0
          0.0069143452336461 0.0047780273607631 0 0.0067262777673885 0.0043003855308917 0.00015
          0.0070184374453973 0.0044097475846897 0.00015 0.0069143452336461 0.0047780273607631 0.00015
          0.0067262777673885 0.0043003855308917 0.0003 0.0070184374453973 0.0044097475846897 0.0003
          0.0069143452336461 0.0047780273607631 0.0003 0.0072966772765568 0.0023596996909359 0
          0.0077191611848381 0.0024307703640478 0 0.0072966772765568 0.0023596996909359 0.00015
          0.0077191611848381 0.0024307703640478 0.00015 0.0072966772765568 0.0023596996909359 0.0003
          0.0077191611848381 0.0024307703640478 0.0003 0.010569749843509 0.00092230265866691 0
          0.010578573679683 0.0013844170604281 0 0.010145320905195 0.0014335884987508 0
          0.01008894187929 0.00096115561381429 0 0.010569749843509 0.00092230265866691 0.00015
          0.010578573679683 0.0013844170604281 0.00015 0.010145320905195 0.0014335884987508 0.00015
          0.01008894187929 0.00096115561381429 0.00015 0.010569749843509 0.00092230265866691 0.0003
          0.010578573679683 0.0013844170604281 0.0003 0.010145320905195 0.0014335884987508 0.0003
          0.01008894187929 0.00096115561381429 0.0003 0.0061669869081239 0.00049673093518566 0
          0.0062913293509889 0.00097410606592609 0 0.0059245902968253 0.0010856763727913 0
          0.0057061681768373 0.00065177476244477 0 0.0061669869081239 0.00049673093518566 0.00015
          0.0062913293509889 0.00097410606592609 0.00015 0.0059245902968253 0.0010856763727913 0.00015
          0.0057061681768373 0.00065177476244477 0.00015 0.0061669869081239 0.00049673093518566 0.0003
          0.0062913293509889 0.00097410606592609 0.0003 0.0059245902968253 0.0010856763727913 0.0003
          0.0057061681768373 0.00065177476244477 0.0003 0.010613957240618 0.0022894151744625 0
          0.011031068838334 0.0023895404946521 0 0.01053554486979 0.0026566023779455 0
          0.010613957240618 0.0022894151744625 0.00015 0.011031068838334 0.0023895404946521 0.00015
          0.01053554486979 0.0026566023779455 0.00015 0.010613957240618 0.0022894151744625 0.0003
          0.011031068838334 0.0023895404946521 0.0003 0.01053554486979 0.0026566023779455 0.0003
          0.0055128205128194 0 0 0.0060256410256386 0 0
          0.0055128205128194 0 0.00015 0.0060256410256386 0 0.00015
          0.0055128205128194 0 0.0003 0.0060256410256386 0 0.0003
          0.0087932726011055 0.003543484648519 0 0.0081725565838686 0.0034418576035907 0
          0.0081844882448281 0.0029554535172717 0 0.0086653225286358 0.0029358056411338 0
          0.0087932726011055 0.003543484648519 0.00015 0.0081725565838686 0.0034418576035907 0.00015
          0.0081844882448281 0.0029554535172717 0.00015 0.0086653225286358 0.0029358056411338 0.00015
          0.0087932726011055 0.003543484648519 0.0003 0.0081725565838686 0.0034418576035907 0.0003
          0.0081844882448281 0.0029554535172717 0.0003 0.0086653225286358 0.0029358056411338 0.0003
          0.010609256891376 0.0018508518753275 0 0.011063963632424 0.0019108783312894 0
          0.010609256891376 0.0018508518753275 0.00015 0.011063963632424 0.0019108783312894 0.00015
          0.010609256891376 0.0018508518753275 0.0003 0.011063963632424 0.0019108783312894 0.0003
          0.0061614658010566 0.0029736343202522 0 0.0061372854142827 0.0036106222238676 0
          0.0061614658010566 0.0029736343202522 0.00015 0.0061372854142827 0.0036106222238676 0.00015
          0.0061614658010566 0.0029736343202522 0.0003 0.0061372854142827 0.0036106222238676 0.0003
          0.0091223832784702 0.0028108558594978 0 0.0093224708097351 0.0032450014434347 0
          0.0091223832784702 0.0028108558594978 0.00015 0.0093224708097351 0.0032450014434347 0.00015
          0.0091223832784702 0.0028108558594978 0.0003 0.0093224708097351 0.0032450014434347 0.0003
          0.010365654248251 0.0046741943492533 0 0.010130092133721 0.0048347586786618 0
          0.0098673679311407 0.0047157860708196 0 0.010078628200493 0.0044157313734999 0
          0.010365654248251 0.0046741943492533 0.00015 0.010130092133721 0.0048347586786618 0.00015
          0.0098673679311407 0.0047157860708196 0.00015 0.010078628200493 0.0044157313734999 0.00015
          0.010365654248251 0.0046741943492533 0.0003 0.010130092133721 0.0048347586786618 0.0003
          0.0098673679311407 0.0047157860708196 0.0003 0.010078628200493 0.0044157313734999 0.0003
          0.0074225055052033 0.0045889494028562 0 0.0073125071067115 0.0049521547682488 0
          0.0074225055052033 0.0045889494028562 0.00015 0.0073125071067115 0.0049521547682488 0.00015
          0.0074225055052033 0.0045889494028562 0.0003 0.0073125071067115 0.0049521547682488 0.0003
          0.0061231952422177 0.002444135475079 0 0.0061231952422177 0.002444135475079 0.00015
          0.0061231952422177 0.002444135475079 0.0003 0.007634491258567 0.0037589111207536 0
          0.0080978935956725 0.0039120786728548 0 0.007634491258567 0.0037589111207536 0.00015
          0.0080978935956725 0.0039120786728548 0.00015 0.007634491258567 0.0037589111207536 0.0003
          0.0080978935956725 0.0039120786728548 0.0003 0.0067400809843091 0.0034207975388345 0
          0.0067100713183769 0.0039836679330495 0 0.0063054236008776 0.0041223407032968 0
          0.0067400809843091 0.0034207975388345 0.00015 0.0067100713183769 0.0039836679330495 0.00015
          0.0063054236008776 0.0041223407032968 0.00015 0.0067400809843091 0.0034207975388345 0.0003
          0.0067100713183769 0.0039836679330495 0.0003 0.0063054236008776 0.0041223407032968 0.0003
          0.0064429727892239 0.0018594619814901 0 0.0065003657821779 0.0023397297588745 0
          0.0060722038988066 0.0019538017587265 0 0.0064429727892239 0.0018594619814901 0.00015
          0.0065003657821779 0.0023397297588745 0.00015 0.0060722038988066 0.0019538017587265 0.00015
          0.0064429727892239 0.0018594619814901 0.0003 0.0065003657821779 0.0023397297588745 0.0003
          0.0060722038988066 0.0019538017587265 0.0003 0.0068255396015086 0.0051581133306003 0
          0.0068255396015086 0.0051581133306003 0.00015 0.0068255396015086 0.0051581133306003 0.0003
          0.0065384615384579 0 0 0.0065384615384579 0 0.00015
          0.0065384615384579 0 0.0003 0.012879713087233 0.0060908484912964 0
          0.012982043505355 0.0056371881930815 0 0.012879713087233 0.0060908484912964 0.00015
          0.012982043505355 0.0056371881930815 0.00015 0.012879713087233 0.0060908484912964 0.0003
          0.012982043505355 0.0056371881930815 0.0003 0.0065699942646101 0.0028542668018424 0
          0.0065699942646101 0.0028542668018424 0.00015 0.0065699942646101 0.0028542668018424 0.0003
          0.0084683943974961 0.0045583446766593 0 0.0079943718437571 0.0043747262241866 0
          0.0085823759797054 0.0040943119694046 0 0.0084683943974961 0.0045583446766593 0.00015
          0.0079943718437571 0.0043747262241866 0.00015 0.0085823759797054 0.0040943119694046 0.00015
          0.0084683943974961 0.0045583446766593 0.0003 0.0079943718437571 0.0043747262241866 0.0003
          0.0085823759797054 0.0040943119694046 0.0003 0.0085830886495109 0.0024681574500846 0
          0.0090044137010858 0.0023542069269131 0 0.0085830886495109 0.0024681574500846 0.00015
          0.0090044137010858 0.0023542069269131 0.00015 0.0085830886495109 0.0024681574500846 0.0003
          0.0090044137010858 0.0023542069269131 0.0003 0.0098857235699117 0.0079055319030787 0
          0.0095144479526816 0.0076594245921199 0 0.0094715724969347 0.0073263583858313 0
          0.0099283521138692 0.0073475677072736 0 0.0098857235699117 0.0079055319030787 0.00015
          0.0095144479526816 0.0076594245921199 0.00015 0.0094715724969347 0.0073263583858313 0.00015
          0.0099283521138692 0.0073475677072736 0.00015 0.0098857235699117 0.0079055319030787 0.0003
          0.0095144479526816 0.0076594245921199 0.0003 0.0094715724969347 0.0073263583858313 0.0003
          0.0099283521138692 0.0073475677072736 0.0003 0.010833716827414 0.0069257207373803 0
          0.010357413059119 0.0069077241183533 0 0.010300982556592 0.0064274708783385 0
          0.010786080808085 0.0064391381968206 0 0.010833716827414 0.0069257207373803 0.00015
          0.010357413059119 0.0069077241183533 0.00015 0.010300982556592 0.0064274708783385 0.00015
          0.010786080808085 0.0064391381968206 0.00015 0.010833716827414 0.0069257207373803 0.0003
          0.010357413059119 0.0069077241183533 0.0003 0.010300982556592 0.0064274708783385 0.0003
          0.010786080808085 0.0064391381968206 0.0003 0.012723582323863 0.006509831652106 0
          0.012251440655851 0.0062918667587536 0 0.012542392069256 0.0059723735377719 0
          0.012723582323863 0.006509831652106 0.00015 0.012251440655851 0.0062918667587536 0.00015
          0.012542392069256 0.0059723735377719 0.00015 0.012723582323863 0.006509831652106 0.0003
          0.012251440655851 0.0062918667587536 0.0003 0.012542392069256 0.0059723735377719 0.0003
          0.0071151184692216 0.0040272738406853 0 0.0071151184692216 0.0040272738406853 0.00015
          0.0071151184692216 0.0040272738406853 0.0003 0.005927800859391 0.0043689372395662 0
          0.005927800859391 0.0043689372395662 0.00015 0.005927800859391 0.0043689372395662 0.0003
          0.0092411258002763 0.0078319639415625 0 0.0089588909882048 0.0073942383853577 0
          0.0092411258002763 0.0078319639415625 0.00015 0.0089588909882048 0.0073942383853577 0.00015
          0.0092411258002763 0.0078319639415625 0.0003 0.0089588909882048 0.0073942383853577 0.0003
          0.009874674666521 0.0068715373563056 0 0.010410157305432 0.007394545582291 0
          0.009874674666521 0.0068715373563056 0.00015 0.010410157305432 0.007394545582291 0.00015
          0.009874674666521 0.0068715373563056 0.0003 0.010410157305432 0.007394545582291 0.0003
          0.0075354000991736 0.004186248288406 0 0.0075354000991736 0.004186248288406 0.00015
          0.0075354000991736 0.004186248288406 0.0003 0.01131847387487 0.0058224977902188 0
          0.011696082283392 0.0060272916092408 0 0.011725204011411 0.0063910302275778 0
          0.011265055974573 0.0064250601080915 0 0.01131847387487 0.0058224977902188 0.00015
          0.011696082283392 0.0060272916092408 0.00015 0.011725204011411 0.0063910302275778 0.00015
          0.011265055974573 0.0064250601080915 0.00015 0.01131847387487 0.0058224977902188 0.0003
          0.011696082283392 0.0060272916092408 0.0003 0.011725204011411 0.0063910302275778 0.0003
          0.011265055974573 0.0064250601080915 0.0003 0.012000241143886 0.0058170880130831 0
          0.012000241143886 0.0058170880130831 0.00015 0.012000241143886 0.0058170880130831 0.0003
          0.011120492592586 0.0052514705902296 0 0.011120492592586 0.0052514705902296 0.00015
          0.011120492592586 0.0052514705902296 0.0003 0.0092910901193945 0.0039260363263486 0
          0.0090503465409481 0.0043132092761106 0 0.0092910901193945 0.0039260363263486 0.00015
          0.0090503465409481 0.0043132092761106 0.00015 0.0092910901193945 0.0039260363263486 0.0003
          0.0090503465409481 0.0043132092761106 0.0003 0.007889027184575 0.0048982243533992 0
          0.007889027184575 0.0048982243533992 0.00015 0.007889027184575 0.0048982243533992 0.0003
          0.0094935553236164 0.004533528646427 0 0.0097061514105808 0.0041851036755216 0
          0.0094935553236164 0.004533528646427 0.00015 0.0097061514105808 0.0041851036755216 0.00015
          0.0094935553236164 0.004533528646427 0.0003 0.0097061514105808 0.0041851036755216 0.0003
          0.007602124101561 0.0050930903063015 0 0.007602124101561 0.0050930903063015 0.00015
          0.007602124101561 0.0050930903063015 0.0003 0.010723762445737 0.0044202706845482 0
          0.010410164583979 0.0041181159817359 0 0.010723762445737 0.0044202706845482 0.00015
          0.010410164583979 0.0041181159817359 0.00015 0.010723762445737 0.0044202706845482 0.0003
          0.010410164583979 0.0041181159817359 0.0003 0.01095205032792 0.0047963590452232 0
          0.01095205032792 0.0047963590452232 0.00015 0.01095205032792 0.0047963590452232 0.0003
          0.011303178752756 0.0069106117689346 0 0.011303178752756 0.0069106117689346 0.00015
          0.011303178752756 0.0069106117689346 0.0003 0.01003253261535 0.0038623502872685 0
          0.01003253261535 0.0038623502872685 0.00015 0.01003253261535 0.0038623502872685 0.0003
          0.0076528923620256 0.0053996878686031 0 0.0072494384034052 0.005322441352826 0
          0.0076528923620256 0.0053996878686031 0.00015 0.0072494384034052 0.005322441352826 0.00015
          0.0076528923620256 0.0053996878686031 0.0003 0.0072494384034052 0.005322441352826 0.0003
          0.0096442187720765 0.0035928190702974 0 0.0096442187720765 0.0035928190702974 0.00015
          0.0096442187720765 0.0035928190702974 0.0003 0.012013949131265 0.002158444108951 0
          0.012018063243501 0.0027123142038817 0 0.012013949131265 0.002158444108951 0.00015
          0.012018063243501 0.0027123142038817 0.00015 0.012013949131265 0.002158444108951 0.0003
          0.012018063243501 0.0027123142038817 0.0003 0.0080144547016537 0.00086684480617367 0
          0.008304219624614 0.0012703006012415 0 0.0080327132462595 0.0011721512048422 0
          0.0080144547016537 0.00086684480617367 0.00015 0.008304219624614 0.0012703006012415 0.00015
          0.0080327132462595 0.0011721512048422 0.00015 0.0080144547016537 0.00086684480617367 0.0003
          0.008304219624614 0.0012703006012415 0.0003 0.0080327132462595 0.0011721512048422 0.0003
          0.0094736490244467 0.0005865877812969 0 0.010068957850501 0.00047856930843549 0
          0.0096358530086744 0.0010887425154837 0 0.0094736490244467 0.0005865877812969 0.00015
          0.010068957850501 0.00047856930843549 0.00015 0.0096358530086744 0.0010887425154837 0.00015
          0.0094736490244467 0.0005865877812969 0.0003 0.010068957850501 0.00047856930843549 0.0003
          0.0096358530086744 0.0010887425154837 0.0003 0.0071984303565192 0.0057392272964834 0
          0.0067200519522164 0.0055550541115669 0 0.0071984303565192 0.0057392272964834 0.00015
          0.0067200519522164 0.0055550541115669 0.00015 0.0071984303565192 0.0057392272964834 0.0003
          0.0067200519522164 0.0055550541115669 0.0003 0.013091675611077 0.0041736873632184 0
          0.012621380555602 0.004071395146678 0 0.012601464682814 0.0035037767307713 0
          0.013091675611077 0.0041736873632184 0.00015 0.012621380555602 0.004071395146678 0.00015
          0.012601464682814 0.0035037767307713 0.00015 0.013091675611077 0.0041736873632184 0.0003
          0.012621380555602 0.004071395146678 0.0003 0.012601464682814 0.0035037767307713 0.0003
          0.01153639784925 0.0020208067996516 0 0.011496246026306 0.0025480504488598 0
          0.01153639784925 0.0020208067996516 0.00015 0.011496246026306 0.0025480504488598 0.00015
          0.01153639784925 0.0020208067996516 0.0003 0.011496246026306 0.0025480504488598 0.0003
          0.011043213382792 0.0084269911709333 0 0.011043213382792 0.0084269911709333 0.00015
          0.011043213382792 0.0084269911709333 0.0003 0.010128205128191 0 0
          0.0096153846153732 0 0 0.010128205128191 0 0.00015
          0.0096153846153732 0 0.00015 0.010128205128191 0 0.0003
          0.0096153846153732 0 0.0003 0.0091025641025551 0 0
          0.0085897435897353 0 0 0.0091025641025551 0 0.00015
          0.0085897435897353 0 0.00015 0.0091025641025551 0 0.0003
          0.0085897435897353 0 0.0003 0.0085182476127008 0.0020437661198126 0
          0.0089029205554566 0.0019047336662455 0 0.0085182476127008 0.0020437661198126 0.00015
          0.0089029205554566 0.0019047336662455 0.00015 0.0085182476127008 0.0020437661198126 0.0003
          0.0089029205554566 0.0019047336662455 0.0003 0.0081522818828449 0.0024947087352937 0
          0.0081522818828449 0.0024947087352937 0.00015 0.0081522818828449 0.0024947087352937 0.0003
          0.010641025641009 0 0 0.010579843756946 0.00045349299099366 0
          0.010641025641009 0 0.00015 0.010579843756946 0.00045349299099366 0.00015
          0.010641025641009 0 0.0003 0.010579843756946 0.00045349299099366 0.0003
          0.011153846153828 0 0 0.011153846153828 0 0.00015
          0.011153846153828 0 0.0003 0.011760912133753 0.0054122119446059 0
          0.011760912133753 0.0054122119446059 0.00015 0.011760912133753 0.0054122119446059 0.0003
          0.011666666666648 0 0 0.011666666666648 0 0.00015
          0.011666666666648 0 0.0003 0.011547825504055 0.0049713459697514 0
          0.011547825504055 0.0049713459697514 0.00015 0.011547825504055 0.0049713459697514 0.0003
          0.011349632014182 0.0045239710214715 0 0.011349632014182 0.0045239710214715 0.00015
          0.011349632014182 0.0045239710214715 0.0003 0.011997463288521 0.00046572766410539 0
          0.012179487179468 0 0 0.011997463288521 0.00046572766410539 0.00015
          0.012179487179468 0 0.00015 0.011997463288521 0.00046572766410539 0.0003
          0.012179487179468 0 0.0003 0.01039056673058 0.0035410773695937 0
          0.010772622187787 0.0038062315725381 0 0.01039056673058 0.0035410773695937 0.00015
          0.010772622187787 0.0038062315725381 0.00015 0.01039056673058 0.0035410773695937 0.0003
          0.010772622187787 0.0038062315725381 0.0003 0.0089323359070786 0.0047421281357296 0
          0.0089323359070786 0.0047421281357296 0.00015 0.0089323359070786 0.0047421281357296 0.0003
          0.010891746765568 0.007407252260552 0 0.010891746765568 0.007407252260552 0.00015
          0.010891746765568 0.007407252260552 0.0003 0.011089383238376 0.0041358143249023 0
          0.011089383238376 0.0041358143249023 0.00015 0.011089383238376 0.0041358143249023 0.0003
          0.007205317033861 0.0036141963404016 0 0.007205317033861 0.0036141963404016 0.00015
          0.007205317033861 0.0036141963404016 0.0003 0.0080269839945158 0.0054023282425744 0
          0.0080269839945158 0.0054023282425744 0.00015 0.0080269839945158 0.0054023282425744 0.0003
          0.0077721363879251 0.0058968168784219 0 0.0077721363879251 0.0058968168784219 0.00015
          0.0077721363879251 0.0058968168784219 0.0003 0.0095370253310475 0.0025850582106885 0
          0.009732219723835 0.0029713438236062 0 0.0095370253310475 0.0025850582106885 0.00015
          0.009732219723835 0.0029713438236062 0.00015 0.0095370253310475 0.0025850582106885 0.0003
          0.009732219723835 0.0029713438236062 0.0003 0.0094100372761059 0.0021522308351028 0
          0.0094100372761059 0.0021522308351028 0.00015 0.0094100372761059 0.0021522308351028 0.0003
          0.0087313387484914 0.001424359608332 0 0.0084651319029022 0.0017289788972556 0
          0.0087313387484914 0.001424359608332 0.00015 0.0084651319029022 0.0017289788972556 0.00015
          0.0087313387484914 0.001424359608332 0.0003 0.0084651319029022 0.0017289788972556 0.0003
          0.011363196701121 0.0073867521895413 0 0.011894488312007 0.0078344841271679 0
          0.011431801070778 0.0078815011129823 0 0.011363196701121 0.0073867521895413 0.00015
          0.011894488312007 0.0078344841271679 0.00015 0.011431801070778 0.0078815011129823 0.00015
          0.011363196701121 0.0073867521895413 0.0003 0.011894488312007 0.0078344841271679 0.0003
          0.011431801070778 0.0078815011129823 0.0003 0.011511795106494 0.0083968566041475 0
          0.011511795106494 0.0083968566041475 0.00015 0.011511795106494 0.0083968566041475 0.0003
          0.0093066157528448 0.0017085494075796 0 0.0093066157528448 0.0017085494075796 0.00015
          0.0093066157528448 0.0017085494075796 0.0003 0.011737204813157 0.0042624504192267 0
          0.011920232844873 0.0047153506313134 0 0.011737204813157 0.0042624504192267 0.00015
          0.011920232844873 0.0047153506313134 0.00015 0.011737204813157 0.0042624504192267 0.0003
          0.011920232844873 0.0047153506313134 0.0003 0.0097199155871303 0.0015315099671301 0
          0.0098040259351994 0.0019696894002764 0 0.0097199155871303 0.0015315099671301 0.00015
          0.0098040259351994 0.0019696894002764 0.00015 0.0097199155871303 0.0015315099671301 0.0003
          0.0098040259351994 0.0019696894002764 0.0003 0.0099068743951204 0.0023814903757239 0
          0.0099068743951204 0.0023814903757239 0.00015 0.0099068743951204 0.0023814903757239 0.0003
          0.010196799496301 0.0018655242590307 0 0.010252080701677 0.0022738797315184 0
          0.010196799496301 0.0018655242590307 0.00015 0.010252080701677 0.0022738797315184 0.00015
          0.010196799496301 0.0018655242590307 0.0003 0.010252080701677 0.0022738797315184 0.0003
          0.0082479601882269 0.0062087007836213 0 0.0083721174281176 0.0058457654542534 0
          0.0087793359412623 0.006030240425184 0 0.0086690881028679 0.0063945203238097 0
          0.0082479601882269 0.0062087007836213 0.00015 0.0083721174281176 0.0058457654542534 0.00015
          0.0087793359412623 0.006030240425184 0.00015 0.0086690881028679 0.0063945203238097 0.00015
          0.0082479601882269 0.0062087007836213 0.0003 0.0083721174281176 0.0058457654542534 0.0003
          0.0087793359412623 0.006030240425184 0.0003 0.0086690881028679 0.0063945203238097 0.0003
          0.0098103305116681 0.0063862496116293 0 0.0098103305116681 0.0063862496116293 0.00015
          0.0098103305116681 0.0063862496116293 0.0003 0.0084248193747317 0.0050261658136402 0
          0.0084248193747317 0.0050261658136402 0.00015 0.0084248193747317 0.0050261658136402 0.0003
          0.0069463016830039 0.0027787422025108 0 0.0070048409545821 0.0031125297586922 0
          0.0069463016830039 0.0027787422025108 0.00015 0.0070048409545821 0.0031125297586922 0.00015
          0.0069463016830039 0.0027787422025108 0.0003 0.0070048409545821 0.0031125297586922 0.0003
          0.010028456835002 0.0032748409090605 0 0.010028456835002 0.0032748409090605 0.00015
          0.010028456835002 0.0032748409090605 0.0003 0.013084530633285 0.0046685927017207 0
          0.012657407202949 0.0045740785705039 0 0.013084530633285 0.0046685927017207 0.00015
          0.012657407202949 0.0045740785705039 0.00015 0.013084530633285 0.0046685927017207 0.0003
          0.012657407202949 0.0045740785705039 0.0003 0.0063788755008874 0.0014091508241809 0
          0.0060137569775388 0.0015029488511318 0 0.0063788755008874 0.0014091508241809 0.00015
          0.0060137569775388 0.0015029488511318 0.00015 0.0063788755008874 0.0014091508241809 0.0003
          0.0060137569775388 0.0015029488511318 0.0003 0.01196380743939 0.0083394019710021 0
          0.01196380743939 0.0083394019710021 0.00015 0.01196380743939 0.0083394019710021 0.0003
          0.010073855840534 0.0027196155419985 0 0.010289681297386 0.0025561678844121 0
          0.010073855840534 0.0027196155419985 0.00015 0.010289681297386 0.0025561678844121 0.00015
          0.010073855840534 0.0027196155419985 0.0003 0.010289681297386 0.0025561678844121 0.0003
          0.0093223919318803 0.0053434698815888 0 0.009764317340127 0.0054658727348424 0
          0.0097769212248058 0.0059119658621614 0 0.0093027527337708 0.0057939169389015 0
          0.0093223919318803 0.0053434698815888 0.00015 0.009764317340127 0.0054658727348424 0.00015
          0.0097769212248058 0.0059119658621614 0.00015 0.0093027527337708 0.0057939169389015 0.00015
          0.0093223919318803 0.0053434698815888 0.0003 0.009764317340127 0.0054658727348424 0.0003
          0.0097769212248058 0.0059119658621614 0.0003 0.0093027527337708 0.0057939169389015 0.0003
          0.0068882925124701 0.0023177669638962 0 0.0068882925124701 0.0023177669638962 0.00015
          0.0068882925124701 0.0023177669638962 0.0003 0.0092499592325966 0.0063238181416562 0
          0.0089620052424248 0.0065330227489775 0 0.0092499592325966 0.0063238181416562 0.00015
          0.0089620052424248 0.0065330227489775 0.00015 0.0092499592325966 0.0063238181416562 0.0003
          0.0089620052424248 0.0065330227489775 0.0003 0.0072168253422346 0.001397514094839 0
          0.0076041066380058 0.00089936619415626 0 0.0072168253422346 0.001397514094839 0.00015
          0.0076041066380058 0.00089936619415626 0.00015 0.0072168253422346 0.001397514094839 0.0003
          0.0076041066380058 0.00089936619415626 0.0003 0.0075718226613923 0.00044755222139025 0
          0.0075718226613923 0.00044755222139025 0.00015 0.0075718226613923 0.00044755222139025 0.0003
          0.012116660000204 0.0051206445675074 0 0.012116660000204 0.0051206445675074 0.00015
          0.012116660000204 0.0051206445675074 0.0003 0.0068338524094732 0.0018398489073113 0
          0.0068338524094732 0.0018398489073113 0.00015 0.0068338524094732 0.0018398489073113 0.0003
          0.0088473960481577 0.0056214227923259 0 0.0088473960481577 0.0056214227923259 0.00015
          0.0088473960481577 0.0056214227923259 0.0003 0.0081402125110085 0.0066115625704341 0
          0.0081402125110085 0.0066115625704341 0.00015 0.0081402125110085 0.0066115625704341 0.0003
          0.0067824993802385 0.0013824026215467 0 0.0072591856110724 0.0018865642034293 0
          0.0067824993802385 0.0013824026215467 0.00015 0.0072591856110724 0.0018865642034293 0.00015
          0.0067824993802385 0.0013824026215467 0.0003 0.0072591856110724 0.0018865642034293 0.0003
          0.0094035295411974 0.0068662830960629 0 0.0094035295411974 0.0068662830960629 0.00015
          0.0094035295411974 0.0068662830960629 0.0003 0.0080770297303238 0.0057078658228848 0
          0.0080770297303238 0.0057078658228848 0.00015 0.0080770297303238 0.0057078658228848 0.0003
          0.012455160230445 0.0055307966461266 0 0.012455160230445 0.0055307966461266 0.00015
          0.012455160230445 0.0055307966461266 0.0003 0.0092134396095011 0.0012639463069257 0
          0.0092134396095011 0.0012639463069257 0.00015 0.0092134396095011 0.0012639463069257 0.0003
          0.0085681017610313 0.0067725899286886 0 0.0085681017610313 0.0067725899286886 0.00015
          0.0085681017610313 0.0067725899286886 0.0003 0.010337781301114 0.0029713007827362 0
          0.010337781301114 0.0029713007827362 0.00015 0.010337781301114 0.0029713007827362 0.0003
          0.0080769230769162 0 0 0.0080362994401078 0.00044130282391618 0
          0.0075641025640979 0 0 0.0080769230769162 0 0.00015
          0.0080362994401078 0.00044130282391618 0.00015 0.0075641025640979 0 0.00015
          0.0080769230769162 0 0.0003 0.0080362994401078 0.00044130282391618 0.0003
          0.0075641025640979 0 0.0003 0.0084157309119158 0.0054663429893237 0
          0.0084157309119158 0.0054663429893237 0.00015 0.0084157309119158 0.0054663429893237 0.0003
          0.012625060394875 0.0050215313919928 0 0.012340535819996 0.0049145470001145 0
          0.012625060394875 0.0050215313919928 0.00015 0.012340535819996 0.0049145470001145 0.00015
          0.012625060394875 0.0050215313919928 0.0003 0.012340535819996 0.0049145470001145 0.0003
          0.0088807280393962 0.0051824777758032 0 0.0088807280393962 0.0051824777758032 0.00015
          0.0088807280393962 0.0051824777758032 0.0003 0.00978640191627 0.0050564284414982 0
          0.00978640191627 0.0050564284414982 0.00015 0.00978640191627 0.0050564284414982 0.0003
          0.007051282051278 0 0 0.007051282051278 0 0.00015
          0.007051282051278 0 0.0003 0.0089738769927721 0.0068608682916542 0
          0.0089738769927721 0.0068608682916542 0.00015 0.0089738769927721 0.0068608682916542 0.0003
          0.010464396561549 0.007914442793445 0 0.010959162019398 0.0079079830093058 0
          0.010464396561549 0.007914442793445 0.00015 0.010959162019398 0.0079079830093058 0.00015
          0.010464396561549 0.007914442793445 0.0003 0.010959162019398 0.0079079830093058 0.0003
          0.0093768424757788 0.0049206652486621 0 0.0093768424757788 0.0049206652486621 0.00015
          0.0093768424757788 0.0049206652486621 0.0003 0.0084364690699339 0.0071912877673881 0
          0.0084364690699339 0.0071912877673881 0.00015 0.0084364690699339 0.0071912877673881 0.0003
          0.011870414872976 0.00080294526771027 0 0.011870414872976 0.00080294526771027 0.00015
          0.011870414872976 0.00080294526771027 0.0003 0.013048655853798 0.0051555709380823 0
          0.013048655853798 0.0051555709380823 0.00015 0.013048655853798 0.0051555709380823 0.0003
          0.0091480378790118 0.00093783666102615 0 0.0091480378790118 0.00093783666102615 0.00015
          0.0091480378790118 0.00093783666102615 0.0003 0.012592651705639 0.0068198098450163 0
          0.012592651705639 0.0068198098450163 0.00015 0.012592651705639 0.0068198098450163 0.0003
          0.012272070002081 0.0045810549534562 0 0.012153081904124 0.0040944528080542 0
          0.012272070002081 0.0045810549534562 0.00015 0.012153081904124 0.0040944528080542 0.00015
          0.012272070002081 0.0045810549534562 0.0003 0.012153081904124 0.0040944528080542 0.0003
          0.011634800364854 0.0014122839921498 0 0.011634800364854 0.0014122839921498 0.00015
          0.011634800364854 0.0014122839921498 0.0003 0.012451479243686 0.0021914486022899 0
          0.012674188674928 0.0028095410694266 0 0.012451479243686 0.0021914486022899 0.00015
          0.012674188674928 0.0028095410694266 0.00015 0.012451479243686 0.0021914486022899 0.0003
          0.012674188674928 0.0028095410694266 0.0003 0.013121586466294 0.0036708577033715 0
          0.013121586466294 0.0036708577033715 0.00015 0.013121586466294 0.0036708577033715 0.0003
          0.013248150362312 0.0031919567697963 0 0.013248150362312 0.0031919567697963 0.00015
          0.013248150362312 0.0031919567697963 0.0003 0.012096711335481 0.0017058387426491 0
          0.012096711335481 0.0017058387426491 0.00015 0.012096711335481 0.0017058387426491 0.0003
          0.012692307692288 0 0 0.012542896420733 0.00061304595643839 0
          0.012692307692288 0 0.00015 0.012542896420733 0.00061304595643839 0.00015
          0.012692307692288 0 0.0003 0.012542896420733 0.00061304595643839 0.0003
          0.012384518900215 0.0018567382086698 0 0.012384518900215 0.0018567382086698 0.00015
          0.012384518900215 0.0018567382086698 0.0003 0.012087580163866 0.0010424427844857 0
          0.012087580163866 0.0010424427844857 0.00015 0.012087580163866 0.0010424427844857 0.0003
          <InformationKey name="L2_NORM_RANGE" location="vtkDataArray" length="2">
            <Value index="0">
              0.0055128205128
            </Value>
            <Value index="1">
              0.014586579917
            </Value>
          </InformationKey>
        </DataArray>
      </Points>
      <Cells>
        <DataArray type="Int64" Name="connectivity" format="ascii" RangeMin="0" RangeMax="773">
          0 1 2 3 4 5
          6 7 4 5 6 7
          8 9 10 11 12 13
          14 15 16 17 18 19
          16 17 18 19 20 21
          22 23 30 31 32 33
          34 35 36 37 34 35
          36 37 38 39 40 41
          15 14 42 43 19 18
          44 45 19 18 44 45
          23 22 46 47 48 49
          50 51 52 53 54 55
          52 53 54 55 56 57
          58 59 60 61 62 63
          64 65 66 67 64 65
          66 67 68 69 70 71
          3 72 73 0 7 74
          75 4 7 74 75 4
          11 76 77 8 78 79
          80 81 82 83 84 85
          82 83 84 85 86 87
          88 89 99 100 101 102
          103 104 105 106 103 104
          105 106 107 108 109 110
          111 112 113 114 115 116
          117 118 115 116 117 118
          119 120 121 122 744 123
          30 33 745 124 34 37
          745 124 34 37 746 125
          38 41 48 126 127 128
          52 129 130 131 52 129
          130 131 56 132 133 134
          135 136 112 111 137 138
          116 115 137 138 116 115
          139 140 120 119 141 142
          143 144 145 146 147 148
          145 146 147 148 149 150
          151 152 153 154 155 156
          157 158 159 160 157 158
          159 160 161 162 163 164
          165 166 43 167 168 169
          45 170 168 169 45 170
          171 172 47 173 174 175
          153 156 176 177 157 160
          176 177 157 160 178 179
          161 164 180 181 182 183
          184 185 186 187 184 185
          186 187 188 189 190 191
          166 165 192 193 169 168
          194 195 169 168 194 195
          172 171 196 197 112 182
          181 113 116 186 185 117
          116 186 185 117 120 190
          189 121 204 205 180 183
          206 207 184 187 206 207
          184 187 208 209 188 191
          210 211 212 213 214 215
          216 217 214 215 216 217
          218 219 220 221 222 223
          128 127 224 225 131 130
          224 225 131 130 226 227
          134 133 154 153 79 78
          158 157 83 82 158 157
          83 82 162 161 87 86
          231 113 181 232 233 117
          185 234 233 117 185 234
          235 121 189 236 237 238
          239 199 240 241 242 201
          240 241 242 201 243 244
          245 203 246 247 228 248
          249 250 229 251 249 250
          229 251 252 253 230 254
          255 49 48 128 256 53
          52 131 256 53 52 131
          257 57 56 134 175 258
          79 153 177 259 83 157
          177 259 83 157 179 260
          87 161 267 237 199 198
          268 240 201 200 268 240
          201 200 269 243 203 202
          270 271 232 272 273 274
          234 275 273 274 234 275
          276 277 236 278 267 198
          228 247 268 200 229 250
          268 200 229 250 269 202
          230 253 183 279 280 204
          187 281 282 206 187 281
          282 206 191 283 284 208
          285 286 287 288 289 290
          291 292 289 290 291 292
          293 294 295 296 297 298
          299 300 301 302 303 304
          301 302 303 304 305 306
          307 308 261 309 310 311
          263 312 313 314 263 312
          313 314 265 315 316 317
          238 318 127 126 241 319
          130 129 241 319 130 129
          244 320 133 132 324 325
          287 286 326 327 291 290
          326 327 291 290 328 329
          295 294 330 298 331 288
          332 302 333 292 332 302
          333 292 334 306 335 296
          318 336 222 127 319 337
          224 130 319 337 224 130
          320 338 226 133 339 340
          341 342 343 344 345 346
          343 344 345 346 347 348
          349 350 300 1 339 342
          304 5 343 346 304 5
          343 346 308 9 347 350
          351 310 341 340 352 313
          345 344 352 313 345 344
          353 316 349 348 354 339
          1 0 355 343 5 4
          355 343 5 4 356 347
          9 8 357 358 272 180
          359 360 275 184 359 360
          275 184 361 362 278 188
          48 239 238 126 52 242
          241 129 52 242 241 129
          56 245 244 132 336 271
          363 222 337 274 364 224
          337 274 364 224 338 277
          365 226 51 321 239 48
          55 322 242 52 55 322
          242 52 59 323 245 56
          366 367 213 212 368 369
          217 216 368 369 217 216
          370 371 221 220 223 222
          363 372 225 224 364 373
          225 224 364 373 227 226
          365 374 375 210 213 376
          377 214 217 378 377 214
          217 378 379 218 221 380
          375 381 73 210 377 382
          75 214 377 382 75 214
          379 383 77 218 381 354
          0 73 382 355 4 75
          382 355 4 75 383 356
          8 77 297 300 342 384
          301 304 346 385 301 304
          346 385 305 308 350 386
          376 213 367 387 378 217
          369 388 378 217 369 388
          380 221 371 389 223 372
          390 391 225 373 392 393
          225 373 392 393 227 374
          394 395 396 357 180 205
          397 359 184 207 397 359
          184 207 398 361 188 209
          387 367 357 396 388 369
          359 397 388 369 359 397
          389 371 361 398 399 747
          748 400 401 749 750 402
          401 749 750 402 403 751
          752 404 405 102 406 407
          408 106 409 410 408 106
          409 410 411 110 412 413
          180 272 232 181 184 275
          234 185 184 275 234 185
          188 278 236 189 414 415
          144 416 417 418 148 419
          417 418 148 419 420 421
          152 422 423 424 255 391
          425 426 256 393 425 426
          256 393 427 428 257 395
          429 430 431 753 432 433
          434 754 432 433 434 754
          435 436 437 755 438 399
          400 439 440 401 402 441
          440 401 402 441 442 403
          404 443 447 415 414 448
          449 418 417 450 449 418
          417 450 451 421 420 452
          453 100 99 454 455 104
          103 456 455 104 103 456
          457 108 107 458 279 459
          460 280 281 461 462 282
          281 461 462 282 283 463
          464 284 279 465 62 459
          281 466 66 461 281 466
          66 461 283 467 70 463
          448 414 100 453 450 417
          104 455 450 417 104 455
          452 420 108 457 468 469
          415 447 470 471 418 449
          470 471 418 449 472 473
          421 451 753 431 748 756
          754 434 750 757 754 434
          750 757 755 437 752 758
          400 748 431 12 402 750
          434 16 402 750 434 16
          404 752 437 20 474 31
          469 468 475 35 471 470
          475 35 471 470 476 39
          473 472 399 438 744 759
          401 440 745 760 401 440
          745 760 403 442 746 761
          339 477 351 340 343 478
          352 344 343 478 352 344
          347 479 353 348 367 366
          358 357 369 368 360 359
          369 368 360 359 371 370
          362 361 480 32 31 474
          481 36 35 475 481 36
          35 475 482 40 39 476
          483 477 339 354 484 478
          343 355 484 478 343 355
          485 479 347 356 486 483
          354 381 487 484 355 382
          487 484 355 382 488 485
          356 383 183 182 465 279
          187 186 466 281 187 186
          466 281 191 190 467 283
          762 763 489 490 764 765
          491 492 764 765 491 492
          766 767 493 494 490 489
          32 480 492 491 36 481
          492 491 36 481 494 493
          40 482 387 495 496 376
          388 497 498 378 388 497
          498 378 389 499 500 380
          501 270 272 358 502 273
          275 360 502 273 275 360
          503 276 278 362 504 331
          298 297 505 333 302 301
          505 333 302 301 506 335
          306 305 507 486 381 375
          508 487 382 377 508 487
          382 377 509 488 383 379
          318 238 237 510 319 241
          240 511 319 241 240 511
          320 244 243 512 50 49
          255 424 54 53 256 426
          54 53 256 426 58 57
          257 428 363 513 390 372
          364 514 392 373 364 514
          392 373 365 515 394 374
          516 423 391 390 517 425
          393 392 517 425 393 392
          518 427 395 394 519 520
          205 204 521 522 207 206
          521 522 207 206 523 524
          209 208 525 519 204 280
          526 521 206 282 526 521
          206 282 527 523 208 284
          528 460 459 529 530 462
          461 531 530 462 461 531
          532 464 463 533 534 90
          535 536 537 93 538 539
          537 93 538 539 540 96
          541 542 546 525 280 460
          547 526 282 462 547 526
          282 462 548 527 284 464
          759 768 747 399 760 769
          749 401 760 769 749 401
          761 770 751 403 507 375
          376 496 508 377 378 498
          508 377 378 498 509 379
          380 500 483 486 549 550
          484 487 551 552 484 487
          551 552 485 488 553 554
          231 232 271 336 233 234
          274 337 233 234 274 337
          235 236 277 338 391 255
          128 223 393 256 131 225
          393 256 131 225 395 257
          134 227 525 546 555 556
          526 547 557 558 526 547
          557 558 527 548 559 560
          519 525 556 561 521 526
          558 562 521 526 558 562
          523 527 560 563 561 556
          564 565 562 558 566 567
          562 558 566 567 563 560
          568 569 570 571 572 573
          574 575 576 577 574 575
          576 577 578 579 580 581
          2 1 300 299 6 5
          304 303 6 5 304 303
          10 9 308 307 582 299
          298 330 583 303 302 332
          583 303 302 332 584 307
          306 334 585 363 271 270
          586 364 274 273 586 364
          274 273 587 365 277 276
          555 416 144 143 557 419
          148 147 557 419 148 147
          559 422 152 151 588 589
          237 267 590 591 240 268
          590 591 240 268 592 593
          243 269 396 594 495 387
          397 595 497 388 397 595
          497 388 398 596 499 389
          594 396 205 520 595 397
          207 522 595 397 207 522
          596 398 209 524 597 598
          430 429 599 600 433 432
          599 600 433 432 601 602
          436 435 603 246 248 604
          605 249 251 606 605 249
          251 606 607 252 254 608
          72 211 210 73 74 215
          214 75 74 215 214 75
          76 219 218 77 536 535
          609 543 539 538 610 544
          539 538 610 544 542 541
          611 545 612 561 565 613
          614 562 567 615 614 562
          567 615 616 563 569 617
          618 619 620 621 622 623
          624 625 622 623 624 625
          626 627 628 629 630 588
          267 247 631 590 268 250
          631 590 268 250 632 592
          269 253 633 634 573 572
          635 636 577 576 635 636
          577 576 637 638 581 580
          60 639 81 640 64 641
          85 642 64 641 85 642
          68 643 89 644 561 612
          520 519 562 614 522 521
          562 614 522 521 563 616
          524 523 510 231 336 318
          511 233 337 319 511 233
          337 319 512 235 338 320
          640 81 80 645 642 85
          84 646 642 85 84 646
          644 89 88 647 550 648
          477 483 552 649 478 484
          552 649 478 484 554 650
          479 485 630 247 246 651
          631 250 249 652 631 250
          249 652 632 253 252 653
          633 572 654 621 635 576
          655 625 635 576 655 625
          637 580 656 629 15 43
          166 439 19 45 169 441
          19 45 169 441 23 47
          172 443 660 639 661 651
          662 641 663 652 662 641
          663 652 664 643 665 653
          666 330 288 287 667 332
          292 291 667 332 292 291
          668 334 296 295 603 660
          651 246 605 662 652 249
          605 662 652 249 607 664
          653 252 571 570 516 669
          575 574 517 670 575 574
          517 670 579 578 518 671
          672 262 261 311 673 264
          263 314 673 264 263 314
          674 266 265 317 416 555
          546 675 419 557 547 676
          419 557 547 676 422 559
          548 677 570 573 678 657
          574 577 679 658 574 577
          679 658 578 581 680 659
          495 42 14 496 497 44
          18 498 497 44 18 498
          499 46 22 500 61 529
          459 62 65 531 461 66
          65 531 461 66 69 533
          463 70 13 507 496 14
          17 508 498 18 17 508
          498 18 21 509 500 22
          114 510 237 589 118 511
          240 591 118 511 240 591
          122 512 243 593 513 669
          516 390 514 670 517 392
          514 670 517 392 515 671
          518 394 594 681 42 495
          595 682 44 497 595 682
          44 497 596 683 46 499
          114 589 588 111 118 591
          590 115 118 591 590 115
          122 593 592 119 510 114
          113 231 511 118 117 233
          511 118 117 233 512 122
          121 235 681 594 520 612
          682 595 522 614 682 595
          522 614 683 596 524 616
          684 685 645 686 687 688
          646 689 687 688 646 689
          690 691 647 692 693 654
          572 571 694 655 576 575
          694 655 576 575 695 656
          580 579 675 546 460 528
          676 547 462 530 676 547
          462 530 677 548 464 532
          439 400 12 15 441 402
          16 19 441 402 16 19
          443 404 20 23 696 672
          648 697 698 673 649 699
          698 673 649 699 700 674
          650 701 702 618 621 654
          703 622 625 655 703 622
          625 655 704 626 629 656
          72 705 212 211 74 706
          216 215 74 706 216 215
          76 707 220 219 182 112
          136 465 186 116 138 466
          186 116 138 466 190 120
          140 467 708 686 645 80
          709 689 646 84 709 689
          646 84 710 692 647 88
          91 341 310 92 94 345
          313 95 94 345 313 95
          97 349 316 98 135 630
          651 661 137 631 652 663
          137 631 652 663 139 632
          653 665 666 287 325 711
          667 291 327 712 667 291
          327 712 668 295 329 713
          444 25 714 715 445 27
          716 717 445 27 716 717
          446 29 718 719 705 720
          366 212 706 721 368 216
          706 721 368 216 707 722
          370 220 331 504 715 714
          333 505 717 716 333 505
          717 716 335 506 719 718
          13 549 486 507 17 551
          487 508 17 551 487 508
          21 553 488 509 571 669
          513 693 575 670 514 694
          575 670 514 694 579 671
          515 695 102 405 685 99
          106 408 688 103 106 408
          688 103 110 411 691 107
          672 351 477 648 673 352
          478 649 673 352 478 649
          674 353 479 650 693 513
          363 585 694 514 364 586
          694 514 364 586 695 515
          365 587 285 714 25 24
          289 716 27 26 289 716
          27 26 293 718 29 28
          143 142 192 564 147 146
          194 566 147 146 194 566
          151 150 196 568 726 489
          763 771 727 491 765 772
          727 491 765 772 728 493
          767 773 534 536 715 504
          537 539 717 505 537 539
          717 505 540 542 719 506
          165 565 564 192 168 567
          566 194 168 567 566 194
          171 569 568 196 78 81
          639 660 82 85 641 662
          82 85 641 662 86 89
          643 664 136 135 661 63
          138 137 663 67 138 137
          663 67 140 139 665 71
          729 262 672 696 730 264
          673 698 730 264 673 698
          731 266 674 700 630 135
          111 588 631 137 115 590
          631 137 115 590 632 139
          119 592 702 585 270 501
          703 586 273 502 703 586
          273 502 704 587 276 503
          585 702 654 693 586 703
          655 694 586 703 655 694
          587 704 656 695 61 406
          528 529 65 409 530 531
          65 409 530 531 69 412
          532 533 414 732 101 100
          417 733 105 104 417 733
          105 104 420 734 109 108
          63 62 465 136 67 66
          466 138 67 66 466 138
          71 70 467 140 501 720
          618 702 502 721 622 703
          502 721 622 703 503 722
          626 704 720 501 358 366
          721 502 360 368 721 502
          360 368 722 503 362 370
          685 684 454 99 688 687
          456 103 688 687 456 103
          691 690 458 107 685 405
          640 645 688 408 642 646
          688 408 642 646 691 411
          644 647 30 141 469 31
          34 145 471 35 34 145
          471 35 38 149 473 39
          598 738 739 430 600 740
          741 433 600 740 741 433
          602 742 743 436 43 42
          681 167 45 44 682 170
          45 44 682 170 47 46
          683 173 678 711 325 723
          679 712 327 724 679 712
          327 724 680 713 329 725
          619 618 720 705 623 622
          721 706 623 622 721 706
          627 626 722 707 102 101
          528 406 106 105 530 409
          106 105 530 409 110 109
          532 412 549 13 12 739
          551 17 16 741 551 17
          16 741 553 21 20 743
          711 678 573 634 712 679
          577 636 712 679 577 636
          713 680 581 638 80 79
          258 708 84 83 259 709
          84 83 259 709 88 87
          260 710 738 598 696 697
          740 600 698 699 740 600
          698 699 742 602 700 701
          714 285 288 331 716 289
          292 333 716 289 292 333
          718 293 296 335 672 311
          310 351 673 314 313 352
          673 314 313 352 674 317
          316 353 430 739 12 431
          433 741 16 434 433 741
          16 434 436 743 20 437
          193 438 439 166 195 440
          441 169 195 440 441 169
          197 442 443 172 489 726
          33 32 491 727 37 36
          491 727 37 36 493 728
          41 40 444 715 536 543
          445 717 539 544 445 717
          539 544 446 719 542 545
          3 619 705 72 7 623
          706 74 7 623 706 74
          11 627 707 76 633 666
          711 634 635 667 712 636
          635 667 712 636 637 668
          713 638 384 534 504 297
          385 537 505 301 385 537
          505 301 386 540 506 305
          726 771 744 33 727 772
          745 37 727 772 745 37
          728 773 746 41 167 613
          565 165 170 615 567 168
          170 615 567 168 173 617
          569 171 675 732 414 416
          676 733 417 419 676 733
          417 419 677 734 420 422
          550 549 739 738 552 551
          741 740 552 551 741 740
          554 553 743 742 732 675
          528 101 733 676 530 105
          733 676 530 105 734 677
          532 109 63 661 639 60
          67 663 641 64 67 663
          641 64 71 665 643 68
          384 91 90 534 385 94
          93 537 385 94 93 537
          386 97 96 540 123 744
          438 193 124 745 440 195
          124 745 440 195 125 746
          442 197 406 61 60 407
          409 65 64 410 409 65
          64 410 412 69 68 413
          154 78 660 603 158 82
          662 605 158 82 662 605
          162 86 664 607 91 384
          342 341 94 385 346 345
          94 385 346 345 97 386
          350 349 405 407 60 640
          408 410 64 642 408 410
          64 642 411 413 68 644
          648 550 738 697 649 552
          740 699 649 552 740 699
          650 554 742 701 735 92
          310 309 736 95 313 312
          736 95 313 312 737 98
          316 315 633 582 330 666
          635 583 332 667 635 583
          332 667 637 584 334 668
          167 681 612 613 170 682
          614 615 170 682 614 615
          173 683 616 617 620 2
          299 582 624 6 303 583
          624 6 303 583 628 10
          307 584 582 633 621 620
          583 635 625 624 583 635
          625 624 584 637 629 628
          141 144 415 469 145 148
          418 471 145 148 418 471
          149 152 421 473 143 564
          556 555 147 566 558 557
          147 566 558 557 151 568
          560 559 2 620 619 3
          6 624 623 7 6 624
          623 7 10 628 627 11
          729 696 598 597 730 698
          600 599 730 698 600 599
          731 700 602 601 141 30
          123 142 145 34 124 146
          145 34 124 146 149 38
          125 150 154 603 604 155
          158 605 606 159 158 605
          606 159 162 607 608 163
          193 192 142 123 195 194
          146 124 195 194 146 124
          197 196 150 125
        </DataArray>
        <DataArray type="Int64" Name="offsets" format="ascii" RangeMin="8" RangeMax="3616">
          8 16 24 32 40 48
          56 64 72 80 88 96
          104 112 120 128 136 144
          152 160 168 176 184 192
          200 208 216 224 232 240
          248 256 264 272 280 288
          296 304 312 320 328 336
          344 352 360 368 376 384
          392 400 408 416 424 432
          440 448 456 464 472 480
          488 496 504 512 520 528
          536 544 552 560 568 576
          584 592 600 608 616 624
          632 640 648 656 664 672
          680 688 696 704 712 720
          728 736 744 752 760 768
          776 784 792 800 808 816
          824 832 840 848 856 864
          872 880 888 896 904 912
          920 928 936 944 952 960
          968 976 984 992 1000 1008
          1016 1024 1032 1040 1048 1056
          1064 1072 1080 1088 1096 1104
          1112 1120 1128 1136 1144 1152
          1160 1168 1176 1184 1192 1200
          1208 1216 1224 1232 1240 1248
          1256 1264 1272 1280 1288 1296
          1304 1312 1320 1328 1336 1344
          1352 1360 1368 1376 1384 1392
          1400 1408 1416 1424 1432 1440
          1448 1456 1464 1472 1480 1488
          1496 1504 1512 1520 1528 1536
          1544 1552 1560 1568 1576 1584
          1592 1600 1608 1616 1624 1632
          1640 1648 1656 1664 1672 1680
          1688 1696 1704 1712 1720 1728
          1736 1744 1752 1760 1768 1776
          1784 1792 1800 1808 1816 1824
          1832 1840 1848 1856 1864 1872
          1880 1888 1896 1904 1912 1920
          1928 1936 1944 1952 1960 1968
          1976 1984 1992 2000 2008 2016
          2024 2032 2040 2048 2056 2064
          2072 2080 2088 2096 2104 2112
          2120 2128 2136 2144 2152 2160
          2168 2176 2184 2192 2200 2208
          2216 2224 2232 2240 2248 2256
          2264 2272 2280 2288 2296 2304
          2312 2320 2328 2336 2344 2352
          2360 2368 2376 2384 2392 2400
          2408 2416 2424 2432 2440 2448
          2456 2464 2472 2480 2488 2496
          2504 2512 2520 2528 2536 2544
          2552 2560 2568 2576 2584 2592
          2600 2608 2616 2624 2632 2640
          2648 2656 2664 2672 2680 2688
          2696 2704 2712 2720 2728 2736
          2744 2752 2760 2768 2776 2784
          2792 2800 2808 2816 2824 2832
          2840 2848 2856 2864 2872 2880
          2888 2896 2904 2912 2920 2928
          2936 2944 2952 2960 2968 2976
          2984 2992 3000 3008 3016 3024
          3032 3040 3048 3056 3064 3072
          3080 3088 3096 3104 3112 3120
          3128 3136 3144 3152 3160 3168
          3176 3184 3192 3200 3208 3216
          3224 3232 3240 3248 3256 3264
          3272 3280 3288 3296 3304 3312
          3320 3328 3336 3344 3352 3360
          3368 3376 3384 3392 3400 3408
          3416 3424 3432 3440 3448 3456
          3464 3472 3480 3488 3496 3504
          3512 3520 3528 3536 3544 3552
          3560 3568 3576 3584 3592 3600
          3608 3616
        </DataArray>
        <DataArray type="UInt8" Name="types" format="ascii" RangeMin="12" RangeMax="12">
          12 12 12 12 12 12
          12 12 12 12 12 12
          12 12 12 12 12 12
          12 12 12 12 12 12
          12 12 12 12 12 12
          12 12 12 12 12 12
          12 12 12 12 12 12
          12 12 12 12 12 12
          12 12 12 12 12 12
          12 12 12 12 12 12
          12 12 12 12 12 12
          12 12 12 12 12 12
          12 12 12 12 12 12
          12 12 12 12 12 12
          12 12 12 12 12 12
          12 12 12 12 12 12
          12 12 12 12 12 12
          12 12 12 12 12 12
          12 12 12 12 12 12
          12 12 12 12 12 12
          12 12 12 12 12 12
          12 12 12 12 12 12
          12 12 12 12 12 12
          12 12 12 12 12 12
          12 12 12 12 12 12
          12 12 12 12 12 12
          12 12 12 12 12 12
          12 12 12 12 12 12
          12 12 12 12 12 12
          12 12 12 12 12 12
          12 12 12 12 12 12
          12 12 12 12 12 12
          12 12 12 12 12 12
          12 12 12 12 12 12
          12 12 12 12 12 12
          12 12 12 12 12 12
          12 12 12 12 12 12
          12 12 12 12 12 12
          12 12 12 12 12 12
          12 12 12 12 12 12
          12 12 12 12 12 12
          12 12 12 12 12 12
          12 12 12 12 12 12
          12 12 12 12 12 12
          12 12 12 12 12 12
          12 12 12 12 12 12
          12 12 12 12 12 12
          12 12 12 12 12 12
          12 12 12 12 12 12
          12 12 12 12 12 12
          12 12 12 12 12 12
          12 12 12 12 12 12
          12 12 12 12 12 12
          12 12 12 12 12 12
          12 12 12 12 12 12
          12 12 12 12 12 12
          12 12 12 12 12 12
          12 12 12 12 12 12
          12 12 12 12 12 12
          12 12 12 12 12 12
          12 12 12 12 12 12
          12 12 12 12 12 12
          12 12 12 12 12 12
          12 12 12 12 12 12
          12 12 12 12 12 12
          12 12 12 12 12 12
          12 12 12 12 12 12
          12 12 12 12 12 12
          12 12 12 12 12 12
          12 12 12 12 12 12
          12 12 12 12 12 12
          12 12 12 12 12 12
          12 12 12 12 12 12
          12 12 12 12 12 12
          12 12 12 12 12 12
          12 12
        </DataArray>
      </Cells>
    </Piece>
  </UnstructuredGrid>
</VTKFile>
