<?xml version="1.0"?>
<VTKFile type="UnstructuredGrid" version="0.1" byte_order="LittleEndian" header_type="UInt32" compressor="vtkZLibDataCompressor">
  <UnstructuredGrid>
    <Piece NumberOfPoints="756" NumberOfCells="468">
      <PointData>
        <DataArray type="Int32" Name="libmesh_node_id" format="ascii" RangeMin="120" RangeMax="2168">
          120 121 122 123 124 125
          126 127 128 129 130 131
          132 133 134 135 136 137
          138 139 140 141 142 143
          144 145 146 147 148 149
          150 151 152 153 154 155
          156 157 158 159 160 161
          162 163 164 165 166 167
          168 169 170 171 172 173
          174 175 176 177 178 179
          240 241 242 243 244 245
          246 247 248 249 250 251
          252 253 254 255 256 257
          258 259 260 261 262 263
          264 265 266 267 268 269
          330 331 332 333 334 335
          336 337 338 339 340 341
          342 343 344 345 346 347
          348 349 350 351 352 353
          354 355 356 357 358 359
          420 421 422 423 424 425
          426 427 428 429 430 431
          432 433 434 435 436 437
          438 439 440 441 442 443
          444 445 446 447 448 449
          510 511 512 513 514 515
          516 517 518 519 520 521
          522 523 524 525 526 527
          528 529 530 531 532 533
          534 535 536 537 538 539
          600 601 602 603 604 605
          606 607 608 609 610 611
          612 613 614 615 616 617
          618 619 620 621 622 623
          624 625 626 627 628 629
          690 691 692 693 694 695
          696 697 698 699 700 701
          702 703 704 705 706 707
          708 709 710 711 712 713
          714 715 716 717 718 719
          780 781 782 783 784 785
          786 787 788 789 790 791
          792 793 794 795 796 797
          798 799 800 801 802 803
          804 805 806 807 808 809
          876 877 878 879 880 881
          882 883 884 885 886 887
          888 889 890 891 892 893
          894 895 896 897 898 899
          900 901 902 903 904 905
          906 907 908 909 910 911
          912 913 914 915 916 917
          918 919 920 921 922 923
          924 925 926 927 928 929
          930 931 932 933 934 935
          936 937 938 939 940 941
          942 943 944 945 946 947
          948 949 950 951 952 953
          954 955 956 957 958 959
          960 961 962 963 964 965
          966 967 968 969 970 971
          972 973 974 975 976 977
          978 979 980 981 982 983
          984 985 986 987 988 989
          990 991 992 993 994 995
          996 997 998 999 1000 1001
          1002 1003 1004 1005 1006 1007
          1008 1009 1010 1011 1012 1013
          1014 1015 1016 1017 1018 1019
          1020 1021 1022 1023 1024 1025
          1026 1027 1028 1029 1030 1031
          1032 1033 1034 1035 1036 1037
          1038 1039 1040 1041 1042 1043
          1044 1045 1046 1047 1048 1049
          1050 1051 1052 1053 1054 1055
          1056 1057 1058 1059 1060 1061
          1062 1063 1064 1065 1066 1067
          1068 1069 1070 1071 1072 1073
          1074 1075 1076 1077 1078 1079
          1080 1081 1082 1083 1084 1085
          1086 1087 1088 1089 1090 1091
          1092 1093 1094 1095 1096 1097
          1098 1099 1100 1101 1102 1103
          1104 1105 1106 1107 1108 1109
          1110 1111 1112 1113 1114 1115
          1116 1117 1118 1119 1120 1121
          1122 1123 1124 1125 1126 1127
          1128 1129 1130 1131 1132 1133
          1134 1135 1136 1137 1138 1139
          1140 1141 1142 1143 1144 1145
          1146 1147 1148 1149 1150 1151
          1152 1153 1154 1155 1156 1157
          1158 1159 1160 1161 1162 1163
          1164 1165 1166 1167 1168 1169
          1170 1171 1172 1173 1174 1175
          1176 1177 1178 1179 1180 1181
          1182 1183 1184 1185 1186 1187
          1188 1189 1190 1191 1192 1193
          1194 1195 1196 1197 1198 1199
          1200 1201 1202 1203 1204 1205
          1206 1207 1208 1209 1210 1211
          1212 1213 1214 1215 1216 1217
          1218 1219 1220 1221 1222 1223
          1224 1225 1226 1227 1228 1229
          1230 1231 1232 1233 1234 1235
          1236 1237 1238 1239 1240 1241
          1242 1243 1244 1245 1246 1247
          1248 1249 1250 1251 1252 1253
          1254 1255 1256 1257 1258 1259
          1260 1261 1262 1263 1264 1265
          1266 1267 1268 1269 1270 1271
          1893 1894 1895 1896 1897 1898
          1920 1921 1922 1923 1924 1925
          1947 1948 1949 1974 1975 1976
          2001 2002 2003 2028 2029 2030
          2055 2056 2057 2112 2113 2114
          2115 2116 2117 2124 2125 2126
          2127 2128 2129 2130 2131 2132
          2133 2134 2135 2148 2149 2150
          2151 2152 2153 2164 2166 2168
          1926 1899 1927 1900 1928 1901
          1950 1951 1952 1953 1954 1955
          1977 1978 1979 2004 2005 2006
          2031 2032 2033 2058 2059 2060
          2142 2144 2146 2163 2143 2096
          2165 2145 2100 2167 2147 2104
        </DataArray>
        <DataArray type="Float64" Name="resid_x" format="ascii" RangeMin="-20.23794809787095" RangeMax="0.7394212510861484">
          0.030529582392990307 -8.192303317626754 0.04773582538959875 -16.48733641496635 0.019851297279968705 -8.413715608759908
          0.009841489799606862 -8.252112727227871 0.016644948979863905 -16.675372021350274 0.009335081466225859 -8.653892299233764
          0.011482357345388827 -8.338189136115485 0.024588857016202503 -16.933945296734784 0.005545532318356194 -9.009400723301033
          0.01851661272271521 -8.494655053032975 0.011886604104645038 -17.240310572305017 -0.055474881424582456 -9.385314014161839
          0.0002786488447688029 -8.747062544335261 -0.01003785551172598 -17.653245275386944 -0.013527225646126517 -9.642488163994411
          0.00027095011074873554 -9.01271985124101 0.0013588596541120879 -18.085298281501412 -0.0009414012983253173 -9.70334721639429
          0.00033573872326275733 -9.271096939725998 0.0004766056791041251 -18.529146628471278 0.0005495492921570033 -9.551343106282905
          0.0008835469753805114 -9.61058555107394 0.0019853553334376883 -19.125837403787965 0.0035630134291517734 -9.224571638041581
          0.005299758372036223 -10.213190867177104 0.010032046651086368 -20.23794809787095 0.012697034305447552 -8.774951676275517
          0.01547518679464227 -6.337994836721196 0.02840188866721738 -12.506590504176868 0.02264982979856278 -4.798988115897373
          -0.033971682385054436 -0.07772554299884948 -0.05283405200093494 0.03509631288531345 0.05831184745139062 0.0272348581581916
          0.025286652213755367 0.044964247980391114 0.02965692646277418 -0.02811145375188584 -0.07174429409966798 -0.01081078492898957
          0.0017328065598753994 0.0031297869204491846 -0.003686355044801637 0.0014444711079208972 0.0035637164782320596 -0.0014703949892931334
          0.0011462610830577091 0.0019990437713213183 0.0013511779753505593 0.0025965622218109274 0.005295203266937776 0.008080724515055593
          0.00828658299165852 0.01585883620500539 0.024058671585750258 0.018040165412672504 0.03361570597728303 0.03707596927258128
          -0.08531281152618764 -0.1855249137733832 -0.10672172889884557 0.04735726925711692 0.07134702301570339 -0.009621489768917968
          -0.0014481456116008928 0.021247210988565968 -0.03248171474070993 -0.009574565781254485 -0.02318570411356724 -0.022742083906294397
          0.0014166731281770595 0.002965449215118987 -0.0050949032063494215 0.0014599135771025118 0.003155882365624585 -0.002707323430052533
          0.00118126656333839 0.0021611946420003747 0.0015164505633844527 0.0030261115349192735 0.006102621339012515 0.010893472817127492
          0.010844967156627305 0.020552477722382 0.0322456411344656 0.022631478103868945 0.04210252000495305 0.04838158105069914
          -0.01905868446147796 -0.04422976261387479 -0.019008687901203913 -0.11726914657843945 -0.2304379403518011 -0.10636618235456119
          -0.044174147389215435 -0.13443684906131237 -0.07102974026343567 0.0011385778114965106 0.002799029683225651 -0.007981391533840032
          0.001911864404906538 0.004198720360846231 -0.005592384117190541 0.0013515782842761226 0.002793802655586042 -0.0031596933634361335
          0.0012592287781316713 0.002223785460546246 0.0022447829365317418 0.003421518151783154 0.006577655407984828 0.013390956391459596
          0.010954080467842964 0.020512168550354204 0.03462508951313259 0.019187101525535155 0.03658886137778805 0.04816192286845067
          0.005590600693693659 -0.005398160800368146 -0.005778209322622629 0.008488179152962516 0.014201822808352027 0.005785280577908836
          -0.009256534788960824 -0.006630623248077061 -0.0062352019165468064 0.0015131581123108973 0.003637337094378079 -0.0078248880346381
          0.0023143595651129445 0.004940257435873896 -0.005974673381191842 0.0004628267959043697 0.0011769418517539876 -0.003811657348047781
          0.0013322042403096646 0.0024112147904249426 0.0034425509694173684 0.003959930239382459 0.0071181673965989845 0.015599045365656927
          0.009322914050429176 0.016958899107734737 0.034312552960616305 0.010719107120491733 0.0208562581476055 0.039457960655645774
          0.01795118407946905 0.09159111396543373 0.19089463314577415 0.011249201749537363 0.028209477407177275 -0.0004277139432939947
          -0.011946872182951651 -0.01564391386521935 -0.015293358557090464 0.0006771259281865838 0.0032836884436941993 -0.008676930174116748
          0.001514761737150927 0.004210567310829916 -0.006960921645038365 -0.00026580872115289367 -0.0001577476061731531 -0.003892528477430268
          0.0018734141764529255 0.002879874256596082 0.004382845863148521 0.004392634156403119 0.00784824588259525 0.016926953746099205
          0.00823446422820684 0.014439909109962734 0.033562174923002175 0.005186232672471425 0.009254309550938866 0.031233783464018394
          0.006846487156307646 0.11099493664348259 0.027515597359546007 0.019392990164035062 0.031072585339842362 0.0034500470350335988
          -0.01053290600863832 -0.021206649770276975 -0.025428156540518998 -0.00143959848091324 0.0006216440043527172 -0.011248110363674346
          0.0004560270532305566 0.00185727025028104 -0.006633867174879349 -0.0006000382117115066 -0.0017415251899217665 -0.004000100414045971
          0.002791805329239061 0.004502071638514238 0.005121206013602553 0.0054471825743158675 0.009642504494101978 0.017394288764550403
          0.007409636455498969 0.013179281682876631 0.03003343609752651 0.005044397525984956 0.009462574288087056 0.027133813268908513
          0.4672206789098299 0.7394212510861484 0.3421005489201967 0.0923258458878049 0.17039543369754284 0.06324730644006671
          -0.0034815463111552702 -0.009325304277133739 -0.02177803608088702 -0.0007540009247755108 -0.002098533097858457 -0.00869637433825865
          -0.0007734209148013704 -0.00006285424018415142 -0.004076666292758269 -0.0005854734801431505 -0.0025620723136219326 -0.005190568405230245
          0.0036657296723854316 0.006536598277095962 0.0064136261921436954 0.006024210030788346 0.012149591516960712 0.01820350358399736
          0.005857259831486772 0.013269777508658542 0.02809527828393321 0.00006516979858739447 0.0012719309386732824 0.020163120339840024
          -0.003681074062917844 -0.009552373463817432 -0.02659760250555321 0.004890322982523898 0.004340448485638859 -0.006905973377681285
          0.0008170927342523449 0.0014121747043436272 -0.004656758874530098 -0.0004165027576421565 -0.0026870029129604234 0.0017331182854212202
          0.003026842725495804 0.008578096192911389 0.021139864441821032 -0.0020605308993122406 -0.0023419322420492605 0.03148372729303173
          -0.0031024751032759923 -0.004440002395015519 0.05107608723369417 -0.0019731862438243652 -0.006097632640152728 0.03511751312626954
          -0.0002017762323222455 0.017700264367494944 -0.00025870997272897656 -0.009218604053744361 -0.0027725109944876924 0.02580055948907123
          0.01087870578897221 -0.013823757883156818 -0.0019357741712829717 0.0037341956140648502 0.02031425234477982 0.005105991291080386
          -0.0022030793083700484 -0.003787628699414422 -0.004658482564184191 -0.007521893379820477 -0.003535810500676112 -0.0038911663099005928
          -0.0029062760494605183 -0.0018840639548220461 -0.002581339652494699 -0.005511522768851543 -0.0036893727658694406 -0.005869314001099437
          -0.0008369193244459339 -0.0012981754208018295 -0.0038099218738566892 -0.0035635979166962484 -0.00032040581325054607 -0.012400204796543579
          -0.0011791565197664944 -0.006029194010079064 -0.004337408421160371 -0.01946332016508423 -0.0014144243395133038 0.004911519163057987
          0.012382888401516912 0.0009748760612965368 0.004908689040391573 -0.011860802144523896 -0.009665421593206047 -0.00157659645767394
          -0.002465589871687268 -0.01701230964523781 -0.02187945898217858 -0.0022816980540552034 -0.0040262035557405845 0.025345451346882486
          0.013635861254769344 0.014124676942315784 0.008308799392354516 -0.0010000822638227547 0.005558620378090184 -0.0006099574193628721
          -0.0039693611260585016 -0.0051813150549056 0.010969966916305696 0.0018695274539832774 -0.007779314994698527 0.010562252334106681
          0.019313704252426955 0.012068629515450291 0.005937554953989066 -0.0007165321700260963 0.0036213157406481677 -0.000025465299701488142
          -0.0006540953790121207 -0.006435414874557621 0.005872663462198502 0.0020890943775302984 -0.0016891516205341794 0.006214508524755025
          0.014554793585250358 0.018005333939942414 0.009601322958390779 -0.0027099062786575256 0.0006716463064870837 -0.005950908757078377
          0.0008020767844565402 0.004869576640020412 0.009282245658038146 0.0029282500771395936 -0.007462085397145546 0.003678225985202066
          -0.014589733258461024 0.008384737448599244 0.005841098154320212 -0.004051213368188972 -0.001263454481110978 0.0015852460211341762
          -0.000735805400802314 -0.008270289469656786 -0.0032255618957510966 0.0017087763636626924 -0.0024760287408751858 -0.005529753265459014
          -0.002146108851264261 -0.000656476030747033 -0.004149607557734691 0.000030252957707310735 0.002710405272325689 -0.0010017709413148168
          -1.8050167146631921 -0.00015618750832147033 0.003223928982830415 -0.0009912000771772345 -3.44358004780308 -0.001088051090840314
          0.004595746081047514 0.003358949909418152 -1.2659602222826671 0.0024500764843028433 -0.010207993414591665 0.002900169890428961
          -0.014629264716682522 0.011476777887678535 0.010949019225655443 0.0008907613139792492 -0.0002772560456839601 0.03284469296097592
          -0.01858216022905146 0.002383739761579129 -0.0032171556382366573 0.03263297493858536 -0.003888436122637673 0.007795873880541038
          -0.0027856017081506756 0.0008092506351475848 -0.006062380219988395 0.01036849402368989 -0.018087022931171592 0.025993324726833827
          0.04091407671108771 0.012344475126587096 -0.040746589379986764 0.03985161872137705 0.06844464050122523 -0.0030685010020113923
          -0.02086431173251302 0.02195294026978184 0.03489098211906744 0.00018105797463817234 -0.0003551552184587817 -0.0019625390179526386
          -0.00037812236789892817 0.00020271537982090304 -0.0000571655914246294 -0.004463381310393297 -0.0010161441043793767 -0.000716478494133671
          0.0019038798644889082 -0.0020141456268630287 -0.000577310543189425 -0.002956950883876708 0.004272327911008511 -0.005064816523943971
          0.008088723333726844 0.003426136278239289 0.016089151094489496 0.0008510154477362475 0.0004925875672370239 0.014572611483748998
          -0.0060746666950881045 -0.001181042614609884 -0.009764617438029921 0.0009731124375008671 -0.00478862001421998 0.00029248685732086166
          -0.000928035066634969 -0.005943276955218901 -0.0005109492710111407 -0.005418142677287463 -0.01306452098979316 0.005562112658320184
          0.0019354545731451456 -0.005335771827644109 0.005619450387746028 -0.010835941072154465 -0.008301563208696128 -0.0037517895406458113
          -0.013351402341031368 -0.014548485604774314 -0.009912274058717002 -0.020957475026902594 -0.017163260961936516 0.012651774209210265
          0.024278113234895704 0.027463978802001465 0.03242916972458576 -1.2064831081136147 0.0003877688995048145 -1.5453267002322084
          -2.4542327828258204 0.0017342257729817123 -2.9445229926417014 -0.9759965155062632 0.00467745543068504 -1.1485808952672074
          -0.002431517851121598 -0.002546556351166851 -0.006443501298745954 -0.004801150877064342 0.010881180148838723 0.011390991954183693
          -0.0035745879622373355 -0.005398054970108035 -0.003765346758503235 -0.015753477004736116 0.0009143955246220248 -0.0038635217074246553
          0.000017243996743208923 -0.001442036924066012 -0.0027297045780389217 -0.00001947124877552109 0.004202539538529115 0.010146854606937712
          -1.367930393103362 0.001151008678396348 0.006987679870401817 -1.6503342108405294 -2.6653593237141813 0.0033085686207141585
          0.009733718562225234 -3.197305616843974 -1.2817255843115638 0.004311141918949768 0.003792010766880488 -1.4132480556622071
          -0.0006795612708201393 -0.0027701624943385905 -0.004452949986572086 0.0004970379701680905 -0.006709657139675196 -0.011359821041073803
          0.017592615553382762 0.013611849915386776 0.009273876757209254 -0.0016261413987725404 -0.0023140846227094336 -0.0041595732663919915
          -0.00013110335670440953 -0.0006801015804920318 0.0009767510432712179 0.0016082887668819046 0.004707532957498151 0.00005416764311494404
          0.0077060343298158696 0.019071759860240678 0.01878238998779813 -0.0035135510860283235 -0.01438731354659406 -0.009942044311028408
          -0.024455012149265418 0.017293842527674963 0.008881891034779765 0.0004967253998742205 -0.0031364147039742996 0.0058063708929033675
          -0.007142582467657532 0.010705561853658452 0.0034805057059255073 0.000042167220507233205 -0.0025598360709893388 -0.00032248174018197073
          -0.00015254595045804953 -0.0048025817426332815 -0.0006989338123931099 -0.000013918794853295946 -0.002021476627805772 -0.0002866599321179955
          -0.0010939727174954506 -0.0017404204270558277 -0.005300561750416821 -0.0025540955918614827 -0.003517146670899224 -0.0132937976969566
          0.006810730115719199 0.0029870772031413417 0.001347770562077577 -0.0021001765603267664 -0.0005534427074856962 -1.3217886566159995
          -0.004463667654842851 -0.0013781541882747494 -2.5753319381233735 -0.00020116252973592652 0.00149451594276101 -1.069897495963446
          -1.2646217209328425 -2.5177754510698023 -1.193671753153855 -0.000021313623041238627 -0.000806838834817511 -0.00352164699942048
          -0.002092312345791188 -0.00018189004213742602 -0.0017764351985420368 -0.007080532776685189 -0.004245299764720673 -0.00008524745441013115
          -0.0008257947785230077 -0.0036114886674139257 -0.002172776917950571 -0.00018334410746478902 0.007109107494952749 -0.003707762212849408
          0.011406792084929118 0.004082397730131304 0.011751717513307058 -0.0023087910184739074 -0.0005578309265788922 -0.004572277097699043
          -0.0011559793073046762 -0.002231246473446656 -0.000501211367203172 0.0068797468457500455 0.0026516338405054435 0.013937236425333788
          0.0028844149909953015 0.009859248484498762 0.012731019041652686 0.031344652194878364 -0.03217378788332992 0.04387541408576823
          -0.04867392070214693 0.03155532682440665 0.009363602126670978 -0.0033281640157618447 -0.006481832645622396 -0.003139043268557587
          -0.005669777648103613 -0.009804365290770445 0.006354500546919883 -0.045754652835329424 0.031821347770628394 -0.07833126518734024
          0.04250558759597445 0.002077093667459118 0.029378229536517697 -0.006486514409139499 -0.01405333565097866 -0.002474853282250278
          -0.011762068574998619 -0.030506270222969978 -0.004810268124123697 -0.0006850945847380607 -0.001365955102332575 -0.0003396091958547051
          -0.005316422527690934 -0.016071167866668068 -0.007458768998054532 0.0009382847520233994 -0.02480629444377125 -0.025985112244995445
          0.0030459150333177615 0.005374779439763833 -0.006221655754019034 0.04484746233248327 0.06965388496757807 0.031797475665998
          -1.3131524567081714 -2.493628483576524 -1.1000626893459493 -1.6975580733490285 -3.2680552911011342 -1.1720877714066715
          -0.007359264155249706 -0.014244565595082165 -0.006972242882862495 -0.0007224195966123569 -0.0014551939165388383 -0.0007544841809742631
          0.005523795856764657 0.011932594334612912 0.007487937116976262 -0.0010497668527773563 0.001739182315986465 0.0031136040541150933
          -0.003122705999890396 -0.012510025036250205 -0.007141321641864984 -0.0004018915328245498 -0.0074922250077031904 -0.0018621822909592467
          0.0020393464340591194 0.007365450738913815 0.013756074886943637 0.0019364713374265818 0.009035512837116677 0.024836802229581956
          -0.006513594223189756 -0.0044316747465869 0.028868255880760252 -0.008242019706733217 -0.0015835591670354532 0.03836955772093997
          -0.018415789785202197 -0.03359572415406742 0.00808072995899245 -0.009100251435909534 -0.004988044709682338 -0.016287193805751388
          -0.008875760964304258 -0.0027961303245269686 0.0008816506828305815 -0.004936467029418523 -0.029016645786061 -0.013533247457296893
          -0.002115322087906879 -0.009093898211323838 -0.06999894501772275 -0.015216515471496939 -0.0044214318402922 -0.005496854879496249
          -0.04550049719103377 -0.001078340887510798 -0.0016438184298039893 0.016390066432310002 0.05739888313686803 0.048906475305598995
          -0.005091689531718124 -0.01032575506598854 -0.0023068747447005933 -0.03422033738643787 -0.07428978743050785 -0.038392296595874675
          -0.0018110716455943532 -0.004386268441894714 -0.0013935734529404442 -0.010907315916663052 0.011262975454130242 0.002936273192972294
          0.0036345182992061353 0.0073418558616609175 0.013763518999945212 -0.0011084364644142752 -0.0011798322740759204 0.009616521273821732
          0.0006888736534307327 0.0006393267697610838 0.014350055520168326 -0.0015027366856124047 -0.003039243118827528 0.01340799717432617
          -0.008016677245316295 -0.018650505835120512 0.005589288841417961 -0.014645655953096082 -0.030267245751812055 -0.006614300667338924
          -0.009719641969596182 -0.013678726363092863 -0.0052928938688241445 0.06099731581590184 -0.010941162514543024 0.027058914229646902
          0.10713987473477538 -0.0125904108771282 0.05133218474086476 0.04291893599331997 -0.0011580340498089647 0.020480277098115618
        </DataArray>
        <DataArray type="Float64" Name="resid_y" format="ascii" RangeMin="-0.11083772084596122" RangeMax="0.06731830874958278">
          0.004143743912489353 0.001895509078390853 0.00551377522869298 0.0016704481025075213 -0.0005966576200989969 -0.0007010462643760752
          0.007385948355161057 0.0024716921456642005 0.013091300434555003 0.002541353931097466 0.005113366395112728 -0.00030412754608817594
          -0.0034912713974328546 -0.0021424048030918505 -0.005853981380078949 -0.004156387988438204 -0.0013220211717990815 -0.0031023549318114907
          0.00350107468958262 0.00015307963157686066 0.00966780398133038 -0.006026335303003477 0.004198424372553133 -0.005328622654855064
          0.0019089075323348303 -0.0004870530038975085 0.005679644170447223 0.001730779058052384 0.0014989990003606013 0.0016692696783910943
          0.0027372651717864627 0.0003617740263148206 0.0065834800307052466 0.0004060740490977044 0.00031620284919609 -0.0016876741939876871
          0.0017594502346873764 0.0004377517724853397 0.0045873307443565214 0.0007881423432615775 -0.001641188202426036 -0.0019146011717087186
          0.0012048111507169112 0.00047231397287389454 0.0032294662939234553 0.0011916175140684881 -0.0032160737222921565 -0.001992569490221141
          0.0011712661816444814 0.0009318144383866911 0.00429005763804291 0.002921011329742651 -0.0038440234629907866 -0.002032706064997003
          0.001973231715269641 0.0004579298111584418 0.006756284686711189 0.002529329567025229 -0.0057922615788237874 -0.0014199444183680965
          -0.00932833413387145 -0.019690877921971717 -0.015167888139115043 0.010056069570559989 0.020197669458281078 0.008250823727726765
          -0.00785542321035479 -0.013934983481117737 -0.005331330837476306 0.00559269750736726 0.017159595411619558 0.00290212093856676
          -0.0012696249795733083 -0.00017158247780818536 -0.0013977892798770486 0.0006379648633303425 0.002887445660537641 -0.00132416238466726
          0.0007739139926381533 0.002849914215254379 -0.0023550897389504333 0.0011572690478354741 0.003045021049939811 -0.0030242729934788493
          0.002598879853288938 0.006711243753119989 -0.0006951494404992542 0.006277458037325087 0.013957611568207018 -0.002451950992388263
          -0.024601953324503142 -0.045739030174895765 -0.02461943130024548 0.0035292210395364843 0.00732889907957833 0.0015619201520960801
          0.0011589512664800378 0.004519440509059863 0.0051239450350917815 0.004189001208881283 0.010416357746954784 0.004594306179478536
          0.0012087286941651343 0.004265721348591087 0.0010260844569451033 0.001393035265909781 0.0041421208403539245 -0.0003228526033803858
          0.0014694890501010804 0.003953764882923649 -0.0015323545404117844 0.001428678498268221 0.0038499366561534076 -0.0017858108954719731
          0.001990285038584727 0.005237659863145422 -0.0008030588073641293 0.002628289366296055 0.007859224043960444 -0.004703865745830427
          -0.01201673086879898 -0.013705926422554818 -0.0009454120366540475 0.01823106681987957 0.02267600547774977 0.006845731343960562
          0.01939302165924542 0.049133755427332615 0.012754122873820842 -0.00012011520323592338 0.0031355444078764866 0.0005788777440220993
          0.001351551761639605 0.004643780408668335 0.0016884805114324442 0.0010673980343429146 0.003371583023388136 -0.00010160211221191262
          0.0012799916137352652 0.0032536979508185904 -0.0012920113796487664 0.0016091214661517472 0.004304766004555871 -0.0008346900042293659
          0.0015923589643171698 0.0044938070420044995 -0.0011274855166018977 0.005040569697566832 0.009659958004834213 -0.0036821569467186954
          -0.001748235580686902 0.0005512989183391603 0.0020989288970699183 0.008332042892956415 0.00785500761589103 0.0017685683968021865
          0.00973576770762763 0.007165477294360276 -0.0018064969800056126 -0.0003955811044812274 -0.0013231950469601295 -0.0013322514885576939
          0.0009328290845638104 0.0029635114172390925 0.0011231265283502684 0.0009450821603264603 0.0028565664065525603 0.0002030008903152608
          0.0010862103870863116 0.002606468718877708 -0.0011107373775085527 0.0015688896182528833 0.004047396923757995 -0.0006132654817562616
          0.0023114738016124237 0.0057104531845241085 -0.0008184923063982996 0.001834084964429994 0.003487972964336783 -0.0034411496509522133
          0.011722352272186182 0.03920295353711306 0.01433356685826015 -0.003304856832009345 0.006796044753142785 0.006380072657594202
          -0.002116893699546287 -0.0023420269874929733 0.0006340364244030033 -0.002046386309902762 -0.003836827987263605 -0.0014597581563206424
          -0.0005027058629277076 -0.00040160518595883446 0.00011727238523159822 0.000898563517444953 0.00216356050181947 0.000006990427701440358
          0.0008765791538495327 0.0021108943892183263 -0.0010508787531251784 0.0015795996813789959 0.00372063828915712 -0.0007812785645277126
          0.0017871358096457415 0.0044599029265586475 -0.001660164739924877 0.00409406357614972 0.007527276703085228 0.000998019438722464
          0.0013865981601439703 0.025941507251633023 0.026057202398129864 0.0014273191135110424 0.013410818760781543 -0.0019854407488622064
          -0.0034185551716985826 0.0005356538764396471 -0.005368052036869575 -0.008243073382229533 -0.013402552753383699 -0.0045701750474968494
          -0.0010976042994988375 -0.0017293597590088447 -0.0009037679119873882 0.00010793212789751358 0.0003389675377754968 -0.000734896220641601
          0.0009876475384481623 0.00200282865260425 -0.0013971517329998268 0.0016683950095363817 0.0035967187033813727 -0.0015666779424165223
          0.0018806812441139673 0.004107192288617931 -0.002822826469048627 0.0011523896237169984 0.002114235853193369 -0.000657403251796862
          -0.05538392200620801 -0.0796466274139791 -0.02220761592283066 -0.027357572766667726 -0.06246118064999928 -0.024112459405065567
          -0.012289857559110051 -0.028738773268326634 -0.022466326037939854 -0.002558545303058303 -0.009073586773186036 -0.008409952041180141
          -0.0024617592593774106 -0.003502647002567409 -0.001582692029540811 -0.0003486858576435513 -0.00024130216905298568 -0.0010350029030386787
          0.0014743090161373623 0.003115332052036693 -0.0016037136510545502 0.0016898261234468692 0.003466936634233947 -0.0032900463514668604
          0.0018471162671550023 0.004006042850325894 -0.0044213590611844045 0.0009633361368082127 0.0012609118304408584 -0.0017215582445565258
          0.0035920444801565976 0.003991119810750288 -0.00397336088741429 -0.0007559783798722908 -0.002571248757180733 -0.003788607811542999
          -0.0031477562736557108 -0.0061171451870172255 -0.007457645774293753 0.001205048618144522 0.002421524771964001 -0.0036260063999746517
          0.0006030012808222185 0.0020271074094544705 -0.00126065634188538 0.0024332660605452805 0.00513951690596981 0.0015338593121153599
          0.002004044003869332 0.0031272240865758416 0.0037150028521348855 0.001973089095837377 0.0032691567655134257 0.006448059349341229
          0.0011153608366527195 0.0022979289252528998 -0.01762306749199402 0.016699039440087438 0.0019342763401016018 0.0034944278828500375
          -0.021354780054885752 0.031770794036380334 -0.00022858927130678386 -0.005314670269118027 0.0038336587580478088 0.024655856963930495
          -0.0012949819493472126 -0.0007714173073955447 -0.0027454352318229125 -0.0013812267949965817 -0.0018808635481496958 -0.0003256324534403887
          -0.0008101054471275904 -0.00036106853152271905 -0.0005959668104979915 -0.0011370360336697624 -0.001055748367576402 -0.0015486677401038151
          0.001866240594704506 -0.0007714740097314599 -0.0010178359936124093 0.0020582145551213404 -0.0013342707776229368 0.016534860236172483
          -0.001108490135728113 0.005084278893078498 0.0013446120124318561 0.02805524201110099 -0.0009673058974838389 -0.0007774958168976775
          -0.0028201505285242456 0.008116407771225895 -0.003247004704091644 0.004388589145570387 -0.008540350239625183 0.0016933616186691237
          -0.0007564790520357134 0.004039785590937539 -0.01823284383480217 0.006096897084602981 -0.0018355859181051204 -0.000635920442820348
          -0.0027841693408450774 0.017087951411501323 0.001960262275522262 -0.0038479455075912106 0.0026409573577527157 0.0027389860978805913
          0.0017376536588089853 -0.006816938720304033 0.006897535460151039 0.00601827555253398 0.0035766395864666456 -0.0073916419794129995
          0.0019357857336924078 0.0010794012165541433 -0.002649117531859549 -0.0047136456661224235 -0.003797140211150185 0.010437583510992277
          -0.005234004874052622 -0.009268295746001354 -0.007175475336159032 0.01807064014733273 -0.011363225464372073 -0.00478213157555446
          -0.004475247455037801 0.006527790454849393 -0.00476093717519413 -0.0009105099984094422 -0.004719500551785383 -0.0022208430951070057
          -0.00867901647443281 -0.0002306229529464368 -0.004952370350096658 -0.0011452061743745245 0.0001154529018878303 -0.0007704027628980883
          0.00040786067629672296 -0.0014793170711948495 -0.001246384094109848 -0.0033539473904527746 -0.002355096193906961 0.001935908659867397
          0.0035914699295018226 -0.005851358607004142 -0.004854190233635508 0.0011965717466940612 0.005601698251190668 -0.0019561512984096474
          -0.002546147099872609 -0.002048251409555474 -0.007811222553025576 -0.0027120935737126465 -0.004707157750509894 -0.003921827578785024
          -0.0028304438351965944 -0.0045944150010918125 -0.0068803070455147886 -0.005321478280234383 -0.00427291504734173 -0.004410198292171895
          -0.005562161011060829 -0.00538330095100956 -0.0043727223493548115 -0.003883601787574853 -0.008696367817948691 -0.003315084732886775
          -0.01285218577921271 -0.0017730575039037744 -0.008480538425201467 -0.00045764421633787133 0.004117517879289906 -0.003984669279847142
          -0.007633999264391539 -0.004217541866620822 0.004895923736940783 -0.028730561164261703 -0.01113696998435762 -0.009659998560116567
          0.0020572523355750216 -0.020205091049863733 -0.003557646027300243 -0.056653357311106545 -0.03239155127521598 -0.0060175326953108565
          0.027548125069542344 -0.10777064359803767 -0.06239321565330114 -0.010786126190232947 0.0569957727904737 -0.043632395604852325
          -0.030156887369883423 0.00014419316278052596 0.028283166870404074 -0.000025053386289594637 -0.00043533622239566583 -0.00026208718759405947
          0.0001126953853562724 -0.00020950191764484982 -0.00048565142954331425 0.0003646860609018421 -0.00038926345417675604 -0.00019264279400740825
          0.0007915515055512412 0.0015984111350797713 -0.001314793634975147 0.00031950081016762777 0.0054699217415690865 -0.0003669779454887889
          0.008524605812902042 -0.0014878663849509643 0.001225445516076909 -0.00025188489960564775 0.0012052917312338485 -0.006598245284205939
          -0.0041662398949675605 -0.0002014875288787188 -0.005874588106031697 -0.004242567798571406 -0.005617539913521902 -0.0008800515027702627
          0.0010882654796935398 -0.005289225031460287 0.0021953447793295958 0.0001916678604047678 -0.010584679398332464 0.0005686070205401378
          0.012911359901726024 0.003643237122388343 -0.0008024850359369395 0.0013553031150909806 0.010219790379725757 0.018046010462072992
          0.0064131415805400716 0.005829299455688441 0.022457348264844912 0.032826786169072975 0.01695609076929186 0.006462966288579952
          0.018881827333911305 0.028990287260780567 0.01198377026064261 0.00015607292904995518 -0.003178126536694248 -0.001406705002657771
          0.0011993718670274545 -0.003880963228174855 -0.0018801177680727171 -0.0007115803244437391 -0.004905718409008102 -0.0029488909131768944
          -0.00414965049023578 0.005342182623604863 -0.007230270069077701 0.009598615848000258 -0.001219384961991088 0.0026806501223727297
          -0.0009091736217073931 0.003159894108531347 -0.005795241927590178 -0.0019686118057837265 0.0014838488477018075 -0.0015277876508508204
          0.007339818913634888 -0.010947796979782876 0.009897313502745808 -0.022752116995316762 0.003796575706195182 -0.008686674405225457
          -0.0008428687883343632 -0.0012510786211116787 -0.0018814337847475882 0.00020316660472951414 0.0003639734383434484 -0.0012869802708418976
          -0.002479981808398035 0.0017193751392533055 0.00039610336659898215 -0.002926996559667522 -0.002828835142988706 0.0013321691142569522
          0.003364108059436155 0.0045959380966326124 -0.0008349961052412924 0.00882680163093763 0.0077966151293728525 -0.004001214648103157
          0.0034829598294165917 0.004335155480964359 -0.0037651093057967377 -0.001579092072299837 -0.003816517546653242 -0.004633165109332288
          -0.009257344442531623 0.0009702791027299124 -0.0028249923252674503 -0.0005304276195116087 -0.005243414789009249 -0.0029013316427816127
          -0.009516022146855596 -0.0073248082614083 -0.008413459558096026 0.006354133475962698 -0.005819269116606379 0.01121990174217602
          -0.001287559893245055 0.007302206194543165 0.004679848740965276 -0.0033758686748467798 -0.0010990086057823811 -0.005715081833876534
          -0.00451570119875111 -0.00043709285407272924 -0.0014906949805337244 -0.00031609186987374693 -0.00007296961480328205 -0.00023342535630347175
          -0.0008042835548091329 -0.0003974547212451905 -0.0005016339134376463 -0.00042034704289235347 -0.00048195577010454876 -0.0002014392539642744
          0.0005428931303189666 -0.0016057374248636958 -0.0023423606130119623 -0.000171120679450798 -0.005927659116649275 -0.0056960565460129065
          0.0021714119160612944 -0.0030915793766250754 -0.0009729172496231175 0.00011959262403879456 0.0017968276802016042 -0.00013135976834822288
          0.001039504993207263 0.004241564579452045 0.00007398247770215582 -0.003144384896966196 -0.003201416514240843 -0.0011539717645013894
          -0.0007715107450624731 0.0005633269879254544 -0.0007674447016724137 0.000036029714095020884 -0.00021188371496089903 0.00009158193175120427
          -0.0006221453529949707 -0.00010327819509299216 -0.00048663383006691124 0.00021227253850809175 -0.0014374053880382986 -0.00019347283411036073
          -0.00016699912872847333 0.00024907691162782963 -0.0008592868993561112 0.0006156128073661546 0.007400941593275534 0.0019358643963251418
          0.01369228356002361 -0.0016504023656682548 0.00020112916102099643 -0.00006278455033700836 -0.00035256928733455074 -0.00019854397027380816
          -0.0007967372058776089 -0.00014573387285690687 -0.0005255960839407117 -0.0012017950400522448 -0.006562536579524769 -0.004047051058265583
          -0.010210985694386165 -0.008167600766516625 -0.010893904329767112 -0.018939486318163 0.02745049005875777 -0.036589570839727636
          0.04803464937507085 -0.016668867370855933 0.019188617994317814 -0.002154236022919212 -0.004073071724489993 -0.0018316473165802503
          0.0038522279261612447 0.005957315689205878 0.005104015213720503 -0.011551407844947459 -0.006667822952141911 -0.017140279153726068
          -0.012305727972555691 -0.0019729088422345553 0.0014917176063946602 0.0070710245004237116 0.012197959812786138 0.0037174493776307993
          -0.0028115791736004064 -0.006754423316556816 -0.0036183210385555 -0.00010086036559279273 -0.00042069000426216314 -0.00036119166485389445
          -0.001207432690498944 -0.00666245620087319 -0.002417739872159763 0.0022484246567517005 0.013721722417646989 0.011258082170860995
          -0.001611703955667454 -0.01661282349944891 -0.005351391215342893 -0.0033742917678099005 -0.01079241163593031 -0.009506179721832986
          -0.0204682672992076 -0.03927876679623015 -0.022090161091261534 -0.002113135140765804 -0.003983578325209791 -0.0023374605241238133
          -0.0020014935393882355 -0.004058458894679193 -0.00220111008024286 0.0005256621588716533 0.0007716424606413336 -0.00045755992739720044
          -0.007693513051988399 -0.014639149541703533 -0.006906364287381228 0.0007952020820647665 -0.0002792731213427102 0.000014727300664402199
          0.00371303641654791 0.0040505415785612175 -0.0035477973122028383 -0.008771063529219636 -0.015323168175765622 -0.006375247568683573
          -0.003978036069325008 -0.006040879372100627 -0.006548179601582493 0.0014414627814299807 0.00442761506467082 0.0017120231404154085
          0.0019629238445589836 0.005851826826563267 0.003554272647521728 -0.0021418239597197353 -0.00019783341965484702 0.005109589387894076
          -0.0036246816286700234 -0.004814615573104475 -0.005119250734903158 0.0011642508364479998 -0.00047948290940769134 0.0013371376120239198
          -0.0017335349691285362 0.0020649885308439975 -0.0010683533185793515 -0.0019068277816087775 -0.022396455140928168 -0.02463674343025568
          -0.004058059437420408 -0.004705858604491908 -0.050796453928439234 -0.03732922838822089 -0.008250710585593624 -0.001999152552997041
          -0.0307164126529188 -0.014567891875336025 -0.004099794578127147 0.0163493095400902 0.02907043162784274 0.012115167587330056
          -0.0003907893003418095 0.0011893040908932395 -0.0014085658835831238 0.017214656037515874 0.042386489535747474 0.02606407605184874
          -0.00471708001628468 0.005162676899029717 -0.006683466253069481 0.008774809119116989 -0.0025466203456386283 0.00481451398013788
          -0.004048173598802718 -0.011236406122628217 -0.008235869669752205 -0.005032984421755038 -0.013294832561440706 -0.007549826390553793
          0.004745554359732784 0.007370670219658315 0.0023721492873352013 0.0060598284240068745 0.00895765912638935 0.0023068969617084933
          0.0017302996242838375 -0.00019664068709390747 -0.0014882434297667224 -0.0008663840069971229 -0.0032593204939357356 -0.008372435906716102
          -0.0029822463245987585 -0.005637807720177523 -0.0047748407225638445 0.03518136314644049 -0.005139516731194747 -0.061764916649149404
          0.06731830874958278 -0.009343641603016331 -0.11083772084596122 0.030603687305622462 -0.0051255287243206354 -0.045243274649792053
        </DataArray>
        <DataArray type="Float64" Name="resid_z" format="ascii" RangeMin="0" RangeMax="0">
          0 0 0 0 0 0
          0 0 0 0 0 0
          0 0 0 0 0 0
          0 0 0 0 0 0
          0 0 0 0 0 0
          0 0 0 0 0 0
          0 0 0 0 0 0
          0 0 0 0 0 0
          0 0 0 0 0 0
          0 0 0 0 0 0
          0 0 0 0 0 0
          0 0 0 0 0 0
          0 0 0 0 0 0
          0 0 0 0 0 0
          0 0 0 0 0 0
          0 0 0 0 0 0
          0 0 0 0 0 0
          0 0 0 0 0 0
          0 0 0 0 0 0
          0 0 0 0 0 0
          0 0 0 0 0 0
          0 0 0 0 0 0
          0 0 0 0 0 0
          0 0 0 0 0 0
          0 0 0 0 0 0
          0 0 0 0 0 0
          0 0 0 0 0 0
          0 0 0 0 0 0
          0 0 0 0 0 0
          0 0 0 0 0 0
          0 0 0 0 0 0
          0 0 0 0 0 0
          0 0 0 0 0 0
          0 0 0 0 0 0
          0 0 0 0 0 0
          0 0 0 0 0 0
          0 0 0 0 0 0
          0 0 0 0 0 0
          0 0 0 0 0 0
          0 0 0 0 0 0
          0 0 0 0 0 0
          0 0 0 0 0 0
          0 0 0 0 0 0
          0 0 0 0 0 0
          0 0 0 0 0 0
          0 0 0 0 0 0
          0 0 0 0 0 0
          0 0 0 0 0 0
          0 0 0 0 0 0
          0 0 0 0 0 0
          0 0 0 0 0 0
          0 0 0 0 0 0
          0 0 0 0 0 0
          0 0 0 0 0 0
          0 0 0 0 0 0
          0 0 0 0 0 0
          0 0 0 0 0 0
          0 0 0 0 0 0
          0 0 0 0 0 0
          0 0 0 0 0 0
          0 0 0 0 0 0
          0 0 0 0 0 0
          0 0 0 0 0 0
          0 0 0 0 0 0
          0 0 0 0 0 0
          0 0 0 0 0 0
          0 0 0 0 0 0
          0 0 0 0 0 0
          0 0 0 0 0 0
          0 0 0 0 0 0
          0 0 0 0 0 0
          0 0 0 0 0 0
          0 0 0 0 0 0
          0 0 0 0 0 0
          0 0 0 0 0 0
          0 0 0 0 0 0
          0 0 0 0 0 0
          0 0 0 0 0 0
          0 0 0 0 0 0
          0 0 0 0 0 0
          0 0 0 0 0 0
          0 0 0 0 0 0
          0 0 0 0 0 0
          0 0 0 0 0 0
          0 0 0 0 0 0
          0 0 0 0 0 0
          0 0 0 0 0 0
          0 0 0 0 0 0
          0 0 0 0 0 0
          0 0 0 0 0 0
          0 0 0 0 0 0
          0 0 0 0 0 0
          0 0 0 0 0 0
          0 0 0 0 0 0
          0 0 0 0 0 0
          0 0 0 0 0 0
          0 0 0 0 0 0
          0 0 0 0 0 0
          0 0 0 0 0 0
          0 0 0 0 0 0
          0 0 0 0 0 0
          0 0 0 0 0 0
          0 0 0 0 0 0
          0 0 0 0 0 0
          0 0 0 0 0 0
          0 0 0 0 0 0
          0 0 0 0 0 0
          0 0 0 0 0 0
          0 0 0 0 0 0
          0 0 0 0 0 0
          0 0 0 0 0 0
          0 0 0 0 0 0
          0 0 0 0 0 0
          0 0 0 0 0 0
          0 0 0 0 0 0
          0 0 0 0 0 0
          0 0 0 0 0 0
          0 0 0 0 0 0
          0 0 0 0 0 0
          0 0 0 0 0 0
          0 0 0 0 0 0
          0 0 0 0 0 0
          0 0 0 0 0 0
          0 0 0 0 0 0
          0 0 0 0 0 0
          0 0 0 0 0 0
        </DataArray>
        <DataArray type="Float64" Name="stress_zz" format="ascii" RangeMin="-111973086.12325591" RangeMax="195864520.7255955">
          1625167.207616188 2234227.503552029 1404114.8683666023 1920146.2862266428 1183062.5291170166 1606065.0689012562
          1301290.186026429 1905867.2456581024 983851.925297107 1373912.6789994286 666413.6645677849 841958.1123407551
          -1066553.4880790205 -718364.1414489796 -855649.1370905887 -720426.5482449625 -644744.7861021567 -722488.9550409452
          -3455185.3162231473 -3526909.166624943 -2430877.0556844585 -2542574.0040933304 -1406568.795145769 -1558238.8415617181
          -3404459.700211033 -3759082.774200498 -2344178.1296069687 -2625215.4405479277 -1283896.5590029045 -1491348.1068953571
          -1756965.2868219004 -2093577.1598802228 -1008696.3735027483 -1277165.9955733402 -260427.46018359635 -460754.8312664577
          743330.6497261599 354853.68778553896 929041.9455361844 514407.32932575716 1114753.2413462084 673960.9708659751
          4303197.731498402 2931678.7349058352 3336427.938782681 1618142.1560747805 2369658.1460669604 304605.5772437259
          8103777.342187872 7409893.212467891 5935061.652636775 5286974.972985882 3766345.9630856756 3164056.7335038725
          40325468.160448454 13872143.131700005 33653522.26065319 9900588.562587705 26981576.360857923 5929033.993475402
          891210.9202971938 706002.5558853113 520794.19147342886 -284110.14213777863 -95812.01243077073 92486.11727623723
          -1985053.8143150993 -1390754.9394485226 -796456.0645819459 -2854182.427673801 -2031832.0938101746 -1209481.759946549
          -2438901.575606838 -1652489.544157886 -866077.5127089336 -864667.046669457 -258825.0622757549 347016.92211794714
          2082020.7660182528 2336003.038847857 2589985.311677462 5995946.95447633 5714817.767641499 5433688.580806667
          8540914.942931151 6682284.931463892 4823654.919996631 -1210928.9031767384 -3653549.0022490793 -6096169.101321419
          807866.8566340816 429443.90579328337 51020.9549524851 -2049643.2189077712 -1390626.6933715246 -731610.167835278
          -3120976.37507127 -2154041.631461182 -1187106.8878510944 -2114922.9161040722 -1526902.5485009132 -938882.1808977537
          -1372850.2470931688 -860434.986360916 -348019.72562866344 552087.4020852002 975822.7544804446 1399558.106875689
          3967211.318314641 4289312.874340456 4611414.430366272 6215961.805008784 6618932.9425872285 7021904.080165673
          3290021.6476573027 2263678.1953207594 1237334.7429842162 -2252474.9855179084 -3332416.121395637 -4412357.257273365
          400040.9098881228 -28523.901725933392 -457088.7133399896 -1961565.2085778823 -1255385.3945810725 -549205.5805842623
          -2924183.2945180866 -1797526.490437307 -670869.686356527 -1848856.6837230898 -1184418.0328100196 -519979.3818969495
          -503890.1291552614 -110471.17897419153 282947.77120687824 2214989.002341198 2409634.826161805 2604280.6499824123
          5722197.434861891 6037173.786673467 6352150.138485043 5758954.068422898 6690645.606819428 7622337.145215957
          -1558545.710663428 -2219930.560696947 -2881315.4107304653 -4594245.319088394 -6702934.66989501 -8811624.020701628
          -2030756.7463153726 -1264099.0686968775 -497441.3910783818 -2247673.2916267635 -1272213.0253586655 -296752.7590905671
          -2628414.517735752 -1460963.2992244859 -293512.08071321994 -1824987.43151014 -1011699.2250592434 -198411.01860834684
          331400.74989556876 633004.062142267 934607.3743889654 3656551.8686750196 3602975.1461834577 3549398.423691896
          6985435.052636063 7120805.747907396 7256176.443178732 5751224.805866767 6622283.255605379 7493341.705343992
          -2318492.642598253 -3324524.613186535 -4330556.583774817 -21134605.122138113 -24211491.00141798 -27288376.880697843
          -7172755.373716338 -4235875.837050108 -1298996.300383878 -4803512.030489948 -2790882.5524947084 -778253.0744994696
          -3667708.9100278104 -2140487.82792504 -613266.7458222699 -1785519.4401829694 -843296.7355837579 98925.9690154537
          1133991.6052751741 1329356.9971981067 1524722.3891210393 4651743.853787387 4309411.844636987 3967079.835486587
          7864424.192723395 7550101.447169388 7235778.70161538 6366775.197616179 6418567.520314576 6470359.8430129755
          -2657225.948404095 -4442664.854382658 -6228103.760361221 -8049373.069279329 -13191852.158494141 -18334331.24770895
          -11598559.255018096 -6619496.607874545 -1640433.9607309927 -7365143.482957049 -4341009.46761612 -1316875.4522751905
          -4385407.172191459 -2753175.338248603 -1120943.5043057469 -1479232.680641356 -682750.0229797439 113732.63468186812
          1853024.580712125 1820103.6974354407 1787182.8141587563 5266540.333178756 4579788.26138281 3893036.1895868643
          8302028.114040404 7372084.45966164 6442140.805282881 8079293.995133899 6939306.29781349 5799318.600493082
          1365617.4655410096 -1176976.056010507 -3719569.577562024 -2589457.754196652 -5858445.677283192 -9127433.600369735
          -14460533.957839891 -12447152.82044809 -10433771.683056286 -7469684.930538287 -7911931.720984948 -8354178.511431608
          -1670273.7509280506 -3695122.045651964 -5719970.340375876 1109060.861544673 -984568.2529676234 -3078197.3674799195
          3762547.5575223747 1885254.7793923179 7962.001262261765 6115356.245598014 4893102.622026437 3670848.9984548585
          7184505.843871285 7183722.820873293 7182939.797875298 7756956.929062754 9236390.453286832 10715823.977510914
          4989306.438434893 8003463.536938125 11017620.63544136 -5764506.556657221 167252.66271532 6099011.882087862
          829120.0586611396 -3277740.286672418 -7384600.632005976 2983077.2513809493 -522027.35117429076 -4027131.953729531
          4729026.236621079 2180019.5750199305 -368987.0865812182 5824148.4435866885 4768684.63618606 3713220.828785433
          5362750.986525821 6409112.352482855 7455473.71843989 4558767.385300635 7816559.297305154 11074351.209309675
          9224006.140160449 15408706.619641405 21593407.099122364 4513220.297589969 11488246.055686722 18463271.81378347
          -7696634.6586631555 -44598375.43401716 -32472180.053985726 -9559675.61969873 -11147966.044126213 -41136630.70252698
          -25656000.3062286 -10732196.409886114 -14599297.429589272 -37674885.97103682 -18839820.55847148 -11904717.2000735
          24610115.88621072 20129249.571692757 15120639.163970243 14301829.788056443 5631162.441729767 8474410.004420133
          24866724.9179591 51158138.54136221 63822465.11317419 16248498.78365378 33836449.79681399 48312646.480716795
          7630272.6493484555 16514761.05226577 32802827.848259393 25953671.315046992 12921534.310814101 85224947.43855679
          26119882.102035373 21827272.672079965 10138433.334586643 75332642.9602938 21502486.060756654 17700874.02911294
          7355332.35835918 65440338.482030794 16885090.019477934 -17767086.058905747 -40206678.340845965 -50929759.29422889
          -49722130.93330703 -9856881.589830985 -28338950.578252725 -29545359.185873717 -25167300.371433668 -1946677.1207562163
          -16471222.815659488 -8160959.077518554 -612469.8095603213 10466409.81659238 4214806.1632113885 49591133.46570089
          12415811.486945776 11351391.471137023 2387088.836557987 45570702.45265828 11699639.102847598 12236373.125681661
          559371.5099045858 41550271.43961568 10983466.71874942 -25237008.11924457 28637175.34547598 -9753318.386884235
          -22142163.954290442 -20552842.88434587 35024604.22541714 -5659688.955509107 -17171928.42718614 -15868677.649447178
          41412033.10535829 -1566059.5241339803 -12201692.900081832 -539598.5780526344 -1897108.916799374 6950009.952333353
          -3587296.9201291907 14439618.48271934 -5277484.923459008 38288644.84858907 5416498.757542653 36663347.51172449
          -592721.3543945048 35038050.174859904 -6601941.4663316645 -17227931.52530948 24323808.849624243 36924341.77768963
          -76757577.67908616 -9979772.037889073 15550639.55368513 9651060.182995258 -57565395.14423096 -2731612.5504686646
          6777470.25774602 -17622221.411699105 -38373212.60937577 44655762.56619789 61313876.184033945 22794255.226291113
          5400126.005737327 33211147.631440647 53540181.71479426 18761540.51287012 -305799.81757379946 21766532.696683407
          45766487.24555458 14728825.799449135 -6011725.640884931 -96028311.51850383 -57885021.60684033 -89474322.46430384
          -55870328.5171955 -82920333.41010387 -53855635.42755072 -23531996.385790903 -9581861.815795107 -1761786.687524849
          -3602794.6705238214 -20566001.353207413 -6646457.937424806 -1157117.3688944874 -4560649.756776358 -17600006.320623912
          -3711054.0590545014 -552448.0502641252 -5518504.843028896 100642638.17189863 195864520.7255955 40643747.00515051
          35852959.36288754 75797182.3834021 169835714.19561824 38104614.24307357 27677365.519677676 50951726.59490557
          143806907.665641 35565481.48099663 19501771.676467806 93459483.84094615 78761463.12271966 73231472.90349117
          97996377.54014705 50237670.93642178 38013800.61724283 47607730.33841783 64581199.13470443 7015858.031897419
          -2733861.888233999 21983987.773344483 31166020.72926182 31836224.842155784 -14191489.052348528 41473629.703118525
          -7114891.673318617 51111034.564081274 -38294.29428870231 6218599.06770817 5661186.148111946 5103773.228515725
          -42619308.336821005 -59737632.03060965 -28352649.234057754 -52374021.29251547 -14085990.131294489 -45010410.554421306
          -58405891.431130484 -68089973.99698363 -57700775.12181546 -40089723.39222636 -54386002.24137196 -51988125.73209275
          -21773555.35332223 -40682030.48576031 -46275476.34237006 -14592672.354938533 -3544888.039127673 53653983.817776404
          35097285.341962524 -39664573.13232163 -36488784.487039775 49977733.17342416 27903863.950332165 -64736473.90970473
          -69432680.93495187 46301482.52907193 20710442.558701795 16735243.912101392 2232814.8537832126 16525655.541360212
          13297670.534730464 -2210990.406874736 10953235.737097243 9860097.157359535 -6654795.667532684 5380815.932834276
          7844401.299748011 -12533840.0537575 14461021.196042206 -16855246.88655665 21077641.09233641 -21176653.719355807
          -71000996.31692691 -27909883.250751283 -41745076.6597418 -14794919.986594403 -12489157.002556654 -1679956.7224375207
          -47238714.41216204 -44830456.04139972 -24676386.22393402 -36516376.03245366 -2114058.035705994 -28202296.023507614
          66239500.284151174 84536438.063404 73020374.19630243 57651707.41697027 64998556.39103939 80772845.17748916
          68337081.65260911 54765562.25440125 63757612.49792759 77009252.29157433 63653789.10891579 51879417.091832235
          -8352805.347787902 24240065.556410935 13530784.318178121 -5931672.056260782 17161621.374872424 6983532.668287796
          -3510538.7647336638 10083177.193333909 436281.0183974765 -30498254.168929588 -31879445.59951687 -25371577.559142493
          -20797177.42345838 -20244900.949355394 -9714909.247399893 3139362.7494572997 4603740.271852476 5306586.618250743
          5321815.612291604 7473810.487044185 6039890.952730728 -29342968.313421596 -33761290.00957761 -26514168.480783775
          -53412527.41451928 -23685368.648145955 -73063764.81946096 -22494578.18792705 -19779097.522711094 -21084362.90291397
          -9971108.798589999 -19674147.61790089 -163120.07446890417 63773713.39531657 40600779.75240353 49743204.55868946
          40908983.08622611 26577555.931318823 32387609.075225852 18044252.777135663 12554332.110234115 15032013.591762245
          -9422715.354259625 -9176842.080934828 11370365.771485563 -6444139.904529 -3035374.513504018 26573316.032696586
          -3465564.4547983725 3106093.0539267934 41776266.29390762 -9119808.525184233 -9290470.459156087 -47127072.45032143
          -7397899.8862522 -1767629.083867111 -39901063.726751745 -5675991.247320166 5755212.291421863 -32675055.00318206
          -2954815.705294609 4098340.1431028694 11151495.991500348 27340498.560470954 22675452.15652106 14823993.255285144
          15639180.96716241 16584331.460880112 14192738.019483734 8464393.09244236 7238612.185749242 5828164.361289269
          5710023.8824464055 2104792.9295995734 -1161956.5956639282 43845301.07453148 -18386926.06959866 43331614.83799271
          -18144611.75279474 42817928.60145394 -17902297.435990803 31868294.530993987 38495267.38561116 20748357.312150493
          24269442.615651205 9628420.093307002 10043617.845691256 60827783.750032865 -55195187.64098601 53546740.4179185
          -47430774.76172189 46265697.08580416 -39666361.88245775 105282398.9304575 -97860500.91489534 98681925.63256237
          -88636686.82614775 92081452.3346673 -79412872.73740019 14634585.185510967 10199756.363587279 5764927.541663588
          -8579875.254183756 -5175020.907318145 -1770166.560452534 47406818.4624598 103504844.64036222 58602596.07825821
          110638758.76027311 69798373.69405662 117772672.88018404 -6122360.959748425 9128879.154430047 24380119.26860851
          -80401644.33337446 -51255474.575676605 -22109304.81797876 82303992.73153868 56937327.82309484 31570662.914650984
          -27496817.701362997 -19968918.48773361 -12441019.274104225 6797859.826256759 3223688.126122421 -350483.5740119174
          -111973086.12325591 -89276945.93340307 -66580805.74355023 71848954.005991 71038774.88782415 70228595.76965728
          124957748.51034573 108829949.9250322 92702151.33971867 -14369230.862787986 -22158147.999770597 -29947065.1367532
          10810051.970097128 5179959.730394054 -450132.50930901896 82912082.3379617 39563674.27966816 -3784733.778625389
          2741936.644913612 2741198.2743413327 2740459.903769054 4542630.246425824 5683836.342716228 6825042.43900663
          3899532.8030449916 3967267.7403064263 4035002.6775678606 4116463.9829908493 5000934.374261748 5885404.765532648
          4184262.1060084067 4332345.635951472 4480429.165894538 3080152.539124566 3343011.3307594704 3605870.122394375
          1858247.7327500903 1385490.5350984759 912733.3374468612 3832207.193747095 3258615.3245092887 2685023.4552714825
          6300132.0177363055 5666600.347387026 5033068.677037748 -4278417.854053085 -9777959.216977384 -7806058.313030955
          -12527231.256136136 -11333698.772008827 -15276503.295294883 -215418.0755200095 3215824.43866029 1975974.765288063
          -4417230.365568219 -1119482.3457170972 2033190.6013230842 2846355.5278034667 -4665901.723489543 -2023546.6159141846
          850556.7639858788 3716736.290318869 -4914573.081410868 2893407.0317759165 1678179.400483011 462951.7691901053
          5855003.533390718 5605141.982495984 5355280.4316012515 6536166.851922785 5250635.101710494 3965103.351498203
          3502548.4021877293 5484772.277013502 3405777.028294947 5354087.679272404 3309005.6544021647 5223403.081531303
          2600109.2777675926 3036984.7717678137 3473860.265768035 344509.0390740825 260128.22491792229 175747.41076176194
          -506637.4678722749 -710136.0704569758 -913634.6730416766 -4656347.633991943 -6291909.965103589 -7927472.296215236
          -7900293.501102701 -10296889.307720257 -12693485.114337813 3403447.330141727 3026291.335497752 2649135.3408537786
          10411904.176466592 10466496.155131076 10521088.133795563 2607228.7672776887 7424512.556918776 1300946.571677451
          2547583.5455161682 6016872.178054841 1000405.1889150175 2487938.3237546487 4609231.799190907 699863.806152584
        </DataArray>
        <DataArray type="Float64" Name="peeq" format="ascii" RangeMin="0" RangeMax="0.11058281171634002">
          0.0003362414639291582 0.000318575376345025 0.00036229568959311015 0.0003422558072094116 0.0003883499152570621 0.00036593623807379817
          0.0003288482823828576 0.0002921203202671856 0.00037623803670395415 0.00033676108994947873 0.0004236277910250507 0.0003814018596317719
          0.0005512459332202157 0.00048272026014002515 0.0006288528365313231 0.0005570390136776999 0.0007064597398424306 0.0006313577672153745
          0.0012756694693026056 0.0011688039693199136 0.0013882234658251914 0.0012786287238115632 0.0015007774623477768 0.0013884534783032126
          0.002903089147892503 0.0027694784067113687 0.0030355259958907517 0.002903904815409532 0.0031679628438889993 0.003038331224107695
          0.005859893605320068 0.005729597958104202 0.005963748741086792 0.005839000392348782 0.0060676038768535156 0.005948402826593363
          0.010561323983412732 0.010474925521032383 0.010561871049068167 0.010478003249630139 0.010562418114723597 0.010481080978227897
          0.01753205759061002 0.01754942610379643 0.01733866172499154 0.017349611775618466 0.017145265859373066 0.017149797447440503
          0.028634379300708397 0.02905285962229074 0.02811396123824975 0.028500778256794444 0.02759354317579111 0.02794869689129815
          0.04335749996664824 0.042539457030491556 0.04236389667305505 0.041614643650907834 0.04137029337946184 0.04068983027132411
          0.0003983287685989633 0.0004321788561648055 0.0004660289437306476 0.0004471647867621679 0.0005030476296223261 0.0005589304724824844
          0.0007647240333613769 0.0008494946962191892 0.0009342653590770015 0.0016025746632981393 0.0017169613187334937 0.0018313479741688483
          0.0033009993960215703 0.0034242176170918752 0.003547435838162181 0.006242259136188651 0.006330281528224894 0.006418303920261137
          0.010813831222520885 0.010806815451713999 0.010799799680907112 0.01746744248887113 0.0172929880254125 0.017118533561953878
          0.027442602173112937 0.02700753631336201 0.026572470453611073 0.03863232014572805 0.037884849793387965 0.03713737944104788
          0.0005195101972227504 0.0005683867361958014 0.0006172632751688524 0.0006706367055720295 0.0007419606424622145 0.0008132845793523993
          0.001142511254015282 0.0012364614813340066 0.0013304117086527316 0.0021527420269550662 0.0022626183461100322 0.0023724946652649986
          0.003948750051879603 0.004052783326064208 0.004156816600248812 0.006852067324582495 0.0069156377378240385 0.0069792081510655826
          0.011201576606665209 0.011183187842978209 0.011164799079291212 0.017327127946793208 0.0171813722700888 0.017035616593384387
          0.025623565886515882 0.025315457179409313 0.025007348472302748 0.034253924469214 0.033857053704477384 0.033460182939740776
          0.0007152645203473931 0.000785305702341999 0.0008553468843366051 0.0010365888106526853 0.0011255337415480994 0.0012144786724435132
          0.0017115372775887033 0.0018117548792442309 0.0019119724808997587 0.002918861232524396 0.003015890810586735 0.003112920388649075
          0.004818074681947108 0.004893097808905484 0.004968120935863861 0.007644977209189694 0.0076774942676883316 0.007710011326186969
          0.011665040223551956 0.011634636055945285 0.011604231888338612 0.017057580911886205 0.016946753292186402 0.0168359256724866
          0.023446471998599724 0.023282574108794862 0.023118676218990008 0.027766243645729667 0.02767682003541136 0.027587396425093044
          0.0010179091663317364 0.0011045398149226225 0.0011911704635135085 0.001571670769259537 0.0016660919520821186 0.0017605131349047
          0.0024857889290607295 0.0025750851836179945 0.002664381438175259 0.003889727240236937 0.003957829325195689 0.004025931410154441
          0.005868281201179149 0.005903400032870715 0.005938518864562283 0.008555469990475111 0.008553273754560595 0.008551077518646078
          0.012123032146755235 0.012084084816825475 0.012045137486895716 0.016600576418017113 0.01653230844320035 0.016464040468383585
          0.021127904549264553 0.021100749505792802 0.021073594462321044 0.02320263334049775 0.02335401017213584 0.02350538700377392
          0.0014829951505705072 0.001554885127177972 0.0016267751037854366 0.002305951923664674 0.0023715300245937512 0.0024371081255228277
          0.0034717718273911376 0.0035169667953960527 0.003562161763400966 0.005045824318083682 0.005060000782044974 0.005074177246006267
          0.0070436607138224016 0.007026935699179797 0.007010210684537194 0.009502472998311647 0.009466326637692844 0.009430180277074042
          0.012485389988766854 0.012448042278878035 0.012410694568989215 0.01590743917682225 0.015897081348856534 0.01588672352089082
          0.01870042280415051 0.018811156099114684 0.01892188939407885 0.019225880778414268 0.019578796563520694 0.019931712348627114
          0.002170980409722967 0.002177141977593949 0.0021833035454649316 0.0032710413816469616 0.0032574500864462155 0.00324385879124547
          0.0046698599139292024 0.00462945592542567 0.004589051936922137 0.006350230609123413 0.006283411176927498 0.006216591744731583
          0.008274292571805108 0.00819656888412832 0.008118845196451535 0.010397510936869681 0.010334685154757463 0.01027185937264524
          0.012669341446701178 0.01265362747444675 0.01263791350219232 0.014931370461156364 0.015005515136808596 0.015079659812460828
          0.016206047207610368 0.016464009178781876 0.016721971149953385 0.015581648970364365 0.016086899797512356 0.01659215062466035
          0.003071206619795895 0.0030169396555775256 0.0029626726913591557 0.004435535540758207 0.0043514422639932115 0.004267348987228216
          0.006022112730058362 0.00591118962806758 0.005800266526076797 0.007722653752647133 0.007597904639926583 0.007473155527206034
          0.009467329783327885 0.009354084063623608 0.009240838343919328 0.011149391392547756 0.011080393835774935 0.011011396279002111
          0.01262326839293585 0.012636993878627092 0.012650719364318334 0.013684350056834948 0.013827385988745715 0.013970421920656482
          0.013712801650337237 0.014043746454283865 0.014374691258230496 0.012462448139401665 0.012960562336554522 0.01345867653370738
          0.007252982845619492 0.007152332205544056 0.007051681565468619 0.008853036713955565 0.008747544284463345 0.008642051854971126
          0.010333180755521285 0.010243005098053107 0.010152829440584928 0.01154581979632141 0.011495379421162914 0.011444939046004417
          0.012296576594482543 0.012313823099148058 0.01233106960381357 0.012346484430537574 0.012463194630591104 0.012579904830644632
          0.01137821362908565 0.011613452006786113 0.011848690384486578 0.009895778065763517 0.01022578119822676 0.010555784330690002
          0.000020997318784575362 0.00032436824818926597 0.00034201333827555986 0.000012423252680134679 0.0005439730498399818 0.0018291563908843346
          0.0005290974301766251 0.000014903870850701024 0.0010669487808953884 0.003333944533579403 0.0007161815220776904 0.00001738448902126737
          0 0 0.00012114051787522787 0 0.00024228103575045574 0
          0 0 0 0.00028181482623210245 0.00003733473050451098 0.00012099967038415829
          0.000563629652464205 0.00007466946100902196 0.00024199934076831657 0.05714117063073839 0.05254592477793161 0.06617686005399753
          0.06648647919469552 0.05570383734375979 0.0515992162929085 0.06449010421756433 0.06454224234385482 0.0542665040567812
          0.05065250780788537 0.06280334838113114 0.06259800549301411 0.020394381659549356 0.012708201567635838 0.009182518258324345
          0.012661810409040861 0.023941737978760747 0.015251663997189751 0.011777991226123675 0.015731036172503696 0.02748909429797214
          0.017795126426743673 0.014373464193923005 0.018800261935966536 0.03430892623411011 0.034378200202853884 0.04099937218305574
          0.03977813944622122 0.03416873993382807 0.03445308660283168 0.040639129608713645 0.03932042907366655 0.03402855363354603
          0.034527973002809464 0.04027888703437154 0.038862718701111874 0.017188959010634074 0.018497137399193835 0.01332003378155954
          0.011486803110243884 0.018112764692430276 0.019206111814012376 0.014097909243789822 0.012412579940415806 0.019036570374226482
          0.019915086228830915 0.014875784706020103 0.013338356770587728 0.010728420978109734 0.013517166620731547 0.011281006327218124
          0.014172976370169307 0.011833591676326515 0.014828786119607067 0.04644274612840702 0.04302358658864083 0.045690639404537416
          0.0426812720211966 0.0449385326806678 0.042338957453752366 0.000007264178620147327 0 0
          0.0003829821050645248 0.0007213609731466787 0.00047844781729246906 0.0005565711305669099 0.0022629250141134307 0.0014354577676732102
          0.0009568956345849381 0.0011131422611338198 0.004142867923162337 0.0528187159753717 0.051841201263964465 0.06158958584225802
          0.05877266658456908 0.051519184557540565 0.05047852560843914 0.05967854720200842 0.05712885453744957 0.05021965313970943
          0.04911584995291381 0.05776750856175884 0.055485042490330067 0.05478491697957538 0.07198425883282734 0.05371246217189818
          0.06997315034395447 0.052640007364220975 0.06796204185508162 0.0006114873802350444 0.0010397472557999183 0.0002640351137312081
          0.00009492720319831 0.0007713529465238823 0.001182462766541365 0.0002871323768781241 0.00010694347348017493 0.0009312185128127202
          0.0013251782772828117 0.0003102296400250401 0.00011895974376203986 0.09803351634719329 0.11058281171634002 0.10364083537673954
          0.08803990875025428 0.09587250732413255 0.1073566122941484 0.10035117078136932 0.08593491411886076 0.09371149830107181
          0.10413041287195679 0.09706150618599908 0.08382991948746724 0 0 0
          0 0.0007713887970630779 0.0007973612367663793 0.0005517357550557048 0.000511488572265624 0.0015427775941261558
          0.0015947224735327586 0.0011034715101114097 0.001022977144531248 0.022179959508163465 0.022574139158249136 0.022795881861011346
          0.023357243213829804 0.02341180421385923 0.024140347269410473 0.04711120700121733 0.04613323769322055 0.045155268385223775
          0.00024164879027724627 0.0009248905106232265 0.00265599730033334 0.004882954247898527 0.005070345810389435 0.00884101798517383
          0.004654967631590953 0.0051407142413887824 0.001605662238228943 0.008594810127304415 0.007940202568425932 0.0037445944095511807
          0.012534652623017875 0.01073969089546308 0.005883526580873418 0.030934173493053812 0.029185361518150297 0.05024907131337712
          0.043888084368010234 0.03217335326187981 0.03156978120484221 0.051311097808890115 0.04378525654084217 0.03341253303070581
          0.03395420089153413 0.052373124304403086 0.04368242871367412 0.06620469969058407 0.06947541538606955 0.07381674739289629
          0.06395207059902493 0.06712508402989019 0.07105444738412799 0.061699441507465785 0.06477475267371083 0.0682921473753597
          0.009720645757835385 0.01703488251045327 0.010321623244683466 0.01763665502189183 0.010922600731531552 0.018238427533330385
          0.007551845796717586 0.009414046233624572 0.009036761401086592 0.011390199478883775 0.010521677005455594 0.013366352724142978
          0.01129043833456503 0.005982885637134926 0.012777205229038356 0.007031453469327566 0.014263972123511682 0.008080021301520206
          0.09169326500977776 0.08883166348715055 0.09713600281973012 0.09895077001609276 0.08762338677651998 0.08515547973946691
          0.0933438317512517 0.0948406161266994 0.08355350854326218 0.08147929599178325 0.08955166068277329 0.09073046223730603
          0.02802488636685247 0.029040091744609885 0.03583430888574213 0.02847747638735828 0.029859266579180616 0.03616042511708334
          0.028930066407864087 0.030678441413751357 0.03648654134842455 0.0019181287077498178 0.0011814596196277408 0.0024142817653525395
          0.0016720042761384196 0.002910434822955261 0.002162548932649098 0.027007778652074915 0.021344555691530136 0.027239793608383318
          0.02177386850798256 0.027471808564691724 0.022203181324434988 0.018469641288312237 0.02255829721181813 0.01968991070608047
          0.02440158881986461 0.0209101801238487 0.026244880427911087 0.011143089798298207 0.006409135364899439 0.012287194258600413
          0.007146782527391515 0.013431298718902621 0.00788442968988359 0 0 0
          0.000005681076951731729 0 0 0.000011362153903463459 0 0
          0.006213266222963455 0.003563047259552288 0.0072438050218511865 0.006595339500617452 0.0038766958157892078 0.007839850359241791
          0.006977412778271448 0.004190344372026127 0.008435895696632398 0.07611153628403063 0.0826040906081294 0.08282085722702576
          0.07329209809753813 0.07928473914180265 0.07936787671775405 0.07047265991104563 0.07596538767547587 0.07591489620848235
          0.08624560237532311 0.08256155808961257 0.07887751380390205 0 0 0
          0 0 0 0 0 0
          0 0 0 0.07575936933590421 0.0833620185351392 0.07319680383609327
          0.08034491928574594 0.07063423833628234 0.07732782003635268 0 0 0
          0 0 0 0.10599743054679273 0.09037616460968736 0.10242777058433017
          0.08725344539346802 0.0988581106218676 0.08413072617724868 0.06398915513243211 0.07526838027276693 0.06282278404541056
          0.074960780812711 0.06165641295838901 0.07465318135265508 0 0 0
          0.008287442156451361 0.008670223880570772 0.009053005604690183 0.03980398617090929 0.02421394491348851 0.04328036679595808
          0.028139240996854036 0.046756747421006856 0.032064537080219564 0.00978631396970682 0.010563506502495434 0.01134069903528405
          0.0030823777907675446 0.005783618384715231 0.008484858978662916 0 0.000005681076951731729 0.000011362153903463459
          0.002747483535198634 0.00317725501039284 0.003607026485587047 0.0000026330695816238846 0.000003708610914653746 0.000004784152247683607
          0.00360846702291655 0.0058499399338254425 0.008091412844734334 0.06711475806870737 0.0684638602039384 0.06981296233916942
          0.10916473529646352 0.10546605139677875 0.10176736749709397 0.052053469625161775 0.05088499636751157 0.049716523109861376
          0 0 0 0 0.0005198004495949076 0.0010396008991898152
          0.00950270889557826 0.009458488288935814 0.009414267682293368 0.009772489668379885 0.009767506294575495 0.009762522920771103
          0.010643336666540252 0.010605911193538977 0.010568485720537705 0.010472678112292981 0.010468825013542992 0.010464971914793003
          0.011406664953747918 0.011385803373841501 0.011364941793935084 0.011581883206739804 0.011588667706813329 0.011595452206886852
          0.01092257204829932 0.01096955763468119 0.011016543221063064 0.009163138291195748 0.009252275460338435 0.009341412629481124
          0.0063515960029082 0.006477650484562468 0.006603704966216739 0.006219042403619086 0.004160222744844845 0.006462959094011104
          0.0043483863167218485 0.006706875784403124 0.004536549888598852 0.0016031985662345392 0.0006610591557041903 0.0006488458281778671
          0.002125908605865795 0.0016255551122497708 0.0006633398047651084 0.0006768284868075078 0.002221031948444779 0.001647911658265003
          0.0006656204538260266 0.0007048111454371487 0.0023161552910237627 0.0000510630605223322 0.000052944332586081525 0.000054825604649830846
          0.003046352629444576 0.0031017050599268983 0.0031570574904092197 0.00018938205931671537 0.00018763252616818524 0.00018588299301965512
          0.009840387100841402 0.009655876074558561 0.009840624255373564 0.009654435769300156 0.009840861409905727 0.00965299546404175
          0.01073239599077875 0.010731384788483983 0.01073037358618922 0.009551525032624991 0.009554001584199067 0.009556478135773145
          0.0103511373013205 0.010355910165774756 0.010360683030229016 0.00911593861230434 0.009131193136245575 0.009146447660186808
          0.00688975044528372 0.00691300943727746 0.0069362684292712 0.004173249508412986 0.0041901053575473515 0.004206961206681718
          0.001933113835573308 0.001941217872530754 0.0019493219094882008 0.00012756610848470393 0.0006330605129488319 0.0005226929427606981
          0.00013225984828639064 0.0006334229841331899 0.0005290468074659982 0.00013695358808807738 0.000633785455317548 0.0005354006721712981
        </DataArray>
        <DataArray type="Float64" Name="pe11" format="ascii" RangeMin="-0.0008626447357938987" RangeMax="0.1070211751461134">
          0.00033599419803936886 0.0003183788377120331 0.00036210478494671063 0.0003421065813193412 0.00038821537185405246 0.0003658343249266492
          0.00032847300414252375 0.00029198565442911786 0.0003756561318916075 0.0003364359831188106 0.00042283925964069127 0.00038088631180850326
          0.0005488360709300521 0.0004813552156026576 0.0006245091067285541 0.0005538406232782061 0.0007001821425270563 0.0006263260309537545
          0.0012598548108675696 0.001155543990453515 0.0013644782197561843 0.0012574671272124263 0.0014691016286447988 0.0013593902639713377
          0.002835934475904276 0.0027053904277207453 0.0029500427411969185 0.0028210527499696876 0.00306415100648956 0.00293671507221863
          0.005659855675250148 0.005529311308105221 0.005737691433121154 0.005611873561994484 0.00581552719099216 0.005694435815883747
          0.010100119553277045 0.010003365525216053 0.010076845239449682 0.009982020634693911 0.010053570925622323 0.009960675744171768
          0.016625318635004376 0.016607034062881953 0.01641753408366945 0.016391663381769547 0.016209749532334526 0.01617629270065714
          0.026840377972363712 0.02713542696359211 0.0263047737861636 0.02656747056989194 0.025769169599963494 0.025999514176191764
          0.04047442714259532 0.039458355723917496 0.039419127983483085 0.03845800344787756 0.03836382882437084 0.03745765117183761
          0.0003978642712971561 0.00043178742695481167 0.0004657105826124672 0.0004457761002436097 0.0005013829997148632 0.0005569898991861167
          0.0007585074637930813 0.0008411249868331684 0.0009237425098732556 0.0015785188594402355 0.0016850529065981744 0.0017915869537561135
          0.0032244819615391673 0.003330645249860536 0.003436808538181904 0.006042667699836722 0.006106881720672618 0.006171095741508512
          0.010382652224286783 0.010353452528605027 0.010324252832923271 0.016658124649048527 0.01647139240094673 0.01628466015284493
          0.025943839399293872 0.025500695666727066 0.025057551934160264 0.03627465252097406 0.035538541399821655 0.03480243027866924
          0.0005184058005154987 0.0005673146815561537 0.0006162235625968087 0.0006665351324049372 0.0007373794102495724 0.0008082236880942078
          0.0011282447298441955 0.0012197669891196214 0.0013112892483950474 0.002113824791049204 0.002216193005243164 0.0023185612194371245
          0.0038565185258735025 0.003945407709131281 0.00403429689238906 0.006652511552888166 0.006695268364453132 0.0067380251760180985
          0.010816180511398496 0.010777752391496986 0.010739324271595477 0.016655435993603404 0.01649902093376058 0.016342605873917747
          0.024472340125825963 0.024167496147430082 0.023862652169034194 0.032395582189883615 0.032042152128810314 0.03168872206773701
          0.0007124059501017982 0.0007822453645433428 0.0008520847789848873 0.0010264240881554811 0.0011144534356581255 0.00120248278316077
          0.0016834277827657762 0.0017808598460226758 0.0018782919092795753 0.0028583834727549454 0.0029484518646688005 0.0030385202565826556
          0.004704844111459029 0.0047669170323178705 0.00482898995317671 0.007445264058624679 0.00746011853869418 0.007474973018763681
          0.011334335419093058 0.01128599506950317 0.011237654719913285 0.016540529937176168 0.01642042487969496 0.016300319822213746
          0.022643834123869756 0.02249007116525784 0.022336308206645922 0.026573220139912302 0.02653023849239049 0.026487256844868676
          0.0010107091390605819 0.0010967001147599007 0.0011826910904592196 0.0015498852028081461 0.0016429594652220517 0.0017360337276359572
          0.0024366796333909605 0.0025231298035285647 0.0026095799736661675 0.003801677153085539 0.0038637788820755845 0.00392588061106563
          0.005731123262388212 0.005755674465094939 0.0057802256678016655 0.008356949755733114 0.008340049297619116 0.008323148839505115
          0.011850184541225044 0.011795289153899394 0.011740393766573745 0.016234366811484973 0.016157904540300912 0.016081442269116855
          0.020625173181169514 0.020610505434204174 0.020595837687238827 0.022440584237186378 0.02262796136410165 0.02281533849101693
          0.0014656515976906894 0.0015370629747543695 0.0016084743518180494 0.002263728949031519 0.0023286351488639783 0.002393541348696438
          0.003393048399413245 0.003436682276299486 0.003480316153185725 0.004925280928392116 0.00493553314264765 0.004945785356903184
          0.00688296349909211 0.0068585307733094745 0.006834098047526837 0.009308994261463345 0.009260912142646991 0.009212830023830637
          0.012270893120742008 0.012219442007017951 0.012167990893293894 0.01567318505531401 0.015654823425308873 0.015636461795303737
          0.01840701635014132 0.018528118708216534 0.01864922106629175 0.01872044376600767 0.019098833095086212 0.019477222424164758
          0.0021322545508540396 0.0021400505003952817 0.002147846449936524 0.003195539231590555 0.0031841677851809644 0.0031727963387713724
          0.004551651468932489 0.004512939242355426 0.0044742270157783655 0.006193934913121624 0.006126633548531783 0.006059332183941941
          0.008094248668840195 0.008012183968834926 0.00793011926882966 0.010216131338053968 0.010143948457079154 0.010071765576104341
          0.012511920878230097 0.01248331299239222 0.012454705106554349 0.014800483521757944 0.014865449831720584 0.014930416141683223
          0.016037351950577733 0.016299574882184958 0.016561797813792183 0.015211706371740106 0.015728340467857326 0.016244974563974543
          0.002999393880546864 0.0029442341368250864 0.002889074393103309 0.004316554200647714 0.004231824740876171 0.004147095281104628
          0.005859306861973409 0.005747824691453803 0.005636342520934199 0.007533039965375627 0.007407019831150963 0.0072809996969263
          0.00927727836095666 0.009160558507793558 0.009043838654630456 0.010990144299353053 0.010913660823748889 0.010837177348144723
          0.01251935167799207 0.012521066730822691 0.012522781783653314 0.01362156145834629 0.013751550124249457 0.01388153879015263
          0.013565349249776862 0.013892063486339715 0.014218777722902566 0.01201907500446276 0.01252001540318052 0.01302095580189828
          0.007098651577031074 0.0069954563409903615 0.006892261104949646 0.008693382040011587 0.008585712819496157 0.008478043598980729
          0.010194922382749515 0.010102262962086096 0.010009603541422675 0.011452028354296264 0.011397849685666532 0.011343671017036799
          0.01224936339370309 0.01226104072959456 0.01227271806548603 0.012298029651536393 0.012408212412905038 0.01251839517427368
          0.011175369028239332 0.011408543164094846 0.011641717299950359 0.00933384234774638 0.009665466379847389 0.009997090411948397
          0.000018192693353207908 0.00029601745643628003 0.0003153512054341257 0.00001160580832598403 0.000047886752059496684 0.0001309801449986502
          0.0004127137534986358 0.000012969256191552895 0.00007758081076578544 -0.00003405716643897961 0.0005100763015631459 0.000014332704057121759
          0 0 -0.000021630599823372874 0 -0.00004326119964674575 0
          0 0 0 0.00009451073011445887 -0.00000924747928793723 0.000013263682509790004
          0.00018902146022891774 -0.00001849495857587446 0.000026527365019580007 0.05452039686709852 0.049388803333118084 0.06327735189566441
          0.06409933084382372 0.05295754277092874 0.04851574160762467 0.061496842228085526 0.06197327948848496 0.05139468867475896
          0.047642679882131264 0.05971633256050665 0.0598472281331462 0.014088732720855004 0.008483674486439864 0.0030022302075336303
          0.006973220709212975 0.015823307566399415 0.009230700109052293 0.003938976315179102 0.008581209750240062 0.01755788241194383
          0.00997772573166472 0.004875722422824574 0.01018919879126715 0.03253124238324813 0.03240739411393624 0.038405882034348776
          0.037410952905602424 0.03246892859500176 0.032604462635374996 0.038198141520821814 0.03704007574709604 0.032406614806755385
          0.03280153115681375 0.037990401007294845 0.036669198588589656 0.015753397118967172 0.01745922143367245 0.012239730035634114
          0.010042651637502101 0.016662177526463696 0.01817521378029325 0.012985609947562343 0.010901770170189135 0.017570957933960227
          0.018891206126914046 0.013731489859490572 0.01176088870287617 0.01000088239283543 0.012926995944301183 0.010543564988100926
          0.013586637404767817 0.011086247583366425 0.014246278865234451 0.0435949398453219 0.03995833375657119 0.04298826094938372
          0.03990188589985171 0.042381582053445534 0.03984543804313223 0.000002094724857595273 0 0
          0.000030299312434440006 0.00007845127775441806 0.00022551065998890196 0.00012202713455386855 -0.0004161727116797293 0.00015480783065124085
          0.00045102131997780393 0.0002440542691077371 -0.0008626447357938987 0.04978900325594443 0.048988934389929004 0.05946583899325838
          0.05639781249759534 0.04832064729486073 0.047522073930555554 0.05733726005425368 0.05451323603488568 0.04685229133377702
          0.046055213471182105 0.05520868111524899 0.05262865957217603 0.05043343338852831 0.06811252233054695 0.04962716442283075
          0.06630505323413759 0.0488208954571332 0.06449758413772824 0.0005530643554156714 0.0009664851946099484 0.00024544760298287054
          0.00008837540736872394 0.0006540916084124476 0.0010703467571414923 0.00026191946646986333 0.00009622898043480505 0.0007551188614092237
          0.0011742083196730362 0.0002783913299568561 0.00010408255350088617 0.08352697180534457 0.10493274182638233 0.09953367355339443
          0.07894816987449349 0.08222227729739953 0.10172994277941355 0.09615440937069386 0.07750533537081042 0.0809175827894545
          0.09852714373244476 0.09277514518799329 0.07606250086712735 0 0 0
          0 -0.00021248686223095058 -0.000017620849206465944 0.0000320442350659046 -0.00016698944188489693 -0.00042497372446190115
          -0.00003524169841293189 0.0000640884701318092 -0.00033397888376979386 0.021148476749584196 0.021167422183028237 0.021808718173491223
          0.021983576369065 0.022468959597398256 0.022799730555101767 0.0443722888061807 0.04341931582034655 0.04246634283451239
          0.00011039826036853733 0.0005976537922446848 0.00016329415590575616 0.00016943270596910762 0.00021619005144297488 -0.0002587883803064696
          0.0011611726125810328 0.0030350604679959103 0.0012925438082721495 0.0011442335860324354 0.0030055013782656027 0.0011789916823646406
          0.0011272945594838382 0.0029759422885352947 0.001065439556457132 0.02754622640315233 0.02365133123446837 0.03966133555699737
          0.03899825613753925 0.028910050871299026 0.02528214363344224 0.04086912591010138 0.03946345706814906 0.030273875339445724
          0.02691295603241611 0.04207691626320539 0.039928657998758874 0.06457339517685962 0.06771180243309347 0.07244343110633937
          0.062041458770442245 0.06506506572400078 0.06935929006999829 0.059509522364024875 0.06241832901490811 0.06627514903365721
          0.00888880480899959 0.016297237957107615 0.009453353642844308 0.016917590121528395 0.010017902476689029 0.017537942285949182
          0.0009755444190026244 0.0035026820361031274 0.0025380536707848567 0.004909361039663262 0.004100562922567088 0.006316040043223398
          0.008957516771621881 0.00486692441847453 0.010041737871722993 0.0056324478236245935 0.011125958971824104 0.006397971228774657
          0.09035117847431748 0.08739029706182405 0.09539353716220945 0.0972276454294494 0.08600675056420178 0.08349220001047568
          0.09125637248547927 0.0928173967503087 0.08166232265408607 0.0795941029591273 0.08711920780874906 0.08840714807116803
          0.026418643033879377 0.02667990613073174 0.03329878503000466 0.0270019443756435 0.027669623326686085 0.03386118758220277
          0.02758524571740762 0.028659340522640426 0.03442359013440089 0.0016402053783865442 0.0010363356643243369 0.001975126480946272
          0.001321661501483857 0.002310047583506 0.0016069873386433773 0.02575946112507339 0.020424764721225334 0.02607529407732332
          0.020892905876301812 0.026391127029573254 0.02136104703137829 0.016225720160292823 0.018836073697135226 0.017322270937898548
          0.020207672109993923 0.01841882171550427 0.021579270522852623 0.009320797033712183 0.005410084789714633 0.01031179778692373
          0.006015570645344294 0.011302798540135274 0.006621056500973955 0 0 0
          0.00000248527482980431 0 0 0.00000497054965960862 0 0
          0.005434541948975221 0.0030642026588011523 0.006325232246034499 0.005773874279120287 0.003313062230993539 0.006834343974201667
          0.006113206609265352 0.0035619218031859266 0.007343455702368835 0.07478566492742078 0.08155529832169528 0.0819373546424956
          0.07164409339028745 0.07792392763259502 0.0781135314549658 0.0685025218531541 0.07429255694349479 0.07428970826743599
          0.08517639685821804 0.08112510574778527 0.07707381463735248 0 0 0
          0 0 0 0 0 0
          0 0 0 0.07386909909124843 0.08113226877074248 0.07115271453552272
          0.0781024494005226 0.06843632997979701 0.07507263003030273 0 0 0
          0 0 0 0.10400475199162958 0.08750579883017569 0.09994298814010233
          0.0844052355434436 0.09588122428857505 0.08130467225671151 0.056806599126344066 0.0585664904036698 0.05647324830692513
          0.05896351174066508 0.056139897487506196 0.059360533077660364 0 0 0
          0.0074572015413849665 0.007826903506903519 0.00819660547242207 0.025106948026413212 0.012950430829840681 0.027260039647370435
          0.0150481396414765 0.02941313126832766 0.01714584845311232 0.008707239527671667 0.009404045619484151 0.010100851711296634
          0.0001113700707639946 0.0003996011132645118 0.000687832155765029 0 0.00000248527482980431 0.00000497054965960862
          0.0023069104569059373 0.0026228383746468554 0.0029387662923877726 0.0000025483124761900045 0.000003548576829177866 0.000004548841182165727
          0.00001745935259218867 -0.00000931105460824834 -0.00003608146180868535 0.04568493543734561 0.04691370414878996 0.04814247286023431
          0.1070211751461134 0.10291110067121777 0.09880102619632214 0.048861041195609134 0.04751504302671414 0.046169044857819135
          0 0 0 0 -0.00009099484069210731 -0.00018198968138421462
          0.009433815878069237 0.009389355581070674 0.009344895284072112 0.00975903752730046 0.009753822779426165 0.009748608031551873
          0.010596640745564639 0.010558833250566287 0.010521025755567934 0.010462776927592999 0.01045880057783679 0.01045482422808058
          0.011381770099401705 0.011360529390047622 0.011339288680693537 0.01155404065743832 0.011560966956723494 0.011567893256008668
          0.01083072537880417 0.010879047688046982 0.010927369997289792 0.008912775901881612 0.00900319759174896 0.009093619281616307
          0.005963640590445717 0.006085998043996138 0.00620835549754656 0.005643450626032907 0.0037752196758819943 0.005875496920384718
          0.003942934077052558 0.0061075432147365315 0.004110648478223122 0.0015273145951266837 0.0006449268227251208 0.0006179074344501883
          0.0019601690252950468 0.0015436496304265907 0.0006456731683199793 0.0006396094029121747 0.0020376975443370574 0.001559984665726498
          0.0006464195139148376 0.0006613113713741612 0.0021152260633790685 0.000050514884296719256 0.00005220292927296728 0.000053890974249215306
          0.002862126334819667 0.0029088657232491802 0.002955605111678694 0.0001854645535372578 0.0001835795972402486 0.0001816946409432394
          0.009817099518391836 0.009646967619073429 0.009817324418153084 0.009645381477865145 0.00981754931791433 0.00964379533665686
          0.01071029153797816 0.010709195572696563 0.010708099607414966 0.009498664910357151 0.009501098975614283 0.009503533040871419
          0.010288305712295942 0.010292804484795231 0.01029730325729452 0.008979260062777987 0.008993444766449744 0.009007629470121502
          0.006678840140640737 0.0066989873630178415 0.006719134585394945 0.004003057381503417 0.00401642795965299 0.004029798537802564
          0.0018649007925756692 0.00187045796976189 0.0018760151469481112 0.00012411719704125094 0.0006225404466569533 0.0005158643578470834
          0.00012855203786994772 0.0006222358793229717 0.0005217468311927944 0.00013298687869864453 0.0006219313119889898 0.0005276293045385055
        </DataArray>
        <DataArray type="Float64" Name="pe22" format="ascii" RangeMin="-0.04641876857850718" RangeMax="0.0006052500683721804">
          -0.0001768854199724103 -0.00016811229703190796 -0.00018693133438173545 -0.00017747689133089012 -0.0001969772487910606 -0.00018684148562987232
          -0.00016535599507694332 -0.0001481638470014619 -0.00018155316806953563 -0.0001639481423993726 -0.00019775034106212793 -0.00017973243779728328
          -0.00024752464653391164 -0.00021864188284423868 -0.00026471962884699847 -0.000236009227129578 -0.0002819146111600853 -0.0002533765714149173
          -0.00048281422926961954 -0.00044207806948289886 -0.00048642600040408007 -0.0004460016752621533 -0.0004900377715385405 -0.0004499252810414077
          -0.0009156708697017152 -0.0008653271343890337 -0.0008900872529477174 -0.0008398316795727251 -0.0008645036361937199 -0.0008143362247564165
          -0.0015583250665992241 -0.0014991666198240832 -0.0015017256660715345 -0.001441959573494091 -0.0014451262655438449 -0.0013847525271640988
          -0.002426984310914153 -0.002353104923854537 -0.0023469796698445808 -0.0022714843236758533 -0.002266975028775008 -0.0021898637234971695
          -0.0035541021056006207 -0.003440792405285403 -0.0034442374945409786 -0.0033233538136389607 -0.0033343728834813358 -0.0032059152219925183
          -0.004889609512981634 -0.004672634216620824 -0.004713099571511075 -0.004478501994286198 -0.004536589630040514 -0.004284369771951572
          -0.00715244710150717 -0.006142409026717081 -0.006735026783740614 -0.005756937195413419 -0.006317606465974063 -0.005371465364109757
          -0.00020727314021534693 -0.00021937482484869146 -0.00023147650948203598 -0.00021948840640703725 -0.00023665891736172174 -0.0002538294283164062
          -0.00033547005949135047 -0.0003512518555614127 -0.0003670336516314749 -0.0006063986217125438 -0.0006074907262024403 -0.0006085828306923368
          -0.0010658684372149589 -0.0010394135136857947 -0.0010129585901566306 -0.0017332202738047464 -0.0016787244328737385 -0.00162422859194273
          -0.0026471944240281 -0.002572251314354169 -0.0024973082046802373 -0.0038680236730079063 -0.0037767776972782428 -0.0036855317215485806
          -0.005374520178158489 -0.00524803682398916 -0.005121553469819831 -0.00725740327516612 -0.007028735502106299 -0.006800067729046476
          -0.0002641777824379406 -0.0002797313886909928 -0.0002952849949440451 -0.0003171589147382343 -0.00033554392554865784 -0.0003539289363590813
          -0.0004855154360383783 -0.0004984204200702097 -0.0005113254041020411 -0.0008111214412888676 -0.0008074551129084494 -0.0008037887845280313
          -0.0013110091216217044 -0.0012833441805394914 -0.0012556792394572787 -0.0020166831265178604 -0.0019662788420542953 -0.0019158745575907302
          -0.0029976935078900135 -0.0029312470744192044 -0.0028648006409483957 -0.004317511527704196 -0.004250470950814794 -0.0041834303739253925
          -0.005863190385847196 -0.005809480205275625 -0.005755770024704056 -0.007747403618356912 -0.007750489095268887 -0.007753574572180864
          -0.0003491018047157244 -0.000368331525634578 -0.00038756124655343167 -0.0004663171516560979 -0.00048409977023637407 -0.0005018823888166501
          -0.0007005872487834596 -0.0007090079908472585 -0.0007174287329110575 -0.0010895347669214936 -0.0010810868190821153 -0.001072638871242737
          -0.0016418000930949032 -0.001614211612583668 -0.001586623132072433 -0.0023955914153219347 -0.002351453521089757 -0.0023073156268575805
          -0.0034388745789991045 -0.0033841312498680614 -0.0033293879207370192 -0.00481663135561363 -0.00477682799481227 -0.00473702463401091
          -0.006314060789945648 -0.0063283849289344956 -0.006342709067923345 -0.007544568105020241 -0.007660182452678235 -0.007775796800336229
          -0.00046589995689006987 -0.000485870967678207 -0.0005058419784663442 -0.0006637510359081615 -0.0006770235937174587 -0.0006902961515267555
          -0.0009738422961255912 -0.0009757511008731165 -0.0009776599056206415 -0.001431855538168319 -0.0014196543259260232 -0.001407453113683727
          -0.0020454969314586645 -0.002020032544407863 -0.0019945681573570622 -0.0028481869295384175 -0.0028123460003715954 -0.002776505071204773
          -0.003921486852323899 -0.0038813529654300153 -0.003841219078536132 -0.005282945872281149 -0.005269135515713251 -0.005255325159145351
          -0.006681578317586831 -0.006738913991139235 -0.006796249664691639 -0.0076268171454171325 -0.007780828275500553 -0.007934839405583973
          -0.0006209426338407597 -0.0006340100808243726 -0.0006470775278079857 -0.0009023477297075525 -0.0009072445963679013 -0.0009121414630282501
          -0.0012937703149419149 -0.0012890309253772362 -0.0012842915358125574 -0.0018256999113197515 -0.001811803416666881 -0.0017979069220140107
          -0.0025033969148949035 -0.0024824279263546403 -0.002461458937814377 -0.0033450156592634544 -0.003319311174006426 -0.003293606688749398
          -0.0044004673619948646 -0.004376599827961565 -0.004352732293928265 -0.005655653695362088 -0.005662949224485343 -0.005670244753608599
          -0.006830337002595713 -0.00691066046981483 -0.006990983937033948 -0.00750888789366671 -0.007672282757320202 -0.007835677620973695
          -0.0008184956429870675 -0.0008181138597550606 -0.0008177320765230538 -0.001178227005506547 -0.0011729822476973038 -0.0011677374898880605
          -0.0016515211320343322 -0.0016420469247895152 -0.001632572717544698 -0.0022547911462194783 -0.0022420086918748154 -0.0022292262375301526
          -0.002989967612343031 -0.002975888466592068 -0.0029618093208411056 -0.003852754815389801 -0.003839010912110218 -0.0038252670088306344
          -0.004838992764675882 -0.00483203410626623 -0.004825075447856579 -0.005897447977786295 -0.005921169924733131 -0.005944891871679965
          -0.006776512771581185 -0.006864178559927181 -0.006951844348273175 -0.00709739488476064 -0.007259006762216241 -0.007420618639671844
          -0.0010537400981616484 -0.0010393542453600467 -0.001024968392558445 -0.0014878697640156972 -0.0014714042835596679 -0.0014549388031036383
          -0.0020387204720093794 -0.00202292442385193 -0.0020071283756944803 -0.0027019262794612097 -0.00268879006330402 -0.0026756538471468306
          -0.0034769602542254413 -0.003468539473852476 -0.003460118693479512 -0.004336086194654313 -0.0043343285880496595 -0.004332570981445006
          -0.005213771666838023 -0.005225334148010472 -0.0052368966291829215 -0.006002020375347798 -0.006043721268554414 -0.00608542216176103
          -0.006526167295128431 -0.006616835348542456 -0.006707503401956479 -0.006504811575367391 -0.006649861031922928 -0.006794910488478466
          -0.002606276488728601 -0.00259224515509436 -0.002578213821460119 -0.0033213311284058583 -0.00331314363768561 -0.003304956146965362
          -0.004103870230231109 -0.0041032841721756605 -0.0041026981141202125 -0.004895034595407638 -0.004904126600730084 -0.00491321860605253
          -0.005578273197742929 -0.005603299296745977 -0.0056283253957490256 -0.005982422734213513 -0.0060316683834786165 -0.006080914032743719
          -0.0059759620201047725 -0.006050669936547933 -0.006125377852991092 -0.005651607795628292 -0.005745420641526652 -0.005839233487425013
          -0.000009007563971808724 -0.0001667677767371124 -0.00016856371095675817 -0.000005695423668302969 -0.00011720250565286372 -0.0001781079247959044
          -0.00015474747734281198 -0.0000050234888497459454 -0.00022539744733391875 -0.00018944807285469647 -0.00014093124372886588 -0.000004351554031188922
          0 0 0.000012934830683464052 0 0.000025869661366928104 0
          0 0 0 -0.00009171744887383711 0.000009629403450620187 -0.000014671161226843163
          -0.00018343489774767422 0.000019258806901240375 -0.000029342322453686322 -0.014558401887871306 -0.013028674082450783 -0.0198495802276494
          -0.01983871958021922 -0.013570518662712753 -0.012587162858868208 -0.018473227915754394 -0.018233819156189407 -0.0125826354375542
          -0.012145651635285632 -0.01709687560385939 -0.0166289187321596 -0.0031255470922501916 -0.0028993838832675456 -0.0009675328975283538
          -0.001212209110647964 -0.004095255522697501 -0.0028667899049610525 -0.0009937527215817669 -0.0017487707430983458 -0.00506496395314481
          -0.002834195926654559 -0.0010199725456351801 -0.0022853323755487277 -0.008957983533687439 -0.009261029962734132 -0.009382137214382719
          -0.008865800386825873 -0.00915099156766766 -0.00958385966015897 -0.00951004973326642 -0.00890412072355173 -0.009343999601647881
          -0.009906689357583808 -0.00963796225215012 -0.00894244106027759 -0.0076744363341195694 -0.007820648598515105 -0.006434141749148356
          -0.0054376789534798095 -0.008050346725756458 -0.008174805681402428 -0.006644207390903198 -0.005638456975095044 -0.008426257117393346
          -0.008528962764289749 -0.006854273032658039 -0.005839234996710279 -0.005893858474932816 -0.006801251623981328 -0.0060443953376716
          -0.006986746475254676 -0.006194932200410385 -0.007172241326528025 -0.010416922746332713 -0.010337377852529892 -0.010289673294826036
          -0.010541594076428344 -0.010162423843319357 -0.010745810300326796 -7.930233500404777e-7 0 0
          0.00002606676556669512 -0.00010439058041241729 -0.00023291502615537058 -0.00010653991829360703 0.000052326639013023235 -0.0002079881374747941
          -0.00046583005231074116 -0.00021307983658721405 0.00007858651245935133 -0.010039845397638516 -0.010605620752446329 -0.016867579350613067
          -0.014342558135771807 -0.009245414717850672 -0.009849538654635084 -0.015403587655419108 -0.013100911608039967 -0.008450984038062829
          -0.009093456556823839 -0.013939595960225138 -0.011859265080308124 -0.01442592611842231 -0.025045510449575453 -0.013965569052883306
          -0.023497088579104167 -0.013505211987344301 -0.021948666708632884 -0.00031172614689192643 -0.0005621282299683398 -0.00014280851973176074
          -0.000051217779929911176 -0.0003089001767941175 -0.000561220172912527 -0.00014165185341815092 -0.00005027467059982552 -0.00030607420669630854
          -0.0005603121158567145 -0.0001404951871045411 -0.00004933156126973985 -0.03521528900354101 -0.04641876857850718 -0.04372592155118925
          -0.0330790139637555 -0.03386760210747709 -0.043289999319112 -0.04057091227666272 -0.031822338560748245 -0.03251991521141319
          -0.04016123005971683 -0.03741590300213619 -0.030565663157740987 0 0 0
          0 0.0003026250341860902 0.00003883479582250392 -0.00004456607371933319 0.00020384182236859462 0.0006052500683721804
          0.00007766959164500784 -0.00008913214743866638 0.00040768364473718925 -0.008430177236781921 -0.00905735811796496 -0.008874863780589977
          -0.00954637514157769 -0.00931955032439803 -0.010035392165190421 -0.010045897505623956 -0.009660659721890397 -0.009275421938156836
          -0.00007455785899129709 -0.00034876472008647634 -0.0005271732919725303 -0.00045790579321944194 -0.0009797887249537634 -0.0005670468663524074
          -0.0006089454580847163 -0.001352171693288555 -0.0006254545995198364 -0.0006169578408428559 -0.000823107156606787 -0.00035710701221731294
          -0.0006249702236009953 -0.00029404261992501887 -0.00008875942491478941 -0.00840717515188601 -0.006516854704833045 -0.01194752284466158
          -0.010070323637704019 -0.009154640202690717 -0.007373776020558987 -0.013154449760702801 -0.010636687049958828 -0.009902105253495422
          -0.008230697336284929 -0.01436137667674402 -0.011203050462213636 -0.020053425881891497 -0.021993064814936975 -0.025384228195159637
          -0.018213915833744862 -0.019914906385204663 -0.022854051888828223 -0.016374405785598227 -0.017836747955472347 -0.020323875582496802
          -0.005198381233314096 -0.007450837145400605 -0.005322026031507263 -0.0076611300621553064 -0.00544567082970043 -0.00787142297891001
          -0.00014066495772200338 -0.0005794366667518331 -0.001129992736557338 -0.001165037340316257 -0.0021193205153926726 -0.001750638013880681
          -0.0036853285836856175 -0.0024021153344340996 -0.004129151533860871 -0.0025205397202954613 -0.004572974484036123 -0.002638964106156823
          -0.03649007014106594 -0.03467472112741846 -0.03842014030998584 -0.03782741524894183 -0.03258919427033423 -0.03121199153846435
          -0.03458977847506807 -0.03368617066757444 -0.028688318399602508 -0.027749261949510242 -0.030759416640150306 -0.029544926086207055
          -0.009173233043095454 -0.008937012203846198 -0.00912264537368658 -0.009630344872097494 -0.00964818064141543 -0.009712765894286598
          -0.010087456701099532 -0.010359349078984666 -0.010302886414886614 -0.0008867420522884544 -0.0005292700974517046 -0.0008924502089547074
          -0.0005120856512141568 -0.0008981583656209603 -0.000494901204976609 -0.008483901753978725 -0.007807891826170832 -0.008794019299411919
          -0.008076490407780138 -0.009104136844845118 -0.008345088989389446 -0.006862689131589345 -0.006670800321656869 -0.007375436817705367
          -0.007206974637925434 -0.007888184503821389 -0.007743148954194 -0.0045743297614985095 -0.0032672628687403374 -0.004793979116674572
          -0.003343029364836838 -0.005013628471850636 -0.003418795860933338 0 0 0
          -0.000002166792218502519 0 0 -0.000004333584437005038 0 0
          -0.0034822385389980427 -0.0019413020209649399 -0.0038882214547385236 -0.003530157772657554 -0.0019604751419715176 -0.003975734491824088
          -0.0035780770063170656 -0.001979648262978095 -0.004063247528909654 -0.027161958579526222 -0.03204028499413939 -0.03293959405584406
          -0.024569553829375063 -0.028887594133500182 -0.029524898123452086 -0.021977149079223896 -0.025734903272860977 -0.026110202191060115
          -0.034618126189209286 -0.030943399643470298 -0.02726867309773131 0 0 0
          0 0 0 0 0 0
          0 0 0 -0.026466850177780343 -0.03170649180750148 -0.024246661931632364
          -0.028969503192603788 -0.022026473685484386 -0.026232514577706093 0 0 0
          0 0 0 -0.0436240116804438 -0.03702665971715578 -0.039735471025808225
          -0.03420918620099833 -0.03584693037117264 -0.031391712684840874 -0.019355003143488873 -0.022796761884764677 -0.019356381543143543
          -0.02333277465835884 -0.01935775994279821 -0.023868787431953007 0 0 0
          -0.004795627750485317 -0.004876254043385685 -0.004956880336286053 -0.006022634418926928 -0.0008070544121203805 -0.007976203782580826
          -0.002350878033548403 -0.009929773146234723 -0.0038947016549764255 -0.005127088659733113 -0.005283397674872532 -0.005439706690011952
          0.00007680253764153648 -0.0006374519086195839 -0.0013517063548807043 0 -0.000002166792218502519 -0.000004333584437005038
          -0.001377470116621733 -0.0013937349022195 -0.0014099996878172674 -0.0000013365996002815943 -0.000001707272992848841 -0.0000020779463854160876
          0.000424466995481271 -0.00015903166223455036 -0.0007425303199503717 -0.015584366808252481 -0.01687751299399012 -0.018170659179727756
          -0.04431206286134881 -0.040301554407792345 -0.03629104595423588 -0.009184055735350678 -0.00843412821866787 -0.0076842007019850625
          0 0 0 0 0.0001975664236349912 0.0003951328472699824
          -0.004159070254967766 -0.004164660322085156 -0.0041702503892025455 -0.004812152621033326 -0.004823885841146807 -0.004835619061260288
          -0.0048684389305587075 -0.004879429381348272 -0.004890419832137836 -0.005323355236049451 -0.00533847237441785 -0.005353589512786251
          -0.005466856972630431 -0.005484009300708813 -0.005501161628787195 -0.005805705006105001 -0.005832436402256716 -0.005859167798408433
          -0.0056990564689459 -0.00573524686955994 -0.0057714372701739795 -0.005017457002143819 -0.005050388220537577 -0.005083319438931337
          -0.0036820460560518706 -0.003693528072190417 -0.003705010088328963 -0.0036943970283864753 -0.002398007496223001 -0.003715343755719629
          -0.0024005897203388912 -0.003736290483052783 -0.0024031719444547817 -0.0008863529887290381 -0.00035783085666505336 -0.00036085683341229474
          -0.0012078097684965438 -0.0008722417761360061 -0.00034954805274479587 -0.00035509412277029786 -0.001200168233504054 -0.0008581305635429742
          -0.0003412652488245384 -0.000349331412128301 -0.0011925266985115639 -0.00002647118345946749 -0.00002660017720982977 -0.000026729170960192052
          -0.0017280721944848794 -0.001709120900163979 -0.0016901696058430784 -0.00010275159478333517 -0.00010057085808353402 -0.00009839012138373284
          -0.005240138819687079 -0.005015445314347599 -0.005252750852712576 -0.005025640668557626 -0.005265362885738073 -0.005035836022767654
          -0.005616900144597852 -0.0056351471583350205 -0.00565339417207219 -0.005196039350116187 -0.005210239794137575 -0.0052244402381589625
          -0.005547172243784895 -0.005568678569985554 -0.0055901848961862136 -0.0049634053612325115 -0.004983600769678593 -0.005003796178124674
          -0.003805310265267858 -0.0038103515028828777 -0.0038153927404978956 -0.002337891405308515 -0.0023242169383202757 -0.002310542471332036
          -0.0010645898839905265 -0.0010501400314315286 -0.001035690178872531 -0.000055202171353108986 -0.0003258130881506101 -0.00025824468690593006
          -0.000056976285199197623 -0.0003206793981797684 -0.0002588551667974984 -0.000058750399045286254 -0.0003155457082089267 -0.00025946564668906684
        </DataArray>
        <DataArray type="Float64" Name="pe33" format="ascii" RangeMin="-0.06270911228476445" RangeMax="0.0008258352466632051">
          -0.00015910877806695855 -0.00015026654068012513 -0.00017517345056497518 -0.00016462968998845096 -0.00019123812306299175 -0.00017899283929677682
          -0.00016311700906558046 -0.000143821807427656 -0.00019410296382207188 -0.00017248784071943795 -0.0002250889185785633 -0.00020115387401121993
          -0.0003013114243961405 -0.00026271333275841894 -0.00035978947788155573 -0.000317831396148628 -0.00041826753136697093 -0.00037294945953883713
          -0.00077704058159795 -0.0007134659209706156 -0.000878052219352104 -0.0008114654519502727 -0.000979063857106258 -0.0009094649829299297
          -0.0019202636062025608 -0.0018400632933317108 -0.0020599554882492002 -0.0019812210703969613 -0.0021996473702958395 -0.002122378847462212
          -0.004101530608650924 -0.004030144688281137 -0.0042359657670496195 -0.004169913988500392 -0.004370400925448314 -0.004309683288719647
          -0.007673135242362893 -0.007650260601361515 -0.007729865569605103 -0.007710536311018057 -0.007786595896847313 -0.007770812020674599
          -0.01307121652940375 -0.013166241657596549 -0.01297329658912847 -0.013068309568130583 -0.012875376648853189 -0.012970377478664617
          -0.021950768459382076 -0.022462792746971286 -0.021591674214652523 -0.022088968575605737 -0.021232579969922977 -0.02171514440424019
          -0.033321980041088134 -0.03331594669720043 -0.03268410119974245 -0.03270106625246415 -0.032046222358396756 -0.03208618580772785
          -0.0001905911310818092 -0.00021241260210612018 -0.00023423407313043118 -0.00022628769383657246 -0.0002647240823531414 -0.0003031604708697103
          -0.0004230374043017308 -0.0004898731312717557 -0.0005567088582417806 -0.0009721202377276914 -0.001077562180395734 -0.0011830041230637765
          -0.0021586135243242084 -0.0022912317361747404 -0.0024238499480252725 -0.004309447426031976 -0.004428157287798879 -0.004546867149565781
          -0.007735457800258682 -0.007781201214250857 -0.007826944628243033 -0.012790100976040615 -0.012694614703668481 -0.012599128431296347
          -0.02056931922113537 -0.020252658842737897 -0.019935998464340424 -0.029017249245807862 -0.028509805897715245 -0.028002362549622635
          -0.0002542280180775582 -0.00028758329286516083 -0.00032093856765276344 -0.0003493762176667028 -0.0004018354847009145 -0.00045429475173512635
          -0.0006427292938058171 -0.0007213465690494117 -0.0007999638442930063 -0.0013027033497603356 -0.0014087378923347145 -0.0015147724349090933
          -0.0025455094042517983 -0.0026620635285917894 -0.002778617652931781 -0.004635828426370305 -0.004728989522398835 -0.0048221506184273665
          -0.00781848700350848 -0.00784650531707778 -0.007874523630647081 -0.012337924465899203 -0.012248549982945778 -0.012159175499992353
          -0.018609149739978747 -0.01835801594215443 -0.018106882144330108 -0.02464817857152653 -0.02429166303354119 -0.023935147495555843
          -0.00036330414538607373 -0.0004139138389087645 -0.00046452353243145526 -0.0005601069364993831 -0.0006303536654217514 -0.0007006003943441196
          -0.0009828405339823165 -0.0010718518551754172 -0.0011608631763685177 -0.001768848705833452 -0.0018673650455866852 -0.0019658813853399184
          -0.003063044018364126 -0.003152705419734202 -0.0032423668211042775 -0.005049672643302744 -0.005108665017604422 -0.005167657391906099
          -0.007895460840093951 -0.007901863819635108 -0.007908266799176266 -0.011723898581562532 -0.011643596884882682 -0.011563295188202833
          -0.01632977333392407 -0.016161686236323303 -0.015993599138722534 -0.0190286520348919 -0.01887005603971205 -0.0187114600445322
          -0.0005448091821705119 -0.0006108291470816936 -0.0006768491119928752 -0.0008861341668999843 -0.0009659358715045928 -0.0010457375761092015
          -0.001462837337265369 -0.001547378702655448 -0.0016319200680455265 -0.002369821614917219 -0.002444124556149561 -0.002518427497381903
          -0.0036856263309295472 -0.0037356419206870752 -0.003785657510444603 -0.0055087628261946955 -0.005527703297247518 -0.00554664376830034
          -0.00792869768890114 -0.007913936188469377 -0.007899174688037613 -0.01095142093920381 -0.010888769024587654 -0.0108261171099715
          -0.013943594863582645 -0.013871591443064895 -0.013799588022547146 -0.01481376709176914 -0.014847133088600969 -0.014880499085432795
          -0.0008447089638499296 -0.0009030528939299966 -0.0009613968240100636 -0.0013613812193239662 -0.0014213905524960771 -0.0014813998856681879
          -0.0020992780844713297 -0.002147651350922249 -0.0021960246173731686 -0.003099581017072365 -0.003123729725980769 -0.003147878434889174
          -0.004379566584197206 -0.004376102846954832 -0.004372639109712459 -0.005963978602199889 -0.005941600968640562 -0.005919223335081237
          -0.007870425758747138 -0.007842842179056382 -0.007815258599365625 -0.010017531359951905 -0.009991874200823517 -0.009966217041695128
          -0.01157667934754557 -0.011617458238401667 -0.01165823712925776 -0.011211555872340904 -0.011426550337765939 -0.011641544803190976
          -0.001313758907866972 -0.001321936640640221 -0.00133011437341347 -0.0020173122260840073 -0.0020111855374836595 -0.0020050588488833123
          -0.002900130336898155 -0.002870892317565911 -0.0028416542982336672 -0.003939143766902145 -0.003884624856656967 -0.0038301059464117882
          -0.0051042810564971616 -0.005036295502242857 -0.004968309947988554 -0.006363376522664164 -0.006304937544968935 -0.006246498567273705
          -0.00767292811355421 -0.007651278886125987 -0.007629629658697764 -0.008903035543971633 -0.008944279906987436 -0.00898552427000324
          -0.009260839178996519 -0.00943539632225775 -0.00960995346551898 -0.008114311486979438 -0.008469333705641048 -0.008824355924302658
          -0.001945653782385215 -0.0019048798914650393 -0.0018641060005448638 -0.002828684436632016 -0.002760420457316503 -0.0026921564780009897
          -0.0038205863899640293 -0.0037249002676018744 -0.0036292141452397182 -0.004831113685914416 -0.004718229767846942 -0.004605345849779468
          -0.005800318106731218 -0.00569201903394108 -0.0055837199611509436 -0.006654058104698738 -0.006579332235699227 -0.006504606366699715
          -0.007305580011154042 -0.007295732582812214 -0.007285885154470387 -0.007619541082998476 -0.00770782885569503 -0.007796116628391586
          -0.007039181954648411 -0.00727522813779724 -0.007511274320946068 -0.005514263429095357 -0.005870154371257575 -0.006226045313419793
          -0.004492375088302474 -0.004403211185896001 -0.004314047283489528 -0.005372050911605729 -0.005272569181810548 -0.005173087452015367
          -0.0060910521525184055 -0.005998978789910434 -0.005906905427302463 -0.006556993758888624 -0.006493723084936446 -0.006430452410984268
          -0.006671090195960158 -0.00665774143284858 -0.006644392669737001 -0.00631560691732287 -0.006376544029426413 -0.006437481141529955
          -0.00519940700813455 -0.005357873227546904 -0.005516339446959257 -0.0036822345521180834 -0.0039200457383207305 -0.004157856924523378
          -0.000009185129381399186 -0.0001292496796991676 -0.00014678749447736758 -0.000005910384657681059 0.0000693157535921299 0.000047127779787992795
          -0.00025796627615582373 -0.000007945767341806946 0.00014781663656565899 0.00022350523927515322 -0.0003691450578342799 -0.000009981150025932835
          0 0 0.000008695769139908825 0 0.00001739153827981765 0
          0 0 0 -0.0000027932812406232512 -3.819241626829444e-7 0.0000014074787170530427
          -0.0000055865624812465024 -7.638483253658888e-7 0.0000028149574341060855 -0.03996199497922706 -0.036360129250666846 -0.04342777166801481
          -0.04426061126360445 -0.03938702410821577 -0.03592857874875549 -0.043023614312330684 -0.04373946033229552 -0.038812053237204484
          -0.03549702824684413 -0.04261945695664656 -0.04321830940098659 -0.01096318562860184 -0.005584290603171905 -0.0020346973100034142
          -0.0057610115985637506 -0.0117280520436896 -0.006363910204078889 -0.002945223593576383 -0.006832439007132063 -0.012492918458777357
          -0.007143529804985872 -0.0038557498771493517 -0.007903866415700376 -0.02357325884956036 -0.023146364151201516 -0.029023744819965457
          -0.0285451525187762 -0.02331793702733361 -0.023020602975215108 -0.02868809178755445 -0.0281359550235438 -0.023062615205106864
          -0.0228948417992287 -0.02835243875514345 -0.0277267575283114 -0.008078960784847503 -0.009638572835157254 -0.005805588286485734
          -0.004604972684022277 -0.008611830800707076 -0.01000040809889068 -0.006341402556659112 -0.005263313195094067 -0.009144700816566653
          -0.010362243362624106 -0.006877216826832492 -0.005921653706165859 -0.0041070239179026025 -0.006125744320319834 -0.004499169650429313
          -0.006599890929513111 -0.004891315382956024 -0.007074037538706389 -0.033178017098988745 -0.029620955904040267 -0.03269858765455697
          -0.029360291823421737 -0.0322191582101252 -0.029099627742803204 -0.0000013017015075547903 0 0
          -0.00005636607800113401 0.00002593930265812344 0.000007404366166466787 -0.00001548721626026153 0.0003638460726670916 0.000053180306823801665
          0.000014808732332933574 -0.00003097443252052306 0.0007840582233353172 -0.03974915785830592 -0.03838331363748264 -0.04259825964264529
          -0.04205525436182352 -0.03907523257701005 -0.03767253527592043 -0.041933672398834596 -0.04141232442684573 -0.038401307295714206
          -0.036961756914358226 -0.04126908515502389 -0.04076939449186794 -0.036007507270104974 -0.043067011880971 -0.03566159536994475
          -0.04280796465503208 -0.03531568346978454 -0.042548917429093155 -0.00024133820852374505 -0.0004043569646416087 -0.00010263908325110983
          -0.00003715762743881276 -0.00034519143161833 -0.0005091265842289653 -0.00012026761305171241 -0.00004595430983497954 -0.000449044654712915
          -0.0006138962038163217 -0.00013789614285231503 -0.000054750992231146316 -0.04831168280180141 -0.05851397324787487 -0.05580775200220495
          -0.04586915591073691 -0.04835467518992284 -0.05843994346032891 -0.055583497094045614 -0.04568299681006151 -0.04839766757804427
          -0.058365913672782946 -0.055359242185886275 -0.04549683770938612 0 0 0
          0 -0.00009013817195514134 -0.000021213946616038975 0.000012521838653428019 -0.00003685238048369881 -0.00018027634391028268
          -0.00004242789323207795 0.00002504367730685603 -0.00007370476096739763 -0.012718299512802131 -0.012110064065063096 -0.012933854392901024
          -0.012437201227487 -0.013149409272999915 -0.012764338389910906 -0.034326391300556494 -0.0337586560984558 -0.0331909208963551
          -0.00003584040137724098 -0.00024888907215820917 0.0003638791360629776 0.00028847308725249795 0.0007635986735031962 0.0008258352466632051
          -0.0005522271544955012 -0.0016828887747079592 -0.0006670892087523128 -0.000527275745166459 -0.0021823942216374573 -0.0008218846701424584
          -0.0005023243358374171 -0.0026818996685669554 -0.000976680131532604 -0.019139051251265186 -0.01713447652963282 -0.02771381271233341
          -0.0289279324998339 -0.01975541066860602 -0.017908367612877313 -0.027714676149383284 -0.028826770018187012 -0.020371770085946855
          -0.018682258696121813 -0.027715539586433156 -0.028725607536540132 -0.044519969294968126 -0.045718737618156466 -0.04705920291117971
          -0.04382754293669742 -0.04515015933879615 -0.04650523818117009 -0.043135116578426724 -0.04458158105943585 -0.04595127345116049
          -0.0036904235756854836 -0.00884640081170696 -0.004131327611337032 -0.009256460059373023 -0.004572231646988582 -0.009666519307039087
          -0.0008348794612786243 -0.0029232453693511895 -0.0014080609342197686 -0.0037443236993448 -0.001981242407160913 -0.004565402029338411
          -0.005272188187936243 -0.002464809084040426 -0.005912586337862065 -0.0031119081033291244 -0.006552984487787888 -0.0037590071226178226
          -0.05386110833325154 -0.05271557593440558 -0.05697339685222364 -0.05940023018050762 -0.05341755629387094 -0.052280208472013465
          -0.05666659401042021 -0.05913122608274988 -0.05297400425449034 -0.05184484100962135 -0.05635979116861678 -0.05886222198499214
          -0.017245409990783594 -0.01774289392688499 -0.02417613965631695 -0.017371599503545474 -0.018021442685269663 -0.02414842168791447
          -0.01749778901630735 -0.018299991443654334 -0.024120703719511985 -0.0007534633260980892 -0.000507065566872632 -0.0010826762719915643
          -0.0008095758502697001 -0.0014118892178850394 -0.0011120861336667682 -0.017275559371094436 -0.012616872895054379 -0.017281274777911075
          -0.012816415468521507 -0.017286990184727718 -0.013015958041988632 -0.009363031028703303 -0.012165273375477952 -0.009946834120192852
          -0.013000697472067474 -0.010530637211682405 -0.013836121568657002 -0.00474646727221366 -0.002142821920974293 -0.005517818670249135
          -0.002672541280507453 -0.006289170068284607 -0.0032022606400406127 0 0 0
          -3.184826113017899e-7 0 0 -6.369652226035798e-7 0 0
          -0.0019523034099771764 -0.001122900637836212 -0.0024370107912959713 -0.002243716506462731 -0.0013525870890220217 -0.0028586094823775735
          -0.002535129602948285 -0.0015822735402078307 -0.0032802081734591743 -0.04762370634789454 -0.04951501332755588 -0.04899776058665155
          -0.04707453956091241 -0.04903633349909502 -0.048588633331513774 -0.0465253727739303 -0.04855765367063417 -0.048179506076376
          -0.05055827066900877 -0.0501817061043152 -0.049805141539621636 0 0 0
          0 0 0 0 0 0
          0 0 0 -0.04740224891346807 -0.04942577696324099 -0.04690605260389047
          -0.04913294620791944 -0.04640985629431286 -0.0488401154525979 0 0 0
          0 0 0 -0.060380740311185684 -0.05047913911301981 -0.06020751711431469
          -0.05019604934244615 -0.060034293917443714 -0.049912959571872494 -0.03745159598285447 -0.0357697285189029 -0.037116866763778344
          -0.03563073708228231 -0.036782137544702206 -0.03549174564566171 0 0 0
          -0.002661573790899648 -0.002950649463517831 -0.0032397251361360145 -0.019084313607483562 -0.012143376417719481 -0.019283835864768516
          -0.012697261607921501 -0.019483358122053467 -0.01325114679812353 -0.003580150867938547 -0.004120647944611607 -0.004661145021284667
          -0.00018817260840433149 0.0002378507953567449 0.0006638741991178215 0 -3.184826113017899e-7 -6.369652226035798e-7
          -0.000929440340284204 -0.0012291034724273549 -0.0015287666045705056 -0.0000012117128759084098 -0.000001841303836329024 -0.0000024708947967496387
          -0.000441926348073301 0.00016834271684319926 0.0007786117817596995 -0.030100568629090604 -0.030036191154770905 -0.0299718136804512
          -0.06270911228476445 -0.06260954626345465 -0.06250998024214485 -0.039676985460258454 -0.03908091480804626 -0.038484844155834086
          0 0 0 0 -0.00010657158294288505 -0.0002131431658857701
          -0.005274745623101472 -0.0052246952589855185 -0.005174644894869565 -0.004946884906267131 -0.004929936938279356 -0.004912988970291581
          -0.005728201815005928 -0.005679403869218013 -0.0056306059234300975 -0.005139421691543545 -0.005120328203418935 -0.005101234715294325
          -0.005914913126771271 -0.005876520089338806 -0.005838127051906341 -0.005748335651333317 -0.005728530554466775 -0.005708725457600233
          -0.005131668909858265 -0.005143800818487038 -0.005155932727115811 -0.0038953188997377917 -0.00395280937121138 -0.004010299842684969
          -0.002281594534393844 -0.0023924699718057196 -0.0025033454092175957 -0.0019490535976464305 -0.0013772121796589935 -0.002160153164665089
          -0.0015423443567136668 -0.002371252731683748 -0.0017074765337683402 -0.0006409616063976451 -0.00028709596606006735 -0.0002570506010378936
          -0.0007523592567985026 -0.0006714078542905846 -0.0002961251155751834 -0.0002845152801418769 -0.0008375293108330034 -0.0007018541021835239
          -0.00030515426509029935 -0.00031197995924586025 -0.0009226993648675041 -0.000024043700837251748 -0.000025602752063137494 -0.00002716180328902324
          -0.001134054140334787 -0.0011997448230852013 -0.0012654355058356157 -0.0000827129587539226 -0.00008300873915671458 -0.00008330451955950654
          -0.0045769606987047535 -0.004631522304725829 -0.004564573565440503 -0.004619740809307516 -0.004552186432176253 -0.004607959313889204
          -0.005093391393380304 -0.005074048414361539 -0.005054705435342774 -0.00430262556024096 -0.004290859181476708 -0.0042790928027124555
          -0.004741133468511043 -0.004724125914809673 -0.0047071183611083044 -0.0040158547015454755 -0.004009843996771151 -0.004003833291996827
          -0.002873529875372878 -0.0028886358601349633 -0.0029037418448970486 -0.0016651659761949017 -0.0016922110213327143 -0.0017192560664705272
          -0.0008003109085851428 -0.0008203179383303612 -0.0008403249680755799 -0.00006891502568814193 -0.0002967273585063431 -0.00025761967094115333
          -0.0000715757526707501 -0.0003015564811432031 -0.0002628916643952959 -0.00007423647965335825 -0.0003063856037800631 -0.00026816365784943847
        </DataArray>
        <DataArray type="Float64" Name="disp_x" format="ascii" RangeMin="0" RangeMax="0.000038534876556033874">
          1.7311809797945091e-7 0 1.7595140612895823e-7 0 1.8468884687250523e-7 0
          1.6798589496560178e-7 0 1.7321782626993197e-7 0 1.884653402801967e-7 0
          1.8028022639026564e-7 0 1.8929262951591004e-7 0 2.1598869046094064e-7 0
          2.4316759201940846e-7 0 2.5385499471466083e-7 0 2.914390855445218e-7 0
          4.0421673136790506e-7 0 4.182341491007399e-7 0 4.63408203459388e-7 0
          7.113694506607592e-7 0 7.223631892261538e-7 0 7.565247337289269e-7 0
          0.000001207841639669445 0 0.0000012073913030917483 0 0.0000012082975085361795 0
          0.000001941174873435547 0 0.0000019181187620002736 0 0.0000018564153143311488 0
          0.0000030035351896421164 0 0.0000029493437160308265 0 0.0000027766708271871555 0
          0.000005019092082570377 0 0.000004901727810715451 0 0.000004506146128479996 0
          3.4920131089947325e-7 3.5510923705118593e-7 3.7487544545911894e-7 3.4291678983980384e-7 3.541549522995671e-7 3.875220952718368e-7
          3.748034409638917e-7 3.9272858145693657e-7 4.479402147541611e-7 5.088277903261772e-7 5.320535264790528e-7 6.112892939225943e-7
          8.396557148955613e-7 8.673470344219422e-7 9.545868845673857e-7 0.0000014542659375245734 0.000001474815822455781 0.0000015394675363970634
          0.0000024404222119919588 0.0000024384779499642208 0.00000243742954904313 0.000003888686157425327 0.00000384516686625008 0.000003725375966287153
          0.000005983830912209217 0.000005877342067449335 0.0000055519545648543745 0.000009793816040148503 0.000009570680539531527 0.000008838179434711312
          5.354779868562726e-7 5.458421285671644e-7 5.805071773821537e-7 5.326944571505074e-7 5.509248229396804e-7 6.077496758419003e-7
          5.985678762219887e-7 6.264028283244935e-7 7.138085087195716e-7 8.245025501398329e-7 8.612712163280029e-7 9.796135661251826e-7
          0.000001335816567538688 0.0000013754684590465445 0.0000014998559987666742 0.0000022582790307713967 0.000002285911796195182 0.0000023735557694459997
          0.000003719903547301318 0.000003714880546525074 0.000003707290795675029 0.000005849887036604427 0.000005788546100788796 0.000005616304057886926
          0.000008893803342667671 0.000008743766664459235 0.000008298411362376196 0.000014108441116095406 0.00001380904204438789 0.000012843847645704206
          7.399143348887343e-7 7.578150174904507e-7 8.125761686646041e-7 7.486138369487027e-7 7.76367624347881e-7 8.645509731217871e-7
          8.721950899057262e-7 9.106454927299626e-7 0.0000010354530927043763 0.0000012145921157317336 0.0000012640902575388485 0.0000014180779952792076
          0.0000019206538268968153 0.000001969513376184628 0.000002122452411127002 0.0000031488047571123285 0.000003180085805463897 0.000003280457795925575
          0.000005063487042541336 0.000005053571475429205 0.000005033741791293589 0.00000782061173183114 0.000007744022749326918 0.000007526902909311422
          0.000011691154619685935 0.000011511680656484645 0.000010983590822238348 0.0000177871722555617 0.00001745270437674031 0.00001639179634259555
          9.66438967156727e-7 9.954390268038016e-7 0.0000010786050871701016 0.0000010143151873363783 0.0000010538484533976617 0.0000011767404474936065
          0.0000012176023499615494 0.0000012692930046123477 0.0000014308745023288747 0.0000017029876872921325 0.0000017620100408282163 0.0000019449007663649677
          0.000002618555954363224 0.0000026725687054639885 0.000002841889589763489 0.000004145678548647743 0.000004176516433993071 0.000004277353838834743
          0.000006477484464859584 0.000006460857945934235 0.00000642326796184193 0.000009787103593131335 0.000009699844547199356 0.000009447347071263183
          0.000014321915472007823 0.000014125045782499244 0.000013553629586686574 0.000020887830276379223 0.00002055603871073481 0.000019509964093270182
          0.0000012304334387555977 0.0000012715190768506207 0.0000013901229203030461 0.0000013482684160424438 0.0000013987772672103279 0.0000015541875899357737
          0.00000166161531787701 0.0000017223493237630205 0.0000019131131475989115 0.0000023131576448044422 0.000002376266385094746 0.0000025750638370145932
          0.0000034487682688725 0.0000035020340112569567 0.0000036720969673867473 0.000005259897880916854 0.000005286013393157682 0.000005374395172351029
          0.000007957714329245921 0.00000793395759208962 0.000007875021584090103 0.00001172126291406992 0.000011628651623125568 0.000011353136022250519
          0.00001674349340195308 0.000016545759493072737 0.000015969338562231187 0.00002343405374334859 0.00002313297721128861 0.000022185344340264495
          0.0000015575583884800648 0.0000016050811747409651 0.0000017445546226086528 0.000001778207552232757 0.0000018306930228003752 0.0000020073614822364063
          0.000002232512181068867 0.000002292239569402921 0.000002491368724335088 0.0000030667687119823894 0.0000031246787061820883 0.0000033178006995002745
          0.000004423278798339734 0.000004468475022816273 0.000004620184378374233 0.000006492337536323688 0.000006510104032121131 0.0000065742792546834415
          0.000009487916326037303 0.000009459308365835193 0.000009379972887320092 0.000013586666578684146 0.00001349686822613817 0.000013216566944130203
          0.000018908013282481207 0.00001873071736926168 0.000018190880988451445 0.00002546882928764915 0.00002522874106732322 0.000024445144578609654
          0.000001978662932204599 0.000002011048769080322 0.000002151923206982926 0.000002332740960429994 0.0000023743641772347226 0.0000025387655663979183
          0.0000029556541600437773 0.0000030001556271723383 0.000003172411917091153 0.000003979403567680338 0.000004020836449267571 0.00000417724278339088
          0.000005545050851142997 0.0000055750939578344064 0.000005686862335823058 0.000007832552311367635 0.000007840331965305875 0.000007871948476042303
          0.000011043107769511388 0.000011015114940264162 0.000010924174824944281 0.000015337265019778206 0.000015263838407624375 0.000015008075639441068
          0.000020776192705285616 0.00002064155982499054 0.000020190590441968885 0.000027077377134480588 0.000026916162081590328 0.0000263442894668104
          0.000003833975234167115 0.000003869007792657349 0.000003982249421347368 0.0000050469079991039045 0.000005077232879660656 0.000005173833170564157
          0.0000068001733944114145 0.000006819790675820996 0.000006880199727802784 0.000009257476460743709 0.000009258342032194036 0.000009258538457529515
          0.000012596632082631318 0.000012569052036900292 0.000012480851032143257 0.000016948640673025673 0.00001688560243608566 0.000016681896768687288
          0.000022332781055489415 0.000022226090569553356 0.0000218983140571648 0.000028332851145658063 0.00002821450958599367 0.000027844641204752766
          0.000036459155740124116 0.00003574871334067229 0.00003573914961471551 0.00003645259084475265 0.000036465768229511476 0.00003573953469409648
          0.00003574288426835159 0.000036453922654263285 0.00003643212607652262 0.000035824251381811 0.00003574049117616836 0.00003645369311339522
          0.000037129275280047214 0.00003717197456761911 0.000037122959182577015 0.00003717127015518021 0.00003715089910532 0.00003718071331078904
          0.00003708359770053377 0.00003760299195931693 0.00003761857584620475 0.00003706672109201029 0.00003759624350608771 0.000037602616120776593
          0.000037102213143128945 0.0000376142566231119 0.00003764292428879622 0.000009704598091104881 0.00001458370313608848 0.000011626379731777815
          0.000008370724850710195 0.0000093383945529564 0.00001410279417363801 0.000011183496421280142 0.000008022315675980478 0.000008259661814297367
          0.000012575170752101786 0.000009798484580310838 0.000007014593921797635 0.00003206892128002028 0.0000328271991249168 0.00003429080527528662
          0.00003371297219119592 0.000031829025656166485 0.00003263685021560664 0.000034355145918069334 0.00003365670185555997 0.00003066505774431696
          0.00003166912983361497 0.00003448351390497418 0.00003341384909556697 0.00001850287154800383 0.000020337469923333744 0.00001702281808849494
          0.000015194929127475909 0.000018110294987520133 0.000019861082536862363 0.000016552190404114408 0.000014832527755291438 0.000016835066187490812
          0.000018375576404688837 0.000015093451088605728 0.000013648052960514633 0.000028718855127965564 0.000026810661201893604 0.000029060455678279323
          0.0000308418621342433 0.00002841660584789895 0.00002647379452106158 0.000028827343730674275 0.0000306522878316228 0.00002738665901584058
          0.00002542926903564617 0.0000280708977002757 0.000029904187329943858 0.00002896089977769862 0.000027609111325546413 0.000028807800609839306
          0.000027397543853566618 0.00002829567398120142 0.000026683055127675786 0.000014401914836654022 0.000018527776121154694 0.000013965153441879134
          0.00001801697622850884 0.000012593425216879073 0.000016380047192621483 0.00003673948256063484 0.00003727050143839001 0.000037392909045560686
          0.000036690421124387846 0.00003673618075439247 0.000037258056384980664 0.00003737264754225626 0.000036684761100219615 0.000036659563096413325
          0.00003720572505056618 0.000037300667143821034 0.000036622414288744094 0.0000028196155980049904 0.0000062105492010054805 0.000004694404391144857
          0 0.0000027621796141675384 0.000006045569835829202 0.000004513955600962836 0 0.0000024985282379704797
          0.000005455093903037109 0.000003976985017715775 0 0.000017156381711582647 0.000015046544436429741 0.000016600880886735266
          0.000014530323307468405 0.000014751239241244391 0.00001268206383918514 0.00003555703079638828 0.00003516059668202278 0.000036182475426455976
          0.0000364797425744903 0.00003556081347634595 0.00003515636381311773 0.000036181779762070077 0.000036480026231135126 0.000035531445018784
          0.00003512365253469159 0.000036177717538197766 0.000036477780925979254 0.0000217175611758985 0.000011566530704578591 0.00001115899938777148
          0.000018849901048734837 0.000021489611896467628 0.000011395517842416258 0.000010918847383261726 0.000018391108789775884 0.000019411306074983637
          0.000009985667461358448 0.000009336157507789343 0.000015888221831204712 0.000038106970141546325 0.000037763245202262145 0.00003768351127778129
          0.00003807813281889818 0.000038058838294999356 0.00003772608363768413 0.00003765447137738445 0.00003805727003980611 0.00003817911929342084
          0.00003776057716097479 0.00003773082532765265 0.00003800524035494971 0.000025374656035042623 0.00002632145279548159 0.00002500059031381677
          0.000025940477985646796 0.000023790643333712272 0.000024665208656179617 0.000011143297567945455 0.000010817426957535665 0.000009783435890637315
          0.00003611508732759847 0.00003544637697823345 0.000036116191717711894 0.000035459149487479694 0.000036005014092771206 0.000035754059754352166
          0.00003490466468218841 0.00003422121763666539 0.00003497633920641961 0.000034951731111093776 0.000034057455283439864 0.000034933482735593794
          0.000035390296226227804 0.00003357316660260014 0.00003473109599095367 0.000026548775495250028 0.000028884016105512828 0.000026291644453279932
          0.000021969611506538625 0.000025970909689642954 0.000028333243412917143 0.000025642301781335154 0.000021297245071591506 0.00002420549423933431
          0.000026618231946253462 0.00002340330867394135 0.00001916658860675162 0 0.0000045112810808001856 0
          0 0.000004316540477152247 0 0 0.000003777832323157684 0
          0.000030463430834046122 0.000026227141596997207 0.000030315165492671518 0.000025928934399771245 0.000029811985844374925 0.000025016626184805545
          0.000035060231873415745 0.00003518532605073958 0.000035075815351787015 0.00003502845451249464 0.00003498266832294952 0.000034492798986266886
          0.00003212276850153625 0.00003358162361858094 0.00003189868144079587 0.000033450478138940624 0.00003097224076498923 0.0000329657084811751
          0 0.000004550686735340461 0.0000055363623349393595 0 0 0.000004362263215579623
          0.000005356111132681407 0 0 0.0000036784996797792028 0.000004436882517883972 0
          0.000023717876460046063 0.000025418316724692778 0.000022023955619878634 0.000023272022902641304 0.000024955557460960617 0.000021503902108688023
          0.000021846047120948762 0.00002339939390558669 0.000019853786078082297 0.000034759485722984834 0.0000351316312418407 0.000034737854800764375
          0.000035120010472011085 0.00003458849254990531 0.00003500717357295629 0.000022099248529906866 0.000024178796910459786 0.00002170351331013779
          0.00002383094689278789 0.00002043614614247217 0.000022736868921868967 0.000029662593227984952 0.000029996125258795478 0.00002932410364193953
          0.000029553173589263975 0.000028097596827796733 0.00002810830482527448 0.00003149040229208073 0.00003298825077687752 0.00003127002938213016
          0.000032883065779007495 0.000030432274316698814 0.000032482809261611924 0.00003802734012285141 0.00003763955555754321 0.000038005497685434124
          0.00003801136679815234 0.00003763430974361866 0.00003799512928022574 0.00003801186016939584 0.00003765105127234223 0.00003800244751701236
          0.00003237752140228468 0.00003404433653358411 0.00003218064092160591 0.0000322991499065172 0.000034011421804946254 0.000032065696749626
          0.000032048322538374666 0.00003389829440497226 0.00003165347827329354 0.000004045944285559222 0.000003268619967253974 0
          0.000003878382815425847 0.0000031308054025530097 0 0.000003311284559124535 0.000002647758246804491 0
          0 0 0 0.00003797734690334432 0.000037610471903664854 0.000037476361183002924
          0.000037968233538374375 0.00003797308046015509 0.0000376090422033205 0.00003747603179125346 0.00003796580024360124 0.0000379825021778436
          0.00003762129030642614 0.00003748722414402878 0.00003797622856798545 0.000007603157673032233 0.000008799168676111032 0.000007293182777084969
          0.000008466393353360243 0.0000062670572743174784 0.000007297352962048656 0.00003764269015629407 0.000037988630528838915 0.00003763990695204488
          0.000037981967166754285 0.00003765308445263629 0.00003799147212670552 0.000006024633765876021 0.000011859609261855418 0.0000058937495117246084
          0.000011474809249537126 0.000004997179275851389 0.00000963603823659355 0.000020995148020380303 0.00002480156118598877 0.00002035670418650508
          0.000024376588413799386 0.00001789309664632971 0.00002203382445116607 0.000037163167060160725 0.00003716311755599136 0.00003717267070914507
          0.000030421521779288056 0.000030294481300366788 0.00002994884041696467 0.00003128648157370113 0.00003340195335592817 0.00003100345222846918
          0.00003330987103760811 0.000029150666517512942 0.00003270951252300565 0.000031087155171103176 0.00003094463779573092 0.000030361613677796127
          0.00003565618502515661 0.000035659343028926084 0.000035728873711991476 0.00003805305748735053 0.00003803240727287878 0.00003801214318664955
          0.00003427932895125558 0.00003424378248928383 0.00003407492135013975 0.00003710475980849685 0.000037106511021391795 0.000037113751360338105
          0.00003580625531319776 0.00003596207668348898 0.000036128063848858265 0.000030486933305327644 0.000030301697236165447 0.000028116945760573074
          0 0 0 0 0 0
          0.000037963399483684036 0.00003796296961338136 0.000037974648260088804 0.000038121681302796456 0.00003805197194154143 0.000038225873205473587
          0.000009759248195431546 0.000009759551512862283 0.00000973518420104747 0.000014693021018458688 0.000014678907756696712 0.000014650341968182404
          0.000012139494506903144 0.000012132077028902586 0.000012089653742049372 0.000017522994953859704 0.000017503413098853324 0.000017456159074670747
          0.000015078220548503694 0.00001506189203371825 0.000015001458180956674 0.000018639430555239467 0.000018612429186141637 0.000018534396635647736
          0.00002283040722820542 0.000022792125310271235 0.000022698676381909203 0.00002746951050639674 0.00002742393213242919 0.0000273282806537575
          0.000032123518616668616 0.00003210221636796392 0.00003204575665263018 0.00003221093016217885 0.000033547533916218416 0.000032155058367960624
          0.00003353454436428704 0.00003201033179213874 0.00003345173079500993 0.00003549692636367764 0.00003650192807974495 0.000036086748272765804
          0.0000348889155873961 0.000035494564417771136 0.00003650331103083723 0.00003608776122605043 0.000034880683287642875 0.0000354849904502987
          0.00003650933226796739 0.000036092157932238874 0.00003485731178239224 0.00003705295958757067 0.00003705526297097814 0.000037066643431285425
          0.000034267838815872334 0.00003426334813877766 0.00003422937673764374 0.00003814768544629437 0.000038149263507906274 0.0000381568960470941
          0.00002272889777391086 0.00001968451684663837 0.00002271370112193605 0.000019675348253879253 0.000022668655570193536 0.000019648031507933573
          0.000020722017673858978 0.00002069855700235876 0.00002063533852450507 0.00002592358066557428 0.000025903231906709665 0.00002584230051061162
          0.00002424817602539695 0.000024223562840879645 0.000024148586391594014 0.00002797398792820792 0.000027949994273384958 0.00002787053680075149
          0.00003163280165369965 0.00003161869890166831 0.0000315487394402449 0.00003455596581763422 0.00003455098786904989 0.00003452373628514478
          0.00003575283043943633 0.00003574781028590965 0.00003573955632829158 0.00003853204192587061 0.000037003241899570556 0.0000376996680056215
          0.00003853335019972026 0.00003700272985546113 0.00003770056633804355 0.000038534876556033874 0.000036999347235172754 0.000037703425544212344
        </DataArray>
        <DataArray type="Float64" Name="disp_y" format="ascii" RangeMin="-0.000027692365465444483" RangeMax="-0.0000036447264095156893">
          -0.0000036474879209136796 -0.000003646651685654859 -0.0000036459984793554786 -0.0000036455097855149227 -0.0000036449907846479445 -0.000003645362429000908
          -0.000003885938042170782 -0.000003881796521155008 -0.00000388142458305419 -0.0000038776179106731116 -0.000003871634320587685 -0.000003868845066256853
          -0.000004115462862633379 -0.0000041044692288449205 -0.000004104890467347265 -0.000004094100935399389 -0.000004077184149913941 -0.000004068153227304845
          -0.000004370011875132777 -0.000004346445636441387 -0.000004348927655829885 -0.000004325634842586608 -0.0000042842563602787466 -0.000004262146975464097
          -0.000004719487830713353 -0.000004676820945353877 -0.0000046808766671297685 -0.000004637827562490102 -0.00000455526346449086 -0.000004511364562724529
          -0.000005251754372433445 -0.000005185178805931318 -0.00000518846317552616 -0.000005121172127298221 -0.000004979888461794277 -0.000004910194892748301
          -0.0000060621022609578275 -0.000005966848434207947 -0.000005969039797052045 -0.000005873037831213233 -0.000005662949829663957 -0.000005562404042730459
          -0.0000072586976946434375 -0.0000071263314373984835 -0.000007131255701461478 -0.000006997260296397798 -0.000006712813743917374 -0.000006572647788204699
          -0.000008955485457307122 -0.000008763139037075395 -0.000008782660405697007 -0.000008579383983643566 -0.000008196374210035596 -0.000007967146946901255
          -0.000011193246984428841 -0.000010858718544127945 -0.000010957694291033267 -0.000010609634948977463 -0.000010061783360170377 -0.000009630382656547287
          -0.0000036507783083660495 -0.000003648303368706871 -0.0000036447264095156893 -0.000003899978934581235 -0.000003894562538153693 -0.000003881778445279203
          -0.000004150262357775839 -0.000004139183063125371 -0.000004107341391025194 -0.000004443373957400951 -0.000004422155048426046 -0.00000435519643649833
          -0.0000048502711877472785 -0.000004812579547847468 -0.000004688816431726287 -0.000005452688379862225 -0.000005391491866879614 -0.00000519014644437242
          -0.0000063485973528781066 -0.000006258463683733371 -0.000005965736013002435 -0.000007655697619600043 -0.000007533413549680797 -0.000007136167047449504
          -0.0000095273093356859 -0.000009374769295975698 -0.000008848981683108312 -0.000012137730550897663 -0.000011927338178905977 -0.000011188770168479464
          -0.0000036578267884976294 -0.000003653731401309074 -0.0000036454241130590005 -0.000003927692767401921 -0.000003921073564415951 -0.000003903275351106238
          -0.000004214745163324697 -0.000004203131840753444 -0.000004165406883696563 -0.000004574685476274743 -0.000004553623518313699 -0.000004483346337639399
          -0.000005075045181369281 -0.000005038522229842678 -0.000004917585301942082 -0.000005791100604036609 -0.000005733366697702361 -0.0000055438760031642734
          -0.000006824308595342233 -0.00000673929209097399 -0.000006468958059007429 -0.000008316166163772025 -0.000008203707466282935 -0.000007841170393298726
          -0.000010416280483108063 -0.000010288533846033986 -0.000009842405445369815 -0.000013158648828900954 -0.000013020136882798401 -0.00001253664874555318
          -0.000003671310285443701 -0.000003665568185697276 -0.000003650416258845187 -0.0000039740388270502925 -0.000003966471191780088 -0.000003941651708423552
          -0.0000043201334723893216 -0.000004307321996340629 -0.00000426328950228752 -0.00000477392626293992 -0.0000047529444241809415 -0.000004679326119791558
          -0.000005400814110470663 -0.000005366005364408404 -0.00000524945947586674 -0.000006270723262273749 -0.000006217553801989245 -0.000006044450260065116
          -0.000007486500908254176 -0.000007409405285689329 -0.000007169313694225479 -0.000009200017675461834 -0.000009099743611094383 -0.000008784169898229824
          -0.00001154111104699609 -0.0000114446222265098 -0.000011096721822421232 -0.000014460679565525882 -0.000014391291061181709 -0.000014155530483711924
          -0.000003699120872958736 -0.0000036921977046839098 -0.000003668972148983336 -0.000004049784334963914 -0.000004040502578108095 -0.000004007090351140784
          -0.000004477585400292464 -0.000004464261533343568 -0.000004412886883461241 -0.0000050500473315816065 -0.000005029185189198404 -0.000004953514386719408
          -0.00000583334185700778 -0.000005800595661723083 -0.000005691053017662421 -0.0000068916688138323325 -0.000006843853535682332 -0.000006691195517774074
          -0.000008321883937897423 -0.000008254579599383863 -0.000008050493987791491 -0.000010261303063333454 -0.000010178121636518317 -0.000009921969475528762
          -0.000012808014702141817 -0.000012742812989077962 -0.000012499857281763834 -0.000015925493583697478 -0.000015888831437476 -0.000015811873325031393
          -0.0000037522337843154003 -0.000003743192048560807 -0.000003710680471454113 -0.000004165995535225546 -0.000004154741300722682 -0.0000041112557523687655
          -0.000004696935188402448 -0.000004681899629172788 -0.000004623969270390902 -0.000005411961836888847 -0.00000539067959477513 -0.000005314287050769927
          -0.00000637510433767471 -0.000006344493813780147 -0.00000624439120861154 -0.00000764671506652645 -0.000007604604448872008 -0.000007475338010143997
          -0.000009305145740638143 -0.000009249293294102452 -0.000009085863459111291 -0.000011455014612503839 -0.00001139156122531924 -0.000011200873239449142
          -0.000014151234872003621 -0.000014109776946969687 -0.000013961318915210736 -0.000017258089124276908 -0.000017266690042964843 -0.00001732002866406895
          -0.000003843097417597492 -0.000003831527692547451 -0.000003787794955895286 -0.000004334632556173788 -0.000004320149921576428 -0.000004266486566863609
          -0.000004988133251740979 -0.000004970348228505186 -0.000004906487582429528 -0.000005864145556353582 -0.000005841621207519068 -0.000005765890350474169
          -0.000007021715785933139 -0.000006993015208977006 -0.0000069041620861523726 -0.000008517748482476509 -0.000008481883110294665 -0.000008377818193647241
          -0.000010403625416330586 -0.000010360546896724861 -0.000010240211234803136 -0.000012728488330465604 -0.00001268573864373406 -0.000012560960592866111
          -0.00001549758504846362 -0.000015480351319818937 -0.000015418094952314322 -0.000018535750636051737 -0.000018562512026869864 -0.00001868400585475727
          -0.00000398351707681378 -0.0000039666816931176555 -0.000003911809796360148 -0.0000045680971595935345 -0.000004549154280584257 -0.000004483341183300213
          -0.000005358868074378032 -0.000005337243678448088 -0.000005266775702031023 -0.000006404516913589063 -0.0000063806260391685075 -0.000006306278476013133
          -0.000007760286086595515 -0.00000773446233753548 -0.000007657490397053635 -0.000009473636229477992 -0.000009446759501763638 -0.0000093693065604609
          -0.000011571354387112344 -0.000011545609713194208 -0.00001147037174039357 -0.000014034037298562584 -0.00001401688935140586 -0.000013958270058691766
          -0.000016798007597058546 -0.000016801936969504253 -0.000016811085711599302 -0.00001977603625085844 -0.000019804897304688782 -0.000019963350097459742
          -0.000005809505655555 -0.000005784815060586427 -0.000005709659182203757 -0.000007025108164235492 -0.000007000045125553019 -0.000006929813988494824
          -0.000008569674152835289 -0.00000854555153458586 -0.00000848467869444959 -0.000010479123979553524 -0.000010457375453307511 -0.000010411751069754695
          -0.000012756817790856793 -0.000012740295571025776 -0.000012716017138166716 -0.000015339139369456602 -0.00001533537308291163 -0.000015349128458813067
          -0.000018064441993802783 -0.000018076670863532814 -0.00001815649830229846 -0.00002073284340247693 -0.000020780959104090474 -0.000020919560536886154
          -0.00002095440345726996 -0.000020965024818292827 -0.00002153912957808638 -0.000021692624162369902 -0.000021024287377654833 -0.000021036688181101917
          -0.00002160000028696455 -0.000021748170232646592 -0.000021199062903442625 -0.000021255895331431575 -0.000021794586368419414 -0.00002187310769771134
          -0.000021202429781044806 -0.000021777881832597068 -0.000021267611821590645 -0.000021824708966901363 -0.000021381656073419524 -0.000021932818324850153
          -0.00002058537731411999 -0.000021222632279686044 -0.00002073645731069111 -0.000020657649882794618 -0.00002128440454791287 -0.000020811007772751445
          -0.000020912119184447118 -0.0000213995273405106 -0.00002099770205464711 -0.000013389937017765666 -0.0000144104259736093 -0.000014690061411409835
          -0.000014245666421393736 -0.000013057310577422553 -0.000014159735717402773 -0.000014316635641362086 -0.000013818620820801841 -0.000011804066562597989
          -0.00001309541579372594 -0.000012819074139736832 -0.000012223206850212797 -0.000018281214113602658 -0.00001909799688988735 -0.000019061577448592014
          -0.000018318581992740127 -0.000018352394415044664 -0.000019398446555680085 -0.000019276466323217152 -0.000018409737104255243 -0.000018810392008367063
          -0.00002003907229272261 -0.000019605514204177304 -0.000019106622832497084 -0.00001460416803332093 -0.00001535734006974971 -0.000014345115920840607
          -0.00001375515704617559 -0.000014522802240605107 -0.000015306519104982583 -0.00001422331513526637 -0.000013607746620731827 -0.000014209646777750434
          -0.000015027716872979842 -0.000013711899863657584 -0.000013044940297387688 -0.00001908882045864113 -0.00001847919212305888 -0.00001979306170608152
          -0.00002017853586616958 -0.000019159458810647322 -0.000018513315077430957 -0.000019839316187489535 -0.00002025492572512902 -0.000019444902147532163
          -0.000018710265378659798 -0.000020088673715985254 -0.00002058196118424285 -0.000020659288030973343 -0.0000195067804069473 -0.000020705797700840765
          -0.000019540641433394642 -0.00002092590245181879 -0.00001973199693062488 -0.000013846033935405492 -0.000014825075142776583 -0.00001363634614836001
          -0.000014716245605791182 -0.00001281820928777933 -0.000014252793842018215 -0.00001998392775517183 -0.000020022527555001368 -0.000019395753752225606
          -0.000019134185924294705 -0.000020095965906649846 -0.000020111070695716284 -0.000019505246311983343 -0.000019239581401294696 -0.00002031119526280971
          -0.000020385165541211106 -0.00001985250993746004 -0.000019842635502038994 -0.000011475583918091023 -0.00001199338315186092 -0.000012656212629621227
          -0.000011891633039988165 -0.000011212098536548916 -0.000011717075529689565 -0.000012323365263251307 -0.000011579554059326888 -0.000010154473073351564
          -0.000010655653390660335 -0.000010998140411837014 -0.000010334479146413268 -0.000015455409430604868 -0.000015929386886562564 -0.000015217035465637864
          -0.000015529899599488594 -0.000014180786760567722 -0.000013920378070065562 -0.00002215203983938643 -0.000022971203103021923 -0.000023092374040696052
          -0.00002245444264233854 -0.000022204854391518366 -0.00002301088100519008 -0.000023127659761324302 -0.000022494565374270805 -0.00002237140949546486
          -0.00002313034648080789 -0.00002321429472374228 -0.000022596766239666262 -0.000022637534700388828 -0.00002429150360625756 -0.000021911467196574834
          -0.000019648579463712144 -0.000021913941663007297 -0.00002333657950432561 -0.000021038583199246976 -0.000019106321291581112 -0.00001936782526100735
          -0.000019105447984840814 -0.000017473166428033857 -0.000017172600311385482 -0.000019958479849460657 -0.000019902332900298816 -0.000020248002061469427
          -0.000020426627211610124 -0.000020047540857818082 -0.000019992772496719917 -0.0000203201066544188 -0.000020502233513330466 -0.000020301011432536535
          -0.000020349277887324562 -0.000020644091229132834 -0.00002076221774485795 -0.000017453197915385646 -0.000017720589482196644 -0.00001747524883503722
          -0.000017771954859016782 -0.00001759380643851662 -0.000017969750609428678 -0.00001282906626989526 -0.000012573039403517653 -0.000011670257296371146
          -0.00002019297016617201 -0.000020382456086726714 -0.000020307355356897022 -0.000020452644039928874 -0.000020558113546882033 -0.00002055714193110627
          -0.000019836432318939238 -0.000020013465841758912 -0.00002075439644763779 -0.000019776939690961608 -0.000020094916894460968 -0.00002080074827602864
          -0.000019975809805869766 -0.00002069413400785794 -0.000021192588671606096 -0.000017181929525899428 -0.000017675868738688753 -0.00001645361105695921
          -0.00001580178666769235 -0.00001731980939580723 -0.000017771746106045615 -0.000016463047332832618 -0.00001574447534193329 -0.00001753223756797702
          -0.00001809565103541496 -0.000016788538010560045 -0.000015482145301257746 -0.000012998515110173472 -0.0000139717359661999 -0.000014195632358517563
          -0.000012596378856210199 -0.00001351462023214186 -0.000013691537154123657 -0.000011064365852409729 -0.000011828290463270357 -0.00001183591355137071
          -0.00002103479023520882 -0.000018542508972813318 -0.000021090147316612827 -0.000018576388223186024 -0.0000213533896247736 -0.000018740927779802315
          -0.000018948236967405905 -0.00001813245494797213 -0.000019123758496730335 -0.00001817211560089733 -0.000019654972111604242 -0.000019259798183977815
          -0.000019550535899709192 -0.000020653580279709046 -0.0000196737436717288 -0.00002070377198038484 -0.00002018141138534533 -0.000021133004203423043
          -0.00002019546564365296 -0.000018390257773711622 -0.00002044252718212397 -0.000022317017810150764 -0.000019196857825345744 -0.000017582537224076093
          -0.000019535822955833347 -0.000021179413800571254 -0.000015412774787211877 -0.000014630646814682803 -0.000015948087013840212 -0.000016625910120378588
          -0.000016733252214444988 -0.000017065399626631022 -0.00001589541483731958 -0.000016742795689652987 -0.000017136120973668423 -0.000015855015242499503
          -0.00001671950856079851 -0.000017220355030349715 -0.000015586048854558216 -0.0000216190761839148 -0.0000213258004300025 -0.000021681966224911256
          -0.000021385992969232862 -0.000021935643185130806 -0.000021655591383903882 -0.000016089277784409327 -0.000017312273078772712 -0.000016058751811004596
          -0.000017302314513778917 -0.000015980738601184106 -0.000017366695055314854 -0.000018953915676721926 -0.00001841365017185423 -0.000019060352240072146
          -0.000018573267872088226 -0.00001943721999965758 -0.00001898211943605319 -0.000019964902139155328 -0.000021266172140772664 -0.000020041939670457164
          -0.000021331727763615657 -0.000020433338172813045 -0.000021636780623164753 -0.000021308219047441572 -0.000021642443500057297 -0.000021720476123406525
          -0.00002136483499553207 -0.00002169115449848741 -0.000021765565063795918 -0.000021472857097889366 -0.000021789675226117547 -0.000021860142495172485
          -0.000022252474533636008 -0.000022769782581346905 -0.000021469101188645368 -0.000022302583056914145 -0.000022816358679791993 -0.000021530958368739825
          -0.000022486139908587057 -0.00002298659004831463 -0.00002181049659795916 -0.000015024894233924578 -0.000016620568303449334 -0.00001611993533230206
          -0.000014456554396788795 -0.000015930660780920427 -0.000015452307159859278 -0.000012444671118208066 -0.000013442392274166088 -0.00001300934745889004
          -0.00001810935618669214 -0.000017274662037466377 -0.000014198171020077445 -0.000022489949571470233 -0.00002234848031087777 -0.00002269576548825355
          -0.000022853393298191943 -0.000022522814741925824 -0.000022384779623621162 -0.000022728163728810986 -0.00002288180635582582 -0.000022600683596092215
          -0.000022468140965036348 -0.000022804808864435298 -0.00002295019642739586 -0.00001571092512507311 -0.000017286321481009914 -0.000015138124338773232
          -0.000016635765771177215 -0.000013119036085668107 -0.000014306049381902557 -0.000022018594338064527 -0.000022112870662509697 -0.000022059375188535266
          -0.000022150901471393938 -0.00002215113137618475 -0.00002223680463196246 -0.000021908822819745645 -0.000019095918295616705 -0.000020928852173607305
          -0.00001837352341133402 -0.00001690741264357328 -0.00001569494197868839 -0.000016789312975947806 -0.000018322993444673278 -0.000016506933573898564
          -0.00001804190474656454 -0.000015406620957471834 -0.00001756871341530967 -0.00002232001875951359 -0.0000223590986754969 -0.000022447087389563763
          -0.000021557533048780013 -0.000021618603109115402 -0.000021775592593057345 -0.000017099400334221055 -0.000017199203800908616 -0.000017250062400899724
          -0.000017338094519197284 -0.000018308899863724227 -0.000019258218270687394 -0.000020638244828029965 -0.000020691035705627266 -0.000020969439903708917
          -0.000019403354286519952 -0.000019508018816576207 -0.00002015837362958914 -0.000020876633000240205 -0.000020945414068268165 -0.00002109964406000277
          -0.00002203541168949623 -0.000022098097692373797 -0.00002232573921921523 -0.000023167923085686526 -0.0000231970008088402 -0.000023263723860290258
          -0.000018622751471826368 -0.000018869320001436833 -0.000019740737223266935 -0.000019652966412227198 -0.000019376157208463992 -0.00001945964771285598
          -0.000024352391714610743 -0.000023110734644104844 -0.000017771820842107816 -0.000011238671045983202 -0.000010967162287397112 -0.000009894187564902922
          -0.00002320170473016422 -0.00002322692027437144 -0.00002328596620424955 -0.00001948985635016767 -0.000019592902096148938 -0.000019866839844353935
          -0.000009746624196695843 -0.000009732289408503975 -0.000009688740737138578 -0.000012734745524016018 -0.000012727212079255538 -0.00001270456576852894
          -0.00001181863977552319 -0.000011810187787194444 -0.000011783226434629509 -0.000015066790508807257 -0.000015064481686503008 -0.00001505805777353573
          -0.00001420162256148149 -0.000014200609457938643 -0.000014195635954922562 -0.000016815847393494622 -0.00001682477247535248 -0.000016848303835996922
          -0.000019500004509209954 -0.00001952523837018293 -0.000019590422069985855 -0.000022020706421544148 -0.000022055474405933548 -0.000022179073221328085
          -0.00002414076734122944 -0.000024177895909622435 -0.000024320177814535636 -0.000023012392576309594 -0.000023621627939068882 -0.000023055689810593824
          -0.000023654562479456825 -0.000023210883459562484 -0.000023800689310941106 -0.000025048361410775162 -0.000025240580874705475 -0.00002408039945044514
          -0.000023940787221196163 -0.00002507451075910806 -0.00002525969274040229 -0.000024106855025636782 -0.000023974392512392985 -0.00002514317431747035
          -0.000025313769504576866 -0.000024181659625413387 -0.000024088444390020534 -0.000024166241404399805 -0.000024188697331599266 -0.000024244097963148488
          -0.00002479340842236025 -0.00002482701467394416 -0.00002491928893609776 -0.000025634693212480727 -0.000025649344062112417 -0.0000256888575905119
          -0.000018120311628211005 -0.00001575447587649314 -0.00001812482878207721 -0.00001575359096785575 -0.000018137637404156474 -0.00001575065729361014
          -0.000017592921185301477 -0.000017597707266629324 -0.000017613000199321197 -0.000020541639370909737 -0.000020552763611918048 -0.000020584884772804366
          -0.000020188358391509423 -0.000020201737436632648 -0.00002024420547406812 -0.000022658734424983372 -0.000022684570021558548 -0.000022760356165960832
          -0.00002474809742236323 -0.000024780864119308883 -0.00002489144664011677 -0.000026173320670232912 -0.000026201468466822967 -0.00002629309795270139
          -0.000026329128447048247 -0.00002635190204378102 -0.000026412363859632823 -0.0000272438837330344 -0.0000264430298288335 -0.000027638879870860905
          -0.00002725784676031676 -0.000026458348716875075 -0.00002765211458042677 -0.000027300095488611524 -0.000026505694350390093 -0.000027692365465444483
        </DataArray>
        <DataArray type="Float64" Name="disp_z" format="ascii" RangeMin="-0.000020498172693570794" RangeMax="4.430028883206502e-7">
          0 0 -7.379217619767958e-8 -7.226541636449092e-8 -1.536865797062809e-7 -1.5050113429564607e-7
          0 0 -7.42422540187309e-8 -7.147398194201649e-8 -1.6151266331811126e-7 -1.5487929638977847e-7
          0 0 -9.199653751930243e-8 -8.596333000494624e-8 -2.0574137212237439e-7 -1.9393476670156072e-7
          0 0 -1.560726194899672e-7 -1.4730581444781623e-7 -3.47271102319429e-7 -3.2565238662119616e-7
          0 0 -3.1891083119280586e-7 -3.0598287204018725e-7 -6.873529912607884e-7 -6.623068126270347e-7
          0 0 -6.376668787845745e-7 -6.258387100041763e-7 -0.0000013234944216696002 -0.0000013019239960445277
          0 0 -0.0000011649055211446684 -0.0000011592311978737374 -0.0000023532095667592384 -0.0000023433958384606705
          0 0 -0.0000019456810586196444 -0.000001956888768724386 -0.00000386866860612815 -0.0000038901861234680765
          0 0 -0.000003100939169648434 -0.000003140201319687131 -0.0000061134025720976335 -0.000006195498044662267
          0 0 -0.000005343782743143881 -0.000005585910627992912 -0.000010478686635267592 -0.000010936298823445513
          0 -7.918038088563833e-8 -1.6627000339428418e-7 0 -8.352450347878138e-8 -1.8225776071276114e-7
          0 -1.1036894503763457e-7 -2.4393363637200675e-7 0 -1.859828304868715e-7 -4.1027241099232386e-7
          0 -3.5702147768261757e-7 -7.604821648213652e-7 0 -6.725983979746541e-7 -0.0000013872565565943658
          0 -0.0000011794091030743657 -0.0000023777872620120123 0 -0.0000019176767892793572 -0.000003814289673764827
          0 -0.00000296234181608224 -0.00000583652609479589 0 -0.000004774206196643594 -0.000009384147933530616
          0 -9.006308519786619e-8 -1.933987399106828e-7 0 -1.0183380413171685e-7 -2.2184530615656558e-7
          0 -1.434476602892728e-7 -3.135367212036456e-7 0 -2.3806294267358186e-7 -5.146509815595517e-7
          0 -4.189841534266273e-7 -8.7825975640567e-7 0 -7.274131092848774e-7 -0.0000014873088925910812
          0 -0.000001200801322725769 -0.0000024139122261252 0 -0.0000018636376995778396 -0.000003705781122673122
          0 -0.0000027773855585875052 -0.000005481788014843479 0 -0.000004027593745520165 -0.000007935916961970736
          0 -1.0727168177737035e-7 -2.3453564807360695e-7 0 -1.334567753826086e-7 -2.9239448043769177e-7
          0 -1.9495712473577974e-7 -4.21964704537918e-7 0 -3.1161583218946084e-7 -6.580231628647139e-7
          0 -5.022904503372185e-7 -0.0000010352195711479428 0 -7.972183270162613e-7 -0.0000016144182514165939
          0 -0.0000012226736908992316 -0.0000024494992484689397 0 -0.0000017911133025951034 -0.000003562729134323925
          0 -0.0000025282834768613124 -0.000004992988990932709 0 -0.000003216613810419261 -0.000006385380891015169
          0 -1.3427250973286725e-7 -2.94828863690629e-7 0 -1.8349778424329484e-7 -3.9668739879179965e-7
          0 -2.6903230465194153e-7 -5.694993685546917e-7 0 -4.0613362827757765e-7 -8.382760144573799e-7
          0 -6.02582921670009e-7 -0.0000012220831774046916 0 -8.751199711360497e-7 -0.000001756176072896243
          0 -0.0000012383612379864213 -0.00000247263233723922 0 -0.00000169824308261088 -0.0000033799240529103877
          0 -0.0000022287079830515138 -0.000004413721993950198 0 -0.00000246638711079695 -0.000004958001814471977
          0 -1.8150811206066627e-7 -3.868533865161288e-7 0 -2.5715906394922456e-7 -5.387908112582027e-7
          0 -3.689567005875738e-7 -7.570253668376852e-7 0 -5.209079647051174e-7 -0.0000010513589917047714
          0 -7.141909439922252e-7 -0.000001427403837636613 0 -9.529186627386306e-7 -0.0000018976542266851927
          0 -0.0000012411526182770117 -0.000002472684055426033 0 -0.0000015749007602660037 -0.0000031402759355413674
          0 -0.000001909763012481493 -0.000003810252956274418 0 -0.0000018116885283120732 -0.000003696389420286191
          0 -2.561537673376093e-7 -5.134747228508441e-7 0 -3.60635298834636e-7 -7.23052543527807e-7
          0 -4.957270741706801e-7 -9.83422934181945e-7 0 -6.534182864459823e-7 -0.000001290016698498906
          0 -8.307536672403009e-7 -0.0000016390686688454318 0 -0.0000010221511353930646 -0.0000020238283651293448
          0 -0.000001222103652242784 -0.000002435796051860003 0 -0.0000014194257466108598 -0.0000028465383007940364
          0 -0.000001562247794065147 -0.000003161438932105507 0 -0.0000012637543358256516 -0.0000026670371714063694
          0 -3.578644122980982e-7 -6.818433169550136e-7 0 -4.926446291519497e-7 -9.517897830629423e-7
          0 -6.453783960790998e-7 -0.000001245670296616098 0 -7.977223812388623e-7 -0.0000015471708556436049
          0 -9.452149534828706e-7 -0.0000018466740835588134 0 -0.0000010750440653296567 -0.00000212160536517011
          0 -0.0000011739995911495936 -0.000002348077677575715 0 -0.0000012277795899949248 -0.0000024940572233423317
          0 -0.0000011878821928232598 -0.000002471718184806641 0 -8.034796923487663e-7 -0.0000017735353304449935
          0 -7.917853455586717e-7 -0.0000015618295164424518 0 -9.313778282432771e-7 -0.0000018369496199208146
          0 -0.0000010404522381354778 -0.0000020552295467252356 0 -0.0000011020978072564833 -0.0000021848193602557114
          0 -0.0000010976271201434431 -0.0000021875228904925726 0 -0.0000010181181126907972 -0.0000020431656655586712
          0 -8.311464922243309e-7 -0.000001695928911975243 0 -4.822772055995925e-7 -0.0000010163479046957006
          0 0 0 0 -2.6144131807313022e-8 -8.023307776143053e-8
          -7.980121831277785e-8 -3.3083624110196035e-8 -7.879214286304692e-8 -1.6354833713541252e-7 -1.789137945319326e-7 -7.584059733208303e-8
          0 0 6.541535851883887e-9 8.563332603085615e-10 5.26797018902575e-9 -1.1699286074699106e-8
          0 0 0 1.1989114877744458e-8 3.3434495807808025e-8 4.757515762240022e-8
          1.77126630644381e-8 4.865174960328708e-8 5.247565593163968e-8 0 0 0
          0 -0.000006001039472369369 -0.000005391442017084131 -0.0000065711816404266795 -0.000006692010410842309 -0.000011829776130340838
          -0.000010691027942891676 -0.00001311069646869235 -0.000013277637731777882 0 0 0
          0 -0.000001421701475677727 -8.454052288281654e-7 7.184800105684576e-8 -0.0000010155104593036067 -0.000003072866965651277
          -0.0000016879968424277448 -5.686735539818555e-7 -0.0000022711450334893283 0 0 0
          0 -0.0000035157351707643553 -0.0000034460301123088812 -0.000004401646975323113 -0.0000044007711246378464 -0.000006938057042027123
          -0.0000068651851701571595 -0.000008722887710705546 -0.000008700538677610167 0 0 0
          0 -0.0000011711501010909796 -0.0000014116306468266702 -8.89489459079026e-7 -7.05704483737868e-7 -0.000002435188114454826
          -0.000002890799576033914 -0.000002013787887711339 -0.00000169026719289051 0 0 -6.131779297957957e-7
          -9.656658848405324e-7 -0.000001294668833171981 -0.0000021133470988460492 0 0 -0.000004859437472832785
          -0.000004584834076086999 -0.000009510853587492503 -0.000009139709758554308 0 0 0
          0 -1.389328836372622e-8 2.9078251782620507e-8 2.6728617450293922e-8 -6.614291889876143e-10 -1.1416235911510105e-7
          7.014206678049128e-8 5.705132798848328e-8 -1.0449977203346731e-7 0 0 0
          0 -0.000005979291713284432 -0.00000571420400634511 -0.000006405817171205779 -0.000006427991002067734 -0.000011789487491354786
          -0.000011174225033274257 -0.000012631892106362288 -0.000012714087154969408 0 0 -0.000005326828740731151
          -0.000006557802148378123 -0.000010471289985222325 -0.000013218454233354578 0 0 0
          0 -8.359677901582351e-8 -9.541600660420632e-8 -5.790632184365972e-8 -3.8811623757815515e-8 -1.936954928346883e-7
          -2.076810416119789e-7 -1.2882167531277337e-7 -8.639230235475498e-8 0 0 0
          0 -0.000007872672591073734 -0.000009101310309074893 -0.00000805101500713853 -0.0000068722643439015685 -0.00001612502078478604
          -0.00001839350971934204 -0.00001577968065826562 -0.000013788476013404418 0 0 0
          0 9.379078679630968e-8 4.8056022930631695e-8 6.045203755500593e-8 9.41882575221384e-8 -3.509617246295923e-8
          4.027955346441263e-8 1.0703170751428303e-7 1.7281104676161333e-7 0 0 -0.000001941667877141497
          -0.0000019114473536346904 -0.000003930066649518346 -0.000003972397652152153 0 -0.000005163756476503763 -0.0000102102034846555
          0 0 -4.8099360514113485e-8 -6.891075013994518e-8 -1.7548184930457022e-7 4.430028883206502e-7
          0 0 0 -6.878659062378009e-8 -3.3267158678658884e-7 -1.3545756688793448e-7
          4.575614417652958e-9 -0.0000010307260396607696 -4.322775597622553e-7 0 0 0
          0 -0.0000030102572181281233 -0.0000026593328744436692 -0.000004187223681248157 -0.0000043005355018775936 -0.000006211821177676202
          -0.0000059705610894411354 -0.000008341390861883012 -0.000008564423460781458 0 0 0
          -0.000006600087623967739 -0.000006909572568139716 -0.000007009306809420237 -0.000012916761503961664 -0.000013749788638580398 -0.000013861366514262045
          0 0 -5.129546554233213e-7 -0.00000137114142341305 -0.0000011795333970200135 -0.0000028867696206583754
          0 0 -1.1685272611991389e-7 -3.4915863832515606e-7 -5.928864161980872e-7 -0.000001150978029089442
          0 0 -7.620793665385089e-7 -3.5169605302354475e-7 -0.0000015662414452404833 -9.223070355042394e-7
          0 0 0 0 -0.000007867654813083813 -0.000007685899616406167
          -0.000008508251460004751 -0.000008911261146679398 -0.000015616067671767364 -0.000015266010114529114 -0.000016969536981609453 -0.000017783072771439515
          0 0 0 -0.0000026523546184764375 -0.000002708504247726654 -0.000003571760373045192
          -0.00000535697912771968 -0.000005451174089017909 -0.000007187751558812411 0 0 -1.3262061703078948e-7
          -1.1810487049769732e-7 -3.7735287855140133e-7 -3.356136210841749e-7 0 0 -0.000002614649465536925
          -0.0000018989708995954885 -0.000005238734527414958 -0.000003850195643769511 0 0 -0.0000013495998342298094
          -0.00000183459366482307 -0.0000028912999628428704 -0.000004090824714364107 0 0 -7.274166605853149e-7
          -3.1366870740462287e-7 -0.0000018600311210736517 -7.599892816015393e-7 0 0 0
          6.409086550132484e-8 2.7103072380039412e-8 4.898277837362125e-8 8.654897622969676e-8 3.589772197721838e-8 6.850707503259678e-8
          0 0 0 -2.98945529269136e-7 -1.60638891448331e-7 -3.215409271590514e-7
          -7.138934706919797e-7 -3.845315055970207e-7 -7.441020245984074e-7 0 0 0
          -0.0000070698916960371934 -0.000007359464447830611 -0.000007247530445638361 -0.000013963115339599237 -0.00001460093720275896 -0.000014420865330124148
          0 -0.000007407814600876093 -0.000014702381066844384 0 0 0
          0 2.802681667515356e-8 1.0940135300667559e-8 -1.4735931619702554e-9 1.9045832119984808e-8 3.866500000856555e-8
          1.0776586199128352e-8 -1.2402940035582669e-8 2.5428494432790167e-8 0 0 -0.0000069621196574938205
          -0.000007450709754137391 -0.000013664277880384007 -0.000014872752087658042 0 0 1.9693565707807576e-8
          3.764798472250246e-8 2.4157841877872192e-8 5.274492592083612e-8 0 0 -0.000008922545586406633
          -0.000007563151247498135 -0.000018140741707782384 -0.000015049883766745669 0 0 -0.000005481220548346237
          -0.000005753508617039883 -0.000010823331467835336 -0.00001159779936814985 0 -8.50854126029831e-9 -2.5273805091682412e-8
          0 -4.24176246406885e-7 -9.266983190966562e-7 0 0 -0.0000025635025772467822
          -0.0000015811366334222019 -0.000005074316069466827 -0.000003435658248553601 0 -5.395373892922395e-7 -0.00000113024791993937
          0 -1.2191366637642895e-7 2.3557141524681834e-7 0 8.420583539438961e-8 1.242314689982489e-7
          0 -1.623916582482236e-7 -4.515710396974453e-7 0 -2.3280463256416374e-8 -5.631994562720004e-8
          0 -1.345004774557336e-7 1.9672530173838902e-7 0 -0.000004657002587560788 -0.000009455094427207815
          0 -0.000010244325213546447 -0.000020498172693570794 0 -0.000006034670079367441 -0.000011982153774596746
          0 1.0982078520246447e-8 8.778900669682628e-9 0 8.491260829913542e-8 2.959261926090798e-8
          0 -8.503513649398521e-7 -0.0000016817341820260956 0 -8.0117233418995e-7 -0.0000016018097019640931
          0 -9.176959493585705e-7 -0.0000018178084047025183 0 -8.310254078129903e-7 -0.000001659699842496631
          0 -9.469126295651789e-7 -0.0000018806791833752797 0 -9.260970535174785e-7 -0.0000018465386669435482
          0 -8.419588726585075e-7 -0.000001686591664152706 0 -6.690696204605202e-7 -0.0000013643791055604285
          0 -3.184761091950206e-7 -6.709483076823079e-7 0 0 -3.3486033890416726e-7
          -2.383503873393234e-7 -7.966685506549466e-7 -5.308409790234647e-7 0 0 0
          0 -1.3755724688122318e-7 -8.852920128205242e-8 -7.398321528181459e-8 -1.3527800150645398e-7 -2.9268095626634143e-7
          -1.7490720941041085e-7 -1.627559630253516e-7 -2.937430651158998e-7 0 -3.962693256758272e-8 -7.291624143692902e-8
          0 -1.7533569792137305e-7 -3.493783530670626e-7 0 -2.644549756228704e-8 -5.6865437094929865e-8
          0 0 -7.48634347429889e-7 -7.575738512462117e-7 -0.0000014929553827891104 -0.0000015111209294396777
          0 -8.262756418772277e-7 -0.0000016482880400547634 0 -7.063241146317419e-7 -0.0000014083751993159347
          0 -7.760402597340744e-7 -0.0000015458425880215386 0 -6.682568670805263e-7 -0.0000013274396460939931
          0 -4.911181304305429e-7 -9.82058221804886e-7 0 -2.4692170132475663e-7 -4.97541431603262e-7
          0 -1.5944839974846e-7 -3.3136907239890165e-7 0 0 0
          -2.9365135070126836e-8 -9.567016595713143e-8 -8.642083288181187e-8 -5.832548387488318e-8 -1.922490148237468e-7 -1.752255328186238e-7
        </DataArray>
      </PointData>
      <CellData>
        <DataArray type="Int32" Name="libmesh_elem_id" format="ascii" RangeMin="40" RangeMax="1373">
          40 41 42 43 44 45
          46 47 48 49 50 51
          52 53 54 55 56 57
          98 99 100 101 102 103
          104 105 106 107 108 109
          110 111 112 113 114 115
          156 157 158 159 160 161
          162 163 164 165 166 167
          168 169 170 171 172 173
          214 215 216 217 218 219
          220 221 222 223 224 225
          226 227 228 229 230 231
          272 273 274 275 276 277
          278 279 280 281 282 283
          284 285 286 287 288 289
          330 331 332 333 334 335
          336 337 338 339 340 341
          342 343 344 345 346 347
          388 389 390 391 392 393
          394 395 396 397 398 399
          400 401 402 403 404 405
          446 447 448 449 450 451
          452 453 454 455 456 457
          458 459 460 461 462 463
          508 509 510 511 512 513
          514 515 516 517 518 519
          520 521 522 523 524 525
          526 527 528 529 530 531
          532 533 534 535 536 537
          538 539 540 541 542 543
          544 545 546 547 548 549
          550 551 552 553 554 555
          556 557 558 559 560 561
          562 563 564 565 566 567
          568 569 570 571 572 573
          574 575 576 577 578 579
          580 581 582 583 584 585
          586 587 588 589 590 591
          592 593 594 595 596 597
          598 599 600 601 602 603
          604 605 606 607 608 609
          610 611 612 613 614 615
          616 617 618 619 620 621
          622 623 624 625 626 627
          628 629 630 631 632 633
          634 635 636 637 638 639
          640 641 642 643 644 645
          646 647 648 649 650 651
          652 653 654 655 656 657
          658 659 660 661 662 663
          664 665 666 667 668 669
          670 671 672 673 674 675
          676 677 678 679 680 681
          682 683 684 685 686 687
          688 689 690 691 692 693
          694 695 696 697 698 699
          700 701 702 703 704 705
          706 707 708 709 710 711
          712 713 714 715 716 717
          718 719 720 721 722 723
          724 725 726 727 728 729
          730 731 732 733 734 735
          736 737 738 739 740 741
          742 743 744 745 746 747
          748 749 750 751 752 753
          754 755 756 757 758 759
          760 761 762 763 764 765
          766 767 768 769 770 771
          1186 1187 1188 1189 1190 1191
          1204 1205 1206 1207 1208 1209
          1222 1223 1224 1225 1240 1241
          1242 1243 1258 1259 1260 1261
          1276 1277 1278 1279 1300 1301
          1304 1305 1306 1307 1314 1315
          1316 1317 1326 1327 1328 1329
          1330 1331 1338 1339 1344 1345
          1348 1349 1356 1357 1358 1359
          1360 1361 1366 1367 1372 1373
        </DataArray>
        <DataArray type="Int32" Name="subdomain_id" format="ascii" RangeMin="103" RangeMax="143">
          103 103 103 103 103 103
          103 103 103 103 103 103
          103 103 103 103 103 103
          103 103 103 103 103 103
          103 103 103 103 103 103
          103 103 103 103 103 103
          103 103 103 103 103 103
          103 103 103 103 103 103
          103 103 103 103 103 103
          103 103 103 103 103 103
          103 103 103 103 103 103
          103 103 103 103 103 103
          103 103 103 103 103 103
          103 103 103 103 103 103
          103 103 103 103 103 103
          103 103 103 103 103 103
          103 103 103 103 103 103
          103 103 103 103 103 103
          103 103 103 103 103 103
          103 103 103 103 103 103
          103 103 103 103 103 103
          103 103 103 103 103 103
          103 103 103 103 103 103
          103 103 103 103 103 103
          103 103 103 103 103 103
          103 103 103 103 103 103
          103 103 104 104 104 104
          104 104 104 104 104 104
          104 104 104 104 104 104
          104 104 104 104 104 104
          104 104 104 104 104 104
          104 104 104 104 104 104
          104 104 104 104 104 104
          104 104 104 104 104 104
          104 104 104 104 104 104
          104 104 104 104 104 104
          104 104 104 104 104 104
          104 104 104 104 104 104
          104 104 104 104 104 104
          104 104 104 104 104 104
          104 104 104 104 104 104
          104 104 104 104 104 104
          104 104 104 104 104 104
          104 104 104 104 104 104
          104 104 104 104 104 104
          104 104 104 104 104 104
          104 104 104 104 104 104
          104 104 104 104 104 104
          104 104 104 104 104 104
          104 104 104 104 104 104
          104 104 104 104 104 104
          104 104 104 104 104 104
          104 104 104 104 104 104
          104 104 104 104 104 104
          104 104 104 104 104 104
          104 104 104 104 104 104
          104 104 104 104 104 104
          104 104 104 104 104 104
          104 104 104 104 104 104
          141 141 141 141 141 141
          141 141 141 141 141 141
          141 141 141 141 141 141
          141 141 141 141 141 141
          141 141 141 141 141 141
          141 141 141 141 141 141
          141 141 141 141 141 141
          141 141 141 141 141 141
          141 141 141 141 141 141
          105 105 105 105 105 105
          105 105 105 105 105 105
          105 105 105 105 105 105
          105 105 105 105 105 105
          105 105 105 105 106 106
          106 106 106 106 106 106
          106 106 106 106 106 106
          106 106 106 106 106 106
          106 106 106 106 106 106
          143 143 143 143 143 143
        </DataArray>
        <DataArray type="Int32" Name="processor_id" format="ascii" RangeMin="5" RangeMax="5">
          5 5 5 5 5 5
          5 5 5 5 5 5
          5 5 5 5 5 5
          5 5 5 5 5 5
          5 5 5 5 5 5
          5 5 5 5 5 5
          5 5 5 5 5 5
          5 5 5 5 5 5
          5 5 5 5 5 5
          5 5 5 5 5 5
          5 5 5 5 5 5
          5 5 5 5 5 5
          5 5 5 5 5 5
          5 5 5 5 5 5
          5 5 5 5 5 5
          5 5 5 5 5 5
          5 5 5 5 5 5
          5 5 5 5 5 5
          5 5 5 5 5 5
          5 5 5 5 5 5
          5 5 5 5 5 5
          5 5 5 5 5 5
          5 5 5 5 5 5
          5 5 5 5 5 5
          5 5 5 5 5 5
          5 5 5 5 5 5
          5 5 5 5 5 5
          5 5 5 5 5 5
          5 5 5 5 5 5
          5 5 5 5 5 5
          5 5 5 5 5 5
          5 5 5 5 5 5
          5 5 5 5 5 5
          5 5 5 5 5 5
          5 5 5 5 5 5
          5 5 5 5 5 5
          5 5 5 5 5 5
          5 5 5 5 5 5
          5 5 5 5 5 5
          5 5 5 5 5 5
          5 5 5 5 5 5
          5 5 5 5 5 5
          5 5 5 5 5 5
          5 5 5 5 5 5
          5 5 5 5 5 5
          5 5 5 5 5 5
          5 5 5 5 5 5
          5 5 5 5 5 5
          5 5 5 5 5 5
          5 5 5 5 5 5
          5 5 5 5 5 5
          5 5 5 5 5 5
          5 5 5 5 5 5
          5 5 5 5 5 5
          5 5 5 5 5 5
          5 5 5 5 5 5
          5 5 5 5 5 5
          5 5 5 5 5 5
          5 5 5 5 5 5
          5 5 5 5 5 5
          5 5 5 5 5 5
          5 5 5 5 5 5
          5 5 5 5 5 5
          5 5 5 5 5 5
          5 5 5 5 5 5
          5 5 5 5 5 5
          5 5 5 5 5 5
          5 5 5 5 5 5
          5 5 5 5 5 5
          5 5 5 5 5 5
          5 5 5 5 5 5
          5 5 5 5 5 5
          5 5 5 5 5 5
          5 5 5 5 5 5
          5 5 5 5 5 5
          5 5 5 5 5 5
          5 5 5 5 5 5
          5 5 5 5 5 5
        </DataArray>
      </CellData>
      <Points>
        <DataArray type="Float64" Name="Points" NumberOfComponents="3" format="ascii" RangeMin="0.0082758620689774" RangeMax="0.013139935358843113">
          0.00011111111111123 0.0082758620689751 0 0 0.0082758620689774 0
          0.00011111111111123 0.0082758620689751 0.00015 0 0.0082758620689774 0.00015
          0.00011111111111123 0.0082758620689751 0.0003 0 0.0082758620689774 0.0003
          0.00011111111111125 0.0086896551724226 0 0 0.0086896551724246 0
          0.00011111111111125 0.0086896551724226 0.00015 0 0.0086896551724246 0.00015
          0.00011111111111125 0.0086896551724226 0.0003 0 0.0086896551724246 0.0003
          0.00011111111111126 0.0091034482758696 0 0 0.0091034482758716 0
          0.00011111111111126 0.0091034482758696 0.00015 0 0.0091034482758716 0.00015
          0.00011111111111126 0.0091034482758696 0.0003 0 0.0091034482758716 0.0003
          0.00011111111111128 0.0095172413793168 0 0 0.0095172413793185 0
          0.00011111111111128 0.0095172413793168 0.00015 0 0.0095172413793185 0.00015
          0.00011111111111128 0.0095172413793168 0.0003 0 0.0095172413793185 0.0003
          0.00011111111111129 0.0099310344827632 0 0 0.0099310344827645 0
          0.00011111111111129 0.0099310344827632 0.00015 0 0.0099310344827645 0.00015
          0.00011111111111129 0.0099310344827632 0.0003 0 0.0099310344827645 0.0003
          0.00011111111111131 0.01034482758621 0 0 0.01034482758621 0
          0.00011111111111131 0.01034482758621 0.00015 0 0.01034482758621 0.00015
          0.00011111111111131 0.01034482758621 0.0003 0 0.01034482758621 0.0003
          0.00011111111111132 0.010758620689657 0 0 0.010758620689657 0
          0.00011111111111132 0.010758620689657 0.00015 0 0.010758620689657 0.00015
          0.00011111111111132 0.010758620689657 0.0003 0 0.010758620689657 0.0003
          0.00011111111111134 0.011172413793104 0 0 0.011172413793104 0
          0.00011111111111134 0.011172413793104 0.00015 0 0.011172413793104 0.00015
          0.00011111111111134 0.011172413793104 0.0003 0 0.011172413793104 0.0003
          0.00011111111111135 0.011586206896551 0 0 0.011586206896551 0
          0.00011111111111135 0.011586206896551 0.00015 0 0.011586206896551 0.00015
          0.00011111111111135 0.011586206896551 0.0003 0 0.011586206896551 0.0003
          0.00011111111111137 0.012 0 0 0.012 0
          0.00011111111111137 0.012 0.00015 0 0.012 0.00015
          0.00011111111111137 0.012 0.0003 0 0.012 0.0003
          0.00022222222222243 0.0082758620689727 0 0.00022222222222243 0.0082758620689727 0.00015
          0.00022222222222243 0.0082758620689727 0.0003 0.00022222222222246 0.0086896551724206 0
          0.00022222222222246 0.0086896551724206 0.00015 0.00022222222222246 0.0086896551724206 0.0003
          0.00022222222222249 0.0091034482758676 0 0.00022222222222249 0.0091034482758676 0.00015
          0.00022222222222249 0.0091034482758676 0.0003 0.00022222222222253 0.0095172413793151 0
          0.00022222222222253 0.0095172413793151 0.00015 0.00022222222222253 0.0095172413793151 0.0003
          0.00022222222222256 0.0099310344827619 0 0.00022222222222256 0.0099310344827619 0.00015
          0.00022222222222256 0.0099310344827619 0.0003 0.0002222222222226 0.010344827586209 0
          0.0002222222222226 0.010344827586209 0.00015 0.0002222222222226 0.010344827586209 0.0003
          0.00022222222222263 0.010758620689656 0 0.00022222222222263 0.010758620689656 0.00015
          0.00022222222222263 0.010758620689656 0.0003 0.00022222222222266 0.011172413793103 0
          0.00022222222222266 0.011172413793103 0.00015 0.00022222222222266 0.011172413793103 0.0003
          0.0002222222222227 0.011586206896551 0 0.0002222222222227 0.011586206896551 0.00015
          0.0002222222222227 0.011586206896551 0.0003 0.00022222222222273 0.012 0
          0.00022222222222273 0.012 0.00015 0.00022222222222273 0.012 0.0003
          0.00033333333333363 0.0082758620689704 0 0.00033333333333363 0.0082758620689704 0.00015
          0.00033333333333363 0.0082758620689704 0.0003 0.00033333333333368 0.0086896551724185 0
          0.00033333333333368 0.0086896551724185 0.00015 0.00033333333333368 0.0086896551724185 0.0003
          0.00033333333333373 0.0091034482758657 0 0.00033333333333373 0.0091034482758657 0.00015
          0.00033333333333373 0.0091034482758657 0.0003 0.00033333333333379 0.0095172413793133 0
          0.00033333333333379 0.0095172413793133 0.00015 0.00033333333333379 0.0095172413793133 0.0003
          0.00033333333333384 0.0099310344827607 0 0.00033333333333384 0.0099310344827607 0.00015
          0.00033333333333384 0.0099310344827607 0.0003 0.00033333333333389 0.010344827586208 0
          0.00033333333333389 0.010344827586208 0.00015 0.00033333333333389 0.010344827586208 0.0003
          0.00033333333333394 0.010758620689656 0 0.00033333333333394 0.010758620689656 0.00015
          0.00033333333333394 0.010758620689656 0.0003 0.000333333333334 0.011172413793103 0
          0.000333333333334 0.011172413793103 0.00015 0.000333333333334 0.011172413793103 0.0003
          0.00033333333333405 0.011586206896551 0 0.00033333333333405 0.011586206896551 0.00015
          0.00033333333333405 0.011586206896551 0.0003 0.0003333333333341 0.012 0
          0.0003333333333341 0.012 0.00015 0.0003333333333341 0.012 0.0003
          0.00044444444444486 0.0082758620689681 0 0.00044444444444486 0.0082758620689681 0.00015
          0.00044444444444486 0.0082758620689681 0.0003 0.00044444444444493 0.0086896551724165 0
          0.00044444444444493 0.0086896551724165 0.00015 0.00044444444444493 0.0086896551724165 0.0003
          0.00044444444444501 0.0091034482758637 0 0.00044444444444501 0.0091034482758637 0.00015
          0.00044444444444501 0.0091034482758637 0.0003 0.00044444444444508 0.0095172413793116 0
          0.00044444444444508 0.0095172413793116 0.00015 0.00044444444444508 0.0095172413793116 0.0003
          0.00044444444444516 0.0099310344827594 0 0.00044444444444516 0.0099310344827594 0.00015
          0.00044444444444516 0.0099310344827594 0.0003 0.00044444444444523 0.010344827586207 0
          0.00044444444444523 0.010344827586207 0.00015 0.00044444444444523 0.010344827586207 0.0003
          0.00044444444444531 0.010758620689655 0 0.00044444444444531 0.010758620689655 0.00015
          0.00044444444444531 0.010758620689655 0.0003 0.00044444444444538 0.011172413793103 0
          0.00044444444444538 0.011172413793103 0.00015 0.00044444444444538 0.011172413793103 0.0003
          0.00044444444444546 0.011586206896551 0 0.00044444444444546 0.011586206896551 0.00015
          0.00044444444444546 0.011586206896551 0.0003 0.00044444444444553 0.012 0
          0.00044444444444553 0.012 0.00015 0.00044444444444553 0.012 0.0003
          0.00055555555555597 0.0082758620689657 0 0.00055555555555597 0.0082758620689657 0.00015
          0.00055555555555597 0.0082758620689657 0.0003 0.00055555555555605 0.0086896551724145 0
          0.00055555555555605 0.0086896551724145 0.00015 0.00055555555555605 0.0086896551724145 0.0003
          0.00055555555555613 0.0091034482758618 0 0.00055555555555613 0.0091034482758618 0.00015
          0.00055555555555613 0.0091034482758618 0.0003 0.00055555555555621 0.0095172413793099 0
          0.00055555555555621 0.0095172413793099 0.00015 0.00055555555555621 0.0095172413793099 0.0003
          0.00055555555555629 0.0099310344827581 0 0.00055555555555629 0.0099310344827581 0.00015
          0.00055555555555629 0.0099310344827581 0.0003 0.00055555555555636 0.010344827586206 0
          0.00055555555555636 0.010344827586206 0.00015 0.00055555555555636 0.010344827586206 0.0003
          0.00055555555555644 0.010758620689655 0 0.00055555555555644 0.010758620689655 0.00015
          0.00055555555555644 0.010758620689655 0.0003 0.00055555555555652 0.011172413793102 0
          0.00055555555555652 0.011172413793102 0.00015 0.00055555555555652 0.011172413793102 0.0003
          0.0005555555555566 0.011586206896551 0 0.0005555555555566 0.011586206896551 0.00015
          0.0005555555555566 0.011586206896551 0.0003 0.00055555555555667 0.012 0
          0.00055555555555667 0.012 0.00015 0.00055555555555667 0.012 0.0003
          0.00066666666666675 0.0082758620689634 0 0.00066666666666675 0.0082758620689634 0.00015
          0.00066666666666675 0.0082758620689634 0.0003 0.00066666666666679 0.0086896551724125 0
          0.00066666666666679 0.0086896551724125 0.00015 0.00066666666666679 0.0086896551724125 0.0003
          0.00066666666666684 0.0091034482758598 0 0.00066666666666684 0.0091034482758598 0.00015
          0.00066666666666684 0.0091034482758598 0.0003 0.00066666666666688 0.0095172413793081 0
          0.00066666666666688 0.0095172413793081 0.00015 0.00066666666666688 0.0095172413793081 0.0003
          0.00066666666666693 0.0099310344827568 0 0.00066666666666693 0.0099310344827568 0.00015
          0.00066666666666693 0.0099310344827568 0.0003 0.00066666666666697 0.010344827586205 0
          0.00066666666666697 0.010344827586205 0.00015 0.00066666666666697 0.010344827586205 0.0003
          0.00066666666666701 0.010758620689654 0 0.00066666666666701 0.010758620689654 0.00015
          0.00066666666666701 0.010758620689654 0.0003 0.00066666666666706 0.011172413793102 0
          0.00066666666666706 0.011172413793102 0.00015 0.00066666666666706 0.011172413793102 0.0003
          0.0006666666666671 0.01158620689655 0 0.0006666666666671 0.01158620689655 0.00015
          0.0006666666666671 0.01158620689655 0.0003 0.00066666666666715 0.012 0
          0.00066666666666715 0.012 0.00015 0.00066666666666715 0.012 0.0003
          0.00077777777777787 0.0082758620689611 0 0.00077777777777787 0.0082758620689611 0.00015
          0.00077777777777787 0.0082758620689611 0.0003 0.00077777777777791 0.0086896551724104 0
          0.00077777777777791 0.0086896551724104 0.00015 0.00077777777777791 0.0086896551724104 0.0003
          0.00077777777777794 0.0091034482758578 0 0.00077777777777794 0.0091034482758578 0.00015
          0.00077777777777794 0.0091034482758578 0.0003 0.00077777777777797 0.0095172413793064 0
          0.00077777777777797 0.0095172413793064 0.00015 0.00077777777777797 0.0095172413793064 0.0003
          0.000777777777778 0.0099310344827555 0 0.000777777777778 0.0099310344827555 0.00015
          0.000777777777778 0.0099310344827555 0.0003 0.00077777777777803 0.010344827586205 0
          0.00077777777777803 0.010344827586205 0.00015 0.00077777777777803 0.010344827586205 0.0003
          0.00077777777777806 0.010758620689654 0 0.00077777777777806 0.010758620689654 0.00015
          0.00077777777777806 0.010758620689654 0.0003 0.00077777777777809 0.011172413793101 0
          0.00077777777777809 0.011172413793101 0.00015 0.00077777777777809 0.011172413793101 0.0003
          0.00077777777777813 0.01158620689655 0 0.00077777777777813 0.01158620689655 0.00015
          0.00077777777777813 0.01158620689655 0.0003 0.00077777777777816 0.012 0
          0.00077777777777816 0.012 0.00015 0.00077777777777816 0.012 0.0003
          0.0008888888888888 0.0082758620689588 0 0.0008888888888888 0.0082758620689588 0.00015
          0.0008888888888888 0.0082758620689588 0.0003 0.00088888888888881 0.0086896551724084 0
          0.00088888888888881 0.0086896551724084 0.00015 0.00088888888888881 0.0086896551724084 0.0003
          0.00088888888888882 0.0091034482758559 0 0.00088888888888882 0.0091034482758559 0.00015
          0.00088888888888882 0.0091034482758559 0.0003 0.00088888888888883 0.0095172413793047 0
          0.00088888888888883 0.0095172413793047 0.00015 0.00088888888888883 0.0095172413793047 0.0003
          0.00088888888888884 0.0099310344827542 0 0.00088888888888884 0.0099310344827542 0.00015
          0.00088888888888884 0.0099310344827542 0.0003 0.00088888888888885 0.010344827586204 0
          0.00088888888888885 0.010344827586204 0.00015 0.00088888888888885 0.010344827586204 0.0003
          0.00088888888888885 0.010758620689653 0 0.00088888888888885 0.010758620689653 0.00015
          0.00088888888888885 0.010758620689653 0.0003 0.00088888888888886 0.011172413793101 0
          0.00088888888888886 0.011172413793101 0.00015 0.00088888888888886 0.011172413793101 0.0003
          0.00088888888888887 0.01158620689655 0 0.00088888888888887 0.01158620689655 0.00015
          0.00088888888888887 0.01158620689655 0.0003 0.00088888888888888 0.012 0
          0.00088888888888888 0.012 0.00015 0.00088888888888888 0.012 0.0003
          0.001 0.0091034482758539 0 0.001 0.0091034482758539 0.00015
          0.001 0.0091034482758539 0.0003 0.001 0.0095172413793029 0
          0.001 0.0095172413793029 0.00015 0.001 0.0095172413793029 0.0003
          0.001 0.0099310344827529 0 0.001 0.0099310344827529 0.00015
          0.001 0.0099310344827529 0.0003 0.001 0.010344827586203 0
          0.001 0.010344827586203 0.00015 0.001 0.010344827586203 0.0003
          0.001 0.010758620689653 0 0.001 0.010758620689653 0.00015
          0.001 0.010758620689653 0.0003 0.001 0.0111724137931 0
          0.001 0.0111724137931 0.00015 0.001 0.0111724137931 0.0003
          0.001 0.01158620689655 0 0.001 0.01158620689655 0.00015
          0.001 0.01158620689655 0.0003 0.001 0.012 0
          0.001 0.012 0.00015 0.001 0.012 0.0003
          0.00067947077571632 0.012798245728111 0 0.00068678568032061 0.012710429785181 0
          0.00076344362314339 0.012698069087358 0 0.00078000626700894 0.012788238676479 0
          0.00067947077571632 0.012798245728111 0.00015 0.00068678568032061 0.012710429785181 0.00015
          0.00076344362314339 0.012698069087358 0.00015 0.00078000626700894 0.012788238676479 0.00015
          0.00067947077571632 0.012798245728111 0.0003 0.00068678568032061 0.012710429785181 0.0003
          0.00076344362314339 0.012698069087358 0.0003 0.00078000626700894 0.012788238676479 0.0003
          0.0007101811699723 0.012881232243155 0 0.00078737528777453 0.012884598822829 0
          0.0007101811699723 0.012881232243155 0.00015 0.00078737528777453 0.012884598822829 0.00015
          0.0007101811699723 0.012881232243155 0.0003 0.00078737528777453 0.012884598822829 0.0003
          0.00063149088332091 0.012876508075697 0 0.00071156048039536 0.012943694476106 0
          0.00064992343237843 0.012944046337553 0 0.00063149088332091 0.012876508075697 0.00015
          0.00071156048039536 0.012943694476106 0.00015 0.00064992343237843 0.012944046337553 0.00015
          0.00063149088332091 0.012876508075697 0.0003 0.00071156048039536 0.012943694476106 0.0003
          0.00064992343237843 0.012944046337553 0.0003 0.00014271480927744 0.012184528409521 0
          0.00021074182908597 0.012239195039162 0 0.00014617236906556 0.012274772666576 0
          0.00010836971036758 0.0122326927564 0 0.00014271480927744 0.012184528409521 0.00015
          0.00021074182908597 0.012239195039162 0.00015 0.00014617236906556 0.012274772666576 0.00015
          0.00010836971036758 0.0122326927564 0.00015 0.00014271480927744 0.012184528409521 0.0003
          0.00021074182908597 0.012239195039162 0.0003 0.00014617236906556 0.012274772666576 0.0003
          0.00010836971036758 0.0122326927564 0.0003 0.00040316247653445 0.012523054457121 0
          0.00050524235438491 0.012516470580574 0 0.00047556583290331 0.012611926172403 0
          0.00040677839563254 0.01259579728731 0 0.00040316247653445 0.012523054457121 0.00015
          0.00050524235438491 0.012516470580574 0.00015 0.00047556583290331 0.012611926172403 0.00015
          0.00040677839563254 0.01259579728731 0.00015 0.00040316247653445 0.012523054457121 0.0003
          0.00050524235438491 0.012516470580574 0.0003 0.00047556583290331 0.012611926172403 0.0003
          0.00040677839563254 0.01259579728731 0.0003 0.00038389728538556 0.012111104172094 0
          0.00037958632650406 0.012195366170904 0 0.00029855370140418 0.012181148574691 0
          0.00029802321336891 0.012105931916082 0 0.00038389728538556 0.012111104172094 0.00015
          0.00037958632650406 0.012195366170904 0.00015 0.00029855370140418 0.012181148574691 0.00015
          0.00029802321336891 0.012105931916082 0.00015 0.00038389728538556 0.012111104172094 0.0003
          0.00037958632650406 0.012195366170904 0.0003 0.00029855370140418 0.012181148574691 0.0003
          0.00029802321336891 0.012105931916082 0.0003 0.00062435778703091 0.012280526392523 0
          0.00063694887874418 0.012191685157308 0 0.00075163746499696 0.012211869018538 0
          0.0007101306235237 0.012330652999586 0 0.00062435778703091 0.012280526392523 0.00015
          0.00063694887874418 0.012191685157308 0.00015 0.00075163746499696 0.012211869018538 0.00015
          0.0007101306235237 0.012330652999586 0.00015 0.00062435778703091 0.012280526392523 0.0003
          0.00063694887874418 0.012191685157308 0.0003 0.00075163746499696 0.012211869018538 0.0003
          0.0007101306235237 0.012330652999586 0.0003 0.00090036231429234 0.012108977226849 0
          0.00080269198720626 0.012096984730608 0 0.00090036231429234 0.012108977226849 0.00015
          0.00080269198720626 0.012096984730608 0.00015 0.00090036231429234 0.012108977226849 0.0003
          0.00080269198720626 0.012096984730608 0.0003 0.00023865656240352 0.012177237347116 0
          0.00029061852669854 0.01224857812735 0 0.00023865656240352 0.012177237347116 0.00015
          0.00029061852669854 0.01224857812735 0.00015 0.00023865656240352 0.012177237347116 0.0003
          0.00029061852669854 0.01224857812735 0.0003 0.00056164385173704 0.012835416164401 0
          0.00056508360468666 0.012898794448667 0 0.00049240387645224 0.012913175910861 0
          0.00046984631090009 0.012828989929731 0 0.00056164385173704 0.012835416164401 0.00015
          0.00056508360468666 0.012898794448667 0.00015 0.00049240387645224 0.012913175910861 0.00015
          0.00046984631090009 0.012828989929731 0.00015 0.00056164385173704 0.012835416164401 0.0003
          0.00056508360468666 0.012898794448667 0.0003 0.00049240387645224 0.012913175910861 0.0003
          0.00046984631090009 0.012828989929731 0.0003 0.000050495613361417 0.012066083920595 0
          0.00011131843390441 0.012086989142678 0 0.000069577205110887 0.012153607960951 0
          0 0.012111111111109 0 0.000050495613361417 0.012066083920595 0.00015
          0.00011131843390441 0.012086989142678 0.00015 0.000069577205110887 0.012153607960951 0.00015
          0 0.012111111111109 0.00015 0.000050495613361417 0.012066083920595 0.0003
          0.00011131843390441 0.012086989142678 0.0003 0.000069577205110887 0.012153607960951 0.0003
          0 0.012111111111109 0.0003 0.00022470825547396 0.012306913365418 0
          0.00017103954025546 0.012340304715306 0 0.00022470825547396 0.012306913365418 0.00015
          0.00017103954025546 0.012340304715306 0.00015 0.00022470825547396 0.012306913365418 0.0003
          0.00017103954025546 0.012340304715306 0.0003 0.00085640575367095 0.012657655614724 0
          0.001 0.012571428571438 0 0.001 0.012714285714292 0
          0.00089085524488654 0.012778191533234 0 0.00085640575367095 0.012657655614724 0.00015
          0.001 0.012571428571438 0.00015 0.001 0.012714285714292 0.00015
          0.00089085524488654 0.012778191533234 0.00015 0.00085640575367095 0.012657655614724 0.0003
          0.001 0.012571428571438 0.0003 0.001 0.012714285714292 0.0003
          0.00089085524488654 0.012778191533234 0.0003 0.00017101007138246 0.012530153689505 0
          0.000086824088695593 0.01250759612347 0 0.00010015626416536 0.012463076177022 0
          0.00018026894988108 0.012457509098897 0 0.00017101007138246 0.012530153689505 0.00015
          0.000086824088695593 0.01250759612347 0.00015 0.00010015626416536 0.012463076177022 0.00015
          0.00018026894988108 0.012457509098897 0.00015 0.00017101007138246 0.012530153689505 0.0003
          0.000086824088695593 0.01250759612347 0.0003 0.00010015626416536 0.012463076177022 0.0003
          0.00018026894988108 0.012457509098897 0.0003 0.00055555555555552 0.013 0
          0.00054972466987376 0.012958523613261 0 0.00059017772624368 0.012950117696029 0
          0.00061111111111072 0.013 0 0.00055555555555552 0.013 0.00015
          0.00054972466987376 0.012958523613261 0.00015 0.00059017772624368 0.012950117696029 0.00015
          0.00061111111111072 0.013 0.00015 0.00055555555555552 0.013 0.0003
          0.00054972466987376 0.012958523613261 0.0003 0.00059017772624368 0.012950117696029 0.0003
          0.00061111111111072 0.013 0.0003 0.00056012017374448 0.012193168747791 0
          0.00054338833040714 0.012250054231166 0 0.00056012017374448 0.012193168747791 0.00015
          0.00054338833040714 0.012250054231166 0.00015 0.00056012017374448 0.012193168747791 0.0003
          0.00054338833040714 0.012250054231166 0.0003 0.00020164702899907 0.012111009853496 0
          0.00020164702899907 0.012111009853496 0.00015 0.00020164702899907 0.012111009853496 0.0003
          0.00058698867508036 0.01276393301723 0 0.00061242021253103 0.012689969395149 0
          0.00058698867508036 0.01276393301723 0.00015 0.00061242021253103 0.012689969395149 0.00015
          0.00058698867508036 0.01276393301723 0.0003 0.00061242021253103 0.012689969395149 0.0003
          0.00054704952286259 0.01264760123259 0 0.00058547756026548 0.012574831423214 0
          0.00066845126455385 0.012625352450745 0 0.00054704952286259 0.01264760123259 0.00015
          0.00058547756026548 0.012574831423214 0.00015 0.00066845126455385 0.012625352450745 0.00015
          0.00054704952286259 0.01264760123259 0.0003 0.00058547756026548 0.012574831423214 0.0003
          0.00066845126455385 0.012625352450745 0.0003 0.00040316497174951 0.012375710115571 0
          0.00038996592658543 0.012448925709731 0 0.00030251984068288 0.012451026681152 0
          0.00030273327950676 0.012339921797294 0 0.00040316497174951 0.012375710115571 0.00015
          0.00038996592658543 0.012448925709731 0.00015 0.00030251984068288 0.012451026681152 0.00015
          0.00030273327950676 0.012339921797294 0.00015 0.00040316497174951 0.012375710115571 0.0003
          0.00038996592658543 0.012448925709731 0.0003 0.00030251984068288 0.012451026681152 0.0003
          0.00030273327950676 0.012339921797294 0.0003 0 0.012166666666663 0
          0.000060257043043922 0.012213388328671 0 0 0.012222222222217 0
          0 0.012166666666663 0.00015 0.000060257043043922 0.012213388328671 0.00015
          0 0.012222222222217 0.00015 0 0.012166666666663 0.0003
          0.000060257043043922 0.012213388328671 0.0003 0 0.012222222222217 0.0003
          0.00086766031505541 0.012218873949421 0 0.00070802748250363 0.01210226547145 0
          0.00086766031505541 0.012218873949421 0.00015 0.00070802748250363 0.01210226547145 0.00015
          0.00086766031505541 0.012218873949421 0.0003 0.00070802748250363 0.01210226547145 0.0003
          0.00045681564832724 0.012667985356076 0 0.00038302222240927 0.012678606196169 0
          0.00045681564832724 0.012667985356076 0.00015 0.00038302222240927 0.012678606196169 0.00015
          0.00045681564832724 0.012667985356076 0.0003 0.00038302222240927 0.012678606196169 0.0003
          0.00057343997443155 0.012462111372123 0 0.00067467937701806 0.012497336760124 0
          0.00057343997443155 0.012462111372123 0.00015 0.00067467937701806 0.012497336760124 0.00015
          0.00057343997443155 0.012462111372123 0.0003 0.00067467937701806 0.012497336760124 0.0003
          0 0.012388888888886 0 0.00004805763346656 0.012364070531781 0
          0.000052775834931525 0.012418323433379 0 0 0.012444444444443 0
          0 0.012388888888886 0.00015 0.00004805763346656 0.012364070531781 0.00015
          0.000052775834931525 0.012418323433379 0.00015 0 0.012444444444443 0.00015
          0 0.012388888888886 0.0003 0.00004805763346656 0.012364070531781 0.0003
          0.000052775834931525 0.012418323433379 0.0003 0 0.012444444444443 0.0003
          0.0004655657017567 0.012222981448331 0 0.0004403524252846 0.012306679111378 0
          0.00036518397892919 0.012268658791136 0 0.0004655657017567 0.012222981448331 0.00015
          0.0004403524252846 0.012306679111378 0.00015 0.00036518397892919 0.012268658791136 0.00015
          0.0004655657017567 0.012222981448331 0.0003 0.0004403524252846 0.012306679111378 0.0003
          0.00036518397892919 0.012268658791136 0.0003 0.00079059026611164 0.012574208252283 0
          0.00074033738884001 0.012629472897336 0 0.00079059026611164 0.012574208252283 0.00015
          0.00074033738884001 0.012629472897336 0.00015 0.00079059026611164 0.012574208252283 0.0003
          0.00074033738884001 0.012629472897336 0.0003 0.00049134001885305 0.012124425854677 0
          0.00060162315338905 0.012101782274206 0 0.00049134001885305 0.012124425854677 0.00015
          0.00060162315338905 0.012101782274206 0.00015 0.00049134001885305 0.012124425854677 0.0003
          0.00060162315338905 0.012101782274206 0.0003 0.00055165526617401 0.012365152711649 0
          0.00046621557592763 0.012427373679685 0 0.00055165526617401 0.012365152711649 0.00015
          0.00046621557592763 0.012427373679685 0.00015 0.00055165526617401 0.012365152711649 0.0003
          0.00046621557592763 0.012427373679685 0.0003 0.00065175768920993 0.012395993188634 0
          0.00078658012555766 0.01242031863996 0 0.00065175768920993 0.012395993188634 0.00015
          0.00078658012555766 0.01242031863996 0.00015 0.00065175768920993 0.012395993188634 0.0003
          0.00078658012555766 0.01242031863996 0.0003 0.00072222222222142 0.013 0
          0.00076767785213736 0.012949407633443 0 0.00077777777777722 0.013 0
          0.00072222222222142 0.013 0.00015 0.00076767785213736 0.012949407633443 0.00015
          0.00077777777777722 0.013 0.00015 0.00072222222222142 0.013 0.0003
          0.00076767785213736 0.012949407633443 0.0003 0.00077777777777722 0.013 0.0003
          0.001 0.01228571428572 0 0.001 0.012428571428581 0
          0.00085243404696798 0.012340254950119 0 0.001 0.01228571428572 0.00015
          0.001 0.012428571428581 0.00015 0.00085243404696798 0.012340254950119 0.00015
          0.001 0.01228571428572 0.0003 0.001 0.012428571428581 0.0003
          0.00085243404696798 0.012340254950119 0.0003 0.000047305708530005 0.012255757186949 0
          0.000035989657241992 0.012305788523607 0 0 0.012277777777773 0
          0.000047305708530005 0.012255757186949 0.00015 0.000035989657241992 0.012305788523607 0.00015
          0 0.012277777777773 0.00015 0.000047305708530005 0.012255757186949 0.0003
          0.000035989657241992 0.012305788523607 0.0003 0 0.012277777777773 0.0003
          0 0.01233333333333 0 0 0.01233333333333 0.00015
          0 0.01233333333333 0.0003 0.00088888888888861 0.013 0
          0.00086852226729803 0.012945143609779 0 0.00092105077811413 0.012923509600428 0
          0.0009444444444442 0.013 0 0.00088888888888861 0.013 0.00015
          0.00086852226729803 0.012945143609779 0.00015 0.00092105077811413 0.012923509600428 0.00015
          0.0009444444444442 0.013 0.00015 0.00088888888888861 0.013 0.0003
          0.00086852226729803 0.012945143609779 0.0003 0.00092105077811413 0.012923509600428 0.0003
          0.0009444444444442 0.013 0.0003 0.000088322519872331 0.012287262323421 0
          0.000098057359918883 0.01234321954228 0 0.000088322519872331 0.012287262323421 0.00015
          0.000098057359918883 0.01234321954228 0.00015 0.000088322519872331 0.012287262323421 0.0003
          0.000098057359918883 0.01234321954228 0.0003 0.00082037799021753 0.012949927278989 0
          0.00083333333333302 0.013 0 0.00082037799021753 0.012949927278989 0.00015
          0.00083333333333302 0.013 0.00015 0.00082037799021753 0.012949927278989 0.0003
          0.00083333333333302 0.013 0.0003 0.000055423585756317 0.01245648439217 0
          0.00011750487062481 0.01240389197138 0 0.000055423585756317 0.01245648439217 0.00015
          0.00011750487062481 0.01240389197138 0.00015 0.000055423585756317 0.01245648439217 0.0003
          0.00011750487062481 0.01240389197138 0.0003 0.00022703795328819 0.012397087263253 0
          0.00024412512388832 0.012487409031957 0 0.00022703795328819 0.012397087263253 0.00015
          0.00024412512388832 0.012487409031957 0.00015 0.00022703795328819 0.012397087263253 0.0003
          0.00024412512388832 0.012487409031957 0.0003 0.00086622784349606 0.012879340816766 0
          0.00086622784349606 0.012879340816766 0.00015 0.00086622784349606 0.012879340816766 0.0003
          0.001 0.01214285714286 0 0.001 0.01214285714286 0.00015
          0.001 0.01214285714286 0.0003 0.00032807036377433 0.012530514194312 0
          0.00032139380548758 0.012616977778981 0 0.00032807036377433 0.012530514194312 0.00015
          0.00032139380548758 0.012616977778981 0.00015 0.00032807036377433 0.012530514194312 0.0003
          0.00032139380548758 0.012616977778981 0.0003 0.00078653837511981 0.012300730611142 0
          0.00078653837511981 0.012300730611142 0.00015 0.00078653837511981 0.012300730611142 0.0003
          0.00050187285486533 0.012723776617989 0 0.00050187285486533 0.012723776617989 0.00015
          0.00050187285486533 0.012723776617989 0.0003 0.00066666666666612 0.013 0
          0.00066666666666612 0.013 0.00015 0.00066666666666612 0.013 0.0003
          0.00086640285866826 0.012499721374928 0 0.00086640285866826 0.012499721374928 0.00015
          0.00086640285866826 0.012499721374928 0.0003 0.001 0.012857142857146 0
          0.001 0.012857142857146 0.00015 0.001 0.012857142857146 0.0003
          0.00043301270230906 0.012750000000722 0 0.00043301270230906 0.012750000000722 0.00015
          0.00043301270230906 0.012750000000722 0.0003 0.00025000000019401 0.01256698729822 0
          0.00025000000019401 0.01256698729822 0.00015 0.00025000000019401 0.01256698729822 0.0003
          0 0.0125 0 0 0.0125 0.00015
          0 0.0125 0.0003 0 0.012055555555554 0
          0 0.012055555555554 0.00015 0 0.012055555555554 0.0003
          0.001 0.013 0 0.001 0.013 0.00015
          0.001 0.013 0.0003 0.0005 0.013 0
          0.0005 0.013 0.00015 0.0005 0.013 0.0003
          0.0014444444444451 0.0095172413793029 0 0.0014444444444451 0.0095172413793029 0.00015
          0.0014444444444451 0.0095172413793029 0.0003 0.0018888888888902 0.0095172413793029 0
          0.0018888888888902 0.0095172413793029 0.00015 0.0018888888888902 0.0095172413793029 0.0003
          0.0014444444444452 0.0099310344827529 0 0.0014444444444452 0.0099310344827529 0.00015
          0.0014444444444452 0.0099310344827529 0.0003 0.0018888888888903 0.0099310344827529 0
          0.0018888888888903 0.0099310344827529 0.00015 0.0018888888888903 0.0099310344827529 0.0003
          0.0014444444444452 0.010344827586203 0 0.0014444444444452 0.010344827586203 0.00015
          0.0014444444444452 0.010344827586203 0.0003 0.0014444444444453 0.010758620689653 0
          0.0014444444444453 0.010758620689653 0.00015 0.0014444444444453 0.010758620689653 0.0003
          0.0014444444444453 0.0111724137931 0 0.0014444444444453 0.0111724137931 0.00015
          0.0014444444444453 0.0111724137931 0.0003 0.0014444444444454 0.01158620689655 0
          0.0014444444444454 0.01158620689655 0.00015 0.0014444444444454 0.01158620689655 0.0003
          0.0014444444444455 0.012 0 0.0014444444444455 0.012 0.00015
          0.0014444444444455 0.012 0.0003 0.0011659770658264 0.012184916069452 0
          0.0011978981211319 0.012291694091132 0 0.0011659770658264 0.012184916069452 0.00015
          0.0011978981211319 0.012291694091132 0.00015 0.0011659770658264 0.012184916069452 0.0003
          0.0011978981211319 0.012291694091132 0.0003 0.0014134281085546 0.012468353283698 0
          0.001412897365997 0.01265802692797 0 0.0011710921098332 0.012660749606473 0
          0.0011928404820732 0.012464476127519 0 0.0014134281085546 0.012468353283698 0.00015
          0.001412897365997 0.01265802692797 0.00015 0.0011710921098332 0.012660749606473 0.00015
          0.0011928404820732 0.012464476127519 0.00015 0.0014134281085546 0.012468353283698 0.0003
          0.001412897365997 0.01265802692797 0.0003 0.0011710921098332 0.012660749606473 0.0003
          0.0011928404820732 0.012464476127519 0.0003 0.0011801499871676 0.012824831216028 0
          0.0011801499871676 0.012824831216028 0.00015 0.0011801499871676 0.012824831216028 0.0003
          0.0014335559245349 0.012265987585326 0 0.0014335559245349 0.012265987585326 0.00015
          0.0014335559245349 0.012265987585326 0.0003 0.0014444444444455 0.013 0
          0.0014444444444455 0.013 0.00015 0.0014444444444455 0.013 0.0003
          0.0023333333333355 0.0099310344827529 0 0.0023333333333353 0.0095172413793029 0
          0.0023333333333355 0.0099310344827529 0.00015 0.0023333333333353 0.0095172413793029 0.00015
          0.0023333333333355 0.0099310344827529 0.0003 0.0023333333333353 0.0095172413793029 0.0003
          0.0018888888888904 0.010344827586203 0 0.0018888888888904 0.010344827586203 0.00015
          0.0018888888888904 0.010344827586203 0.0003 0.0023333333333357 0.010344827586203 0
          0.0023333333333357 0.010344827586203 0.00015 0.0023333333333357 0.010344827586203 0.0003
          0.0018888888888905 0.010758620689653 0 0.0018888888888905 0.010758620689653 0.00015
          0.0018888888888905 0.010758620689653 0.0003 0.0018888888888907 0.0111724137931 0
          0.0018888888888907 0.0111724137931 0.00015 0.0018888888888907 0.0111724137931 0.0003
          0.0018888888888908 0.01158620689655 0 0.0018888888888908 0.01158620689655 0.00015
          0.0018888888888908 0.01158620689655 0.0003 0.0018888888888909 0.012 0
          0.0018888888888909 0.012 0.00015 0.0018888888888909 0.012 0.0003
          0.0017386847932316 0.012348636106575 0 0.0017386847932316 0.012348636106575 0.00015
          0.0017386847932316 0.012348636106575 0.0003 0.0018888888888909 0.013 0
          0.001702980389272 0.012655949584096 0 0.0020604062010233 0.012679406151259 0
          0.0018888888888909 0.013 0.00015 0.001702980389272 0.012655949584096 0.00015
          0.0020604062010233 0.012679406151259 0.00015 0.0018888888888909 0.013 0.0003
          0.001702980389272 0.012655949584096 0.0003 0.0020604062010233 0.012679406151259 0.0003
          <InformationKey name="L2_NORM_RANGE" location="vtkDataArray" length="2">
            <Value index="0">
              0.008275862069
            </Value>
            <Value index="1">
              0.013139935359
            </Value>
          </InformationKey>
        </DataArray>
      </Points>
      <Cells>
        <DataArray type="Int64" Name="connectivity" format="ascii" RangeMin="0" RangeMax="755">
          1 0 6 7 3 2
          8 9 3 2 8 9
          5 4 10 11 7 6
          12 13 9 8 14 15
          9 8 14 15 11 10
          16 17 13 12 18 19
          15 14 20 21 15 14
          20 21 17 16 22 23
          19 18 24 25 21 20
          26 27 21 20 26 27
          23 22 28 29 25 24
          30 31 27 26 32 33
          27 26 32 33 29 28
          34 35 31 30 36 37
          33 32 38 39 33 32
          38 39 35 34 40 41
          37 36 42 43 39 38
          44 45 39 38 44 45
          41 40 46 47 43 42
          48 49 45 44 50 51
          45 44 50 51 47 46
          52 53 49 48 54 55
          51 50 56 57 51 50
          56 57 53 52 58 59
          0 60 63 6 2 61
          64 8 2 61 64 8
          4 62 65 10 6 63
          66 12 8 64 67 14
          8 64 67 14 10 65
          68 16 12 66 69 18
          14 67 70 20 14 67
          70 20 16 68 71 22
          18 69 72 24 20 70
          73 26 20 70 73 26
          22 71 74 28 24 72
          75 30 26 73 76 32
          26 73 76 32 28 74
          77 34 30 75 78 36
          32 76 79 38 32 76
          79 38 34 77 80 40
          36 78 81 42 38 79
          82 44 38 79 82 44
          40 80 83 46 42 81
          84 48 44 82 85 50
          44 82 85 50 46 83
          86 52 48 84 87 54
          50 85 88 56 50 85
          88 56 52 86 89 58
          60 90 93 63 61 91
          94 64 61 91 94 64
          62 92 95 65 63 93
          96 66 64 94 97 67
          64 94 97 67 65 95
          98 68 66 96 99 69
          67 97 100 70 67 97
          100 70 68 98 101 71
          69 99 102 72 70 100
          103 73 70 100 103 73
          71 101 104 74 72 102
          105 75 73 103 106 76
          73 103 106 76 74 104
          107 77 75 105 108 78
          76 106 109 79 76 106
          109 79 77 107 110 80
          78 108 111 81 79 109
          112 82 79 109 112 82
          80 110 113 83 81 111
          114 84 82 112 115 85
          82 112 115 85 83 113
          116 86 84 114 117 87
          85 115 118 88 85 115
          118 88 86 116 119 89
          90 120 123 93 91 121
          124 94 91 121 124 94
          92 122 125 95 93 123
          126 96 94 124 127 97
          94 124 127 97 95 125
          128 98 96 126 129 99
          97 127 130 100 97 127
          130 100 98 128 131 101
          99 129 132 102 100 130
          133 103 100 130 133 103
          101 131 134 104 102 132
          135 105 103 133 136 106
          103 133 136 106 104 134
          137 107 105 135 138 108
          106 136 139 109 106 136
          139 109 107 137 140 110
          108 138 141 111 109 139
          142 112 109 139 142 112
          110 140 143 113 111 141
          144 114 112 142 145 115
          112 142 145 115 113 143
          146 116 114 144 147 117
          115 145 148 118 115 145
          148 118 116 146 149 119
          120 150 153 123 121 151
          154 124 121 151 154 124
          122 152 155 125 123 153
          156 126 124 154 157 127
          124 154 157 127 125 155
          158 128 126 156 159 129
          127 157 160 130 127 157
          160 130 128 158 161 131
          129 159 162 132 130 160
          163 133 130 160 163 133
          131 161 164 134 132 162
          165 135 133 163 166 136
          133 163 166 136 134 164
          167 137 135 165 168 138
          136 166 169 139 136 166
          169 139 137 167 170 140
          138 168 171 141 139 169
          172 142 139 169 172 142
          140 170 173 143 141 171
          174 144 142 172 175 145
          142 172 175 145 143 173
          176 146 144 174 177 147
          145 175 178 148 145 175
          178 148 146 176 179 149
          150 180 183 153 151 181
          184 154 151 181 184 154
          152 182 185 155 153 183
          186 156 154 184 187 157
          154 184 187 157 155 185
          188 158 156 186 189 159
          157 187 190 160 157 187
          190 160 158 188 191 161
          159 189 192 162 160 190
          193 163 160 190 193 163
          161 191 194 164 162 192
          195 165 163 193 196 166
          163 193 196 166 164 194
          197 167 165 195 198 168
          166 196 199 169 166 196
          199 169 167 197 200 170
          168 198 201 171 169 199
          202 172 169 199 202 172
          170 200 203 173 171 201
          204 174 172 202 205 175
          172 202 205 175 173 203
          206 176 174 204 207 177
          175 205 208 178 175 205
          208 178 176 206 209 179
          180 210 213 183 181 211
          214 184 181 211 214 184
          182 212 215 185 183 213
          216 186 184 214 217 187
          184 214 217 187 185 215
          218 188 186 216 219 189
          187 217 220 190 187 217
          220 190 188 218 221 191
          189 219 222 192 190 220
          223 193 190 220 223 193
          191 221 224 194 192 222
          225 195 193 223 226 196
          193 223 226 196 194 224
          227 197 195 225 228 198
          196 226 229 199 196 226
          229 199 197 227 230 200
          198 228 231 201 199 229
          232 202 199 229 232 202
          200 230 233 203 201 231
          234 204 202 232 235 205
          202 232 235 205 203 233
          236 206 204 234 237 207
          205 235 238 208 205 235
          238 208 206 236 239 209
          210 240 243 213 211 241
          244 214 211 241 244 214
          212 242 245 215 213 243
          246 216 214 244 247 217
          214 244 247 217 215 245
          248 218 216 246 249 219
          217 247 250 220 217 247
          250 220 218 248 251 221
          219 249 252 222 220 250
          253 223 220 250 253 223
          221 251 254 224 222 252
          255 225 223 253 256 226
          223 253 256 226 224 254
          257 227 225 255 258 228
          226 256 259 229 226 256
          259 229 227 257 260 230
          228 258 261 231 229 259
          262 232 229 259 262 232
          230 260 263 233 231 261
          264 234 232 262 265 235
          232 262 265 235 233 263
          266 236 234 264 267 237
          235 265 268 238 235 265
          268 238 236 266 269 239
          246 270 273 249 247 271
          274 250 247 271 274 250
          248 272 275 251 249 273
          276 252 250 274 277 253
          250 274 277 253 251 275
          278 254 252 276 279 255
          253 277 280 256 253 277
          280 256 254 278 281 257
          255 279 282 258 256 280
          283 259 256 280 283 259
          257 281 284 260 258 282
          285 261 259 283 286 262
          259 283 286 262 260 284
          287 263 261 285 288 264
          262 286 289 265 262 286
          289 265 263 287 290 266
          264 288 291 267 265 289
          292 268 265 289 292 268
          266 290 293 269 294 295
          296 297 298 299 300 301
          298 299 300 301 302 303
          304 305 306 294 297 307
          308 298 301 309 308 298
          301 309 310 302 305 311
          312 306 313 314 315 308
          316 317 315 308 316 317
          318 310 319 320 321 322
          323 324 325 326 327 328
          325 326 327 328 329 330
          331 332 333 334 335 336
          337 338 339 340 337 338
          339 340 341 342 343 344
          345 346 347 348 349 350
          351 352 349 350 351 352
          353 354 355 356 357 358
          359 360 361 362 363 364
          361 362 363 364 365 366
          367 368 267 369 370 237
          268 371 372 238 268 371
          372 238 269 373 374 239
          375 347 376 322 377 351
          378 326 377 351 378 326
          379 355 380 330 381 382
          383 384 385 386 387 388
          385 386 387 388 389 390
          391 392 393 394 395 396
          397 398 399 400 397 398
          399 400 401 402 403 404
          323 322 405 406 327 326
          407 408 327 326 407 408
          331 330 409 410 411 412
          413 414 415 416 417 418
          415 416 417 418 419 420
          421 422 423 424 425 426
          427 428 429 430 427 428
          429 430 431 432 433 434
          435 436 437 438 439 440
          441 442 439 440 441 442
          443 444 445 446 447 358
          357 448 449 362 361 450
          449 362 361 450 451 366
          365 452 54 87 453 394
          56 88 454 398 56 88
          454 398 58 89 455 402
          456 457 295 294 458 459
          299 298 458 459 299 298
          460 461 303 302 457 462
          463 464 459 465 466 467
          459 465 466 467 461 468
          469 470 456 294 312 381
          458 298 315 385 458 298
          315 385 460 302 318 389
          471 472 473 474 475 476
          477 478 475 476 477 478
          479 480 481 482 483 395
          484 485 486 399 487 488
          486 399 487 488 489 403
          490 491 370 492 359 493
          372 494 363 495 372 494
          363 495 374 496 367 497
          237 370 493 207 238 372
          495 208 238 372 495 208
          239 374 497 209 336 335
          498 499 340 339 500 501
          340 339 500 501 344 343
          502 503 463 334 504 505
          466 338 506 507 466 338
          506 507 469 342 508 509
          510 511 512 513 514 515
          516 517 514 515 516 517
          518 519 520 521 522 523
          524 346 525 526 527 350
          525 526 527 350 528 529
          530 354 531 532 464 505
          533 534 467 507 533 534
          467 507 535 536 470 509
          537 147 177 538 539 148
          178 540 539 148 178 540
          541 149 179 542 523 543
          544 471 526 545 546 475
          526 545 546 475 529 547
          548 479 549 360 550 505
          551 364 552 507 551 364
          552 507 553 368 554 509
          555 313 556 557 558 316
          559 560 558 316 559 560
          561 319 562 563 564 565
          566 492 567 568 569 494
          567 568 569 494 570 571
          572 496 573 574 575 485
          576 577 578 488 576 577
          578 488 579 580 581 491
          582 574 511 510 583 577
          515 514 583 577 515 514
          584 580 519 518 87 117
          348 453 88 118 352 454
          88 118 352 454 89 119
          356 455 504 334 544 543
          506 338 546 545 506 338
          546 545 508 342 548 547
          585 586 587 588 589 590
          591 592 589 590 591 592
          593 594 595 596 574 597
          598 511 577 599 600 515
          577 599 600 515 580 601
          602 519 375 322 321 453
          377 326 325 454 377 326
          325 454 379 330 329 455
          557 556 603 604 560 559
          605 606 560 559 605 606
          563 562 607 608 425 609
          512 610 429 611 516 612
          429 611 516 612 433 613
          520 614 207 493 538 177
          208 495 540 178 208 495
          540 178 209 497 542 179
          615 473 616 426 617 477
          618 430 617 477 618 430
          619 481 620 434 297 414
          621 307 301 418 622 309
          301 418 622 309 305 422
          623 311 492 369 624 564
          494 371 625 567 494 371
          625 567 496 373 626 570
          627 333 336 628 629 337
          340 630 629 337 340 630
          631 341 344 632 360 633
          566 550 364 634 569 552
          364 634 569 552 368 635
          572 554 457 456 636 462
          459 458 637 465 459 458
          637 465 461 460 638 468
          357 360 549 543 361 364
          551 545 361 364 551 545
          365 368 553 547 295 464
          532 296 299 467 534 300
          299 467 534 300 303 470
          536 304 639 314 313 555
          640 317 316 558 640 317
          316 558 641 320 319 561
          471 474 524 523 475 478
          527 526 475 478 527 526
          479 482 530 529 426 610
          406 615 430 612 408 617
          430 612 408 617 434 614
          410 619 504 543 549 505
          506 545 551 507 506 545
          551 507 508 547 553 509
          566 565 642 550 569 568
          643 552 569 568 643 552
          572 571 644 554 610 512
          511 598 612 516 515 600
          612 516 515 600 614 520
          519 602 621 414 645 587
          622 418 646 591 622 418
          646 591 623 422 647 595
          405 474 615 406 407 478
          617 408 407 478 617 408
          409 482 619 410 381 384
          636 456 385 388 637 458
          385 388 637 458 389 392
          638 460 648 499 498 636
          649 501 500 637 649 501
          500 637 650 503 502 638
          616 651 423 426 618 652
          427 430 618 652 427 430
          620 653 431 434 324 597
          573 484 328 599 576 487
          328 599 576 487 332 601
          579 490 642 412 411 531
          643 416 415 533 643 416
          415 533 644 420 419 535
          538 358 447 537 540 362
          449 539 540 362 449 539
          542 366 451 541 524 376
          347 346 527 378 351 350
          527 378 351 350 530 380
          355 354 627 651 616 473
          629 652 618 477 629 652
          618 477 631 653 620 481
          405 322 376 474 407 326
          378 478 407 326 378 478
          409 330 380 482 306 307
          556 313 308 309 559 316
          308 309 559 316 310 311
          562 319 345 117 147 537
          349 118 148 539 349 118
          148 539 353 119 149 541
          414 297 296 411 418 301
          300 415 418 301 300 415
          422 305 304 419 621 586
          603 307 622 590 605 309
          622 590 605 309 623 594
          607 311 544 334 333 472
          546 338 337 476 546 338
          337 476 548 342 341 480
          348 347 375 453 352 351
          377 454 352 351 377 454
          356 355 379 455 531 505
          550 642 533 507 552 643
          533 507 552 643 535 509
          554 644 321 324 484 395
          325 328 487 399 325 328
          487 399 329 332 490 403
          598 597 323 406 600 599
          327 408 600 599 327 408
          602 601 331 410 447 448
          522 537 449 450 525 539
          449 450 525 539 451 452
          528 541 513 512 609 654
          517 516 611 655 517 516
          611 655 521 520 613 656
          604 603 586 585 606 605
          590 589 606 605 590 589
          608 607 594 593 463 462
          335 334 466 465 339 338
          466 465 339 338 469 468
          343 342 438 437 314 639
          442 441 317 640 442 441
          317 640 446 445 320 641
          436 383 382 437 440 387
          386 441 440 387 386 441
          444 391 390 445 393 657
          55 54 397 658 57 56
          397 658 57 56 401 659
          59 58 312 314 437 382
          315 317 441 386 315 317
          441 386 318 320 445 390
          346 345 537 522 350 349
          539 525 350 349 539 525
          354 353 541 528 498 335
          462 636 500 339 465 637
          500 339 465 637 502 343
          468 638 369 267 291 624
          371 268 292 625 371 268
          292 625 373 269 293 626
          358 538 493 359 362 540
          495 363 362 540 495 363
          366 542 497 367 394 453
          321 395 398 454 325 399
          398 454 325 399 402 455
          329 403 587 645 660 588
          591 646 661 592 591 646
          661 592 595 647 662 596
          448 543 523 522 450 545
          526 525 450 545 526 525
          452 547 529 528 472 333
          627 473 476 337 629 477
          476 337 629 477 480 341
          631 481 436 435 663 383
          440 439 664 387 440 439
          664 387 444 443 665 391
          411 296 532 531 415 300
          534 533 415 300 534 533
          419 304 536 535 609 425
          424 654 611 429 428 655
          611 429 428 655 613 433
          432 656 492 566 633 359
          494 569 634 363 494 569
          634 363 496 572 635 367
          393 394 54 397 398 56
          397 398 56 401 402 58
          413 414 645 417 418 646
          417 418 646 421 422 647
          628 627 651 630 629 652
          630 629 652 632 631 653
          117 348 345 118 352 349
          118 352 349 119 356 353
          565 642 412 568 643 416
          568 643 416 571 644 420
          457 295 464 459 299 467
          459 299 467 461 303 470
          463 464 505 466 467 507
          466 467 507 469 470 509
          499 336 628 501 340 630
          501 340 630 503 344 632
          384 636 648 388 637 649
          388 637 649 392 638 650
          492 369 370 494 371 372
          494 371 372 496 373 374
          473 474 615 477 478 617
          477 478 617 481 482 619
          381 382 312 385 386 315
          385 386 315 389 390 318
          471 472 544 475 476 546
          475 476 546 479 480 548
          582 574 575 583 577 578
          583 577 578 584 580 581
          312 306 294 315 308 298
          315 308 298 318 310 302
          524 376 474 527 378 478
          527 378 478 530 380 482
          396 393 657 400 397 658
          400 397 658 404 401 659
          483 395 396 486 399 400
          486 399 400 489 403 404
          357 448 543 361 450 545
          361 450 545 365 452 547
          485 573 484 488 576 487
          488 576 487 491 579 490
          621 586 587 622 590 591
          622 590 591 623 594 595
          324 597 323 328 599 327
          328 599 327 332 601 331
          603 307 556 605 309 559
          605 309 559 607 311 562
          610 425 426 612 429 430
          612 429 430 614 433 434
          360 633 359 364 634 363
          364 634 363 368 635 367
          598 610 406 600 612 408
          600 612 408 602 614 410
          574 597 573 577 599 576
          577 599 576 580 601 579
          672 276 273 666 673 277
          274 667 673 277 274 667
          674 278 275 668 675 672
          666 669 676 673 667 670
          676 673 667 670 677 674
          668 671 720 675 669 721
          722 676 670 723 722 676
          670 723 724 677 671 725
          678 279 276 672 679 280
          277 673 679 280 277 673
          680 281 278 674 726 678
          672 675 727 679 673 676
          727 679 673 676 728 680
          674 677 729 726 675 720
          730 727 676 722 730 727
          676 722 731 728 677 724
          681 282 279 678 682 283
          280 679 682 283 280 679
          683 284 281 680 732 681
          678 726 733 682 679 727
          733 682 679 727 734 683
          680 728 684 285 282 681
          685 286 283 682 685 286
          283 682 686 287 284 683
          735 684 681 732 736 685
          682 733 736 685 682 733
          737 686 683 734 687 288
          285 684 688 289 286 685
          688 289 286 685 689 290
          287 686 738 687 684 735
          739 688 685 736 739 688
          685 736 740 689 686 737
          690 291 288 687 691 292
          289 688 691 292 289 688
          692 293 290 689 741 690
          687 738 742 691 688 739
          742 691 688 739 743 692
          689 740 693 694 564 624
          695 696 567 625 695 696
          567 625 697 698 570 626
          699 700 701 702 703 704
          705 706 703 704 705 706
          707 708 709 710 702 701
          412 565 706 705 416 568
          706 705 416 568 710 709
          420 571 413 701 711 645
          417 705 712 646 417 705
          712 646 421 709 713 647
          690 741 744 714 691 742
          745 715 691 742 745 715
          692 743 746 716 714 699
          702 694 715 703 706 696
          715 703 706 696 716 707
          710 698 694 702 565 564
          696 706 568 567 696 706
          568 567 698 710 571 570
          747 717 748 749 750 718
          751 752 750 718 751 752
          753 719 754 755 699 744
          748 700 703 745 751 704
          703 745 751 704 707 746
          754 708 711 701 700 717
          712 705 704 718 712 705
          704 718 713 709 708 719
          714 694 693 690 715 696
          695 691 715 696 695 691
          716 698 697 692 291 690
          693 624 292 691 695 625
          292 691 695 625 293 692
          697 626 711 717 660 645
          712 718 661 646 712 718
          661 646 713 719 662 647
          714 699 744 715 703 745
          715 703 745 716 707 746
          748 700 717 751 704 718
          751 704 718 754 708 719
          413 701 412 417 705 416
          417 705 416 421 709 420
        </DataArray>
        <DataArray type="Int64" Name="offsets" format="ascii" RangeMin="8" RangeMax="3624">
          8 16 24 32 40 48
          56 64 72 80 88 96
          104 112 120 128 136 144
          152 160 168 176 184 192
          200 208 216 224 232 240
          248 256 264 272 280 288
          296 304 312 320 328 336
          344 352 360 368 376 384
          392 400 408 416 424 432
          440 448 456 464 472 480
          488 496 504 512 520 528
          536 544 552 560 568 576
          584 592 600 608 616 624
          632 640 648 656 664 672
          680 688 696 704 712 720
          728 736 744 752 760 768
          776 784 792 800 808 816
          824 832 840 848 856 864
          872 880 888 896 904 912
          920 928 936 944 952 960
          968 976 984 992 1000 1008
          1016 1024 1032 1040 1048 1056
          1064 1072 1080 1088 1096 1104
          1112 1120 1128 1136 1144 1152
          1160 1168 1176 1184 1192 1200
          1208 1216 1224 1232 1240 1248
          1256 1264 1272 1280 1288 1296
          1304 1312 1320 1328 1336 1344
          1352 1360 1368 1376 1384 1392
          1400 1408 1416 1424 1432 1440
          1448 1456 1464 1472 1480 1488
          1496 1504 1512 1520 1528 1536
          1544 1552 1560 1568 1576 1584
          1592 1600 1608 1616 1624 1632
          1640 1648 1656 1664 1672 1680
          1688 1696 1704 1712 1720 1728
          1736 1744 1752 1760 1768 1776
          1784 1792 1800 1808 1816 1824
          1832 1840 1848 1856 1864 1872
          1880 1888 1896 1904 1912 1920
          1928 1936 1944 1952 1960 1968
          1976 1984 1992 2000 2008 2016
          2024 2032 2040 2048 2056 2064
          2072 2080 2088 2096 2104 2112
          2120 2128 2136 2144 2152 2160
          2168 2176 2184 2192 2200 2208
          2216 2224 2232 2240 2248 2256
          2264 2272 2280 2288 2296 2304
          2312 2320 2328 2336 2344 2352
          2360 2368 2376 2384 2392 2400
          2408 2416 2424 2432 2440 2448
          2456 2464 2472 2480 2488 2496
          2504 2512 2520 2528 2536 2544
          2552 2560 2568 2576 2584 2592
          2600 2608 2616 2624 2632 2640
          2648 2656 2664 2672 2680 2688
          2696 2704 2712 2720 2728 2736
          2744 2752 2760 2768 2776 2784
          2792 2800 2808 2816 2824 2832
          2838 2844 2850 2856 2862 2868
          2874 2880 2886 2892 2898 2904
          2910 2916 2922 2928 2934 2940
          2946 2952 2958 2964 2970 2976
          2982 2988 2994 3000 3006 3012
          3018 3024 3030 3036 3042 3048
          3054 3060 3066 3072 3078 3084
          3090 3096 3102 3108 3114 3120
          3126 3132 3138 3144 3150 3156
          3164 3172 3180 3188 3196 3204
          3212 3220 3228 3236 3244 3252
          3260 3268 3276 3284 3292 3300
          3308 3316 3324 3332 3340 3348
          3356 3364 3372 3380 3388 3396
          3404 3412 3420 3428 3436 3444
          3452 3460 3468 3476 3484 3492
          3500 3508 3516 3524 3532 3540
          3548 3556 3564 3572 3580 3588
          3594 3600 3606 3612 3618 3624
        </DataArray>
        <DataArray type="UInt8" Name="types" format="ascii" RangeMin="12" RangeMax="13">
          12 12 12 12 12 12
          12 12 12 12 12 12
          12 12 12 12 12 12
          12 12 12 12 12 12
          12 12 12 12 12 12
          12 12 12 12 12 12
          12 12 12 12 12 12
          12 12 12 12 12 12
          12 12 12 12 12 12
          12 12 12 12 12 12
          12 12 12 12 12 12
          12 12 12 12 12 12
          12 12 12 12 12 12
          12 12 12 12 12 12
          12 12 12 12 12 12
          12 12 12 12 12 12
          12 12 12 12 12 12
          12 12 12 12 12 12
          12 12 12 12 12 12
          12 12 12 12 12 12
          12 12 12 12 12 12
          12 12 12 12 12 12
          12 12 12 12 12 12
          12 12 12 12 12 12
          12 12 12 12 12 12
          12 12 12 12 12 12
          12 12 12 12 12 12
          12 12 12 12 12 12
          12 12 12 12 12 12
          12 12 12 12 12 12
          12 12 12 12 12 12
          12 12 12 12 12 12
          12 12 12 12 12 12
          12 12 12 12 12 12
          12 12 12 12 12 12
          12 12 12 12 12 12
          12 12 12 12 12 12
          12 12 12 12 12 12
          12 12 12 12 12 12
          12 12 12 12 12 12
          12 12 12 12 12 12
          12 12 12 12 12 12
          12 12 12 12 12 12
          12 12 12 12 12 12
          12 12 12 12 12 12
          12 12 12 12 12 12
          12 12 12 12 12 12
          12 12 12 12 12 12
          12 12 12 12 12 12
          12 12 12 12 12 12
          12 12 12 12 12 12
          12 12 12 12 12 12
          12 12 12 12 12 12
          12 12 12 12 12 12
          12 12 12 12 12 12
          12 12 12 12 12 12
          12 12 12 12 12 12
          12 12 12 12 12 12
          12 12 12 12 12 12
          13 13 13 13 13 13
          13 13 13 13 13 13
          13 13 13 13 13 13
          13 13 13 13 13 13
          13 13 13 13 13 13
          13 13 13 13 13 13
          13 13 13 13 13 13
          13 13 13 13 13 13
          13 13 13 13 13 13
          12 12 12 12 12 12
          12 12 12 12 12 12
          12 12 12 12 12 12
          12 12 12 12 12 12
          12 12 12 12 12 12
          12 12 12 12 12 12
          12 12 12 12 12 12
          12 12 12 12 12 12
          12 12 12 12 12 12
          13 13 13 13 13 13
        </DataArray>
      </Cells>
    </Piece>
  </UnstructuredGrid>
</VTKFile>
