<?xml version="1.0"?>
<VTKFile type="UnstructuredGrid" version="0.1" byte_order="LittleEndian" header_type="UInt32" compressor="vtkZLibDataCompressor">
  <UnstructuredGrid>
    <Piece NumberOfPoints="795" NumberOfCells="454">
      <PointData>
        <DataArray type="Int32" Name="libmesh_node_id" format="ascii" RangeMin="2220" RangeMax="4979">
          2220 2221 2222 2223 2224 2225
          2226 2227 2228 2229 2230 2231
          2388 2389 2390 2391 2392 2393
          2394 2395 2396 2397 2398 2399
          2402 2405 2408 2409 2410 2411
          2463 2464 2465 2466 2467 2468
          2469 2470 2471 2472 2473 2474
          2475 2476 2477 2478 2479 2480
          2499 2500 2501 2502 2503 2504
          2505 2506 2507 2508 2509 2510
          2511 2512 2513 2514 2515 2516
          2517 2518 2519 2520 2521 2522
          2613 2614 2616 2617 2618 2620
          2621 2622 2624 2652 2653 2654
          2655 2656 2657 2658 2659 2660
          2661 2662 2663 2697 2701 2705
          2721 2722 2723 2724 2725 2726
          2736 2737 2738 2739 2740 2741
          2742 2743 2744 2745 2746 2747
          2748 2749 2750 2751 2752 2753
          2754 2755 2756 2757 2758 2759
          2760 2761 2762 2763 2764 2765
          2778 2779 2780 2781 2782 2783
          2784 2785 2786 2862 2863 2864
          2865 2866 2867 2868 2869 2870
          2871 2872 2873 2922 2923 2924
          2925 2926 2927 2940 2941 2942
          2943 2944 2945 2946 2947 2948
          2958 2959 2960 2961 2962 2963
          2964 2965 2966 2967 2968 2969
          2992 2993 2996 2997 3000 3001
          3018 3019 3020 3021 3022 3023
          3036 3039 3040 3043 3044 3047
          3060 3061 3062 3063 3064 3065
          3066 3067 3068 3069 3070 3071
          3072 3073 3074 3075 3076 3077
          3180 3181 3182 3183 3184 3185
          3204 3205 3206 3207 3208 3209
          3240 3242 3244 3258 3260 3262
          3273 3274 3275 3276 3277 3278
          3279 3280 3281 3282 3283 3284
          3285 3286 3287 3288 3289 3290
          3291 3292 3293 3294 3295 3296
          3297 3298 3299 3348 3349 3350
          3351 3352 3353 3354 3355 3356
          3357 3358 3359 3360 3361 3362
          3363 3364 3365 3369 3370 3371
          3372 3373 3374 3399 3400 3401
          3402 3403 3404 3405 3406 3407
          3408 3409 3410 3411 3412 3413
          3414 3415 3416 3417 3418 3419
          3420 3421 3422 3462 3463 3464
          3486 3487 3488 3489 3490 3491
          3507 3508 3509 3510 3511 3512
          3527 3530 3533 3534 3535 3536
          3555 3556 3557 3558 3559 3560
          3561 3562 3563 3579 3580 3581
          3594 3595 3596 3597 3598 3599
          3603 3604 3605 3606 3607 3608
          3621 3622 3623 3624 3625 3626
          3627 3628 3629 3642 3643 3644
          3645 3646 3647 3648 3649 3650
          3651 3652 3653 3669 3670 3671
          3672 3673 3674 3675 3676 3677
          3678 3679 3680 3681 3682 3683
          3750 3751 3752 3753 3754 3755
          3756 3757 3758 3759 3760 3761
          3780 3781 3782 3783 3784 3785
          3909 3910 3911 3912 3913 3914
          3915 3916 3917 3918 3919 3920
          3951 3952 3953 3966 3967 3968
          3975 3976 3977 3978 3979 3980
          3981 3982 3983 3984 3985 3986
          3987 3988 3989 3990 3991 3992
          4008 4009 4010 4011 4012 4013
          4014 4015 4016 4017 4018 4019
          4020 4021 4022 4023 4024 4025
          4026 4027 4028 4029 4030 4031
          4041 4042 4043 4044 4045 4046
          4047 4048 4049 4050 4051 4052
          4068 4069 4070 4080 4081 4082
          4092 4093 4094 4095 4096 4097
          4098 4099 4100 4101 4102 4103
          4122 4123 4124 4125 4126 4127
          4146 4147 4148 4149 4150 4151
          4152 4153 4154 4155 4156 4157
          4158 4159 4160 4173 4174 4175
          4176 4177 4178 4179 4180 4181
          4182 4183 4184 4188 4189 4190
          4194 4195 4196 4197 4198 4199
          4200 4201 4202 4203 4204 4205
          4218 4219 4220 4221 4222 4223
          4230 4231 4232 4266 4267 4268
          4281 4282 4283 4299 4300 4301
          4305 4306 4307 4308 4309 4310
          4311 4312 4313 4335 4336 4337
          4341 4342 4343 4395 4396 4397
          4455 4456 4457 4473 4474 4475
          4476 4477 4478 4515 4516 4517
          4578 4579 4580 4581 4582 4583
          4614 4615 4616 4704 4705 4706
          4707 4708 4709 4710 4711 4712
          4713 4714 4715 4737 4738 4739
          4740 4741 4742 4821 4822 4823
          4842 4843 4844 4845 4846 4847
          4854 4855 4856 4857 4858 4859
          4860 4861 4862 4863 4864 4865
          4866 4867 4868 4875 4876 4877
          4878 4879 4880 4908 4909 4910
          4914 4915 4916 4932 4933 4934
          4941 4942 4943 4977 4978 4979
          2400 2401 2403 2404 2406 2407
          2615 2619 2623 2698 2699 2700
          2702 2703 2704 2706 2707 2708
          2991 2994 2995 2998 2999 3002
          2331 2330 2335 2334 2339 2338
          3241 3243 3245 3259 3186 3188
          3261 3189 3191 3263 3192 3194
          3448 3450 3452 3525 3526 3528
          3529 3531 3532 3537 3538 3539
          3540 3541 3542 3654 3657 3660
          2328 2332 2336 3852 3853 3854
          3993 3994 3995 4338 4339 4340
          3513 3514 3515 4458 4321 4459
          4324 4460 4327 4584 4585 4586
          4587 4588 4589 4791 4792 4793
          4794 4795 4796 4797 4798 4799
          4431 4432 4433 3495 3187 3499
          3190 3503 3193 3954 3957 3958
          3961 3962 3965 4899 4900 4901
          4968 4969 4970 4911 4912 4913
          3498 3502 3506 4902 4903 4904
          4434 4436 4438
        </DataArray>
        <DataArray type="Float64" Name="resid_x" format="ascii" RangeMin="-0.000026190372423684494" RangeMax="0.00012144555181281547">
          -0.000006606819759724658 -0.000010366637584802163 -0.000011933119564044858 -0.000011645630375589633 -0.000004543101888021539 -0.000009155383400294426
          0.0000015681008140866481 0.0000028873978923371624 0.00003973154572811666 0.0000258066280500735 0.000038318399825598704 0.000044222871306676126
          -0.000003739896708321311 -9.709584340988897e-7 0.0000053621324220820554 0.0000032408356429591834 -0.000001350288307389036 0.000009806137404311244
          0.000018004513829161795 0.000017942177953145233 0.00001570418532281792 0.00001775465148945443 0.000019406840127356162 0.000022478069841014303
          0.000026270221305857433 0.000038140202313741156 0.000022670908600197492 0.000023313729466512 0.00002861485762561955 0.000017684986636457012
          0.000009814220074899627 0.00002558435695534933 -0.0000035029709605782777 0.00002124001340977899 0.000027024816199150425 0.00003843180847440397
          -0.0000052333635359724795 -0.000008104656338714378 -0.0000070839872146066796 -0.0000065451830243423714 -0.000003997488412954553 -0.00000495249237708606
          0.000001879896059708841 0.000002014689889917598 0.000017454234368274868 0.00002068722049086702 0.000019473711576178943 0.000011908789955161758
          -0.000004789898261137182 -0.0000065570470608733444 -0.000005417703454746459 -0.000009009840061136032 0.000004610627012180402 -7.3521923216191e-7
          0.000011206279414643916 0.000001378630728687824 0.000031256995550954514 0.000023985677992222065 0.00002607726078496242 0.000024785563895957097
          -0.000004293150544842916 -0.000006012038585634372 -0.0000073854138533668845 -0.000006928410091422421 0.0000013991401368596001 0.00000393098216511234
          -0.0000033674253705484603 0.000007027634156830942 0.0000196603664823769 0.00002599918316192884 0.000023311954091109754 0.000027467501461764243
          -0.0000028683084005720616 -6.829139584940691e-7 -0.000004379645423213674 0.0000010171805615577512 0.000004677465723412766 0.0000071743460963169525
          0.000013719129237976802 0.000008694431184563811 0.000022010374155723156 -0.000004357441595104206 -0.000005367220265561912 -0.000005172759997895682
          -0.000007098278494321875 -0.0000028583243927293722 0.0000026804305384153793 -0.0000015438986744609196 0.000003749718805678981 0.000017497193693039037
          0.000014904983066887922 0.000022659870570401752 0.000027056793956425906 0.00003955643649655727 0.00006430425150583119 0.000037038829025837217
          0.000006470943782588279 0.0000017214519330011058 0.000005047595815654837 -0.00000236860572799813 0.00003017297363094862 0.00003126137266473705
          0.000003318916883987555 0.000015858423960679602 -0.0000023967323827811526 0.000001650813006293106 0.000005631679766082698 -0.0000030039558254202348
          0.00002722324620751948 0.000031548006655945926 0.00003595057383254385 -0.000005436849113138464 -0.000007260182349089206 -0.000007567070094971484
          -0.000008963084643320851 -0.0000018297523841082075 -0.0000025116261515023552 0.000002416905895419319 4.1334107184209934e-7 0.00001949640782950013
          0.000024474311151045924 0.000028015885178866995 0.000023462062109735893 0.000001861920552848062 0.000012983893705520444 -8.925596839404193e-8
          0.000003348827748883565 0.0000057113979829992445 0.000010572346774040398 0.0000230637991371907 0.000017106310877368358 0.000028591576930026008
          0.00001969307486060501 0.00002564941205385196 0.000008887594299178403 0.000010253746903554628 0.000010014388060586299 -2.466622026631171e-7
          0.000011862473790369421 0.000018759398699552676 0.00003419978958918435 0.000014958118231156448 2.0448618776036653e-7 -0.000006121024253458174
          0.000014331542755208204 0.000003982464884533243 6.142975841338938e-7 -0.000004560586574865744 0.000014746012008459708 0.00003722476657186391
          0.000017998270141372785 0.000014310146694368475 0.00004222773937745394 -0.0000039720162319234475 0.000001018101162042484 -0.000003511990537052867
          0.000007693945109910061 0.00001929018023094642 0.00002398745275122849 -8.436805685185789e-7 -0.000001134048617235095 0.000010754967455284259
          -1.1366549212965538e-7 0.0000029426867138582224 0.000004066460063789634 0.000022728524151194307 0.00002149567813614084 0.000017768078606650306
          -0.0000040503140521508385 -0.000006828609393494389 -4.200475487436961e-7 0.000009105576436851948 -0.000003994167061094345 -0.000004589168021151835
          0.0000032787612354034934 0.000005830810661855423 0.00001381483852780363 0.000016529581264190796 0.000018528997255184976 0.00002085424151454518
          0.000022727936257460613 0.000015170878618020467 0.00005456928475222611 0.000035739014444979844 0.00003376709910396514 0.000033607829949877654
          0.000004983610569109231 0.00001735433167304734 -0.000006603648284642105 0.000010218673156092706 0.000037804346495917684 0.000030031284329989916
          0.000012202432761121429 0.000006647932466741224 0.000010391717437663317 0.0000050919124019443984 0.000008634583671174312 0.0000068727640294419245
          0.00002234672919065872 0.000020129460537088306 0.000022454126232140936 0.000015668532461043938 0.00005034603388320846 0.00004788715713166525
          0.00001136003704216293 -0.000003127543995562476 0.000028396017871301638 0.000022987493114356994 0.000008254347939384843 0.000006764223888899856
          -4.749113786672865e-7 -0.0000023653919640764798 -6.842613964330724e-7 0.0000022538454049758627 0.000020882293063184676 0.000024127386301753262
          0.000011256454225921919 0.000017592883049033503 0.0000061627096619165656 0.00003181378807903812 0.000015777951260370626 0.000026256380597278195
          0.000008847104222442503 0.000015172575697164348 -0.000003994196165590935 0.000028909033101598425 0.000010710081968179352 0.000022926475212514674
          0.00003570405250075126 0.000030481344778454655 0.00003018314448821613 0.00001000515654503431 0.00002576664552922381 0.00002343297423790247
          0.000018324944802472487 0.000011084076186218539 0.000019646878937074064 0.000006024231812506997 0.000013252610313152502 0.00002621914725553509
          0.00001200165580605983 -0.0000018115313764610619 0.000013295237247579195 0.000013662315449636253 0.000013319475566486716 0.000009646072566482644
          0.000006669618718382897 0.0000015088808278385102 0.0000077891494081328 0.000003574486625496087 -0.0000026688136727237577 0.000002958395873609021
          0.00001000553313490471 0.000013801658715451026 0.000019213312136834304 0.000009277500966214935 0.000005865265574556133 0.0000051335076667741175
          6.405584840329936e-7 0.000011411362454472052 0.000015937259030263107 0.000013073741767399838 -0.000004475617055632597 0.000015117926524421677
          -0.000004103266380006687 -0.000005692462534456766 0.000006878649895458722 0.000011968241171000926 -0.000003274470731007284 -0.00000534087106607295
          0.000014913320084186665 0.00000978883511848494 0.000008414273897638935 0.000012457140332378103 0.00002615294443986116 0.00002224556137875311
          0.00001779569533999492 0.000002333160927570077 0.00002052558069953747 0.0000241495313013651 -0.0000013652585360013347 0.000015013653387185855
          0.00002839224568873533 0.000032467597101515366 0.00001971275516465809 0.00003378054255920304 0.000008692366786355876 -0.0000026734038351960976
          -0.000006042744947976075 0.000023842699558462854 0.000005159144509381264 0.000010715639103153762 0.000011482348132751952 0.0000027010128311744097
          -0.00000271099938453645 0.000024606955481232262 0.000017769499371045328 0.000010912083957315133 0.000013383513800313551 1.2076779487557587e-7
          -9.572849397621042e-7 0.000014012064059265583 0.000013401953032676772 0.00002266154566132883 0.000013198703531447364 0.000007994041958170328
          0.000006059660257129451 0.000020937742968740736 0.000025608003515031896 0.000014899210043384237 0.0000030906162552524208 0.00002103360115124353
          0.000023287698836416126 0.000025363020128899016 8.224147243218738e-7 -0.000006581091439472608 0.000021183780977818145 0.000019121728090265577
          0.00002262562507177046 0.000015320754095160538 0.000003684298155004484 0.0000014561754697606233 0.00001871188478019814 0.000017183034331180735
          0.00001330869174642757 0.000023736163184517878 0.000017990524912914196 0.000015645555483612128 3.3982804747978435e-7 0.00002023331268885542
          0.000024641317267315443 0.000011682122735390266 0.0000028710596898795515 0.0000028077950942062557 0.000013795983147435464 0.000005830206950996342
          0.000010905663325289083 -0.000003107203186303309 0.000009717280366139391 0.00002165524656483342 0.000007705180792072497 0.000017607022543941753
          0.00002908659514222478 0.000028851302707355586 -0.0000056302018682785615 -5.638668905127986e-7 0.000016606085546655436 0.000012721938038140479
          0.00001894596066454035 0.00000591562285778835 5.900123989377448e-7 -0.0000015375867605804672 0.000014994514591970542 0.000015149887064414003
          0.000028520564647305235 0.000026917547132576658 0.00002631239753281278 0.0000015467023848358963 0.000008794669944744982 0.000007428725928626534
          0.000011543737306052293 0.000011341852464319402 0.000016829563317166674 0.0000026476594245927743 -0.000004435172612060612 0.0000015063633487244488
          0.00001016946373777472 -6.471604487856553e-7 -0.0000031662867987503063 -6.570818911200149e-8 0.00001574319193231588 0.000016579188335974493
          0.000006115231137249211 0.000011207643229482755 0.00002761289445052384 -0.000004292624078416907 -0.00000672945013491244 -8.240701956374608e-7
          -0.000007650109972168195 -5.953184190055083e-7 -0.000007851722729768085 0.000013208657334118357 3.1799732935766656e-7 0.00002131020943663131
          0.000025094765580213618 0.00002590432450189084 0.000023165504624778066 0.0000308668482991159 0.000003917257578311961 0.00001809235397587372
          0.000004207088043384211 0.00000856581122388178 -0.0000032617838899851037 0.0000037440654709897103 0.000018452481231223672 0.000016440795834071764
          0.0000017014847619734041 -0.000001507561678604219 0.000004093404144533963 0.0000015662993742004971 0.000007482109331213849 4.3615169564859e-7
          0.000004388253502130013 0.000010879357280585422 -0.0000039285788486775886 0.000002609224000305055 0.000017746186277589615 0.000020642656880176524
          0.00001179498150483127 0.00002666639326331932 -7.991831920683978e-7 0.000011902096922700167 0.000016555654624550442 0.000022130937629594172
          0.000008663004458231427 0.000004228953862206453 -6.531238536666706e-7 -0.0000013882689657851444 0.000017041050337507357 0.000012760261487443358
          0.00003062242106599555 0.000009194580921079165 0.000019529666770434773 0.00002042588273831747 0.000003471317845615829 0.000022386619551895137
          -0.0000017669553060706278 0.000010476931862513084 0.000014035399646727953 0.00000724274225438748 -0.000005470629500292645 0.000012981927930422188
          0.000015681342114159946 0.0000032641489102758214 0.00001840595505053777 0.000014412383418704877 0.000025094222784183273 0.000022325594423389106
          0.000011740943718585584 0.000004871782735893504 0.000019601661602752785 -0.000003296281191111916 0.000013633364269960424 0.000004952690270787485
          0.000014193775036197565 0.000010467916829348667 -0.000003989545846128095 0.000005563342646563996 0.000034866386206644506 0.00002677920703320069
          -0.000004802992476182766 0.000015551740317532037 0.000022548170886427243 0.000021790376104391385 0.000003461470793331145 0.000012108384919828907
          0.00002295648231109837 0.000013169917857602798 0.00001535048895373592 0.00002863876996173076 0.00002225351762152883 0.000019158087609660868
          0.00001902278949605929 0.00001137299562392613 0.000011851173096655288 0.000026259907736969623 0.000008857638969184123 0.000026393830519610972
          0.000023185439754769277 0.000026181139155562194 0.000012288438690166714 0.00001018797973995067 0.00001567341026253999 0.000017037473324876817
          0.000030281921302055537 0.000022419059628742133 0.000004886967215345095 0.0000034606092373934416 0.000027508012313326446 0.00001832333558082766
          0.00002487740301182484 6.930532463478301e-7 0.000021228256693817116 0.000036071347744304205 5.709885897431377e-8 0.000009638382743037965
          0.000013912992569364846 0.000006857810514571128 -3.9664806217309945e-7 0.00000397598976009661 0.0000067820901565873726 0.000003907690995674784
          0.00002381392975503438 0.000014819390788289866 0.000009125942099119655 0.000020847131940726626 0.000011236807026193674 0.000014093589344010837
          0.000018310129494825134 0.000018100027108669536 0.000026424960909654516 0.00003122768908747631 0.0000191422003421593 0.000023992485880253156
          0.000018331639441537817 0.000021020471137056518 0.00001519505821745426 0.000029638891438921178 0.000008493409329179968 0.00002940751905322614
          0.000027237205550090238 0.000025576875111621433 0.00002397679566445987 0.00004898465198710511 0.000036439461533532835 0.00002811715610517851
          0.000019013244577870125 0.000032789851465597764 0.000028252684855623045 0.000019171429060715894 0.000010886764966411278 0.000010518281917892836
          0.0000059108918160077906 0.00001528880406675981 0.00001309879360689159 0.000039186660663936834 0.00002847013649143193 0.000005841272391116092
          0.00003180522984402856 0.000023071614605019164 0.000022723885245490294 0.000012650025107863172 0.000010021956440731117 0.000014963118084576621
          -0.0000016513824760977514 -0.00000898302091068004 0.000023073460146516567 0.000023109041588975643 -6.466398083659897e-7 0.0000013984647035947262
          0.00005870763384319133 0.00006825074209126925 0.000021429125407035343 0.000027212783321628464 0.000043427044498445255 0.000050524050938749454
          0.000039179700976443854 0.000020510074017376922 0.00006870331429498222 0.000006276006986771776 0.0000477444981696884 0.00002757522495233644
          0.0000031295694371547 -0.000003753984159970969 8.506201134572677e-7 0.00002524948905513469 0.000031708092092852525 0.000029898845635756288
          0.00001554827513627899 -0.0000039918710492692355 0.000019334776001134202 0.000022488053780467254 0.000019320363873198687 0.000019594849155701866
          0.000030440479163340584 0.000006754049210577762 0.00001968645506167377 0.00001815176186603651 0.000018748199407836452 6.081112129407984e-7
          0.000007683898378685328 0.000013823310316851689 0.000014137987957019149 0.000025638352422863164 0.0000025946391386533207 0.000011662141910395718
          0.00004653274298416221 0.00003962473138585665 0.000029521101431839725 0.0000224756782132296 0.000027062425710155935 0.000020242492093647257
          0.000011348945909706032 0.000004661421429297263 0.000005064429032142215 0.00004441673629518306 0.00003152601081346518 0.0000597808378048903
          0.00004082965239282643 0.000034484927417199884 0.000025081954382777383 0.00002221202727903382 0.0000020412173877826234 0.000008607187885090184
          0.000014724546415489925 0.000004527114503716234 0.000009938754407023964 0.000025233085916731568 0.000005858398217206684 0.000005637659636459347
          0.000015918731422592813 -0.000005806581873990524 -3.5987781776825045e-7 0.00002938262218910026 0.00003094892871624566 0.000015888793054141814
          0.000045910015475492116 0.00004295956942312884 0.00002244574852516834 0.000056092270529717325 0.00006779045944704798 0.0000688089924980595
          0.00012144555181281547 0.00003918303074712526 0.00006088170882945221 0.00002356369415790205 0.00002391434814041915 0.0000036906153630944516
          0.00003830689643669061 0.000024114159846488903 0.00002711328532134516 0.000029183836129043073 -2.3215323485814565e-7 0.000020316875194881234
          0.000017842534426826262 0.000019073227515153945 0.00001300300216300343 -0.000002128430538039794 -0.0000010742226224103035 -0.0000016317346553940126
          0.00004099073724961322 0.000016376686633012838 0.00005734398091750137 -0.0000034280141321119117 0.000035751731893407523 0.000014116198834290827
          0.00002303593476704613 0.000010693815835294274 0.000020420117349484457 0.00004798274114414802 0.000006037104216760625 0.00004756147485895923
          0.00003205710448428434 0.000014728745600933735 0.000038221578956054714 0.00004082958839957129 0.000032562361496291103 0.00006105615831852873
          0.00001736725884105006 0.00003420767244666223 0.000015953643609067925 0.00003492527677395607 0.000007122962742522887 0.000017536361163639214
          0.00003106417994058752 0.000007902810155835382 0.000016876410160682198 0.00003659574694636625 0.00004312689749452758 0.00002388289504429153
          0.000009193904462190261 0.000010070534363748607 0.000005293367366654422 0.000010246690849813334 -0.000004699307530442454 0.0000015938882538257815
          0.000035833417508346344 0.000006824920431025561 0.00005429887632502073 0.00000766130586304925 0.000036465737009550026 0.00000986742870301427
          0.000007554303368184634 0.000012759433442255386 0.000010614602049763278 0.000016401888423445143 0.000020221303222101028 0.000004133723445765014
          0.00003256109033245025 0.000008518204430707499 -0.000005540091118305668 0.000021905968091040506 0.000017346584104238616 0.000005070336015045029
          0.000029429112425205517 0.00001858035825996751 0.00005685154029144712 0.000043300291219239284 0.0000349998099968829 0.00002366978115375673
          0.0000053278282519109155 -0.000001986010791488191 0.000014437243778697706 -9.95759593891421e-7 0.000004810596965221237 -8.474424184612417e-7
          0.000019568245319234734 0.000048569012231602926 0.00002663253190737791 0.00002770195041446044 0.000019859933449772882 0.000029440013529224984
          0.000029141052622527752 0.000011498564612466566 0.00005193955430549124 0.000015484256617348535 0.000020943912567794598 0.00002421271657659929
          0.000004521738211193949 0.000003458797189992424 0.000007992157704750369 0.000005189713006892305 0.000015550320605406398 0.000019447566423025364
          0.000022561390810693638 0.00001541468423837955 0.000011815721811636593 0.00001973100840446662 0.000011521384148061031 0.000023779361655762443
          0.000008802258059326107 0.000011966503061344724 0.00000487198363607888 0.000004168018249650629 0.000015683737678351406 0.000014701723326737692
          8.976371939084515e-7 0.000006148053503629569 -0.0000013680958312889402 0.00001122493113259182 0.000012019257937367911 0.000010264857844166642
          0.00001496871828043922 0.000012687111417442054 0.00001245039998210018 0.000003745816220313003 0.0000016370750635097409 0.000010149382382529382
          0.000014763976407206059 0.00000847261369951724 0.000011631691704039326 0.000023947520438660774 0.000019922925337922948 0.00005041597823129962
          0.00004794782548067644 0.00003213687241965246 0.0000320357382062042 0.000029988581676576587 0.00002188997384422464 0.000049943622689951894
          0.00004544526335692467 0.00002305359536336482 0.000019142997850885024 0.000027426500820215693 0.00001875393613026688 0.000014388324423464383
          0.00004780263240267146 0.00003490455840449158 0.00011650616793890123 0.00008124284026322925 0.00006564269863273964 0.00004973749156178542
          -0.000004842286010164898 -0.000001166265020557944 -0.0000043347488916101184 0.000014581253429568619 0.00003208704348844904 0.00003690497473485266
          0.00004144394818528241 0.000025032854175321972 0.000020057128284456383 -0.0000035091358210337376 -0.000018539468399803027 -0.000004135999519760958
          -0.000026190372423684494 -0.000005620162715658239 -0.000015914771884339984 0.00004185057703764983 0.00007521002875598981 0.000042184620711260834
          0.000026947091352091945 0.00003625359723047339 0.000019244399677598167 0.000040680955064154034 0.00004632323211239964 0.00003421731947561568
          0.00001032312224147347 0.00004399174729385891 0.0000389037213679444 0.000011246014063992504 0.00001260881543707626 0.000004890902997267688
          0.00000119830651001962 0.00000696931431676262 0.0000016675691032475015
        </DataArray>
        <DataArray type="Float64" Name="resid_y" format="ascii" RangeMin="-0.00007372962530751218" RangeMax="0.000019272130665843462">
          -4.816362990092346e-7 0.0000014428364307449149 7.133220719830746e-8 0.000002042614673946133 -0.000003379979267991752 -0.0000011323462118929643
          -0.00001115817265611753 0.0000026112453043927036 -0.000019123815683625908 -0.000015139088913608198 -0.00002048135468852609 -0.000015850251505038562
          3.583191486040277e-7 -0.000001948115979007528 0.000007895717255457235 0.000001042585846117855 9.54496736677024e-7 -0.000005063011131588302
          0.000014874648329537415 -0.000005669358898778565 -0.000007721188084711464 -0.000005273141302606851 0.000004522219466951416 -0.000009900546837783575
          0.000006244932520965696 0.000011339408204906476 0.000005153003497022912 -0.0000036330150611600665 -0.0000063330236315904676 -0.000004095726533686478
          -0.000017087324798514304 -0.000011331830672279067 -0.000010487655417285545 0.000001638982508829056 -0.000017343733748356738 -0.00001343219502928164
          -7.552596591985095e-7 3.956050969070816e-7 -2.2954190570870225e-7 7.07465248928757e-7 -0.0000032814366372584114 -1.1163818554489613e-9
          -0.0000056177043854382935 -0.0000032629285191508595 -0.000009950373382631994 -0.000008976272202964762 -0.000007615686811245775 -0.0000068382288031243466
          -2.8373445547062726e-8 0.0000011560020917323732 -1.777019635103988e-7 0.0000027592589008848534 -0.000008300379598064934 -0.00000733619209133886
          -0.000010893510963065796 -0.0000032715315801327798 -0.00002619266476422649 -0.00002253819500291367 -0.000020636992280467954 -0.00002111020988947664
          7.28873863597556e-8 5.752539897548471e-7 0.0000021017556074869655 0.000001925297849575576 -0.0000054705584232143945 -0.000006024109807346791
          -0.0000054395421655377115 -0.000012284588986985479 -0.000020308500608312314 -0.00002431863563903897 -0.00002463985368977373 -0.000027844014709227176
          -0.0000026035448828544416 -0.00000198236843437739 -0.0000024878572866668044 -0.000005016275575642215 -0.000004471317228321118 -0.000005977183901227905
          -0.000005778349607025307 -0.000005838064790712923 -0.000006441028596322618 -0.000005189882088727643 0.0000013041636758720498 0.000001461486358812292
          0.0000016435407070268526 -0.000013382107593141145 -3.447229423841208e-7 -0.0000011482142931490587 -0.000008121714355879828 -0.000024603941648518486
          -0.000012649018783825183 -0.00002469844571356401 -0.000027299791343499136 -0.00003210348608467285 -0.00006088825232059263 -0.00003752143184842464
          -0.0000018677519142835637 -0.0000036190705221851582 -0.000004900005510484712 -0.0000024980364784921855 -0.000013165779918601801 -0.000011246280144813076
          -0.000006005749012465665 -0.00000519332823611246 -0.000015100225326378095 -0.000004363594364516655 -0.000014248106608911928 -0.0000025935842123416507
          -0.000017549908604084282 -0.00002550747540441779 -0.000017599865557247274 -5.062934074328423e-7 7.162587690005828e-7 6.871089907739547e-7
          0.0000011661467015531765 -0.000003193065537505837 -0.000006642474693637976 0.0000018448391834041677 -0.0000033846083270002575 -0.000012147666196059368
          -0.000020130842220142733 -0.00001675974806352766 -0.000013874364410556075 -0.000007843827625967324 -0.000008047514025977124 -0.00001664233188982062
          -0.000008891345258460297 -0.000010978925384684058 -0.000013286329957786294 -0.000018065421582157473 -0.000018930237054536276 -0.000018061364189846454
          -0.000018183799894515382 -0.00000384050711345796 -0.000004346547149309057 -0.00001549604908799478 -0.000002371793218287205 -0.000005614133327136147
          -0.000016202397307341423 -0.000016788248913769807 -0.000032457424330129686 -0.000034948039343723515 -0.000004727164934885571 9.396209625254441e-7
          -0.00001225120111231963 -0.00001982930127211518 2.2543576018571251e-7 4.6686634035459e-7 -0.000014282524772610359 -0.000024286936906184244
          -0.000010038891548980666 -0.000015039466594981947 -0.000029697319365265215 -0.000010806012476567012 -0.00001644434075191107 -0.0000051245387041650575
          -0.000006418206339670399 -0.000021307357462918564 -0.000019974535615295032 -0.000007375070578760721 -0.000005762599700871729 -0.0000026376097688012023
          -0.00000739293242766996 -0.000005831153325135119 -0.0000029270429223286765 -0.00000757703076810284 -0.000006140819403293446 -0.000007335918984233136
          -5.87091387756547e-7 -2.4688743063827623e-8 0.000003576801833148416 -0.0000012448258876335272 -0.000005227299393678261 -0.000005397721267650507
          0.000003829860462477644 -0.000005385077387717874 -0.000011788392490476307 -0.000012094286370225096 -0.000004290956232701204 -0.000010896977372162192
          -0.00003294540877192987 -0.000025779946030385402 -0.0000669409526118164 -0.000051607568619072355 -0.000039607917866639995 -0.00003985907943866241
          0.0000025900334677719707 -0.00001045503830642263 0.000005279620286819482 -0.00001702438128243621 -0.000016704031037897494 -0.000018218516588332408
          -0.00003629374139557098 -0.000013767599634311421 -0.000029387317098437428 -0.0000161399142897976 -0.000020589850388691433 -0.00001697826352610324
          -0.000013936568069252211 -0.000026208106139883128 -0.000005701180260071076 -0.000013460269880893536 -0.000028343506096206728 -0.00005162541645990608
          0.000009814047805528983 -0.000004898820436981515 -0.00001723308498749465 -0.00002638753172380659 0.0000010335013320098702 -0.000010494280789725887
          -0.00000547833617942084 0.0000012381807104888676 -0.000002723051243987834 -4.472195228905247e-7 -0.000006507710581027393 -0.000006621664531072371
          -0.00001802364582021679 -0.000016465912942959307 -0.000012256870178208989 -0.00001172427374378747 -0.0000205854943071545 -0.000017261245432619726
          -0.000014091928168593129 -0.00001191789330254496 -0.0000011258571711875859 -4.741253645905441e-7 -0.000014913559171179924 -0.000010163308201121407
          -0.00001547960346407959 -0.000028348174698761622 -0.000029603084533962737 -0.000011921368752478012 -0.000023764171961086766 -0.000017030190601494133
          -0.000004746327891266139 -0.000008855780514698333 -0.000013578284265063079 -0.000006095004202058205 -0.000010868402401735013 -0.000019775232645430135
          -0.00001559762601395856 -0.000004564483002857632 -0.000008841134767412391 -0.000011493002889114735 -0.000009561601551834331 -0.0000031137564600984546
          -0.000010753454875671916 -0.00000808917308779862 -0.000007099602694509745 -0.000007344081167899065 -0.000006711131972144541 -0.000003211444911095738
          -0.000006954376186794377 -0.000010577506772026582 -0.000011245481405111526 -0.0000062891955536048105 -0.0000021211524933442347 -0.000007751070707459487
          -0.000001166156411676507 -0.000013785681433516267 -0.000017034974876081743 -0.000007990886962554872 -0.000007534570960161108 -0.000010586373963422657
          7.081949339048273e-8 0.0000018123539020438624 0.0000017650257494836348 -0.000003368152702031696 -0.000003994047026680296 -0.00001089472530384065
          -0.000004848726131008625 -0.000010577362292309763 -0.000022054708839703164 -0.000029993318957838733 -0.000025582010283608722 -0.000029547363136580153
          -0.0000022570250522041015 0.0000017350131788643544 -0.0000061574771759468835 -0.000012069779422595878 -0.0000013174903598488913 -0.0000036611270018260117
          -0.000007275340493891058 -0.000011156768151256158 -0.000006576691319124667 -0.000015892217464417557 -0.000012008317479666672 -0.000007106869864322712
          -7.123546190835987e-7 -0.000017302196125833745 -0.00000667014488515711 4.024736726809808e-7 -0.0000026020285315911384 -0.000004800598328157102
          -0.000008677812034972587 -0.000016702699259168313 -0.0000188299215522561 -0.000009018174442661231 -0.000003974743969418311 -0.0000063151160499159975
          -0.000002123212002723895 -0.000015845237557808936 -0.000014942158574906238 0.000006016949146916625 -0.000001276427896837462 0.0000025220462024268947
          -0.000004357256434130846 -0.00001195908068659518 -0.000012326439598527722 -0.000016106355535085176 -0.00000789827583612892 -0.000019010658881424324
          -0.000016938877871868277 -0.000016233409671868523 -0.000006822838889383384 -0.000005393078133922313 -0.000010822459249886993 -0.00001481054614681232
          -0.000007316031073270526 -0.00000871213319549632 -0.000005063102826001649 -0.000004788393307292478 -0.000015453539679958182 -0.000012470129987283735
          -0.000013631872859506955 -0.00000829206219473723 -0.000012692875636727968 -0.00000666309585103139 -0.0000020948074448217356 -0.000008478980135897055
          -0.00001704571499480754 -0.000004296333414768004 -0.000001942365329288525 0.0000012160642986515369 -0.000011450737759429591 -0.000004125547704257604
          -0.000015535245041088663 -0.0000026052862531315835 -0.000011437224715162703 -0.000020575620997977107 -0.000014506695692362293 -0.000013279744964622697
          -0.0000157547995692231 -0.000010381327369354126 -0.000004492440215064092 -0.000004263552806894888 -0.000016500112570122516 -0.000010462067118688356
          -0.000015343526670441327 -0.00001200141030871342 -0.000003356953406803958 -0.000006234977957543866 -0.000015569120355285633 -0.000021625694990945812
          -0.000012307007551607373 -0.000012903920976854114 -0.000016168420919061323 -0.000009277446601242342 3.95544456412069e-7 -0.000006400154527980845
          -0.000012765195404551132 -0.000006918797145435453 -0.000011878412900911267 -0.000006404785972406735 -8.54299083584073e-8 -0.00001387226026679407
          -0.000013226313837469764 -8.698997047314194e-7 0.0000013201862695821909 -0.000013253102255653126 -0.000016042241829244963 -0.00001232710340498544
          -0.000007534378566017089 -0.00001942805771193521 -0.00002945432787490425 2.7405959701111426e-7 -0.000010148919379043136 0.000001297905223641635
          0.0000035648720504441803 -0.0000010945599350949131 -0.00001394936059256717 -0.0000018466763804080716 -0.0000034758825456972925 -0.00001734575011276291
          -0.00003622426522193779 -0.00001904365232169563 -0.00001903370711381358 -0.0000264503226849247 -0.000008922439462625761 -0.000017547507454003866
          -0.000018085778788588455 -0.000014192917687826448 -0.000007164282077995118 -0.000005684373702050799 -0.00002251383710047015 -0.000018322309007223758
          -0.000004752824521424455 -0.0000036615382215288324 -0.00000941710547197605 -0.000008908454936901048 -0.000010762781437674215 -0.000007309445840794019
          -0.000016422684940018643 -0.000015231639836286266 -0.0000028596010738456655 -3.700007941594141e-7 -0.000018068907381988764 -0.000017212958268323156
          -0.000018231745852298822 -0.0000350253940297595 -0.000007182882764876497 -0.000012580485585555155 -0.000015540607263631392 -0.000017188887029605596
          -0.0000074339614095225715 -0.0000029061884134921672 -0.0000022123902393682976 -0.000005930259907020946 -0.00001197006428521434 -0.000012214722906622017
          -0.000012174185627700923 -0.000006818568394753588 -0.000014185812457196897 -0.00000777030950477038 -5.303536666863198e-7 -0.00000769297270958617
          -0.00001565130350757952 -0.000013197942647718945 -0.000018279708831831073 -9.166126996766957e-7 -0.000010122743151943841 -0.000017625300288989267
          -0.000016208822584339814 0.00000545757625248014 -0.0000242433685882146 -0.000020234366650963547 -0.00002589770374336565 -0.000010377227260310179
          -0.000013574685279958351 -0.000013306561048564633 -0.000009325415753271352 -9.5834637637085e-7 -0.000010129222317457193 -0.000006249617449972933
          -3.4042549695915926e-7 -0.00000878060378659614 1.0968234782568476e-7 9.602996332283488e-7 -0.000005121174046952598 -0.000017994244225073668
          2.2144932159068667e-7 -0.000015013810734012639 -0.000010668465492300278 -0.000018482354793064506 -0.000013371542496958249 -0.00002397488863358738
          -0.00001955706565134538 -0.000020184845746606776 0.0000010160005756276042 -0.000029489640633309153 -0.000040407645752055243 0.0000026482987522113977
          -0.00002393115660035989 -0.00002321191334701475 -0.000001191602300770235 -0.00001206395200746297 -0.000001393242533400188 -0.000019965838548052436
          -0.000018312625691529333 -0.000021242987399818468 -0.000009639302280392212 -0.000019875175993581615 -0.000009609578070423827 -0.00001658732078441312
          -0.00002569616097345892 -0.000007031579358496298 -0.00001039616926762528 -7.355846805764954e-7 -0.000028564241188314132 -0.000018375821442173992
          -0.00003500070298232804 -0.000007716979693095372 -0.000017466480968660568 -0.00001926115250070609 -0.0000034332735247728785 -0.000009450356851906788
          -0.00001175433592362149 -0.000008513024601194269 -0.000006115052894726039 -0.000006416350023148894 -0.000014056807593117518 -0.000007324268980026145
          -0.000008338384754590913 -0.000009082864418029959 -6.00384120713008e-7 -0.00001720539516554534 -0.000016052238185486215 -0.00002113461696039707
          -0.000019448774170516384 -0.000021252077298442067 -0.000009550037858400946 -0.000012831830443330624 -0.000009891761195698207 -0.00001187164797124366
          -0.0000148838089175235 -0.00000984160945234104 1.3586118615771612e-7 -0.000007948141029750702 -0.000005008339218915249 -0.0000031967234774237636
          -0.00001306789699219809 -0.00001684179030441617 -0.000011183953998216393 -0.000029160441857316874 -0.000011681091809840694 -0.000022731778933645893
          -0.0000027090300758864875 -0.0000309019238405781 -0.000018452942890914183 -0.000025326200013038678 -0.000013244438930350112 -0.000019110045662391103
          -0.0000052119022185424715 -0.000022739033992129343 -0.00001545304942851414 -0.00003083617334645027 -0.000007824234965156637 -0.00002124508161387064
          -0.000004289872834603841 -0.000024854049079288962 -0.000006958821447146791 -0.000013141808854844582 -0.0000020982214006867034 -0.000013079342095946231
          0.0000022283690889624702 0.0000031201315771754896 0.00000300258864376372 0.0000014993285675303546 -1.8964437796856713e-7 6.115625005888303e-8
          -0.000002347372021129163 -0.00001642225066013478 -0.000009841403992542344 -0.00001451405995514304 -0.000013142729434266953 -0.000019742162936245444
          0.0000017096178845535468 -0.000015494217251648106 -0.0000014726459779976307 -0.0000056626698060197045 -0.000017351925280305585 -0.000021566871939607095
          -0.000008916998667262473 1.9331022690655814e-7 -0.000005350897909489703 -0.00001717890710800532 -0.000003024700576562925 -0.000010051468717724074
          -0.000023248640085915713 -0.000005698871910480609 -0.000018531953745365252 -0.000017405269454389208 -0.00002110395842261012 -0.000016304378109127313
          -0.000027283043879668253 -1.6179829591205473e-7 -0.000012282359645329104 -0.000016297359857518536 -0.00002192499710477352 -0.000003855317856504229
          -0.000010809860028322509 -0.000016438149440535163 -0.00001642351478522812 -0.00002853395925243602 -0.000008731613190754786 -0.00001316211526424145
          -0.000023358529221365748 -0.000018929093565827823 -0.000023327934185864152 -0.000010538352124269887 -0.000012628155151950954 -0.000007377846245808922
          -0.0000054556949385803355 -0.000003848700141705769 -0.000004245619027174949 -0.000019183217181353504 -0.000007981511678821496 -0.00002136890539129223
          -1.00926671306803e-7 -0.00002114851269882992 -0.000008907797759645508 -0.000010122642854667606 -2.6070657065796737e-7 -0.000005198235237997145
          -0.000018633201524488607 -0.000002025150489995582 -0.000009503927229416627 -0.00002242380637192858 -0.00000913721961968636 -0.00000922249082093438
          -0.000019890258398022435 -0.000008040851004289563 -0.000007845343186981685 -0.000018822110448797613 -0.00002613457775422351 -0.000019732627162122318
          -0.000023453778989027466 -0.000017245517950377834 -0.000014419824434598605 -0.000037673407173216805 -0.00002715811766918104 -0.00004163052873189157
          -0.000057155315713363145 -0.000030282867560434048 -0.00003553159773798096 -0.00002357417477439781 -0.000003822180262934901 -0.000010641151929211001
          -4.062084542776794e-7 -0.00001611086909984402 -0.0000035318244270769034 -0.000010254699125547941 0.000002372452279955292 -0.000012595236348596087
          -0.000024015684540625146 -0.000016207366857159494 -0.000015706339296230043 -0.000008277641278565083 -0.00001519921714540802 -0.00001019122913046254
          -0.00003584564332675434 -0.000028411951530005718 -0.000030857516068756976 -0.000007475391150824247 -0.00002328630471523153 -0.000012353801321720887
          -0.000005655113187239799 -0.000007499131268245735 -0.000007543953343138745 -0.0000045584855772095375 -0.000002158067280733111 -0.0000017135277712035596
          -0.000005250601355202253 -0.000007968204282918613 -0.000007669070684857894 -0.000005841214149363417 -0.000013080528584776206 -0.00000551888700921991
          -0.000009535261366854235 -0.0000067566678606511285 -0.000009502630764014308 -0.00002818121670943583 -0.000015715859934235712 -0.000016574757214826317
          -0.000018571843840581824 1.604516227240527e-7 -0.000011070340058318487 -0.000009325222874246968 -1.9968850817624235e-7 -0.00000285808898821196
          -0.000013708290978128174 -0.000010025158232130835 -0.000007933830613643736 -0.00003400381352387598 -0.000016492154491903107 -0.000017165830056103254
          0.000013390220332054961 0.000007834950294027462 0.000019272130665843462 0.000010619485400943304 0.00001082465009653432 0.000005005023572129258
          -0.000002133904417753879 -0.000008863845321907537 -0.000004227314099158885 0.00000254279864623716 -0.00002350323337990852 -0.00002504656476294293
          -2.749513641001067e-7 -0.000015275029623527947 -0.00002410348254310371 -0.000012616490861106985 -0.00001615898564562377 -0.000018531661490636155
          -0.00003889237762379899 -0.00003485434358787166 -0.000058491244338116505 -0.00007372962530751218 -0.000046504393769297714 -0.00004911676745471619
          -0.000005355359838780591 -0.0000030261270682879066 -0.000011320722641101899 -0.0000062465569818925815 -0.000005401162750046443 -0.0000011408541913515008
          -0.000027857398040157313 -0.000056592471676737005 -0.000036278404396026045 -0.00001955947424930253 -0.000022163721842743088 -0.000020466899304519108
          -0.00002498437737245493 -0.0000164275035862034 -0.000029275583248375425 -0.000014029249074309176 -0.000016697446996025676 -0.00001483022029780557
          -0.000006132405960011106 -0.000017049899575516392 -0.000009848231057516671 -0.000005387901216662855 -0.0000202121012748864 -0.000015273872232445668
          -0.000019549373903714196 -0.000019959318350375524 -0.000018649084052082057 -0.000007992275306141342 -0.0000046920793487872405 -0.000019261716234096247
          -0.000010236049551352877 -0.000011917907541518676 -0.000007758281114950832 -0.0000028435496951841055 -0.000012373244064469574 -0.00001856523006766274
          -0.000008387762242091385 -0.000016278190088953905 -0.000007422318287791073 0.000006064356418599565 0.000015396797349326308 -0.000006914167286195538
          -0.000009618280167787707 -0.000010133412844812867 -0.000006170914099880645 -0.000014953445805021212 -0.000017329953366275637 -0.000009665132997559861
          -0.000014292830351172103 -0.000016708282000949546 -0.00001277972287556722 -0.000022160231898834572 -0.000006612341814250106 -0.00004020852943734457
          -0.00002213498793242688 -0.00002277203476061876 -0.000023634061592198163 -0.000023459715827834488 -0.00002016459751831047 -0.00003090290957463021
          -0.00003106940937888311 -0.000021590717333503512 -0.000017005951276266584 -0.000021842204002956236 -0.00001460792331575353 -0.00001980100754571737
          0.000006324925188943295 -0.00002539521727438522 -0.00002144027275870035 -0.000053348646138041446 -0.00003328876920393755 -0.000042477466804043736
          -0.00001005576944043858 -0.00001814512708926165 -0.000008930863520511048 -0.000006751291516018942 -0.00004621085064531426 -0.000014057043472057162
          -0.00005840679432430468 -0.000024479648503619722 -0.00003680993281558395 -1.5778854247326668e-7 -0.000006348237805373254 -2.0432882217799597e-7
          -0.000013260133753065229 -0.000004742961389121378 -0.000006214742684248348 -0.000051339222938172335 -0.00005463664501587778 -0.00003758403591966851
          -0.00003147217386865499 -0.0000425450546827303 -0.000024423798598198834 -0.00004154748409131853 -0.000032313964058033884 -0.000035438330668879914
          -0.0000034637710826165846 -0.00001722594744112127 -0.00003344667074620805 -0.00001964487537091386 -0.000007773928118858658 -0.000008882869469662921
          -0.000006630101953347331 -0.000005782826662730639 -0.00001068616653309741
        </DataArray>
        <DataArray type="Float64" Name="resid_z" format="ascii" RangeMin="0" RangeMax="0">
          0 0 0 0 0 0
          0 0 0 0 0 0
          0 0 0 0 0 0
          0 0 0 0 0 0
          0 0 0 0 0 0
          0 0 0 0 0 0
          0 0 0 0 0 0
          0 0 0 0 0 0
          0 0 0 0 0 0
          0 0 0 0 0 0
          0 0 0 0 0 0
          0 0 0 0 0 0
          0 0 0 0 0 0
          0 0 0 0 0 0
          0 0 0 0 0 0
          0 0 0 0 0 0
          0 0 0 0 0 0
          0 0 0 0 0 0
          0 0 0 0 0 0
          0 0 0 0 0 0
          0 0 0 0 0 0
          0 0 0 0 0 0
          0 0 0 0 0 0
          0 0 0 0 0 0
          0 0 0 0 0 0
          0 0 0 0 0 0
          0 0 0 0 0 0
          0 0 0 0 0 0
          0 0 0 0 0 0
          0 0 0 0 0 0
          0 0 0 0 0 0
          0 0 0 0 0 0
          0 0 0 0 0 0
          0 0 0 0 0 0
          0 0 0 0 0 0
          0 0 0 0 0 0
          0 0 0 0 0 0
          0 0 0 0 0 0
          0 0 0 0 0 0
          0 0 0 0 0 0
          0 0 0 0 0 0
          0 0 0 0 0 0
          0 0 0 0 0 0
          0 0 0 0 0 0
          0 0 0 0 0 0
          0 0 0 0 0 0
          0 0 0 0 0 0
          0 0 0 0 0 0
          0 0 0 0 0 0
          0 0 0 0 0 0
          0 0 0 0 0 0
          0 0 0 0 0 0
          0 0 0 0 0 0
          0 0 0 0 0 0
          0 0 0 0 0 0
          0 0 0 0 0 0
          0 0 0 0 0 0
          0 0 0 0 0 0
          0 0 0 0 0 0
          0 0 0 0 0 0
          0 0 0 0 0 0
          0 0 0 0 0 0
          0 0 0 0 0 0
          0 0 0 0 0 0
          0 0 0 0 0 0
          0 0 0 0 0 0
          0 0 0 0 0 0
          0 0 0 0 0 0
          0 0 0 0 0 0
          0 0 0 0 0 0
          0 0 0 0 0 0
          0 0 0 0 0 0
          0 0 0 0 0 0
          0 0 0 0 0 0
          0 0 0 0 0 0
          0 0 0 0 0 0
          0 0 0 0 0 0
          0 0 0 0 0 0
          0 0 0 0 0 0
          0 0 0 0 0 0
          0 0 0 0 0 0
          0 0 0 0 0 0
          0 0 0 0 0 0
          0 0 0 0 0 0
          0 0 0 0 0 0
          0 0 0 0 0 0
          0 0 0 0 0 0
          0 0 0 0 0 0
          0 0 0 0 0 0
          0 0 0 0 0 0
          0 0 0 0 0 0
          0 0 0 0 0 0
          0 0 0 0 0 0
          0 0 0 0 0 0
          0 0 0 0 0 0
          0 0 0 0 0 0
          0 0 0 0 0 0
          0 0 0 0 0 0
          0 0 0 0 0 0
          0 0 0 0 0 0
          0 0 0 0 0 0
          0 0 0 0 0 0
          0 0 0 0 0 0
          0 0 0 0 0 0
          0 0 0 0 0 0
          0 0 0 0 0 0
          0 0 0 0 0 0
          0 0 0 0 0 0
          0 0 0 0 0 0
          0 0 0 0 0 0
          0 0 0 0 0 0
          0 0 0 0 0 0
          0 0 0 0 0 0
          0 0 0 0 0 0
          0 0 0 0 0 0
          0 0 0 0 0 0
          0 0 0 0 0 0
          0 0 0 0 0 0
          0 0 0 0 0 0
          0 0 0 0 0 0
          0 0 0 0 0 0
          0 0 0 0 0 0
          0 0 0 0 0 0
          0 0 0 0 0 0
          0 0 0 0 0 0
          0 0 0 0 0 0
          0 0 0 0 0 0
          0 0 0 0 0 0
          0 0 0 0 0 0
          0 0 0 0 0 0
          0 0 0 0 0 0
          0 0 0 0 0 0
          0 0 0
        </DataArray>
        <DataArray type="Float64" Name="stress_zz" format="ascii" RangeMin="-14441.187211407485" RangeMax="5142.272460949228">
          -1228.7710801857108 2050.439596278862 3226.6023550615937 752.8164972412096 -1237.4057175046266 2101.985826631857
          3262.781621227817 704.4127934198549 -1246.0403548235422 2153.532056984851 3298.9608873940397 656.0090895985
          801.9047117333243 2239.852652648491 959.8941990777055 -1211.5773884775817 789.8173021748046 2230.324041475532
          955.2904964976215 -1249.3447925761275 777.7298926162852 2220.7954303025717 950.6867939175376 -1287.112196674673
          2254.2739460161874 2289.842122292511 2325.410298568834 3569.8787691296184 3544.517116172858 3519.1554632160987
          2324.15462293978 -86.33297097492843 2307.048409414937 -134.32016703056246 2289.942195890094 -182.3073630861965
          -1902.1520573661535 -933.1019814373276 -2624.7029348196174 -3935.655699427409 -1926.9597991802707 -913.0166597041864
          -2682.894576101321 -4111.031006328119 -1951.7675409943865 -892.9313379710454 -2741.0862173830237 -4286.406313228829
          80.92429546750532 442.3702100174751 1287.394453085595 1760.1153705997249 75.81323993118548 431.68103836695275
          1298.9740299749017 1909.0342722254127 70.70218439486564 420.9918667164303 1310.5536068642086 2057.9531738511005
          -1255.451489783599 -772.5488827574259 658.1918728624263 1002.746026226323 -1348.7290648195142 -792.6044537672317
          674.1453952448264 1004.5405725285426 -1442.006639855429 -812.6600247770377 690.0989176272269 1006.3351188307623
          4293.11602965319 4854.494872271825 100.98710892331633 4323.13250388196 4998.383666610527 93.19821619965921
          4353.148978110728 5142.272460949228 85.40932347600187 -917.3093453107037 -895.4234289655033 -600.0095197855728
          -336.8337213349418 -943.0364252341844 -961.0823102991839 -606.7626749569833 -294.1115466400399 -968.763505157665
          -1026.7411916328642 -613.515830128394 -251.38937194513792 -754.6158430218373 -729.4329399386752 -704.2500368555131
          3237.379153097481 4050.738634866242 3228.0282542996038 4074.7083891597426 3218.6773555017276 4098.678143453244
          -2286.9347340875875 -2874.0718879026035 694.4153489478331 -2319.2191046895487 -2965.708458521847 834.1548606255678
          -2351.5034752915103 -3057.345029141091 973.8943723033026 234.681029212802 -591.7015616945446 -389.4340131821574
          -777.4828758623225 217.70135433816193 -605.1838887484697 -377.608641900845 -790.5034355906912 200.72167946352187
          -618.6662158023951 -365.7832706195326 -803.5239953190597 20.451887435103572 470.1344348195577 -1449.1405912093041
          27.37340831722662 616.8380197050602 -1559.0347106657057 34.29492919934967 763.5416045905627 -1668.9288301221072
          1458.013520683947 -2057.3584783712067 195.20011870517538 1726.763158392537 -2090.896597329432 173.06219820005708
          1995.5127961011274 -2124.4347162876575 150.92427769493878 -282.0660613114147 -2350.8770908387723 -777.3995950107643
          16.258837609906806 -276.6323674847568 -2372.0796038620556 -754.8270154248714 18.772236510851357 -271.1986736580988
          -2393.2821168853397 -732.2544358389787 21.28563541179588 -530.9432158623695 -123.67097887701243 -527.7145727775742
          -106.48727483846675 -524.4859296927789 -89.30357079992118 -602.2330804334828 -1067.4690894890164 -2696.1963898694794
          -588.4255953464801 -1068.3029386912472 -2721.2460966892177 -574.6181102594776 -1069.136787893478 -2746.2958035089555
          -3335.012358317993 -1602.4416192001445 -2156.9509206717266 -3591.2390106793773 -3319.114334431243 -1618.7673570053917
          -2115.4741888882136 -3629.858836812324 -3303.216310544494 -1635.0930948106386 -2073.9974571047005 -3668.478662945271
          3140.4270303408834 2036.190181174729 3346.89643028142 2145.726656609255 3553.3658302219574 2255.2631320437795
          23.701844434887846 -3146.2863375280126 -23.969014492150034 -3257.884790916343 -71.639873419188 -3369.483244304672
          -3855.814732412896 -3920.5358383321773 -3807.0295984518643 -3861.717113457045 -3758.244464490833 -3802.898388581912
          -6694.2065961534445 -8223.028622378868 -2991.665455185474 -17.33700102131747 -6685.353109062793 -8174.504989303434
          -2999.900438023153 -54.70477554438418 -6676.499621972138 -8125.9813562280015 -3008.1354208608327 -92.07255006745072
          1388.4813966588397 -13.09694650482433 1380.8168845010352 -1.4564738726412187 1373.152372343231 10.183998759541907
          -941.9258707715915 -1201.0574173300793 -977.118411258863 -1212.0705749691997 -1012.3109517461344 -1223.08373260832
          -543.6769767855953 -688.2369265558664 -531.8269193895806 -679.963864323529 -519.9768619935656 -671.6908020911917
          -601.6428629804569 -645.9220759773375 -690.2012889742185 -1118.8566105934979 -1133.223982660788 -1147.5913547280775
          -629.433227116291 794.6569383784336 -268.5373721409969 -213.97410908333234 -647.0466336875517 770.9267047740611
          -306.7115300254502 -216.00273095479733 -664.6600402588119 747.1964711696884 -344.88568790990354 -218.03135282626226
          -1666.09376718935 -906.2697236033285 -413.75659794420574 -1669.4783186214015 -941.181377455315 -403.9846385476467
          -1672.862870053453 -976.0930313073012 -394.2126791510876 -387.6806623041707 -210.2465035285968 -446.7317850768756
          -257.9903485249645 -505.78290784958045 -305.73419352133214 -3183.82229612948 -3171.7792890943288 -3159.7362820591775
          1170.3016382687747 205.42392527429445 811.2632615724975 1037.295230277239 1194.8170359832263 230.24726311236117
          836.6321498853678 1066.1143990942373 1219.332433697678 255.07060095042834 862.0010381982379 1094.933567911236
          158.77994958038943 156.72962300110245 154.67929642181548 -1818.9006120679046 -1823.3500980645254 -1827.799584061146
          -2744.6585194478066 -2828.074527432949 -2911.4905354180914 979.1702897161988 2715.7110828424775 1047.0213753051485
          2977.6043629981746 1114.8724608940988 3239.4976431538726 -2857.45474744447 -4054.5781546074986 -2915.3637696142305
          -4103.029677675189 -2973.272791783992 -4151.48120074288 559.7338935290156 -49.04443680287373 542.1401526037232
          -65.3356069277662 524.5464116784307 -81.62677705265868 2090.907210593448 2765.186725716327 2077.610320874301
          2767.074921858897 2064.3134311551544 2768.9631180014676 515.9829235769378 538.6303039581488 561.2776843393599
          1809.6925113380423 3658.478617278675 1804.941660563743 3722.0293275003232 1800.1908097894438 3785.580037721972
          1266.9972539875585 3291.252215295724 1267.739718050293 3323.6562945507153 1268.482182113027 3356.060373805706
          -261.9820064206865 -288.32356147527247 -314.6651165298584 312.0734506636244 305.28669637842404 298.4999420932236
          1299.1185942621955 2491.4641698560795 1314.588941879486 2477.0293492374176 1330.0592894967758 2462.5945286187552
          149.0645018371055 147.70185401285687 146.3392061886082 -1568.1105654971711 -1553.0261448735323 -1537.941724249893
          578.3474100473017 1702.9372290164354 594.5998593927054 1684.0806570048949 610.8523087381092 1665.2240849933544
          398.26291939172233 -592.1834705770748 430.7929020145493 -595.657232789389 463.3228846373763 -599.1309950017032
          -2268.677490731132 15.323764977947633 -624.7026382384594 -2298.384832031627 4.80482471211559 -714.8052127077312
          -2328.092173332123 -5.7141155537163435 -804.9077871770033 -996.7952313575568 1052.1193612791142 473.9669654871607
          -1255.0072817360012 -1019.9144047790064 1060.8846629512395 438.7467105818745 -1278.9625881204988 -1043.033578200456
          1069.649964623365 403.52645567658817 -1302.9178945049966 66.70017450632531 81.94843269037041 1558.0430095164065
          1739.8245294107587 36.91848574807864 99.8867142514573 1615.1289443873777 1755.4389283776793 7.136796989832192
          117.82499581254396 1672.214879258349 1771.0533273445997 111.80059353762266 123.86788288679554 135.93517223596842
          -834.0526634516789 -146.9528527282696 -829.1903622435697 -139.95986852230146 -824.3280610354605 -132.96688431633333
          111.96694503437593 -3783.3591602328693 82.46163207481075 -3973.729002984756 52.95631911524565 -4164.098845736644
          -1879.1175177271753 -1945.564270934026 -1888.8662351425219 -1989.7958768350134 -1898.614952557868 -2034.0274827360008
          1210.9525888471733 -936.486555633579 1226.1929474475965 -975.7694418315432 1241.4333060480194 -1015.0523280295076
          3135.4626968056646 2825.3886660432704 3150.00599273023 2811.047865360183 3164.5492886547954 2796.7070646770962
          272.02809890519035 309.6942911349289 347.3604833646674 -285.4902525725606 -280.58478833828417 -275.6793241040078
          -915.6277984236389 -1150.3018415465738 643.7001835852443 -377.9679846400457 -911.3893720141748 -1239.0046598659192
          665.5640973144825 -360.2477697854722 -907.1509456047104 -1327.7074781852646 687.4280110437209 -342.52755493089865
          134.34329847688485 344.3301319059857 163.23059931431337 309.41218210450495 192.11790015174185 274.4942323030243
          5014.4851737507615 606.633104304429 625.5013079740304 3174.2094216819046 5074.8101093301375 605.3223339662242
          632.5725235614578 3178.865156848372 5135.135044909513 604.0115636280194 639.643739148886 3183.52089201484
          1119.3761766270234 2360.207392201398 4285.037160959872 1130.4782028728305 2347.53927620033 4285.768046433369
          1141.5802291186376 2334.871160199262 4286.498931906866 218.3779741221907 214.19756723494956 210.0171603477085
          -1013.4696670111771 293.8695699120705 -982.6155639604747 277.6345179162483 -951.7614609097724 261.399465920426
          -43.70022403651328 183.42209836451747 -46.557286242197826 241.6965628756816 -49.414348447882276 299.9710273868458
          -1394.0889286098259 -1405.025536543213 -1415.9621444766003 721.0104692604775 732.7726591018476 744.5348489432179
          2796.982753218131 3601.2204999245732 2911.585863799405 3690.40410031947 3026.1889743806796 3779.5877007143667
          798.0728032483755 2522.741307839202 770.9320750021175 2523.2857378476747 743.7913467558592 2523.8301678561465
          2103.976715152043 1877.6296028015295 2138.227695217889 1914.9088118568602 2172.4786752837344 1952.188020912191
          1826.33924016809 -358.25714016875895 830.2086593990255 1878.9890832780297 -373.93882413446295 848.5630311903884
          1931.6389263879696 -389.62050810016706 866.9174029817513 -290.1146563400192 -327.30148502172585 -260.37216622139806
          -269.16319958268514 -230.62967610277695 -211.0249141436446 -2976.445046351121 -3850.696179066359 -3071.7032313745417
          -3962.0772486834153 -3166.9614163979622 -4073.4583183004725 -517.8553347117562 -86.56895132477183 -558.3484612060591
          -100.349665133976 -598.8415877003622 -114.13037894318016 -1559.5525748619543 -1535.8529500531452 -1512.153325244336
          -1785.1736893250413 295.9124424627878 2166.225407844886 965.841590797938 -1852.9935552250506 238.31959792074912
          2297.5897204631465 996.4899609417154 -1920.81342112506 180.72675337871044 2428.954033081407 1027.1383310854928
          2284.256680252618 -92.73192857830213 2392.17062523311 -237.4172297867285 2500.084570213602 -382.1025309951548
          -5573.350981896154 -5620.556465501745 -5667.761949107337 1798.6199447228225 1808.8767527749458 1819.133560827069
          -2210.071394586803 -2254.156219180803 -2298.241043774802 -549.2259532251308 -590.9750311033965 -632.7241089816623
          -1431.7183302650146 -1419.1152657807822 -1406.5122012965505 -2231.894364114901 -1663.9269000935005 -2249.653026396236
          -1692.417959677689 -2267.4116886775714 -1720.909019261877 -2423.7843763541887 -2418.0492068930002 -2412.3140374318123
          -1940.1414499928546 -1909.450546821195 -1878.7596436495355 3951.708294167523 3975.4454441006314 3999.18259403374
          4102.705709923661 4206.686879147001 4310.66804837034 -180.31759400076157 635.5743236947062 -145.82449295409342
          642.5667632100791 -111.33139190742523 649.5592027254518 2656.2643971511134 2613.7768152122385 2571.2892332733636
          2328.21983632082 2365.6187389775164 2403.0176416342124 -3233.772126225644 -3216.3910308279515 -3199.0099354302583
          2262.5540622177355 2346.473704618867 2430.393347019998 -1293.0408883754828 -1256.601090355018 -1220.161292334553
          -2187.654024197296 -2163.6292623540553 -2139.6045005108144 -36.28358471121123 2311.0364262462003 -144.3089353770647
          2415.9415858242473 -252.33428604291805 2520.846745402294 1341.9538347311282 4824.102743930011 1335.760283360788
          4851.394303614452 1329.5667319904476 4878.685863298893 -995.2158324533568 -956.839893474634 -918.4639544959111
          2252.4492356641213 2286.8935839820106 2321.3379322998994 -1865.8054584142753 -1889.8059186443138 -1913.806378874352
          -752.8493078133431 -463.2523045526227 -822.1155674296078 -585.0694472269438 -891.3818270458725 -706.8865899012648
          640.1757618400385 2331.8573737188335 3180.2430416886036 507.0613976383112 2282.4372541232783 3120.6826346802377
          373.9470334365839 2233.0171345277226 3061.122227671872 2618.484610592159 -384.2975814743598 2625.5451313018243
          -484.4536068237506 2632.6056520114894 -584.6096321731414 520.6899785528246 531.5013670324249 542.3127555120257
          3192.224695860804 3269.4757271138747 3346.7267583669454 3410.0323412858907 3386.8767604628397 3363.7211796397896
          -175.88672797269652 -141.50601473569714 -107.12530149869781 -3684.490498254764 -3660.4422655311982 -3636.394032807633
          1097.844649718952 395.6830686734869 1166.7721326151986 401.66016449706194 1235.699615511445 407.6372603206371
          144.32301643179426 143.66137148909675 142.99972654639924 -694.8350585981468 -489.31997836306505 -1092.394782114356
          -685.8982592218928 -465.5212837568051 -1133.9921617984585 -676.9614598456387 -441.7225891505451 -1175.5895414825611
          3652.824453637836 1628.2670578524871 3774.0841759268114 1559.1931646394355 3895.343898215787 1490.1192714263836
          -255.29086655182533 -2162.6368688373745 -225.285625551473 -2250.0099564985157 -195.28038455112096 -2337.383044159656
          -2675.3121894651067 -2733.9496415154913 -2792.587093565876 2221.1334628052978 -1905.4362018716251 -1826.8453735025837
          2266.700867836624 -1904.9742408057418 -1813.8380099652898 2312.268272867951 -1904.5122797398585 -1800.8306464279958
          -1498.2083056346355 -1531.575792830729 -1564.9432800268214 265.9245294641968 358.3591841952801 297.2291135595947
          308.32945913614947 328.5336976549926 258.2997340770188 1591.650766966584 -884.5179857638009 1666.3592285581883
          -901.0161548302635 1741.0676901497927 -917.514323896726 -920.7619255578724 -917.6264003879548 -914.4908752180374
          -3606.7500196783744 -3638.0720035014456 -3669.3939873245167 -4008.2904842035505 -3966.1224583166922 -3923.9544324298327
          -1187.6303894876437 -1181.6377874938278 -1175.6451855000118 -938.4935820345145 -947.7489340092887 -957.004285984063
          4522.6039628030685 4701.955159425979 4881.30635604889 129.35848684612716 -388.8157551280119 128.58009801749859
          -394.98135998676446 127.80170918886992 -401.146964845517 -12705.710071429135 -14276.764674931075 -12765.416318176076
          -14358.97594316928 -12825.122564923015 -14441.187211407485 -11473.89906736288 -11632.461255048684 -11791.02344273449
          2149.0878868718746 -660.0107890615959 2351.9863438817592 -680.8900682788242 2554.884800891644 -701.7693474960524
          -1238.083360840419 -1190.953943082926 -1143.824525325433 -3965.400524701716 315.16651550559254 -4088.00865601686
          274.1552216996747 -4210.616787332005 233.14392789375734 -1014.9095047295817 -2187.841782343491 -1002.0489268283864
          -2208.5885582863925 -989.1883489271909 -2229.3353342292944 -642.8054651561739 -668.7578024484479 -694.7101397407216
          -1741.7978678965728 -1829.8290190743708 -1917.8601702521682 -3766.1397862479926 -3720.1775764348367 -3674.215366621681
          342.3395779079092 383.42720079025366 424.51482367259814 873.4675318589684 857.081298805545 840.6950657521218
          595.7876185480715 636.41693046521 677.0462423823485
        </DataArray>
        <DataArray type="Float64" Name="peeq" format="ascii" RangeMin="0" RangeMax="0">
          0 0 0 0 0 0
          0 0 0 0 0 0
          0 0 0 0 0 0
          0 0 0 0 0 0
          0 0 0 0 0 0
          0 0 0 0 0 0
          0 0 0 0 0 0
          0 0 0 0 0 0
          0 0 0 0 0 0
          0 0 0 0 0 0
          0 0 0 0 0 0
          0 0 0 0 0 0
          0 0 0 0 0 0
          0 0 0 0 0 0
          0 0 0 0 0 0
          0 0 0 0 0 0
          0 0 0 0 0 0
          0 0 0 0 0 0
          0 0 0 0 0 0
          0 0 0 0 0 0
          0 0 0 0 0 0
          0 0 0 0 0 0
          0 0 0 0 0 0
          0 0 0 0 0 0
          0 0 0 0 0 0
          0 0 0 0 0 0
          0 0 0 0 0 0
          0 0 0 0 0 0
          0 0 0 0 0 0
          0 0 0 0 0 0
          0 0 0 0 0 0
          0 0 0 0 0 0
          0 0 0 0 0 0
          0 0 0 0 0 0
          0 0 0 0 0 0
          0 0 0 0 0 0
          0 0 0 0 0 0
          0 0 0 0 0 0
          0 0 0 0 0 0
          0 0 0 0 0 0
          0 0 0 0 0 0
          0 0 0 0 0 0
          0 0 0 0 0 0
          0 0 0 0 0 0
          0 0 0 0 0 0
          0 0 0 0 0 0
          0 0 0 0 0 0
          0 0 0 0 0 0
          0 0 0 0 0 0
          0 0 0 0 0 0
          0 0 0 0 0 0
          0 0 0 0 0 0
          0 0 0 0 0 0
          0 0 0 0 0 0
          0 0 0 0 0 0
          0 0 0 0 0 0
          0 0 0 0 0 0
          0 0 0 0 0 0
          0 0 0 0 0 0
          0 0 0 0 0 0
          0 0 0 0 0 0
          0 0 0 0 0 0
          0 0 0 0 0 0
          0 0 0 0 0 0
          0 0 0 0 0 0
          0 0 0 0 0 0
          0 0 0 0 0 0
          0 0 0 0 0 0
          0 0 0 0 0 0
          0 0 0 0 0 0
          0 0 0 0 0 0
          0 0 0 0 0 0
          0 0 0 0 0 0
          0 0 0 0 0 0
          0 0 0 0 0 0
          0 0 0 0 0 0
          0 0 0 0 0 0
          0 0 0 0 0 0
          0 0 0 0 0 0
          0 0 0 0 0 0
          0 0 0 0 0 0
          0 0 0 0 0 0
          0 0 0 0 0 0
          0 0 0 0 0 0
          0 0 0 0 0 0
          0 0 0 0 0 0
          0 0 0 0 0 0
          0 0 0 0 0 0
          0 0 0 0 0 0
          0 0 0 0 0 0
          0 0 0 0 0 0
          0 0 0 0 0 0
          0 0 0 0 0 0
          0 0 0 0 0 0
          0 0 0 0 0 0
          0 0 0 0 0 0
          0 0 0 0 0 0
          0 0 0 0 0 0
          0 0 0 0 0 0
          0 0 0 0 0 0
          0 0 0 0 0 0
          0 0 0 0 0 0
          0 0 0 0 0 0
          0 0 0 0 0 0
          0 0 0 0 0 0
          0 0 0 0 0 0
          0 0 0 0 0 0
          0 0 0 0 0 0
          0 0 0 0 0 0
          0 0 0 0 0 0
          0 0 0 0 0 0
          0 0 0 0 0 0
          0 0 0 0 0 0
          0 0 0 0 0 0
          0 0 0 0 0 0
          0 0 0 0 0 0
          0 0 0 0 0 0
          0 0 0 0 0 0
          0 0 0 0 0 0
          0 0 0 0 0 0
          0 0 0 0 0 0
          0 0 0 0 0 0
          0 0 0 0 0 0
          0 0 0 0 0 0
          0 0 0 0 0 0
          0 0 0 0 0 0
          0 0 0 0 0 0
          0 0 0 0 0 0
          0 0 0 0 0 0
          0 0 0 0 0 0
          0 0 0 0 0 0
          0 0 0 0 0 0
          0 0 0
        </DataArray>
        <DataArray type="Float64" Name="pe11" format="ascii" RangeMin="0" RangeMax="0">
          0 0 0 0 0 0
          0 0 0 0 0 0
          0 0 0 0 0 0
          0 0 0 0 0 0
          0 0 0 0 0 0
          0 0 0 0 0 0
          0 0 0 0 0 0
          0 0 0 0 0 0
          0 0 0 0 0 0
          0 0 0 0 0 0
          0 0 0 0 0 0
          0 0 0 0 0 0
          0 0 0 0 0 0
          0 0 0 0 0 0
          0 0 0 0 0 0
          0 0 0 0 0 0
          0 0 0 0 0 0
          0 0 0 0 0 0
          0 0 0 0 0 0
          0 0 0 0 0 0
          0 0 0 0 0 0
          0 0 0 0 0 0
          0 0 0 0 0 0
          0 0 0 0 0 0
          0 0 0 0 0 0
          0 0 0 0 0 0
          0 0 0 0 0 0
          0 0 0 0 0 0
          0 0 0 0 0 0
          0 0 0 0 0 0
          0 0 0 0 0 0
          0 0 0 0 0 0
          0 0 0 0 0 0
          0 0 0 0 0 0
          0 0 0 0 0 0
          0 0 0 0 0 0
          0 0 0 0 0 0
          0 0 0 0 0 0
          0 0 0 0 0 0
          0 0 0 0 0 0
          0 0 0 0 0 0
          0 0 0 0 0 0
          0 0 0 0 0 0
          0 0 0 0 0 0
          0 0 0 0 0 0
          0 0 0 0 0 0
          0 0 0 0 0 0
          0 0 0 0 0 0
          0 0 0 0 0 0
          0 0 0 0 0 0
          0 0 0 0 0 0
          0 0 0 0 0 0
          0 0 0 0 0 0
          0 0 0 0 0 0
          0 0 0 0 0 0
          0 0 0 0 0 0
          0 0 0 0 0 0
          0 0 0 0 0 0
          0 0 0 0 0 0
          0 0 0 0 0 0
          0 0 0 0 0 0
          0 0 0 0 0 0
          0 0 0 0 0 0
          0 0 0 0 0 0
          0 0 0 0 0 0
          0 0 0 0 0 0
          0 0 0 0 0 0
          0 0 0 0 0 0
          0 0 0 0 0 0
          0 0 0 0 0 0
          0 0 0 0 0 0
          0 0 0 0 0 0
          0 0 0 0 0 0
          0 0 0 0 0 0
          0 0 0 0 0 0
          0 0 0 0 0 0
          0 0 0 0 0 0
          0 0 0 0 0 0
          0 0 0 0 0 0
          0 0 0 0 0 0
          0 0 0 0 0 0
          0 0 0 0 0 0
          0 0 0 0 0 0
          0 0 0 0 0 0
          0 0 0 0 0 0
          0 0 0 0 0 0
          0 0 0 0 0 0
          0 0 0 0 0 0
          0 0 0 0 0 0
          0 0 0 0 0 0
          0 0 0 0 0 0
          0 0 0 0 0 0
          0 0 0 0 0 0
          0 0 0 0 0 0
          0 0 0 0 0 0
          0 0 0 0 0 0
          0 0 0 0 0 0
          0 0 0 0 0 0
          0 0 0 0 0 0
          0 0 0 0 0 0
          0 0 0 0 0 0
          0 0 0 0 0 0
          0 0 0 0 0 0
          0 0 0 0 0 0
          0 0 0 0 0 0
          0 0 0 0 0 0
          0 0 0 0 0 0
          0 0 0 0 0 0
          0 0 0 0 0 0
          0 0 0 0 0 0
          0 0 0 0 0 0
          0 0 0 0 0 0
          0 0 0 0 0 0
          0 0 0 0 0 0
          0 0 0 0 0 0
          0 0 0 0 0 0
          0 0 0 0 0 0
          0 0 0 0 0 0
          0 0 0 0 0 0
          0 0 0 0 0 0
          0 0 0 0 0 0
          0 0 0 0 0 0
          0 0 0 0 0 0
          0 0 0 0 0 0
          0 0 0 0 0 0
          0 0 0 0 0 0
          0 0 0 0 0 0
          0 0 0 0 0 0
          0 0 0 0 0 0
          0 0 0 0 0 0
          0 0 0 0 0 0
          0 0 0 0 0 0
          0 0 0
        </DataArray>
        <DataArray type="Float64" Name="pe22" format="ascii" RangeMin="0" RangeMax="0">
          0 0 0 0 0 0
          0 0 0 0 0 0
          0 0 0 0 0 0
          0 0 0 0 0 0
          0 0 0 0 0 0
          0 0 0 0 0 0
          0 0 0 0 0 0
          0 0 0 0 0 0
          0 0 0 0 0 0
          0 0 0 0 0 0
          0 0 0 0 0 0
          0 0 0 0 0 0
          0 0 0 0 0 0
          0 0 0 0 0 0
          0 0 0 0 0 0
          0 0 0 0 0 0
          0 0 0 0 0 0
          0 0 0 0 0 0
          0 0 0 0 0 0
          0 0 0 0 0 0
          0 0 0 0 0 0
          0 0 0 0 0 0
          0 0 0 0 0 0
          0 0 0 0 0 0
          0 0 0 0 0 0
          0 0 0 0 0 0
          0 0 0 0 0 0
          0 0 0 0 0 0
          0 0 0 0 0 0
          0 0 0 0 0 0
          0 0 0 0 0 0
          0 0 0 0 0 0
          0 0 0 0 0 0
          0 0 0 0 0 0
          0 0 0 0 0 0
          0 0 0 0 0 0
          0 0 0 0 0 0
          0 0 0 0 0 0
          0 0 0 0 0 0
          0 0 0 0 0 0
          0 0 0 0 0 0
          0 0 0 0 0 0
          0 0 0 0 0 0
          0 0 0 0 0 0
          0 0 0 0 0 0
          0 0 0 0 0 0
          0 0 0 0 0 0
          0 0 0 0 0 0
          0 0 0 0 0 0
          0 0 0 0 0 0
          0 0 0 0 0 0
          0 0 0 0 0 0
          0 0 0 0 0 0
          0 0 0 0 0 0
          0 0 0 0 0 0
          0 0 0 0 0 0
          0 0 0 0 0 0
          0 0 0 0 0 0
          0 0 0 0 0 0
          0 0 0 0 0 0
          0 0 0 0 0 0
          0 0 0 0 0 0
          0 0 0 0 0 0
          0 0 0 0 0 0
          0 0 0 0 0 0
          0 0 0 0 0 0
          0 0 0 0 0 0
          0 0 0 0 0 0
          0 0 0 0 0 0
          0 0 0 0 0 0
          0 0 0 0 0 0
          0 0 0 0 0 0
          0 0 0 0 0 0
          0 0 0 0 0 0
          0 0 0 0 0 0
          0 0 0 0 0 0
          0 0 0 0 0 0
          0 0 0 0 0 0
          0 0 0 0 0 0
          0 0 0 0 0 0
          0 0 0 0 0 0
          0 0 0 0 0 0
          0 0 0 0 0 0
          0 0 0 0 0 0
          0 0 0 0 0 0
          0 0 0 0 0 0
          0 0 0 0 0 0
          0 0 0 0 0 0
          0 0 0 0 0 0
          0 0 0 0 0 0
          0 0 0 0 0 0
          0 0 0 0 0 0
          0 0 0 0 0 0
          0 0 0 0 0 0
          0 0 0 0 0 0
          0 0 0 0 0 0
          0 0 0 0 0 0
          0 0 0 0 0 0
          0 0 0 0 0 0
          0 0 0 0 0 0
          0 0 0 0 0 0
          0 0 0 0 0 0
          0 0 0 0 0 0
          0 0 0 0 0 0
          0 0 0 0 0 0
          0 0 0 0 0 0
          0 0 0 0 0 0
          0 0 0 0 0 0
          0 0 0 0 0 0
          0 0 0 0 0 0
          0 0 0 0 0 0
          0 0 0 0 0 0
          0 0 0 0 0 0
          0 0 0 0 0 0
          0 0 0 0 0 0
          0 0 0 0 0 0
          0 0 0 0 0 0
          0 0 0 0 0 0
          0 0 0 0 0 0
          0 0 0 0 0 0
          0 0 0 0 0 0
          0 0 0 0 0 0
          0 0 0 0 0 0
          0 0 0 0 0 0
          0 0 0 0 0 0
          0 0 0 0 0 0
          0 0 0 0 0 0
          0 0 0 0 0 0
          0 0 0 0 0 0
          0 0 0 0 0 0
          0 0 0 0 0 0
          0 0 0 0 0 0
          0 0 0
        </DataArray>
        <DataArray type="Float64" Name="pe33" format="ascii" RangeMin="0" RangeMax="0">
          0 0 0 0 0 0
          0 0 0 0 0 0
          0 0 0 0 0 0
          0 0 0 0 0 0
          0 0 0 0 0 0
          0 0 0 0 0 0
          0 0 0 0 0 0
          0 0 0 0 0 0
          0 0 0 0 0 0
          0 0 0 0 0 0
          0 0 0 0 0 0
          0 0 0 0 0 0
          0 0 0 0 0 0
          0 0 0 0 0 0
          0 0 0 0 0 0
          0 0 0 0 0 0
          0 0 0 0 0 0
          0 0 0 0 0 0
          0 0 0 0 0 0
          0 0 0 0 0 0
          0 0 0 0 0 0
          0 0 0 0 0 0
          0 0 0 0 0 0
          0 0 0 0 0 0
          0 0 0 0 0 0
          0 0 0 0 0 0
          0 0 0 0 0 0
          0 0 0 0 0 0
          0 0 0 0 0 0
          0 0 0 0 0 0
          0 0 0 0 0 0
          0 0 0 0 0 0
          0 0 0 0 0 0
          0 0 0 0 0 0
          0 0 0 0 0 0
          0 0 0 0 0 0
          0 0 0 0 0 0
          0 0 0 0 0 0
          0 0 0 0 0 0
          0 0 0 0 0 0
          0 0 0 0 0 0
          0 0 0 0 0 0
          0 0 0 0 0 0
          0 0 0 0 0 0
          0 0 0 0 0 0
          0 0 0 0 0 0
          0 0 0 0 0 0
          0 0 0 0 0 0
          0 0 0 0 0 0
          0 0 0 0 0 0
          0 0 0 0 0 0
          0 0 0 0 0 0
          0 0 0 0 0 0
          0 0 0 0 0 0
          0 0 0 0 0 0
          0 0 0 0 0 0
          0 0 0 0 0 0
          0 0 0 0 0 0
          0 0 0 0 0 0
          0 0 0 0 0 0
          0 0 0 0 0 0
          0 0 0 0 0 0
          0 0 0 0 0 0
          0 0 0 0 0 0
          0 0 0 0 0 0
          0 0 0 0 0 0
          0 0 0 0 0 0
          0 0 0 0 0 0
          0 0 0 0 0 0
          0 0 0 0 0 0
          0 0 0 0 0 0
          0 0 0 0 0 0
          0 0 0 0 0 0
          0 0 0 0 0 0
          0 0 0 0 0 0
          0 0 0 0 0 0
          0 0 0 0 0 0
          0 0 0 0 0 0
          0 0 0 0 0 0
          0 0 0 0 0 0
          0 0 0 0 0 0
          0 0 0 0 0 0
          0 0 0 0 0 0
          0 0 0 0 0 0
          0 0 0 0 0 0
          0 0 0 0 0 0
          0 0 0 0 0 0
          0 0 0 0 0 0
          0 0 0 0 0 0
          0 0 0 0 0 0
          0 0 0 0 0 0
          0 0 0 0 0 0
          0 0 0 0 0 0
          0 0 0 0 0 0
          0 0 0 0 0 0
          0 0 0 0 0 0
          0 0 0 0 0 0
          0 0 0 0 0 0
          0 0 0 0 0 0
          0 0 0 0 0 0
          0 0 0 0 0 0
          0 0 0 0 0 0
          0 0 0 0 0 0
          0 0 0 0 0 0
          0 0 0 0 0 0
          0 0 0 0 0 0
          0 0 0 0 0 0
          0 0 0 0 0 0
          0 0 0 0 0 0
          0 0 0 0 0 0
          0 0 0 0 0 0
          0 0 0 0 0 0
          0 0 0 0 0 0
          0 0 0 0 0 0
          0 0 0 0 0 0
          0 0 0 0 0 0
          0 0 0 0 0 0
          0 0 0 0 0 0
          0 0 0 0 0 0
          0 0 0 0 0 0
          0 0 0 0 0 0
          0 0 0 0 0 0
          0 0 0 0 0 0
          0 0 0 0 0 0
          0 0 0 0 0 0
          0 0 0 0 0 0
          0 0 0 0 0 0
          0 0 0 0 0 0
          0 0 0 0 0 0
          0 0 0 0 0 0
          0 0 0 0 0 0
          0 0 0 0 0 0
          0 0 0
        </DataArray>
        <DataArray type="Float64" Name="disp_x" format="ascii" RangeMin="0.000005921632632489631" RangeMax="0.000011629912150579918">
          0.000009647838568530108 0.000009537881126350558 0.000009816704570296246 0.000009995412837592559 0.00000964784117223034 0.00000953788375679166
          0.000009816707837098963 0.00000999541608436976 0.000009647849364737825 0.000009537890843945072 0.000009816717833083438 0.00000999542557598655
          0.000006582491941838733 0.000006292307962881119 0.000006259899550342932 0.000006550591781967307 0.000006582493933115742 0.000006292310024132938
          0.0000062599014063359496 0.000006550593608074739 0.000006582499991976221 0.000006292315920717494 0.00000625990669480071 0.000006550599304265155
          0.000005981681295983208 0.000005981682825285447 0.0000059816879359051045 0.000006026563242911743 0.000006026565039688581 0.000006026570768265125
          0.000010104154678117208 0.000010290066089559155 0.000010104158387171971 0.000010290069769234174 0.000010104169469757628 0.000010290081332635633
          0.000009121963430124974 0.000009016155179563697 0.00000930559016307392 0.000009327265748822083 0.00000912196638990266 0.00000901615818814029
          0.0000093055933077103 0.000009327268888652345 0.000009121975480271603 0.000009016166992445101 0.000009305602838617897 0.000009327278388842088
          0.00000832105534410542 0.000008283223027760424 0.000008531261291348687 0.000008592683480565259 0.000008321057111562023 0.000008283224907214255
          0.000008531263142254014 0.000008592685361454394 0.000008321061817217859 0.000008283230704102356 0.000008531267701104653 0.00000859268998203754
          0.00000746863280929497 0.000007741714289856759 0.000007759722649674724 0.000007468095565506432 0.000007468634671965498 0.000007741715977498454
          0.000007759724155365775 0.000007468097260972846 0.000007468640300800467 0.000007741720192861449 0.000007759728462277765 0.000007468102023237157
          0.00000884153082440675 0.00000874508497723778 0.000009177613951768558 0.000008841533322538698 0.000008745087233534739 0.00000917761703062326
          0.000008841540698632676 0.000008745094484982376 0.000009177626393513077 0.000007559677769121763 0.000007820853138729812 0.000007919849053598885
          0.0000075747634032980025 0.000007559679601196598 0.000007820855131283371 0.000007919851152693873 0.000007574765416641884 0.000007559685234706398
          0.000007820860875195238 0.00000791985724890238 0.000007574771338597764 0.000007241421537374655 0.000007241423151660638 0.000007241427959854252
          0.000009650989578917466 0.000009919519960442132 0.000009650992416277875 0.00000991952326300735 0.000009651001154497325 0.000009919532713220252
          0.000009190358863221867 0.00000926748595521615 0.000009499754952020934 0.000009190360708911062 0.00000926748821888938 0.00000949975710054411
          0.000009190364669711956 0.000009267495005125154 0.000009499763728535246 0.000009232537934259405 0.000008995340323645527 0.00000876248208999956
          0.000009021267124371807 0.000009232540675362731 0.000008995342946128016 0.000008762484739952127 0.00000902126989672453 0.000009232548524684334
          0.00000899535071579472 0.000008762492591470259 0.00000902127793735076 0.000008752610198703474 0.00000875979569483642 0.000008494762276085452
          0.000008752612286118134 0.000008759797745462567 0.000008494764154680066 0.000008752617783811526 0.000008759803832011262 0.000008494769651579103
          0.00000875673368660206 0.000008923340273443388 0.000008718008012988582 0.000008756735449490405 0.000008923342190889796 0.000008718009656411306
          0.000008756742821451179 0.000008923349461343837 0.00000871801481873127 0.000008741570639729854 0.000008417536958770351 0.000008241394334268463
          0.00000848612709566264 0.000008741572802625266 0.000008417538994466602 0.00000824139660656413 0.000008486129359460655 0.000008741579515038685
          0.000008417544970796313 0.000008241403231424541 0.000008486136210515203 0.000007872328689918989 0.000007585816107035263 0.000007872330882264467
          0.000007585818173530832 0.000007872337647451438 0.000007585824160151167 0.000009278137879529183 0.000009597270262411014 0.00000959599288542415
          0.000009278140855745202 0.000009597273531077262 0.000009595995998194558 0.000009278149584480692 0.000009597283318348396 0.0000095960053876174
          0.000009828095274401619 0.000009662595036385269 0.000009402386942352983 0.000009532188215318356 0.000009828098732019295 0.000009662598257568326
          0.000009402390075931483 0.000009532191289899815 0.000009828109420223094 0.000009662607804584739 0.000009402399542411894 0.000009532199860093318
          0.000011079642119537516 0.00001074612705943189 0.00001107964630305828 0.000010746130885186958 0.000011079658746483557 0.000010746142018405284
          0.000009853945572632164 0.000009904951845014949 0.000009853947951927443 0.000009904954318290157 0.000009853955478347337 0.000009904962100815256
          0.00000616468677273526 0.000006278510176247896 0.000006164689269829039 0.000006278512410939709 0.000006164696259517096 0.00000627851982932473
          0.000010684820622845326 0.000010833129675590278 0.000010575090953832764 0.000010389814742260515 0.00001068482543723665 0.00001083313450352427
          0.000010575095081518737 0.000010389819022476599 0.00001068483912375422 0.000010833148763426888 0.000010575107406222704 0.000010389832833365096
          0.000008876193830886945 0.000009210219503658375 0.0000088761963701934 0.000009210222377330268 0.000008876203911396651 0.000009210230726049103
          0.000007966568705250098 0.00000772505008794363 0.000007966570572328039 0.000007725051847765227 0.00000796657597462814 0.000007725057346702155
          0.0000081337673841562 0.000007844471574809351 0.000008133769310496388 0.000007844473459476336 0.000008133775213868282 0.000007844479198151532
          0.000010503714929473872 0.000010503718445101108 0.000010503729820663582 0.00001026154427269648 0.000010261547906420713 0.000010261558274903962
          0.00000954224727326286 0.00000988105694914403 0.00000991298627744721 0.000009573922053917035 0.000009542250163107573 0.000009881060037290522
          0.000009912989549038113 0.00000957392512740426 0.000009542259280255306 0.000009881069041861977 0.000009912999860508297 0.000009573934260449498
          0.000009069124186378727 0.000008867757198681399 0.000008779553852077125 0.000009069126953380025 0.000008867759819932993 0.000008779556559947638
          0.000009069134707065446 0.000008867767989327967 0.000008779564820043275 0.000008143707097271636 0.000008150586151327423 0.000008143709090192257
          0.000008150588287409895 0.000008143715581307105 0.000008150594814649078 0.000009915641056555815 0.000009915644499507763 0.000009915655225363347
          0.000006897966714401212 0.000006923630990697095 0.000007206369315755071 0.000007187025707944903 0.0000068979685193034315 0.000006923632685109787
          0.000007206371264271887 0.000007187027304030636 0.000006897973651732653 0.000006923636958377112 0.00000720637768618849 0.0000071870323608219155
          0.000009244150836752143 0.00000924415348727765 0.000009244161801029748 0.000009934928746699267 0.000009934932033795864 0.000009934942092665803
          0.000009530605199779885 0.00000953060790405261 0.000009530616499631924 0.000010214634030599926 0.000010497590900350592 0.00001021463667940568
          0.000010497594065186522 0.000010214644025379995 0.000010497604229662452 0.000010140653700839568 0.000010243972438355932 0.000010140657431172816
          0.000010243976129343947 0.000010140668725278663 0.000010243987178460274 0.00000833742424347579 0.000008421193791916812 0.000008337426458946366
          0.000008421195918213162 0.00000833743294830942 0.0000084212022077199 0.000009453211287341016 0.000009702062446477266 0.000009453213837284852
          0.000009702065432832983 0.000009453221843475743 0.000009702074303263523 0.000008586716616991627 0.000008586719016684903 0.000008586726436025065
          0.000009948384072996978 0.000010196795688446924 0.000009948387243351431 0.000010196799468723744 0.000009948396694377402 0.00001019681154419101
          0.000009225215707645724 0.00000941007731245277 0.000009225218052375705 0.000009410079737236092 0.00000922522543428016 0.000009410087197047956
          0.000007918041725759838 0.000007918043519213731 0.000007918048637595117 0.000008907470188737764 0.000008907472720493161 0.000008907480443931343
          0.000009071213440696736 0.000009250478494241143 0.000009071215742987277 0.000009250480831461787 0.000009071223140600383 0.000009250488606832262
          0.00000821856002112548 0.00000821856193945457 0.000008218567798378486 0.000010271487385568396 0.00001027149102896506 0.000010271502276652677
          0.00000849041162256261 0.000008544005654534016 0.000008490413863429807 0.00000854400773703434 0.000008490420713323127 0.000008544014443558162
          0.000008481968848982778 0.000008170458869359405 0.000008481970993858988 0.000008170460965980484 0.000008481977812904111 0.000008170466952532859
          0.000008996010386711487 0.000009016048178179699 0.00000927205605770578 0.000008996012482402883 0.000009016050414350481 0.000009272058255787905
          0.000008996020309680038 0.000009016058242163628 0.000009272065158367766 0.000007798356170246104 0.000007522217293795216 0.000007575112042666041
          0.000007857496513497835 0.000007798358292463809 0.0000075222195297382804 0.000007575114233783297 0.000007857498678215703 0.000007798364756759352
          0.000007522226135347427 0.000007575120829503625 0.000007857505352230754 0.000007050888983289702 0.00000689404567025151 0.000006601303650354303
          0.0000067534363246524005 0.000007050891132418578 0.000006894047624368008 0.000006601305798506778 0.000006753438595178812 0.0000070508973904971505
          0.000006894053472757816 0.000006601312078874973 0.000006753445583623038 0.000008186908498978447 0.000008186910331657286 0.00000818691640318974
          0.000007678815565563519 0.000007409326680897166 0.000007678817512998257 0.00000740932862168149 0.000007678823184704938 0.00000740933475379021
          0.000008293344793512784 0.000008177547531060408 0.000008293346572929973 0.000008177549429263707 0.00000829335159909871 0.000008177554826182364
          0.000007554089396156715 0.000007275850309068705 0.000007554091319125096 0.000007275852209855611 0.000007554096702815599 0.000007275857997272461
          0.000006863264379316071 0.000007162681454390591 0.0000068632665111815795 0.0000071626834132656235 0.000006863273381791436 0.000007162689614408466
          0.000006565910440222329 0.000006483473032376604 0.000006565912416369817 0.00000648347509843466 0.00000656591814694467 0.000006483481039029768
          0.000008711598690727836 0.000008711601019943324 0.000008711608376197193 0.000008952223674903553 0.000008952226267849731 0.000008952234279439197
          0.000007656267887918882 0.000007453141999983687 0.000007250658318002828 0.000007343840831311282 0.000007656269748751559 0.00000745314381153011
          0.000007250660218339602 0.000007343842714738014 0.000007656275106900803 0.000007453149687145011 0.000007250666316503504 0.000007343848124047492
          0.000007956498960013519 0.00000824889966140847 0.000007956500825142586 0.000008248901572331336 0.000007956506296408218 0.000008248907862375237
          0.000005960441529703307 0.000006067916853432036 0.000006344944933158184 0.0000062576892901857545 0.0000059604444354173705 0.000006067919721542317
          0.0000063449473733701075 0.0000062576919338067825 0.000005960453460483457 0.0000060679279946585195 0.000006344954516650335 0.000006257700162532149
          0.0000063462169665957245 0.000006114839280573025 0.000006240700116144343 0.000006346218929601383 0.000006114841398252542 0.000006240702110088885
          0.0000063462247973105904 0.000006114847873439773 0.00000624070883898987 0.00000695198541772302 0.0000069519872148099 0.000006951992831329695
          0.000009232763996586797 0.000009462108789373033 0.00000923276664055899 0.000009462111492603195 0.000009232775025452158 0.0000094621202780984
          0.000008199502510157333 0.000007975155923644112 0.000008199504530107531 0.0000079751578322775 0.000008199510824464753 0.00000797516404918275
          0.000007450671818860595 0.000007450673620576811 0.0000074506796983154735 0.000008629598188210291 0.000008629600449109013 0.000008629607868105855
          0.000007211078301740578 0.000007350767567387274 0.000007211080076543186 0.0000073507694227368495 0.000007211085457156144 0.000007350776008116276
          0.000006624777894647634 0.000006555122786263774 0.000006624779646021479 0.000006555124872858418 0.000006624785443001477 0.00000655513079752905
          0.000007150421936804124 0.000007448250037058502 0.000007150423472524448 0.0000074482513658285295 0.00000715042805177719 0.000007448255473743709
          0.000007746179232886276 0.000008049334332649075 0.000008044204731026802 0.000007746180478975038 0.000008049335719214373 0.000008044206092790198
          0.000007746184279567244 0.000008049340444682894 0.000008044209897513342 0.000008028463023692709 0.0000080055693412769 0.000008028464358467802
          0.00000800557099520045 0.000008028469520608467 0.00000800557660730032 0.000006647666523708477 0.000006593833511402316 0.000006647668304622363
          0.000006593835553287253 0.000006647673697564572 0.000006593841723547501 0.000008355672665549307 0.000008342323582094729 0.000008355673736108853
          0.000008342324616429339 0.000008355677842054281 0.00000834232758297173 0.000006428212587263394 0.000006428214700506639 0.000006428221260953033
          0.000010307705234133296 0.00001062295839542745 0.000010731140996218862 0.000010432027464032504 0.000010307708050844716 0.000010622961505578211
          0.000010731143947463862 0.00001043203031460565 0.000010307715511191362 0.000010622970473224681 0.000010731151898891514 0.000010432038792207639
          0.000011030464139708105 0.000010920549859335077 0.000011030467374259416 0.000010920553095422239 0.000011030477007493607 0.000010920563505718025
          0.000006435175702204741 0.000006435177872895 0.00000643518547708598 0.000008640538567127278 0.000008640539460102073 0.00000864054199031562
          0.000007735788525937651 0.000007735790385530602 0.000007735796557316138 0.000006836524094036409 0.0000068365255065569696 0.000006836529536648097
          0.000007833644755711814 0.000007833646527261533 0.000007833652240950068 0.00000801062360720219 0.000008256797085351003 0.000008010625468160352
          0.000008256798845023494 0.000008010630852631501 0.000008256804975552902 0.000008083039133601062 0.000008083040962452787 0.000008083047100114855
          0.000010518603729129376 0.000010518607845323888 0.000010518620256748337 0.000006293281541715903 0.000006293283444461338 0.000006293289668000044
          0.000008532068624633148 0.000008532070376824018 0.000008532074740602796 0.000007278128192876602 0.000007304524710747325 0.0000072781297242569115
          0.0000073045264310307684 0.000007278134622209766 0.000007304531837503922 0.000008539941305158927 0.000008539943131956073 0.000008539948828604506
          0.0000073325653089934805 0.000007332567114981229 0.000007332573327509862 0.000008245790898067097 0.000008245792460050653 0.00000824579856107407
          0.000007098316499936402 0.0000070983178576106525 0.00000709832182011326 0.000010614177437546674 0.000010614181859369176 0.000010614195279021481
          0.000010585952776376603 0.000010585956458007192 0.00001058596751634452 0.000011221966582376108 0.000011330033592025901 0.00001122197026931183
          0.000011330037372217442 0.000011221981666121368 0.000011330048496613241 0.000009066736496276842 0.000008938810842649933 0.000009066737964302658
          0.000008938812366869739 0.000009066742763011222 0.000008938816618067104 0.00001024386672371591 0.000010243869150018045 0.000010243876848086976
          0.000006852707096596763 0.0000068527085992328485 0.000006852713697745227 0.000007970318546253196 0.00000797032036166585 0.000007970326755635133
          0.000011135112023914815 0.000010835110932677019 0.00001113511593688495 0.00001083511448465167 0.000011135128301211451 0.00001083512483648191
          0.000009535711066590978 0.000009570245811626174 0.00000983438058909631 0.000009535713024566554 0.00000957024773039762 0.000009834382491262019
          0.000009535718813499538 0.000009570254001643081 0.000009834386482984333 0.000010133089862284366 0.000010121398817013848 0.00001013309175905329
          0.000010121400604782542 0.00001013309804071619 0.00001012140755186075 0.00001054537520347906 0.000010545378150206244 0.000010545388947242186
          0.000009389337134852839 0.000009389338597865013 0.000009389343481203106 0.00000923720473575845 0.000009237206226997884 0.000009237211857944304
          0.00000796844833268598 0.00000796845011181602 0.000007968455849595693 0.000006400687062233099 0.000006400689196545111 0.000006400696626483355
          0.000005921632632489631 0.000006209811775336431 0.000005921633642232911 0.00000620981337535397 0.0000059216370201577965 0.000006209818390021329
          0.000009133631844197902 0.000009133634435625067 0.000009133642239001444 0.00000696065472705708 0.0000069298804082053475 0.0000072021212070778936
          0.000006960656199464201 0.000006929881694898662 0.000007202122668647443 0.0000069606604388514155 0.000006929885878569741 0.000007202127733120371
          0.000011349380338571777 0.00001104997392880331 0.000011349384987559269 0.000011049978163468772 0.00001134939900704087 0.000011049990784828083
          0.000008558005098632754 0.000008822797601337534 0.000008558007050066343 0.000008822799773874742 0.00000855801272218114 0.000008822806296395034
          0.000010785551003828235 0.000010785555252346276 0.000010785567476753016 0.000010233946432673621 0.000010611140419741699 0.000010618569464108028
          0.000010233949961260391 0.000010611144216750804 0.00001061857342642448 0.000010233960763561465 0.000010611156331963077 0.000010618585381489185
          0.000009576727797199246 0.000009576730566781193 0.00000957673887870135 0.000007575386351297774 0.000007635431619365788 0.000007575388106423505
          0.000007635433272285285 0.000007575393621428528 0.000007635438370657142 0.000009865776283495552 0.00000990286186208869 0.000009865778834876115
          0.000009902864809625354 0.000009865785495370485 0.000009902873420480458 0.00000748373657980817 0.0000074837382646657416 0.00000748374287916897
          0.000008308176257021721 0.000008308178129253878 0.000008308183580876526 0.000011042453955824786 0.000011042458590347092 0.00001104247308196443
          0.000006498687209459291 0.000006498688720864651 0.00000649869336963339 0.000006773065186860537 0.000006773066647442359 0.000006773071176495421
          0.000010191772207153072 0.000010191775459858911 0.000010191785544656043 0.000007037769498943935 0.0000069972964289329366 0.00000703777110468312
          0.000006997297965591404 0.0000070377757388276576 0.000006997302421774403 0.000010991588885747573 0.000011018387806393515 0.000010991594119629142
          0.000011018392897872504 0.000010991610515699188 0.000011018409575723513 0.000011237049901464403 0.000011237054542011404 0.000011237068491625373
          0.000011629893290069034 0.000011519927214733445 0.000011629898289738588 0.000011519931887018284 0.000011629912150579918 0.00001151994586412163
          0.000007992174948676344 0.000007992176627971257 0.000007992181545473669 0.000010985189284351679 0.000011007670869559522 0.00001098519380031754
          0.000011007675034890891 0.000010985208427254345 0.00001100768768716509 0.000007699441666259496 0.000007716826681465069 0.000007699443339243155
          0.00000771682803743382 0.00000769944806994514 0.00000771683144916164 0.000011424112846831976 0.000011424117650342826 0.000011424131626608826
          0.000007406865563491853 0.000007406867030402151 0.0000074068714959574045 0.000010957329949345556 0.00001095733458101092 0.000010957349187910607
          0.000010952603003890113 0.000010952607508287226 0.000010952620400667865 0.000007674468566740799 0.000007674470170445422 0.00000767447515647146
          0.000007695407054477713 0.00000769540876374639 0.000007695413345705303
        </DataArray>
        <DataArray type="Float64" Name="disp_y" format="ascii" RangeMin="-0.0000022937894535411043" RangeMax="-6.426905674524907e-7">
          -0.0000020042020270633687 -0.0000019057798373979541 -0.0000018552923853866261 -0.0000019282927062900646 -0.000002004206707461054 -0.0000019057839234543824
          -0.000001855296650754912 -0.0000019282973400404563 -0.0000020042203158795466 -0.0000019057959161589947 -0.0000018553097238855654 -0.0000019283106812540454
          -0.0000016807401738904588 -0.0000016735704238481226 -0.0000015856761015497036 -0.0000015842254434222852 -0.0000016807438915702261 -0.0000016735742269835832
          -0.0000015856797656577532 -0.0000015842290147186194 -0.0000016807553420398606 -0.000001673585589348389 -0.0000015856907230122032 -0.000001584239546263199
          -0.0000015926128847338335 -0.0000015926167858856191 -0.0000015926281024502851 -0.0000016773129581037471 -0.0000016773169247562452 -0.0000016773291351768058
          -0.0000017906959360485199 -0.0000018622348665626022 -0.0000017907000257534623 -0.0000018622394564362333 -0.000001790712490702347 -0.0000018622532959169263
          -0.0000014542637390545547 -0.000001357327328277626 -0.000001330653546637376 -0.0000013982287970308853 -0.0000014542666993713613 -0.0000013573300861121258
          -0.0000013306561368880392 -0.000001398231658330212 -0.0000014542757344705665 -0.00000135733835762587 -0.0000013306632325736942 -0.0000013982401676407867
          -0.000002101979244686382 -0.0000020249088757237384 -0.000002013641159722744 -0.0000020852471237912295 -0.000002101983053637174 -0.000002024912703027722
          -0.000002013645235787984 -0.00000208525100985461 -0.0000021019938775229027 -0.000002024924179220049 -0.0000020136579851088787 -0.0000020852620209660623
          -0.0000021241887434512795 -0.0000021178151468390407 -0.0000021991365660946374 -0.0000022021423890436993 -0.000002124191972509136 -0.0000021178186521079223
          -0.000002199140251243113 -0.000002202146010371047 -0.0000021242021234399566 -0.0000021178286704136256 -0.000002199151187864578 -0.000002202156613908425
          -9.334010430419285e-7 -8.434536989035397e-7 -9.13221838279643e-7 -9.334026552654119e-7 -8.434555451860166e-7 -9.1322357675587e-7
          -9.334068758805928e-7 -8.434615816535243e-7 -9.132288734297647e-7 -0.000001261615294034334 -0.0000012791955154062848 -0.000001356700806929641
          -0.0000013663187017689667 -0.000001261618129491054 -0.0000012791983063812162 -0.000001356703651160578 -0.0000013663217631261946 -0.0000012616267378051305
          -0.0000012792066508988993 -0.000001356712234165279 -0.0000013663307357347138 -0.0000012846566953454087 -0.0000012846596211557718 -0.0000012846685905109554
          -0.0000017854477316673888 -0.0000017202343211464138 -0.0000017854518052835738 -0.00000172023816025748 -0.0000017854639422228516 -0.0000017202492711478703
          -0.00000209394161588337 -0.0000020109557620124155 -0.0000021088620223501087 -0.0000020939463307240955 -0.0000020109601247846656 -0.000002108866876937706
          -0.00000209396067459618 -0.000002010973738018369 -0.0000021088823159688708 -0.000001676562565419615 -0.0000017440166240966008 -0.0000016850048555496747
          -0.0000016252156884933138 -0.0000016765662416995717 -0.0000017440204579328062 -0.000001685008336831751 -0.0000016252191857518342 -0.000001676576968132408
          -0.0000017440318621446882 -0.0000016850186493677728 -0.000001625229749929062 -0.000001929819725643121 -0.000002005046307895539 -0.000001940861014881516
          -0.0000019298237893938863 -0.000002005050222904606 -0.0000019408648403759372 -0.000001929835788770891 -0.000002005062763696942 -0.0000019408764523049857
          -0.0000020585335608841906 -0.0000020795283719157682 -0.0000021606741320757752 -0.0000020585372580547655 -0.000002079532481119891 -0.0000021606786214270445
          -0.0000020585486040776666 -0.0000020795441037203695 -0.0000021606917119901985 -0.0000018307200355606867 -0.000001872268047717675 -0.00000181268511238746
          -0.0000017484187231183562 -0.0000018307236814464274 -0.0000018722715749388647 -0.0000018126885191419917 -0.0000017484222880346826 -0.0000018307351348914809
          -0.0000018722818712540972 -0.0000018126984979853127 -0.000001748432974746409 -0.000001462839977390873 -0.0000014578494886943843 -0.00000146284287896518
          -0.0000014578524097115484 -0.0000014628515892088381 -0.0000014578614076827877 -0.0000012317891494472644 -0.0000012316296781490258 -0.0000013308047050015806
          -0.0000012317914586375496 -0.0000012316319611555697 -0.0000013308072910437888 -0.000001231798638398701 -0.0000012316388570661126 -0.0000013308149906906779
          -0.0000014497590078494761 -0.000001534478600775852 -0.0000014955481067218573 -0.0000014186377027425083 -0.0000014497620790253585 -0.0000015344821282021498
          -0.0000014955513067553796 -0.0000014186406650437013 -0.000001449770865099168 -0.000001534492176604617 -0.0000014955610143689436 -0.0000014186499898225044
          -0.0000020061346738329955 -0.0000019756877352116105 -0.0000020061406217450354 -0.000001975693666454636 -0.000002006158066392923 -0.0000019757121075711767
          -0.0000021422776016904248 -0.000002050178189291398 -0.0000021422832612994367 -0.000002050183164771708 -0.0000021422996158064836 -0.000002050198772662701
          -0.000002136233054164277 -0.0000020726631978830012 -0.0000021362357467700582 -0.000002072666124799767 -0.0000021362444135368656 -0.0000020726749457285522
          -0.0000016629886286581122 -0.0000017390424000664517 -0.0000017957508011235827 -0.0000017225341158223366 -0.0000016629925111516615 -0.0000017390470079602833
          -0.0000017957553286393794 -0.0000017225379915768482 -0.0000016630037983842552 -0.0000017390618271388295 -0.000001795769129484438 -0.0000017225495770602854
          -0.000001035433876175881 -0.000001021203190076264 -0.0000010354357129889072 -0.0000010212051590981392 -0.0000010354414217042303 -0.000001021211079303849
          -0.0000012219870486593374 -0.0000011789123857310754 -0.0000012219896204712385 -0.000001178914715909733 -0.0000012219974408220041 -0.000001178921869870348
          -0.000001135092237627918 -0.0000010990551027554587 -0.000001135094433014235 -0.0000010990572464350341 -0.000001135101062895297 -0.000001099063874445695
          -0.0000019234640759175625 -0.000001923469576050765 -0.0000019234866993161877 -0.0000011438293177461862 -0.0000011438313163622587 -0.0000011438375128742474
          -0.0000010134697505384898 -0.0000010201206077909633 -0.0000011313694906996689 -0.0000011206982312226153 -0.0000010134717659216937 -0.0000010201223184952583
          -0.000001131371452960686 -0.0000011207002790619782 -0.000001013477875728905 -0.000001020127460807599 -0.000001131377554543614 -0.000001120706355178926
          -0.0000015320210336221398 -0.0000015651073517476844 -0.0000014887459439418754 -0.000001532024153744372 -0.000001565110510648974 -0.0000014887488818055177
          -0.0000015320333797816784 -0.0000015651202946376546 -0.0000014887574411133478 -0.0000013951556488425173 -0.0000014637761493830125 -0.0000013951583942256005
          -0.0000014637790833528097 -0.0000013951663345487457 -0.0000014637881073022267 -0.0000013528144517067046 -0.0000013528170983677406 -0.0000013528253830938062
          -0.000002208119097401068 -0.000002125919683322421 -0.0000021245475655287343 -0.000002204832009068366 -0.000002208122233117907 -0.0000021259227879774807
          -0.0000021245507008339106 -0.000002204835167274852 -0.0000022081311382997977 -0.000002125931707831931 -0.0000021245597435304715 -0.000002204844421036399
          -0.0000011247228091303101 -0.000001124724940531644 -0.000001124731308273282 -0.0000012454584049257772 -0.0000012454606892926876 -0.0000012454675398088422
          -9.095914782533707e-7 -9.095931908141832e-7 -9.09598705250271e-7 -0.000002008611413888262 -0.000002025982002303191 -0.000002008616670103173
          -0.0000020259874073605115 -0.000002008633000303811 -0.000002026003575182811 -0.000001488131816176386 -0.0000013787814998958256 -0.0000014881353417472584
          -0.0000013787842522238122 -0.0000014881460204740272 -0.0000013787920028217607 -0.0000013559518524930728 -0.0000014407401116119292 -0.0000013559545443014345
          -0.0000014407430178089583 -0.0000013559622026148643 -0.0000014407519868885432 -0.000001727721382791169 -0.0000016598449320281892 -0.0000017277252875250648
          -0.0000016598488286789681 -0.000001727737150013379 -0.000001659860365484063 -0.0000016102804847645897 -0.0000016102836635149458 -0.0000016102932633269523
          -0.0000015819810463432441 -0.0000016453225588777597 -0.0000015819849548522821 -0.0000016453263322059514 -0.0000015819977394505648 -0.0000016453377517555875
          -0.0000017913727512631209 -0.0000018404082518311995 -0.0000017913767116893972 -0.0000018404122391863036 -0.0000017913887190640795 -0.000001840424748085206
          -0.0000010122032883199621 -0.0000010122053364590359 -0.0000010122117217270224 -0.0000011462914550483899 -0.0000011462936546646816 -0.0000011463001053996354
          -0.0000018578762504477955 -0.0000018764504815452514 -0.000001857880123734032 -0.0000018764543036911313 -0.0000018578922987538414 -0.0000018764654906821092
          -0.0000010363636444938032 -0.0000010363656794625285 -0.000001036372013265848 -0.000001262064739209129 -0.0000012620669888632016 -0.0000012620739871531964
          -0.0000011820413339861903 -0.0000010471830839081346 -0.0000011820437587151505 -0.0000010471851457765 -0.0000011820510469558398 -0.0000010471914955854347
          -0.0000015284870082677737 -0.000001553352364362783 -0.0000015284900281886464 -0.0000015533555203785482 -0.0000015284993907308272 -0.0000015533649792114005
          -0.0000020079195641862787 -0.0000019317679598402133 -0.0000019316717303393754 -0.000002007923446296679 -0.0000019317717602247106 -0.0000019316755257059203
          -0.0000020079347596979427 -0.0000019317835193158746 -0.00000193168663581672 -0.0000016424117321408314 -0.00000161805741648181 -0.0000015430529093991036
          -0.000001554599198128932 -0.0000016424150190774325 -0.0000016180605333406664 -0.0000015430560421418413 -0.000001554602284846383 -0.0000016424248717261593
          -0.0000016180697939988308 -0.0000015430655613388263 -0.000001554611578299762 -0.0000019250449583311107 -0.0000020234438965535737 -0.0000019573439752658386
          -0.0000018843661781280464 -0.000001925048390172091 -0.00000202344708914424 -0.0000019573472304114987 -0.0000018843696205958174 -0.0000019250586716452643
          -0.0000020234568630135577 -0.000001957356963057583 -0.0000018843797159623572 -0.0000012808401120451986 -0.0000012808426102631849 -0.0000012808507426520368
          -0.0000017242737617807244 -0.0000016856115012843304 -0.0000017242770809590607 -0.0000016856145061282657 -0.000001724287631163874 -0.000001685623150597548
          -8.356604070873125e-7 -7.604494839592712e-7 -8.356623210880774e-7 -7.604511488295204e-7 -8.356683957779586e-7 -7.604560027685542e-7
          -0.0000018023746032356363 -0.0000017589800073868518 -0.000001802378012178811 -0.0000017589832173935489 -0.000001802388455972156 -0.0000017589931507781854
          -0.0000018012252420207234 -0.0000018409846557175417 -0.0000018012286419986377 -0.0000018409878917357847 -0.0000018012390463190123 -0.0000018409980050106647
          -0.0000017706450414262753 -0.0000018477236770231042 -0.0000017706485968671914 -0.0000018477270637429202 -0.0000017706593994888202 -0.0000018477371054768829
          -0.0000013981904451344374 -0.0000013981931598509417 -0.0000013982013943491593 -0.0000012568848996757283 -0.0000012568874339070652 -0.0000012568953081137594
          -0.0000020211359747914056 -0.0000020651401526914418 -0.0000020446797010740904 -0.0000019653337926524553 -0.0000020211393489729863 -0.0000020651433816159853
          -0.000002044682870523077 -0.000001965337255372962 -0.000002021149636129985 -0.000002065152347148253 -0.0000020446928486592394 -0.0000019653476567068136
          -9.221496959082231e-7 -9.393639397707504e-7 -9.221516193620288e-7 -9.393658202224697e-7 -9.221571464392102e-7 -9.393717191400734e-7
          -0.000002293774466538902 -0.0000022128837351003404 -0.00000221521140161065 -0.00000229161324917778 -0.0000022937781239351056 -0.0000022128870120222163
          -0.0000022152145349259827 -0.0000022916165946399407 -0.0000022937894535411043 -0.0000022128971314120446 -0.0000022152235250709217 -0.0000022916264529232643
          -0.000001913789454589168 -0.0000018756050691549803 -0.0000018189980043946198 -0.0000019137927642180777 -0.0000018756083806721852 -0.0000018190014894669801
          -0.0000019138031459943155 -0.0000018756181511326542 -0.0000018190118763222303 -0.000001692181370356245 -0.0000016921847127782807 -0.0000016921949066961525
          -0.0000015636474327369818 -0.0000016097589179747602 -0.0000015636506443475144 -0.0000016097624525102338 -0.0000015636604730468511 -0.0000016097734810682963
          -0.0000016650355843787875 -0.0000017636709270674361 -0.0000016650389238905709 -0.0000017636743464299802 -0.0000016650492887417463 -0.000001763684829933423
          -0.000001883104525314348 -0.000001883107738250284 -0.000001883118044237763 -0.000001300062659797303 -0.000001300065236923707 -0.0000013000733668831225
          -0.000001631411169197179 -0.0000015980143394797963 -0.0000016314142139470385 -0.000001598017330263547 -0.0000016314229095390437 -0.0000015980270694099659
          -0.0000022124534203775734 -0.0000022892869227032208 -0.00000221245647449448 -0.000002289290175760107 -0.0000022124660699141887 -0.000002289300123267741
          -0.0000022840361135831336 -0.0000022810929717619177 -0.000002284039200709653 -0.0000022810962952109356 -0.000002284049388990231 -0.0000022811070607285164
          -0.0000022779071064765403 -0.0000021939729771297644 -0.000002274462232860288 -0.0000022779106996541286 -0.000002193976767244868 -0.0000022744664409327135
          -0.0000022779222854184937 -0.0000021939882560090216 -0.0000022744790172118527 -0.0000021110977494384575 -0.000002027561388390375 -0.0000021111011171369027
          -0.000002027564979500618 -0.0000021111114691737497 -0.0000020275761007754375 -0.000002136998598363585 -0.000002069492811714053 -0.000002137001408894678
          -0.0000020694956211732864 -0.0000021370106061126606 -0.000002069503651683172 -0.000002185574722674816 -0.0000022707471978883086 -0.000002185578647228888
          -0.0000022707516936519705 -0.0000021855908143509967 -0.0000022707659674992288 -0.000002016641045135038 -0.000002016643972497555 -0.000002016652386891745
          -0.000002166635430823029 -0.0000021579610990022594 -0.0000022278372549181324 -0.0000022347218563932245 -0.0000021666419006406924 -0.000002157967851432679
          -0.000002227845088420161 -0.000002234729167758636 -0.000002166659786193207 -0.0000021579891502024207 -0.00000222786878980368 -0.0000022347513668934717
          -0.000002220398144556289 -0.0000021492909753991066 -0.000002220406698401154 -0.0000021492981937818097 -0.000002220432531426493 -0.000002149320820237441
          -0.000002094838655118072 -0.0000020948412784238615 -0.0000020948503114655013 -0.0000022667095827810843 -0.00000226671447101824 -0.0000022667303180345317
          -0.0000019211301027225837 -0.0000019211334508548728 -0.0000019211438442393066 -0.000001577515306470798 -0.0000015775185748509553 -0.0000015775283007511997
          -0.000001840559257659143 -0.0000018405623757488303 -0.000001840571648004822 -0.0000019458828896514064 -0.000001951533401231107 -0.000001945886453487124
          -0.0000019515369810660886 -0.000001945897669183339 -0.0000019515481345158284 -0.000001874986289778633 -0.0000018749895192697413 -0.0000018749996498492794
          -0.0000015439980092681982 -0.0000015440015080905507 -0.0000015440120872671411 -0.0000017529827609472773 -0.0000017529864247101677 -0.0000017529975022152574
          -8.767894516230445e-7 -8.767912303460039e-7 -8.767952374728628e-7 -0.000001371776572887991 -0.0000014603005995451292 -0.0000013717794751218968
          -0.0000014603037294229978 -0.0000013717883038271626 -0.0000014603132394262711 -9.453653278324396e-7 -9.453669564323422e-7 -9.453721826966575e-7
          -0.0000015413452234975285 -0.000001541348310680067 -0.0000015413582404776551 -0.000001898770688088675 -0.000001898773900067719 -0.0000018987845613179465
          -0.0000015566553156684552 -0.0000015566584291969844 -0.0000015566684803262734 -0.0000012714920094571042 -0.0000012714942642952022 -0.0000012715007972701909
          -0.00000139569303923086 -0.0000013956959581473666 -0.0000013957051646221924 -0.0000021404314067845152 -0.0000022123834321583793 -0.0000021404390137417855
          -0.000002212392476016619 -0.0000021404625502327392 -0.0000022124208548805054 -0.000002177966262800086 -0.000002262365590434836 -0.0000021779713212157844
          -0.0000022623714386125968 -0.00000217798719214654 -0.0000022623898821929406 -0.0000021022818401956828 -0.000002102287326354095 -0.0000021023037149000554
          -0.0000022867656197957567 -0.0000022867684866109887 -0.000002286778393464833 -7.49468503827229e-7 -7.494700866216778e-7 -7.494749467587312e-7
          -0.0000020652572590066136 -0.000002074388931869003 -0.0000020652633986691827 -0.0000020743948079847816 -0.0000020652808551120752 -0.0000020744119282601078
          -0.0000022525774195510197 -0.000002197268379904448 -0.0000022470629405921466 -0.0000022525825324476556 -0.0000021972736676309163 -0.000002247068898494035
          -0.000002252600260739893 -0.0000021972890981599344 -0.0000022470864437930796 -0.0000022411818911437096 -0.0000021871362343989776 -0.000002241189122260952
          -0.000002187142735920733 -0.000002241216236509532 -0.000002187162914556445 -0.000002085368050352071 -0.000002085373649213613 -0.0000020853895743725747
          -0.0000021855328370047625 -0.000002185537888853813 -0.0000021855520992883362 -0.0000022576182614242727 -0.0000022576234955321455 -0.000002257640619868935
          -8.326969193137502e-7 -8.326987307211298e-7 -8.327045892593635e-7 -0.0000021445150042590373 -0.000002144517732401647 -0.0000021445263058726637
          -0.0000015055095730742676 -0.0000014939060756564498 -0.0000015055133503519299 -0.000001493909773994427 -0.000001505524615770956 -0.000001493920978882723
          -7.90252881423102e-7 -7.902544260886288e-7 -7.902589843817872e-7 -0.0000012952120570117053 -0.0000012102276199884368 -0.00000120243224593324
          -0.0000012952150610898437 -0.0000012102303085138025 -0.0000012024347984533733 -0.0000012952238831482395 -0.0000012102387868600628 -0.0000012024428320418797
          -0.0000019624702101461975 -0.0000019087517698539957 -0.0000019624762972082347 -0.000001908757871483749 -0.0000019624948391635395 -0.0000019087769784266424
          -7.684929752027122e-7 -7.054459692722752e-7 -7.684949276673905e-7 -7.054474144613013e-7 -7.685015131332745e-7 -7.05451969919551e-7
          -0.0000018580228892666112 -0.0000018580282346634125 -0.0000018580432421571123 -0.0000010266536816094388 -0.0000010266332025074903 -0.000001150107705086164
          -0.0000010266548620227123 -0.0000010266347690288864 -0.0000011501096229094059 -0.0000010266577100588116 -0.0000010266398482964441 -0.0000011501156833904774
          -8.1071487707374e-7 -8.107159576043252e-7 -8.107187949924959e-7 -0.0000010687831275977248 -9.88523981413949e-7 -0.0000010687853817291025
          -9.885260688978723e-7 -0.0000010687923136264802 -9.885324762960185e-7 -9.193671182090999e-7 -8.32038085270104e-7 -9.193688041072272e-7
          -8.320396274028349e-7 -9.193736114518313e-7 -8.320439539541186e-7 -0.0000011432856281166732 -0.000001143288035999962 -0.0000011432945827473575
          -6.935105934662321e-7 -6.935118969232688e-7 -6.935151326207678e-7 -0.0000017929185849413946 -0.0000017929240505940261 -0.0000017929402389816287
          -0.0000014891546474980937 -0.000001489157974937319 -0.0000014891679988765152 -0.0000014816962394211064 -0.0000014816993916964035 -0.0000014817087863199098
          -9.200378083527912e-7 -9.200396218324668e-7 -9.200449088398989e-7 -0.0000014693357185429016 -0.0000013807419099430702 -0.0000014693389792158938
          -0.00000138074503778774 -0.000001469348813583334 -0.000001380754241588188 -0.0000016296766512202296 -0.0000016983759814984921 -0.0000016296799754818552
          -0.00000169838036199843 -0.0000016296898234256678 -0.0000016983923010009474 -0.0000017168285722882948 -0.000001716833812258979 -0.0000017168514334601544
          -0.00000220374808479257 -0.000002131219178035868 -0.0000022037582100921693 -0.000002131227446781821 -0.0000022037876151750703 -0.0000021312530920688455
          -6.714577492018598e-7 -6.714589548118016e-7 -6.714622843133352e-7 -0.0000012761160864725799 -0.0000011508947697265102 -0.0000012761186858831986
          -0.0000011508957678009055 -0.000001276126771479502 -0.0000011508979141198991 -7.309958501126591e-7 -6.426905674524907e-7 -7.309975380648388e-7
          -6.426918299997337e-7 -7.310026660832619e-7 -6.426957292384198e-7 -0.0000020573465746485663 -0.000002057353082058562 -0.000002057372252331274
          -0.0000011984903328180573 -0.0000011984926823767746 -0.0000011985002951480522 -0.0000015211725903307262 -0.0000015211753068307211 -0.000001521183739945271
          -0.000001399701418577844 -0.000001399704843870558 -0.0000013997151238420224 -9.035769397360338e-7 -9.035787085286234e-7 -9.035842101908104e-7
          -8.17890457472913e-7 -8.178923079416015e-7 -8.17897860212034e-7
        </DataArray>
        <DataArray type="Float64" Name="disp_z" format="ascii" RangeMin="-5.323970020317648e-8" RangeMax="0">
          0 0 0 0 -2.628874906686432e-8 -2.6311854663716804e-8
          -2.6345559413818447e-8 -2.6332998959405434e-8 -5.2577404659240454e-8 -5.2623248406669703e-8 -5.269154921424338e-8 -5.266560632002491e-8
          0 0 0 0 -2.6243895553531127e-8 -2.623344438225894e-8
          -2.6257432143475675e-8 -2.626940502447453e-8 -5.2487763593020836e-8 -5.2466764255591365e-8 -5.251495117476363e-8 -5.253861748408626e-8
          0 -2.6245393225421905e-8 -5.249114025500804e-8 0 -2.6221522383648646e-8 -5.24430182026767e-8
          0 0 -2.638679869015955e-8 -2.637764965401311e-8 -5.277373501973286e-8 -5.2755196882180144e-8
          0 0 0 0 -2.6414780410619515e-8 -2.6428056038333894e-8
          -2.645297630870782e-8 -2.644341958809789e-8 -5.282934449994823e-8 -5.2856012667247766e-8 -5.2905705819856325e-8 -5.288778988084689e-8
          0 0 0 0 -2.6202906630111852e-8 -2.6223401031155895e-8
          -2.6234857692530896e-8 -2.6213837916551916e-8 -5.240568156925943e-8 -5.244695139288008e-8 -5.2470070149128914e-8 -5.242743109300324e-8
          0 0 0 0 -2.6169378275653084e-8 -2.617874639743188e-8
          -2.6158301613636822e-8 -2.6148843861224314e-8 -5.2338574822482054e-8 -5.2357354637133316e-8 -5.231663532385256e-8 -5.229764225806981e-8
          0 0 0 -2.648958306441923e-8 -2.649317694095652e-8 -2.651346658919899e-8
          -5.297942200337282e-8 -5.298611047531333e-8 -5.302707024934174e-8 0 0 0
          0 -2.6379464674014474e-8 -2.6387763051963666e-8 -2.637377160525878e-8 -2.635684080189109e-8 -5.275860953352137e-8
          -5.277630040809089e-8 -5.2747294977857315e-8 -5.27137107366985e-8 0 -2.6362519573962192e-8 -5.2725053712157354e-8
          0 0 -2.6357051686530986e-8 -2.6393712270029953e-8 -5.271394628942254e-8 -5.2787731577713964e-8
          0 0 0 -2.6237597699043573e-8 -2.627012066859687e-8 -2.6237842762740056e-8
          -5.2474940057981396e-8 -5.254066671760569e-8 -5.247493487099637e-8 0 0 0
          0 -2.6366083006637713e-8 -2.6335386785653027e-8 -2.6337812620623334e-8 -2.6367631266150275e-8 -5.273216641906975e-8
          -5.267095024578067e-8 -5.2675494623870615e-8 -5.273504493647542e-8 0 0 0
          -2.626771117257195e-8 -2.6244262576393613e-8 -2.625670117928727e-8 -5.253544638313151e-8 -5.24888214820072e-8 -5.251341075833093e-8
          0 0 0 -2.6227163371292286e-8 -2.6232752418720587e-8 -2.6198354360018504e-8
          -5.2453617221567376e-8 -5.2465696746548056e-8 -5.2396521304640255e-8 0 0 0
          0 -2.629645685671335e-8 -2.6271830209312215e-8 -2.6279158950165076e-8 -2.630697230716207e-8 -5.259288247085612e-8
          -5.2543684524023976e-8 -5.255849898060506e-8 -5.261392989102149e-8 0 0 -2.6348827546686345e-8
          -2.633737691781343e-8 -5.2697586916269804e-8 -5.267480982819558e-8 0 0 0
          -2.6469264725392698e-8 -2.6491004876026253e-8 -2.647228648469152e-8 -5.293858396100114e-8 -5.2982067954706904e-8 -5.2944490160468736e-8
          0 0 0 0 -2.6462187961472868e-8 -2.6431520487384145e-8
          -2.6422537206842153e-8 -2.644998361715236e-8 -5.292415217192733e-8 -5.286303584608028e-8 -5.2844869939023474e-8 -5.2899850903378217e-8
          0 0 -2.6374550694798814e-8 -2.6363706283190718e-8 -5.274830446184695e-8 -5.2727712410565904e-8
          0 0 -2.6245341829301938e-8 -2.6289691575043375e-8 -5.248974804616947e-8 -5.2581013859976207e-8
          0 0 -2.6108979513527673e-8 -2.6128931628067816e-8 -5.2217573467884156e-8 -5.225804622091105e-8
          0 0 0 0 -2.6479295538298835e-8 -2.646747751646675e-8
          -2.642353422037653e-8 -2.6432192545383756e-8 -5.295928620855256e-8 -5.2934537083858093e-8 -5.2846774128086334e-8 -5.286455079312347e-8
          0 0 -2.6478219791757113e-8 -2.649941713968783e-8 -5.295636551371717e-8 -5.2998827514706384e-8
          0 0 -2.6403926486196987e-8 -2.640189678626479e-8 -5.280766994616282e-8 -5.280358959326334e-8
          0 0 -2.6427075577154386e-8 -2.642070478012701e-8 -5.285433522486303e-8 -5.284137283192372e-8
          0 -2.6372218956654584e-8 -5.274487465455074e-8 0 -2.655514798440278e-8 -5.3110284971863927e-8
          0 0 0 0 -2.6521844105056644e-8 -2.654409724137365e-8
          -2.6529682316229005e-8 -2.6507382718190626e-8 -5.304364340081695e-8 -5.3088370802903766e-8 -5.305921649652052e-8 -5.301485079273639e-8
          0 0 0 -2.639390142732112e-8 -2.6375390760096008e-8 -2.63869064996561e-8
          -5.27877718556028e-8 -5.275099249408599e-8 -5.27739206955232e-8 0 0 -2.6376889054542493e-8
          -2.6362506568610293e-8 -5.275416442662976e-8 -5.272500024582011e-8 0 -2.6490706654483427e-8 -5.298144130871045e-8
          0 0 0 0 -2.612724421428913e-8 -2.6144860788337933e-8
          -2.6155887626995655e-8 -2.6138405847822543e-8 -5.225465112865575e-8 -5.228958656906954e-8 -5.231165583993473e-8 -5.227689345580096e-8
          0 -2.6485898801900934e-8 -5.297177551873272e-8 0 -2.6512852899831803e-8 -5.3025701395177526e-8
          0 -2.6537584394770878e-8 -5.307477134963863e-8 0 0 -2.631563247606656e-8
          -2.6322353038594708e-8 -5.26312274281475e-8 -5.2643692691059764e-8 0 0 -2.647980400741079e-8
          -2.6511894821340005e-8 -5.2959870388777784e-8 -5.3023589876845546e-8 0 0 -2.6392918479986973e-8
          -2.6379144960378046e-8 -5.278589609028738e-8 -5.275817698304105e-8 0 0 -2.6363138408304407e-8
          -2.6397754103436805e-8 -5.2726187425842686e-8 -5.2795753923517034e-8 0 -2.634734252827324e-8 -5.269465924883914e-8
          0 0 -2.6436164591675756e-8 -2.6432534905692817e-8 -5.2872448704671275e-8 -5.2864650478183674e-8
          0 0 -2.6332377510621704e-8 -2.6327412993351388e-8 -5.266456664234384e-8 -5.2655278754749105e-8
          0 -2.6437758612025235e-8 -5.2875391258456186e-8 0 -2.6463063129328753e-8 -5.2926136867976734e-8
          0 0 -2.6303848913106943e-8 -2.6308195291747865e-8 -5.2607662267232054e-8 -5.261651004683571e-8
          0 -2.6445659680880977e-8 -5.28911867482137e-8 0 -2.653518480966085e-8 -5.307047458047309e-8
          0 0 -2.643464066367179e-8 -2.6459137760974145e-8 -5.2869384446478265e-8 -5.29180804284159e-8
          0 0 -2.6360875048754846e-8 -2.6342388426567106e-8 -5.272163042516984e-8 -5.2684752138239316e-8
          0 0 0 -2.6255975256529105e-8 -2.6278971465033923e-8 -2.6294880873219447e-8
          -5.251168098625619e-8 -5.2557942434880785e-8 -5.258993152714893e-8 0 0 0
          0 -2.630411291636472e-8 -2.6296425421171853e-8 -2.6316888731843568e-8 -2.632772847311136e-8 -5.260820813725748e-8
          -5.259283690555359e-8 -5.263378333214033e-8 -5.2655381820129324e-8 0 0 0
          0 -2.6202160228635964e-8 -2.6168558830252707e-8 -2.6169705497267428e-8 -2.6196423775627545e-8 -5.240474581531312e-8
          -5.23371853376133e-8 -5.233896156987512e-8 -5.2392936033153456e-8 0 -2.6400038766477447e-8 -5.279991670728771e-8
          0 0 -2.6277879303522537e-8 -2.6276316797875755e-8 -5.2555721095643815e-8 -5.255259132482991e-8
          0 0 -2.6479654246999623e-8 -2.6488845369343783e-8 -5.2959219862796526e-8 -5.2978924908393506e-8
          0 0 -2.625246174114398e-8 -2.62543131840967e-8 -5.250478382004198e-8 -5.250891071724605e-8
          0 0 -2.6222081098831944e-8 -2.622736898262151e-8 -5.244385080693934e-8 -5.245462817365132e-8
          0 0 -2.6217426960378538e-8 -2.619443698679471e-8 -5.243494057341435e-8 -5.238909195084555e-8
          0 -2.6402420527178422e-8 -5.280503456997549e-8 0 -2.644566434160716e-8 -5.289143405329144e-8
          0 0 0 0 -2.620004389417536e-8 -2.6183322869708685e-8
          -2.6177395627714588e-8 -2.6201211951498e-8 -5.239999677124088e-8 -5.2367431663827275e-8 -5.235472617818842e-8 -5.240204000428383e-8
          0 0 -2.645291603515265e-8 -2.6463337085065052e-8 -5.290596795452557e-8 -5.292675190687229e-8
          0 0 0 0 -2.605687328542525e-8 -2.608690079414291e-8
          -2.610212747270059e-8 -2.6078853169691567e-8 -5.211339761211586e-8 -5.2173474634222364e-8 -5.2204259679542725e-8 -5.215754270718488e-8
          0 0 0 -2.6171713887176716e-8 -2.6169887298624598e-8 -2.619035673693539e-8
          -5.2343641737974124e-8 -5.233965525967706e-8 -5.238074296753466e-8 0 -2.6256293199778145e-8 -5.2512650010386956e-8
          0 0 -2.6395612809193463e-8 -2.6397530814589476e-8 -5.279128827092687e-8 -5.279497898911135e-8
          0 0 -2.6315969306791716e-8 -2.6278756361822787e-8 -5.263202419968182e-8 -5.255746792680798e-8
          0 -2.6227391852223273e-8 -5.2454724035418425e-8 0 -2.6418188988535686e-8 -5.2836307175530154e-8
          0 0 -2.6277984830649067e-8 -2.6293070417617864e-8 -5.255547648769227e-8 -5.2586839348667155e-8
          0 0 -2.6115847017758596e-8 -2.6093814163883517e-8 -5.2231610494788693e-8 -5.218720699257863e-8
          0 0 -2.611721895211589e-8 -2.6126733411101085e-8 -5.2234088293984554e-8 -5.225331022985266e-8
          0 0 0 -2.6135232902492277e-8 -2.616832380174526e-8 -2.6143200351885758e-8
          -5.2270345698576446e-8 -5.2336423577094345e-8 -5.2286112028898076e-8 0 0 -2.6189693004466196e-8
          -2.6210643051807464e-8 -5.237941484310495e-8 -5.242118022405577e-8 0 0 -2.613476832315432e-8
          -2.614774075648202e-8 -5.226938679525587e-8 -5.229590589114095e-8 0 0 -2.6181111995036867e-8
          -2.615119887584383e-8 -5.2362523663371965e-8 -5.2301963338645644e-8 0 -2.614922270109693e-8 -5.229853409592681e-8
          0 0 0 0 -2.6255783093426735e-8 -2.6277213160390684e-8
          -2.6241687957025956e-8 -2.6225709270431427e-8 -5.251087201278931e-8 -5.255454867256079e-8 -5.248294808382178e-8 -5.24511876336015e-8
          0 0 -2.626040647860189e-8 -2.629876702353414e-8 -5.252049348042149e-8 -5.2596931439031496e-8
          0 -2.6133126977418036e-8 -5.226600477966975e-8 0 -2.615635577303726e-8 -5.2312254763393315e-8
          0 -2.6231496089903112e-8 -5.2463329347570474e-8 0 -2.6282000607292018e-8 -5.256421091198155e-8
          0 -2.6254214727403708e-8 -5.2508404895151624e-8 0 0 -2.6234756774667155e-8
          -2.624321463838898e-8 -5.246946956053704e-8 -5.2486275407717234e-8 0 -2.6256473601486797e-8 -5.2512806660532425e-8
          0 -2.6493149992513002e-8 -5.29863827884581e-8 0 -2.621105100147372e-8 -5.242230253828799e-8
          0 -2.6481241805714986e-8 -5.2962497084202186e-8 0 0 -2.6344386182248275e-8
          -2.632526006722398e-8 -5.268881066736697e-8 -5.265055762829039e-8 0 -2.6475740562257312e-8 -5.295185068905015e-8
          0 -2.6306034291727688e-8 -5.2612209172514504e-8 0 -2.625730131623766e-8 -5.251432248319319e-8
          0 -2.6292557739273062e-8 -5.2585072809709334e-8 0 -2.656418163487973e-8 -5.312870392213335e-8
          0 -2.6535462896563703e-8 -5.3070774826806846e-8 0 0 -2.6325978875396825e-8
          -2.6283529513992127e-8 -5.265230163116674e-8 -5.2566486605936386e-8 0 0 -2.620453101227566e-8
          -2.6162678302809147e-8 -5.2409392427026885e-8 -5.232490644638508e-8 0 -2.6277560669209323e-8 -5.255431949402218e-8
          0 -2.61064020956214e-8 -5.221250724471987e-8 0 -2.6478416559840988e-8 -5.295659304761675e-8
          0 0 -2.6355942296563582e-8 -2.6330285924515584e-8 -5.2711819746271014e-8 -5.266071995076894e-8
          0 0 0 -2.6188009508606537e-8 -2.621342116232893e-8 -2.6198954334914988e-8
          -5.237456302298604e-8 -5.242908869707224e-8 -5.2398215471221286e-8 0 0 -2.6205236853432163e-8
          -2.6242147080250186e-8 -5.240704015819131e-8 -5.248732074758054e-8 0 -2.6306688904072333e-8 -5.2614124923907656e-8
          0 -2.6208853224364935e-8 -5.241764861178578e-8 0 -2.6173860134265606e-8 -5.234708899737011e-8
          0 -2.6465337916221646e-8 -5.293022499339841e-8 0 -2.611977812957057e-8 -5.2239237004378024e-8
          0 0 -2.6266801673445753e-8 -2.6280283210176438e-8 -5.253340985089403e-8 -5.256064585029953e-8
          0 -2.6525607863499644e-8 -5.305125473329408e-8 0 0 0
          -2.6351180074569485e-8 -2.6368639697226217e-8 -2.6379468767799488e-8 -5.2702387598864316e-8 -5.273735532684792e-8 -5.275862940325469e-8
          0 0 -2.6419450327918784e-8 -2.6420402862755652e-8 -5.283920825065801e-8 -5.284074322521499e-8
          0 0 -2.6499025763571826e-8 -2.6522505971471676e-8 -5.2997958087594757e-8 -5.304534281884755e-8
          0 -2.6420177065625358e-8 -5.284026704309546e-8 0 0 0
          -2.6567575489850787e-8 -2.660128567432496e-8 -2.6581031815314073e-8 -5.31354673254393e-8 -5.3202638304412677e-8 -5.31615968119932e-8
          0 -2.6551322373492654e-8 -5.3102730907630607e-8 0 0 -2.641478079561823e-8
          -2.6431584248178067e-8 -5.282969876567321e-8 -5.2863382724498776e-8 0 0 -2.6555169531773554e-8
          -2.6569299656377514e-8 -5.311066239572027e-8 -5.313863922413264e-8 0 -2.639924636366074e-8 -5.279845672773714e-8
          0 -2.6497825293942476e-8 -5.2995093588958193e-8 0 -2.646717392432848e-8 -5.2934201966761105e-8
          0 -2.6291490438324348e-8 -5.258276811624533e-8 0 -2.6302379939936472e-8 -5.2604719778754554e-8
          0 -2.6569787493963824e-8 -5.313894579892251e-8 0 0 -2.6313495790302205e-8
          -2.6333200035120166e-8 -5.2627018900308604e-8 -5.266633416124444e-8 0 0 -2.6516668036530637e-8
          -2.650340183405206e-8 -5.303211598967206e-8 -5.300668580736297e-8 0 -2.652133322619894e-8 -5.30423113730693e-8
          0 0 -2.631078987891937e-8 -2.635257580972762e-8 -5.2621192672999804e-8 -5.270453250368462e-8
          0 -2.6485933688381183e-8 -5.29716330002324e-8 0 0 -2.6602703108764183e-8
          -2.6619720966010692e-8 -5.320469404223074e-8 -5.323970020317648e-8 0 0 -2.6469820460222167e-8
          -2.6481277677518897e-8 -5.2939596118892827e-8 -5.296247743795556e-8 0 -2.638581869744895e-8 -5.277205800011441e-8
          0 -2.6388298579447686e-8 -5.277723995724146e-8 0 -2.6539169400956632e-8 -5.307839246969977e-8
          0 -2.6564509204490385e-8 -5.312900574866386e-8 0 -2.6445156458010047e-8 -5.2890312221181815e-8
          0 -2.645795388956158e-8 -5.291613524999245e-8
        </DataArray>
      </PointData>
      <CellData>
        <DataArray type="Int32" Name="libmesh_elem_id" format="ascii" RangeMin="1380" RangeMax="3259">
          1380 1381 1412 1413 1414 1415
          1416 1417 1428 1429 1430 1431
          1438 1439 1440 1441 1464 1465
          1472 1473 1480 1481 1484 1485
          1488 1489 1490 1491 1492 1493
          1496 1497 1516 1517 1534 1535
          1538 1539 1544 1545 1548 1549
          1556 1557 1562 1563 1568 1569
          1574 1575 1576 1577 1604 1605
          1610 1611 1620 1621 1626 1627
          1632 1633 1640 1641 1642 1643
          1644 1645 1646 1647 1660 1661
          1664 1665 1666 1667 1668 1669
          1670 1671 1674 1675 1676 1677
          1688 1689 1690 1691 1692 1693
          1694 1695 1706 1707 1716 1717
          1720 1721 1724 1725 1732 1733
          1736 1737 1738 1739 1742 1743
          1744 1745 1756 1757 1758 1759
          1768 1769 1776 1777 1780 1781
          1784 1785 1786 1787 1788 1789
          1792 1793 1796 1797 1800 1801
          1806 1807 1808 1809 1812 1813
          1820 1821 1822 1823 1826 1827
          1842 1843 1844 1845 1860 1861
          1870 1871 1886 1887 1898 1899
          1912 1913 1934 1935 1938 1939
          1940 1941 1954 1955 1958 1959
          1962 1963 1964 1965 1966 1967
          1974 1975 1976 1977 1978 1979
          1980 1981 1984 1985 1990 1991
          1992 1993 1994 1995 2002 2003
          2012 2013 2016 2017 2022 2023
          2032 2033 2034 2035 2036 2037
          2042 2043 2056 2057 2066 2067
          2072 2073 2076 2077 2080 2081
          2086 2087 2090 2091 2094 2095
          2098 2099 2104 2105 2108 2109
          2114 2115 2118 2119 2122 2123
          2142 2143 2152 2153 2156 2157
          2168 2169 2172 2173 2174 2175
          2182 2183 2188 2189 2190 2191
          2192 2193 2194 2195 2198 2199
          2210 2211 2240 2241 2272 2273
          2280 2281 2300 2301 2322 2323
          2326 2327 2338 2339 2376 2377
          2378 2379 2380 2381 2384 2385
          2386 2387 2388 2389 2394 2395
          2428 2429 2438 2439 2446 2447
          2454 2455 2492 2493 2508 2509
          2514 2515 2516 2517 2528 2529
          2536 2537 2538 2539 2544 2545
          2548 2549 2552 2553 2576 2577
          2604 2605 2606 2607 2614 2615
          2618 2619 2626 2627 2630 2631
          2632 2633 2652 2653 2654 2655
          2674 2675 2676 2677 2686 2687
          2692 2693 2698 2699 2706 2707
          2712 2713 2718 2719 2728 2729
          2730 2731 2732 2733 2744 2745
          2752 2753 2758 2759 2770 2771
          2784 2785 2786 2787 2792 2793
          2812 2813 2816 2817 2818 2819
          2820 2821 2842 2843 2856 2857
          2866 2867 2882 2883 2894 2895
          2900 2901 2906 2907 2914 2915
          2942 2943 2970 2971 2976 2977
          2992 2993 3010 3011 3012 3013
          3016 3017 3046 3047 3056 3057
          3058 3059 3070 3071 3078 3079
          3084 3085 3094 3095 3098 3099
          3118 3119 3122 3123 3128 3129
          3134 3135 3152 3153 3180 3181
          3192 3193 3196 3197 3200 3201
          3202 3203 3214 3215 3244 3245
          3248 3249 3258 3259
        </DataArray>
        <DataArray type="Int32" Name="subdomain_id" format="ascii" RangeMin="107" RangeMax="107">
          107 107 107 107 107 107
          107 107 107 107 107 107
          107 107 107 107 107 107
          107 107 107 107 107 107
          107 107 107 107 107 107
          107 107 107 107 107 107
          107 107 107 107 107 107
          107 107 107 107 107 107
          107 107 107 107 107 107
          107 107 107 107 107 107
          107 107 107 107 107 107
          107 107 107 107 107 107
          107 107 107 107 107 107
          107 107 107 107 107 107
          107 107 107 107 107 107
          107 107 107 107 107 107
          107 107 107 107 107 107
          107 107 107 107 107 107
          107 107 107 107 107 107
          107 107 107 107 107 107
          107 107 107 107 107 107
          107 107 107 107 107 107
          107 107 107 107 107 107
          107 107 107 107 107 107
          107 107 107 107 107 107
          107 107 107 107 107 107
          107 107 107 107 107 107
          107 107 107 107 107 107
          107 107 107 107 107 107
          107 107 107 107 107 107
          107 107 107 107 107 107
          107 107 107 107 107 107
          107 107 107 107 107 107
          107 107 107 107 107 107
          107 107 107 107 107 107
          107 107 107 107 107 107
          107 107 107 107 107 107
          107 107 107 107 107 107
          107 107 107 107 107 107
          107 107 107 107 107 107
          107 107 107 107 107 107
          107 107 107 107 107 107
          107 107 107 107 107 107
          107 107 107 107 107 107
          107 107 107 107 107 107
          107 107 107 107 107 107
          107 107 107 107 107 107
          107 107 107 107 107 107
          107 107 107 107 107 107
          107 107 107 107 107 107
          107 107 107 107 107 107
          107 107 107 107 107 107
          107 107 107 107 107 107
          107 107 107 107 107 107
          107 107 107 107 107 107
          107 107 107 107 107 107
          107 107 107 107 107 107
          107 107 107 107 107 107
          107 107 107 107 107 107
          107 107 107 107 107 107
          107 107 107 107 107 107
          107 107 107 107 107 107
          107 107 107 107 107 107
          107 107 107 107 107 107
          107 107 107 107 107 107
          107 107 107 107 107 107
          107 107 107 107 107 107
          107 107 107 107 107 107
          107 107 107 107 107 107
          107 107 107 107 107 107
          107 107 107 107 107 107
          107 107 107 107 107 107
          107 107 107 107 107 107
          107 107 107 107 107 107
          107 107 107 107 107 107
          107 107 107 107
        </DataArray>
        <DataArray type="Int32" Name="processor_id" format="ascii" RangeMin="3" RangeMax="3">
          3 3 3 3 3 3
          3 3 3 3 3 3
          3 3 3 3 3 3
          3 3 3 3 3 3
          3 3 3 3 3 3
          3 3 3 3 3 3
          3 3 3 3 3 3
          3 3 3 3 3 3
          3 3 3 3 3 3
          3 3 3 3 3 3
          3 3 3 3 3 3
          3 3 3 3 3 3
          3 3 3 3 3 3
          3 3 3 3 3 3
          3 3 3 3 3 3
          3 3 3 3 3 3
          3 3 3 3 3 3
          3 3 3 3 3 3
          3 3 3 3 3 3
          3 3 3 3 3 3
          3 3 3 3 3 3
          3 3 3 3 3 3
          3 3 3 3 3 3
          3 3 3 3 3 3
          3 3 3 3 3 3
          3 3 3 3 3 3
          3 3 3 3 3 3
          3 3 3 3 3 3
          3 3 3 3 3 3
          3 3 3 3 3 3
          3 3 3 3 3 3
          3 3 3 3 3 3
          3 3 3 3 3 3
          3 3 3 3 3 3
          3 3 3 3 3 3
          3 3 3 3 3 3
          3 3 3 3 3 3
          3 3 3 3 3 3
          3 3 3 3 3 3
          3 3 3 3 3 3
          3 3 3 3 3 3
          3 3 3 3 3 3
          3 3 3 3 3 3
          3 3 3 3 3 3
          3 3 3 3 3 3
          3 3 3 3 3 3
          3 3 3 3 3 3
          3 3 3 3 3 3
          3 3 3 3 3 3
          3 3 3 3 3 3
          3 3 3 3 3 3
          3 3 3 3 3 3
          3 3 3 3 3 3
          3 3 3 3 3 3
          3 3 3 3 3 3
          3 3 3 3 3 3
          3 3 3 3 3 3
          3 3 3 3 3 3
          3 3 3 3 3 3
          3 3 3 3 3 3
          3 3 3 3 3 3
          3 3 3 3 3 3
          3 3 3 3 3 3
          3 3 3 3 3 3
          3 3 3 3 3 3
          3 3 3 3 3 3
          3 3 3 3 3 3
          3 3 3 3 3 3
          3 3 3 3 3 3
          3 3 3 3 3 3
          3 3 3 3 3 3
          3 3 3 3 3 3
          3 3 3 3 3 3
          3 3 3 3 3 3
          3 3 3 3 3 3
          3 3 3 3
        </DataArray>
      </CellData>
      <Points>
        <DataArray type="Float64" Name="Points" NumberOfComponents="3" format="ascii" RangeMin="0.013166738443807365" RangeMax="0.02374822585851783">
          0.016451229180203 0.011589607556601 0 0.016255198485848 0.011015934042219 0
          0.016728572005863 0.010757201031786 0 0.017039955631379 0.011194422572054 0
          0.016451229180203 0.011589607556601 0.00015 0.016255198485848 0.011015934042219 0.00015
          0.016728572005863 0.010757201031786 0.00015 0.017039955631379 0.011194422572054 0.00015
          0.016451229180203 0.011589607556601 0.0003 0.016255198485848 0.011015934042219 0.0003
          0.016728572005863 0.010757201031786 0.0003 0.017039955631379 0.011194422572054 0.0003
          0.011186406523754 0.0095188731742926 0 0.010689703280164 0.0094649590365737 0
          0.010634679710187 0.008964429555675 0 0.011131650337527 0.0089687060727404 0
          0.011186406523754 0.0095188731742926 0.00015 0.010689703280164 0.0094649590365737 0.00015
          0.010634679710187 0.008964429555675 0.00015 0.011131650337527 0.0089687060727404 0.00015
          0.011186406523754 0.0095188731742926 0.0003 0.010689703280164 0.0094649590365737 0.0003
          0.010634679710187 0.008964429555675 0.0003 0.011131650337527 0.0089687060727404 0.0003
          0.010158980545183 0.0089928081418126 0 0.010158980545183 0.0089928081418126 0.00015
          0.010158980545183 0.0089928081418126 0.0003 0.010234809282542 0.0094751596931164 0
          0.010234809282542 0.0094751596931164 0.00015 0.010234809282542 0.0094751596931164 0.0003
          0.017215305681839 0.010421173498473 0 0.017538322616078 0.010852535251392 0
          0.017215305681839 0.010421173498473 0.00015 0.017538322616078 0.010852535251392 0.00015
          0.017215305681839 0.010421173498473 0.0003 0.017538322616078 0.010852535251392 0.0003
          0.015522227276376 0.0083950727535023 0 0.015339273065407 0.0078314073000753 0
          0.015832583415208 0.0077039482324782 0 0.015871156677641 0.0080932538621961 0
          0.015522227276376 0.0083950727535023 0.00015 0.015339273065407 0.0078314073000753 0.00015
          0.015832583415208 0.0077039482324782 0.00015 0.015871156677641 0.0080932538621961 0.00015
          0.015522227276376 0.0083950727535023 0.0003 0.015339273065407 0.0078314073000753 0.0003
          0.015832583415208 0.0077039482324782 0.0003 0.015871156677641 0.0080932538621961 0.0003
          0.014182404182597 0.012030933394166 0 0.014112697634716 0.011586899500601 0
          0.01453762000082 0.011541498939039 0 0.014647727851392 0.011956202120878 0
          0.014182404182597 0.012030933394166 0.00015 0.014112697634716 0.011586899500601 0.00015
          0.01453762000082 0.011541498939039 0.00015 0.014647727851392 0.011956202120878 0.00015
          0.014182404182597 0.012030933394166 0.0003 0.014112697634716 0.011586899500601 0.0003
          0.01453762000082 0.011541498939039 0.0003 0.014647727851392 0.011956202120878 0.0003
          0.012718807262617 0.012100913225318 0 0.01318790653826 0.012081424726463 0
          0.013223560157694 0.012548837560718 0 0.012721969255655 0.012547975923311 0
          0.012718807262617 0.012100913225318 0.00015 0.01318790653826 0.012081424726463 0.00015
          0.013223560157694 0.012548837560718 0.00015 0.012721969255655 0.012547975923311 0.00015
          0.012718807262617 0.012100913225318 0.0003 0.01318790653826 0.012081424726463 0.0003
          0.013223560157694 0.012548837560718 0.0003 0.012721969255655 0.012547975923311 0.0003
          0.015037276113604 0.0053883886132418 0 0.014872829902632 0.0048660088618751 0
          0.015610482342583 0.0052949834846695 0 0.015037276113604 0.0053883886132418 0.00015
          0.014872829902632 0.0048660088618751 0.00015 0.015610482342583 0.0052949834846695 0.00015
          0.015037276113604 0.0053883886132418 0.0003 0.014872829902632 0.0048660088618751 0.0003
          0.015610482342583 0.0052949834846695 0.0003 0.012853333735139 0.0071862564407273 0
          0.013298874998351 0.0073010052974168 0 0.013468505581478 0.0077481198485017 0
          0.012879769579272 0.0077824950988095 0 0.012853333735139 0.0071862564407273 0.00015
          0.013298874998351 0.0073010052974168 0.00015 0.013468505581478 0.0077481198485017 0.00015
          0.012879769579272 0.0077824950988095 0.00015 0.012853333735139 0.0071862564407273 0.0003
          0.013298874998351 0.0073010052974168 0.0003 0.013468505581478 0.0077481198485017 0.0003
          0.012879769579272 0.0077824950988095 0.0003 0.012310751390795 0.0073009210446318 0
          0.012310751390795 0.0073009210446318 0.00015 0.012310751390795 0.0073009210446318 0.0003
          0.016440539131042 0.010340248821358 0 0.016895401758078 0.0099970418145034 0
          0.016440539131042 0.010340248821358 0.00015 0.016895401758078 0.0099970418145034 0.00015
          0.016440539131042 0.010340248821358 0.0003 0.016895401758078 0.0099970418145034 0.0003
          0.015674284513358 0.012057735082989 0 0.015799992883172 0.011590312491375 0
          0.01620648935985 0.012173309797103 0 0.015674284513358 0.012057735082989 0.00015
          0.015799992883172 0.011590312491375 0.00015 0.01620648935985 0.012173309797103 0.00015
          0.015674284513358 0.012057735082989 0.0003 0.015799992883172 0.011590312491375 0.0003
          0.01620648935985 0.012173309797103 0.0003 0.015719396244314 0.0096761034796614 0
          0.015317179218416 0.010039615829248 0 0.014916285335657 0.0096823062625427 0
          0.015356151892906 0.0093633130446295 0 0.015719396244314 0.0096761034796614 0.00015
          0.015317179218416 0.010039615829248 0.00015 0.014916285335657 0.0096823062625427 0.00015
          0.015356151892906 0.0093633130446295 0.00015 0.015719396244314 0.0096761034796614 0.0003
          0.015317179218416 0.010039615829248 0.0003 0.014916285335657 0.0096823062625427 0.0003
          0.015356151892906 0.0093633130446295 0.0003 0.014911939516014 0.011080222539295 0
          0.01492908374418 0.011511002202991 0 0.014470673144967 0.011122308960465 0
          0.014911939516014 0.011080222539295 0.00015 0.01492908374418 0.011511002202991 0.00015
          0.014470673144967 0.011122308960465 0.00015 0.014911939516014 0.011080222539295 0.0003
          0.01492908374418 0.011511002202991 0.0003 0.014470673144967 0.011122308960465 0.0003
          0.014927498433442 0.011816834084778 0 0.015214955739546 0.01195124117686 0
          0.014868481741766 0.012398226678167 0 0.014927498433442 0.011816834084778 0.00015
          0.015214955739546 0.01195124117686 0.00015 0.014868481741766 0.012398226678167 0.00015
          0.014927498433442 0.011816834084778 0.0003 0.015214955739546 0.01195124117686 0.0003
          0.014868481741766 0.012398226678167 0.0003 0.014887382940214 0.010512753679506 0
          0.01433465747601 0.010724165901292 0 0.014030150330029 0.010370439204794 0
          0.01444626395613 0.010022024912649 0 0.014887382940214 0.010512753679506 0.00015
          0.01433465747601 0.010724165901292 0.00015 0.014030150330029 0.010370439204794 0.00015
          0.01444626395613 0.010022024912649 0.00015 0.014887382940214 0.010512753679506 0.0003
          0.01433465747601 0.010724165901292 0.0003 0.014030150330029 0.010370439204794 0.0003
          0.01444626395613 0.010022024912649 0.0003 0.013388886812482 0.0083497293814167 0
          0.012899574253998 0.0083038014764745 0 0.013388886812482 0.0083497293814167 0.00015
          0.012899574253998 0.0083038014764745 0.00015 0.013388886812482 0.0083497293814167 0.0003
          0.012899574253998 0.0083038014764745 0.0003 0.015784016264429 0.0071345425111119 0
          0.016328429431772 0.0071626451349231 0 0.016328043288569 0.0077322573762078 0
          0.015784016264429 0.0071345425111119 0.00015 0.016328429431772 0.0071626451349231 0.00015
          0.016328043288569 0.0077322573762078 0.00015 0.015784016264429 0.0071345425111119 0.0003
          0.016328429431772 0.0071626451349231 0.0003 0.016328043288569 0.0077322573762078 0.0003
          0.016727166785252 0.0084386331054829 0 0.01644772366367 0.0089064975551763 0
          0.016002189190704 0.0086574712541786 0 0.016221340977963 0.0082297464535469 0
          0.016727166785252 0.0084386331054829 0.00015 0.01644772366367 0.0089064975551763 0.00015
          0.016002189190704 0.0086574712541786 0.00015 0.016221340977963 0.0082297464535469 0.00015
          0.016727166785252 0.0084386331054829 0.0003 0.01644772366367 0.0089064975551763 0.0003
          0.016002189190704 0.0086574712541786 0.0003 0.016221340977963 0.0082297464535469 0.0003
          0.018901908985383 0.011783468628847 0 0.018328257152057 0.011560564570719 0
          0.018901908985383 0.011783468628847 0.00015 0.018328257152057 0.011560564570719 0.00015
          0.018901908985383 0.011783468628847 0.0003 0.018328257152057 0.011560564570719 0.0003
          0.016817438697449 0.012401495631919 0 0.016895899239308 0.011880939878953 0
          0.016817438697449 0.012401495631919 0.00015 0.016895899239308 0.011880939878953 0.00015
          0.016817438697449 0.012401495631919 0.0003 0.016895899239308 0.011880939878953 0.0003
          0.010475172867508 0.012102844227475 0 0.010669582432454 0.011743114144408 0
          0.010475172867508 0.012102844227475 0.00015 0.010669582432454 0.011743114144408 0.00015
          0.010475172867508 0.012102844227475 0.0003 0.010669582432454 0.011743114144408 0.0003
          0.018198082784875 0.0097658337520035 0 0.018455934862008 0.010221918525687 0
          0.018019877493881 0.01050989807829 0 0.017698489924893 0.010066971919266 0
          0.018198082784875 0.0097658337520035 0.00015 0.018455934862008 0.010221918525687 0.00015
          0.018019877493881 0.01050989807829 0.00015 0.017698489924893 0.010066971919266 0.00015
          0.018198082784875 0.0097658337520035 0.0003 0.018455934862008 0.010221918525687 0.0003
          0.018019877493881 0.01050989807829 0.0003 0.017698489924893 0.010066971919266 0.0003
          0.015096658749896 0.0059763609132825 0 0.015666288430535 0.0059190759170471 0
          0.015096658749896 0.0059763609132825 0.00015 0.015666288430535 0.0059190759170471 0.00015
          0.015096658749896 0.0059763609132825 0.0003 0.015666288430535 0.0059190759170471 0.0003
          0.013546901289865 0.0069836782833127 0 0.013134929749538 0.0067248500217048 0
          0.013546901289865 0.0069836782833127 0.00015 0.013134929749538 0.0067248500217048 0.00015
          0.013546901289865 0.0069836782833127 0.0003 0.013134929749538 0.0067248500217048 0.0003
          0.013831418153218 0.0064982603089606 0 0.013338214474932 0.0062766362868091 0
          0.013831418153218 0.0064982603089606 0.00015 0.013338214474932 0.0062766362868091 0.00015
          0.013831418153218 0.0064982603089606 0.0003 0.013338214474932 0.0062766362868091 0.0003
          0.017908784385217 0.011229685010797 0 0.017908784385217 0.011229685010797 0.00015
          0.017908784385217 0.011229685010797 0.0003 0.017460830811305 0.0067242961174433 0
          0.017460830811305 0.0067242961174433 0.00015 0.017460830811305 0.0067242961174433 0.0003
          0.016232724398465 0.0059010997942707 0 0.016810957053741 0.0059693958220605 0
          0.016865945400018 0.0066157033945985 0 0.016287343165999 0.0065221003589061 0
          0.016232724398465 0.0059010997942707 0.00015 0.016810957053741 0.0059693958220605 0.00015
          0.016865945400018 0.0066157033945985 0.00015 0.016287343165999 0.0065221003589061 0.00015
          0.016232724398465 0.0059010997942707 0.0003 0.016810957053741 0.0059693958220605 0.0003
          0.016865945400018 0.0066157033945985 0.0003 0.016287343165999 0.0065221003589061 0.0003
          0.015434451036398 0.0088351663483508 0 0.015091649000167 0.0090065479673052 0
          0.0149386527618 0.008562942865766 0 0.015434451036398 0.0088351663483508 0.00015
          0.015091649000167 0.0090065479673052 0.00015 0.0149386527618 0.008562942865766 0.00015
          0.015434451036398 0.0088351663483508 0.0003 0.015091649000167 0.0090065479673052 0.0003
          0.0149386527618 0.008562942865766 0.0003 0.013851103268646 0.0079817773379183 0
          0.013864053371773 0.0083733293390323 0 0.013851103268646 0.0079817773379183 0.00015
          0.013864053371773 0.0083733293390323 0.00015 0.013851103268646 0.0079817773379183 0.0003
          0.013864053371773 0.0083733293390323 0.0003 0.016873832756735 0.0078915607150548 0
          0.016873832756735 0.0078915607150548 0.00015 0.016873832756735 0.0078915607150548 0.0003
          0.011740832768399 0.012550565772382 0 0.011781425344485 0.012080160842703 0
          0.012267797740114 0.012087686226532 0 0.012238354096222 0.012547223275944 0
          0.011740832768399 0.012550565772382 0.00015 0.011781425344485 0.012080160842703 0.00015
          0.012267797740114 0.012087686226532 0.00015 0.012238354096222 0.012547223275944 0.00015
          0.011740832768399 0.012550565772382 0.0003 0.011781425344485 0.012080160842703 0.0003
          0.012267797740114 0.012087686226532 0.0003 0.012238354096222 0.012547223275944 0.0003
          0.015724816214821 0.0065169349202822 0 0.015724816214821 0.0065169349202822 0.00015
          0.015724816214821 0.0065169349202822 0.0003 0.016904663245172 0.0072759580116152 0
          0.016904663245172 0.0072759580116152 0.00015 0.016904663245172 0.0072759580116152 0.0003
          0.016212759806586 0.0053000490100875 0 0.016212759806586 0.0053000490100875 0.00015
          0.016212759806586 0.0053000490100875 0.0003 0.017422284858474 0.011679101640391 0
          0.017908527792884 0.011814582379248 0 0.017422284858474 0.011679101640391 0.00015
          0.017908527792884 0.011814582379248 0.00015 0.017422284858474 0.011679101640391 0.0003
          0.017908527792884 0.011814582379248 0.0003 0.017261702763099 0.0086939606584207 0
          0.017434489396122 0.0080779876667089 0 0.017261702763099 0.0086939606584207 0.00015
          0.017434489396122 0.0080779876667089 0.00015 0.017261702763099 0.0086939606584207 0.0003
          0.017434489396122 0.0080779876667089 0.0003 0.014181033506022 0.0077713348891544 0
          0.014325604474543 0.0082610969383043 0 0.014181033506022 0.0077713348891544 0.00015
          0.014325604474543 0.0082610969383043 0.00015 0.014181033506022 0.0077713348891544 0.0003
          0.014325604474543 0.0082610969383043 0.0003 0.016099115219063 0.0099899847281115 0
          0.016520689982407 0.0096278486407962 0 0.016099115219063 0.0099899847281115 0.00015
          0.016520689982407 0.0096278486407962 0.00015 0.016099115219063 0.0099899847281115 0.0003
          0.016520689982407 0.0096278486407962 0.0003 0.014613026918956 0.0092413149543641 0
          0.014613026918956 0.0092413149543641 0.00015 0.014613026918956 0.0092413149543641 0.0003
          0.016937453954769 0.0092095292918499 0 0.017364558514239 0.0096012653805297 0
          0.016937453954769 0.0092095292918499 0.00015 0.017364558514239 0.0096012653805297 0.00015
          0.016937453954769 0.0092095292918499 0.0003 0.017364558514239 0.0096012653805297 0.0003
          0.015712843676617 0.010331364913168 0 0.016032046384524 0.010629553115583 0
          0.015712843676617 0.010331364913168 0.00015 0.016032046384524 0.010629553115583 0.00015
          0.015712843676617 0.010331364913168 0.0003 0.016032046384524 0.010629553115583 0.0003
          0.01346343572409 0.0057857389411653 0 0.01346343572409 0.0057857389411653 0.00015
          0.01346343572409 0.0057857389411653 0.0003 0.015150761096164 0.0066142159223768 0
          0.015150761096164 0.0066142159223768 0.00015 0.015150761096164 0.0066142159223768 0.0003
          0.015453261139866 0.010697023165802 0 0.015761290368715 0.010819971207646 0
          0.015453261139866 0.010697023165802 0.00015 0.015761290368715 0.010819971207646 0.00015
          0.015453261139866 0.010697023165802 0.0003 0.015761290368715 0.010819971207646 0.0003
          0.013975551316416 0.0059398855735222 0 0.013975551316416 0.0059398855735222 0.00015
          0.013975551316416 0.0059398855735222 0.0003 0.017479032913359 0.0074088673936633 0
          0.017479032913359 0.0074088673936633 0.00015 0.017479032913359 0.0074088673936633 0.0003
          0.014439802315681 0.0067889662935499 0 0.014530319307898 0.006021518089632 0
          0.014439802315681 0.0067889662935499 0.00015 0.014530319307898 0.006021518089632 0.00015
          0.014439802315681 0.0067889662935499 0.0003 0.014530319307898 0.006021518089632 0.0003
          0.014431521900925 0.0087663339265048 0 0.013899975831329 0.0088854517032459 0
          0.014431521900925 0.0087663339265048 0.00015 0.013899975831329 0.0088854517032459 0.00015
          0.014431521900925 0.0087663339265048 0.0003 0.013899975831329 0.0088854517032459 0.0003
          0.015334349753872 0.011547922560075 0 0.015363465895193 0.011114260619116 0
          0.015801980011793 0.011137474992711 0 0.015334349753872 0.011547922560075 0.00015
          0.015363465895193 0.011114260619116 0.00015 0.015801980011793 0.011137474992711 0.00015
          0.015334349753872 0.011547922560075 0.0003 0.015363465895193 0.011114260619116 0.0003
          0.015801980011793 0.011137474992711 0.0003 0.01326617738197 0.0093680808515997 0
          0.012793423392144 0.00921210926252 0 0.012882512800283 0.0087881474090036 0
          0.013365259810227 0.0088714473068585 0 0.01326617738197 0.0093680808515997 0.00015
          0.012793423392144 0.00921210926252 0.00015 0.012882512800283 0.0087881474090036 0.00015
          0.013365259810227 0.0088714473068585 0.00015 0.01326617738197 0.0093680808515997 0.0003
          0.012793423392144 0.00921210926252 0.0003 0.012882512800283 0.0087881474090036 0.0003
          0.013365259810227 0.0088714473068585 0.0003 0.011993243876189 0.010936510200926 0
          0.011726815341297 0.011491075647124 0 0.011222013645511 0.011097826594996 0
          0.011481744371717 0.010688234667639 0 0.011993243876189 0.010936510200926 0.00015
          0.011726815341297 0.011491075647124 0.00015 0.011222013645511 0.011097826594996 0.00015
          0.011481744371717 0.010688234667639 0.00015 0.011993243876189 0.010936510200926 0.0003
          0.011726815341297 0.011491075647124 0.0003 0.011222013645511 0.011097826594996 0.0003
          0.011481744371717 0.010688234667639 0.0003 0.013923252507151 0.0073329122207352 0
          0.013923252507151 0.0073329122207352 0.00015 0.013923252507151 0.0073329122207352 0.0003
          0.013063793506476 0.0098271989985527 0 0.012601634550352 0.009590277262082 0
          0.013063793506476 0.0098271989985527 0.00015 0.012601634550352 0.009590277262082 0.00015
          0.013063793506476 0.0098271989985527 0.0003 0.012601634550352 0.009590277262082 0.0003
          0.014102855237989 0.0047969187863067 0 0.013905759673286 0.0043612537888552 0
          0.014102855237989 0.0047969187863067 0.00015 0.013905759673286 0.0043612537888552 0.00015
          0.014102855237989 0.0047969187863067 0.0003 0.013905759673286 0.0043612537888552 0.0003
          0.012852488428802 0.010265076045094 0 0.012374691983482 0.010000797580735 0
          0.012852488428802 0.010265076045094 0.00015 0.012374691983482 0.010000797580735 0.00015
          0.012852488428802 0.010265076045094 0.0003 0.012374691983482 0.010000797580735 0.0003
          0.011668611956603 0.010219239111219 0 0.012182731119778 0.010462377133106 0
          0.011668611956603 0.010219239111219 0.00015 0.012182731119778 0.010462377133106 0.00015
          0.011668611956603 0.010219239111219 0.0003 0.012182731119778 0.010462377133106 0.0003
          0.011158560753842 0.010029990414111 0 0.011017968815575 0.010465683342369 0
          0.011158560753842 0.010029990414111 0.00015 0.011017968815575 0.010465683342369 0.00015
          0.011158560753842 0.010029990414111 0.0003 0.011017968815575 0.010465683342369 0.0003
          0.014820390261339 0.0080402105998384 0 0.014820390261339 0.0080402105998384 0.00015
          0.014820390261339 0.0080402105998384 0.0003 0.015228397699353 0.0072512250897894 0
          0.015228397699353 0.0072512250897894 0.00015 0.015228397699353 0.0072512250897894 0.0003
          0.0130361735465 0.011522072885309 0 0.012689359184487 0.011761634268536 0
          0.012340499111532 0.011632501505239 0 0.012497431968462 0.011183651982421 0
          0.0130361735465 0.011522072885309 0.00015 0.012689359184487 0.011761634268536 0.00015
          0.012340499111532 0.011632501505239 0.00015 0.012497431968462 0.011183651982421 0.00015
          0.0130361735465 0.011522072885309 0.0003 0.012689359184487 0.011761634268536 0.0003
          0.012340499111532 0.011632501505239 0.0003 0.012497431968462 0.011183651982421 0.0003
          0.013528941600065 0.0052742966774397 0 0.014027103455945 0.0053875982273864 0
          0.013528941600065 0.0052742966774397 0.00015 0.014027103455945 0.0053875982273864 0.00015
          0.013528941600065 0.0052742966774397 0.0003 0.014027103455945 0.0053875982273864 0.0003
          0.010128205128219 0.013 0 0.010310686327751 0.012539165738252 0
          0.010788384596096 0.012564579045747 0 0.01064102564104 0.013 0
          0.010128205128219 0.013 0.00015 0.010310686327751 0.012539165738252 0.00015
          0.010788384596096 0.012564579045747 0.00015 0.01064102564104 0.013 0.00015
          0.010128205128219 0.013 0.0003 0.010310686327751 0.012539165738252 0.0003
          0.010788384596096 0.012564579045747 0.0003 0.01064102564104 0.013 0.0003
          0.010783127360108 0.010836567412064 0 0.010385522435479 0.010608007769118 0
          0.010601303654319 0.010290632654442 0 0.010783127360108 0.010836567412064 0.00015
          0.010385522435479 0.010608007769118 0.00015 0.010601303654319 0.010290632654442 0.00015
          0.010783127360108 0.010836567412064 0.0003 0.010385522435479 0.010608007769118 0.0003
          0.010601303654319 0.010290632654442 0.0003 0.011818930007254 0.009602160287834 0
          0.011818930007254 0.009602160287834 0.00015 0.011818930007254 0.009602160287834 0.0003
          0.015715008716269 0.0090308288850156 0 0.01610853428864 0.0093166480881369 0
          0.015715008716269 0.0090308288850156 0.00015 0.01610853428864 0.0093166480881369 0.00015
          0.015715008716269 0.0090308288850156 0.0003 0.01610853428864 0.0093166480881369 0.0003
          0.013952831965685 0.0095243725467762 0 0.013572358856734 0.010071658883703 0
          0.013952831965685 0.0095243725467762 0.00015 0.013572358856734 0.010071658883703 0.00015
          0.013952831965685 0.0095243725467762 0.0003 0.013572358856734 0.010071658883703 0.0003
          0.012677817340078 0.010719835797972 0 0.012677817340078 0.010719835797972 0.00015
          0.012677817340078 0.010719835797972 0.0003 0.014678664229456 0.0074733115324236 0
          0.014678664229456 0.0074733115324236 0.00015 0.014678664229456 0.0074733115324236 0.0003
          0.012261506677236 0.0092701804285872 0 0.012499922412859 0.0090879994978671 0
          0.012261506677236 0.0092701804285872 0.00015 0.012499922412859 0.0090879994978671 0.00015
          0.012261506677236 0.0092701804285872 0.0003 0.012499922412859 0.0090879994978671 0.0003
          0.011270478587413 0.012561768236337 0 0.011153846153863 0.013 0
          0.011270478587413 0.012561768236337 0.00015 0.011153846153863 0.013 0.00015
          0.011270478587413 0.012561768236337 0.0003 0.011153846153863 0.013 0.0003
          0.012179487179506 0.013 0 0.012692307692328 0.013 0
          0.012179487179506 0.013 0.00015 0.012692307692328 0.013 0.00015
          0.012179487179506 0.013 0.0003 0.012692307692328 0.013 0.0003
          0.013205128205151 0.013 0 0.013721380024409 0.012538570920528 0
          0.013717948717973 0.013 0 0.013205128205151 0.013 0.00015
          0.013721380024409 0.012538570920528 0.00015 0.013717948717973 0.013 0.00015
          0.013205128205151 0.013 0.0003 0.013721380024409 0.012538570920528 0.0003
          0.013717948717973 0.013 0.0003 0.013680323008888 0.01206206640945 0
          0.0136362676363 0.011582155921186 0 0.013680323008888 0.01206206640945 0.00015
          0.0136362676363 0.011582155921186 0.00015 0.013680323008888 0.01206206640945 0.0003
          0.0136362676363 0.011582155921186 0.0003 0.011306940297591 0.012129646322267 0
          0.011212076662234 0.01173976422044 0 0.011306940297591 0.012129646322267 0.00015
          0.011212076662234 0.01173976422044 0.00015 0.011306940297591 0.012129646322267 0.0003
          0.011212076662234 0.01173976422044 0.0003 0.014247558447628 0.012512499343239 0
          0.014230769230793 0.013 0 0.014247558447628 0.012512499343239 0.00015
          0.014230769230793 0.013 0.00015 0.014247558447628 0.012512499343239 0.0003
          0.014230769230793 0.013 0.0003 0.010925822172272 0.011428925131881 0
          0.010925822172272 0.011428925131881 0.00015 0.010925822172272 0.011428925131881 0.0003
          0.017598702187272 0.012594388856786 0 0.018138509806267 0.012585421267124 0
          0.018333333333352 0.013 0 0.017820512820533 0.013 0
          0.017598702187272 0.012594388856786 0.00015 0.018138509806267 0.012585421267124 0.00015
          0.018333333333352 0.013 0.00015 0.017820512820533 0.013 0.00015
          0.017598702187272 0.012594388856786 0.0003 0.018138509806267 0.012585421267124 0.0003
          0.018333333333352 0.013 0.0003 0.017820512820533 0.013 0.0003
          0.01884615384617 0.013 0 0.018647619061649 0.012577247456601 0
          0.01884615384617 0.013 0.00015 0.018647619061649 0.012577247456601 0.00015
          0.01884615384617 0.013 0.0003 0.018647619061649 0.012577247456601 0.0003
          0.010939820280367 0.01187760398484 0 0.010939820280367 0.01187760398484 0.00015
          0.010939820280367 0.01187760398484 0.0003 0.014743589743616 0.013 0
          0.014743589743616 0.013 0.00015 0.014743589743616 0.013 0.0003
          0.013168261777023 0.010955167755454 0 0.013168261777023 0.010955167755454 0.00015
          0.013168261777023 0.010955167755454 0.0003 0.011620435633551 0.0089440866322713 0
          0.011620435633551 0.0089440866322713 0.00015 0.011620435633551 0.0089440866322713 0.0003
          0.01333281098878 0.010501143990949 0 0.01333281098878 0.010501143990949 0.00015
          0.01333281098878 0.010501143990949 0.0003 0.013640766026071 0.011115210745046 0
          0.014063261910082 0.011165191959691 0 0.013640766026071 0.011115210745046 0.00015
          0.014063261910082 0.011165191959691 0.00015 0.013640766026071 0.011115210745046 0.0003
          0.014063261910082 0.011165191959691 0.0003 0.013761635093034 0.010714997264381 0
          0.013761635093034 0.010714997264381 0.00015 0.013761635093034 0.010714997264381 0.0003
          0.01790845301636 0.0090613468730877 0 0.01790845301636 0.0090613468730877 0.00015
          0.01790845301636 0.0090613468730877 0.0003 0.010691300612525 0.0099168298135774 0
          0.010691300612525 0.0099168298135774 0.00015 0.010691300612525 0.0099168298135774 0.0003
          0.014509683505008 0.0050450954358061 0 0.014509683505008 0.0050450954358061 0.00015
          0.014509683505008 0.0050450954358061 0.0003 0.012373637985884 0.0077974643404521 0
          0.012419274731686 0.0083019280664676 0 0.012373637985884 0.0077974643404521 0.00015
          0.012419274731686 0.0083019280664676 0.00015 0.012373637985884 0.0077974643404521 0.0003
          0.012419274731686 0.0083019280664676 0.0003 0.014523119140279 0.0054383897453177 0
          0.014523119140279 0.0054383897453177 0.00015 0.014523119140279 0.0054383897453177 0.0003
          0.012468015808598 0.0087643938641043 0 0.012468015808598 0.0087643938641043 0.00015
          0.012468015808598 0.0087643938641043 0.0003 0.014041697947841 0.010862771985015 0
          0.014041697947841 0.010862771985015 0.00015 0.014041697947841 0.010862771985015 0.0003
          0.012067821946234 0.0088387705315247 0 0.012067821946234 0.0088387705315247 0.00015
          0.012067821946234 0.0088387705315247 0.0003 0.018063704813091 0.0075049932447581 0
          0.018063704813091 0.0075049932447581 0.00015 0.018063704813091 0.0075049932447581 0.0003
          0.01801805728244 0.008218173104411 0 0.01801805728244 0.008218173104411 0.00015
          0.01801805728244 0.008218173104411 0.0003 0.019162849649621 0.012571706415164 0
          0.019358974358988 0.013 0 0.019162849649621 0.012571706415164 0.00015
          0.019358974358988 0.013 0.00015 0.019162849649621 0.012571706415164 0.0003
          0.019358974358988 0.013 0.0003 0.015469042768348 0.012527612124711 0
          0.015256410256436 0.013 0 0.015469042768348 0.012527612124711 0.00015
          0.015256410256436 0.013 0.00015 0.015469042768348 0.012527612124711 0.0003
          0.015256410256436 0.013 0.0003 0.017482035345823 0.012218317378284 0
          0.017482035345823 0.012218317378284 0.00015 0.017482035345823 0.012218317378284 0.0003
          0.011666666666685 0.013 0 0.011666666666685 0.013 0.00015
          0.011666666666685 0.013 0.0003 0.013552812333296 0.0042895499786344 0
          0.013552812333296 0.0042895499786344 0.00015 0.013552812333296 0.0042895499786344 0.0003
          0.019003973493589 0.012129001566083 0 0.018491681451249 0.012137078785851 0
          0.019003973493589 0.012129001566083 0.00015 0.018491681451249 0.012137078785851 0.00015
          0.019003973493589 0.012129001566083 0.0003 0.018491681451249 0.012137078785851 0.0003
          0.016282051282076 0.013 0 0.016335894010033 0.012686725241599 0
          0.016794871794894 0.013 0 0.016282051282076 0.013 0.00015
          0.016335894010033 0.012686725241599 0.00015 0.016794871794894 0.013 0.00015
          0.016282051282076 0.013 0.0003 0.016335894010033 0.012686725241599 0.0003
          0.016794871794894 0.013 0.0003 0.017307692307713 0.013 0
          0.017281329535555 0.012689387511733 0 0.017307692307713 0.013 0.00015
          0.017281329535555 0.012689387511733 0.00015 0.017307692307713 0.013 0.0003
          0.017281329535555 0.012689387511733 0.0003 0.017996855365792 0.012159940978259 0
          0.017996855365792 0.012159940978259 0.00015 0.017996855365792 0.012159940978259 0.0003
          0.016023960213719 0.012601258532672 0 0.016023960213719 0.012601258532672 0.00015
          0.016023960213719 0.012601258532672 0.0003 0.015769230769256 0.013 0
          0.015769230769256 0.013 0.00015 0.015769230769256 0.013 0.0003
          0.013549428097692 0.0047645614477775 0 0.013549428097692 0.0047645614477775 0.00015
          0.013549428097692 0.0047645614477775 0.0003 0.010881954871342 0.01216105032025 0
          0.010881954871342 0.01216105032025 0.00015 0.010881954871342 0.01216105032025 0.0003
          0.010057653370411 0.0084974472595183 0 0.01054988842507 0.0084422245958245 0
          0.010057653370411 0.0084974472595183 0.00015 0.01054988842507 0.0084422245958245 0.00015
          0.010057653370411 0.0084974472595183 0.0003 0.01054988842507 0.0084422245958245 0.0003
          0.015535554193674 0.0045828394817383 0 0.015535554193674 0.0045828394817383 0.00015
          0.015535554193674 0.0045828394817383 0.0003 0.011832021157187 0.0073476785459853 0
          0.011779780861271 0.0068646395959748 0 0.012243708910156 0.0068324173193727 0
          0.011832021157187 0.0073476785459853 0.00015 0.011779780861271 0.0068646395959748 0.00015
          0.012243708910156 0.0068324173193727 0.00015 0.011832021157187 0.0073476785459853 0.0003
          0.011779780861271 0.0068646395959748 0.0003 0.012243708910156 0.0068324173193727 0.0003
          0.019357361519954 0.01157618305141 0 0.01884046117173 0.011223113854601 0
          0.019357361519954 0.01157618305141 0.00015 0.01884046117173 0.011223113854601 0.00015
          0.019357361519954 0.01157618305141 0.0003 0.01884046117173 0.011223113854601 0.0003
          0.014554004584986 0.0044253882271801 0 0.015005639561329 0.0040763460944633 0
          0.014554004584986 0.0044253882271801 0.00015 0.015005639561329 0.0040763460944633 0.00015
          0.014554004584986 0.0044253882271801 0.0003 0.015005639561329 0.0040763460944633 0.0003
          0.018384253973557 0.010894663204421 0 0.018384253973557 0.010894663204421 0.00015
          0.018384253973557 0.010894663204421 0.0003 0.017413401850906 0.0060417176080878 0
          0.018057579772584 0.0060827128421873 0 0.018070157245618 0.0068021820766994 0
          0.017413401850906 0.0060417176080878 0.00015 0.018057579772584 0.0060827128421873 0.00015
          0.018070157245618 0.0068021820766994 0.00015 0.017413401850906 0.0060417176080878 0.0003
          0.018057579772584 0.0060827128421873 0.0003 0.018070157245618 0.0068021820766994 0.0003
          0.016291762387835 0.0047307906783276 0 0.016291762387835 0.0047307906783276 0.00015
          0.016291762387835 0.0047307906783276 0.0003 0.012879713087233 0.0060908484912964 0
          0.012982043505355 0.0056371881930815 0 0.012879713087233 0.0060908484912964 0.00015
          0.012982043505355 0.0056371881930815 0.00015 0.012879713087233 0.0060908484912964 0.0003
          0.012982043505355 0.0056371881930815 0.0003 0.01678493258985 0.0053840721103251 0
          0.016848637368385 0.0048798435935376 0 0.01678493258985 0.0053840721103251 0.00015
          0.016848637368385 0.0048798435935376 0.00015 0.01678493258985 0.0053840721103251 0.0003
          0.016848637368385 0.0048798435935376 0.0003 0.012723582323863 0.006509831652106 0
          0.012723582323863 0.006509831652106 0.00015 0.012723582323863 0.006509831652106 0.0003
          0.014128459199836 0.0039835282877348 0 0.014128459199836 0.0039835282877348 0.00015
          0.014128459199836 0.0039835282877348 0.0003 0.018817000838468 0.010560792840001 0
          0.018817000838468 0.010560792840001 0.00015 0.018817000838468 0.010560792840001 0.0003
          0.011043213382792 0.0084269911709333 0 0.011043213382792 0.0084269911709333 0.00015
          0.011043213382792 0.0084269911709333 0.0003 0.011511795106494 0.0083968566041475 0
          0.011511795106494 0.0083968566041475 0.00015 0.011511795106494 0.0083968566041475 0.0003
          0.017341722495578 0.0054175123203669 0 0.017341722495578 0.0054175123203669 0.00015
          0.017341722495578 0.0054175123203669 0.0003 0.01196380743939 0.0083394019710021 0
          0.011894488312007 0.0078344841271679 0 0.01196380743939 0.0083394019710021 0.00015
          0.011894488312007 0.0078344841271679 0.00015 0.01196380743939 0.0083394019710021 0.0003
          0.011894488312007 0.0078344841271679 0.0003 0.018719100515555 0.0096191331103102 0
          0.018769006148643 0.010016813571171 0 0.018719100515555 0.0096191331103102 0.00015
          0.018769006148643 0.010016813571171 0.00015 0.018719100515555 0.0096191331103102 0.0003
          0.018769006148643 0.010016813571171 0.0003 0.019142781766586 0.010156284019367 0
          0.019142781766586 0.010156284019367 0.00015 0.019142781766586 0.010156284019367 0.0003
          0.019871794871807 0.013 0 0.019671681078705 0.012567114388191 0
          0.019871794871807 0.013 0.00015 0.019671681078705 0.012567114388191 0.00015
          0.019871794871807 0.013 0.0003 0.019671681078705 0.012567114388191 0.0003
          0.013590285783394 0.0038446716816234 0 0.013590285783394 0.0038446716816234 0.00015
          0.013590285783394 0.0038446716816234 0.0003 0.018696511924608 0.0075816988835645 0
          0.018734278863615 0.0068564365277259 0 0.018696511924608 0.0075816988835645 0.00015
          0.018734278863615 0.0068564365277259 0.00015 0.018696511924608 0.0075816988835645 0.0003
          0.018734278863615 0.0068564365277259 0.0003 0.013091675611077 0.0041736873632184 0
          0.013121586466294 0.0036708577033715 0 0.013091675611077 0.0041736873632184 0.00015
          0.013121586466294 0.0036708577033715 0.00015 0.013091675611077 0.0041736873632184 0.0003
          0.013121586466294 0.0036708577033715 0.0003 0.019497075330812 0.012129782091497 0
          0.019497075330812 0.012129782091497 0.00015 0.019497075330812 0.012129782091497 0.0003
          0.012592651705639 0.0068198098450163 0 0.012592651705639 0.0068198098450163 0.00015
          0.012592651705639 0.0068198098450163 0.0003 0.018655444813331 0.0089912542068827 0
          0.018655444813331 0.0089912542068827 0.00015 0.018655444813331 0.0089912542068827 0.0003
          0.018643245907353 0.0082916041839039 0 0.018643245907353 0.0082916041839039 0.00015
          0.018643245907353 0.0082916041839039 0.0003 0.013048655853798 0.0051555709380823 0
          0.013048655853798 0.0051555709380823 0.00015 0.013048655853798 0.0051555709380823 0.0003
          0.013084530633285 0.0046685927017207 0 0.013084530633285 0.0046685927017207 0.00015
          0.013084530633285 0.0046685927017207 0.0003
          <InformationKey name="L2_NORM_RANGE" location="vtkDataArray" length="2">
            <Value index="0">
              0.013166738444
            </Value>
            <Value index="1">
              0.023748225859
            </Value>
          </InformationKey>
        </DataArray>
      </Points>
      <Cells>
        <DataArray type="Int64" Name="connectivity" format="ascii" RangeMin="0" RangeMax="794">
          0 1 2 3 4 5
          6 7 4 5 6 7
          8 9 10 11 12 13
          14 15 16 17 18 19
          16 17 18 19 20 21
          22 23 666 667 14 24
          668 669 18 25 668 669
          18 25 670 671 22 26
          24 14 13 27 25 18
          17 28 25 18 17 28
          26 22 21 29 30 31
          3 2 32 33 7 6
          32 33 7 6 34 35
          11 10 36 37 38 39
          40 41 42 43 40 41
          42 43 44 45 46 47
          48 49 50 51 52 53
          54 55 52 53 54 55
          56 57 58 59 60 61
          62 63 64 65 66 67
          64 65 66 67 68 69
          70 71 72 73 672 74
          75 76 673 77 75 76
          673 77 78 79 674 80
          81 82 83 84 85 86
          87 88 85 86 87 88
          89 90 91 92 93 675
          676 677 94 678 679 680
          94 678 679 680 95 681
          682 683 2 96 97 30
          6 98 99 32 6 98
          99 32 10 100 101 34
          102 103 0 104 105 106
          4 107 105 106 4 107
          108 109 8 110 111 112
          113 114 115 116 117 118
          115 116 117 118 119 120
          121 122 123 124 50 125
          126 127 54 128 126 127
          54 128 129 130 58 131
          132 133 134 51 135 136
          137 55 135 136 137 55
          138 139 140 59 141 142
          143 144 145 146 147 148
          145 146 147 148 149 150
          151 152 112 141 144 113
          116 145 148 117 116 145
          148 117 120 149 152 121
          84 83 153 154 88 87
          155 156 88 87 155 156
          92 91 157 158 159 160
          161 38 162 163 164 42
          162 163 164 42 165 166
          167 46 168 169 170 171
          172 173 174 175 172 173
          174 175 176 177 178 179
          684 180 181 685 686 182
          183 687 686 182 183 687
          688 184 185 689 186 104
          0 187 188 107 4 189
          188 107 4 189 190 110
          8 191 690 691 672 73
          692 693 673 76 692 693
          673 76 694 695 674 79
          198 199 200 201 202 203
          204 205 202 203 204 205
          206 207 208 209 210 72
          74 211 212 75 77 213
          212 75 77 213 214 78
          80 215 216 82 81 217
          218 86 85 219 218 86
          85 219 220 90 89 221
          222 216 217 223 224 218
          219 225 224 218 219 225
          226 220 221 227 171 39
          38 161 175 43 42 164
          175 43 42 164 179 47
          46 167 228 696 685 181
          229 697 687 183 229 697
          687 183 230 698 689 185
          231 699 700 701 232 702
          703 704 232 702 703 704
          233 705 706 707 31 30
          201 200 33 32 205 204
          33 32 205 204 35 34
          209 208 234 235 236 237
          238 239 240 241 238 239
          240 241 242 243 244 245
          36 246 247 248 40 249
          250 251 40 249 250 251
          44 252 253 254 83 255
          256 153 87 257 258 155
          87 257 258 155 91 259
          260 157 235 699 231 236
          239 702 232 240 239 702
          232 240 243 705 233 244
          168 171 161 261 172 175
          164 262 172 175 164 262
          176 179 167 263 171 170
          36 39 175 174 40 43
          175 174 40 43 179 178
          44 47 264 265 266 267
          268 269 270 271 268 269
          270 271 272 273 274 275
          237 276 211 234 241 277
          213 238 241 277 213 238
          245 278 215 242 279 160
          237 236 280 163 241 240
          280 163 241 240 281 166
          245 244 234 211 74 282
          238 213 77 283 238 213
          77 283 242 215 80 284
          285 228 181 286 287 229
          183 288 287 229 183 288
          289 230 185 290 291 168
          261 292 293 172 262 294
          293 172 262 294 295 176
          263 296 297 298 256 255
          299 300 258 257 299 300
          258 257 301 302 260 259
          303 304 97 96 305 306
          99 98 305 306 99 98
          307 308 101 100 309 247
          114 113 310 250 118 117
          310 250 118 117 311 253
          122 121 304 312 313 97
          306 314 315 99 306 314
          315 99 308 316 317 101
          282 74 672 708 283 77
          673 709 283 77 673 709
          284 80 674 710 318 303
          96 319 320 305 98 321
          320 305 98 321 322 307
          100 323 285 187 0 3
          287 189 4 7 287 189
          4 7 289 191 8 11
          223 711 712 324 225 713
          714 325 225 713 714 325
          227 715 716 326 327 210
          211 276 328 212 213 277
          328 212 213 277 329 214
          215 278 717 282 708 718
          719 283 709 720 719 283
          709 720 721 284 710 722
          276 237 160 159 277 241
          163 162 277 241 163 162
          278 245 166 165 330 318
          319 331 332 320 321 333
          332 320 321 333 334 322
          323 335 324 336 222 223
          325 337 224 225 325 337
          224 225 326 338 226 227
          292 261 279 339 294 262
          280 340 294 262 280 340
          296 263 281 341 342 343
          210 327 344 345 212 328
          344 345 212 328 346 347
          214 329 696 228 31 200
          697 229 33 204 697 229
          33 204 698 230 35 208
          298 348 349 256 300 350
          351 258 300 350 351 258
          302 352 353 260 336 343
          342 222 337 345 344 224
          337 345 344 224 338 347
          346 226 96 2 1 319
          98 6 5 321 98 6
          5 321 100 10 9 323
          103 354 355 356 106 357
          358 359 106 357 358 359
          109 360 361 362 339 279
          236 231 340 280 240 232
          340 280 240 232 341 281
          244 233 363 364 365 366
          367 368 369 370 367 368
          369 370 371 372 373 374
          375 376 377 378 379 380
          381 382 379 380 381 382
          383 384 385 386 169 168
          291 312 173 172 293 314
          173 172 293 314 177 176
          295 316 216 222 342 387
          218 224 344 388 218 224
          344 388 220 226 346 389
          223 217 723 711 225 219
          724 713 225 219 724 713
          227 221 725 715 160 279
          261 161 163 280 262 164
          163 280 262 164 166 281
          263 167 356 355 330 331
          359 358 332 333 359 358
          332 333 362 361 334 335
          363 390 391 364 367 392
          393 368 367 392 393 368
          371 394 395 372 396 397
          726 690 398 399 727 692
          398 399 727 692 400 401
          728 694 390 402 403 391
          392 404 405 393 392 404
          405 393 394 406 407 395
          235 234 282 717 239 238
          283 719 239 238 283 719
          243 242 284 721 313 201
          30 97 315 205 32 99
          315 205 32 99 317 209
          34 101 248 247 309 348
          251 250 310 350 251 250
          310 350 254 253 311 352
          200 199 729 696 204 203
          730 697 204 203 730 697
          208 207 731 698 408 409
          375 378 410 411 379 382
          410 411 379 382 412 413
          383 386 153 256 349 366
          155 258 351 370 155 258
          351 370 157 260 353 374
          414 408 378 415 416 410
          382 417 416 410 382 417
          418 412 386 419 420 248
          348 298 421 251 350 300
          421 251 350 300 422 254
          352 302 423 327 276 159
          424 328 277 162 424 328
          277 162 425 329 278 165
          426 427 428 429 430 431
          432 433 430 431 432 433
          434 435 436 437 336 324
          438 439 337 325 440 441
          337 325 440 441 338 326
          442 443 667 732 15 14
          669 733 19 18 669 733
          19 18 671 734 23 22
          444 445 446 447 448 449
          450 451 448 449 450 451
          452 453 454 455 415 456
          457 458 417 459 460 461
          417 459 460 461 419 462
          463 464 12 465 408 414
          16 466 410 416 16 466
          410 416 20 467 412 418
          465 403 409 408 466 405
          411 410 466 405 411 410
          467 407 413 412 376 375
          429 428 380 379 433 432
          380 379 433 432 384 383
          437 436 114 468 469 111
          118 470 471 115 118 470
          471 115 122 472 473 119
          37 423 159 38 41 424
          162 42 41 424 162 42
          45 425 165 46 474 475
          390 363 476 477 392 367
          476 477 392 367 478 479
          394 371 429 375 409 480
          433 379 411 481 433 379
          411 481 437 383 413 482
          342 483 297 387 344 484
          299 388 344 484 299 388
          346 485 301 389 348 309
          474 349 350 310 476 351
          350 310 476 351 352 311
          478 353 480 409 403 402
          481 411 405 404 481 411
          405 404 482 413 407 406
          266 265 376 428 270 269
          380 432 270 269 380 432
          274 273 384 436 486 487
          364 391 488 489 368 393
          488 489 368 393 490 491
          372 395 447 446 492 493
          451 450 494 495 451 450
          494 495 455 454 496 497
          483 420 298 297 484 421
          300 299 484 421 300 299
          485 422 302 301 498 267
          63 499 500 271 67 501
          500 271 67 501 502 275
          71 503 378 377 456 415
          382 381 459 417 382 381
          459 417 386 385 462 419
          504 62 505 506 507 66
          508 509 507 66 508 509
          510 70 511 512 513 61
          426 514 515 65 430 516
          515 65 430 516 517 69
          434 518 499 63 62 504
          501 67 66 507 501 67
          66 507 503 71 70 510
          474 363 366 349 476 367
          370 351 476 367 370 351
          478 371 374 353 519 520
          376 265 521 522 380 269
          521 522 380 269 523 524
          384 273 506 505 525 526
          509 508 527 528 509 508
          527 528 512 511 529 530
          531 377 376 520 532 381
          380 522 532 381 380 522
          533 385 384 524 534 535
          536 537 538 539 540 541
          538 539 540 541 542 543
          544 545 546 536 535 547
          548 540 539 549 548 540
          539 549 550 544 543 551
          141 330 355 123 145 332
          358 126 145 332 358 126
          149 334 361 129 327 423
          483 342 328 424 484 344
          328 424 484 344 329 425
          485 346 193 531 520 552
          195 532 522 553 195 532
          522 553 197 533 524 554
          134 555 526 525 137 556
          528 527 137 556 528 527
          140 557 530 529 480 558
          426 429 481 559 430 433
          481 559 430 433 482 560
          434 437 391 403 465 486
          393 405 466 488 393 405
          466 488 395 407 467 490
          465 12 15 561 466 16
          19 562 466 16 19 562
          467 20 23 563 402 390
          475 564 404 392 477 565
          404 392 477 565 406 394
          479 566 567 568 49 514
          569 570 53 516 569 570
          53 516 571 572 57 518
          558 567 514 426 559 569
          516 430 559 569 516 430
          560 571 518 434 564 475
          143 573 565 477 147 574
          565 477 147 574 566 479
          151 575 561 15 732 735
          562 19 733 736 562 19
          733 736 563 23 734 737
          228 285 3 31 229 287
          7 33 229 287 7 33
          230 289 11 35 576 198
          201 313 577 202 205 315
          577 202 205 315 578 206
          209 317 356 331 319 1
          359 333 321 5 359 333
          321 5 362 335 323 9
          1 0 103 356 5 4
          106 359 5 4 106 359
          9 8 109 362 558 480
          402 564 559 481 404 565
          559 481 404 565 560 482
          406 566 699 235 717 738
          702 239 719 739 702 239
          719 739 705 243 721 740
          73 582 396 690 76 583
          398 692 76 583 398 692
          79 584 400 694 741 742
          585 586 743 744 587 588
          743 744 587 588 745 746
          589 590 72 210 343 591
          75 212 345 592 75 212
          345 592 78 214 347 593
          439 591 343 336 441 592
          345 337 441 592 345 337
          443 593 347 338 576 313
          312 291 577 315 314 293
          577 315 314 293 578 317
          316 295 469 169 312 304
          471 173 314 306 471 173
          314 306 473 177 316 308
          594 365 364 487 595 369
          368 489 595 369 368 489
          596 373 372 491 591 439
          396 582 592 441 398 583
          592 441 398 583 593 443
          400 584 564 573 567 558
          565 574 569 559 565 574
          569 559 566 575 571 560
          573 597 568 567 574 598
          570 569 574 598 570 569
          575 599 572 571 747 748
          199 198 749 750 203 202
          749 750 203 202 751 752
          207 206 420 483 423 37
          421 484 424 41 421 484
          424 41 422 485 425 45
          600 486 465 561 601 488
          466 562 601 488 466 562
          602 490 467 563 561 735
          741 600 562 736 743 601
          562 736 743 601 563 737
          745 602 37 36 248 420
          41 40 251 421 41 40
          251 421 45 44 254 422
          594 487 486 600 595 489
          488 601 595 489 488 601
          596 491 490 602 468 170
          169 469 470 174 173 471
          470 174 173 471 472 178
          177 473 264 492 519 265
          268 494 521 269 268 494
          521 269 272 496 523 273
          414 579 13 12 416 580
          17 16 416 580 17 16
          418 581 21 20 154 153
          366 365 156 155 370 369
          156 155 370 369 158 157
          374 373 339 231 701 603
          340 232 704 604 340 232
          704 604 341 233 707 605
          591 582 73 72 592 583
          76 75 592 583 76 75
          593 584 79 78 606 292
          339 603 607 294 340 604
          607 294 340 604 608 296
          341 605 547 609 610 546
          549 611 612 548 549 611
          612 548 551 613 614 550
          60 427 426 61 64 431
          430 65 64 431 430 65
          68 435 434 69 576 291
          292 606 577 293 294 607
          577 293 294 607 578 295
          296 608 615 616 555 134
          617 618 556 137 617 618
          556 137 619 620 557 140
          586 594 600 741 588 595
          601 743 588 595 601 743
          590 596 602 745 83 387
          297 255 87 388 299 257
          87 388 299 257 91 389
          301 259 144 143 475 474
          148 147 477 476 148 147
          477 476 152 151 479 478
          111 469 304 303 115 471
          306 305 115 471 306 305
          119 473 308 307 753 729
          199 748 754 730 203 750
          754 730 203 750 755 731
          207 752 505 62 61 513
          508 66 65 515 508 66
          65 515 511 70 69 517
          756 610 609 757 758 612
          611 759 758 612 611 759
          760 614 613 761 216 387
          83 82 218 388 87 86
          218 388 87 86 220 389
          91 90 285 621 186 187
          287 622 188 189 287 622
          188 189 289 623 190 191
          264 624 493 492 268 625
          495 494 268 625 495 494
          272 626 497 496 726 397
          627 762 727 399 628 763
          727 399 628 763 728 401
          629 764 630 631 181 180
          632 633 183 182 632 633
          183 182 634 635 185 184
          586 154 365 594 588 156
          369 595 588 156 369 595
          590 158 373 596 765 603
          701 766 767 604 704 768
          767 604 704 768 769 605
          707 770 636 637 186 638
          639 640 188 641 639 640
          188 641 642 643 190 644
          125 50 49 568 128 54
          53 570 128 54 53 570
          131 58 57 572 645 638
          186 646 647 641 188 648
          647 641 188 648 649 644
          190 650 534 646 186 621
          538 648 188 622 538 648
          188 622 542 650 190 623
          93 585 742 675 94 587
          744 678 94 587 744 678
          95 589 746 681 48 51
          134 525 52 55 137 527
          52 55 137 527 56 59
          140 529 627 771 772 762
          628 773 774 763 628 773
          774 763 629 775 776 764
          630 180 684 777 632 182
          686 778 632 182 686 778
          634 184 688 779 154 586
          585 84 156 588 587 88
          156 588 587 88 158 590
          589 92 651 286 181 631
          652 288 183 633 652 288
          183 633 653 290 185 635
          186 637 654 104 188 640
          655 107 188 640 655 107
          190 643 656 110 474 309
          113 144 476 310 117 148
          476 310 117 148 478 311
          121 152 63 267 266 60
          67 271 270 64 67 271
          270 64 71 275 274 68
          616 615 654 657 618 617
          655 658 618 617 655 658
          620 619 656 659 627 397
          396 660 628 399 398 661
          628 399 398 661 629 401
          400 662 579 414 415 458
          580 416 417 461 580 416
          417 461 581 418 419 464
          651 631 547 535 652 633
          549 539 652 633 549 539
          653 635 551 543 723 217
          81 780 724 219 85 781
          724 219 85 781 725 221
          89 782 663 446 445 192
          664 450 449 194 664 450
          449 194 665 454 453 196
          142 597 573 143 146 598
          574 147 146 598 574 147
          150 599 575 151 783 747
          198 576 784 749 202 577
          784 749 202 577 785 751
          206 578 48 513 514 49
          52 515 516 53 52 515
          516 53 56 517 518 57
          318 330 141 112 320 332
          145 116 320 332 145 116
          322 334 149 120 651 621
          285 286 652 622 287 288
          652 622 287 288 653 623
          289 290 60 266 428 427
          64 270 432 431 64 270
          432 431 68 274 436 435
          354 124 123 355 357 127
          126 358 357 127 126 358
          360 130 129 361 303 318
          112 111 305 320 116 115
          305 320 116 115 307 322
          120 119 630 777 757 609
          632 778 759 611 632 778
          759 611 634 779 761 613
          468 246 36 170 470 249
          40 174 470 249 40 174
          472 252 44 178 615 102
          104 654 617 105 107 655
          617 105 107 655 619 108
          110 656 786 783 576 606
          787 784 577 607 787 784
          577 607 788 785 578 608
          519 492 446 663 521 494
          450 664 521 494 450 664
          523 496 454 665 637 636
          657 654 640 639 658 655
          640 639 658 655 643 642
          659 656 663 192 193 552
          664 194 195 553 664 194
          195 553 665 196 197 554
          789 438 324 712 790 440
          325 714 790 440 325 714
          791 442 326 716 102 133
          354 103 105 136 357 106
          105 136 357 106 108 139
          360 109 646 534 537 645
          648 538 541 647 648 538
          541 647 650 542 545 649
          525 505 513 48 527 508
          515 52 527 508 515 52
          529 511 517 56 660 396
          439 438 661 398 441 440
          661 398 441 440 662 400
          443 442 765 786 606 603
          767 787 607 604 767 787
          607 604 769 788 608 605
          624 264 267 498 625 268
          271 500 625 268 271 500
          626 272 275 502 468 114
          247 246 470 118 250 249
          470 118 250 249 472 122
          253 252 535 534 621 651
          539 538 622 652 539 538
          622 652 543 542 623 653
          93 81 84 585 94 85
          88 587 94 85 88 587
          95 89 92 589 438 789
          792 660 440 790 793 661
          440 790 793 661 442 791
          794 662 124 132 51 50
          127 135 55 54 127 135
          55 54 130 138 59 58
          663 552 520 519 664 553
          522 521 664 553 522 521
          665 554 524 523 609 547
          631 630 611 549 633 632
          611 549 633 632 613 551
          635 634 125 142 141 123
          128 146 145 126 128 146
          145 126 131 150 149 129
          102 615 134 133 105 617
          137 136 105 617 137 136
          108 619 140 139 142 125
          568 597 146 128 570 598
          146 128 570 598 150 131
          572 599 124 354 133 132
          127 357 136 135 127 357
          136 135 130 360 139 138
          660 792 771 627 661 793
          773 628 661 793 773 628
          662 794 775 629 81 93
          677 780 85 94 680 781
          85 94 680 781 89 95
          683 782
        </DataArray>
        <DataArray type="Int64" Name="offsets" format="ascii" RangeMin="8" RangeMax="3632">
          8 16 24 32 40 48
          56 64 72 80 88 96
          104 112 120 128 136 144
          152 160 168 176 184 192
          200 208 216 224 232 240
          248 256 264 272 280 288
          296 304 312 320 328 336
          344 352 360 368 376 384
          392 400 408 416 424 432
          440 448 456 464 472 480
          488 496 504 512 520 528
          536 544 552 560 568 576
          584 592 600 608 616 624
          632 640 648 656 664 672
          680 688 696 704 712 720
          728 736 744 752 760 768
          776 784 792 800 808 816
          824 832 840 848 856 864
          872 880 888 896 904 912
          920 928 936 944 952 960
          968 976 984 992 1000 1008
          1016 1024 1032 1040 1048 1056
          1064 1072 1080 1088 1096 1104
          1112 1120 1128 1136 1144 1152
          1160 1168 1176 1184 1192 1200
          1208 1216 1224 1232 1240 1248
          1256 1264 1272 1280 1288 1296
          1304 1312 1320 1328 1336 1344
          1352 1360 1368 1376 1384 1392
          1400 1408 1416 1424 1432 1440
          1448 1456 1464 1472 1480 1488
          1496 1504 1512 1520 1528 1536
          1544 1552 1560 1568 1576 1584
          1592 1600 1608 1616 1624 1632
          1640 1648 1656 1664 1672 1680
          1688 1696 1704 1712 1720 1728
          1736 1744 1752 1760 1768 1776
          1784 1792 1800 1808 1816 1824
          1832 1840 1848 1856 1864 1872
          1880 1888 1896 1904 1912 1920
          1928 1936 1944 1952 1960 1968
          1976 1984 1992 2000 2008 2016
          2024 2032 2040 2048 2056 2064
          2072 2080 2088 2096 2104 2112
          2120 2128 2136 2144 2152 2160
          2168 2176 2184 2192 2200 2208
          2216 2224 2232 2240 2248 2256
          2264 2272 2280 2288 2296 2304
          2312 2320 2328 2336 2344 2352
          2360 2368 2376 2384 2392 2400
          2408 2416 2424 2432 2440 2448
          2456 2464 2472 2480 2488 2496
          2504 2512 2520 2528 2536 2544
          2552 2560 2568 2576 2584 2592
          2600 2608 2616 2624 2632 2640
          2648 2656 2664 2672 2680 2688
          2696 2704 2712 2720 2728 2736
          2744 2752 2760 2768 2776 2784
          2792 2800 2808 2816 2824 2832
          2840 2848 2856 2864 2872 2880
          2888 2896 2904 2912 2920 2928
          2936 2944 2952 2960 2968 2976
          2984 2992 3000 3008 3016 3024
          3032 3040 3048 3056 3064 3072
          3080 3088 3096 3104 3112 3120
          3128 3136 3144 3152 3160 3168
          3176 3184 3192 3200 3208 3216
          3224 3232 3240 3248 3256 3264
          3272 3280 3288 3296 3304 3312
          3320 3328 3336 3344 3352 3360
          3368 3376 3384 3392 3400 3408
          3416 3424 3432 3440 3448 3456
          3464 3472 3480 3488 3496 3504
          3512 3520 3528 3536 3544 3552
          3560 3568 3576 3584 3592 3600
          3608 3616 3624 3632
        </DataArray>
        <DataArray type="UInt8" Name="types" format="ascii" RangeMin="12" RangeMax="12">
          12 12 12 12 12 12
          12 12 12 12 12 12
          12 12 12 12 12 12
          12 12 12 12 12 12
          12 12 12 12 12 12
          12 12 12 12 12 12
          12 12 12 12 12 12
          12 12 12 12 12 12
          12 12 12 12 12 12
          12 12 12 12 12 12
          12 12 12 12 12 12
          12 12 12 12 12 12
          12 12 12 12 12 12
          12 12 12 12 12 12
          12 12 12 12 12 12
          12 12 12 12 12 12
          12 12 12 12 12 12
          12 12 12 12 12 12
          12 12 12 12 12 12
          12 12 12 12 12 12
          12 12 12 12 12 12
          12 12 12 12 12 12
          12 12 12 12 12 12
          12 12 12 12 12 12
          12 12 12 12 12 12
          12 12 12 12 12 12
          12 12 12 12 12 12
          12 12 12 12 12 12
          12 12 12 12 12 12
          12 12 12 12 12 12
          12 12 12 12 12 12
          12 12 12 12 12 12
          12 12 12 12 12 12
          12 12 12 12 12 12
          12 12 12 12 12 12
          12 12 12 12 12 12
          12 12 12 12 12 12
          12 12 12 12 12 12
          12 12 12 12 12 12
          12 12 12 12 12 12
          12 12 12 12 12 12
          12 12 12 12 12 12
          12 12 12 12 12 12
          12 12 12 12 12 12
          12 12 12 12 12 12
          12 12 12 12 12 12
          12 12 12 12 12 12
          12 12 12 12 12 12
          12 12 12 12 12 12
          12 12 12 12 12 12
          12 12 12 12 12 12
          12 12 12 12 12 12
          12 12 12 12 12 12
          12 12 12 12 12 12
          12 12 12 12 12 12
          12 12 12 12 12 12
          12 12 12 12 12 12
          12 12 12 12 12 12
          12 12 12 12 12 12
          12 12 12 12 12 12
          12 12 12 12 12 12
          12 12 12 12 12 12
          12 12 12 12 12 12
          12 12 12 12 12 12
          12 12 12 12 12 12
          12 12 12 12 12 12
          12 12 12 12 12 12
          12 12 12 12 12 12
          12 12 12 12 12 12
          12 12 12 12 12 12
          12 12 12 12 12 12
          12 12 12 12 12 12
          12 12 12 12 12 12
          12 12 12 12 12 12
          12 12 12 12 12 12
          12 12 12 12
        </DataArray>
      </Cells>
    </Piece>
  </UnstructuredGrid>
</VTKFile>
