<?xml version="1.0"?>
<VTKFile type="UnstructuredGrid" version="0.1" byte_order="LittleEndian" header_type="UInt32" compressor="vtkZLibDataCompressor">
  <UnstructuredGrid>
    <Piece NumberOfPoints="819" NumberOfCells="454">
      <PointData>
        <DataArray type="Int32" Name="libmesh_node_id" format="ascii" RangeMin="2316" RangeMax="5735">
          2316 2317 2318 2319 2320 2321
          2322 2323 2324 2325 2326 2327
          2433 2434 2435 2436 2437 2438
          2439 2440 2441 2442 2443 2444
          2598 2599 2600 2601 2602 2603
          2643 2644 2645 2646 2647 2648
          2649 2650 2651 2709 2710 2711
          2712 2713 2714 2715 2716 2717
          2718 2719 2720 2766 2767 2768
          2769 2770 2771 2772 2773 2774
          2775 2776 2777 2808 2809 2810
          2811 2812 2813 2814 2815 2816
          2817 2818 2819 2852 2853 2856
          2857 2860 2861 2970 2971 2973
          2974 2976 2977 2991 2994 2995
          2998 2999 3002 3081 3082 3083
          3084 3085 3086 3087 3088 3089
          3090 3091 3092 3187 3190 3193
          3241 3243 3245 3270 3271 3272
          3312 3313 3314 3315 3316 3317
          3495 3496 3497 3498 3499 3500
          3501 3502 3503 3504 3505 3506
          3765 3766 3767 3768 3769 3770
          3852 3853 3854 4470 4471 4472
          4584 4585 4586 4587 4588 4589
          4635 4636 4637 4638 4639 4640
          4641 4642 4643 4644 4645 4646
          4659 4660 4661 4662 4663 4664
          4722 4723 4724 4782 4783 4784
          4791 4792 4793 4794 4795 4796
          4797 4798 4799 4812 4813 4814
          4815 4816 4817 4818 4819 4820
          4833 4834 4835 4836 4837 4838
          4848 4849 4850 4851 4852 4853
          4896 4897 4898 4899 4900 4901
          4911 4912 4913 4935 4936 4937
          4938 4939 4940 4944 4945 4946
          4947 4948 4949 4950 4951 4952
          4953 4954 4955 4956 4957 4958
          4992 4993 4994 5007 5008 5009
          5010 5011 5012 5013 5014 5015
          5016 5017 5018 5019 5020 5021
          5025 5026 5027 5028 5029 5030
          5040 5041 5042 5043 5044 5045
          5055 5056 5057 5073 5074 5075
          5079 5080 5081 5088 5089 5090
          5094 5095 5096 5103 5104 5105
          5151 5152 5153 5160 5161 5162
          5169 5170 5171 5178 5179 5180
          5187 5188 5189 5202 5203 5204
          5205 5206 5207 5208 5209 5210
          5211 5212 5213 5214 5215 5216
          5217 5218 5219 5220 5221 5222
          5223 5224 5225 5226 5227 5228
          5229 5230 5231 5232 5233 5234
          5235 5236 5237 5238 5239 5240
          5241 5242 5243 5244 5245 5246
          5247 5248 5249 5253 5254 5255
          5256 5257 5258 5259 5260 5261
          5262 5263 5264 5265 5266 5267
          5268 5269 5270 5271 5272 5273
          5274 5275 5276 5280 5281 5282
          5283 5284 5285 5286 5287 5288
          5289 5290 5291 5292 5293 5294
          5295 5296 5297 5298 5299 5300
          5301 5302 5303 5307 5308 5309
          5310 5311 5312 5313 5314 5315
          5316 5317 5318 5319 5320 5321
          5322 5323 5324 5325 5326 5327
          5328 5329 5330 5334 5335 5336
          5337 5338 5339 5340 5341 5342
          5343 5344 5345 5346 5347 5348
          5349 5350 5351 5352 5353 5354
          5355 5356 5357 5358 5359 5360
          5361 5362 5363 5364 5365 5366
          5367 5368 5369 5370 5371 5372
          5373 5374 5375 5376 5377 5378
          5379 5380 5381 5382 5383 5384
          5385 5386 5387 5388 5389 5390
          5391 5392 5393 5394 5395 5396
          5397 5398 5399 5400 5401 5402
          5403 5404 5405 5406 5407 5408
          5409 5410 5411 5412 5413 5414
          5415 5416 5417 5418 5419 5420
          5421 5422 5423 5424 5425 5426
          5427 5428 5429 5430 5431 5432
          5433 5434 5435 5436 5437 5438
          5439 5440 5441 5442 5443 5444
          5445 5446 5447 5448 5449 5450
          5451 5452 5453 5454 5455 5456
          5457 5458 5459 5460 5461 5462
          5463 5464 5465 5466 5467 5468
          5469 5470 5471 5472 5473 5474
          5475 5476 5477 5478 5479 5480
          5481 5482 5483 5484 5485 5486
          5487 5488 5489 5490 5491 5492
          5493 5494 5495 5496 5497 5498
          5499 5500 5501 5502 5503 5504
          5505 5506 5507 5508 5509 5510
          5511 5512 5513 5514 5515 5516
          5517 5518 5519 5520 5521 5522
          5523 5524 5525 5526 5527 5528
          5529 5530 5531 5532 5533 5534
          5535 5536 5537 5538 5539 5540
          5541 5542 5543 5544 5545 5546
          5547 5548 5549 5550 5551 5552
          5553 5554 5555 5556 5557 5558
          5559 5560 5561 5562 5563 5564
          5565 5566 5567 5568 5569 5570
          5571 5572 5573 5574 5575 5576
          5577 5578 5579 5580 5581 5582
          5583 5584 5585 5586 5587 5588
          5589 5590 5591 5592 5593 5594
          5595 5596 5597 5598 5599 5600
          5601 5602 5603 5604 5605 5606
          5607 5608 5609 5610 5611 5612
          5613 5614 5615 5616 5617 5618
          5619 5620 5621 5622 5623 5624
          5625 5626 5627 5628 5629 5630
          5631 5632 5633 5634 5635 5636
          5637 5638 5639 5640 5641 5642
          5643 5644 5645 5646 5647 5648
          5649 5650 5651 5652 5653 5654
          5655 5656 5657 5658 5659 5660
          5661 5662 5663 5664 5665 5666
          5667 5668 5669 5670 5671 5672
          5673 5674 5675 5676 5677 5678
          5679 5680 5681 5682 5683 5684
          5685 5686 5687 5688 5689 5690
          5691 5692 5693 5694 5695 5696
          5697 5698 5699 5700 5701 5702
          5703 5704 5705 5706 5707 5708
          5709 5710 5711 5712 5713 5714
          5715 5716 5717 5718 5719 5720
          5721 5722 5723 5724 5725 5726
          5727 5728 5729 5730 5731 5732
          5733 5734 5735
        </DataArray>
        <DataArray type="Float64" Name="resid_x" format="ascii" RangeMin="-0.01721155778535355" RangeMax="66.60650965449247">
          0.0007461007791977892 0.0006088031067559285 0.000155146639418291 0.0002473065816239739 0.0006465108850282064 0.0005704565319941679
          0.00009954029110570417 0.0002669182721977137 -0.003988267231008535 -0.004037511943808525 -0.0024071341772264887 -0.0031652935646295788
          -0.00000965478056791369 0.00008244426928882831 0.0002997301645120132 0.0004589558996621612 -0.0001524999214836953 0.000029738103760834633
          -0.0002515994214267181 0.000016448064162233322 -0.001981113998112072 -0.0023562514001351786 -0.004003001299158981 -0.003749025355902269
          -0.0021717694554830302 -0.0013645297856366145 -0.00010170668036835195 0.00015469392078848454 -0.003360471384326047 -0.003058182765924622
          -0.0004817250654376437 -0.0007836522300141979 -0.002458651453999039 -0.00012807648531421023 -0.0009382506328492468 -0.0001376720616832472
          -0.0031740885093451965 -0.003941594826155637 -0.0038601010930783275 0.000006602528205085223 0.00010153576748628268 0.00012225585630165625
          0.0003176908894921837 -0.00017358841438394612 -0.00027768411730821896 -0.000613667432359577 0.00009331166332060548 -0.001954925730407675
          -0.0013544883175971023 -0.0029276400844331363 -0.0028239251647779184 0.000008815245187143717 0.0001911959767069149 -0.0005329603897870072
          -0.0006799049236523302 -0.0003308335549494501 -0.00035388249439893826 -0.00047140624672170617 -0.0003880606369284223 -0.0017061084951581762
          -0.0019698841329800487 -0.0020560832191200973 -0.002687311433696493 -0.0014285732387948613 -0.0005803561026844761 -0.0015997939353127322
          -0.0006561311224970723 -0.00028536668139089727 -0.00036946588045250195 -0.002372652152179633 -0.002067382380339211 -0.0030580423736568108
          -0.0026558032336545523 -0.000326763086345494 -0.0038509667510275847 -0.0025999000247267645 -0.0018743299057941698 -0.0021313032494845174
          -0.0017068047321906477 -0.0024646958994143375 -0.0020281337609251437 -0.0025224033416950675 -0.0018516268804873448 -0.0002173706507040407
          -0.003380557199406553 -0.0032769357804749433 -0.0028017192894616016 -0.0021061878717176796 -0.001226823983598635 -0.003019682787567035
          -0.002406102728738091 -0.0016775871239751439 -0.0009930724279358927 -0.0020260983117346143 -0.0004144559960824745 -0.00023800925255024197
          -0.0005818766976110612 -0.003900310882256619 -0.0008645667896066689 -0.0008655142320614928 -0.00016607197131451867 -0.005241211367074783
          -0.000758018090154855 -0.002897343111161632 -0.003265064339150303 -0.0031417633361110475 -0.004514211613512842 -0.003307364171567073
          -0.0019206456078846301 -0.004369236355882933 -0.0019639576420544813 -0.0018227973095612526 -0.0022877663948417393 -0.0023659944868041904
          -0.0015937047230010215 -0.0005424913175406942 -0.0002663264469735527 -0.00014490222940555242 -0.002453047253363705 -0.0015747859170245349
          -0.0018631983444254985 -0.000008177492988536983 0.0001246993437877819 -0.0015438112792800496 -0.004376599836202644 -0.000019040714910545375
          0.000207849738487198 -0.004739003068312542 -0.00346645188296435 -0.001380902344616075 -0.0013211424069403677 -0.003940783549010618
          -0.00221571536275178 -0.002117033117460254 -0.0005959191972291222 -0.00041667703285463986 -0.0022868297717089092 -0.002421998840451245
          -0.0016559684670784947 -0.0029971412395539687 -0.001583087928466398 -0.0011820864800791142 -0.0005846880875601812 -0.0020763317754592947
          -0.0016352645789883269 -0.0014274742843749522 -0.0021513699063326897 -0.0025887811854996556 -0.0010780892980335466 -0.0011075506880047215
          -0.0011655222324251646 -0.0010113611459026117 -0.00038962677194820383 -0.00041329062628570057 -0.0011740376574302935 -0.0014963717382938668
          -0.0012519171875076118 -0.0012376833087541783 -0.0005258224406801126 -0.0005645881565472521 -0.0019320982645227858 -0.0014182148804966488
          -0.0003604547823083948 0.0008261020496114213 0.0005133911401902225 -0.0020414770705583507 -0.0007242762703070227 -0.00199968798787431
          -0.0012657082555096455 0.002032737309666688 0.001836746250445831 -0.0024116409777872327 -0.0003383356326511766 -0.0015493182249048942
          -0.00027741788706237003 0.002277225527436144 -0.000783424218072426 0.00010783482407550338 -0.002037986884829479 -0.0002531694101186588
          -0.004205862080556955 -0.00032973174541339745 -0.0021759264536385103 -0.0025212842877326835 -0.00030029020459743094 -0.002118254241255002
          -0.002411248500862939 -0.0012133107746392646 -0.00022035441947210188 -0.0002751000696123995 -0.0017170912425594764 -0.0017914167768089406
          -0.0012855959879676249 -0.0007391374299334785 -0.0002905376603283827 -0.0004604701613164508 -0.002292569554580126 -0.0021264475450788467
          -0.0023134421077859457 -0.0013480511001731088 -0.00018179784009575428 -0.00011714907854898371 -0.001673655986850875 -0.0013720982589937591
          -0.0016509181541737306 -0.0012928804313512288 -0.001341488138550062 -0.003154683767400357 -0.004826172004214868 -0.002227749560072212
          -0.0028823239960011904 -0.0031435257129004412 -0.002510302047177504 -0.0011850091930298845 -0.0008299687223054519 -0.00006065096995921948
          -0.0001486060155331259 -0.001439025733093402 -0.00017394567458062227 -0.00009577078287836827 0.0007933056553923734 -0.00003609231003398605
          0.0013607249262044263 -0.000148729584223517 0.0005048407141661215 -0.001360829157251331 -0.008030109709975086 0.006008390959663323
          0.00024643191615769666 -0.0030083520840253897 0.002157763312034433 -0.00036139886017405587 -0.002554555785892809 0.00038449609541491014
          0.0010002279449228269 0.000972433162700348 -0.00003528625494020332 -0.0026160219157471687 -0.001804235965603418 -0.00021203777171407978
          -0.0003175441343632457 -0.0013742046177167566 -0.0018878727841098453 -0.001353154355759223 -0.0007157153983694542 -0.00022295786913506532
          -0.00044731977978429427 -0.0014412978633204787 -0.001210184455347374 -0.0024007240076260317 0.00009633758803939685 -0.00020075848069822655
          -0.0015914760254105431 -0.0001321435795178516 -0.00005722661768103876 -0.002023663443014634 -0.0006189787212962372 -0.0011322209853386056
          -0.00021865661761211186 -0.000027904620562679838 0.0004780575508442908 0.0003021203773174719 -0.00044881549247755004 -0.000554973195255215
          -0.0004948342842538977 0.00041522357188661374 -0.00036471676016525123 -0.0005021753385410221 0.0005676253768358563 -0.00042639182818238197
          -0.0027066827275774585 -0.00047837983107257287 -0.0014597814150558719 -0.0005513445459977007 0.0006451513811764897 -0.00012708082170753698
          -0.0003608187314751987 0.0008912640205762656 -0.00012722899770345464 -0.0003028796742139406 0.001735735973189989 -0.0007766564861135805
          0.0005072566786346044 0.0015630669065664904 -0.006187566856961979 -0.003664574143904531 -0.00302152529045685 -0.003980121891189015
          -0.004346005268779152 -0.003728542865914619 -0.005077465118802138 -0.0039039362297117464 -0.003191557957194391 -0.005713291619585448
          -0.0010782626683134566 0.0010683248486813568 -0.0013160301835508648 -0.0005487105459032193 -0.00028212301418761854 -0.0012567181975882136
          -0.0007396904925407455 -0.0015113885619726375 -0.0006286510200794737 0.00015256722387135824 0.00013504561444044327 0.0003050458177238369
          0.0002609878824149092 -0.0006352184635858293 -0.0002801720359126847 -0.0009871552287954444 -0.0004995134469112372 -0.000030780398720509083
          0.000283153503881195 -0.0011013165591364782 -0.000758624602097413 -0.001158607479107232 -0.0006074186122813074 0.00023233376620268587
          0.00020075811490904982 -0.0006350930580403258 -0.0003076517156515024 -0.001085268625764968 -0.0005860231900971513 0.00023986374065998461
          0.00018733465968168161 -0.0004722597040451859 -0.00022079112807027457 -0.0010069367902474369 -0.0005529848638783363 0.000276566914276799
          0.0001954224632925161 -0.00031982378352779506 -0.00012385882751075883 -0.0009022921537642503 -0.0004832826979246363 0.00032520396367274884
          0.0002154154074816006 -0.00020368110773461012 -0.0000684284821765857 -0.0008215331947596383 -0.00043181894105259744 0.00030830934476000493
          0.00019935172669605095 -0.0003445198646474523 -0.0001662920256357836 -0.0009324453071819505 -0.001172346110017486 -0.001436544105899884
          -0.00021695897781626172 0.0003758631455514916 -0.0006856121280076621 -0.0013280769448140717 0.000145388680165226 -0.0010898223670263718
          -0.0013783575905730316 0.00037717378768320486 -0.0005811184768163002 -0.0012507518199704748 0.00039728868622290747 -0.0004112522131887175
          -0.0011476669392553873 0.00042253177396744945 -0.00026855992792462757 -0.0010163407609145025 0.00044584605626596385 -0.00018748856594719143
          -0.0008881700213621002 0.0004375458164318502 -0.0003383725504804147 -0.0009724113212250529 -0.0008867701970274311 -0.001137326664519378
          -0.00025005185832149834 0.0004969830673200448 -0.00042483501696288783 -0.0012224190515102151 0.0003172371281934261 -0.0007045290852492059
          -0.0012482432746967476 0.0005211711892272319 -0.00024354490283329255 -0.00108504725356795 0.0005292054818060166 -0.0000785696906770994
          -0.0009846373926460927 0.000543734324232048 0.000010211625413703018 -0.0008672865812382469 0.0005298476198873914 0.000020997477200523917
          -0.0007673913711876423 0.000536207422740631 -0.00014398102029389293 -0.0011074843303937598 -0.0008249165733360542 -0.0008439949299194893
          -0.00011766840349203278 0.0007775588589424842 -0.0000435038152737377 -0.0009460683198483366 0.0006013595929310611 -0.000268205219793316
          -0.00098166826964885 0.0008330118201804737 0.00018963705501917616 -0.0008832434659602484 0.000808403832477822 0.0003205332985114495
          -0.0007451455900699955 0.0007683184646580798 0.0003700199300471496 -0.0006702868213945834 0.0007022168927388606 0.0002893915640047595
          -0.0006079499998534743 0.0006623880901344137 0.00010100913323896066 -0.0003229774428987753 0.00021306215686678343 -0.0003895189767888496
          0.0001696507489690191 0.0012750745837770694 0.0005655745331143436 -0.0006647160604860147 0.0011446393238365715 0.00037286236077171964
          -0.0006414306508961687 0.0012933504112790928 0.0007193654214869838 -0.0005909350262598423 0.001173729034805504 0.0007917215265216271
          -0.0005027980861971315 0.001024979795014147 0.0007710265470297628 -0.00048047960558328384 0.0008575290498544774 0.0005755478448570273
          -0.0004599594095680004 0.0007397747060799986 0.00032846942493236497 -0.0017780458054481585 -0.0013118889137011536 -0.001136354397500483
          0.0002636224688465916 0.0013612112861913772 0.0005652830426701172 0.0006171816687086107 0.002103925525956285 0.0015919490924911628
          -0.00019027892755651976 0.0018634737680525149 0.0011492720891705943 -0.0002715210106902788 0.0018883730576231272 0.0013741788155474666
          -0.00024001829592457113 0.0016391768058188205 0.0013220413744630122 -0.0002888534417362365 0.0012982870319095952 0.001205516565354614
          -0.0003601943873938751 0.0009372016241577796 0.0007826430146522512 -0.00040240218433673647 0.0006910040374314974 0.0004027436987943389
          -0.0015290653945534416 -0.0022179748013471112 -0.0018867182070003707 -0.00018031266347762198 0.0005079627519322116 0.002634973878386404
          0.00003894908226165228 0.001896706870713416 0.0035410477722415123 0.0002427427625644185 0.0027743038528917907 0.002510139783746368
          0.0002586532513273454 0.0026361753921548825 0.002012699431341858 0.00020148292240662613 0.002293027229701039 0.0019575533017626157
          -0.00004812183771285561 0.0016422355489034146 0.0017184013362054884 -0.00037684489293710044 0.0008047174205092489 0.0008886733521347168
          -0.000573191388525629 0.00030559607121816157 0.00026850530646527204 -0.0016133678339009805 -0.0022491751016673334 -0.003859452006054198
          -0.0001834711152373103 0.0005291554519963881 0.003582170985549027 -0.0005979927074140079 0.000705121283004928 0.006004467326118146
          0.00032485306607199504 0.002764081629759829 0.004563290110336737 0.0009291690909272177 0.0036527273395599025 0.002920988218184206
          0.0009123327828053363 0.003523547988409703 0.0029168964186432333 0.00042957853560565695 0.002470106175639586 0.0025695698445247217
          -0.0005260371230297878 0.00046198096981342474 0.0008428953523722527 -0.0011590833589316674 -0.0008805746615667687 -0.0003737575783961944
          -0.001349498091361312 -0.0018842277362978166 -0.0028362654158140543 -0.002548644438371994 -0.004182735659583159 -0.00040878594798421375
          -0.005769389149815396 -0.010287850379384622 -0.0013914247918034306 -0.00861117504371478 -0.016003925578155886 -0.005143463936670756
          -0.0091046317224599 -0.01721155778535355 -0.007529891275867229 -0.00824983814771052 -0.015606452205403798 -0.006976870703695681
          -0.006685974078209256 -0.012525797555996476 -0.005227625315766815 -0.004596996725097391 -0.008425795790652835 -0.003641381465105731
          -0.002613955496863163 -0.004533170633814976 -0.0021756378272170807 -0.0004342025128387661 -0.0008516970388328104 0.00014494507543005852
          0.00025919213116054607 -0.00018283800909557613 -0.00042622464818364847 -0.0008845701259936334 0.00040164332719072604 -0.00040085937996536813
          -0.0008126446149141486 0.00043875547032357076 -0.0002327218586870572 -0.0006549433224130041 0.0005315696737788755 -0.000018169611884388814
          -0.0005046754007729248 0.0005802648810107058 0.00015294646908259324 -0.000493425557936078 0.0004949968780003644 0.00018754146026545016
          -0.0006698958230870744 0.00014535307396812414 0.000007965906414497681 -0.0011925919601374346 -0.0009333740017627434 -0.0006658195082085427
          -0.0015170061876412788 -0.002147518892591904 -0.001396650677762068 -0.00041837020797075297 -0.0008241121253007577 0.00014861553838940722
          0.0003004567431830196 -0.00016802379068536766 -0.00038699924957441567 -0.0008520027221550208 0.000396402004117391 -0.0003576458828931095
          -0.0007692868513196061 0.0004571983467336338 -0.00018783975675162878 -0.0006057083321593382 0.0005384547131335182 -0.000050889538975695814
          -0.0004758707787466676 0.0005788922589307077 0.000018193756561757368 -0.0004689625320004609 0.0005097393901269953 -0.000042246338617601964
          -0.000602850737367433 0.0002184751323923706 -0.0003335844428367096 -0.0010661457489771209 -0.00074103724518082 -0.0011966067085396048
          -0.0012057956313125118 -0.00153029837033003 -0.0014393131820042981 -0.0003864412851015686 -0.0007540725170827045 0.00014358942014780496
          0.00028953192173730713 -0.000136640304923219 -0.0003094527295317562 -0.0007457465099349747 0.0003762394536153124 -0.00025777125883763574
          -0.0006464493151803197 0.0004302205621300459 -0.00010998706685327875 -0.0005140439445412426 0.0005022785455608414 -0.00003121782907911097
          -0.00042711179836629753 0.00053685349322663 -0.000019302618222027945 -0.00042445212793573717 0.0004677856458705776 -0.00011093150121155304
          -0.0005557761709304998 0.0001475954819305514 -0.00042144716024239415 -0.0009600982025066429 -0.0006914830435071906 -0.0012010370130877135
          -0.0009329769567241186 -0.0010754862282986721 -0.0011162436767762074 -0.00033542555566512533 -0.0006432804794975766 0.00013258190290343919
          0.0002667989243079205 -0.00009354830082486387 -0.00021434427918620713 -0.0006019571517192901 0.00034211469783684834 -0.00017200700633068777
          -0.0005053993984382998 0.0003900592106873546 -0.0000615540815829263 -0.00042103307543328583 0.000452108251499439 -0.000023005738889025906
          -0.00037927049244856903 0.00047532425652363486 -0.000048792441727840696 -0.00039516074511247723 0.0003861689724189432 -0.00017437172826539893
          -0.0005346897759412883 0.00005388738972555984 -0.0005036974231469316 -0.0008774311217436548 -0.0006262239937360192 -0.0011487178897748862
          -0.0007345257566466756 -0.0007383779452805328 -0.0008852222808712895 -0.00026758533689630326 -0.0005093456352298631 0.00011518035836743934
          0.000231726042180469 -0.0000580591009011755 -0.00014367546638993645 -0.000466301200045649 0.0002937671822209609 -0.00012383887226619095
          -0.000392440409047623 0.00033515878241274777 -0.000043764342077423635 -0.00034161831380430385 0.00038507408212495875 -0.00001727497977910275
          -0.0003292004165960094 0.0003930550133066646 -0.000053601611092801704 -0.00036589161778621815 0.0002905614421102598 -0.00019898587066258244
          -0.0005080272520050499 -0.000011434289648448726 -0.0005147310901367774 -0.000788124205609364 -0.0005288669983780636 -0.001002849094557945
          -0.0005832643227918766 -0.0004919819355588828 -0.0006593834575259194 -0.00020450298069008 -0.0003937343650726177 0.00009234275034586403
          0.00018555262351327428 -0.00003244928842249806 -0.00009472777265528975 -0.0003697214480418154 0.00023328425475099834 -0.00009058890246294027
          -0.00031692239931757626 0.000265622146280009 -0.000029206704606821177 -0.00027668524104562664 0.00030166148919796854 -0.0000022364487133330613
          -0.0002725126670100053 0.00029795512991093176 -0.00003505902227907143 -0.0003260146208905468 0.0002007071235095026 -0.00017978247381655876
          -0.00046816337910549066 -0.0000414606496672576 -0.00045507760715679524 -0.0006811998570395161 -0.00041033922574840176 -0.0007919846523858354
          -0.00045311915959977966 -0.0003148585897427836 -0.00045040088098957654 -0.00015377836033891867 -0.0003035772546624571 0.0000653968786039627
          0.00013035528312954625 -0.0000062792511563714015 -0.000038955268248486163 -0.0002947207989691947 0.00016295841449931459 -0.00004090801998657412
          -0.0002536901225216326 0.00018386296600603202 0.0000029267215264638935 -0.00021333144510116142 0.00020640290388485028 0.00002480211135136301
          -0.00020685171845435946 0.00019856108321292254 -6.714048872424883e-7 -0.00026700067945917283 0.00012420170074101122 -0.00011605095585132119
          -0.00039814159153195305 -0.00004276311122630716 -0.0003167836316233519 -0.0005372064648287989 -0.0002798836641169089 -0.000521822497212554
          -0.00032542326134255006 -0.00018685305724197576 -0.00025837880654577816 -0.00010528935017362073 -0.00021231072214433766 0.00003540018076364504
          0.00006861095164367725 0.000026402808419589974 0.000036713513118513674 -0.00020748594567621126 0.00008510499441527486 0.00003222775733036087
          -0.00017787091338838934 0.0000938273046564575 0.00005159840483059952 -0.0001448325739570322 0.00010434466815745225 0.00005752102826761529
          -0.00013700457155252366 0.00009904628527657167 0.000040726537459789824 -0.00018459344143373357 0.00005949536030414038 -0.000016442718452580607
          -0.0002773578462704762 -0.000025596720462317535 -0.00011003263824349574 -0.0003435362330481695 -0.00014419627849626693 -0.00020693247078718002
          -0.00020044088519632908 -0.00009064685715109988 -0.00008379690849658061 16.743232069103563 33.30304338392445 33.486676893862224
          66.60650965449247 16.74504351891981 33.30663492635776 32.747157514871006 65.49472660007729 32.75062921339395
          31.806276555145836 63.612924889646735 31.80944539319882 30.47542295349473 60.95114246707048 30.47794162796486
          28.786141585150638 57.572455271923275 28.787439328385247 26.853826425473894 53.707632049245625 26.85306075253788
          24.935622639132028 49.87095983854849 24.931837271824715 23.45957132317927 46.91846987712819 23.45200333008217
          11.454605622358493 22.908651632863233 11.449441719202987
        </DataArray>
        <DataArray type="Float64" Name="resid_y" format="ascii" RangeMin="-5.99173017981019" RangeMax="5.331263725862824">
          -0.0005746209330499651 0.00041338450704921786 0.00006330976587911111 0.00007041843464655057 -0.000658687862566773 0.00039734557498048023
          -0.0001343792993200952 0.000047671415697954356 -0.000508545062408626 -0.0003910268478448057 -0.000345348375028429 -0.0007880576494342963
          -0.000010269129723093628 -0.00004091489045592728 -0.00004915423205640451 -0.000004390609355114927 -0.00005002338007088075 -0.00003469896246713344
          0.00007627332840479117 -0.00026456437106935765 -0.0002684575188677471 -0.0001279673134589182 -0.00005157386825237198 -0.0004995809409938864
          -0.0012123291860140495 -0.0009792725841171954 -0.00018866781829160462 0.00004513400763914155 -0.00013249918120526033 -0.00030496698726702187
          -0.00006027301535729834 0.0003856911441174546 -0.00015329277033232502 0.000018946273457789986 0.00034217126415311827 0.00010436409282010145
          -0.00045402866837379596 -0.0005176281249720319 -0.0002464278695257366 -0.000003743423821002227 -0.000002376327473012363 0.00004391675675777251
          0.00008064329669445897 -0.00004324350904967231 0.00015601980943339908 0.00006631240705401442 -0.00015829765738491208 -0.0003179570900412078
          -0.000023562531577800416 -0.0005479333939246859 -0.0006252238306996769 -0.000002523609358802935 0.00003601752327870439 -0.0005105426389867933
          -0.0007731265242532787 0.00011380692074048487 0.00009951968344524761 -0.0005627158477723038 -0.00023465992307992317 0.000018100506418434158
          -0.000010668292179005084 -0.000491834110018385 -0.00027026605791344305 -0.00011994233264934692 -0.0002828700377049548 -0.00044267263587197125
          -0.00017158601545295277 -0.00020039157202124402 -0.00011876917162376155 -0.00041306319084371407 -0.0004972235302915448 -0.00026347280447873433
          -0.00031228179534775746 -0.00025432974098663075 -0.00027885466638527534 -0.0012428267186026798 -0.0016280145282308936 -0.0013769321007196522
          -0.0016161582038382999 -0.0004746137594986849 -0.0008622583227345763 -0.0001370861642636667 -0.00006322306707964853 -0.0007789062432115301
          -0.0006209102796981836 -0.0008228631944400822 -0.0003005298094247155 0.00001611964315879899 -0.000016684003291127236 0.0008206464459878382
          -0.00003615810431765315 -0.0002734104549741989 -0.0003209524276198625 -0.0005826489266882035 0.00005124165388094293 -0.0001240461005855252
          -0.0007618844161241586 -0.000801114386897589 -0.0002189430933604436 -0.00007387302339756895 -0.00022900695419175894 -0.0010634815221310656
          -0.0009843040745808641 0.000014362676001742833 -0.0004110363384255619 -0.0006752754173351277 -0.0005799457553053999 -0.00035256645955509397
          -0.001022460729516162 -0.002403505256620222 -0.00151167315544142 -0.0006599137717008818 -0.0005832882128538053 -0.000265034867103886
          -0.0005117130962244421 0.00023228021467962788 -0.00005584182178863112 0.00008766073351377558 -0.00013417592151799065 -0.00013942063347089848
          -0.0002465014365823498 0.0000022768484885249407 0.00003188490629992555 -0.0001853960047883546 -0.0005002341234146834 -0.000039202947118038844
          0.000005007635450248425 -0.0005980474141899228 -0.0010901014623316274 -0.0005588943534479418 -0.00025781258417821064 -0.0007880848171710475
          0.000616522510243564 0.0005837687053795275 0.0001520078474909342 0.00005166241305311001 -0.0004495776155890724 -0.0006485897558867332
          -0.000873432365223345 -0.0024175119943829065 -0.0017512795737677223 -0.000280664265775556 -0.0002772062387607962 -0.0007035005673072699
          0.00008555071926669156 -0.00029809796416271905 0.00003952973033835572 -0.000303856146968047 -0.0001316012626825791 -0.00012277214123881768
          -0.00022671012805346863 -0.00018509288109364464 0.000027834192922650096 0.000024690206354830747 0.00000939520151200645 0.000024912622699507607
          -0.00020238672931699063 -0.00016791036682667349 -0.00009790424187440484 -0.0001502840739824804 -0.00032151015382367266 -0.0003728673961076387
          0.0001889148765570536 -0.0001925652177058113 -0.000787336120487165 -0.0006223041992377693 -0.0013839677011409368 -0.0010361528784189056
          -0.00011435055082508958 0.0005859679777623743 -0.00020573028280348668 0.00024425042508772576 0.00019364369926205718 -0.0003298065832310266
          -0.00011127704926045673 0.0004488436656036113 -0.0004392812210350025 -0.0002387627774579626 0.00019060185600130314 -0.00042035213872216454
          0.0004119129941397501 -0.00038891307016179766 0.00006787318634811704 0.00009080525030671915 -0.00020201094394837332 -0.0005128338819324757
          0.00016078533432174053 0.0004114992487791458 -0.000041065978232841804 0.0004360574247538121 -0.0003708335201195734 -0.000035539922128950685
          -0.0012370117583876683 -0.0007534673988810634 -0.0004016889504080551 -0.00031097734593051214 -0.0002778708324984863 -0.0002424516002179052
          0.00009645509580624104 0.00012069222425985368 0.00005340165721541643 0.00003563093722910556 -0.0003077169274033169 -0.0001394485743954352
          -0.0012006429963087178 -0.0013497073963119888 -0.0004574633356936725 -0.0009654795212214323 -0.0004049936430456681 -0.0004352362461137703
          -0.0006663453283045906 0.000122423529650445 -0.00016230767662411827 -0.00028869372325347753 -0.00014939621161521102 0.0003192632319491996
          0.00018120934037002892 0.000274347039917508 -0.00017320653298956087 0.00006866091061557764 -0.00002593979472885477 0.00006462421595474291
          -0.0004365107018548843 -0.00032395815281238347 -0.0004810385879594446 -0.00031650234033664664 -0.0023688992327260856 -0.0019800834284463865
          -0.0008670750600598149 -0.0006618816869886834 0.00024367995018692926 -0.0011053902899642552 -0.00021498428360924512 0.0006851591962783177
          0.0039080037154557955 0.0006710977142150472 -0.00032482400647661745 0.00001632489449947261 -0.0003693429519966568 0.00010695941018055294
          0.000014411267663168303 -0.00035048277422391333 -0.0001999070255005106 0.000018805746756299477 -0.0001169545643733682 -0.00014700106958595398
          -0.00011770139192842331 -0.00034964193165899576 -0.00012834741880616424 0.00031471939406253237 0.00017395945323853482 0.000020063031679454918
          -0.0008290746506049544 -0.0007457875292860364 -0.0007067509069045991 -0.0001276893118567629 -0.00006990272870931874 -0.00016110870246027753
          -0.00020937154303698764 -0.0001992071075814731 -0.00001312784023195122 -0.00007184333504420097 0.000034175707576616227 -0.00005764922910891576
          -0.00003080558138966391 -0.000027913219473056118 -0.00012061774948684927 -0.0001346143998802406 -0.00001727196161929929 -0.000007794629398130389
          -0.0003353428811575035 -0.00018909832105781788 -0.0002864074237680231 -0.00005947142752695217 0.000012420414372016862 -0.00004006802781447369
          -0.00017991526798153334 0.00013685688832760882 0.00004919733999215656 -0.0006238516142383424 0.00003297855097961558 -0.00018250712883882692
          0.002067964397471811 0.0011399681127987338 -0.003551814239302592 -0.0007210067494202721 -0.00039499679667254206 -0.0004495361821488797
          -0.0008897652441555715 -0.0008148989090734915 -0.00006186508828201487 -0.00048080239900552546 -0.00005264843603472458 -0.0008324154311710047
          -0.00048392901037749847 0.00038026552011299897 -0.00006512486231274872 0.00009538358741179032 -2.9957466086185596 0.00013721416749845616
          -5.99173017981019 -0.00019352876561362642 -3.0037726933099105 0.000044202770888901455 -2.599883104628109 0.00008842969996813999
          -5.200088985991157 0.00010295454955655536 -2.6078604169849946 -0.0001324137660813074 -1.9835302793155924 0.000042942281867630605
          -3.9672843711103676 0.00014598895895723274 -1.9908278500959555 -0.0001445516169820138 -1.217501376930412 0.000024914733754544116
          -2.4351111426424494 0.00012228109141088073 -1.223452889127319 -0.0001476782731858195 -0.378445271658609 0.00001210881766780525
          -0.7568998837646672 0.00006638615958232119 -0.38212743684856154 -0.00015930045177434127 0.4640093779653373 0.000006096679583567077
          0.9281144932926673 0.00005096621799358103 0.4633478622430631 -0.00014168354771215697 1.2542839073871392 0.000005273519983250985
          2.5087324481438786 0.000012458542575144449 1.2569445149549718 -0.0001328218023936012 1.611390277687013 0.00000722173417927463
          3.2229513459004733 -0.000029794429748652984 1.6157680139933253 0.0002892453832901154 0.00047195833687818656 -0.0003085840568741727
          0.00002744171285029573 0.00021852721850557089 0.000028505046656190913 -0.000026395513182286834 0.00015746803018590327 -0.000042187788236169865
          -0.00004230360683699086 0.00019628750735656286 0.00006253048878313017 -0.00010668895096777042 0.0001662394046890725 0.000035733942767679494
          -0.00011146919523351284 0.0001402400112142932 0.000007785839529428351 -0.00011691237580352398 0.0001324593829727383 -0.00007735904116956682
          -0.0002169218740972756 0.0000840544216381689 -0.00009545205544636559 0.00021104081600586966 0.0006583478547730337 -0.0005221743854557648
          0.000024739006285745546 0.00028849862320368125 -0.000040330412983013986 -0.000038250939718098564 0.0002374613240110346 -0.00006978157197612411
          -0.00005671578688914991 0.00022313842591303867 0.000002966571264972906 -0.0000736150453923834 0.0002080707469704901 -0.000010624462356056963
          -0.00008399327560015823 0.00018769822884492915 -0.0000711750744554207 -0.00013444763345632493 0.00019637561904173317 -0.00015362300837987175
          -0.0002727287490864004 0.00013905605343787417 -0.0001658038609537657 0.00021177048743781235 0.0004307902093754201 -0.0001607422105700529
          0.000023768375703392408 0.00037373340743251937 0.000019639449718278357 -0.0001251568008526771 0.0003914265523012883 -0.00003162406876944246
          -0.00002836652036575238 0.0003691919648229902 0.00003302272749894364 -0.000018321018318112614 0.00038989542212142236 0.000013527022538872835
          -0.000045330883987670934 0.00037446758262799085 -0.00004147862142167558 -0.00012753652792124592 0.0003594230150327851 -0.00013034718510871075
          -0.00027103038244807864 0.0002601796010053281 -0.00018749332489004233 -0.00004707600339570739 -0.00005960109000335834 -0.00020445714883177146
          0.00005744268930163443 0.0005085010885599317 0.00003541864742206968 0.0000010313258271832382 0.0005455008861441346 0.0000581092786771098
          0.00005289783383921609 0.0006341434512968647 0.00014529899344584152 0.00007015466905113676 0.0007119266574557859 0.00012949986823362902
          0.000044917754595363846 0.000703191039956419 0.00007887251188010147 -0.00005321978211053624 0.000630114816635774 -0.00005217353615982745
          -0.00022876843033325933 0.000446882792543124 -0.0001741916591043724 -0.0002933692021036549 -0.0006407964842400915 -0.0012351849222369538
          0.000018617886043070797 -0.00020025955516089766 -0.0006490028690979699 0.0001372453058960943 0.0006705939912139414 0.00014687362969478812
          0.00012563568031964678 0.0008124186729432381 0.00024676286976665907 0.00019645850162897105 0.0010510128101341998 0.0003689469316405791
          0.00025593415298152955 0.0012400352763775047 0.00040040725390788623 0.0002473455034375238 0.0012504596560389825 0.00033167549507240324
          0.00009761715765266299 0.0010745037987692774 0.00012709943762445608 -0.0001402820930578308 0.0007291057507692322 -0.00008976837609520061
          -0.000968513363992507 -0.0018042339502368776 -0.0019432615204864057 -0.0007972598427246069 -0.0013147238390245342 -0.0011220697978453487
          -0.00023180997173355422 0.0001475907703856194 0.00009142070582690565 0.00015854123136138654 0.000960391383512782 0.0004939303848883192
          0.0004300543139597046 0.0015818717044235875 0.0007269805403482543 0.0005829831873098712 0.0019855357060518664 0.0008494194100365782
          0.0006245945211835746 0.002155738630734927 0.0008417947969641126 0.0004198190160726867 0.0018649314303811337 0.0005456247918305124
          0.000019206382268599498 0.0011336255084770652 0.0000848454134558807 -0.0016583500215388014 -0.0033793298217448253 -0.0029107956159610815
          -0.0019217118493370933 -0.0033734005932331 -0.0020087009176412707 -0.0011776716123637065 -0.001715819272403163 -0.00037007840877301135
          -0.00030612665426277275 0.00008970748365078052 0.0005822998350457631 0.00046423840192488797 0.0016494560680375692 0.000980515601262777
          0.0010074793320167252 0.0028904146603303538 0.0014986508863334969 0.001301476895044562 0.003648561315294785 0.0018778273407846768
          0.0012801595820823852 0.003686289866991377 0.0016320099994104886 0.00029308701269137316 0.0017552005055114783 0.00040039690708648656
          -0.001873909767216464 -0.0029801055361926565 -0.001907467384567041 -0.0020417290507235286 -0.003177778923322272 -0.0016302087201096604
          -0.002489238985656783 -0.00408985248115723 -0.0015672016070764627 -0.002981648200467202 -0.005360692233848052 -0.0020591074177152002
          -0.00335109611337181 -0.006096523271292398 -0.0027408606700358717 -0.003322600285432742 -0.0058130220008685285 -0.002648217911946915
          -0.002830158151414963 -0.004703517659306655 -0.0020003129623855642 -0.001643314640630944 -0.0023135547349517616 -0.001054140580673657
          -0.0009003906334674738 -0.0007888136938778434 -0.0005735971304592358 1.675287155736568 -0.00006333559557170076 3.3507410673112252
          0.00001952576205987988 1.6799991386634063 -0.00007707367970477552 -0.00015702732129518893 0.00008565063966881059 -0.00013616852319769945
          -0.00022771534724244646 0.00012014655252251538 -0.00022407271107782734 -0.00027460520913158426 0.00019439873716728395 -0.00028685864352293033
          -0.0002936161860223052 0.0002985240803140554 -0.0003088882995878617 -0.0002765863670386448 0.0004276755235494978 -0.0002947206405738978
          -0.0002592309055016173 0.0005444988295946196 -0.00028624913628494397 -0.00029621849321115334 0.0005874609094616012 -0.0003242406523344954
          -0.0006499014874832287 -0.000255478332735537 -0.00043014607020785967 1.9318265511655142 -0.000036114365117412284 3.8638368918218875
          0.00001092801226632023 1.937041302156766 -0.0000845712242425467 -0.00010990103386787631 0.00006260160615012555 -0.00017109637907208874
          -0.0001923460975171154 0.0001225664857743003 -0.0002740774775671362 -0.00027627022439098703 0.00019560200916811377 -0.0003444514750853486
          -0.000320973597059071 0.0002828569703351991 -0.00036325214865573496 -0.0003242881220175686 0.0003690198677125389 -0.0003622971796812813
          -0.0003078147869306491 0.00047077042686893833 -0.0003599642140472703 -0.0003413544944044222 0.0004863557986373168 -0.00040532541518112364
          -0.0004604855331813429 0.00006510682286831049 -0.00022321166596062092 2.1462442384366325 -0.000020089540088585878 4.29268084500585
          0.000025131978921510978 2.151752759345155 -0.00009760045662809969 -0.00009445690365217363 0.00008597098194706998 -0.00019030064088176868
          -0.0001896096753328247 0.00015496847814161496 -0.0002789523336391153 -0.0002728711197261813 0.00023307873668951956 -0.0003216930020608355
          -0.0003066264028392385 0.0003200510908227261 -0.00032005145892044506 -0.00029332150491256925 0.0004118386376206207 -0.00029806981034907754
          -0.0002527193311441245 0.0005201364852867041 -0.00026528543277715144 -0.0002878238627801455 0.0004675220286382009 -0.0003095563816544189
          -0.00036196870182769736 0.00013192649498539044 -0.00010375012944485729 2.3199193747533844 -0.000024389866678742322 4.640041361450241
          0.00004273896968676194 2.325585423789614 -0.00010393436440547799 -0.0001081953813343306 0.0001149447441450846 -0.0001740044524994877
          -0.0001847299054676954 0.00019731305730241733 -0.00022107493972867154 -0.0002269914413848273 0.00028851409118441085 -0.00023373388252981298
          -0.000229136020349352 0.0003876334872977838 -0.0002231646972549739 -0.00020275494453170229 0.0004889584887177723 -0.00019756338613541313
          -0.0001740144532046406 0.0005600285092287605 -0.00017489866427133904 -0.00023105638383985605 0.0004444599410915462 -0.0002340613299844918
          -0.0003031258516548174 0.0001389546109866746 -0.00005774476763031888 2.4554915414137914 -0.000027122231520904094 4.911193506909281
          0.00006104745094903663 2.4612265140881133 -0.0000799880093262928 -0.00009372351420122715 0.00014646178487132122 -0.0001147588125502974
          -0.00012859473902238072 0.000243542344024128 -0.00012850979727907497 -0.00012823239570625145 0.0003499783665211753 -0.00012806831249062567
          -0.00011297743621698636 0.00045991255972165773 -0.00012256136978980314 -0.00009833129650943517 0.0005522333400225787 -0.0001104455550614003
          -0.00010460026415770596 0.0005708133410777805 -0.0001097818523008165 -0.00018744980541407497 0.0004105442446423191 -0.0001834188105517831
          -0.0002621913417112376 0.00012693999876256523 -0.000042067971904924395 2.556198772108142 -0.000010566332326211736 5.112607332561435
          0.00007754746468147111 2.561945576259114 -0.00004625884825149029 -0.00004140329485569083 0.00017603452385206442 -0.00005682694708353253
          -0.000042790882644472283 0.0002873637117315475 -0.000055173563126342806 -0.00002360872405654524 0.0004067643168058632 -0.000047880553277646065
          -0.000008531104823239488 0.0005204231459669806 -0.00004336044476058176 -0.000012861702808675268 0.0005934111071779491 -0.00004525718065612194
          -0.00005224774254858344 0.0005656095282505769 -0.00007446768364993694 -0.0001589860122009068 0.00037702265773914556 -0.0001755321609323568
          -0.00023906013880342636 0.00011314757053987323 -0.00005364588071926635 2.6252957242952446 0.000012062719756400497 5.250796281252269
          0.00009085486970006329 2.6310250523880345 -0.000025688592810046984 0.00001011630767711047 0.00019981136081348438 -0.000027523896350523103
          0.000023114514932198738 0.000323016330482373 -0.000018297586394044885 0.00004654070876364269 0.0004511690734506635 0.0000015461577332898102
          0.0000621627908124478 0.000563286787613082 0.000016638080225894747 0.00005010188356197043 0.000616735998826029 0.000004072192187107304
          -0.000014308364761489445 0.0005562757322441769 -0.00006599140312446572 -0.00015487310175829605 0.0003502060049602046 -0.00021201530078730768
          -0.00024452737631242005 0.00010186388511299049 -0.00008483605433737273 2.6655308722636657 0.00002573635920088968 5.331263725862824
          0.00010026194881573858 2.6712394559275494 -0.00001946528157548144 0.00003721785029964231 0.00021524642604209276 -0.00002052581932487918
          0.00005433846681568433 0.0003461545126159926 -0.000005770596484877544 0.00008215419004486968 0.0004791554358050121 0.000028217690642540205
          0.00010615608358099937 0.0005885735190845898 0.00005656915758578407 0.00009588122169335023 0.0006286180532580898 0.00003639697202978409
          0.000010256392531993175 0.0005495861355577503 -0.00007160720266545517 -0.00017114697030384037 0.00033298860919780114 -0.00026072292284720286
          -0.00026717701818033956 0.00009415377685166593 -0.00011774835273123396 1.3393627658737406 0.000002092567169764692 2.6788302838224176
          0.000051060854712403625 1.3422158128483161 -0.00000364361249527434 -0.0000023535609601221807 0.00010940741981335655 0.0000031472514758768
          -0.000002549564911413782 0.00017637781948254272 0.000017291567449229106 0.000007115329414775218 0.00024335346761650278 0.000040844598906186746
          0.0000178121888010363 0.0002970040621546044 0.000059525491535761255 0.000005019051611543368 0.00031458010277995996 0.000051640312753287176
          -0.00006270058529989075 0.0002726057038611174 0.0000011065416898325964 -0.00019089641972221127 0.00016305374244522663 -0.00008434388404460202
          -0.00019460608276321203 0.000044963967695582814 -0.000028642741875136574
        </DataArray>
        <DataArray type="Float64" Name="resid_z" format="ascii" RangeMin="0" RangeMax="0">
          0 0 0 0 0 0
          0 0 0 0 0 0
          0 0 0 0 0 0
          0 0 0 0 0 0
          0 0 0 0 0 0
          0 0 0 0 0 0
          0 0 0 0 0 0
          0 0 0 0 0 0
          0 0 0 0 0 0
          0 0 0 0 0 0
          0 0 0 0 0 0
          0 0 0 0 0 0
          0 0 0 0 0 0
          0 0 0 0 0 0
          0 0 0 0 0 0
          0 0 0 0 0 0
          0 0 0 0 0 0
          0 0 0 0 0 0
          0 0 0 0 0 0
          0 0 0 0 0 0
          0 0 0 0 0 0
          0 0 0 0 0 0
          0 0 0 0 0 0
          0 0 0 0 0 0
          0 0 0 0 0 0
          0 0 0 0 0 0
          0 0 0 0 0 0
          0 0 0 0 0 0
          0 0 0 0 0 0
          0 0 0 0 0 0
          0 0 0 0 0 0
          0 0 0 0 0 0
          0 0 0 0 0 0
          0 0 0 0 0 0
          0 0 0 0 0 0
          0 0 0 0 0 0
          0 0 0 0 0 0
          0 0 0 0 0 0
          0 0 0 0 0 0
          0 0 0 0 0 0
          0 0 0 0 0 0
          0 0 0 0 0 0
          0 0 0 0 0 0
          0 0 0 0 0 0
          0 0 0 0 0 0
          0 0 0 0 0 0
          0 0 0 0 0 0
          0 0 0 0 0 0
          0 0 0 0 0 0
          0 0 0 0 0 0
          0 0 0 0 0 0
          0 0 0 0 0 0
          0 0 0 0 0 0
          0 0 0 0 0 0
          0 0 0 0 0 0
          0 0 0 0 0 0
          0 0 0 0 0 0
          0 0 0 0 0 0
          0 0 0 0 0 0
          0 0 0 0 0 0
          0 0 0 0 0 0
          0 0 0 0 0 0
          0 0 0 0 0 0
          0 0 0 0 0 0
          0 0 0 0 0 0
          0 0 0 0 0 0
          0 0 0 0 0 0
          0 0 0 0 0 0
          0 0 0 0 0 0
          0 0 0 0 0 0
          0 0 0 0 0 0
          0 0 0 0 0 0
          0 0 0 0 0 0
          0 0 0 0 0 0
          0 0 0 0 0 0
          0 0 0 0 0 0
          0 0 0 0 0 0
          0 0 0 0 0 0
          0 0 0 0 0 0
          0 0 0 0 0 0
          0 0 0 0 0 0
          0 0 0 0 0 0
          0 0 0 0 0 0
          0 0 0 0 0 0
          0 0 0 0 0 0
          0 0 0 0 0 0
          0 0 0 0 0 0
          0 0 0 0 0 0
          0 0 0 0 0 0
          0 0 0 0 0 0
          0 0 0 0 0 0
          0 0 0 0 0 0
          0 0 0 0 0 0
          0 0 0 0 0 0
          0 0 0 0 0 0
          0 0 0 0 0 0
          0 0 0 0 0 0
          0 0 0 0 0 0
          0 0 0 0 0 0
          0 0 0 0 0 0
          0 0 0 0 0 0
          0 0 0 0 0 0
          0 0 0 0 0 0
          0 0 0 0 0 0
          0 0 0 0 0 0
          0 0 0 0 0 0
          0 0 0 0 0 0
          0 0 0 0 0 0
          0 0 0 0 0 0
          0 0 0 0 0 0
          0 0 0 0 0 0
          0 0 0 0 0 0
          0 0 0 0 0 0
          0 0 0 0 0 0
          0 0 0 0 0 0
          0 0 0 0 0 0
          0 0 0 0 0 0
          0 0 0 0 0 0
          0 0 0 0 0 0
          0 0 0 0 0 0
          0 0 0 0 0 0
          0 0 0 0 0 0
          0 0 0 0 0 0
          0 0 0 0 0 0
          0 0 0 0 0 0
          0 0 0 0 0 0
          0 0 0 0 0 0
          0 0 0 0 0 0
          0 0 0 0 0 0
          0 0 0 0 0 0
          0 0 0 0 0 0
          0 0 0 0 0 0
          0 0 0 0 0 0
          0 0 0 0 0 0
          0 0 0 0 0 0
          0 0 0 0 0 0
          0 0 0
        </DataArray>
        <DataArray type="Float64" Name="stress_zz" format="ascii" RangeMin="-2732436.90696166" RangeMax="2296639.214388105">
          -394016.9165611235 -310012.9840578039 70315.86124993645 69430.50287585736 -394771.76630629366 -313903.1714886329
          67274.45313570305 66549.07217044005 -395526.61605146376 -317793.3589194619 64233.04502146964 63667.64146502275
          -18987.222155412986 -27798.314494798098 -35472.22005781923 -19776.917727204214 -19399.961329848695 -27415.005102826864
          -35224.218494298235 -19151.880916388007 -19812.700504284414 -27031.69571085563 -34976.21693077724 -18526.8441055718
          15915.62733690747 9014.866343196953 14798.212033388074 8256.324867289784 13680.79672986868 7497.783391382615
          -50635.71212331958 -93481.92531481838 -41163.52810589002 -51014.756489958796 -93421.54979785971 -41791.377694982315
          -51393.80085659802 -93361.17428090103 -42419.22728407461 2821.337364002783 33487.29349848015 -103066.76139575106
          34788.74564679161 2069.7382129751336 25491.01288327288 -108923.82070781807 30871.881901973164 1318.139061947484
          17494.732268065614 -114780.88001988514 26955.018157154722 -12038.252845739218 82432.17641499409 55239.90770012872
          -908.5809531870284 -12738.820369421352 70777.0544057267 45524.68385263259 -27.752794125801664 -13439.387893103485
          59121.932396459335 35809.46000513646 853.0753649354258 -5041.128345822064 6383.4198195434965 -9523.667059834615
          -5133.120354920036 6252.2149832583345 -9299.938261830554 -5225.112364018009 6121.0101469731735 -9076.20946382649
          -404081.1171906272 -404418.16347019555 -404755.20974976383 20440.301828608797 14939.835322684576 21263.83429253431
          14803.659358507764 22087.36675645982 14667.48339433095 -174322.28215628013 -23260.233657465884 -175573.44991594233
          -23146.25197859653 -176824.61767560456 -23032.270299727184 46819.58614443168 81003.66850258275 43142.85265974379
          82911.47691650628 39466.119175055836 84819.28533042985 -201701.2868086746 -262054.55957384218 20678.50370460742
          48282.46972116336 -196849.12192739645 -250727.7786737589 11164.155018032974 40468.10365533663 -191996.95704611827
          -239400.99777367568 1649.806331458527 32653.737589509892 -7167.700521533999 -9841.938739868056 -12516.176958202112
          70655.22101991536 67651.32614735833 64647.431274801274 -26506.07449955956 -26368.813454851992 -26231.55241014441
          -11071.102662711684 -12334.503598944291 -10527.108700709581 -11811.774257622003 -9983.114738707474 -11289.044916299712
          38529.76104506455 -3535.750730468654 13350.548855496036 -117034.86086396583 29535.273689881156 -4293.427046673689
          9189.414330281908 -122759.57319553812 20540.78633469777 -5051.1033628787245 5028.279805067779 -128484.28552711039
          -3467.267723566968 -3046.984164686057 -2860.6521227928815 -1600.9995657991922 -2254.036522018795 -155.01496691232705
          -340748.0901652189 -323860.2785218699 -306972.4668785209 -166660.12692402338 -170789.7360379771 -174919.34515193081
          -630309.750556843 -517442.6492157797 -620161.8027576245 -503342.9838829664 -610013.8549584062 -489243.318550153
          12165.14553206783 -1212.8130590973242 14519.635938630803 -973.9686760274164 16874.126345193767 -735.1242929575089
          513.0264571689422 6796.815681621046 1418.0100854523332 8917.83127514095 2322.9937137357238 11038.846868660852
          -327097.33217190794 -303566.89063468296 -280036.449097458 1848.0227503393858 1972.3403148213388 2096.657879303292
          -307623.14769865334 -281666.06536186946 -255708.98302508553 12864.821814585144 13179.36558220025 13493.909349815354
          -378605.6726165529 -356599.2848243477 -334592.8970321426 130650.1412146294 87749.07991014092 115015.25204931569
          72113.32915114742 99380.36288400195 56477.57839215391 -8306.703987362125 -7483.537533467073 -6660.371079572019
          -11580.480365451702 -15491.775858058021 -10608.148882702959 -14851.945497749666 -9635.817399954212 -14212.115137441315
          20197.84931040582 -44134.52830587675 15542.776752211845 -49217.243040995105 10887.704194017871 -54299.95777611344
          -4203.407003380926 -4051.801477542485 -2604.053252226165 -1781.3019329299368 -1004.6995010714072 489.19761168261084
          -160082.78288421605 -153007.56730708826 -145932.3517299604 34689.815057539396 12124.721749163196 -10440.371559213032
          -556946.851599618 -552359.3183217803 -547771.7850439426 -247780.73509217208 -264060.3159159025 -215355.81529830303
          -233463.40114079684 -182930.8955044339 -202866.48636569118 -70919.26949420733 -48506.803511366 -75334.60958830707
          -60312.84148559109 -79749.94968240679 -72118.87945981618 -431294.44805178413 -262470.4184004317 -545771.2610148082
          -399641.65300878853 -262559.751534211 -527898.4675854124 -367988.8579657929 -262649.08466799016 -510025.67415601684
          -502563.77807539003 -493926.44406953576 -485289.1100636814 5423.670161005866 -12970.115212603665 6075.421356663015
          -12141.257030670979 6727.172552320162 -11312.398848738292 -14512.886278936636 105372.56318953709 -15055.420167696042
          97533.20956173613 -15597.954056455466 89693.85593393519 -313690.77557727095 -315847.5974353256 -318004.4192933802
          -242882.4277571547 -230600.03410907125 -218317.6404609878 -16459.379450891905 -15844.11774049426 -15228.856030096615
          -1989.8435362425878 -9336.099971743894 -1334.58682034579 -8815.214432980947 -679.3301044489922 -8294.328894217999
          88102.71912875344 74451.26759752342 60799.81606629339 -4171.976681526303 -860.5178070823516 2450.9410673615994
          -14113.846565629548 -14742.459851901833 -15371.073138174115 -63112.74850579271 -62368.34512392152 -61623.94174205032
          110792.43534268095 102265.21253001849 93737.98971735602 -302532.13817718875 -308097.4892663427 -313662.8403554966
          -10423.837505957883 -14391.969036315524 -18360.100566673194 -386469.54218082887 -387093.88173879765 -387718.2212967665
          -925216.6079879266 -922048.7586764821 -918880.9093650377 -1394373.9315066738 -1390156.0682264594 -1385938.2049462453
          -1589550.2635963282 -1586122.6956612696 -1582695.1277262112 -56695.60198760133 -55593.066530874545 -56618.38948262803
          -55709.07365867733 -56541.17697765472 -55825.08078648012 -37445.82930706021 -36021.40291637956 -37415.138390610744
          -36107.010642515525 -37384.44747416129 -36192.61836865149 -7322.935973849448 -4339.783578482798 -7320.541526897814
          -4260.312870015125 -7318.147079946182 -4180.842161547453 20554.32595195566 25357.92019848797 20550.485345585344
          25419.727003994674 20546.64473921503 25481.533809501383 40657.032092843394 46362.744163759766 40629.196877534356
          46412.34902458114 40601.36166222532 46461.95388540252 53454.15567738257 57035.38060913628 53450.510562722324
          57097.8358373138 53446.86544806208 57160.29106549133 49751.135562823765 53072.456374683825 49765.837590144656
          53143.61858608033 49780.53961746555 53214.78079747684 15250.841247104217 22491.370303576954 15203.485125151925
          22539.00505673451 15156.129003199636 22586.639809892065 -51561.1565638513 -52032.519761786854 -52503.882959722425
          -29400.25444627043 -29656.12956325158 -29912.004680232734 2700.916957672171 2655.9676764745495 2611.0183952769285
          28210.811549139093 28193.985634133882 28177.15971912867 44470.20805979765 44411.33998343634 44352.47190707503
          59230.94921426437 59284.32800978367 59337.706805302965 47794.9485660915 47947.727653087146 48100.5067400828
          -5886.517504628337 -5890.312774426881 -5894.108044225427 -38675.41840271525 -37695.50004571775 -36715.58168872025
          -854.132767869256 -423.7053894957653 6.721988877723561 32449.278687120903 32595.323981182635 32741.369275244375
          51940.76564037312 52170.9257419281 52401.08584348307 59790.30291169855 59757.334862757234 59724.36681381591
          75077.71709293008 75093.9854274233 75110.25376191651 44596.73018975684 44560.57852894698 44524.426868137125
          -46087.83362740256 -46635.24824290721 -47182.662858411866 -6795.798011090704 -9109.636590580807 -11423.475170070911
          23410.044346498722 22983.10770497709 22556.17106345546 66535.61989966263 66266.33273484683 65997.04557003104
          72241.5169037981 72044.25977526343 71847.00264672875 62698.28391492636 62425.62076777309 62152.95762061983
          83880.62615136692 84164.58223662838 84448.53832188984 26045.981687330317 26844.064634921902 27642.147582513477
          -115942.66742337719 -115791.65577602386 -115640.64412867055 27174.88565782851 26740.15950022808 26305.433342627643
          110443.41384263281 110023.30332032792 109603.19279802302 101238.36370164042 102274.6097326004 103310.8557635604
          73621.82025060373 74698.0019203541 75774.18359010448 51875.98057004347 51542.50037120481 51209.02017236616
          82543.73063119495 82328.72903519495 82113.72743919496 -31143.140743731463 -31787.48531830554 -32431.8298928796
          -256360.08713617403 -258879.20391825822 -261398.32070034242 881334.8201531928 882200.1147777208 883065.4094022489
          161939.79882418594 166146.00817947733 170352.2175347687 -171487.74626205402 -170753.65812840848 -170019.569994763
          73125.00550765084 69549.47415114184 65973.94279463287 64542.9249174085 63616.96836704234 62691.01181667618
          18787.264049994294 18083.180631916613 17379.09721383893 92296.75557369491 93114.66494473642 93932.57431577789
          -96643.6924757717 -94176.69985076474 -91709.70722575775 -441066.2190380574 -440832.26153286325 -440598.30402766925
          2296639.214388105 2285410.422598925 2274181.6308097444 1627123.1535405174 1622820.652712381 1618518.1518842443
          -252366.47543457313 -244350.10041523603 -236333.72539589892 -272554.3208990075 -271684.94781448226 -270815.5747299571
          331997.4389054703 328477.3117847022 324957.184663934 63136.3598231816 61002.21668014 58868.07353709842
          40995.69860675873 41877.176424761834 42758.65424276494 -634499.4056942251 -632746.7046692664 -630994.0036443078
          -1268677.1042661928 -1271500.695342278 -1274324.2864183635 2101390.893182677 2092725.9961429941 2084061.099103311
          2010098.1145894993 1999182.8788223777 1988267.6430552565 -653842.5067548343 -644819.2407697667 -635795.974784699
          -1652599.7185406697 -1640536.329496647 -1628472.9404526246 -101618.84805524882 -102195.73796648372 -102772.62787771865
          300347.4405350988 294990.9092311267 289634.3779271547 520922.19243802986 521721.85439276014 522521.5163474905
          -360996.5866249491 -361111.6443869167 -361226.7021488844 -1540273.3003070273 -1548277.2184535158 -1556281.1366000043
          1202847.5855892 1199007.748659581 1195167.911729962 1053914.8135305531 1042170.5422717715 1030426.2710129899
          -1338216.28181596 -1336267.5704053857 -1334318.8589948113 -2732436.90696166 -2720118.3114831885 -2707799.716004717
          -804117.9706681239 -803054.7709612328 -801991.5712543419 468049.7864878599 460371.9526698139 452694.1188517679
          1065553.8233473157 1068167.892104926 1070781.9608625367 428063.1200508377 432566.0624236961 437069.0047965545
          -1072097.670677273 -1075420.5672603422 -1078743.4638434113 -8275.14349330369 -14284.05735319767 -8261.69653772088
          -14293.429653713727 -8248.249582138069 -14302.801954229782 -32688.548768029297 -32532.43153486325 -32376.31430169721
          -65493.89562423775 -65478.980387400065 -65464.06515056239 -114627.66287546669 -113713.42958095158 -112799.19628643645
          -205352.5527687798 -205528.63932136027 -205704.72587394077 -282912.9205877959 -280089.1620941916 -277265.4036005872
          -781162.9208398857 -777205.0339665312 -773247.1470931768 -400992.195406549 -395893.292430605 -390794.389454661
          461869.0544032161 472293.8388390671 482718.62327491783 -20537.848558492675 -23869.590011977856 -20524.50382392299
          -23858.34040998925 -20511.159089353307 -23847.090808000645 -33446.82726782739 -33368.68155985457 -33290.53585188175
          -48969.864567533456 -48916.051206936434 -48862.23784633941 -70590.31067084517 -70205.42441379947 -69820.53815675376
          -103887.65956473988 -103806.55437050448 -103725.44917626907 -125919.58113772715 -124849.99343385504 -123780.40572998294
          -344607.83287478704 -343087.48065418546 -341567.1284335838 500638.29520765564 500031.8955693388 499425.4959310219
          1563495.1977420957 1562027.9417829674 1560560.6858238396 -31989.42714432149 -35773.82615056648 -31970.779063775633
          -35770.10175308406 -31952.130983229777 -35766.377355601646 -46867.115653345776 -46904.12737286236 -46941.13909237893
          -65017.83934473788 -65152.006547471916 -65286.173750205955 -91192.52461304485 -91428.52006535031 -91664.51551765576
          -127458.31959003031 -128035.92048223257 -128613.52137443484 -188586.5826384731 -189506.46252356636 -190426.34240865958
          -256023.27231954894 -258195.89855072863 -260368.52478190832 336106.9562917171 331850.5181576416 327594.080023566
          955478.5544391525 950359.8919949839 945241.2295508152 -44378.807347154914 -48190.269807108925 -44377.293241890606
          -48180.39879391548 -44375.77913662629 -48170.52778072204 -59312.37695603366 -59276.193840383305 -59240.01072473293
          -77227.42625580347 -77146.61938919549 -77065.8125225875 -101271.47696952191 -101121.17221551442 -100970.86746150695
          -133708.77212917412 -133428.6203871132 -133148.4686450523 -164750.2937285438 -164346.29878990218 -163942.30385126054
          -110762.34752613997 -109822.5158871772 -108882.68424821444 366290.1174209269 368830.424223672 371370.73102641717
          777310.7636229532 780952.5344286565 784594.3052343597 -56242.78515127632 -60226.36727154784 -56236.302950665595
          -60222.635057330604 -56229.82075005486 -60218.90284311336 -71750.2411511619 -71759.05970312629 -71767.87825509066
          -89557.538732975 -89587.2184929321 -89616.89825288921 -111463.75753649672 -111550.70784912468 -111637.65816175262
          -132773.0465467506 -132887.73762602155 -133002.42870529255 -126302.84411058133 -126700.1744553878 -127097.50480019426
          -14189.712010102747 -14650.053219815032 -15110.394429527314 345994.20917878964 345092.3213190207 344190.4334592516
          610205.2767325754 608623.7444642967 607042.2121960181 -66689.26327440541 -70841.16081306731 -66688.55311728898
          -70839.2998316304 -66687.84296017255 -70837.43885019349 -82627.1130687604 -82625.46864164805 -82623.82421453572
          -99845.15528652849 -99840.13666148107 -99835.11803643365 -117562.73788404943 -117571.70191306405 -117580.66594207867
          -124048.57693260077 -124014.48149781427 -123980.38606302779 -87190.7048661173 -87280.95815332762 -87371.21144053793
          47773.17391488579 47932.45539785854 48091.73688083128 324016.37929800566 324557.2851061606 325098.1909143155
          500505.82191837317 500992.68486508715 501479.5478118011 -74861.1287373646 -79130.3135277904 -74860.81082743927
          -79130.53561319744 -74860.49291751397 -79130.75769860449 -91005.93386968231 -91011.99999735187 -91018.0661250214
          -107200.13294449076 -107210.93254042056 -107221.73213635033 -120038.81714240037 -120078.77033432381 -120118.72352624728
          -113374.10254349477 -113392.61132726655 -113411.12011103833 -56657.48369558966 -56827.64991278424 -56997.81612997884
          84890.78648717032 84897.90776611147 84905.02904505262 306326.4938557201 306380.6160101858 306434.73816465144
          432014.91461594217 431735.92413355864 431456.933651175 -80071.05215241545 -84406.37598520075 -80070.50223586452
          -84406.28335786857 -80069.95231931357 -84406.19073053636 -96268.39468623057 -96273.32647693178 -96278.25826763298
          -111516.76180913494 -111523.86764001402 -111530.9734708931 -120638.47082700548 -120670.3031042839 -120702.1353815623
          -105408.01784044548 -105410.97182469888 -105413.9258089523 -38086.17132260038 -38211.03841860051 -38335.90551460064
          103997.05956474724 104074.12895352085 104151.19834229443 294494.5050073016 294691.2994107428 294888.0938141841
          393600.0763305827 393536.74832411006 393473.42031763744 -81861.68029613791 -86216.37209412466 -81860.82679906365
          -86216.30009306867 -81859.97330198939 -86216.22809201268 -98055.32907218572 -98061.00154290393 -98066.67401362213
          -112920.22579247944 -112928.7933074906 -112937.36082250178 -120665.03056143939 -120699.83040310824 -120734.6302447771
          -102491.96208583793 -102499.66264304958 -102507.36320026126 -31869.716559679444 -31999.260867199417 -32128.805174719393
          109923.44292712447 109986.81000017122 110050.17707321797 290564.0281928375 290709.4750578347 290854.9219228319
          381496.4577935631 381353.82977705786 381211.2017605527
        </DataArray>
        <DataArray type="Float64" Name="peeq" format="ascii" RangeMin="0" RangeMax="0.0005095524365258013">
          0.0000018589399202382412 3.057071591391919e-7 0 0 0.0000018916559639283516 3.189207860494409e-7
          0 0 0.000001924372007618462 3.3213441295968993e-7 0 0
          0 0 0 0 0 0
          0 0 0 0 0 0
          0 0 0 0 0 0
          0 0 0 0 0 0
          0 0 0 0 0 0
          0 0 0 1.5429450866397768e-8 0 0
          0 3.0858901732795536e-8 0 0 0 0
          0 0 0 0 0 0
          0 0 0 0 0 0
          0 0 0 0 0 0
          0.0000032182392066610106 0.0000032554494711502223 0.0000032926597356394336 0 0 0
          0 0 0 0.000001276698255287199 0 0.000001289530498801584
          0 0.0000013023627423159689 0 0.00010508277909271231 0.0001374645390226848 0.00010527632217941444
          0.00013751229951282313 0.00010546986526611656 0.00013756006000296148 0.000001444825321269737 0.000007563429364511658 3.552458956917397e-8
          0 0.000001562155646803871 0.000007808029790605716 5.1190274117949826e-8 0 0.000001679485972338005
          0.000008052630216699775 6.685595866672567e-8 0 0 0 0
          0.0001658136006623007 0.00016567847252793548 0.00016554334439357026 0 0 0
          0 0 0 0 0 0
          0 0 0 0.0000015213779471450687 0 0
          0 0.0000015947800691414079 0 0 0 0.000001668182191137747
          0 0 0 0 0 0
          0.00007612653119323687 0.00007639213367921894 0.000076657736165201 0 2.277019617988612e-8 4.554039235977224e-8
          0.00002338044831004811 0.00003759205748045235 0.000023700424174574144 0.00003797227097002255 0.00002402040003910018 0.00003835248445959275
          0 0 0 0 0 0
          0 0 0 0 0 0
          0.00005075322735646924 0.000051113231551824085 0.00005147323574717893 0 0 0
          0.00002898669640668654 0.00002931956586490384 0.000029652435323121135 0 0 0
          0.000021189915861570353 0.000021575096219661964 0.000021960276577753575 0.00016355461339049725 0.00015428091551419768 0.00016342897419352535
          0.00015419921941699346 0.0001633033349965534 0.00015411752331978925 0 0 0
          0 0 0 0 0 0
          0 1.6469383307769913e-7 0 2.141221138365528e-7 0 2.6355039459540646e-7
          0 0 0 0 0 0
          0.0000033276791704381083 0.000003530561051918459 0.0000037334429333988097 0.0001334716359290724 0.00013349464078675933 0.00013351764564444623
          0.000008660515364783404 0.000008873485183041292 0.000009086455001299181 0.000017102760466284826 0.00005219079935991065 0.0000174028338740081
          0.000052646263997813075 0.00001770290728173137 0.00005310172863571548 0.00008023482902244289 0.0000876228763769592 0.00008057464655421825
          0.00008795214703815761 0.00008091446408599362 0.00008828141769935601 0.000015846158094476218 3.6780927593777905e-7 0.000021776277099664445
          0.0000161610125821839 5.213363002453478e-7 0.000022219307607803584 0.000016475867069891584 6.748633245529166e-7 0.000022662338115942726
          0.000025433323145493466 0.000025992200748172556 0.000026551078350851645 0 0 0
          0 0 0 0 0 0
          0 0 0 7.356185518755581e-7 9.971322081309234e-7 0.0000012586458643862886
          0.00006525027245516994 0.00006563752932154075 0.00006602478618791154 0 0 0
          0 0 0 0 0 0
          0 0 0 0 0 0
          0 0 0 0 0 0
          0 0 0 0 0 0
          0.00000776437690359475 0.000007783829916004713 0.000007803282928414675 0.00002405702864445263 0.000024122192684024996 0.00002418735672359736
          0.000034052014192404046 0.00003415130343538278 0.00003425059267836151 0.000035195746057892234 0.00003531068200512976 0.00003542561795236728
          0.00003487276721269214 0.00003499548267553452 0.0000351181981383769 0 0 0
          0 0 0 0 0 0
          0 0 0 0 0 0
          0 0 0 0 0 0
          0 0 0 0 0 0
          0 0 0 0 0 0
          0 0 0 0 0 0
          0 0 0 0 0 0
          0 0 0 0 0 0
          0 0 0 0 0 0
          0 0 0 0 0 0
          0 0 0 0 0 0
          0 0 0 0 0 0
          0 0 0 0 0 0
          0 0 0 0 0 0
          0 0 0 0 0 0
          0 0 0 0 0 0
          0 0 0 0 0 0
          0 0 0 0 0 0
          0 0 0 0 0 0
          0 0 0 0 0 0
          0 0 0 0 0 0
          0 0 0 0 0 0
          0 0 0 0 0 0
          0 0 0 0.00006597268916072757 0.00006586234275745507 0.00006575199635418255
          0.000028859475090814375 0.000028814520215403173 0.000028769565339991968 0.00000407901426822658 0.000004080502873158164 0.000004081991478089748
          0 0 0 0 0 0
          0 0 0 0 0 0
          0 0 0 0 0 0
          0.0002108685038760955 0.00021062615665509027 0.000210383809434085 0.0001450819168969043 0.00014491117570741363 0.00014474043451792294
          0.00004641062154603641 0.00004639692628075699 0.00004638323101547757 0.0000014714934927084987 0.0000014895208600786883 0.0000015075482274488778
          0 0 0 0 0 0
          0 0 0 0 0 0
          0 0 0 0.0004049837403696795 0.0004046151123914719 0.0004042464844132643
          0.0003554005308799063 0.000355053612683599 0.00035470669448729166 0.00017973364305113167 0.0001796595893891145 0.0001795855357270973
          0.00003676345427299925 0.00003680381660586296 0.000036844178938726664 0 0 0
          0 0 0 0 0 0
          0 0 0 0 0 0
          0.0005095524365258013 0.0005091191045139274 0.0005086857725020533 0.00047835617814763286 0.0004779139143831772 0.0004774716506187214
          0.0002748040715466437 0.0002746863319630313 0.00027456859237941895 0.0000705839215605815 0.00007062859149156855 0.00007067326142255558
          0 0 0 0 0 0
          0 0 0 0 0 0
          0 0 0 0 0 0
          0 0 0 0 0 0
          0 0 0 0 0 0
          0 0 0 0 0 0
          0 0 0 0 0 0
          0 0 0 0 0 0
          0 0 0 0 0 0
          0 0 0 0 0 0
          0 0 0 0 0 0
          0 0 0 0 0 0
          0 0 0 0 0 0
          0 0 0 0 0 0
          0 0 0 0 0 0
          0 0 0 0 0 0
          0 0 0 0 0 0
          0 0 0 0 0 0
          0 0 0 0 0 0
          0 0 0 0 0 0
          0 0 0 0 0 0
          0 0 0 0 0 0
          0 0 0 0 0 0
          0 0 0 0 0 0
          0 0 0 0 0 0
          0 0 0 0 0 0
          0 0 0 0 0 0
          0 0 0 0 0 0
          0 0 0 0 0 0
          0 0 0 0 0 0
          0 0 0 0 0 0
          0 0 0 0 0 0
          0 0 0 0 0 0
          0 0 0 0 0 0
          0 0 0 0 0 0
          0 0 0 0 0 0
          0 0 0 0 0 0
          0 0 0 0 0 0
          0 0 0 0 0 0
          0 0 0 0 0 0
          0 0 0 0 0 0
          0 0 0 0 0 0
          0 0 0 0 0 0
          0 0 0 0 0 0
          0 0 0 0 0 0
          0 0 0 0 0 0
          0 0 0 0 0 0
          0 0 0
        </DataArray>
        <DataArray type="Float64" Name="pe11" format="ascii" RangeMin="0" RangeMax="0.0005045110778496062">
          0.0000018588462642888933 3.057062693935511e-7 0 0 0.0000018915608246151617 3.1891974219888753e-7
          0 0 0.00000192427538494143 3.321332150042239e-7 0 0
          0 0 0 0 0 0
          0 0 0 0 0 0
          0 0 0 0 0 0
          0 0 0 0 0 0
          0 0 0 0 0 0
          0 0 0 1.5429057180284534e-8 0 0
          0 3.085811436056907e-8 0 0 0 0
          0 0 0 0 0 0
          0 0 0 0 0 0
          0 0 0 0 0 0
          0.0000032176939347168875 0.000003254897165173084 0.0000032921003956292807 0 0 0
          0 0 0 0.0000012762689410977098 0 0.0000012890958121527413
          0 0.000001301922683207773 0 0.00010507637402755808 0.00013745177189185205 0.00010526989296670234
          0.00013749957229612671 0.00010546341190584658 0.0001375473727004014 0.0000014447945063470477 0.000007563126518163102 3.552354280960226e-8
          0 0.0000015621164307552526 0.000007807694299645767 5.118860554593558e-8 0 0.0000016794383551634575
          0.000008052262081128433 6.68536682822689e-8 0 0 0 0
          0.00016580291435730485 0.00016566777442712804 0.0001655326344969513 0 0 0
          0 0 0 0 0 0
          0 0 0 0.0000015213111245529123 0 0
          0 0.0000015947076512720192 0 0 0 0.0000016681041779911264
          0 0 0 0 0 0
          0.0000761218404411088 0.00007638738874340127 0.00007665293704569375 0 2.276978914094055e-8 4.55395782818811e-8
          0.00002337932854391965 0.00003759060414103294 0.000023699227245718602 0.00003797071524517412 0.000024019125947517557 0.000038350826349315286
          0 0 0 0 0 0
          0 0 0 0 0 0
          0.000050749123641139534 0.000051109058522593335 0.00005146899340404711 0 0 0
          0.00002898473720815301 0.000029317533866345975 0.000029650330524538944 0 0 0
          0.000021188985740802123 0.00002157409755751739 0.000021959209374232657 0.0001635529931043985 0.00015427914516805925 0.0001634273813640874
          0.000154197490440772 0.00016330176962377633 0.00015411583571348474 0 0 0
          0 0 0 0 0 0
          0 1.6468477691911482e-7 0 2.141099113016821e-7 0 2.635350456842494e-7
          0 0 0 0 0 0
          0.0000033275263990734285 0.000003530388592790384 0.00000373325078650734 0.00013346923877305387 0.00013349226691344702 0.00013351529505384015
          0.000008659903098041612 0.000008872838905705271 0.000009085774713368932 0.000017102251182229496 0.000052188963575473585 0.000017402275284493497
          0.00005264433496290576 0.000017702299386757502 0.00005309970635033793 0.00008023389125021065 0.00008762186510493602 0.00008057368561951544
          0.0000879511207821387 0.00008091347998882023 0.00008828037645934139 0.000015845959572324907 3.6780737479974454e-7 0.00002177604543487556
          0.00001616076967876724 5.21331975091287e-7 0.000022219035835769843 0.000016475579785209572 6.748565753828294e-7 0.000022662026236664128
          0.00002543309068724009 0.00002599193732962687 0.00002655078397201365 0 0 0
          0 0 0 0 0 0
          0 0 0 7.356147495994891e-7 9.971243719006929e-7 0.0000012586339942018966
          0.00006524888967818773 0.0000656360899954181 0.00006602329031264849 0 0 0
          0 0 0 0 0 0
          0 0 0 0 0 0
          0 0 0 0 0 0
          0 0 0 0 0 0
          0.00000775209168460352 0.000007771497126655607 0.000007790902568707695 0.00002403494643393432 0.000024100013482547293 0.000024165080531160262
          0.000034039814376834954 0.00003413902751035599 0.00003423824064387703 0.000035192826336186364 0.0000353077242364217 0.00003542262213665704
          0.00003487173341736443 0.00003499442616391479 0.00003511711891046515 0 0 0
          0 0 0 0 0 0
          0 0 0 0 0 0
          0 0 0 0 0 0
          0 0 0 0 0 0
          0 0 0 0 0 0
          0 0 0 0 0 0
          0 0 0 0 0 0
          0 0 0 0 0 0
          0 0 0 0 0 0
          0 0 0 0 0 0
          0 0 0 0 0 0
          0 0 0 0 0 0
          0 0 0 0 0 0
          0 0 0 0 0 0
          0 0 0 0 0 0
          0 0 0 0 0 0
          0 0 0 0 0 0
          0 0 0 0 0 0
          0 0 0 0 0 0
          0 0 0 0 0 0
          0 0 0 0 0 0
          0 0 0 0 0 0
          0 0 0 0 0 0
          0 0 0 0.00006517854588775905 0.00006506901074272183 0.0000649594755976846
          0.000028353273202483315 0.000028309190403464526 0.000028265107604445737 0.0000039902442132086764 0.000003991834072028575 0.000003993423930848474
          0 0 0 0 0 0
          0 0 0 0 0 0
          0 0 0 0 0 0
          0.0002085354609514088 0.00020829346201628641 0.00020805146308116402 0.0001421408790353157 0.0001419737501139286 0.00014180662119254154
          0.00004499683092237226 0.000044984947207067184 0.00004497306349176211 0.0000014107238946411615 0.0000014280752278956755 0.0000014454265611501896
          0 0 0 0 0 0
          0 0 0 0 0 0
          0 0 0 0.00040086400783072626 0.00040049243573618684 0.00040012086364164747
          0.00034697057465597015 0.0003466300333379164 0.0003462894920198628 0.00017209224258165547 0.00017202717570681146 0.00017196210883196748
          0.0000342870328815469 0.00003432960075995208 0.000034372168638357275 0 0 0
          0 0 0 0 0 0
          0 0 0 0 0 0
          0.0005045110778496062 0.0005040724421895256 0.0005036338065294451 0.00046636593764627556 0.00046593094725490476 0.00046549595686353395
          0.00026217131174498373 0.0002620681251435457 0.0002619649385421077 0.00006575261797381148 0.00006580305106411282 0.00006585348415441417
          0 0 0 0 0 0
          0 0 0 0 0 0
          0 0 0 0 0 0
          0 0 0 0 0 0
          0 0 0 0 0 0
          0 0 0 0 0 0
          0 0 0 0 0 0
          0 0 0 0 0 0
          0 0 0 0 0 0
          0 0 0 0 0 0
          0 0 0 0 0 0
          0 0 0 0 0 0
          0 0 0 0 0 0
          0 0 0 0 0 0
          0 0 0 0 0 0
          0 0 0 0 0 0
          0 0 0 0 0 0
          0 0 0 0 0 0
          0 0 0 0 0 0
          0 0 0 0 0 0
          0 0 0 0 0 0
          0 0 0 0 0 0
          0 0 0 0 0 0
          0 0 0 0 0 0
          0 0 0 0 0 0
          0 0 0 0 0 0
          0 0 0 0 0 0
          0 0 0 0 0 0
          0 0 0 0 0 0
          0 0 0 0 0 0
          0 0 0 0 0 0
          0 0 0 0 0 0
          0 0 0 0 0 0
          0 0 0 0 0 0
          0 0 0 0 0 0
          0 0 0 0 0 0
          0 0 0 0 0 0
          0 0 0 0 0 0
          0 0 0 0 0 0
          0 0 0 0 0 0
          0 0 0 0 0 0
          0 0 0 0 0 0
          0 0 0 0 0 0
          0 0 0 0 0 0
          0 0 0 0 0 0
          0 0 0 0 0 0
          0 0 0 0 0 0
          0 0 0
        </DataArray>
        <DataArray type="Float64" Name="pe22" format="ascii" RangeMin="-0.00023852760694019823" RangeMax="0">
          -9.199244634695062e-7 -1.5233099692283147e-7 0 0 -9.361427406346484e-7 -1.589108954488507e-7
          0 0 -9.523610177997908e-7 -1.6549079397486997e-7 0 0
          0 0 0 0 0 0
          0 0 0 0 0 0
          0 0 0 0 0 0
          0 0 0 0 0 0
          0 0 0 0 0 0
          0 0 0 -7.688204038505375e-9 0 0
          0 -1.537640807701075e-8 0 0 0 0
          0 0 0 0 0 0
          0 0 0 0 0 0
          0 0 0 0 0 0
          -0.0000015807716872125986 -0.0000015990594479726486 -0.0000016173472087326988 0 0 0
          0 0 0 -6.21279854029255e-7 0 -6.275196414904015e-7
          0 -6.337594289515479e-7 0 -0.000052664969645673334 -0.00006893811282487106 -0.0000527521141270304
          -0.00006896447760471088 -0.000052839258608387485 -0.00006899084238455072 -7.211360106124084e-7 -0.000003779685670328031 -1.7847825387422635e-8
          0 -7.792694944862814e-7 -0.000003899650588138204 -2.569852163843362e-8 0 -8.374029783601545e-7
          -0.000004019615505948376 -3.3549217889444606e-8 0 0 0 0
          -0.00008318941055280205 -0.00008313960644257299 -0.00008308980233234393 0 0 0
          0 0 0 0 0 0
          0 0 0 -7.695071004618236e-7 0 0
          0 -8.062044157641005e-7 0 0 0 -8.429017310663775e-7
          0 0 0 0 0 0
          -0.000038141022515088914 -0.000038264364529837676 -0.000038387706544586445 0 -1.1345692677248152e-8 -2.2691385354496303e-8
          -0.000011743593477077199 -0.00001883630012160192 -0.000011898192540199679 -0.000019017704549979265 -0.000012052791603322159 -0.000019199108978356613
          0 0 0 0 0 0
          0 0 0 0 0 0
          -0.00002538972577588538 -0.000025559048861914664 -0.00002572837194794395 0 0 0
          -0.000014486567969993377 -0.000014644760101109321 -0.000014802952232225266 0 0 0
          -0.000010606172937607234 -0.000010793457768512603 -0.000010980742599417972 -0.00008177460561714016 -0.00007712582300179724 -0.0000817169833974603
          -0.00007708998693148995 -0.00008165936117778043 -0.00007705415086118265 0 0 0
          0 0 0 0 0 0
          0 -8.292667970688031e-8 0 -1.0774766441172259e-7 0 -1.3256864911656486e-7
          0 0 0 0 0 0
          -0.000001675707813659655 -0.0000017766949942367003 -0.0000018776821748137458 -0.00006676355074176808 -0.00006677154884887272 -0.00006677954695597737
          -0.0000043630274120106975 -0.000004467760785514943 -0.000004572494159019189 -0.000008565760555702391 -0.00002616775629413253 -0.000008709845128963286
          -0.000026379682223428536 -0.000008853929702224177 -0.00002659160815272454 -0.000040123283002458966 -0.00004381891025744899 -0.000040280155724333006
          -0.00004397088734292273 -0.000040437028446207046 -0.000044122864428396466 -0.000007929620550732856 -1.834275545068021e-7 -0.000010885164899887365
          -0.000008080771242373366 -2.598747191355602e-7 -0.000011099380970520398 -0.000008231921934013879 -3.3632188376431826e-7 -0.000011313597041153434
          -0.000012710248175414308 -0.000012981838007644786 -0.000013253427839875266 0 0 0
          0 0 0 0 0 0
          0 0 0 -3.668551090136042e-7 -4.970580529166241e-7 -6.272609968196439e-7
          -0.000032673464277184125 -0.00003285154812220325 -0.00003302963196722239 0 0 0
          0 0 0 0 0 0
          0 0 0 0 0 0
          0 0 0 0 0 0
          0 0 0 0 0 0
          -0.0000036789159816995568 -0.0000036882360242830995 -0.0000036975560668666427 -0.000011576357808717373 -0.00001160827571938501 -0.000011640193630052647
          -0.000016659120906598868 -0.0000167076270482242 -0.000016756133189849537 -0.00001746174604130429 -0.00001751708245159542 -0.000017572418861886548
          -0.000017400133923446473 -0.000017458990196946256 -0.00001751784647044604 0 0 0
          0 0 0 0 0 0
          0 0 0 0 0 0
          0 0 0 0 0 0
          0 0 0 0 0 0
          0 0 0 0 0 0
          0 0 0 0 0 0
          0 0 0 0 0 0
          0 0 0 0 0 0
          0 0 0 0 0 0
          0 0 0 0 0 0
          0 0 0 0 0 0
          0 0 0 0 0 0
          0 0 0 0 0 0
          0 0 0 0 0 0
          0 0 0 0 0 0
          0 0 0 0 0 0
          0 0 0 0 0 0
          0 0 0 0 0 0
          0 0 0 0 0 0
          0 0 0 0 0 0
          0 0 0 0 0 0
          0 0 0 0 0 0
          0 0 0 0 0 0
          0 0 0 -0.000027971024957573714 -0.000027923004632140558 -0.0000278749843067074
          -0.000011815896769105547 -0.000011795126762451554 -0.000011774356755797561 -0.0000016390162768935127 -0.0000016391639444423252 -0.0000016393116119911376
          0 0 0 0 0 0
          0 0 0 0 0 0
          0 0 0 0 0 0
          -0.00009288040494545001 -0.00009277849295396032 -0.00009267658096247063 -0.00006178126419687993 -0.00006170320003404596 -0.000061625135871212
          -0.00001929072493735025 -0.000019280134554153313 -0.000019269544170956378 -5.963481723119331e-7 -6.034734286833355e-7 -6.105986850547378e-7
          0 0 0 0 0 0
          0 0 0 0 0 0
          0 0 0 -0.00018638851587787674 -0.000186215550953282 -0.00018604258602868728
          -0.00015750199948547715 -0.00015732972688757368 -0.00015715745428967023 -0.0000765302080464645 -0.0000764777070514045 -0.0000764252060563445
          -0.000014947737841022548 -0.0000149586143511517 -0.000014969490861280855 0 0 0
          0 0 0 0 0 0
          0 0 0 0 0 0
          -0.00023852760694019823 -0.00023830704363206714 -0.00023808648032393602 -0.00021507326411540555 -0.00021484330723195856 -0.0002146133503485116
          -0.00011775699877201551 -0.00011767347288338701 -0.00011758994699475855 -0.000028702779337421228 -0.00002871028184493673 -0.000028717784352452233
          0 0 0 0 0 0
          0 0 0 0 0 0
          0 0 0 0 0 0
          0 0 0 0 0 0
          0 0 0 0 0 0
          0 0 0 0 0 0
          0 0 0 0 0 0
          0 0 0 0 0 0
          0 0 0 0 0 0
          0 0 0 0 0 0
          0 0 0 0 0 0
          0 0 0 0 0 0
          0 0 0 0 0 0
          0 0 0 0 0 0
          0 0 0 0 0 0
          0 0 0 0 0 0
          0 0 0 0 0 0
          0 0 0 0 0 0
          0 0 0 0 0 0
          0 0 0 0 0 0
          0 0 0 0 0 0
          0 0 0 0 0 0
          0 0 0 0 0 0
          0 0 0 0 0 0
          0 0 0 0 0 0
          0 0 0 0 0 0
          0 0 0 0 0 0
          0 0 0 0 0 0
          0 0 0 0 0 0
          0 0 0 0 0 0
          0 0 0 0 0 0
          0 0 0 0 0 0
          0 0 0 0 0 0
          0 0 0 0 0 0
          0 0 0 0 0 0
          0 0 0 0 0 0
          0 0 0 0 0 0
          0 0 0 0 0 0
          0 0 0 0 0 0
          0 0 0 0 0 0
          0 0 0 0 0 0
          0 0 0 0 0 0
          0 0 0 0 0 0
          0 0 0 0 0 0
          0 0 0 0 0 0
          0 0 0 0 0 0
          0 0 0 0 0 0
          0 0 0
        </DataArray>
        <DataArray type="Float64" Name="pe33" format="ascii" RangeMin="-0.00026598347090940806" RangeMax="0">
          -9.389218008193868e-7 -1.533752724707197e-7 0 0 -9.55418083980513e-7 -1.600088467500368e-7
          0 0 -9.719143671416395e-7 -1.6664242102935394e-7 0 0
          0 0 0 0 0 0
          0 0 0 0 0 0
          0 0 0 0 0 0
          0 0 0 0 0 0
          0 0 0 0 0 0
          0 0 0 -7.740853141779163e-9 0 0
          0 -1.5481706283558326e-8 0 0 0 0
          0 0 0 0 0 0
          0 0 0 0 0 0
          0 0 0 0 0 0
          -0.0000016369222475042886 -0.0000016558377172004353 -0.0000016747531868965819 0 0 0
          0 0 0 -6.54989087068455e-7 0 -6.615761706623401e-7
          0 -6.68163254256225e-7 0 -0.000052411404381884745 -0.00006851365906698098 -0.00005251777883967191
          -0.00006853509469141581 -0.00005262415329745909 -0.00006855653031585067 -7.23658495734639e-7 -0.000003783440847835069 -1.767571742217962e-8
          0 -7.828469362689711e-7 -0.000003908043711507563 -2.5490083907501956e-8 0 -8.420353768033032e-7
          -0.000004032646575180057 -3.330445039282429e-8 0 0 0 0
          -0.00008261350380450279 -0.00008252816798455505 -0.00008244283216460733 0 0 0
          0 0 0 0 0 0
          0 0 0 -7.518040240910885e-7 0 0
          0 -7.885032355079184e-7 0 0 0 -8.252024469247484e-7
          0 0 0 0 0 0
          -0.00003798081792601988 -0.000038123024213563596 -0.0000382652305011073 0 -1.1424096463692389e-8 -2.2848192927384778e-8
          -0.00001163573506684245 -0.000018754304019431022 -0.000011801034705518923 -0.000018953010695194848 -0.000011966334344195393 -0.000019151717370958667
          0 0 0 0 0 0
          0 0 0 0 0 0
          -0.000025359397865254156 -0.00002555000966067866 -0.00002574062145610316 0 0 0
          -0.000014498169238159628 -0.000014672773765236648 -0.00001484737829231367 0 0 0
          -0.000010582812803194885 -0.000010780639789004783 -0.000010978466774814681 -0.00008177838748725835 -0.00007715332216626204 -0.00008171039796662712
          -0.00007710750350928204 -0.00008164240844599589 -0.00007706168485230208 0 0 0
          0 0 0 0 0 0
          0 -8.175809721223453e-8 0 -1.0636224688995951e-7 0 -1.309663965676845e-7
          0 0 0 0 0 0
          -0.0000016518185854137735 -0.0000017536935985536837 -0.000001855568611693594 -0.0000667056880312858 -0.00006672071806457428 -0.00006673574809786277
          -0.000004296875686030915 -0.000004405078120190327 -0.00000451328055434974 -0.000008536490626527104 -0.000026021207281341048 -0.000008692430155530213
          -0.000026264652739477217 -0.000008848369684533322 -0.000026508098197613382 -0.000040110608247751686 -0.00004380295484748703 -0.000040293529895182436
          -0.000043980233439215965 -0.00004047645154261318 -0.000044157512030944903 -0.00000791633902159205 -1.843798202929424e-7 -0.000010890880534988191
          -0.00000807999843639387 -2.614572559557267e-7 -0.000011119654865249435 -0.000008243657851195692 -3.385346916185111e-7 -0.000011348429195510685
          -0.000012722842511825778 -0.00001301009932198208 -0.000013297356132138382 0 0 0
          0 0 0 0 0 0
          0 0 0 -3.687596405858848e-7 -5.000663189840687e-7 -6.313729973822526e-7
          -0.0000325754254010036 -0.00003278454187321484 -0.00003299365834542608 0 0 0
          0 0 0 0 0 0
          0 0 0 0 0 0
          0 0 0 0 0 0
          0 0 0 0 0 0
          -0.000004073175702903961 -0.0000040832611023725065 -0.000004093346501841052 -0.000012458588625216948 -0.00001249173776316228 -0.000012524886901107615
          -0.000017380693470236082 -0.000017431400462131788 -0.00001748210745402749 -0.000017731080294882075 -0.00001779064178482628 -0.000017850203274770487
          -0.00001747159949391795 -0.00001753543596696853 -0.00001759927244001911 0 0 0
          0 0 0 0 0 0
          0 0 0 0 0 0
          0 0 0 0 0 0
          0 0 0 0 0 0
          0 0 0 0 0 0
          0 0 0 0 0 0
          0 0 0 0 0 0
          0 0 0 0 0 0
          0 0 0 0 0 0
          0 0 0 0 0 0
          0 0 0 0 0 0
          0 0 0 0 0 0
          0 0 0 0 0 0
          0 0 0 0 0 0
          0 0 0 0 0 0
          0 0 0 0 0 0
          0 0 0 0 0 0
          0 0 0 0 0 0
          0 0 0 0 0 0
          0 0 0 0 0 0
          0 0 0 0 0 0
          0 0 0 0 0 0
          0 0 0 0 0 0
          0 0 0 -0.00003720752093018533 -0.000037146006110581265 -0.000037084491290977206
          -0.00001653737643337777 -0.000016514063641012973 -0.000016490750848648176 -0.0000023512279363151637 -0.0000023526701275862502 -0.0000023541123188573363
          0 0 0 0 0 0
          0 0 0 0 0 0
          0 0 0 0 0 0
          -0.00011565505600595877 -0.00011551496906232606 -0.00011537488211869334 -0.00008035961483843575 -0.00008027055007988263 -0.00008018148532132952
          -0.00002570610598502201 -0.000025704812652913868 -0.000025703519320805723 -8.143757223292285e-7 -8.246017992123403e-7 -8.348278760954521e-7
          0 0 0 0 0 0
          0 0 0 0 0 0
          0 0 0 -0.00021447549195284955 -0.00021427688478290483 -0.00021407827761296013
          -0.00018946857517049298 -0.0001893003064503427 -0.00018913203773019248 -0.00009556203453519097 -0.00009554946865540694 -0.00009553690277562292
          -0.000019339295040524363 -0.000019370986408800387 -0.00001940267777707641 0 0 0
          0 0 0 0 0 0
          0 0 0 0 0 0
          -0.00026598347090940806 -0.0002657653985574585 -0.000265547326205509 -0.00025129267353087 -0.00025108764002294614 -0.00025088260651502225
          -0.00014441431297296822 -0.00014439465226015865 -0.00014437499154734907 -0.00003704983863639027 -0.0000370927692191761 -0.00003713569980196192
          0 0 0 0 0 0
          0 0 0 0 0 0
          0 0 0 0 0 0
          0 0 0 0 0 0
          0 0 0 0 0 0
          0 0 0 0 0 0
          0 0 0 0 0 0
          0 0 0 0 0 0
          0 0 0 0 0 0
          0 0 0 0 0 0
          0 0 0 0 0 0
          0 0 0 0 0 0
          0 0 0 0 0 0
          0 0 0 0 0 0
          0 0 0 0 0 0
          0 0 0 0 0 0
          0 0 0 0 0 0
          0 0 0 0 0 0
          0 0 0 0 0 0
          0 0 0 0 0 0
          0 0 0 0 0 0
          0 0 0 0 0 0
          0 0 0 0 0 0
          0 0 0 0 0 0
          0 0 0 0 0 0
          0 0 0 0 0 0
          0 0 0 0 0 0
          0 0 0 0 0 0
          0 0 0 0 0 0
          0 0 0 0 0 0
          0 0 0 0 0 0
          0 0 0 0 0 0
          0 0 0 0 0 0
          0 0 0 0 0 0
          0 0 0 0 0 0
          0 0 0 0 0 0
          0 0 0 0 0 0
          0 0 0 0 0 0
          0 0 0 0 0 0
          0 0 0 0 0 0
          0 0 0 0 0 0
          0 0 0 0 0 0
          0 0 0 0 0 0
          0 0 0 0 0 0
          0 0 0 0 0 0
          0 0 0 0 0 0
          0 0 0 0 0 0
          0 0 0
        </DataArray>
        <DataArray type="Float64" Name="disp_x" format="ascii" RangeMin="0.00002715509495728483" RangeMax="0.00007000000000000001">
          0.00003580194480237438 0.00003567514717415173 0.00003435442915577954 0.00003409465904841846 0.00003580196352151064 0.00003567512711335867
          0.0000343543924121244 0.0000340946369925865 0.00003580202465790609 0.00003567506036220356 0.00003435427235420251 0.0000340945726220351
          0.00003187407396283673 0.00003192222857385862 0.00003308758121353235 0.00003288274548991597 0.0000318740853860952 0.00003192224800059802
          0.000033087595711656114 0.00003288275937745585 0.0000318741151372838 0.000031922310561438826 0.00003308764468991011 0.00003288281806654885
          0.000034076910450020825 0.000033335094089260355 0.000034076905766002265 0.000033335104670468045 0.00003407687289129209 0.00003333513651851123
          0.00003308479032186375 0.00003453209615549506 0.000034432352303615444 0.00003308481848112846 0.00003453212645963137 0.000034432367393159506
          0.00003308490191652101 0.00003453221975944597 0.00003443239626465386 0.00003173277895312248 0.000031196092973727374 0.00003042580508795018
          0.00003111808471675298 0.000031732773800582665 0.00003119609765848758 0.000030425801706574656 0.000031118088032420664 0.000031732760468506127
          0.000031196115194868067 0.000030425817911583813 0.000031118100310710736 0.000032201097745428856 0.00003146782852484622 0.000031330641761074926
          0.00003224660547480496 0.00003220108722049405 0.00003146781955969003 0.00003133066109276939 0.00003224659362392556 0.00003220103550897002
          0.00003146786327840198 0.00003133068759973007 0.00003224655297810589 0.00003092343548434763 0.00003067792980579564 0.00003178449264757577
          0.00003092345512676162 0.00003067795027495185 0.00003178452277388058 0.00003092350969767311 0.000030678019109828154 0.00003178460192515154
          0.000035926890786398815 0.00003592696252516228 0.00003592718007464191 0.000031441048818271256 0.000030314082483496787 0.00003144108116482673
          0.00003031410989623482 0.00003144116755467062 0.000030314181093264226 0.000036033105692014824 0.00003461046492548332 0.00003603316243891953
          0.00003461050109943162 0.00003603332385691616 0.000034610605858732096 0.00002841860894160564 0.000027752444577555303 0.000028417815343630576
          0.00002775161052601432 0.00002841533064623272 0.000027749158155920063 0.000029697410612135236 0.00002898516587617243 0.00002957193896069235
          0.000030403191669446922 0.000029697384453171586 0.00002898506505979136 0.00002957197013194766 0.000030403207073745446 0.000029697365697714678
          0.00002898481741136972 0.000029572088087001388 0.000030403237449185206 0.000028057133617560375 0.000028057166562972778 0.000028057240886561314
          0.000027158478862067224 0.000027157654257501594 0.00002715509495728483 0.00003289707200154966 0.000032897102720145514 0.0000328971993409428
          0.000032434081710127896 0.00003162459180543196 0.000032434091781942284 0.000031624599088827104 0.00003243410530279552 0.00003162463251867516
          0.000027954641230197325 0.000028725297216363056 0.000028594026935398642 0.00002782818031725425 0.000027954681909976918 0.00002872531355673021
          0.000028594050356536087 0.000027828204068044786 0.000027954797533835 0.000028725360248904174 0.000028594090570590654 0.000027828360775305025
          0.00003251503389111096 0.0000330878764020113 0.00003251503770639961 0.000033087885992661 0.0000325150318570084 0.000033087906435451935
          0.0000278246558202215 0.000027823917979296074 0.00002782168134268381 0.0000305649934941924 0.000030564928890642804 0.000030564866909078676
          0.00002780495358616828 0.000027825278916777924 0.00002780456282227313 0.000027824722322482992 0.00002780335226154512 0.000027822908362014793
          0.00003288400620569079 0.0000328820440120017 0.000032884009193006395 0.00003288203072881807 0.00003288396897373752 0.0000328820021176217
          0.00002931703520600168 0.00002925786432934079 0.00002931705402389945 0.00002925789021048991 0.00002931711377372762 0.000029257943568806132
          0.000028418170307163044 0.000028417596534754362 0.0000284158101077497 0.000029169018181865665 0.000029169047452431085 0.000029169131578758842
          0.00002904386274796984 0.00002904348981571753 0.000029042293545239203 0.000029797212851033978 0.00002979724440307393 0.000029797313564746514
          0.00002830156774845844 0.000028301230264794003 0.000028300194780313305 0.000028898492191528514 0.000028691685309240878 0.000028897604000947095
          0.00002869083617022944 0.000028895004064972785 0.000028688283442702693 0.00003182244098819281 0.00003182245121981389 0.000031822463155871024
          0.00003110455701051258 0.0000305350836380931 0.000031104571869141816 0.000030535092688815436 0.00003110458508959412 0.000030535097984680006
          0.000029414060883175024 0.000028587217867070755 0.000029414084292177503 0.00002858723418939853 0.00002941411348433652 0.000028587346128016764
          0.000033444373313255356 0.00003357191647726478 0.000033444392423201336 0.00003357191853179918 0.000033444447843560034 0.00003357188469189223
          0.00002854003561194844 0.00002853999462866324 0.00002853991103572907 0.000028519442694589875 0.000028518593614478218 0.000028516070671442463
          0.000027782984712376983 0.000027782879659753506 0.000027782535468524118 0.000029555942183485325 0.000029077862544129934 0.000029555690636197958
          0.000029077234307022673 0.000029555023784541394 0.000029075133667310702 0.000029392655430831265 0.000029626931752558034 0.000029391846843461536
          0.000029626118542187484 0.00002938934124373256 0.000029623560013750095 0.000029867843776005924 0.00003076521667614206 0.000030079644909230285
          0.000029867575840873314 0.00003076520094965267 0.00003007913247983338 0.000029866666185136432 0.00003076504574000506 0.000030077797099701193
          0.000030314810104888904 0.000030314371529175875 0.000030312856131584212 0.000030067391519276267 0.00003024182915018207 0.00003006742403491752
          0.000030241845353502254 0.00003006748849222544 0.00003024189085452557 0.00003428958793276211 0.00003473209503996273 0.00003428959404878291
          0.00003473206487966698 0.00003428964020977333 0.000034731948361901755 0.00003097540724705083 0.000030975377697671107 0.000030975170690270296
          0.000029210310402015994 0.00002920960983807653 0.000029207372675836477 0.00003106679461400146 0.000031066819388754056 0.00003106685595474415
          0.00003294232434242834 0.00003228780622881864 0.00003294231202683186 0.0000322877940171208 0.00003294227128103786 0.000032287728513356775
          0.00003163203587540194 0.00003163205114598907 0.00003163208499822016 0.000033595861583993026 0.00003359586829839547 0.00003359583906797322
          0.000031030230445192205 0.000031030260165658446 0.00003103031381810036 0.00003424888166947976 0.00003424888831887924 0.000034248932525843865
          0.000034901929475788765 0.00003490189812132829 0.000034901745217195444 0.000035554467849172725 0.000035554450030266164 0.00003555437955236433
          0.00003818528395962882 0.00003818537535659892 0.000038185657062935014 0.00003809026819762216 0.000038090464159170134 0.000038091044635930475
          0.00003795182165170205 0.000037952077503879825 0.00003795284149854644 0.00003780532758693336 0.00003780558040296787 0.00003780634117776907
          0.00003768345444475156 0.00003768367219658993 0.00003768432151753153 0.00004584841028347299 0.000045798734660921335 0.00004584836234180457
          0.00004579868774335788 0.00004584821987055432 0.00004579854858024943 0.000047672833071524837 0.000047609099864869335 0.00004767276769323039
          0.00004760903613235297 0.00004767257181080209 0.00004760884501528797 0.00004949077055323526 0.00004941566260102951 0.00004949069315775197
          0.00004941558759731314 0.000049490459926837414 0.00004941535946233927 0.000051307603006225683 0.0000512248400733526 0.000051307518198667904
          0.000051224757898261365 0.00005130726197622985 0.00005122450924052234 0.00005312561319861822 0.000053040149358815965 0.00005312552588320618
          0.00005304006482520891 0.00005312526258117183 0.000053039809085430474 0.00005494439744252678 0.00005486247362407419 0.000054944311811194446
          0.000054862390956317813 0.000054944053445460806 0.000054862140979759047 0.00005676155490111201 0.00005669067137481295 0.00005676147571114588
          0.000056690594285010174 0.000056761237016513133 0.000056690361540439874 0.00005857356349306708 0.00005852235868909005 0.000058573492044688004
          0.00005852228899366601 0.00005857327638081978 0.000058522078218490814 0.00004594911289093493 0.000045949061444258695 0.00004594890700755813
          0.0000477969701968056 0.00004779689870663522 0.000047796683681618325 0.00004963589969020773 0.00004963581510282347 0.00004963555854539761
          0.000051469955891545915 0.000051469863508069686 0.0000514695837591495 0.0000532997044590858 0.00005329961033852525 0.00005329932594939656
          0.00005512293478658824 0.00005512284243000505 0.000055122563041607 0.000056935428890557675 0.00005693534594800323 0.000056935095784752074
          0.000058731877300130996 0.00005873180228112907 0.000058731575704125116 0.000046105758370099323 0.00004610570045050392 0.00004610552741835498
          0.00004798925366529433 0.00004798917010165583 0.00004798891842779948 0.00004986112449574794 0.00004986102626583886 0.00004986072946734843
          0.00005172365995986598 0.0000517235540242086 0.00005172323386304184 0.00005357503707796058 0.000053574930568509476 0.00005357460971712071
          0.000055410894933323384 0.00005541079036499061 0.000055410474199397346 0.00005722493472003052 0.000057224844778083335 0.00005722457388406689
          0.00005900983762447553 0.00005900975634449275 0.000059009511017001335 0.000046328480092419406 0.0000463284043558445 0.0000463281744584786
          0.0000482647339913549 0.00004826463134996245 0.00004826432433873424 0.00005018554061557914 0.00005018542080777117 0.000050185058850044915
          0.000052090005556698626 0.000052089879269644014 0.00005208949771417381 0.000053973621985183565 0.00005397349808792207 0.00005397312537966229
          0.000055829884332030195 0.000055829762129115585 0.00005582939263257712 0.00005765071311815412 0.0000576506150066125 0.00005765032133902141
          0.00005942689789888465 0.000059426809419429116 0.000059426543926261375 0.000046636271787088487 0.0000466361866296114 0.00004663593348281742
          0.000048651304658866676 0.00004865116082772362 0.000048650723042035394 0.000050640612696741395 0.00005064046376379703 0.000050640017747311124
          0.000052602046374015294 0.00005260189523316915 0.000052601439411993174 0.0000545276413766965 0.000054527494429468946 0.00005452705353108179
          0.000056409990478066916 0.00005640984389366718 0.00005640940000491686 0.000058240048356998674 0.00005823993701052985 0.00005823960170071498
          0.000060006766175384944 0.00006000666632336523 0.00006000636411785237 0.00004488499668428093 0.00004488481874638088 0.00004488426712570581
          0.000047074967542680845 0.000047074758034704855 0.00004707414082400091 0.000049194026481917825 0.00004919386172422687 0.00004919338162436322
          0.00005127441449006579 0.000051274222161515385 0.00005127363555247424 0.00005330512272400811 0.000053304935883681204 0.00005330437343567791
          0.00005527907951337293 0.000055278905530117864 0.00005527838481151151 0.00005718908730911459 0.000057188907761992035 0.000057188363707678004
          0.00005902471830987836 0.000059024607333470654 0.000059024283309058026 0.000060772440694936544 0.00006077234237392979 0.000060772052967323785
          0.000045164972928655396 0.00004516490792342057 0.00004516471669057418 0.00004766076746147932 0.00004766016020224439 0.00004765830742259034
          0.00004997126705378176 0.00004997080882850714 0.00004996943958343857 0.00005214520903172199 0.00005214503150474275 0.000052144521594968335
          0.0000542538509072677 0.00005425365073421096 0.00005425303364169939 0.00005628076681195237 0.0000562805548050929 0.00005627992482733586
          0.000058214183454122114 0.0000582139444076739 0.000058213213780292845 0.00006004074294012834 0.000060040580104132714 0.000060040085559394545
          0.00006173874775209863 0.00006173860877228772 0.00006173818298561376 0.00004541128911145538 0.000045411492053662345 0.00004541210740246906
          0.000048300832256194254 0.00004830012814103991 0.00004829800294044837 0.000050980039936934 0.000050978994401968455 0.00005097582208553523
          0.000053317588735511464 0.00005331714183675518 0.00005331584804002485 0.00005551286912438708 0.00005551269315616925 0.0000555121915222273
          0.0000576013789843299 0.00005760111108535344 0.00005760030326447536 0.00005955257714631706 0.00005955227460963704 0.000059551364341714716
          0.00006132483474005113 0.00006132475729741562 0.00006132456553790737 0.00006288373079356214 0.00006288366238867648 0.00006288346793865519
          0.00004567269751233165 0.000045673156555409405 0.000045674553950233554 0.0000489997761327534 0.00004899909810412841 0.00004899708687682349
          0.00005211633952194619 0.000052114900821579775 0.00005211053475250153 0.000054806113755232505 0.00005480505600346321 0.0000548017778717879
          0.000057161288133722675 0.00005716094465270095 0.00005715992153644674 0.000059366430802115654 0.000059366074397356196 0.00005936501786152996
          0.0000613356097341933 0.00006133501703799853 0.00006133317078340497 0.00006295241276678668 0.00006295212881699569 0.00006295126638357168
          0.00006409984903441818 0.00006409981673505452 0.00006409970717719857 0.00005980373457018495 0.00005985161769478699 0.00005980367191527043
          0.00005985155342273455 0.00005980348223174127 0.00005985135899343519 0.000059999039116234014 0.00005999897072023803 0.000059998763001050434
          0.00006025636676846943 0.00006025629173654808 0.0000602560636378582 0.00006063906041238087 0.000060638976514259175 0.000060638720062426925
          0.00006116436942977403 0.000061164276848115 0.00006116399441197866 0.00006184560334876526 0.00006184549664028136 0.00006184516207872928
          0.00006267765681997884 0.00006267756053613385 0.00006267726724147123 0.00006361536117773394 0.00006361521950193448 0.00006361473077714301
          0.00006438013399399571 0.00006438043782966672 0.0000643813653943476 0.00006108466460804038 0.00006112845776286314 0.00006108460857089747
          0.0000611284010673349 0.00006108443857709169 0.00006112822931438175 0.00006126287010513222 0.00006126281215462454 0.0000612626368688855
          0.00006149629614705449 0.00006149623675815207 0.00006149605806606179 0.0000618406944959182 0.00006184063497259751 0.00006184045756591268
          0.0000623079635265012 0.00006230790870071964 0.00006230774769104933 0.00006290272216738212 0.00006290268062352691 0.00006290256337222944
          0.0000636077961567787 0.00006360780634085741 0.00006360785385699325 0.00006434473810925666 0.00006434482866516328 0.00006434512839911435
          0.00006483005727946382 0.00006483058826671018 0.00006483226540019296 0.00006236427913504512 0.00006240329020049312 0.0000623642310300729
          0.0000624032416160885 0.00006236408517721485 0.00006240309437249309 0.00006252274532401024 0.0000625226958047191 0.00006252254531504004
          0.00006272928148315829 0.0000627292310759448 0.00006272907765123839 0.00006303186835748245 0.00006303181880824994 0.0000630316673574622
          0.00006343790219437984 0.00006343785757812072 0.00006343771970202845 0.00006394557277147929 0.00006394554523964773 0.00006394545664117925
          0.0000645275672522081 0.00006452757369158553 0.00006452758221165623 0.00006509162278888088 0.00006509170898716549 0.00006509194503271955
          0.0000654086655768226 0.00006540889819454609 0.00006540954607655577 0.00006364196475751995 0.00006367555930955165 0.00006364192458821535
          0.00006367551892206591 0.00006364180260603413 0.00006367539643118543 0.00006377823560450867 0.00006377819499295348 0.00006377807189960267
          0.00006395509139500919 0.00006395505120894787 0.00006395492980601048 0.0000642125623882444 0.00006421252482304407 0.00006421241167018517
          0.00006455451601549447 0.00006455448633985189 0.00006455439762845148 0.00006497448651561903 0.00006497447438647852 0.00006497443896680731
          0.00006543984236552023 0.00006543986542258621 0.00006543993884612183 0.00006586278852056023 0.00006586287370496007 0.00006586313476537024
          0.00006607262080603622 0.00006607280980839798 0.00006607340604039556 0.00006491738598056353 0.00006494500022528262 0.00006491735387159558
          0.00006494496805409203 0.00006491725641341356 0.00006494487049429108 0.00006502927137172731 0.00006502923937636185 0.0000650291422820429
          0.00006517396165158572 0.0000651739306920539 0.00006517383675314311 0.0000653834400381576 0.0000653834124186691 0.00006538332840488816
          0.00006565902110267709 0.0000656590014150097 0.00006565894092950285 0.00006599177871936095 0.00006599177502772087 0.00006599176226151938
          0.0000663494940249494 0.00006634951903091726 0.00006634959135725755 0.00006665841496023068 0.00006665848600667528 0.00006665869469287884
          0.00006679733802498038 0.00006679746579694373 0.00006679783824323482 0.00006619051395299938 0.00006621166952458624 0.00006619048993267225
          0.00006621164552758224 0.00006619041698808425 0.00006621157272174307 0.00006627615412471946 0.00006627613048558523 0.0000662760587272301
          0.00006638658515233629 0.000066386562715158 0.00006638649468813992 0.00006654571851791145 0.00006654569923813824 0.00006654564074947623
          0.00006675334143046236 0.00006675332895272512 0.00006675329098938439 0.00006700041163235243 0.00006700041190359607 0.00006700041221554421
          0.00006725958671156898 0.00006725960844706118 0.00006725967362389523 0.0000674749947367341 0.00006747504723579163 0.0000674752045240273
          0.00006756469213074526 0.00006756477767760265 0.00006756503831477512 0.00006746161483910526 0.00006747593559452328 0.00006746159888969707
          0.00006747591970031624 0.00006746155040165214 0.00006747587140404056 0.0000675195494613417 0.00006751953393089903 0.0000675194866701227
          0.00006759409467811048 0.00006759408016101859 0.00006759403600767565 0.00006770113020590097 0.0000677011181078964 0.0000677010812516792
          0.00006783988446278104 0.00006783987729414232 0.00006783985522251524 0.00006800318219741036 0.00006800318387678009 0.00006800318825925731
          0.00006817146611119574 0.00006817148205478004 0.00006817152902368332 0.00006830766880145199 0.00006830770372343184 0.00006830780731641527
          0.0000683612771467957 0.00006836133128621704 0.00006836149207355477 0.00006873120844184875 0.00006873843500218478 0.00006873120055485547
          0.00006873842715788779 0.0000687311764229132 0.0000687384031564782 0.00006876043205391993 0.00006876042442527696 0.00006876040104697402
          0.00006879798424627018 0.00006879797717311834 0.00006879795553442417 0.00006885178071425166 0.00006885177492403372 0.00006885175719782589
          0.0000689212353326148 0.0000689212320978959 0.00006892122208154146 0.00006900241477818459 0.00006900241605498255 0.0000690024195067089
          0.00006908518270007684 0.00006908519104364764 0.00006908521560691365 0.000069151136032992 0.00006915115332605243 0.00006915120470180534
          0.00006917620788875314 0.00006917623376368644 0.00006917631140418273 0.00007000000000000001 0.00007000000000000001 0.00007000000000000001
          0.00007000000000000001 0.00007000000000000001 0.00007000000000000001 0.00007000000000000001 0.00007000000000000001 0.00007000000000000001
          0.00007000000000000001 0.00007000000000000001 0.00007000000000000001 0.00007000000000000001 0.00007000000000000001 0.00007000000000000001
          0.00007000000000000001 0.00007000000000000001 0.00007000000000000001 0.00007000000000000001 0.00007000000000000001 0.00007000000000000001
          0.00007000000000000001 0.00007000000000000001 0.00007000000000000001 0.00007000000000000001 0.00007000000000000001 0.00007000000000000001
          0.00007000000000000001 0.00007000000000000001 0.00007000000000000001
        </DataArray>
        <DataArray type="Float64" Name="disp_y" format="ascii" RangeMin="-0.000006595887217572756" RangeMax="0">
          -0.0000034895305652327744 -0.0000040376226785895176 -0.000004155497941153511 -0.000003865046801763155 -0.0000034895711009298188 -0.000004037634162170098
          -0.000004155509437077918 -0.000003865047136342745 -0.00000348969295597603 -0.000004037667232716057 -0.000004155547213242729 -0.000003865037298600969
          -0.0000031687713681161396 -0.000002870298143149523 -0.0000028284616147333725 -0.0000031953160462831594 -0.000003168774998488109 -0.0000028703005053145015
          -0.000002828471346724324 -0.000003195325520221543 -0.000003168785361222792 -0.0000028703075429498313 -0.0000028285034912285546 -0.00000319534835622659
          -0.000003287125164429066 -0.0000036457852194343582 -0.000003287137691076102 -0.0000036457940470380292 -0.0000032871792352631526 -0.000003645832668170399
          -0.000002435544691818695 -0.000002392894787861792 -0.0000028603440854556848 -0.0000024355500578657786 -0.0000023929121942273127 -0.0000028603605949910677
          -0.000002435564874152898 -0.0000023929659426977753 -0.000002860408982243939 -0.000004147629151913313 -0.000004288483524655856 -0.000004268806218750123
          -0.000004009728010919854 -0.000004147631293986994 -0.000004288480248867044 -0.000004268816358054561 -0.000004009733068514197 -0.000004147636533957539
          -0.00000428847082397965 -0.0000042688313031808045 -0.000004009744570986092 -0.000004593705627912343 -0.000004638630200117005 -0.0000044395231722542854
          -0.000004344894729583958 -0.000004593708165825955 -0.000004638649635301081 -0.0000044395283259379905 -0.0000043448934824582935 -0.0000045937164556511284
          -0.000004638686150910893 -0.00000443953772076085 -0.000004344896865298557 -0.000002959939232968527 -0.000002698043930386956 -0.0000025458281962998993
          -0.000002959936296149929 -0.000002698042022545573 -0.00000254582517175834 -0.0000029599267252639694 -0.0000026980369703271054 -0.0000025458176560590216
          -0.000002940997485480861 -0.0000029410427352557226 -0.0000029411809275843717 -0.0000022418567349347687 -0.0000024368385640691385 -0.000002241856153064769
          -0.0000024368307335146806 -0.0000022418551049955562 -0.000002436815274147374 -0.000002402350232156434 -0.000001928443195179873 -0.0000024023681906252603
          -0.000001928443759941098 -0.0000024024240131466077 -0.000001928442092775594 -0.0000044932399625003385 -0.000004419819155467961 -0.0000044926985462476155
          -0.000004419239549219804 -0.000004490995343406806 -0.000004417424064388127 -0.000004101153273706137 -0.000003992659825357106 -0.000003704088755514773
          -0.000003876788103098176 -0.000004101109833939293 -0.000003992538394603489 -0.000003704104340969063 -0.000003876799306962334 -0.000004101037991775819
          -0.000003992262973664035 -0.0000037041392763687507 -0.0000038768372853835386 -0.000002668464103507308 -0.000002668448661033029 -0.0000026684092173586922
          -0.000004350928336500307 -0.000004350343285474321 -0.000004348502488816474 -0.0000019711137085485934 -0.000001971113974635445 -0.00000197111720390762
          -0.000003508035964113852 -0.000003422101488344523 -0.00000350804060886921 -0.0000034221054175189956 -0.0000035080590815192054 -0.0000034221182244634522
          -0.000002955185510701105 -0.000002960824299978202 -0.0000032095654096119855 -0.0000032370357083117323 -0.0000029551785351920976 -0.0000029608129466083635
          -0.0000032095572755947826 -0.000003237013499062341 -0.000002955132126177831 -0.0000029607848887950818 -0.0000032095206821704046 -0.000003236997826564716
          -0.0000039255106516692625 -0.000004106934409309828 -0.000003925519100243455 -0.000004106948068559941 -0.000003925536383185842 -0.000004106991878931094
          -0.0000041316554497881695 -0.000004131172882874846 -0.0000041297021718750545 -0.000004505997992249216 -0.000004505984093508056 -0.0000045060193951130915
          -0.0000037546604252548597 -0.000003912844060999911 -0.0000037543657547755206 -0.000003912450830349223 -0.0000037534527215449154 -0.000003911274095567597
          -0.000004403634494571773 -0.000004559956518277234 -0.000004403642839124605 -0.000004559963311705834 -0.0000044036578955948485 -0.000004559991574935694
          -0.0000031610503615394346 -0.0000029871688859801095 -0.0000031610394055306636 -0.0000029871602165585344 -0.000003161006855187858 -0.000002987136541035491
          -0.000004205269943618445 -0.000004204885355280822 -0.000004203674211495269 -0.0000026470368128378947 -0.000002647030604517525 -0.0000026470100795693354
          -0.00000429659049910175 -0.000004296311878215661 -0.000004295473806074672 -0.000002858453747875103 -0.0000028584478605520207 -0.0000028584291262926224
          -0.000003933260060381949 -0.000003932995126471165 -0.000003932183094241174 -0.000005052728979200606 -0.00000488876331237003 -0.000005052111607818868
          -0.000004888177049585891 -0.000005050298313717994 -0.0000048863666352856675 -0.0000037738652781556156 -0.0000037738674694417773 -0.0000037738720617997844
          -0.0000036481632306865692 -0.000003502197734901636 -0.0000036481605029580956 -0.0000035021927200010003 -0.0000036481451935807387 -0.0000035021679132984377
          -0.000003403977726971343 -0.0000034666886419985273 -0.000003403962625030199 -0.0000034666849970716224 -0.0000034039210716494206 -0.000003466696592889423
          -0.000004299276354219952 -0.000004503773267494497 -0.0000042992870766337795 -0.000004503788255189119 -0.000004299323197143865 -0.000004503824109553634
          -0.000003718982984390018 -0.000003718910432095992 -0.00000371879805587394 -0.000004720326193444406 -0.0000047197243353358195 -0.000004717921284494593
          -0.0000035108156058708465 -0.0000035106750571931173 -0.000003510316441978741 -0.000004418183530186098 -0.000004521327284819461 -0.00000441797363691622
          -0.0000045209455336331725 -0.00000441750802484373 -0.000004519685904417999 -0.0000048055867053083765 -0.000004965100093505684 -0.000004805056077812856
          -0.00000496460754531586 -0.000004803414248290035 -0.000004962948601402712 -0.000004572228682270016 -0.000004688928092244189 -0.000004740634681186801
          -0.000004571997246957359 -0.000004688850703087696 -0.000004740301981516812 -0.000004571339761142966 -0.0000046887348438969376 -0.000004739373359147634
          -0.000004905271151580784 -0.000004905164742002333 -0.000004904392388391344 -0.0000030681352037650133 -0.0000032969445741787085 -0.0000030681285714276766
          -0.0000032969368012622144 -0.0000030681080040776603 -0.000003296920565629197 -0.000004440642833722936 -0.000004456788439039244 -0.0000044406584261386596
          -0.000004456783984415218 -0.000004440719302863451 -0.000004456728104957599 -0.000004865405568129519 -0.000004865369478189815 -0.000004865256698325031
          -0.000004641089927863501 -0.000004640614669889068 -0.000004639012721526529 -0.000003374510179247102 -0.000003374505462889668 -0.000003374503292123912
          -0.00000475217670883995 -0.000004790344045496193 -0.000004752188476669864 -0.00000479035036669901 -0.000004752236208396525 -0.000004790369803554768
          -0.000004827897154271258 -0.000004827905902335768 -0.000004827945536364535 -0.000004712903000844821 -0.000004712917988356895 -0.000004712970159208387
          -0.000003202649645794099 -0.000003202646910894367 -0.000003202640182417162 -0.00000467229031994988 -0.000004672306264580999 -0.0000046723517222001525
          -0.000004630577435356959 -0.00000463057908799108 -0.000004630651783959804 -0.000004586444578015161 -0.000004586438363345601 -0.000004586416755153691
          -0.0000022244070799504203 -0.000002224379170362486 -0.0000022242891462011494 -0.0000027557716259985907 -0.0000027557734221227608 -0.00000275578500919038
          -0.000003316416287106044 -0.0000033164913571410647 -0.0000033167255966259955 -0.000003887386284390287 -0.000003887436050519464 -0.000003887590004428969
          -0.000004455861651363226 -0.000004455882699846201 -0.0000044559320248794016 -3.408684656223845e-7 0 -3.408518495202307e-7
          0 -3.408029875491889e-7 0 -3.684651813812119e-7 0 -3.684509688626452e-7
          0 -3.684081300632687e-7 0 -4.150850635583984e-7 0 -4.1507441579434204e-7
          0 -4.1504276825298023e-7 0 -4.774136990526146e-7 0 -4.774076926641705e-7
          0 -4.773898497554219e-7 0 -5.516822809085438e-7 0 -5.516810436575675e-7
          0 -5.51677441744979e-7 0 -6.342138317087578e-7 0 -6.342171693861551e-7
          0 -6.342273328648605e-7 0 -7.216605081377718e-7 0 -7.216682959084578e-7
          0 -7.216918118227885e-7 0 -8.112393918764403e-7 0 -8.112496227577506e-7
          0 -8.11280311526728e-7 0 -6.808730099991102e-7 -6.80837535372327e-7 -6.80727820420151e-7
          -7.371048587471653e-7 -7.370764270976892e-7 -7.369914255243176e-7 -8.3184266388037e-7 -8.318240948625971e-7 -8.317685008589176e-7
          -9.576404395364785e-7 -9.576316214506334e-7 -9.576053221156738e-7 -0.000001106483828507229 -0.0000011064848136347978 -0.000001106488220336067
          -0.0000012708499508692562 -0.000001270859772538708 -0.0000012708895971646745 -0.0000014439859630681966 -0.0000014440040836600061 -0.000001444059025660397
          -0.0000016201892710233323 -0.000001620211515282367 -0.0000016202788704556927 -0.000001019509362933995 -0.0000010194566616466012 -0.000001019306299709348
          -0.0000011058085834954314 -0.0000011057644386893438 -0.0000011056319695074903 -0.0000012507477363042016 -0.0000012507184748750903 -0.000001250631379633958
          -0.0000014412934892464155 -0.0000014412812870871794 -0.0000014412452874869719 -0.0000016646301125415622 -0.0000016646332851532213 -0.0000016646430897415223
          -0.000001909353126161188 -0.0000019093704002350496 -0.0000019094221479736663 -0.0000021651762596299155 -0.000002165206770504936 -0.0000021652981379643256
          -0.0000024230781273892664 -0.0000024231148266496814 -0.0000024232240697252642 -0.0000013578716737932637 -0.0000013577688639133397 -0.0000013574464828260252
          -0.000001475844629688466 -0.0000014757797136416329 -0.0000014755860416458156 -0.000001672953733779504 -0.0000016729176426821903 -0.0000016728081468588459
          -0.0000019284006258217415 -0.000001928387094039559 -0.000001928345751460597 -0.000002224494654840245 -0.000002224503808020899 -0.0000022245313297290625
          -0.0000025464491872781407 -0.000002546478582194681 -0.0000025465673256959158 -0.000002880380814355872 -0.000002880429992437424 -0.0000028805799327091957
          -0.0000032129548325927283 -0.0000032130134673763336 -0.0000032131921533371354 -0.0000016990225920046735 -0.0000016989532935000497 -0.0000016987635729575438
          -0.0000018502160992280282 -0.000001850137274474148 -0.0000018498978527666193 -0.0000020997036169536464 -0.000002099661705823417 -0.000002099542775235374
          -0.0000024168393409090585 -0.000002416833032084147 -0.000002416816155577705 -0.0000027803086215890133 -0.000002780329019073661 -0.0000027803914753696373
          -0.0000031738400834129915 -0.0000031738858566303303 -0.000003174022464393006 -0.0000035795725709488177 -0.00000357964333150214 -0.0000035798529511794684
          -0.000003977668130230553 -0.000003977746302083329 -0.000003977974195585301 -0.0000020505863533976738 -0.000002050052114939117 -0.0000020484152192485474
          -0.000002049186770422843 -0.0000020488742621980973 -0.000002047943310866695 -0.0000022320677157207 -0.0000022319873897078644 -0.0000022317542143438646
          -0.000002530204221681036 -0.0000025301596548322504 -0.0000025300098719597034 -0.0000028988224137223056 -0.000002898815746593222 -0.000002898794537985187
          -0.0000033188306608881824 -0.0000033188626807678864 -0.000003318957654834693 -0.000003774812454937088 -0.0000037748858015913087 -0.0000037751077747593025
          -0.000004244309672616608 -0.000004244436179959904 -0.000004244825047939135 -0.000004696822666289237 -0.000004696972820732533 -0.000004697434396922433
          -0.0000025318662672007345 -0.0000025311913805043315 -0.000002529157947801754 -0.000002452474396179458 -0.000002451769302239117 -0.0000024496193907779875
          -0.0000026173025057186422 -0.0000026170961667879776 -0.000002616507800124266 -0.000002956895907601737 -0.0000029569668067550963 -0.0000029572082581763467
          -0.0000033580831515814975 -0.0000033581079681627067 -0.0000033581771895170755 -0.000003815620619986811 -0.000003815680680920954 -0.0000038158654757755345
          -0.000004319486958082046 -0.000004319578083868827 -0.000004319847365633487 -0.000004843431577351963 -0.0000048435651262888006 -0.000004843958063144788
          -0.000005337242457841142 -0.00000533736020120892 -0.000005337694279532167 -0.0000031918853368627755 -0.000003191191588015222 -0.0000031891269519072533
          -0.0000030283887178234297 -0.0000030274730818265245 -0.000003024714387529528 -0.0000030597372308218005 -0.00000305901533223509 -0.0000030568204102338254
          -0.0000033627744498770647 -0.000003362583939866698 -0.000003362052462874358 -0.0000037742946904367726 -0.0000037743083335108524 -0.000003774362675443617
          -0.000004232118512338014 -0.000004232158511979505 -0.000004232276095788523 -0.000004752990401436654 -0.00000475315066467028 -0.000004753636590985828
          -0.000005311964974932172 -0.000005312308032895589 -0.000005313351899165751 -0.0000058390174693540116 -0.0000058394857954250614 -0.0000058408829469619686
          -0.000004070706680538699 -0.0000040696585354939365 -0.000004066492781046477 -0.000003843063362472873 -0.000003841890857336932 -0.000003838397674958762
          -0.000003676828790036601 -0.000003675649084019391 -0.000003672044831193688 -0.0000037810090176244237 -0.0000037804615049142414 -0.0000037787331703912773
          -0.000004121006387830739 -0.000004120985969838549 -0.000004120923299067074 -0.000004509167815457347 -0.00000450915526097376 -0.000004509108739714698
          -0.000004969690627284508 -0.000004969933594604944 -0.000004970657760889774 -0.000005498025069019006 -0.000005498660657772192 -0.000005500566599583638
          -0.000006104026458641007 -0.0000061049605065652646 -0.000006107809284249117 0 -8.410157851660246e-7 0
          -8.410281914397221e-7 0 -8.41065473875005e-7 -0.0000016783128407949204 -0.0000016783391933800464 -0.0000016784190574013838
          -0.0000025067914146020196 -0.0000025068341505761504 -0.000002506962410582121 -0.000003318614630229831 -0.000003318681128400956 -0.0000033188834274302337
          -0.000004101675162113116 -0.000004101764588701906 -0.0000041020306436850355 -0.000004837142681197735 -0.000004837300712014841 -0.000004837783959871566
          -0.000005497452115659639 -0.000005497616512570374 -0.000005498105020711847 -0.0000060382694656856265 -0.0000060387006490835535 -0.000006040006621930392
          -0.000006377087999261402 -0.0000063778670370913814 -0.000006380219212461647 0 -8.660219084940036e-7 0
          -8.660352233518433e-7 0 -8.660751920896123e-7 -0.0000017266455971534007 -0.000001726673366163437 -0.0000017267568449155167
          -0.0000025752057827976043 -0.0000025752505290634353 -0.0000025753850848273996 -0.0000034025506349648714 -0.000003402616213961095 -0.000003402813511766006
          -0.0000041956848535173325 -0.00000419577740069223 -0.000004196055533456134 -0.000004935936304642791 -0.000004936069398597967 -0.000004936469168015096
          -0.000005597082988284763 -0.000005597254335674355 -0.000005597769584703407 -0.000006131676295236496 -0.0000061319497512960425 -0.00000613276111879271
          -0.000006500961495338727 -0.000006501312857598632 -0.000006502368309360241 0 -8.86329476302475e-7 0
          -8.863433960522873e-7 0 -8.863851737738865e-7 -0.0000017654373039346356 -0.0000017654660240717059 -0.000001765552429826166
          -0.000002628890607076831 -0.0000026289359250546007 -0.0000026290723240543502 -0.000003465879174031012 -0.0000034659441095586605 -0.0000034661397226592754
          -0.000004261987620784814 -0.0000042620761441262055 -0.000004262342468765741 -0.000004997765670245729 -0.0000049978834677730695 -0.000004998238014787712
          -0.000005645590794051824 -0.000005645739370679247 -0.000005646185981268133 -0.000006167867795330537 -0.000006168048869686902 -0.000006168592215052882
          -0.000006559382212702723 -0.000006559577695705842 -0.000006560168207167866 0 -9.022533125329176e-7 0
          -9.022675137445303e-7 0 -9.023101616791171e-7 -0.0000017954302917511195 -0.0000017954592517672817 -0.0000017955464284565487
          -0.000002669257059039477 -0.0000026693020081700733 -0.0000026694373750782328 -0.0000035111377881104997 -0.0000035112005296992846 -0.0000035113893836884236
          -0.000004305117108778668 -0.000004305199378898461 -0.000004305447011978208 -0.0000050307251620900874 -0.000005030827998907987 -0.000005031136936516949
          -0.000005662245802723928 -0.000005662367438605073 -0.000005662733702242889 -0.000006175769037747675 -0.000006175889100229095 -0.000006176248361548112
          -0.000006585414153822066 -0.00000658552188859168 -0.000006585845661692631 0 -9.14252282094712e-7 0
          -9.142665396097221e-7 0 -9.143093951917997e-7 -0.0000018176713015710598 -0.0000018177001223106917 -0.000001817786900222289
          -0.00000269822616160622 -0.0000026982702051939954 -0.000002698402793844553 -0.0000035416344119931013 -0.000003541694338864485 -0.0000035418746148208486
          -0.000004330577596583974 -0.000004330653284206283 -0.0000043308810152272206 -0.000005044489428103296 -0.0000050445789568324964 -0.000005044847909663318
          -0.000005661758900473344 -0.000005661856826319165 -0.000005662151827250248 -0.000006170379043579858 -0.0000061704606923953405 -0.000006170705338524483
          -0.000006594684637212214 -0.000006594745083055186 -0.000006594927423915844 0 -9.22851004509724e-7 0
          -9.228652107231349e-7 0 -9.229079008773956e-7 -0.000001833340946436849 -0.0000018333694587858908 -0.0000018334552231540763
          -0.0000027179159472858586 -0.0000027179589038861796 -0.000002718088094972206 -0.0000035608722612422236 -0.0000035609293832248784 -0.000003561101083939847
          -0.000004343963478393214 -0.0000043440332929757035 -0.000004344243265912099 -0.000005047336035073162 -0.000005047414604018306 -0.00000504765056693787
          -0.000005653823715726442 -0.000005653903583741001 -0.000005654144294763654 -0.000006160177898116013 -0.000006160235083536154 -0.000006160406376067217
          -0.000006595749446749026 -0.000006595783733274507 -0.000006595887217572756 0 -9.285591318780617e-7 0
          -9.285732476089444e-7 0 -9.286156440802254e-7 -0.0000018435752858002975 -0.0000018436034520626347 -0.0000018436881063676897
          -0.000002730324341244695 -0.0000027303662900443088 -0.0000027304923868238806 -0.0000035720597234982665 -0.0000035721145062320802 -0.0000035722791295161875
          -0.0000043500324473291125 -0.000004350097695378155 -0.000004350293909722164 -0.000005045374848899307 -0.000005045445361848184 -0.000005045657121197871
          -0.000005644572011734924 -0.000005644639464789898 -0.000005644842849047556 -0.0000061501040406800625 -0.000006150146296369047 -0.000006150272957744929
          -0.000006593619624863324 -0.0000065936387733653115 -0.0000065936969607949456 0 -9.317985493273365e-7 0
          -9.318125975460855e-7 0 -9.318547554301115e-7 -0.000001849307571398645 -0.0000018493354959120287 -0.000001849419344039479
          -0.0000027370695445025523 -0.0000027371108238537105 -0.0000027372348234240014 -0.0000035777132976288266 -0.000003577766587972876 -0.000003577926630333293
          -0.0000043522749523695186 -0.000004352337376099851 -0.000004352524986667454 -0.000005042670719320001 -0.000005042736396723576 -0.000005042933487981725
          -0.00000563770731458383 -0.000005637767658791759 -0.0000056379495116232345 -0.000006143045726398134 -0.000006143079974806292 -0.000006143182481032401
          -0.000006591279225223791 -0.0000065912906413702094 -0.000006591325558441738 0 -9.328464039858681e-7 0
          -9.328603831776673e-7 0 -9.329024215225161e-7 -0.0000018511480083933414 -0.0000018511757557517462 -0.0000018512592438223072
          -0.000002739197967693329 -0.0000027392388879143264 -0.0000027393620542639636 -0.0000035794184506028408 -0.0000035794710848213364 -0.0000035796294360446167
          -0.0000043527903638974856 -0.0000043528516812720964 -0.000004353036253141194 -0.00000504152264627923 -0.0000050415865381924436 -0.000005041778599107643
          -0.000005635211933205388 -0.000005635269716643336 -0.0000056354443578302966 -0.000006140533805069338 -0.000006140565154368573 -0.000006140659768595981
          -0.000006590331101309862 -0.00000659033968695907 -0.000006590366973237591
        </DataArray>
        <DataArray type="Float64" Name="disp_z" format="ascii" RangeMin="-2.2628341382386647e-7" RangeMax="0">
          0 0 0 0 -5.7469028859726264e-8 -5.6896792684143174e-8
          -5.7630015977484725e-8 -5.7671886971951585e-8 -1.1495673916375276e-7 -1.138017714364738e-7 -1.1526600538361863e-7 -1.1534276939074595e-7
          0 0 0 0 -5.767067030510783e-8 -5.769070449493828e-8
          -5.795045729239272e-8 -5.778566484915201e-8 -1.153432838749122e-7 -1.1538055583466495e-7 -1.1589911932361898e-7 -1.1556654384373642e-7
          0 0 -5.7959382309932643e-8 -5.766765245711711e-8 -1.1591826153514503e-7 -1.1533185397156347e-7
          0 0 0 -5.80415583347382e-8 -5.847063342124299e-8 -5.810370975722452e-8
          -1.1608186132709725e-7 -1.1694589575997829e-7 -1.16208434835903e-7 0 0 0
          0 -5.7569105209924604e-8 -5.761862262638033e-8 -5.746973877841816e-8 -5.7587517329213835e-8 -1.151331757833099e-7
          -1.1524408822881352e-7 -1.1496137082877788e-7 -1.151711134156631e-7 0 0 0
          0 -5.75129753561513e-8 -5.759402814309074e-8 -5.759889212578598e-8 -5.7532313918452965e-8 -1.150117376400549e-7
          -1.1520167899476667e-7 -1.1518860719291775e-7 -1.1506581789087286e-7 0 0 0
          -5.747200567517697e-8 -5.7368112093455346e-8 -5.765081059838476e-8 -1.1494440385276047e-7 -1.1473565620714507e-7 -1.1530245181139445e-7
          0 -5.8411129125724813e-8 -1.1683802201468369e-7 0 0 -5.7483202156738495e-8
          -5.724005399201562e-8 -1.149647050273457e-7 -1.1448221920979581e-7 0 0 -5.9055298742677056e-8
          -5.859999363550671e-8 -1.1809971540387438e-7 -1.171988275174712e-7 0 0 -6.517495519572967e-8
          -6.788254043085106e-8 -1.305063420662855e-7 -1.3583134420212175e-7 0 0 0
          0 -5.730479082441847e-8 -5.730972009563321e-8 -5.7422308634216225e-8 -5.7564845209511885e-8 -1.146586973195585e-7
          -1.1471220390310083e-7 -1.1485166937251877e-7 -1.1512830955562049e-7 0 -5.6598838446194984e-8 -1.1319381742289332e-7
          0 -7.035325537320173e-8 -1.4060154480708702e-7 0 -5.7992082711601194e-8 -1.1598441740248402e-7
          0 0 -5.7685024374558635e-8 -5.761733473949686e-8 -1.1537201627920546e-7 -1.1523541849759076e-7
          0 0 0 0 -5.6750219291587e-8 -5.694665767144681e-8
          -5.702634892580984e-8 -5.6836170412339e-8 -1.1349728942830276e-7 -1.1388934403023675e-7 -1.1404036638922519e-7 -1.1370618454475784e-7
          0 0 -5.760842264741889e-8 -5.752705641227194e-8 -1.1522174808159931e-7 -1.1504907617222819e-7
          0 -6.299292225081987e-8 -1.2611949209779726e-7 0 -5.7416925484526745e-8 -1.1489848902516057e-7
          0 0 -5.863626867602668e-8 -6.022376738318529e-8 -1.1744519502589475e-7 -1.205576956490397e-7
          0 0 -5.7460788868364035e-8 -5.7439339720016665e-8 -1.149374080975999e-7 -1.1488105414106767e-7
          0 0 -5.715143362185006e-8 -5.70699421806866e-8 -1.1430668529157062e-7 -1.141426956969076e-7
          0 -6.051686006923885e-8 -1.211828678903763e-7 0 -5.6945360610458796e-8 -1.1389304643066778e-7
          0 -5.8688119545347556e-8 -1.1747584476702882e-7 0 -5.716536060223738e-8 -1.1432836599761926e-7
          0 -5.8153659884524485e-8 -1.1645623671999822e-7 0 0 -7.085346391909331e-8
          -6.96749751385563e-8 -1.4166244228588413e-7 -1.3934294507998462e-7 0 -5.760504233421884e-8 -1.1520904305330441e-7
          0 0 -5.755326402320618e-8 -5.750452730638297e-8 -1.150997993304481e-7 -1.1499641760962231e-7
          0 0 -5.729682839907639e-8 -5.7136426651151655e-8 -1.1457857840645329e-7 -1.1429943220180184e-7
          0 0 -5.74528574925213e-8 -5.7385079278424325e-8 -1.148869260113218e-7 -1.1478408317149582e-7
          0 -5.699325702809209e-8 -1.1406922126111966e-7 0 -6.800502148000884e-8 -1.3597992723550775e-7
          0 -5.682731050878793e-8 -1.1373022475679348e-7 0 0 -5.811847059875822e-8
          -6.104961350348564e-8 -1.1634429365929555e-7 -1.2223298699049876e-7 0 0 -6.36818524809482e-8
          -6.465388449395865e-8 -1.274098382760977e-7 -1.294978654230066e-7 0 0 0
          -5.813298829909245e-8 -5.7347702681246037e-8 -5.877599597290566e-8 -1.1635349124700475e-7 -1.1476363263614814e-7 -1.177532479869589e-7
          0 -5.938544767278023e-8 -1.1897450660221062e-7 0 0 -5.731172526126948e-8
          -5.739622327329036e-8 -1.14623788285209e-7 -1.14797011652664e-7 0 0 -5.73611063734022e-8
          -5.754998369008184e-8 -1.1469464231196335e-7 -1.1513613216674687e-7 0 -5.7450436754982973e-8 -1.149827807026381e-7
          0 -6.228655784981754e-8 -1.248487459420216e-7 0 -5.754480617124642e-8 -1.151007710718447e-7
          0 0 -5.733036822141194e-8 -5.743743749845161e-8 -1.1465661499781706e-7 -1.1486568070197814e-7
          0 -5.7547000136882184e-8 -1.1509729743108689e-7 0 -5.726116016344251e-8 -1.1453181080171094e-7
          0 -5.752938632534526e-8 -1.1505455274301942e-7 0 -5.725038984282091e-8 -1.144750200699893e-7
          0 -5.7371427028390994e-8 -1.1472785256358723e-7 0 -5.692454943688591e-8 -1.1385603838493966e-7
          0 -6.065413015644162e-8 -1.2134355716893433e-7 0 -6.11901030787557e-8 -1.2238092928937475e-7
          0 -6.020854120110507e-8 -1.2044721117601196e-7 0 -5.876044479269508e-8 -1.1756169259778852e-7
          0 -5.8280956111584014e-8 -1.1661259103845896e-7 0 0 -5.857932062231423e-8
          -5.842555672491122e-8 -1.1715980578596744e-7 -1.1685096977322e-7 0 0 -5.7376657576602913e-8
          -5.724830486267082e-8 -1.1475339841114093e-7 -1.14496363065408e-7 0 0 -5.5858288606869416e-8
          -5.57679973999419e-8 -1.1171681465919926e-7 -1.1153576032711959e-7 0 0 -5.4125392696258425e-8
          -5.4080579653144447e-8 -1.0825104433800496e-7 -1.0816104914163057e-7 0 0 -5.228836564720897e-8
          -5.229334807787706e-8 -1.0457686854915174e-7 -1.0458651932963269e-7 0 0 -5.044979117527163e-8
          -5.0504392342022666e-8 -1.0089980978563946e-7 -1.0100874981538142e-7 0 0 -4.869155136521908e-8
          -4.8795209614167845e-8 -9.738299894188041e-8 -9.759034801623145e-8 0 0 -4.710594881544145e-8
          -4.7234660860573004e-8 -9.421184742769937e-8 -9.446934686180828e-8 0 -5.906653734784755e-8 -1.1813063033858317e-7
          0 -5.7765286826636314e-8 -1.1553030917886346e-7 0 -5.610934786435966e-8 -1.1221844964112284e-7
          0 -5.422293950028333e-8 -1.0844562569521343e-7 0 -5.2233033423484216e-8 -1.0446563848669089e-7
          0 -5.025092290147284e-8 -1.0050214146572234e-7 0 -4.834944595598544e-8 -9.66986305554962e-8
          0 -4.668886714931801e-8 -9.337832054069369e-8 0 -5.995094998402439e-8 -1.1990837063731363e-7
          0 -5.846447076631709e-8 -1.1692907339894048e-7 0 -5.655811302439592e-8 -1.1311663230336545e-7
          0 -5.440581332462359e-8 -1.0881233190040005e-7 0 -5.214522117551049e-8 -1.042901679312373e-7
          0 -4.99046909382681e-8 -9.981020459933994e-8 0 -4.7738266015537806e-8 -9.547514930373204e-8
          0 -4.5930353288226384e-8 -9.186052833896373e-8 0 -6.128250001172491e-8 -1.2255166419154493e-7
          0 -5.9495358209867037e-8 -1.1899118678591118e-7 0 -5.719410613438969e-8 -1.1438630434240791e-7
          0 -5.4615984668846675e-8 -1.0923147984976829e-7 0 -5.195594595295766e-8 -1.039105956998173e-7
          0 -4.932518971523008e-8 -9.8652483245732e-8 0 -4.675128009986513e-8 -9.350263022427419e-8
          0 -4.472932445685372e-8 -8.946282949843344e-8 0 -6.350659619376451e-8 -1.2703187179039318e-7
          0 -6.093549008066782e-8 -1.2186767516453088e-7 0 -5.791897648067101e-8 -1.1584431811484851e-7
          0 -5.479824047623813e-8 -1.0959893263586069e-7 0 -5.157527872904608e-8 -1.0314967938117367e-7
          0 -4.8402177640632444e-8 -9.68063434330713e-8 0 -4.523166970140517e-8 -9.045559075929859e-8
          0 -4.290698742953065e-8 -8.58100339835592e-8 0 -6.976625639738835e-8 -1.3951805866376542e-7
          0 -6.54934177367444e-8 -1.3100186522735668e-7 0 -6.247031449679937e-8 -1.2494803700075507e-7
          0 -5.8737800291654635e-8 -1.1745488805039014e-7 0 -5.476411582838587e-8 -1.0952795239551179e-7
          0 -5.089343177806715e-8 -1.0178169794924237e-7 0 -4.6993363789412706e-8 -9.399566125639149e-8
          0 -4.2947287613495286e-8 -8.589923835967115e-8 0 -4.02927165190654e-8 -8.060544518611197e-8
          0 -8.392471858948005e-8 -1.6780014305320793e-7 0 -7.660735961774127e-8 -1.5323223499798897e-7
          0 -6.455367594587678e-8 -1.2917145581825127e-7 0 -5.8875015844113884e-8 -1.1778753763051489e-7
          0 -5.471094531228192e-8 -1.0942062395288329e-7 0 -4.9861349613690095e-8 -9.971957610349808e-8
          0 -4.491238635728774e-8 -8.98305130722372e-8 0 -3.925550130662876e-8 -7.848341431742489e-8
          0 -3.5948974048435877e-8 -7.188621696338224e-8 0 -9.515128844700723e-8 -1.9018213657307506e-7
          0 -9.22111269536389e-8 -1.8434334643557903e-7 0 -7.254674816804249e-8 -1.451541520415398e-7
          0 -5.7604996288716796e-8 -1.1526611849416465e-7 0 -5.3830940822026074e-8 -1.0767977736271462e-7
          0 -4.832263189787685e-8 -9.662113492751413e-8 0 -4.220145494419491e-8 -8.443811634661983e-8
          0 -3.473566781121511e-8 -6.945323177249729e-8 0 -3.127635961069214e-8 -6.258113012982349e-8
          0 -1.1316953960357614e-7 -2.2628341382386647e-7 0 -1.1306899631282824e-7 -2.2602181672257215e-7
          0 -9.313233478721304e-8 -1.8633768092116343e-7 0 -6.656056869882327e-8 -1.332537088452736e-7
          0 -5.3853726661911666e-8 -1.0775310957435284e-7 0 -4.8130692944004565e-8 -9.624845043400807e-8
          0 -3.706010284845313e-8 -7.414665961680949e-8 0 -2.148269790160481e-8 -4.2935192267760424e-8
          0 -1.0728567406934547e-8 -2.1467958948027485e-8 0 0 -4.625472379436011e-8
          -4.609623355025306e-8 -9.250959670731803e-8 -9.219241749224036e-8 0 -4.5595026418448895e-8 -9.118982636277323e-8
          0 -4.4698241215380224e-8 -8.939466541285767e-8 0 -4.330389878932426e-8 -8.660699665836082e-8
          0 -4.122569693893572e-8 -8.244300331837269e-8 0 -3.82679276599261e-8 -7.653503882280084e-8
          0 -3.344141901784851e-8 -6.685914850470565e-8 0 -2.7512774378701225e-8 -5.498966265866058e-8
          0 -1.0109269842970231e-8 -2.015734730138809e-8 0 0 -4.5363278339494124e-8
          -4.519243742036633e-8 -9.072642570549632e-8 -9.038485248597024e-8 0 -4.4662849550297343e-8 -8.932608646945636e-8
          0 -4.3729179239515786e-8 -8.745939592462834e-8 0 -4.2305726447073605e-8 -8.461394675136842e-8
          0 -4.027023947015828e-8 -8.054389702534336e-8 0 -3.73832840684866e-8 -7.477629818800188e-8
          0 -3.338117959304249e-8 -6.677290185277356e-8 0 -2.796424344837979e-8 -5.5964478093717576e-8
          0 -1.9585063338142395e-8 -3.920808117460296e-8 0 0 -4.458586731387171e-8
          -4.4406675946655755e-8 -8.917181164411931e-8 -8.881336655276169e-8 0 -4.385666786645933e-8 -8.771315251225647e-8
          0 -4.2899873247476355e-8 -8.579916596149303e-8 0 -4.1475696215202567e-8 -8.29502867020356e-8
          0 -3.948915151350323e-8 -7.89759729866784e-8 0 -3.682651194151521e-8 -7.364961189920167e-8
          0 -3.335534302146506e-8 -6.670197088843885e-8 0 -2.9106309884027517e-8 -5.819766682962235e-8
          0 -2.4144459676307933e-8 -4.823091960697158e-8 0 0 -4.3925076493758496e-8
          -4.374183858308462e-8 -8.785012614726149e-8 -8.748367008887873e-8 0 -4.3183615448685725e-8 -8.636730416603609e-8
          0 -4.222614517038007e-8 -8.445251447162679e-8 0 -4.0830580687225685e-8 -8.166159131031717e-8
          0 -3.894862205375144e-8 -7.789825960481575e-8 0 -3.654533999030103e-8 -7.3091764973434e-8
          0 -3.3622657461020005e-8 -6.724923129799584e-8 0 -3.040029249525891e-8 -6.080454443059758e-8
          0 -2.7505538147140985e-8 -5.5024592553332214e-8 0 0 -4.338406569124039e-8
          -4.3199567020869873e-8 -8.676814165517414e-8 -8.639913645210887e-8 0 -4.264117030728031e-8 -8.528231647519295e-8
          0 -4.169547091417507e-8 -8.339086976797323e-8 0 -4.0345592573854523e-8 -8.069102590108326e-8
          0 -3.8582163821228125e-8 -7.716408297506547e-8 0 -3.64299801629348e-8 -7.28591831743197e-8
          0 -3.398112010204095e-8 -6.796168628145831e-8 0 -3.1553413423519446e-8 -6.310388364309018e-8
          0 -2.980375118042805e-8 -5.95969854798618e-8 0 0 -4.296385869680829e-8
          -4.277975427572323e-8 -8.592771590877454e-8 -8.555950910995409e-8 0 -4.2225485196413826e-8 -8.445097745453511e-8
          0 -4.129720371094568e-8 -8.259443781593617e-8 0 -3.99963091077349e-8 -7.99926324976264e-8
          0 -3.8343278511371066e-8 -7.668672269173073e-8 0 -3.6404571909642314e-8 -7.280894943359879e-8
          0 -3.432883312586682e-8 -6.865868357961238e-8 0 -3.245829540322391e-8 -6.491587200721092e-8
          0 -3.137253053289585e-8 -6.27454853045562e-8 0 0 -4.2664370932123226e-8
          -4.2481321690183166e-8 -8.532874828877232e-8 -8.49626495195752e-8 0 -4.1932482894979687e-8 -8.38649671729459e-8
          0 -4.102128579917478e-8 -8.204257512136892e-8 0 -3.976252414762078e-8 -7.952500443082456e-8
          0 -3.819736247412377e-8 -7.639476238458687e-8 0 -3.641911571481468e-8 -7.283789863371839e-8
          0 -3.4608766551264064e-8 -6.921804893583086e-8 0 -3.310136510110897e-8 -6.620157576419426e-8
          0 -3.240522255343849e-8 -6.480865039163719e-8 0 0 -4.2485083540012286e-8
          -4.230298645819017e-8 -8.497016688771956e-8 -8.460597402819625e-8 0 -4.175842780943216e-8 -8.351685284447992e-8
          0 -4.0859332518946946e-8 -8.171867047870501e-8 0 -3.962858910233019e-8 -7.925713939971501e-8
          0 -3.811937510943725e-8 -7.62388181352429e-8 0 -3.6439976409874154e-8 -7.287967082769174e-8
          0 -3.4786884575382786e-8 -6.957438357877594e-8 0 -3.3482984671731595e-8 -6.696503998502258e-8
          0 -3.2991029764241836e-8 -6.598141077477625e-8 0 0 -4.242539759402205e-8
          -4.224367138094526e-8 -8.485078290115938e-8 -8.448732822102697e-8 0 -4.170069270959767e-8 -8.340136810733685e-8
          0 -4.0805946435912434e-8 -8.16118856640884e-8 0 -3.958499580982878e-8 -7.916993813114635e-8
          0 -3.8094955718062215e-8 -7.618996097910333e-8 0 -3.644887669827857e-8 -7.28974547979999e-8
          0 -3.484781721220809e-8 -6.96961861267553e-8 0 -3.360938367395758e-8 -6.721782618552083e-8
          0 -3.318163924587291e-8 -6.636241877454833e-8
        </DataArray>
      </PointData>
      <CellData>
        <DataArray type="Int32" Name="libmesh_elem_id" format="ascii" RangeMin="1398" RangeMax="3643">
          1398 1399 1422 1423 1460 1461
          1470 1471 1482 1483 1494 1495
          1502 1503 1506 1507 1520 1521
          1528 1529 1580 1581 1584 1585
          1612 1613 1636 1637 1652 1653
          1722 1723 1798 1799 1850 1851
          2298 2299 2406 2407 2442 2443
          2450 2451 2472 2473 2558 2559
          2610 2611 2646 2647 2648 2649
          2662 2663 2672 2673 2680 2681
          2748 2749 2756 2757 2776 2777
          2808 2809 2814 2815 2822 2823
          2828 2829 2836 2837 2852 2853
          2876 2877 2898 2899 2910 2911
          2926 2927 2936 2937 2950 2951
          2952 2953 2954 2955 2966 2967
          2980 2981 2982 2983 2990 2991
          3006 3007 3014 3015 3026 3027
          3068 3069 3074 3075 3104 3105
          3110 3111 3124 3125 3126 3127
          3168 3169 3194 3195 3204 3205
          3208 3209 3210 3211 3212 3213
          3220 3221 3222 3223 3224 3225
          3226 3227 3234 3235 3236 3237
          3240 3241 3252 3253 3254 3255
          3264 3265 3296 3297 3302 3303
          3308 3309 3314 3315 3324 3325
          3326 3327 3328 3329 3330 3331
          3332 3333 3334 3335 3336 3337
          3342 3343 3344 3345 3346 3347
          3348 3349 3350 3351 3352 3353
          3354 3355 3360 3361 3362 3363
          3364 3365 3366 3367 3368 3369
          3370 3371 3372 3373 3378 3379
          3380 3381 3382 3383 3384 3385
          3386 3387 3388 3389 3390 3391
          3396 3397 3398 3399 3400 3401
          3402 3403 3404 3405 3406 3407
          3408 3409 3414 3415 3416 3417
          3418 3419 3420 3421 3422 3423
          3424 3425 3426 3427 3430 3431
          3432 3433 3434 3435 3436 3437
          3438 3439 3440 3441 3442 3443
          3444 3445 3448 3449 3450 3451
          3452 3453 3454 3455 3456 3457
          3458 3459 3460 3461 3462 3463
          3466 3467 3468 3469 3470 3471
          3472 3473 3474 3475 3476 3477
          3478 3479 3480 3481 3482 3483
          3484 3485 3486 3487 3488 3489
          3490 3491 3492 3493 3494 3495
          3496 3497 3498 3499 3500 3501
          3502 3503 3504 3505 3506 3507
          3508 3509 3510 3511 3512 3513
          3514 3515 3516 3517 3518 3519
          3520 3521 3522 3523 3524 3525
          3526 3527 3528 3529 3530 3531
          3532 3533 3534 3535 3536 3537
          3538 3539 3540 3541 3542 3543
          3544 3545 3546 3547 3548 3549
          3550 3551 3552 3553 3554 3555
          3556 3557 3558 3559 3560 3561
          3562 3563 3564 3565 3566 3567
          3568 3569 3570 3571 3572 3573
          3574 3575 3576 3577 3578 3579
          3580 3581 3582 3583 3584 3585
          3586 3587 3588 3589 3590 3591
          3592 3593 3594 3595 3596 3597
          3598 3599 3600 3601 3602 3603
          3604 3605 3606 3607 3608 3609
          3610 3611 3612 3613 3614 3615
          3616 3617 3618 3619 3620 3621
          3622 3623 3624 3625 3626 3627
          3628 3629 3630 3631 3632 3633
          3634 3635 3636 3637 3638 3639
          3640 3641 3642 3643
        </DataArray>
        <DataArray type="Int32" Name="subdomain_id" format="ascii" RangeMin="107" RangeMax="110">
          107 107 107 107 107 107
          107 107 107 107 107 107
          107 107 107 107 107 107
          107 107 107 107 107 107
          107 107 107 107 107 107
          107 107 107 107 107 107
          107 107 107 107 107 107
          107 107 107 107 107 107
          107 107 107 107 107 107
          107 107 107 107 107 107
          107 107 107 107 107 107
          107 107 107 107 107 107
          107 107 107 107 107 107
          107 107 107 107 107 107
          107 107 107 107 107 107
          107 107 107 107 107 107
          107 107 107 107 107 107
          107 107 107 107 107 107
          107 107 107 107 107 107
          107 107 107 107 107 107
          107 107 107 107 107 107
          107 107 107 107 107 107
          107 107 107 107 107 107
          107 107 107 107 107 107
          107 107 107 107 107 107
          107 107 108 108 108 108
          108 108 108 108 109 109
          109 109 109 109 109 109
          109 109 109 109 109 109
          109 109 109 109 109 109
          109 109 109 109 109 109
          109 109 109 109 109 109
          109 109 109 109 109 109
          109 109 109 109 109 109
          109 109 109 109 109 109
          109 109 109 109 109 109
          109 109 109 109 109 109
          109 109 109 109 109 109
          109 109 109 109 109 109
          109 109 109 109 109 109
          109 109 109 109 109 109
          109 109 109 109 109 109
          109 109 109 109 109 109
          109 109 109 109 109 109
          109 109 109 109 109 109
          109 109 109 109 109 109
          109 109 109 109 109 109
          109 109 109 109 109 109
          109 109 109 109 110 110
          110 110 110 110 110 110
          110 110 110 110 110 110
          110 110 110 110 110 110
          110 110 110 110 110 110
          110 110 110 110 110 110
          110 110 110 110 110 110
          110 110 110 110 110 110
          110 110 110 110 110 110
          110 110 110 110 110 110
          110 110 110 110 110 110
          110 110 110 110 110 110
          110 110 110 110 110 110
          110 110 110 110 110 110
          110 110 110 110 110 110
          110 110 110 110 110 110
          110 110 110 110 110 110
          110 110 110 110 110 110
          110 110 110 110 110 110
          110 110 110 110 110 110
          110 110 110 110 110 110
          110 110 110 110 110 110
          110 110 110 110 110 110
          110 110 110 110 110 110
          110 110 110 110 110 110
          110 110 110 110 110 110
          110 110 110 110 110 110
          110 110 110 110
        </DataArray>
        <DataArray type="Int32" Name="processor_id" format="ascii" RangeMin="0" RangeMax="0">
          0 0 0 0 0 0
          0 0 0 0 0 0
          0 0 0 0 0 0
          0 0 0 0 0 0
          0 0 0 0 0 0
          0 0 0 0 0 0
          0 0 0 0 0 0
          0 0 0 0 0 0
          0 0 0 0 0 0
          0 0 0 0 0 0
          0 0 0 0 0 0
          0 0 0 0 0 0
          0 0 0 0 0 0
          0 0 0 0 0 0
          0 0 0 0 0 0
          0 0 0 0 0 0
          0 0 0 0 0 0
          0 0 0 0 0 0
          0 0 0 0 0 0
          0 0 0 0 0 0
          0 0 0 0 0 0
          0 0 0 0 0 0
          0 0 0 0 0 0
          0 0 0 0 0 0
          0 0 0 0 0 0
          0 0 0 0 0 0
          0 0 0 0 0 0
          0 0 0 0 0 0
          0 0 0 0 0 0
          0 0 0 0 0 0
          0 0 0 0 0 0
          0 0 0 0 0 0
          0 0 0 0 0 0
          0 0 0 0 0 0
          0 0 0 0 0 0
          0 0 0 0 0 0
          0 0 0 0 0 0
          0 0 0 0 0 0
          0 0 0 0 0 0
          0 0 0 0 0 0
          0 0 0 0 0 0
          0 0 0 0 0 0
          0 0 0 0 0 0
          0 0 0 0 0 0
          0 0 0 0 0 0
          0 0 0 0 0 0
          0 0 0 0 0 0
          0 0 0 0 0 0
          0 0 0 0 0 0
          0 0 0 0 0 0
          0 0 0 0 0 0
          0 0 0 0 0 0
          0 0 0 0 0 0
          0 0 0 0 0 0
          0 0 0 0 0 0
          0 0 0 0 0 0
          0 0 0 0 0 0
          0 0 0 0 0 0
          0 0 0 0 0 0
          0 0 0 0 0 0
          0 0 0 0 0 0
          0 0 0 0 0 0
          0 0 0 0 0 0
          0 0 0 0 0 0
          0 0 0 0 0 0
          0 0 0 0 0 0
          0 0 0 0 0 0
          0 0 0 0 0 0
          0 0 0 0 0 0
          0 0 0 0 0 0
          0 0 0 0 0 0
          0 0 0 0 0 0
          0 0 0 0 0 0
          0 0 0 0 0 0
          0 0 0 0 0 0
          0 0 0 0
        </DataArray>
      </CellData>
      <Points>
        <DataArray type="Float64" Name="Points" NumberOfComponents="3" format="ascii" RangeMin="0.019949534490770096" RangeMax="0.057059767276955435">
          0.025 0.010111111111103 0 0.025 0.011555555555552 0
          0.023969654121399 0.011643457228511 0 0.023712354871128 0.010827306146479 0
          0.025 0.010111111111103 0.00015 0.025 0.011555555555552 0.00015
          0.023969654121399 0.011643457228511 0.00015 0.023712354871128 0.010827306146479 0.00015
          0.025 0.010111111111103 0.0003 0.025 0.011555555555552 0.0003
          0.023969654121399 0.011643457228511 0.0003 0.023712354871128 0.010827306146479 0.0003
          0.021832836898909 0.0086447924127183 0 0.021823224979211 0.0078559681587773 0
          0.022737846371709 0.0079006862580081 0 0.022634898807434 0.0088549234284915 0
          0.021832836898909 0.0086447924127183 0.00015 0.021823224979211 0.0078559681587773 0.00015
          0.022737846371709 0.0079006862580081 0.00015 0.022634898807434 0.0088549234284915 0.00015
          0.021832836898909 0.0086447924127183 0.0003 0.021823224979211 0.0078559681587773 0.0003
          0.022737846371709 0.0079006862580081 0.0003 0.022634898807434 0.0088549234284915 0.0003
          0.023595500831214 0.0092794942281182 0 0.023071107871262 0.010124307969263 0
          0.023595500831214 0.0092794942281182 0.00015 0.023071107871262 0.010124307969263 0.00015
          0.023595500831214 0.0092794942281182 0.0003 0.023071107871262 0.010124307969263 0.0003
          0.022679909737796 0.0068405181074087 0 0.023816654948859 0.0069324696013164 0
          0.023805320189621 0.0081867285281858 0 0.022679909737796 0.0068405181074087 0.00015
          0.023816654948859 0.0069324696013164 0.00015 0.023805320189621 0.0081867285281858 0.00015
          0.022679909737796 0.0068405181074087 0.0003 0.023816654948859 0.0069324696013164 0.0003
          0.023805320189621 0.0081867285281858 0.0003 0.021890570917318 0.011219591567605 0
          0.021490495874743 0.011513015985888 0 0.020878683694742 0.011349585571751 0
          0.021380466308845 0.010767094219468 0 0.021890570917318 0.011219591567605 0.00015
          0.021490495874743 0.011513015985888 0.00015 0.020878683694742 0.011349585571751 0.00015
          0.021380466308845 0.010767094219468 0.00015 0.021890570917318 0.011219591567605 0.0003
          0.021490495874743 0.011513015985888 0.0003 0.020878683694742 0.011349585571751 0.0003
          0.021380466308845 0.010767094219468 0.0003 0.022336312736143 0.012467557709352 0
          0.021763745105177 0.012476629724541 0 0.021622459990569 0.011931223094182 0
          0.02233098651665 0.011816769005978 0 0.022336312736143 0.012467557709352 0.00015
          0.021763745105177 0.012476629724541 0.00015 0.021622459990569 0.011931223094182 0.00015
          0.02233098651665 0.011816769005978 0.00015 0.022336312736143 0.012467557709352 0.0003
          0.021763745105177 0.012476629724541 0.0003 0.021622459990569 0.011931223094182 0.0003
          0.02233098651665 0.011816769005978 0.0003 0.021047379294988 0.0079667793778881 0
          0.020813290684512 0.007243328880283 0 0.021666975794544 0.0069715825078724 0
          0.021047379294988 0.0079667793778881 0.00015 0.020813290684512 0.007243328880283 0.00015
          0.021666975794544 0.0069715825078724 0.00015 0.021047379294988 0.0079667793778881 0.0003
          0.020813290684512 0.007243328880283 0.0003 0.021666975794544 0.0069715825078724 0.0003
          0.025 0.0086666666666559 0 0.025 0.0086666666666559 0.00015
          0.025 0.0086666666666559 0.0003 0.021356284292895 0.0061182113295331 0
          0.020489019208248 0.0065103794253073 0 0.021356284292895 0.0061182113295331 0.00015
          0.020489019208248 0.0065103794253073 0.00015 0.021356284292895 0.0061182113295331 0.0003
          0.020489019208248 0.0065103794253073 0.0003 0.025 0.0072222222222063 0
          0.023829479378086 0.0056593315311521 0 0.025 0.0072222222222063 0.00015
          0.023829479378086 0.0056593315311521 0.00015 0.025 0.0072222222222063 0.0003
          0.023829479378086 0.0056593315311521 0.0003 0.019357361519954 0.01157618305141 0
          0.01884046117173 0.011223113854601 0 0.019357361519954 0.01157618305141 0.00015
          0.01884046117173 0.011223113854601 0.00015 0.019357361519954 0.01157618305141 0.0003
          0.01884046117173 0.011223113854601 0.0003 0.020274347850796 0.01080512315655 0
          0.019692191057164 0.010418143528135 0 0.020104676199583 0.0097475599042502 0
          0.020792052735599 0.010316149813733 0 0.020274347850796 0.01080512315655 0.00015
          0.019692191057164 0.010418143528135 0.00015 0.020104676199583 0.0097475599042502 0.00015
          0.020792052735599 0.010316149813733 0.00015 0.020274347850796 0.01080512315655 0.0003
          0.019692191057164 0.010418143528135 0.0003 0.020104676199583 0.0097475599042502 0.0003
          0.020792052735599 0.010316149813733 0.0003 0.018734278863615 0.0068564365277259 0
          0.018734278863615 0.0068564365277259 0.00015 0.018734278863615 0.0068564365277259 0.0003
          0.018384253973557 0.010894663204421 0 0.018384253973557 0.010894663204421 0.00015
          0.018384253973557 0.010894663204421 0.0003 0.022477642087048 0.0055533155338694 0
          0.022477642087048 0.0055533155338694 0.00015 0.022477642087048 0.0055533155338694 0.0003
          0.022333445868241 0.0096250088550796 0 0.021678233976573 0.0092839168226163 0
          0.022333445868241 0.0096250088550796 0.00015 0.021678233976573 0.0092839168226163 0.00015
          0.022333445868241 0.0096250088550796 0.0003 0.021678233976573 0.0092839168226163 0.0003
          0.018696511924608 0.0075816988835645 0 0.019307778433714 0.0076950261479263 0
          0.019244919669154 0.0083241905034728 0 0.018643245907353 0.0082916041839039 0
          0.018696511924608 0.0075816988835645 0.00015 0.019307778433714 0.0076950261479263 0.00015
          0.019244919669154 0.0083241905034728 0.00015 0.018643245907353 0.0082916041839039 0.00015
          0.018696511924608 0.0075816988835645 0.0003 0.019307778433714 0.0076950261479263 0.0003
          0.019244919669154 0.0083241905034728 0.0003 0.018643245907353 0.0082916041839039 0.0003
          0.02247089481133 0.010746063389313 0 0.022956441030322 0.011313723369763 0
          0.02247089481133 0.010746063389313 0.00015 0.022956441030322 0.011313723369763 0.00015
          0.02247089481133 0.010746063389313 0.0003 0.022956441030322 0.011313723369763 0.0003
          0.018817000838468 0.010560792840001 0 0.018817000838468 0.010560792840001 0.00015
          0.018817000838468 0.010560792840001 0.0003 0.021028725472558 0.011993213484042 0
          0.021028725472558 0.011993213484042 0.00015 0.021028725472558 0.011993213484042 0.0003
          0.018719100515555 0.0096191331103102 0 0.018769006148643 0.010016813571171 0
          0.018719100515555 0.0096191331103102 0.00015 0.018769006148643 0.010016813571171 0.00015
          0.018719100515555 0.0096191331103102 0.0003 0.018769006148643 0.010016813571171 0.0003
          0.022845614094026 0.012068678060928 0 0.022870050818517 0.012481997757377 0
          0.022845614094026 0.012068678060928 0.00015 0.022870050818517 0.012481997757377 0.00015
          0.022845614094026 0.012068678060928 0.0003 0.022870050818517 0.012481997757377 0.0003
          0.01980903614198 0.0082923028866096 0 0.019733887771193 0.007830319872041 0
          0.01980903614198 0.0082923028866096 0.00015 0.019733887771193 0.007830319872041 0.00015
          0.01980903614198 0.0082923028866096 0.0003 0.019733887771193 0.007830319872041 0.0003
          0.019287865107188 0.010870204720027 0 0.019287865107188 0.010870204720027 0.00015
          0.019287865107188 0.010870204720027 0.0003 0.019611341590458 0.0069319215290848 0
          0.019611341590458 0.0069319215290848 0.00015 0.019611341590458 0.0069319215290848 0.0003
          0.019793192887703 0.011218191570876 0 0.019793192887703 0.011218191570876 0.00015
          0.019793192887703 0.011218191570876 0.0003 0.02014052068744 0.0075597001530957 0
          0.02014052068744 0.0075597001530957 0.00015 0.02014052068744 0.0075597001530957 0.0003
          0.019142781766586 0.010156284019367 0 0.019142781766586 0.010156284019367 0.00015
          0.019142781766586 0.010156284019367 0.0003 0.019871794871807 0.013 0
          0.019671681078705 0.012567114388191 0 0.019871794871807 0.013 0.00015
          0.019671681078705 0.012567114388191 0.00015 0.019871794871807 0.013 0.0003
          0.019671681078705 0.012567114388191 0.0003 0.02189605775595 0.01024368797285 0
          0.02189605775595 0.01024368797285 0.00015 0.02189605775595 0.01024368797285 0.0003
          0.021306208963658 0.0098107932917518 0 0.020830530356293 0.0093484326970494 0
          0.021306208963658 0.0098107932917518 0.00015 0.020830530356293 0.0093484326970494 0.00015
          0.021306208963658 0.0098107932917518 0.0003 0.020830530356293 0.0093484326970494 0.0003
          0.019927087042343 0.0089401115508047 0 0.019284140679376 0.0089915496868705 0
          0.019927087042343 0.0089401115508047 0.00015 0.019284140679376 0.0089915496868705 0.00015
          0.019927087042343 0.0089401115508047 0.0003 0.019284140679376 0.0089915496868705 0.0003
          0.023272296973232 0.01187913061167 0 0.023408043049707 0.012441583397961 0
          0.023272296973232 0.01187913061167 0.00015 0.023408043049707 0.012441583397961 0.00015
          0.023272296973232 0.01187913061167 0.0003 0.023408043049707 0.012441583397961 0.0003
          0.019291729405334 0.009640079412969 0 0.019291729405334 0.009640079412969 0.00015
          0.019291729405334 0.009640079412969 0.0003 0.019497075330812 0.012129782091497 0
          0.019497075330812 0.012129782091497 0.00015 0.019497075330812 0.012129782091497 0.0003
          0.018655444813331 0.0089912542068827 0 0.018655444813331 0.0089912542068827 0.00015
          0.018655444813331 0.0089912542068827 0.0003 0.020217772280624 0.01161574996656 0
          0.019866459267603 0.011787315550137 0 0.020217772280624 0.01161574996656 0.00015
          0.019866459267603 0.011787315550137 0.00015 0.020217772280624 0.01161574996656 0.0003
          0.019866459267603 0.011787315550137 0.0003 0.020169909004412 0.012559422291794 0
          0.020384615384626 0.013 0 0.020169909004412 0.012559422291794 0.00015
          0.020384615384626 0.013 0.00015 0.020169909004412 0.012559422291794 0.0003
          0.020384615384626 0.013 0.0003 0.02048968364866 0.012063778985416 0
          0.021216890903006 0.012503701361908 0 0.020684692364028 0.012535095885709 0
          0.02048968364866 0.012063778985416 0.00015 0.021216890903006 0.012503701361908 0.00015
          0.020684692364028 0.012535095885709 0.00015 0.02048968364866 0.012063778985416 0.0003
          0.021216890903006 0.012503701361908 0.0003 0.020684692364028 0.012535095885709 0.0003
          0.020897435897446 0.013 0 0.020897435897446 0.013 0.00015
          0.020897435897446 0.013 0.0003 0.020387511226442 0.0081443073342907 0
          0.02056343795537 0.0087688297792787 0 0.020387511226442 0.0081443073342907 0.00015
          0.02056343795537 0.0087688297792787 0.00015 0.020387511226442 0.0081443073342907 0.0003
          0.02056343795537 0.0087688297792787 0.0003 0.023967653117571 0.012391671962311 0
          0.024322147732379 0.012509260561901 0 0.023967653117571 0.012391671962311 0.00015
          0.024322147732379 0.012509260561901 0.00015 0.023967653117571 0.012391671962311 0.0003
          0.024322147732379 0.012509260561901 0.0003 0.021410256410266 0.013 0
          0.021410256410266 0.013 0.00015 0.021410256410266 0.013 0.0003
          0.019993073529409 0.012116879865089 0 0.019993073529409 0.012116879865089 0.00015
          0.019993073529409 0.012116879865089 0.0003 0.02122910202584 0.0090825003429501 0
          0.02122910202584 0.0090825003429501 0.00015 0.02122910202584 0.0090825003429501 0.0003
          0.022948717948721 0.013 0 0.022435897435903 0.013 0
          0.022948717948721 0.013 0.00015 0.022435897435903 0.013 0.00015
          0.022948717948721 0.013 0.0003 0.022435897435903 0.013 0.0003
          0.021923076923085 0.013 0 0.021923076923085 0.013 0.00015
          0.021923076923085 0.013 0.0003 0.023461538461539 0.013 0
          0.023461538461539 0.013 0.00015 0.023461538461539 0.013 0.0003
          0.021171209164951 0.0086229949315581 0 0.021171209164951 0.0086229949315581 0.00015
          0.021171209164951 0.0086229949315581 0.0003 0.023974358974358 0.013 0
          0.023974358974358 0.013 0.00015 0.023974358974358 0.013 0.0003
          0.024487179487177 0.013 0 0.024487179487177 0.013 0.00015
          0.024487179487177 0.013 0.0003 0.025 0.013 0
          0.025 0.013 0.00015 0.025 0.013 0.0003
          0.026666666666667 0.0072222222222063 0 0.026666666666667 0.0072222222222063 0.00015
          0.026666666666667 0.0072222222222063 0.0003 0.026666666666668 0.0086666666666559 0
          0.026666666666668 0.0086666666666559 0.00015 0.026666666666668 0.0086666666666559 0.0003
          0.026666666666669 0.010111111111103 0 0.026666666666669 0.010111111111103 0.00015
          0.026666666666669 0.010111111111103 0.0003 0.026666666666669 0.011555555555552 0
          0.026666666666669 0.011555555555552 0.00015 0.026666666666669 0.011555555555552 0.0003
          0.02666666666667 0.013 0 0.02666666666667 0.013 0.00015
          0.02666666666667 0.013 0.0003 0.033201501647561 0.0014698753983525 0
          0.033179797338052 0 0 0.033201501647561 0.0014698753983525 0.00015
          0.033179797338052 0 0.00015 0.033201501647561 0.0014698753983525 0.0003
          0.033179797338052 0 0.0003 0.034800103200053 0.0015015548376625 0
          0.034769696007096 0 0 0.034800103200053 0.0015015548376625 0.00015
          0.034769696007096 0 0.00015 0.034800103200053 0.0015015548376625 0.0003
          0.034769696007096 0 0.0003 0.03639613666046 0.0015457026119765 0
          0.036359594676111 0 0 0.03639613666046 0.0015457026119765 0.00015
          0.036359594676111 0 0.00015 0.03639613666046 0.0015457026119765 0.0003
          0.036359594676111 0 0.0003 0.037988764334349 0.001602116400018 0
          0.037949493345121 0 0 0.037988764334349 0.001602116400018 0.00015
          0.037949493345121 0 0.00015 0.037988764334349 0.001602116400018 0.0003
          0.037949493345121 0 0.0003 0.039577164134098 0.001670537667151 0
          0.039539392014149 0 0 0.039577164134098 0.001670537667151 0.00015
          0.039539392014149 0 0.00015 0.039577164134098 0.001670537667151 0.0003
          0.039539392014149 0 0.0003 0.041160533348121 0.0017506528505884 0
          0.041129290683195 0 0 0.041160533348121 0.0017506528505884 0.00015
          0.041129290683195 0 0.00015 0.041160533348121 0.0017506528505884 0.0003
          0.041129290683195 0 0.0003 0.042738092320879 0.0018420947973532 0
          0.042719189352233 0 0 0.042738092320879 0.0018420947973532 0.00015
          0.042719189352233 0 0.00015 0.042738092320879 0.0018420947973532 0.0003
          0.042719189352233 0 0.0003 0.044309088021254 0.0019444444444413 0
          0.044309088021254 0 0 0.044309088021254 0.0019444444444413 0.00015
          0.044309088021254 0 0.00015 0.044309088021254 0.0019444444444413 0.0003
          0.044309088021254 0 0.0003 0.033223205957069 0.0029397507967035 0
          0.033223205957069 0.0029397507967035 0.00015 0.033223205957069 0.0029397507967035 0.0003
          0.03483051039301 0.0030031096753234 0 0.03483051039301 0.0030031096753234 0.00015
          0.03483051039301 0.0030031096753234 0.0003 0.036432678644808 0.0030914052239513 0
          0.036432678644808 0.0030914052239513 0.00015 0.036432678644808 0.0030914052239513 0.0003
          0.038028035323577 0.0032042328000343 0 0.038028035323577 0.0032042328000343 0.00015
          0.038028035323577 0.0032042328000343 0.0003 0.039614936254047 0.0033410753343001 0
          0.039614936254047 0.0033410753343001 0.00015 0.039614936254047 0.0033410753343001 0.0003
          0.041191776013048 0.0035013057011749 0 0.041191776013048 0.0035013057011749 0.00015
          0.041191776013048 0.0035013057011749 0.0003 0.042756995289524 0.0036841895947044 0
          0.042756995289524 0.0036841895947044 0.00015 0.042756995289524 0.0036841895947044 0.0003
          0.044309088021254 0.0038888888888803 0 0.044309088021254 0.0038888888888803 0.00015
          0.044309088021254 0.0038888888888803 0.0003 0.033244910266578 0.0044096261950543 0
          0.033244910266578 0.0044096261950543 0.00015 0.033244910266578 0.0044096261950543 0.0003
          0.034860917585967 0.004504664512984 0 0.034860917585967 0.004504664512984 0.00015
          0.034860917585967 0.004504664512984 0.0003 0.036469220629156 0.0046371078359259 0
          0.036469220629156 0.0046371078359259 0.00015 0.036469220629156 0.0046371078359259 0.0003
          0.038067306312805 0.0048063492000502 0 0.038067306312805 0.0048063492000502 0.00015
          0.038067306312805 0.0048063492000502 0.0003 0.039652708373995 0.0050116130014489 0
          0.039652708373995 0.0050116130014489 0.00015 0.039652708373995 0.0050116130014489 0.0003
          0.041223018677975 0.005251958551761 0 0.041223018677975 0.005251958551761 0.00015
          0.041223018677975 0.005251958551761 0.0003 0.04277589825817 0.0055262843920551 0
          0.04277589825817 0.0055262843920551 0.00015 0.04277589825817 0.0055262843920551 0.0003
          0.044309088021254 0.0058333333333189 0 0.044309088021254 0.0058333333333189 0.00015
          0.044309088021254 0.0058333333333189 0.0003 0.033266614576087 0.0058795015934051 0
          0.033266614576087 0.0058795015934051 0.00015 0.033266614576087 0.0058795015934051 0.0003
          0.034891324778924 0.0060062193506447 0 0.034891324778924 0.0060062193506447 0.00015
          0.034891324778924 0.0060062193506447 0.0003 0.036505762613504 0.0061828104479004 0
          0.036505762613504 0.0061828104479004 0.00015 0.036505762613504 0.0061828104479004 0.0003
          0.038106577302032 0.0064084656000662 0 0.038106577302032 0.0064084656000662 0.00015
          0.038106577302032 0.0064084656000662 0.0003 0.039690480493944 0.0066821506685977 0
          0.039690480493944 0.0066821506685977 0.00015 0.039690480493944 0.0066821506685977 0.0003
          0.041254261342902 0.0070026114023471 0 0.041254261342902 0.0070026114023471 0.00015
          0.041254261342902 0.0070026114023471 0.0003 0.042794801226816 0.0073683791894058 0
          0.042794801226816 0.0073683791894058 0.00015 0.042794801226816 0.0073683791894058 0.0003
          0.044309088021254 0.0077777777777574 0 0.044309088021254 0.0077777777777574 0.00015
          0.044309088021254 0.0077777777777574 0.0003 0.033288318885596 0.0073493769917596 0
          0.033288318885596 0.0073493769917596 0.00015 0.033288318885596 0.0073493769917596 0.0003
          0.034921731971881 0.0075077741883091 0 0.034921731971881 0.0075077741883091 0.00015
          0.034921731971881 0.0075077741883091 0.0003 0.036542304597852 0.0077285130598789 0
          0.036542304597852 0.0077285130598789 0.00015 0.036542304597852 0.0077285130598789 0.0003
          0.03814584829126 0.0080105820000862 0 0.03814584829126 0.0080105820000862 0.00015
          0.03814584829126 0.0080105820000862 0.0003 0.039728252613893 0.0083526883357508 0
          0.039728252613893 0.0083526883357508 0.00015 0.039728252613893 0.0083526883357508 0.0003
          0.041285504007829 0.0087532642529377 0 0.041285504007829 0.0087532642529377 0.00015
          0.041285504007829 0.0087532642529377 0.0003 0.042813704195461 0.0092104739867613 0
          0.042813704195461 0.0092104739867613 0.00015 0.042813704195461 0.0092104739867613 0.0003
          0.044309088021254 0.0097222222222011 0 0.044309088021254 0.0097222222222011 0.00015
          0.044309088021254 0.0097222222222011 0.0003 0.031657595460571 0.0087048568522863 0
          0.031657595460571 0.0087048568522863 0.00015 0.031657595460571 0.0087048568522863 0.0003
          0.033310023195106 0.0088192523901195 0 0.033310023195106 0.0088192523901195 0.00015
          0.033310023195106 0.0088192523901195 0.0003 0.034952139164838 0.009009329025979 0
          0.034952139164838 0.009009329025979 0.00015 0.034952139164838 0.009009329025979 0.0003
          0.0365788465822 0.0092742156718627 0 0.0365788465822 0.0092742156718627 0.00015
          0.0365788465822 0.0092742156718627 0.0003 0.038185119280488 0.0096126984001116 0
          0.038185119280488 0.0096126984001116 0.00015 0.038185119280488 0.0096126984001116 0.0003
          0.039766024733842 0.010023226002909 0 0.039766024733842 0.010023226002909 0.00015
          0.039766024733842 0.010023226002909 0.0003 0.041316746672756 0.010503917103534 0
          0.041316746672756 0.010503917103534 0.00015 0.041316746672756 0.010503917103534 0.0003
          0.042832607164107 0.011052568784123 0 0.042832607164107 0.011052568784123 0.00015
          0.042832607164107 0.011052568784123 0.0003 0.044309088021254 0.011666666666651 0
          0.044309088021254 0.011666666666651 0.00015 0.044309088021254 0.011666666666651 0.0003
          0.031668878259163 0.010155666327672 0 0.031668878259163 0.010155666327672 0.00015
          0.031668878259163 0.010155666327672 0.0003 0.033331727504615 0.010289127788478 0
          0.033331727504615 0.010289127788478 0.00015 0.033331727504615 0.010289127788478 0.0003
          0.034982546357795 0.010510883863647 0 0.034982546357795 0.010510883863647 0.00015
          0.034982546357795 0.010510883863647 0.0003 0.036615388566549 0.010819918283845 0
          0.036615388566549 0.010819918283845 0.00015 0.036615388566549 0.010819918283845 0.0003
          0.038224390269716 0.011214814800136 0 0.038224390269716 0.011214814800136 0.00015
          0.038224390269716 0.011214814800136 0.0003 0.039803796853791 0.011693763670067 0
          0.039803796853791 0.011693763670067 0.00015 0.039803796853791 0.011693763670067 0.0003
          0.041347989337683 0.012254569954129 0 0.041347989337683 0.012254569954129 0.00015
          0.041347989337683 0.012254569954129 0.0003 0.042851510132752 0.012894663581483 0
          0.042851510132752 0.012894663581483 0.00015 0.042851510132752 0.012894663581483 0.0003
          0.044309088021254 0.0136111111111 0 0.044309088021254 0.0136111111111 0.00015
          0.044309088021254 0.0136111111111 0.0003 0.031680161057755 0.011606475803059 0
          0.031680161057755 0.011606475803059 0.00015 0.031680161057755 0.011606475803059 0.0003
          0.033353431814124 0.011759003186837 0 0.033353431814124 0.011759003186837 0.00015
          0.033353431814124 0.011759003186837 0.0003 0.035012953550752 0.012012438701317 0
          0.035012953550752 0.012012438701317 0.00015 0.035012953550752 0.012012438701317 0.0003
          0.036651930550897 0.012365620895829 0 0.036651930550897 0.012365620895829 0.00015
          0.036651930550897 0.012365620895829 0.0003 0.038263661258944 0.012816931200161 0
          0.038263661258944 0.012816931200161 0.00015 0.038263661258944 0.012816931200161 0.0003
          0.03984156897374 0.013364301337225 0 0.03984156897374 0.013364301337225 0.00015
          0.03984156897374 0.013364301337225 0.0003 0.04137923200261 0.014005222804725 0
          0.04137923200261 0.014005222804725 0.00015 0.04137923200261 0.014005222804725 0.0003
          0.042870413101398 0.014736758378844 0 0.042870413101398 0.014736758378844 0.00015
          0.042870413101398 0.014736758378844 0.0003 0.044309088021254 0.015555555555549 0
          0.044309088021254 0.015555555555549 0.00015 0.044309088021254 0.015555555555549 0.0003
          0.031691443856347 0.013057285278446 0 0.031691443856347 0.013057285278446 0.00015
          0.031691443856347 0.013057285278446 0.0003 0.033375136123633 0.013228878585196 0
          0.033375136123633 0.013228878585196 0.00015 0.033375136123633 0.013228878585196 0.0003
          0.035043360743709 0.013513993538986 0 0.035043360743709 0.013513993538986 0.00015
          0.035043360743709 0.013513993538986 0.0003 0.036688472535245 0.013911323507812 0
          0.036688472535245 0.013911323507812 0.00015 0.036688472535245 0.013911323507812 0.0003
          0.038302932248172 0.014419047600187 0 0.038302932248172 0.014419047600187 0.00015
          0.038302932248172 0.014419047600187 0.0003 0.039879341093689 0.015034839004384 0
          0.039879341093689 0.015034839004384 0.00015 0.039879341093689 0.015034839004384 0.0003
          0.041410474667538 0.015755875655322 0 0.041410474667538 0.015755875655322 0.00015
          0.041410474667538 0.015755875655322 0.0003 0.042889316070044 0.016578853176207 0
          0.042889316070044 0.016578853176207 0.00015 0.042889316070044 0.016578853176207 0.0003
          0.044309088021254 0.0175 0 0.044309088021254 0.0175 0.00015
          0.044309088021254 0.0175 0.0003 0.045420199132363 0 0
          0.045420199132363 0.0019444444444413 0 0.045420199132363 0 0.00015
          0.045420199132363 0.0019444444444413 0.00015 0.045420199132363 0 0.0003
          0.045420199132363 0.0019444444444413 0.0003 0.045420199132363 0.0038888888888803 0
          0.045420199132363 0.0038888888888803 0.00015 0.045420199132363 0.0038888888888803 0.0003
          0.045420199132363 0.0058333333333189 0 0.045420199132363 0.0058333333333189 0.00015
          0.045420199132363 0.0058333333333189 0.0003 0.045420199132363 0.0077777777777574 0
          0.045420199132363 0.0077777777777574 0.00015 0.045420199132363 0.0077777777777574 0.0003
          0.045420199132363 0.0097222222222011 0 0.045420199132363 0.0097222222222011 0.00015
          0.045420199132363 0.0097222222222011 0.0003 0.045420199132363 0.011666666666651 0
          0.045420199132363 0.011666666666651 0.00015 0.045420199132363 0.011666666666651 0.0003
          0.045420199132363 0.0136111111111 0 0.045420199132363 0.0136111111111 0.00015
          0.045420199132363 0.0136111111111 0.0003 0.045420199132363 0.015555555555549 0
          0.045420199132363 0.015555555555549 0.00015 0.045420199132363 0.015555555555549 0.0003
          0.045420199132363 0.0175 0 0.045420199132363 0.0175 0.00015
          0.045420199132363 0.0175 0.0003 0.046531310243475 0 0
          0.046531310243475 0.0019444444444413 0 0.046531310243475 0 0.00015
          0.046531310243475 0.0019444444444413 0.00015 0.046531310243475 0 0.0003
          0.046531310243475 0.0019444444444413 0.0003 0.046531310243475 0.0038888888888803 0
          0.046531310243475 0.0038888888888803 0.00015 0.046531310243475 0.0038888888888803 0.0003
          0.046531310243475 0.0058333333333189 0 0.046531310243475 0.0058333333333189 0.00015
          0.046531310243475 0.0058333333333189 0.0003 0.046531310243475 0.0077777777777574 0
          0.046531310243475 0.0077777777777574 0.00015 0.046531310243475 0.0077777777777574 0.0003
          0.046531310243475 0.0097222222222011 0 0.046531310243475 0.0097222222222011 0.00015
          0.046531310243475 0.0097222222222011 0.0003 0.046531310243475 0.011666666666651 0
          0.046531310243475 0.011666666666651 0.00015 0.046531310243475 0.011666666666651 0.0003
          0.046531310243475 0.0136111111111 0 0.046531310243475 0.0136111111111 0.00015
          0.046531310243475 0.0136111111111 0.0003 0.046531310243475 0.015555555555549 0
          0.046531310243475 0.015555555555549 0.00015 0.046531310243475 0.015555555555549 0.0003
          0.046531310243475 0.0175 0 0.046531310243475 0.0175 0.00015
          0.046531310243475 0.0175 0.0003 0.04764242135458 0 0
          0.04764242135458 0.0019444444444413 0 0.04764242135458 0 0.00015
          0.04764242135458 0.0019444444444413 0.00015 0.04764242135458 0 0.0003
          0.04764242135458 0.0019444444444413 0.0003 0.04764242135458 0.0038888888888803 0
          0.04764242135458 0.0038888888888803 0.00015 0.04764242135458 0.0038888888888803 0.0003
          0.04764242135458 0.0058333333333189 0 0.04764242135458 0.0058333333333189 0.00015
          0.04764242135458 0.0058333333333189 0.0003 0.04764242135458 0.0077777777777574 0
          0.04764242135458 0.0077777777777574 0.00015 0.04764242135458 0.0077777777777574 0.0003
          0.04764242135458 0.0097222222222011 0 0.04764242135458 0.0097222222222011 0.00015
          0.04764242135458 0.0097222222222011 0.0003 0.04764242135458 0.011666666666651 0
          0.04764242135458 0.011666666666651 0.00015 0.04764242135458 0.011666666666651 0.0003
          0.04764242135458 0.0136111111111 0 0.04764242135458 0.0136111111111 0.00015
          0.04764242135458 0.0136111111111 0.0003 0.04764242135458 0.015555555555549 0
          0.04764242135458 0.015555555555549 0.00015 0.04764242135458 0.015555555555549 0.0003
          0.04764242135458 0.0175 0 0.04764242135458 0.0175 0.00015
          0.04764242135458 0.0175 0.0003 0.048753532465692 0 0
          0.048753532465692 0.0019444444444413 0 0.048753532465692 0 0.00015
          0.048753532465692 0.0019444444444413 0.00015 0.048753532465692 0 0.0003
          0.048753532465692 0.0019444444444413 0.0003 0.048753532465692 0.0038888888888803 0
          0.048753532465692 0.0038888888888803 0.00015 0.048753532465692 0.0038888888888803 0.0003
          0.048753532465692 0.0058333333333189 0 0.048753532465692 0.0058333333333189 0.00015
          0.048753532465692 0.0058333333333189 0.0003 0.048753532465692 0.0077777777777574 0
          0.048753532465692 0.0077777777777574 0.00015 0.048753532465692 0.0077777777777574 0.0003
          0.048753532465692 0.0097222222222011 0 0.048753532465692 0.0097222222222011 0.00015
          0.048753532465692 0.0097222222222011 0.0003 0.048753532465692 0.011666666666651 0
          0.048753532465692 0.011666666666651 0.00015 0.048753532465692 0.011666666666651 0.0003
          0.048753532465692 0.0136111111111 0 0.048753532465692 0.0136111111111 0.00015
          0.048753532465692 0.0136111111111 0.0003 0.048753532465692 0.015555555555549 0
          0.048753532465692 0.015555555555549 0.00015 0.048753532465692 0.015555555555549 0.0003
          0.048753532465692 0.0175 0 0.048753532465692 0.0175 0.00015
          0.048753532465692 0.0175 0.0003 0.0498646435768 0 0
          0.0498646435768 0.0019444444444413 0 0.0498646435768 0 0.00015
          0.0498646435768 0.0019444444444413 0.00015 0.0498646435768 0 0.0003
          0.0498646435768 0.0019444444444413 0.0003 0.0498646435768 0.0038888888888803 0
          0.0498646435768 0.0038888888888803 0.00015 0.0498646435768 0.0038888888888803 0.0003
          0.0498646435768 0.0058333333333189 0 0.0498646435768 0.0058333333333189 0.00015
          0.0498646435768 0.0058333333333189 0.0003 0.0498646435768 0.0077777777777574 0
          0.0498646435768 0.0077777777777574 0.00015 0.0498646435768 0.0077777777777574 0.0003
          0.0498646435768 0.0097222222222011 0 0.0498646435768 0.0097222222222011 0.00015
          0.0498646435768 0.0097222222222011 0.0003 0.0498646435768 0.011666666666651 0
          0.0498646435768 0.011666666666651 0.00015 0.0498646435768 0.011666666666651 0.0003
          0.0498646435768 0.0136111111111 0 0.0498646435768 0.0136111111111 0.00015
          0.0498646435768 0.0136111111111 0.0003 0.0498646435768 0.015555555555549 0
          0.0498646435768 0.015555555555549 0.00015 0.0498646435768 0.015555555555549 0.0003
          0.0498646435768 0.0175 0 0.0498646435768 0.0175 0.00015
          0.0498646435768 0.0175 0.0003 0.050975754687912 0 0
          0.050975754687912 0.0019444444444413 0 0.050975754687912 0 0.00015
          0.050975754687912 0.0019444444444413 0.00015 0.050975754687912 0 0.0003
          0.050975754687912 0.0019444444444413 0.0003 0.050975754687912 0.0038888888888803 0
          0.050975754687912 0.0038888888888803 0.00015 0.050975754687912 0.0038888888888803 0.0003
          0.050975754687912 0.0058333333333189 0 0.050975754687912 0.0058333333333189 0.00015
          0.050975754687912 0.0058333333333189 0.0003 0.050975754687912 0.0077777777777574 0
          0.050975754687912 0.0077777777777574 0.00015 0.050975754687912 0.0077777777777574 0.0003
          0.050975754687912 0.0097222222222011 0 0.050975754687912 0.0097222222222011 0.00015
          0.050975754687912 0.0097222222222011 0.0003 0.050975754687912 0.011666666666651 0
          0.050975754687912 0.011666666666651 0.00015 0.050975754687912 0.011666666666651 0.0003
          0.050975754687912 0.0136111111111 0 0.050975754687912 0.0136111111111 0.00015
          0.050975754687912 0.0136111111111 0.0003 0.050975754687912 0.015555555555549 0
          0.050975754687912 0.015555555555549 0.00015 0.050975754687912 0.015555555555549 0.0003
          0.050975754687912 0.0175 0 0.050975754687912 0.0175 0.00015
          0.050975754687912 0.0175 0.0003 0.052086865799025 0 0
          0.052086865799025 0.0019444444444413 0 0.052086865799025 0 0.00015
          0.052086865799025 0.0019444444444413 0.00015 0.052086865799025 0 0.0003
          0.052086865799025 0.0019444444444413 0.0003 0.052086865799025 0.0038888888888803 0
          0.052086865799025 0.0038888888888803 0.00015 0.052086865799025 0.0038888888888803 0.0003
          0.052086865799025 0.0058333333333189 0 0.052086865799025 0.0058333333333189 0.00015
          0.052086865799025 0.0058333333333189 0.0003 0.052086865799025 0.0077777777777574 0
          0.052086865799025 0.0077777777777574 0.00015 0.052086865799025 0.0077777777777574 0.0003
          0.052086865799025 0.0097222222222011 0 0.052086865799025 0.0097222222222011 0.00015
          0.052086865799025 0.0097222222222011 0.0003 0.052086865799025 0.011666666666651 0
          0.052086865799025 0.011666666666651 0.00015 0.052086865799025 0.011666666666651 0.0003
          0.052086865799025 0.0136111111111 0 0.052086865799025 0.0136111111111 0.00015
          0.052086865799025 0.0136111111111 0.0003 0.052086865799025 0.015555555555549 0
          0.052086865799025 0.015555555555549 0.00015 0.052086865799025 0.015555555555549 0.0003
          0.052086865799025 0.0175 0 0.052086865799025 0.0175 0.00015
          0.052086865799025 0.0175 0.0003 0.05319797691014 0 0
          0.05319797691014 0.0019444444444413 0 0.05319797691014 0 0.00015
          0.05319797691014 0.0019444444444413 0.00015 0.05319797691014 0 0.0003
          0.05319797691014 0.0019444444444413 0.0003 0.05319797691014 0.0038888888888803 0
          0.05319797691014 0.0038888888888803 0.00015 0.05319797691014 0.0038888888888803 0.0003
          0.05319797691014 0.0058333333333189 0 0.05319797691014 0.0058333333333189 0.00015
          0.05319797691014 0.0058333333333189 0.0003 0.05319797691014 0.0077777777777574 0
          0.05319797691014 0.0077777777777574 0.00015 0.05319797691014 0.0077777777777574 0.0003
          0.05319797691014 0.0097222222222011 0 0.05319797691014 0.0097222222222011 0.00015
          0.05319797691014 0.0097222222222011 0.0003 0.05319797691014 0.011666666666651 0
          0.05319797691014 0.011666666666651 0.00015 0.05319797691014 0.011666666666651 0.0003
          0.05319797691014 0.0136111111111 0 0.05319797691014 0.0136111111111 0.00015
          0.05319797691014 0.0136111111111 0.0003 0.05319797691014 0.015555555555549 0
          0.05319797691014 0.015555555555549 0.00015 0.05319797691014 0.015555555555549 0.0003
          0.05319797691014 0.0175 0 0.05319797691014 0.0175 0.00015
          0.05319797691014 0.0175 0.0003 0.054309088021254 0 0
          0.054309088021254 0.0019444444444413 0 0.054309088021254 0 0.00015
          0.054309088021254 0.0019444444444413 0.00015 0.054309088021254 0 0.0003
          0.054309088021254 0.0019444444444413 0.0003 0.054309088021254 0.0038888888888803 0
          0.054309088021254 0.0038888888888803 0.00015 0.054309088021254 0.0038888888888803 0.0003
          0.054309088021254 0.0058333333333189 0 0.054309088021254 0.0058333333333189 0.00015
          0.054309088021254 0.0058333333333189 0.0003 0.054309088021254 0.0077777777777574 0
          0.054309088021254 0.0077777777777574 0.00015 0.054309088021254 0.0077777777777574 0.0003
          0.054309088021254 0.0097222222222011 0 0.054309088021254 0.0097222222222011 0.00015
          0.054309088021254 0.0097222222222011 0.0003 0.054309088021254 0.011666666666651 0
          0.054309088021254 0.011666666666651 0.00015 0.054309088021254 0.011666666666651 0.0003
          0.054309088021254 0.0136111111111 0 0.054309088021254 0.0136111111111 0.00015
          0.054309088021254 0.0136111111111 0.0003 0.054309088021254 0.015555555555549 0
          0.054309088021254 0.015555555555549 0.00015 0.054309088021254 0.015555555555549 0.0003
          0.054309088021254 0.0175 0 0.054309088021254 0.0175 0.00015
          0.054309088021254 0.0175 0.0003
          <InformationKey name="L2_NORM_RANGE" location="vtkDataArray" length="2">
            <Value index="0">
              0.019949534491
            </Value>
            <Value index="1">
              0.057059767277
            </Value>
          </InformationKey>
        </DataArray>
      </Points>
      <Cells>
        <DataArray type="Int64" Name="connectivity" format="ascii" RangeMin="0" RangeMax="818">
          0 1 2 3 4 5
          6 7 4 5 6 7
          8 9 10 11 12 13
          14 15 16 17 18 19
          16 17 18 19 20 21
          22 23 24 0 3 25
          26 4 7 27 26 4
          7 27 28 8 11 29
          30 31 32 14 33 34
          35 18 33 34 35 18
          36 37 38 22 39 40
          41 42 43 44 45 46
          43 44 45 46 47 48
          49 50 51 52 53 54
          55 56 57 58 55 56
          57 58 59 60 61 62
          13 63 64 65 17 66
          67 68 17 66 67 68
          21 69 70 71 0 24
          32 72 4 26 35 73
          4 26 35 73 8 28
          38 74 24 15 14 32
          26 19 18 35 26 19
          18 35 28 23 22 38
          13 65 30 14 17 68
          33 18 17 68 33 18
          21 71 36 22 93 94
          95 96 97 98 99 100
          97 98 99 100 101 102
          103 104 72 32 31 81
          73 35 34 83 73 35
          34 83 74 38 37 85
          53 40 39 54 57 44
          43 58 57 44 43 58
          61 48 47 62 31 30
          111 82 34 33 112 84
          34 33 112 84 37 36
          113 86 12 15 114 115
          16 19 116 117 16 19
          116 117 20 23 118 119
          120 121 122 123 124 125
          126 127 124 125 126 127
          128 129 130 131 64 76
          75 65 67 78 77 68
          67 78 77 68 70 80
          79 71 132 133 54 39
          134 135 58 43 134 135
          58 43 136 137 62 47
          53 141 41 40 57 142
          45 44 57 142 45 44
          61 143 49 48 111 30
          65 75 112 33 68 77
          112 33 68 77 113 36
          71 79 54 150 151 51
          58 152 153 55 58 152
          153 55 62 154 155 59
          156 122 121 157 158 126
          125 159 158 126 125 159
          160 130 129 161 162 88
          108 138 163 90 109 139
          163 90 109 139 164 92
          110 140 168 87 88 162
          169 89 90 163 169 89
          90 163 170 91 92 164
          121 165 171 157 125 166
          172 159 125 166 172 159
          129 167 173 161 132 39
          42 183 134 43 46 184
          134 43 46 184 136 47
          50 185 186 96 95 187
          188 100 99 189 188 100
          99 189 190 104 103 191
          192 193 122 156 194 195
          126 158 194 195 126 158
          196 197 130 160 183 42
          96 186 184 46 100 188
          184 46 100 188 185 50
          104 190 151 150 198 199
          153 152 200 201 153 152
          200 201 155 154 202 203
          174 145 144 204 175 147
          146 205 175 147 146 205
          176 149 148 206 193 192
          95 204 195 194 99 205
          195 194 99 205 197 196
          103 206 123 122 193 210
          127 126 195 211 127 126
          195 211 131 130 197 212
          93 96 42 41 97 100
          46 45 97 100 46 45
          101 104 50 49 213 214
          87 168 215 216 89 169
          215 216 89 169 217 218
          91 170 178 219 220 177
          180 221 222 179 180 221
          222 179 182 223 224 181
          225 141 226 227 228 142
          229 230 228 142 229 230
          231 143 232 233 120 105
          165 121 124 106 166 125
          124 106 166 125 128 107
          167 129 210 193 204 144
          211 195 205 146 211 195
          205 146 212 197 206 148
          219 227 234 220 221 230
          235 222 221 230 235 222
          223 233 236 224 94 174
          204 95 98 175 205 99
          98 175 205 99 102 176
          206 103 192 156 237 238
          194 158 239 240 194 158
          239 240 196 160 241 242
          243 2 1 244 245 6
          5 246 245 6 5 246
          247 10 9 248 227 226
          249 234 230 229 250 235
          230 229 250 235 233 232
          251 236 238 187 95 192
          240 189 99 194 240 189
          99 194 242 191 103 196
          252 207 87 214 253 208
          89 216 253 208 89 216
          254 209 91 218 187 255
          115 186 189 256 117 188
          189 256 117 188 191 257
          119 190 94 162 138 174
          98 163 139 175 98 163
          139 175 102 164 140 176
          64 63 237 171 67 66
          239 172 67 66 239 172
          70 69 241 173 41 213
          168 93 45 215 169 97
          45 215 169 97 49 217
          170 101 2 198 133 3
          6 200 135 7 6 200
          135 7 10 202 137 11
          25 114 15 24 27 116
          19 26 27 116 19 26
          29 118 23 28 114 183
          186 115 116 184 188 117
          116 184 188 117 118 185
          190 119 51 151 258 259
          55 153 260 261 55 153
          260 261 59 155 262 263
          226 52 264 249 229 56
          265 250 229 56 265 250
          232 60 266 251 198 150
          54 133 200 152 58 135
          200 152 58 135 202 154
          62 137 64 171 165 76
          67 172 166 78 67 172
          166 78 70 173 167 80
          52 51 259 264 56 55
          261 265 56 55 261 265
          60 59 263 266 171 237
          156 157 172 239 158 159
          172 239 158 159 173 241
          160 161 252 214 213 225
          253 216 215 228 253 216
          215 228 254 218 217 231
          151 199 267 258 153 201
          268 260 153 201 268 260
          155 203 269 262 63 13
          12 270 66 17 16 271
          66 17 16 271 69 21
          20 272 270 255 187 238
          271 256 189 240 271 256
          189 240 272 257 191 242
          199 198 2 243 201 200
          6 245 201 200 6 245
          203 202 10 247 225 213
          41 141 228 215 45 142
          228 215 45 142 231 217
          49 143 52 226 141 53
          56 229 142 57 56 229
          142 57 60 232 143 61
          25 132 183 114 27 134
          184 116 27 134 184 116
          29 136 185 118 252 225
          227 219 253 228 230 221
          253 228 230 221 254 231
          233 223 219 178 207 252
          221 180 208 253 221 180
          208 253 223 182 209 254
          25 3 133 132 27 7
          135 134 27 7 135 134
          29 11 137 136 93 168
          162 94 97 169 163 98
          97 169 163 98 101 170
          164 102 270 12 115 255
          271 16 117 256 271 16
          117 256 272 20 119 257
          199 243 273 267 201 245
          274 268 201 245 274 268
          203 247 275 269 63 270
          238 237 66 271 240 239
          66 271 240 239 69 272
          242 241 243 244 276 273
          245 246 277 274 245 246
          277 274 247 248 278 275
          276 244 1 279 277 246
          5 280 277 246 5 280
          278 248 9 281 285 72
          81 282 286 73 83 283
          286 73 83 283 287 74
          85 284 288 0 72 285
          289 4 73 286 289 4
          73 286 290 8 74 287
          291 1 0 288 292 5
          4 289 292 5 4 289
          293 9 8 290 294 279
          1 291 295 280 5 292
          295 280 5 292 296 281
          9 293 303 297 298 304
          305 299 300 306 305 299
          300 306 307 301 302 308
          309 303 304 310 311 305
          306 312 311 305 306 312
          313 307 308 314 315 309
          310 316 317 311 312 318
          317 311 312 318 319 313
          314 320 321 315 316 322
          323 317 318 324 323 317
          318 324 325 319 320 326
          327 321 322 328 329 323
          324 330 329 323 324 330
          331 325 326 332 333 327
          328 334 335 329 330 336
          335 329 330 336 337 331
          332 338 339 333 334 340
          341 335 336 342 341 335
          336 342 343 337 338 344
          348 345 297 303 349 346
          299 305 349 346 299 305
          350 347 301 307 351 348
          303 309 352 349 305 311
          352 349 305 311 353 350
          307 313 354 351 309 315
          355 352 311 317 355 352
          311 317 356 353 313 319
          357 354 315 321 358 355
          317 323 358 355 317 323
          359 356 319 325 360 357
          321 327 361 358 323 329
          361 358 323 329 362 359
          325 331 363 360 327 333
          364 361 329 335 364 361
          329 335 365 362 331 337
          366 363 333 339 367 364
          335 341 367 364 335 341
          368 365 337 343 372 369
          345 348 373 370 346 349
          373 370 346 349 374 371
          347 350 375 372 348 351
          376 373 349 352 376 373
          349 352 377 374 350 353
          378 375 351 354 379 376
          352 355 379 376 352 355
          380 377 353 356 381 378
          354 357 382 379 355 358
          382 379 355 358 383 380
          356 359 384 381 357 360
          385 382 358 361 385 382
          358 361 386 383 359 362
          387 384 360 363 388 385
          361 364 388 385 361 364
          389 386 362 365 390 387
          363 366 391 388 364 367
          391 388 364 367 392 389
          365 368 396 393 369 372
          397 394 370 373 397 394
          370 373 398 395 371 374
          399 396 372 375 400 397
          373 376 400 397 373 376
          401 398 374 377 402 399
          375 378 403 400 376 379
          403 400 376 379 404 401
          377 380 405 402 378 381
          406 403 379 382 406 403
          379 382 407 404 380 383
          408 405 381 384 409 406
          382 385 409 406 382 385
          410 407 383 386 411 408
          384 387 412 409 385 388
          412 409 385 388 413 410
          386 389 414 411 387 390
          415 412 388 391 415 412
          388 391 416 413 389 392
          420 417 393 396 421 418
          394 397 421 418 394 397
          422 419 395 398 423 420
          396 399 424 421 397 400
          424 421 397 400 425 422
          398 401 426 423 399 402
          427 424 400 403 427 424
          400 403 428 425 401 404
          429 426 402 405 430 427
          403 406 430 427 403 406
          431 428 404 407 432 429
          405 408 433 430 406 409
          433 430 406 409 434 431
          407 410 435 432 408 411
          436 433 409 412 436 433
          409 412 437 434 410 413
          438 435 411 414 439 436
          412 415 439 436 412 415
          440 437 413 416 447 444
          417 420 448 445 418 421
          448 445 418 421 449 446
          419 422 450 447 420 423
          451 448 421 424 451 448
          421 424 452 449 422 425
          453 450 423 426 454 451
          424 427 454 451 424 427
          455 452 425 428 456 453
          426 429 457 454 427 430
          457 454 427 430 458 455
          428 431 459 456 429 432
          460 457 430 433 460 457
          430 433 461 458 431 434
          462 459 432 435 463 460
          433 436 463 460 433 436
          464 461 434 437 465 462
          435 438 466 463 436 439
          466 463 436 439 467 464
          437 440 471 468 441 444
          472 469 442 445 472 469
          442 445 473 470 443 446
          474 471 444 447 475 472
          445 448 475 472 445 448
          476 473 446 449 477 474
          447 450 478 475 448 451
          478 475 448 451 479 476
          449 452 480 477 450 453
          481 478 451 454 481 478
          451 454 482 479 452 455
          483 480 453 456 484 481
          454 457 484 481 454 457
          485 482 455 458 486 483
          456 459 487 484 457 460
          487 484 457 460 488 485
          458 461 489 486 459 462
          490 487 460 463 490 487
          460 463 491 488 461 464
          492 489 462 465 493 490
          463 466 493 490 463 466
          494 491 464 467 498 495
          468 471 499 496 469 472
          499 496 469 472 500 497
          470 473 501 498 471 474
          502 499 472 475 502 499
          472 475 503 500 473 476
          504 501 474 477 505 502
          475 478 505 502 475 478
          506 503 476 479 507 504
          477 480 508 505 478 481
          508 505 478 481 509 506
          479 482 510 507 480 483
          511 508 481 484 511 508
          481 484 512 509 482 485
          513 510 483 486 514 511
          484 487 514 511 484 487
          515 512 485 488 516 513
          486 489 517 514 487 490
          517 514 487 490 518 515
          488 491 519 516 489 492
          520 517 490 493 520 517
          490 493 521 518 491 494
          525 522 495 498 526 523
          496 499 526 523 496 499
          527 524 497 500 528 525
          498 501 529 526 499 502
          529 526 499 502 530 527
          500 503 531 528 501 504
          532 529 502 505 532 529
          502 505 533 530 503 506
          534 531 504 507 535 532
          505 508 535 532 505 508
          536 533 506 509 537 534
          507 510 538 535 508 511
          538 535 508 511 539 536
          509 512 540 537 510 513
          541 538 511 514 541 538
          511 514 542 539 512 515
          543 540 513 516 544 541
          514 517 544 541 514 517
          545 542 515 518 546 543
          516 519 547 544 517 520
          547 544 517 520 548 545
          518 521 340 549 550 339
          342 551 552 341 342 551
          552 341 344 553 554 343
          339 550 555 366 341 552
          556 367 341 552 556 367
          343 554 557 368 366 555
          558 390 367 556 559 391
          367 556 559 391 368 557
          560 392 390 558 561 414
          391 559 562 415 391 559
          562 415 392 560 563 416
          414 561 564 438 415 562
          565 439 415 562 565 439
          416 563 566 440 438 564
          567 465 439 565 568 466
          439 565 568 466 440 566
          569 467 465 567 570 492
          466 568 571 493 466 568
          571 493 467 569 572 494
          492 570 573 519 493 571
          574 520 493 571 574 520
          494 572 575 521 519 573
          576 546 520 574 577 547
          520 574 577 547 521 575
          578 548 549 579 580 550
          551 581 582 552 551 581
          582 552 553 583 584 554
          550 580 585 555 552 582
          586 556 552 582 586 556
          554 584 587 557 555 585
          588 558 556 586 589 559
          556 586 589 559 557 587
          590 560 558 588 591 561
          559 589 592 562 559 589
          592 562 560 590 593 563
          561 591 594 564 562 592
          595 565 562 592 595 565
          563 593 596 566 564 594
          597 567 565 595 598 568
          565 595 598 568 566 596
          599 569 567 597 600 570
          568 598 601 571 568 598
          601 571 569 599 602 572
          570 600 603 573 571 601
          604 574 571 601 604 574
          572 602 605 575 573 603
          606 576 574 604 607 577
          574 604 607 577 575 605
          608 578 579 609 610 580
          581 611 612 582 581 611
          612 582 583 613 614 584
          580 610 615 585 582 612
          616 586 582 612 616 586
          584 614 617 587 585 615
          618 588 586 616 619 589
          586 616 619 589 587 617
          620 590 588 618 621 591
          589 619 622 592 589 619
          622 592 590 620 623 593
          591 621 624 594 592 622
          625 595 592 622 625 595
          593 623 626 596 594 624
          627 597 595 625 628 598
          595 625 628 598 596 626
          629 599 597 627 630 600
          598 628 631 601 598 628
          631 601 599 629 632 602
          600 630 633 603 601 631
          634 604 601 631 634 604
          602 632 635 605 603 633
          636 606 604 634 637 607
          604 634 637 607 605 635
          638 608 609 639 640 610
          611 641 642 612 611 641
          642 612 613 643 644 614
          610 640 645 615 612 642
          646 616 612 642 646 616
          614 644 647 617 615 645
          648 618 616 646 649 619
          616 646 649 619 617 647
          650 620 618 648 651 621
          619 649 652 622 619 649
          652 622 620 650 653 623
          621 651 654 624 622 652
          655 625 622 652 655 625
          623 653 656 626 624 654
          657 627 625 655 658 628
          625 655 658 628 626 656
          659 629 627 657 660 630
          628 658 661 631 628 658
          661 631 629 659 662 632
          630 660 663 633 631 661
          664 634 631 661 664 634
          632 662 665 635 633 663
          666 636 634 664 667 637
          634 664 667 637 635 665
          668 638 639 669 670 640
          641 671 672 642 641 671
          672 642 643 673 674 644
          640 670 675 645 642 672
          676 646 642 672 676 646
          644 674 677 647 645 675
          678 648 646 676 679 649
          646 676 679 649 647 677
          680 650 648 678 681 651
          649 679 682 652 649 679
          682 652 650 680 683 653
          651 681 684 654 652 682
          685 655 652 682 685 655
          653 683 686 656 654 684
          687 657 655 685 688 658
          655 685 688 658 656 686
          689 659 657 687 690 660
          658 688 691 661 658 688
          691 661 659 689 692 662
          660 690 693 663 661 691
          694 664 661 691 694 664
          662 692 695 665 663 693
          696 666 664 694 697 667
          664 694 697 667 665 695
          698 668 669 699 700 670
          671 701 702 672 671 701
          702 672 673 703 704 674
          670 700 705 675 672 702
          706 676 672 702 706 676
          674 704 707 677 675 705
          708 678 676 706 709 679
          676 706 709 679 677 707
          710 680 678 708 711 681
          679 709 712 682 679 709
          712 682 680 710 713 683
          681 711 714 684 682 712
          715 685 682 712 715 685
          683 713 716 686 684 714
          717 687 685 715 718 688
          685 715 718 688 686 716
          719 689 687 717 720 690
          688 718 721 691 688 718
          721 691 689 719 722 692
          690 720 723 693 691 721
          724 694 691 721 724 694
          692 722 725 695 693 723
          726 696 694 724 727 697
          694 724 727 697 695 725
          728 698 699 729 730 700
          701 731 732 702 701 731
          732 702 703 733 734 704
          700 730 735 705 702 732
          736 706 702 732 736 706
          704 734 737 707 705 735
          738 708 706 736 739 709
          706 736 739 709 707 737
          740 710 708 738 741 711
          709 739 742 712 709 739
          742 712 710 740 743 713
          711 741 744 714 712 742
          745 715 712 742 745 715
          713 743 746 716 714 744
          747 717 715 745 748 718
          715 745 748 718 716 746
          749 719 717 747 750 720
          718 748 751 721 718 748
          751 721 719 749 752 722
          720 750 753 723 721 751
          754 724 721 751 754 724
          722 752 755 725 723 753
          756 726 724 754 757 727
          724 754 757 727 725 755
          758 728 729 759 760 730
          731 761 762 732 731 761
          762 732 733 763 764 734
          730 760 765 735 732 762
          766 736 732 762 766 736
          734 764 767 737 735 765
          768 738 736 766 769 739
          736 766 769 739 737 767
          770 740 738 768 771 741
          739 769 772 742 739 769
          772 742 740 770 773 743
          741 771 774 744 742 772
          775 745 742 772 775 745
          743 773 776 746 744 774
          777 747 745 775 778 748
          745 775 778 748 746 776
          779 749 747 777 780 750
          748 778 781 751 748 778
          781 751 749 779 782 752
          750 780 783 753 751 781
          784 754 751 781 784 754
          752 782 785 755 753 783
          786 756 754 784 787 757
          754 784 787 757 755 785
          788 758 759 789 790 760
          761 791 792 762 761 791
          792 762 763 793 794 764
          760 790 795 765 762 792
          796 766 762 792 796 766
          764 794 797 767 765 795
          798 768 766 796 799 769
          766 796 799 769 767 797
          800 770 768 798 801 771
          769 799 802 772 769 799
          802 772 770 800 803 773
          771 801 804 774 772 802
          805 775 772 802 805 775
          773 803 806 776 774 804
          807 777 775 805 808 778
          775 805 808 778 776 806
          809 779 777 807 810 780
          778 808 811 781 778 808
          811 781 779 809 812 782
          780 810 813 783 781 811
          814 784 781 811 814 784
          782 812 815 785 783 813
          816 786 784 814 817 787
          784 814 817 787 785 815
          818 788
        </DataArray>
        <DataArray type="Int64" Name="offsets" format="ascii" RangeMin="8" RangeMax="3632">
          8 16 24 32 40 48
          56 64 72 80 88 96
          104 112 120 128 136 144
          152 160 168 176 184 192
          200 208 216 224 232 240
          248 256 264 272 280 288
          296 304 312 320 328 336
          344 352 360 368 376 384
          392 400 408 416 424 432
          440 448 456 464 472 480
          488 496 504 512 520 528
          536 544 552 560 568 576
          584 592 600 608 616 624
          632 640 648 656 664 672
          680 688 696 704 712 720
          728 736 744 752 760 768
          776 784 792 800 808 816
          824 832 840 848 856 864
          872 880 888 896 904 912
          920 928 936 944 952 960
          968 976 984 992 1000 1008
          1016 1024 1032 1040 1048 1056
          1064 1072 1080 1088 1096 1104
          1112 1120 1128 1136 1144 1152
          1160 1168 1176 1184 1192 1200
          1208 1216 1224 1232 1240 1248
          1256 1264 1272 1280 1288 1296
          1304 1312 1320 1328 1336 1344
          1352 1360 1368 1376 1384 1392
          1400 1408 1416 1424 1432 1440
          1448 1456 1464 1472 1480 1488
          1496 1504 1512 1520 1528 1536
          1544 1552 1560 1568 1576 1584
          1592 1600 1608 1616 1624 1632
          1640 1648 1656 1664 1672 1680
          1688 1696 1704 1712 1720 1728
          1736 1744 1752 1760 1768 1776
          1784 1792 1800 1808 1816 1824
          1832 1840 1848 1856 1864 1872
          1880 1888 1896 1904 1912 1920
          1928 1936 1944 1952 1960 1968
          1976 1984 1992 2000 2008 2016
          2024 2032 2040 2048 2056 2064
          2072 2080 2088 2096 2104 2112
          2120 2128 2136 2144 2152 2160
          2168 2176 2184 2192 2200 2208
          2216 2224 2232 2240 2248 2256
          2264 2272 2280 2288 2296 2304
          2312 2320 2328 2336 2344 2352
          2360 2368 2376 2384 2392 2400
          2408 2416 2424 2432 2440 2448
          2456 2464 2472 2480 2488 2496
          2504 2512 2520 2528 2536 2544
          2552 2560 2568 2576 2584 2592
          2600 2608 2616 2624 2632 2640
          2648 2656 2664 2672 2680 2688
          2696 2704 2712 2720 2728 2736
          2744 2752 2760 2768 2776 2784
          2792 2800 2808 2816 2824 2832
          2840 2848 2856 2864 2872 2880
          2888 2896 2904 2912 2920 2928
          2936 2944 2952 2960 2968 2976
          2984 2992 3000 3008 3016 3024
          3032 3040 3048 3056 3064 3072
          3080 3088 3096 3104 3112 3120
          3128 3136 3144 3152 3160 3168
          3176 3184 3192 3200 3208 3216
          3224 3232 3240 3248 3256 3264
          3272 3280 3288 3296 3304 3312
          3320 3328 3336 3344 3352 3360
          3368 3376 3384 3392 3400 3408
          3416 3424 3432 3440 3448 3456
          3464 3472 3480 3488 3496 3504
          3512 3520 3528 3536 3544 3552
          3560 3568 3576 3584 3592 3600
          3608 3616 3624 3632
        </DataArray>
        <DataArray type="UInt8" Name="types" format="ascii" RangeMin="12" RangeMax="12">
          12 12 12 12 12 12
          12 12 12 12 12 12
          12 12 12 12 12 12
          12 12 12 12 12 12
          12 12 12 12 12 12
          12 12 12 12 12 12
          12 12 12 12 12 12
          12 12 12 12 12 12
          12 12 12 12 12 12
          12 12 12 12 12 12
          12 12 12 12 12 12
          12 12 12 12 12 12
          12 12 12 12 12 12
          12 12 12 12 12 12
          12 12 12 12 12 12
          12 12 12 12 12 12
          12 12 12 12 12 12
          12 12 12 12 12 12
          12 12 12 12 12 12
          12 12 12 12 12 12
          12 12 12 12 12 12
          12 12 12 12 12 12
          12 12 12 12 12 12
          12 12 12 12 12 12
          12 12 12 12 12 12
          12 12 12 12 12 12
          12 12 12 12 12 12
          12 12 12 12 12 12
          12 12 12 12 12 12
          12 12 12 12 12 12
          12 12 12 12 12 12
          12 12 12 12 12 12
          12 12 12 12 12 12
          12 12 12 12 12 12
          12 12 12 12 12 12
          12 12 12 12 12 12
          12 12 12 12 12 12
          12 12 12 12 12 12
          12 12 12 12 12 12
          12 12 12 12 12 12
          12 12 12 12 12 12
          12 12 12 12 12 12
          12 12 12 12 12 12
          12 12 12 12 12 12
          12 12 12 12 12 12
          12 12 12 12 12 12
          12 12 12 12 12 12
          12 12 12 12 12 12
          12 12 12 12 12 12
          12 12 12 12 12 12
          12 12 12 12 12 12
          12 12 12 12 12 12
          12 12 12 12 12 12
          12 12 12 12 12 12
          12 12 12 12 12 12
          12 12 12 12 12 12
          12 12 12 12 12 12
          12 12 12 12 12 12
          12 12 12 12 12 12
          12 12 12 12 12 12
          12 12 12 12 12 12
          12 12 12 12 12 12
          12 12 12 12 12 12
          12 12 12 12 12 12
          12 12 12 12 12 12
          12 12 12 12 12 12
          12 12 12 12 12 12
          12 12 12 12 12 12
          12 12 12 12 12 12
          12 12 12 12 12 12
          12 12 12 12 12 12
          12 12 12 12 12 12
          12 12 12 12 12 12
          12 12 12 12 12 12
          12 12 12 12 12 12
          12 12 12 12
        </DataArray>
      </Cells>
    </Piece>
  </UnstructuredGrid>
</VTKFile>
