<?xml version="1.0"?>
<VTKFile type="UnstructuredGrid" version="0.1" byte_order="LittleEndian" header_type="UInt32" compressor="vtkZLibDataCompressor">
  <UnstructuredGrid>
    <Piece NumberOfPoints="774" NumberOfCells="452">
      <PointData>
        <DataArray type="Int32" Name="libmesh_node_id" format="ascii" RangeMin="2286" RangeMax="4991">
          2286 2287 2288 2289 2290 2291
          2292 2293 2294 2295 2296 2297
          2340 2341 2342 2343 2344 2345
          2346 2347 2348 2349 2350 2351
          2400 2401 2403 2404 2406 2407
          2412 2413 2414 2415 2416 2417
          2418 2419 2420 2421 2422 2423
          2487 2488 2489 2490 2491 2492
          2523 2524 2525 2526 2527 2528
          2529 2530 2531 2532 2533 2534
          2550 2551 2552 2553 2554 2555
          2556 2557 2558 2559 2560 2561
          2580 2581 2582 2583 2584 2585
          2685 2686 2687 2688 2689 2690
          2691 2692 2693 2694 2695 2696
          2698 2699 2700 2702 2703 2704
          2706 2707 2708 2796 2797 2798
          2799 2800 2801 2802 2803 2804
          2805 2806 2807 2838 2839 2840
          2841 2842 2843 2844 2845 2846
          2847 2848 2849 2881 2883 2885
          2949 2950 2951 2952 2953 2954
          2955 2956 2957 3054 3055 3056
          3057 3058 3059 3093 3094 3095
          3096 3097 3098 3099 3100 3101
          3102 3103 3104 3117 3118 3119
          3120 3121 3122 3123 3124 3125
          3126 3127 3128 3195 3196 3197
          3198 3199 3200 3201 3202 3203
          3210 3211 3212 3213 3214 3215
          3216 3217 3218 3219 3220 3221
          3222 3223 3224 3225 3226 3227
          3252 3253 3254 3255 3256 3257
          3300 3301 3302 3303 3304 3305
          3306 3307 3308 3309 3310 3311
          3318 3319 3320 3321 3322 3323
          3324 3325 3326 3327 3328 3329
          3330 3331 3332 3333 3334 3335
          3366 3367 3368 3378 3379 3380
          3381 3382 3383 3384 3385 3386
          3387 3388 3389 3390 3391 3392
          3453 3454 3455 3456 3457 3458
          3459 3460 3461 3483 3484 3485
          3492 3493 3494 3525 3526 3528
          3529 3531 3532 3543 3544 3545
          3564 3565 3566 3567 3568 3569
          3570 3571 3572 3588 3589 3590
          3591 3592 3593 3609 3610 3611
          3612 3613 3614 3615 3616 3617
          3618 3619 3620 3630 3631 3632
          3633 3634 3635 3636 3637 3638
          3639 3640 3641 3654 3655 3656
          3657 3658 3659 3660 3661 3662
          3684 3685 3686 3687 3689 3691
          3693 3694 3695 3696 3697 3698
          3708 3709 3710 3711 3712 3713
          3735 3736 3737 3738 3739 3740
          3741 3742 3743 3744 3745 3746
          3747 3748 3749 3762 3763 3764
          3771 3772 3773 3774 3775 3776
          3777 3778 3779 3786 3787 3788
          3795 3796 3797 3798 3799 3800
          3801 3802 3803 3804 3805 3806
          3807 3808 3809 3816 3817 3818
          3834 3835 3836 3837 3838 3839
          3846 3847 3848 3849 3850 3851
          3861 3862 3863 3882 3884 3885
          3887 3888 3890 3900 3901 3902
          3903 3904 3905 3906 3907 3908
          3924 3925 3926 3927 3928 3929
          3930 3931 3932 3939 3940 3941
          3942 3943 3944 3954 3955 3956
          3958 3959 3960 3962 3963 3964
          3969 3970 3971 3972 3973 3974
          3993 3994 3995 4032 4033 4034
          4035 4036 4037 4053 4054 4055
          4056 4057 4058 4059 4060 4061
          4062 4063 4064 4089 4090 4091
          4104 4105 4106 4107 4108 4109
          4116 4117 4118 4128 4129 4130
          4167 4168 4169 4170 4171 4172
          4185 4186 4187 4208 4209 4212
          4213 4216 4217 4233 4234 4235
          4236 4237 4238 4254 4255 4256
          4257 4258 4259 4269 4270 4271
          4272 4273 4274 4284 4285 4286
          4287 4288 4289 4290 4291 4292
          4293 4294 4295 4302 4303 4304
          4314 4315 4316 4317 4318 4319
          4320 4321 4322 4323 4324 4325
          4326 4327 4328 4338 4339 4340
          4344 4345 4346 4350 4351 4352
          4353 4354 4355 4365 4366 4367
          4368 4369 4370 4371 4372 4373
          4374 4375 4376 4377 4378 4379
          4380 4381 4382 4383 4384 4385
          4386 4387 4388 4389 4390 4391
          4398 4399 4400 4416 4417 4418
          4422 4423 4424 4425 4426 4427
          4428 4429 4430 4434 4435 4436
          4437 4438 4439 4440 4441 4442
          4443 4444 4445 4458 4459 4460
          4482 4483 4484 4485 4486 4487
          4488 4489 4490 4491 4492 4493
          4494 4495 4496 4497 4498 4499
          4500 4501 4502 4506 4507 4508
          4509 4510 4511 4518 4519 4520
          4521 4522 4523 4545 4546 4547
          4566 4567 4568 4569 4570 4571
          4572 4573 4574 4599 4600 4601
          4602 4603 4604 4605 4606 4607
          4611 4612 4613 4647 4648 4649
          4650 4651 4652 4653 4654 4655
          4656 4657 4658 4677 4678 4679
          4689 4690 4691 4692 4693 4694
          4695 4696 4697 4716 4717 4718
          4743 4744 4745 4746 4747 4748
          4749 4750 4751 4779 4780 4781
          4788 4789 4790 4800 4801 4802
          4803 4804 4805 4806 4807 4808
          4809 4810 4811 4830 4831 4832
          4872 4873 4874 4902 4903 4904
          4923 4924 4925 4968 4969 4970
          4986 4987 4988 4989 4990 4991
          2880 2882 2884 3883 3873 3886
          3876 3889 3879 3957 3961 3965
          3875 3878 3881 4119 4120 4121
          4206 4207 4210 4211 4214 4215
          4347 4348 4349 4251 4252 4253
        </DataArray>
        <DataArray type="Float64" Name="resid_x" format="ascii" RangeMin="-0.05013369494778175" RangeMax="0.0152580683665966">
          0.0014941250991098443 0.0045320130309862705 0.0021052748547694122 0.0020557303279442607 0.0016570120137489042 0.007624540421544701
          0.0004975758185237211 0.0006505045363711659 -0.009503048968177552 -0.009803519226001534 -0.01098210918321918 -0.00922544837832362
          0.002702040830514285 0.005752045866204369 0.004967663820340501 0.005449192265217562 0.009569039413772629 0.002933629428849116
          0.005929629361531796 0.008123969866934644 -0.017599039506474234 -0.015468556320156424 -0.008558802629586748 -0.010293410211499321
          -0.011171037240300663 -0.001380695707463353 -0.015526637894840434 -0.0020158447012921243 -0.014862074162307337 -0.011459328159031834
          0.002675382407246296 0.004351181840909213 -0.003576353229157281 -0.008671234333091249 -0.0003384192116646645 0.0026855067473556815
          -0.0029915253082113402 -0.01474455456322854 -0.009878070418039897 -0.006987224965747885 -0.0015421287866064226 -0.008034067421673896
          -0.0030049404604355345 -0.0020587105624629842 0.0019507800848690415 0.0012241585212802164 -0.006499225850150392 -0.0090812094247541
          -0.0003224697308805702 0.000685029962653072 -0.0007449587972718774 -0.0012124792085632663 -0.0009775526025279646 0.000906270527243791
          -0.003107124213231671 -0.003954785894098478 0.0011707981172692783 0.0021938934662948384 0.0026945031824956445 -0.001485134002994215
          0.0017054209626250483 0.0009143683655221668 0.000907754301649355 0.0012925828539742668 0.0031254163093237253 0.0021148022524499765
          0.001634765174818753 0.0003038725100834583 -0.007970532553574827 -0.004098769243483069 -0.005273440217695047 -0.007450476098614267
          -0.00044774068829145364 -0.0011117381739049748 -0.0005467680714765777 -0.002117645863934925 -0.006248291293047714 -0.008742480684386322
          -0.0014112332709936837 0.00044549254467085575 0.0011502657670847682 0.0011972312022567877 -0.0024698336179280744 0.0026104480915414285
          0.0026029204964714836 0.0003342161338846239 -0.01068601649653278 -0.010010805075705953 -0.007660454547732343 -0.008851279571839399
          -0.006746849859450066 -0.014447120804476299 -0.005066915737181432 -0.009955316180409568 -0.012521080833177933 -0.012706688320104575
          -0.01347433026957745 -0.01650823636272669 -0.021209285084500706 0.0010697594194333249 0.0021405536297924854 0.0013412960137175745
          0.0018424545953901195 0.0018196440308493322 0.003514196315696605 0.0022623943936723734 0.0012723561050873577 -0.004336009220908821
          -0.0017920874849242097 -0.00246123648656571 -0.004715314555159278 -0.0006164457581165905 0.0006622029505836124 0.00046960631694048516
          0.0003052162906689304 -0.00154366227676217 0.00008204042671522416 0.00020365167098024273 -0.0009426274758004283 -0.005272449383728173
          -0.005546442136727947 -0.005120978297432188 -0.004575436175621395 -0.011996421145755498 -0.016874275388789606 -0.014119027061958
          -0.0012858493307126295 -0.0014672768340711073 -0.0025805188205292318 -0.0013814348595717618 -0.0026938715164002147 -0.0024275851375832325
          -0.0014706090420970597 -0.0023869524734854153 -0.0020674025962756915 -0.0006633775896203176 -0.00048702526936938995 0.0002825425592849484
          0.0006187902603462803 -0.00528581605229661 -0.0058080411240402086 -0.004871492650991627 -0.007284104713733974 -0.00007158030774112589
          0.001648711595907848 0.000004795414175085 -0.004361466918313184 -0.000022522785401601908 0.0031038260498474912 -0.004117520496544458
          -0.006182009761103835 -0.0017241669110075186 -0.00004822195493048298 0.0004910753670221979 0.0025955129609438465 0.0029867333148345665
          0.001551546041948626 -0.0031415452067466987 0.0025693380682172418 0.006527968907903414 0.0011743025270369856 -0.016996933674644943
          -0.009728093255529036 -0.009751859050123102 -0.021403470310879413 -0.0006939387703459587 -0.001100380495135056 -0.0026942218875252166
          -0.0020069505410451605 -0.0020487542675740045 -0.0009348147840508858 -0.006927716466534228 -0.011902317306531351 -0.005070332851466297
          -0.00036159564758175833 0.0005942998168642077 -0.0010326888210911989 0.0016608788151204479 -0.012488686893454393 -0.008085423248907375
          0.0006117753692436168 -0.0002742983199217619 -0.0006336953666505885 0.0008388054894128416 0.001498986515519718 0.0003037190552346303
          0.0003061390154086574 0.000800330505047242 -0.006704183465976676 -0.007380689943111918 -0.007294884059886542 -0.004916501318829702
          -0.0052050280144317895 -0.009979109284139476 -0.002277817679805949 -0.010735879211274835 -0.006614774719962746 -0.012559312077619289
          -0.0009144846465254375 -0.00032543261439776927 -0.0018741727496411897 -0.0009706460423721808 -0.006205609946244195 -0.0037623069279622
          -0.002919885419093049 -0.0030864203592351203 0.0009032863545637149 0.0014691402004487486 -0.0027694663659190155 -0.0032944367216138915
          -0.0008606596553186741 -0.0015321589257890622 -0.0002303770322953369 0.000210819576758281 -0.001706163934434457 -0.0033268652915805497
          -0.0017554319679256025 -0.0013197970331699782 -0.006850439119007845 -0.005135894805000429 -0.005222149739532611 -0.006768643351061199
          -0.0031962882016209893 -0.0016274940226859158 -0.002719741302946499 -0.0017536468064331956 -0.002757748507062119 -0.0025463857878262885
          0.0006834232408312602 0.0011971057643691552 -0.006682805757446175 -0.00192739884413351 -0.00222371735228144 -0.0013298340769480888
          -0.0020997994220568472 -0.004131327490678238 -0.00722875114264987 0.0005140562569705409 -0.0010339064069588844 -0.0019596147880012182
          0.0016631492203389442 -0.0009885106159535084 -0.004406674219600504 -0.004726567427293382 -0.0016740842391911315 -0.004066439001655375
          -0.0002765520041583258 -0.0002812863968806312 0.0014628803234479903 -0.00048346257229603395 -0.0019399494704765985 0.0020440216271992995
          -0.008233001475673518 -0.008641016867951379 -0.008092615583395357 -0.0037754002332155423 -0.0023587362009847013 -0.000832581997868509
          0.0008109196405845509 0.00023813101402492265 -0.007035650667064353 -0.011598443921487345 -0.007455429114584078 -0.02981287278241851
          -0.01530173234225174 -0.028145674761827166 -0.022247353542390158 -0.0027277335853757023 -0.003825324989374934 -0.008022207408913573
          -0.00023887050375881458 -0.002356880604622802 -0.0030795623197024113 -0.0002428315099058942 -0.00183647215863747 -0.0007179750407217966
          -0.006375218107736114 -0.006169892254604736 -0.007834806806382488 -0.00040270708077549955 -0.0004661835611989851 0.0005087052426162586
          0.0010392720167797798 -0.004991440927125446 -0.002462144956878465 -0.003246979371988701 0.0009303001837588365 0.00012508582357195763
          -0.0004272697760638877 -0.0066818881516397255 -0.00007320497162788264 -0.0010326046383655196 -0.004387263854541246 -0.015355157213512882
          -0.006362748735285306 -0.010895391912459473 -0.014819066995613639 -0.00011063349629214514 -0.0011458540248900917 -0.0009162369465691711
          0.0013333194826259387 -0.0006605119301736906 -0.002945098362781451 -0.00024358702187754488 0.0013583969168369237 -0.012515227932536455
          -0.013542384784498651 -0.01259390284769868 -0.012848917993984799 0.004409085086336084 0.0152580683665966 -0.006388934839419491
          -0.002412028341000294 0.014047824409465726 -0.023214414887823942 -0.013672879205749666 -0.011514652207141207 -0.02104154989766993
          -0.0035117725777151776 -0.001848032436433833 -0.002245132672617167 -0.001257108420370301 -0.0013113266151769665 -0.0022218398907778436
          -0.008992405816024895 -0.00559804606090708 -0.013096048461703091 -0.006151098943492528 -0.011816797408585877 -0.012622996786689988
          -0.005842427375029047 -0.00822938725719613 -0.002562122967916025 -0.005266702126868417 -0.012783148812093081 -0.014622680431611634
          -0.007727426044344732 -0.002374931620845455 -0.0031418052873695146 0.00012749360353425665 -0.001172163071654797 -0.005206954493984561
          -0.00040482480037695723 0.008030918062801984 0.004282023063990004 0.009157393708103534 -0.001200670640892021 -0.01140425453264049
          -0.002294421760659082 -0.0028321397282118355 -0.014779652220693329 -0.013014041373768492 -0.0034310899665115357 -0.004651516027677438
          -0.0067088374914430204 -0.0028486042684092716 -0.013620701852521622 -0.0015461678240547005 -0.0027251844737881115 0.001734300715664272
          -0.0009167731542332191 -0.004405335468075311 -0.006958304786554237 -0.005498053950381276 -0.003654527629563198 -0.005026235514834276
          -0.0038653116462992188 -0.002737873566175608 -0.0018648840623853857 -0.000382704531917355 -0.006349927843095848 -0.005956696814130247
          -0.003248969742124963 -0.001362620660499303 -0.0011804980198153459 -0.005722770882551326 -0.0038043322637530963 -0.0042500101214440755
          -0.0022396731548282034 -0.008673070493155244 -0.008814740535062704 -0.007242518884032378 -0.003374476566347373 -0.01137343084491027
          -0.006039544736160529 -0.00467606399355347 -0.015659262260165896 -0.004096518794128312 0.000786775661264616 -0.0056784545316037605
          -0.0012888561314223779 -0.00246520139916262 -0.0003517070482486062 -0.0017538660767333347 -0.0005776650270750139 -0.0023764763426046276
          -0.005431330484543667 0.0014091735747387701 -0.004118816503229872 -0.011933143352610642 -0.018610080129255024 -0.02112247822481894
          -0.026369724062920596 -0.015019213807850207 -0.017882649701697062 -0.00021263628259404754 -0.0007211073766182352 -0.0005393515342575483
          0.002961555279435313 0.0006749817755489218 0.0005576156760938034 -0.0035102100676520642 -0.0038091751533766427 -0.003023367483608652
          -0.0018073946997467782 0.00030599313901280567 -0.004541280098061762 0.0033413515271394356 0.0041552366446788724 -0.0005824189263936574
          -0.0015937007742024 -0.0015290012605220227 -0.0025944254272971534 -0.004773325983662424 -0.003808331398475584 -0.006042002134966751
          -0.004379624246864111 -0.0005032711166697013 0.001519053354493316 -0.020224452099524726 -0.0036880970771671073 -0.02733896470934649
          -0.027048755389945 0.003678597208684131 -0.04017734037473453 0.0016995299756956683 -0.009108916419763524 -0.01591856561148486
          -0.013911125194842278 -0.016038399536555836 -0.010766303307502056 -0.0023989420774004344 -0.009654340167729814 -0.008164065419538513
          -0.006993256420738447 -0.005009836992153183 -0.01116151664489351 -0.0011867260189939444 -0.0012128764629197875 0.0017587282619846434
          0.0009146517901612583 -0.00025703526091280793 -0.0018568711975994745 -0.001127264285269547 -0.00011629140658087067 0.001673472723685343
          0.001164275568815043 -0.0003941524591386525 -0.0014636897011985894 -0.0007248415619454107 0.00005315069819600282 0.0008604649541310572
          0.0017104442189581626 -0.004591734609693088 -0.002137269199583347 -0.0027595953103252135 -0.00008784851723930842 -0.005962707487547014
          -0.004652436118065317 -0.010884340342411924 -0.0010460787854853493 -0.0008776956546441284 -0.001209671903959375 -0.005040813875895722
          -0.00624802102619082 -0.0024993076040544793 -0.0018983999118917794 -0.007313258794874322 -0.0015986652921142763 -0.013785171273861252
          -0.003585179133486882 0.006047000644166189 0.0010058731534128285 -0.008500979591073765 -0.004624096551760104 -0.014891468857972434
          -0.008830166448392296 -0.006424813901889648 -0.01358086213295251 -0.019247712234913728 -0.005671259079739421 -0.022927362433766696
          -0.01221212126888016 -0.014575418983596489 -0.007148309774510864 -0.006438305925620558 -0.009467454072344061 0.0013602212761998356
          -0.00046603358485786117 -0.004477225435163712 -0.005512593085314599 -0.005205428027855952 -0.002096365536048417 -0.00772288025321366
          -0.006254641968158836 -0.0031748296205984516 -0.013815743913449197 -0.013764575458461437 -0.0024777541208633735 -0.008098297921300457
          -0.0034430375905474264 0.0006818507326382672 -0.0028838219522526742 -0.0034683503119374848 -0.0027474645021383637 -0.00299692204642632
          -0.004847988285343163 -0.004102064537987005 -0.003309106223667868 -0.0032999088707885704 -0.0029855269905763038 0.0012183312372613386
          0.002152232499313733 -0.0015096037401294282 -0.0017059025810874928 -0.0034806484857563547 0.001261352445940389 -0.0016379216619304415
          -0.00029918840720633 -0.001668705232653167 0.0029618124539241286 -0.0012601301680028598 -0.0030421040215244943 -0.0036267683107773507
          -0.006483950530567384 -0.006102298924417937 0.00004063485245797693 -0.00353260802309574 -0.01564800580173653 0.000672968500712301
          -0.01136716024356943 -0.018794957127198586 -0.011001131091614269 -0.0008736687355712647 -0.00008748410927417183 -0.011790078681034544
          -0.0032881754459168633 0.0013514251226887097 -0.0015720907269187734 -0.003508715633532944 -0.008422229566003914 -0.0029731827370849118
          -0.005756155902268745 -0.015915698850948345 -0.01366477097394636 -0.007845943780582232 -0.004617187894315311 -0.0004273972676580584
          0.0007841082999600069 -0.0022988175900895413 -0.001475065427283706 -0.004143082067574078 0.001240019950561111 -0.0017471223008682646
          -0.008898174977421291 -0.007343761275707905 -0.0022553235911102476 -0.0024787190328803277 -0.0035852418706499023 -0.0033103060085171165
          -0.0030583251784888077 -0.0011220919469914215 0.0005129011516435966 0.00013629338461651486 -0.005670855244986228 -0.0008807061717264197
          -0.0009047617316668699 -0.0012422533961924387 -0.006973160021692237 -0.00479964019906598 -0.0076520334573584314 -0.006139405920263741
          -0.004240512093431903 0.0012212313434707411 -0.01079949507565825 -0.0065850592444847145 -0.003672686506812628 -0.007461694934938645
          -0.0023679208996787438 -0.0011207994564124135 -0.002336017422710057 -0.0017234544910618155 -0.005806496481676859 -0.0031434310258804388
          -0.006078181914688813 0.0029187253007869063 -0.002473989674400212 -0.008688468727479304 -0.0030380546687456267 -0.01514984358378868
          0.0005807314756327564 -0.0017247365370796075 -0.005179832483979574 -0.00006925043979411072 0.00036758585725316095 0.0002685438093310566
          0.001488436466360099 -0.0079261320442221 -0.009118242387973652 -0.009503827471948334 -0.02137063729418287 -0.02145283145865573
          -0.004569481001941433 -0.004608450140772491 0.0015888905702263756 -0.0016045572333655 -0.0007461270804274278 -0.0022365870934523135
          -0.00026733598538086767 -0.0019504449441489768 -0.0039110059029603406 -0.0021547324892878805 0.00035382426982355497 -0.0021172164309755104
          -0.0005617887684703504 -0.0012475953839290455 -0.006534093215850412 -0.009266148647972372 -0.009883446299884469 -0.00912765998121845
          -0.0015799650097054752 -0.0005290549702516856 -0.006040916935702079 -0.006986404152921288 -0.0023977068712701666 -0.0013343095150357698
          -0.001453572884319243 -0.012382566653313276 -0.0042690114884056385 0.002946079875443708 0.001538406954571414 0.005118772485951162
          0.002892639409555642 -0.0058757167169245506 -0.005527146907075675 0.0014273755064495575 0.0025745155780958484 -0.006822040769550064
          -0.005712981140191253 0.005016034882262099 -0.006562735693523836 0.0004244770466552694 0.00206970509229798 -0.0061439227320523315
          -0.007210265603947441 -0.004406055169385414 -0.009552071198057899 -0.007474432699535072 -0.011838174263779422 -0.008345327617554688
          0.00209973723505108 -0.000010001598811371082 0.004719913064748837 0.0018103012265306972 -0.005634466592420395 -0.006077050178426191
          -0.00657222129779278 -0.0021859083562878467 -0.011175975491469536 -0.005348001617119458 -0.003188484924200985 -0.003051985685615932
          -0.0016709378365942218 0.01225039134415895 -0.008352040818351059 -0.0043622916019625535 0.002065340250925196 -0.0008316526420317771
          -0.004675109936453481 -0.005626995405595636 -0.007524044411433728 -0.007702422895767724 0.0012481700563656828 -0.002417654531336577
          0.0001992388266112144 -0.00004040036379571177 0.000895096089038816 0.001377217005706477 0.0024314314980360408 0.0014408843969366814
          -0.002589588697191836 -0.004815986131715633 -0.003713107063979315 -0.006272843510808812 -0.0002256185909512709 -0.0044242730593300195
          -0.0030163405666883136 -0.006366568865601607 0.0015349949199272572 -0.0005567980164160602 -0.007848724058243661 -0.0026368033414003733
          -0.0074242647897806435 -0.0011392671471526228 -0.007309710147130666 -0.005487082088398765 -0.003404047202807181 -0.007248725887424978
          0.0014438779907512966 0.0009913449339959968 -0.004462411671375399 -0.006347939652276757 -0.0010609575040314567 -0.007702380336632064
          -0.006980445357800846 -0.007550813810382806 -0.0016158161015775718 -0.004651911851758506 -0.011278228642836119 -0.013402967818523237
          -0.006999010946184825 -0.0018129485037547965 -0.006437550761639876 -0.00747807276552237 -0.008549518554943347 -0.00878155523258517
          -0.03267707936120212 -0.022730183956763517 -0.004853335405974102 -0.012594998376352251 -0.019446134106786417 -0.017646493782455863
          -0.004623072495963054 0.00017563146264709673 -0.0014056941891542607 -0.013943423929382526 -0.023608654241820126 -0.015254851752989573
          -0.023225544101218354 -0.01430056647527067 -0.004560864622165095 0.004983475040698071 -0.005394158057948406 -0.009466885738767417
          -0.010565189687413046 -0.018869119488499564 -0.009340114431069857 -0.013633461813650882 -0.0065340741192745355 -0.01889664576005856
          -0.011255788339592954 -0.011010348482274779 -0.011467979175868948 -0.038271874365474634 -0.043294214221909044 -0.01354488382321506
          -0.008237085506511477 0.000781911137224256 -0.009080458047975526 -0.010940090306099215 -0.0042508241897678545 -0.00694756975879951
          0.0065225019298269515 -0.01186674236068086 -0.0002458100501883109 -0.05013369494778175 -0.016452288795472114 -0.04481066588408389
          -0.018276883604275262 -0.01408795861734724 -0.008539411195193303 -0.023597991441209665 -0.024853803739162572 -0.021222223847673582
        </DataArray>
        <DataArray type="Float64" Name="resid_y" format="ascii" RangeMin="-1.269738489500081" RangeMax="1.0949313664728038">
          -0.000043809530004740305 -0.00048282641317826114 0.0001785843262214204 -0.0007491790236340834 0.000809836052256041 0.00018412437833337236
          0.0026208405165943083 0.0004434241917747328 0.004038625834818899 0.004820231381612472 0.005135673472352609 0.0036523218688472303
          -0.00012525384368749365 0.0007275036854550998 0.0012161913493611287 0.0007908942889893189 0.0028105521929681285 -0.0008153925197422751
          0.0005022530388663349 0.0036055542137083396 0.005465986072717005 -0.0006537611576291347 0.0018668915794662067 0.004781554305486657
          0.0034403478029159107 0.0010017303241716125 0.0035428317960117806 0.0035326139893293584 0.001736600890519635 0.0028819361087868978
          -0.0007414673838369301 -0.0016495460725284294 -0.0007594470421543598 -0.003239130650143668 -0.0025822242665535095 -0.0001776136523543373
          0.002106197856861114 -0.010724629656155948 -0.0007541795005777605 0.0037040293575979905 0.004434651210513396 -0.004613660936544195
          -0.00038771344908783423 -0.0021176474194408296 0.001676274070129255 0.000553600730059764 0.003719810763936335 0.0026974517241610263
          0.001605777422012955 0.00014769113957607827 -0.0008061939232181237 0.00048522412251086194 0.002639788778397281 -0.00024942994085264125
          -0.0006892187856806231 0.0008189380941911739 0.00019863471825534718 -0.0005957198537511199 -0.0005523580453709043 -0.00031377904519706845
          0.0006119240555562677 0.00025147003084000086 -0.00019517904984273082 -0.00023498863059834285 0.001077183026065076 0.0009512689824189846
          0.000498337367048074 0.00019173458204141403 0.0014603092662086592 0.0014816111144970723 0.0016722665430279338 0.0011504377273484079
          0.001453354942911822 0.003122792627423633 0.001243853739306855 0.002634618232767366 0.002870240561301418 0.0038295154225359285
          -0.0004307185709799821 0.0002728505145710436 -0.0006700223271551842 0.00032960699003253824 -0.000373533118049274 0.001239227964729528
          -0.0011622250463135808 0.0004902163710295282 -0.00021921914542044618 0.0004057966408683722 -0.00046452302029886816 -0.000014205880415008032
          -0.0017602503607230813 0.006388337316293791 0.0060143136647465845 -0.0023483964734744567 0.0022634467376977385 0.004604220065425296
          0.0032119362623602155 0.003984717283744332 0.000029393641707620155 0.000015678954346787233 -0.00017179670865053592 -0.000263516295631816
          0.000012478717127284433 -0.00009548716126228651 0.00018173325719647929 -0.0000633285681416601 -0.00009099792048955502 0.00047556557466432725
          0.0006924888422869951 0.001105601407306464 0.0006068286739827344 0.00015648249194999408 0.00015761414520999717 0.00011016080277131968
          -0.00002801170350280168 0.0006907157226437033 0.0007379194311196713 0.0007732391850261422 -0.000005166061680557388 0.000869527344058374
          0.001899874024479692 0.0019572183212816507 0.0005587609394793261 0.0023755914961698515 0.002884204831037282 0.000865163991134843
          0.0003977936296497564 0.00012045938908983311 0.00035340684270307454 -0.00016722180492022287 0.0000635053508468153 0.0015430590482005124
          -0.0001236778265762961 0.0005113834242268522 0.0012932209397125694 0.0008577507778077531 0.0027199922027627693 0.00042361740254620583
          0.002340524080365322 0.00042759378412537963 0.0018219716652719958 0.0014635997083599639 0.0020267076975695186 0.0008358928590959935
          0.0003259849799370218 0.003038189698532645 0.0016624047492738714 0.0013304860143715513 0.0005667269565223232 0.002667360115638673
          0.0012302886000613578 0.001302973094856108 0.0019027420324886912 -0.00040053117211868994 -0.0008004064867261629 -0.0008275376272308954
          -0.0026677781121425825 -0.0001261122807336701 -0.0009261456828847381 -0.001765703918947148 -0.005236042507288596 0.0007072442628044406
          -0.00078883435164806 -0.0011154611509252982 -0.0019476463546042044 -0.0007211078635166734 0.0009693931143875956 -0.000320227804564005
          0.00008236560445935848 -0.0006648678955498699 0.0029840597042420786 0.0016015641960741012 0.0014424662274463707 0.002914671277992678
          -0.6147230112193243 -0.47290662401089456 -1.269738489500081 -0.9668795807463726 -0.6775591001207198 -0.6351652864477655
          0.0003300220262245912 -0.0006277949700266849 0.00036271069451489224 -0.0003040121657734707 0.0010071295327840346 -0.0006116570316029996
          0.0016566954275796658 0.0012132265025916744 0.005582703730122124 0.002896948778738223 0.0038814499857452167 0.0037669021205618478
          0.0006984589253761775 0.004529144782886544 -0.0012016925843974513 0.005217278503857643 0.00032141766648247083 0.0026695186829097765
          -0.0007061594962383677 -0.0020402913554110613 -0.00046822393897028025 -0.004214230859861612 -0.00037862847973063607 -0.002190744622806662
          0.0025168367990588275 0.0015737333734801018 0.0013268988620480232 0.0005343973731061769 0.003338277505278542 0.004177499511867355
          0.0017609790382573653 0.0013292733250327426 -0.00018447035201621387 0.0002875336634523412 0.001437991755685486 0.002818371654318058
          0.001049473626279801 0.0025302758344789844 0.002467831522852293 0.003008447480112919 0.0028988342430022185 0.0036675282815550186
          0.00003583127915979256 -0.0005553229584281949 0.0007518747147351457 0.0006925251892274109 0.0015829755174542326 0.0015894471142520183
          -0.00110254474447663 -0.002056510365372688 -0.0011467308357595019 0.0022266379797880875 0.0030962085140409934 0.00175184412329768
          0.002182418905605693 0.0016637136634855693 0.0028863364339530295 -0.0009582810853527544 -0.00003421164068580229 -0.000840388117874985
          -0.0015860139306023702 -0.0002638644997735168 -0.001012978678136045 -0.0004589844055189734 -0.00001772839602402765 -0.0004259130660070054
          -0.000024817145828692766 -0.0000883426219080441 -0.001189786520060132 0.00010266086114607553 -0.0005302189402419111 -0.0027404396902526162
          -0.00023873849975553085 -0.0009063766391744221 -0.0019025928737589348 0.0019133491800455427 0.002626821662760348 0.0015739014906797633
          -0.45157235567211196 -0.9057160916743325 -0.5367520346179526 0.004817089457364407 0.0062468171163750225 0.009352480904768645
          0.005388520443256939 0.004628338608019408 0.004661752308364409 -0.0012656109576973384 -0.0023545852399646794 -0.0014885219726180066
          0.00020749926069912883 0.0025024731892333008 0.0030279099275663524 0.0003945507221183586 0.0004865623662013707 0.00429033778888252
          0.0017674092450221113 0.001803548278447753 0.005178800861272703 0.001986759677282457 0.0026060108524595116 0.0006628037997170044
          0.0007557671545510014 0.0024413661416808896 0.0023335623907397574 0.0054914351256082905 0.00043435235374832126 -0.0008140907722097857
          0.0005749800667551042 0.011172162287586218 0.0009052290003680463 -0.0014016383204803473 0.0012220058817327129 0.00593628698820764
          0.0010826841248991609 0.0009619957367115461 0.0016876310790689963 -0.0001258919148582338 0.0018363973971943781 0.003848218410655968
          0.0018481424798196255 0.0002658636086330657 0.0014775850099587595 0.0034909544970870288 0.0034283394349993723 0.003345877202943548
          0.0026877774056016657 0.004735814445449349 0.0060772882484659285 0.005765940499681099 -0.002085236405055202 -0.007149097382001118
          0.01219305698449269 -0.0040073742346118935 -0.009097623018640755 0.00691661354361639 0.002313986927425904 -0.001106524264323755
          0.0008239631180143592 0.00008018234714152195 0.00014558960846750013 -0.0038819174410522905 -0.006654588690221008 -0.0029287447085789287
          0.002764662340410423 0.003500113457940296 0.003615144373000062 0.006452650048593855 0.001737658530133454 0.003496793851647362
          0.005045843685252793 0.004813822642835031 0.00323681422499017 0.002455248619641026 0.0034719476908685043 0.003547268525313896
          0.0034170015810418286 0.001937633250025439 0.001227738483788269 0.0016460372762721887 0.00004106628637528045 -0.0002472137537617991
          0.002377738306748145 0.002271421975609089 0.0007646139363418191 -0.0015509970580547816 0.004017403606416198 0.006054535971162317
          0.0031860326471393197 0.0041159686614086755 0.007288053070914402 0.005309819880977687 0.00617662287939913 0.01038044831525349
          0.004144740745348069 0.0021328739605773195 0.005123543949093062 0.0015122271170936452 0.0013416242101808584 0.0025833786867985598
          0.0029281199050529005 0.004992950513306865 0.004460888673590235 0.0021396348621543493 0.0016627033968631133 0.0024074242154138725
          0.00025208806655474536 0.0006634821124220092 0.0014363505558434853 0.0032604930454721848 0.004166360082825615 0.005033414507458894
          0.0011988347137276978 0.0005714333090028056 0.0009974427936596808 0.003002274110809111 0.003778520590809936 0.0012353777595607157
          0.002768210658970871 0.0026364954729744816 0.0034078669791718086 0.0035724820176082743 0.0011030640686417667 0.003373962917192226
          0.00363893872592036 0.000274762258424488 0.0038472602546920087 0.0032114635736251174 0.001613900166736043 0.003680451380943278
          0.0004840692569406946 0.0015615416330974352 -0.00027336448236303657 0.0019083768668966966 0.0004698190037359523 0.0019918699144974295
          0.003815690577117281 0.0018000440923034988 0.004399151275892327 0.0019928573965337093 0.007750293196447239 0.0022925086891042445
          0.008720160544889555 0.0001876349281179912 0.005370458793997834 0.0005270043305341532 0.0018896337241797734 0.001054201981256886
          0.00010759928822168252 0.0012878827426353046 0.0004339874745853678 0.0004645994900397965 0.0011856870554202703 0.000337999411884643
          -0.0014368158316228063 -0.0004861240696475422 0.0004545416157771976 -0.0003267319386031087 0.0005058873309025103 0.001164559922559245
          0.0019323375391700759 0.001893665243776932 0.002166502733556022 0.0026789033478378244 0.0007607969080836163 0.002670957363376081
          -0.00012722027355671628 0.0012583129091002787 0.00011168850791254403 -0.0005400292597497053 0.004143801622723486 0.0023556217035018145
          0.0018990609360135247 0.006397755589860277 0.008790740424842514 0.0032431389656643883 0.002575069467148583 0.012727119836966672
          0.001863584957171406 0.004278706970433314 0.006594436134793784 0.002358369822078967 0.0046907529981699 0.0021285514065151143
          0.006977110561556921 0.008771199124713608 0.004955363555695813 0.5044905934986335 0.42520742505723785 1.012922859646486
          0.8530692100804246 0.5575927416445161 0.47817501891823244 0.20591177958267318 0.020558504825902962 0.42051989922582805
          0.053831942204869476 0.3039436918974924 0.1237928210762047 0.0008464568583725629 0.001485062499938447 0.00008804335712431222
          -0.0001993706216503674 0.0017900878611996351 0.001702685155663436 0.0035360602654295747 0.002134768828830569 0.002604309765092322
          0.5464805390329113 -0.00021360865629643788 1.0949313664728038 0.001492044633940745 0.5650121857118312 0.001906396293465562
          0.5153542224697402 1.0281624507802984 0.4924628790151105 0.005119798927476257 0.004875832081171413 0.004852190216201452
          0.44750733634186246 0.8855017494645303 0.35842610507553896 0.0035079166551052476 0.0009784276320992658 0.0032609233119924863
          0.0029636740146407187 0.0007552556914171595 0.003756553467652704 -0.005323833674341222 0.525332807728244 -0.0125913241023176
          1.0232150903253896 -0.0026017975709904106 0.3579182302241826 0.005452177647094075 0.007878745306389934 0.002096969180964109
          0.004835086476362049 0.0025054912848604116 0.0038232386291158493 0.0022862529304303325 0.00040215839869045533 0.002148470740212516
          0.003595280556334124 0.0009356965341679735 0.004494179351612282 0.006565481426585168 0.004319141334303861 0.004797828718007768
          0.002161437411563355 0.0017082030435867923 0.0010254404801465777 0.0015308789974900483 0.0009371210600114255 0.0006732170548835459
          0.0038327187075041236 0.006742495583568431 0.004126208472340576 0.0023146587158973664 0.0022079746361145236 0.00038382971312098113
          0.0004472393034929967 0.0020828719472590906 0.0029408888896894636 0.0024167398845903604 -0.00019590982965876635 0.0020067400286088027
          0.0016939538393448555 0.001548273870210129 0.000020977066128621824 0.0014918588886475431 0.001220526885499687 0.0016715294667673936
          0.0014735383847190309 0.0008917745644309027 -0.000968085143559394 -0.0018161031673367134 0.005033275258470193 -0.0004287318983608457
          0.004188562595381751 0.008080051844578662 0.004511358391967701 0.008823516047625657 0.011057741851375952 0.0066404087102886755
          0.0029364343995003372 0.0006474187211305167 0.001634074860546196 0.0022580500286486227 0.0032954274821678925 -0.0018654943705803395
          -0.00015003610882605156 -0.0006690194090990392 0.001441441472554178 0.003907818770419111 0.0029265651339664966 0.0019796693174587154
          0.0005794807022589388 0.0011949584490735382 0.0009243467146836659 0.0022390753727058454 0.00013144380271101763 0.0014379627631412872
          0.0022413472384560373 0.001018160581707353 -0.00006162421836754944 0.0000575024545239472 0.0008591339626683805 0.0005267791420594664
          0.000632699157765676 0.0001942822852022824 0.0003217735093406452 -0.00038120434611704085 0.002679182385017853 0.0008318496398617425
          0.001057474120479315 0.0009400925203235343 0.002645117509596673 0.0013648052079325845 0.0017787287092307091 0.0018814755445324995
          0.002981480297318928 0.0008807240891492707 0.0027095661043693153 0.0027268109833880616 0.0008288597610891513 0.0017872350577546325
          0.000553379716996788 0.00012683895322603 0.0006182413671987352 -0.0003262530030730959 0.0004464758192932461 -0.00011167820796764011
          0.002885006183744543 0.00015365597883718052 0.0026718855077977055 -0.004345840267924644 0.002123677322007092 -0.008616280848244395
          0.0007270240822742011 -0.005072016417323952 0.0026025457926831808 0.00029525406331909476 -0.0001365060880037794 0.0013795370863952106
          0.00004327034231021987 -0.00001553063662296239 -0.0008642844578704012 0.008669106576856545 0.0162436158559216 0.00971234275265409
          0.00275972509917935 0.0013612785695907292 0.0007828006489166706 0.0017924425766748797 0.0014718454170433437 0.0011693503230415236
          -0.00010291311797891445 0.0006092358627496908 0.0023588809656163168 0.0008330941396975378 0.00003989787646507814 0.00113210173904002
          0.0024039103357519076 0.0032705025623436523 0.00192778498129631 0.002734116644570933 0.00403419381109188 0.003686259737155334
          0.0005087209744875643 0.0008995413587758461 0.0002852765605888541 0.002524388118512147 -0.00024285513624880406 0.0017361440668999945
          0.000009386457496929346 0.0028953025037638525 0.00048061629823673013 0.00001952944076472063 0.0006824583042382981 -0.0002982310273857425
          -0.00018630670524938386 0.000452031039548495 0.0003827174695646973 0.000018785559282918918 -0.00013784025811358624 0.0001326247264104019
          0.006084071143319936 0.006403347255840006 0.0031833709892025303 0.00029349025093938774 0.0008704853009601776 0.0005621108087373039
          0.0031901975616219283 0.003219906369310521 0.0028037041759133297 0.004237776076947586 0.006113223877601048 0.0029750669870464708
          0.00007427506545804041 0.0002744077008470791 0.00002551022021013427 -0.0003774286850494746 -0.00023404623520789647 0.00016949366571145097
          0.002545438863226668 0.0004608059310171053 0.0015983884035298268 0.0013221228420311482 0.0002813187771526504 0.0006364652961494133
          0.0008227272383747458 0.00010613171608933603 0.010037994119279192 0.002469305848906908 -0.000020533673958184062 0.000974702876063438
          0.001903566138879903 0.003054923788795516 0.0019235584692611774 0.0028608328369343905 0.001272239439059561 0.001901337894807037
          -0.046216996292488655 0.0003556328202733994 -0.11265313746324684 -0.07684301949226452 0.00003616447643628451 -0.21161950794697948
          0.030915339747021542 0.00022996236133793202 -0.06232404081174736 0.0015704250534519515 -0.0009634631388613091 0.0001801286491731613
          0.005173036259659924 0.004003303728624175 0.004120736271252659 0.002696807028950643 0.0024290436076307848 0.001109771622933603
          0.0020408525515542286 -0.001764235344348053 0.0009640901826021842 0.005781837818801733 0.005673232970244579 0.004049914341538036
          -0.28137961992795796 -0.557834428079491 -0.28428201828047106 0.0004959528470275809 -0.001929622467392103 -0.00014859379617200574
          0.0015871621760960575 0.0021334257616241192 -0.002638994782386106 -0.0007393030328182726 0.0010931561835953452 0.002889834220444365
          0.005765671739657412 0.004026063439773207 0.0035671311943408293 0.0006415432227234652 0.00044310421819569387 0.0003232007006097118
          -0.0030771142749813074 -0.00998270149218064 -0.004818404773717672 0.005509253129922731 0.0027898398126383894 0.003213780498587504
          0.0015684761224032395 0.001193283635978426 0.0008442034786576569 0.009672971638211597 0.011351378391818656 0.0032210843991427804
          0.0020632878991757864 0.002706329246424055 -0.002082594824589279 0.0005701631187406409 0.0002494460289171746 -0.0005313127947934315
          -0.0025686762021963367 -0.0071589870748749885 -0.007109475203701393 0.0012449264810947824 0.00602942517004873 0.004537553847677511
          0.01413999856188719 -0.0009019509859464897 0.004943340082176395 0.0018240142080434944 -0.004357422322924777 -0.0011968798368267586
          -0.000282909863191759 -0.008272027823709435 -0.006525043954449777 0.009361358234983186 0.01859037208934816 0.007107121209774331
          0.4169817962322014 -0.006278915589248521 0.8214739003427484 -0.015959349427736705 0.3398620084270398 -0.005607314646328826
          0.0026368652503618237 0.0070149920637838925 0.0036007230801561665 -0.009429942396887658 -0.01368228756244494 -0.0012352862421773358
        </DataArray>
        <DataArray type="Float64" Name="resid_z" format="ascii" RangeMin="0" RangeMax="0">
          0 0 0 0 0 0
          0 0 0 0 0 0
          0 0 0 0 0 0
          0 0 0 0 0 0
          0 0 0 0 0 0
          0 0 0 0 0 0
          0 0 0 0 0 0
          0 0 0 0 0 0
          0 0 0 0 0 0
          0 0 0 0 0 0
          0 0 0 0 0 0
          0 0 0 0 0 0
          0 0 0 0 0 0
          0 0 0 0 0 0
          0 0 0 0 0 0
          0 0 0 0 0 0
          0 0 0 0 0 0
          0 0 0 0 0 0
          0 0 0 0 0 0
          0 0 0 0 0 0
          0 0 0 0 0 0
          0 0 0 0 0 0
          0 0 0 0 0 0
          0 0 0 0 0 0
          0 0 0 0 0 0
          0 0 0 0 0 0
          0 0 0 0 0 0
          0 0 0 0 0 0
          0 0 0 0 0 0
          0 0 0 0 0 0
          0 0 0 0 0 0
          0 0 0 0 0 0
          0 0 0 0 0 0
          0 0 0 0 0 0
          0 0 0 0 0 0
          0 0 0 0 0 0
          0 0 0 0 0 0
          0 0 0 0 0 0
          0 0 0 0 0 0
          0 0 0 0 0 0
          0 0 0 0 0 0
          0 0 0 0 0 0
          0 0 0 0 0 0
          0 0 0 0 0 0
          0 0 0 0 0 0
          0 0 0 0 0 0
          0 0 0 0 0 0
          0 0 0 0 0 0
          0 0 0 0 0 0
          0 0 0 0 0 0
          0 0 0 0 0 0
          0 0 0 0 0 0
          0 0 0 0 0 0
          0 0 0 0 0 0
          0 0 0 0 0 0
          0 0 0 0 0 0
          0 0 0 0 0 0
          0 0 0 0 0 0
          0 0 0 0 0 0
          0 0 0 0 0 0
          0 0 0 0 0 0
          0 0 0 0 0 0
          0 0 0 0 0 0
          0 0 0 0 0 0
          0 0 0 0 0 0
          0 0 0 0 0 0
          0 0 0 0 0 0
          0 0 0 0 0 0
          0 0 0 0 0 0
          0 0 0 0 0 0
          0 0 0 0 0 0
          0 0 0 0 0 0
          0 0 0 0 0 0
          0 0 0 0 0 0
          0 0 0 0 0 0
          0 0 0 0 0 0
          0 0 0 0 0 0
          0 0 0 0 0 0
          0 0 0 0 0 0
          0 0 0 0 0 0
          0 0 0 0 0 0
          0 0 0 0 0 0
          0 0 0 0 0 0
          0 0 0 0 0 0
          0 0 0 0 0 0
          0 0 0 0 0 0
          0 0 0 0 0 0
          0 0 0 0 0 0
          0 0 0 0 0 0
          0 0 0 0 0 0
          0 0 0 0 0 0
          0 0 0 0 0 0
          0 0 0 0 0 0
          0 0 0 0 0 0
          0 0 0 0 0 0
          0 0 0 0 0 0
          0 0 0 0 0 0
          0 0 0 0 0 0
          0 0 0 0 0 0
          0 0 0 0 0 0
          0 0 0 0 0 0
          0 0 0 0 0 0
          0 0 0 0 0 0
          0 0 0 0 0 0
          0 0 0 0 0 0
          0 0 0 0 0 0
          0 0 0 0 0 0
          0 0 0 0 0 0
          0 0 0 0 0 0
          0 0 0 0 0 0
          0 0 0 0 0 0
          0 0 0 0 0 0
          0 0 0 0 0 0
          0 0 0 0 0 0
          0 0 0 0 0 0
          0 0 0 0 0 0
          0 0 0 0 0 0
          0 0 0 0 0 0
          0 0 0 0 0 0
          0 0 0 0 0 0
          0 0 0 0 0 0
          0 0 0 0 0 0
          0 0 0 0 0 0
          0 0 0 0 0 0
          0 0 0 0 0 0
          0 0 0 0 0 0
          0 0 0 0 0 0
          0 0 0 0 0 0
          0 0 0 0 0 0
        </DataArray>
        <DataArray type="Float64" Name="stress_zz" format="ascii" RangeMin="-6428829.841466391" RangeMax="6048967.603625769">
          -1211670.4333688016 -396201.15638092573 -999791.2619749531 -2236562.334075841 -1309519.6765887793 -464006.5872279918
          -1008874.6662512895 -2241525.290914231 -1407368.9198087566 -531812.018075058 -1017958.070527626 -2246488.2477526213
          381254.1611465602 -49631.38453978143 430633.8118981936 832136.1744944013 370945.5217926913 -84787.66262302971
          413078.1581814429 832230.1676700386 360636.88243882236 -119943.940706278 395522.504464692 832324.1608456761
          -1337106.7143593573 -581620.2535137364 -1413510.0056467678 -534087.9112049566 -1489913.2969341786 -486555.56889617676
          -1934266.2963252468 -537457.7419269946 -323399.7243032878 -2788541.94105255 -1941013.388734873 -530484.0676192804
          -450653.82293412136 -3017340.7274300884 -1947760.481144499 -523510.39331156615 -577907.9215649548 -3246139.5138076264
          842486.7537805793 1790048.9036182088 782177.1105931116 1739142.9594019246 721867.4674056439 1688237.0151856402
          1783011.2833446723 3822912.3241045303 3945095.546010328 1253096.5397004355 1810707.1803010819 4130646.720529537
          3870229.7841491313 986221.9226301727 1838403.0772574912 4438381.116954544 3795364.022287934 719347.3055599099
          2311455.0660165315 2608387.5893117613 1977278.1141434778 2099700.263063213 2417891.8857197417 2596594.7949411897
          2100720.9870505324 2271399.5840465217 2524328.705422952 2584802.000570618 2224163.859957588 2443098.905029831
          -3285609.2504265276 -2009468.4158862573 -3323401.5631982563 -2104013.4336884455 -3361193.8759699855 -2198558.451490634
          -768344.6922050836 3050688.1819789857 4701173.165291865 2658811.893367297 -802007.5688798112 3177162.4274248304
          4593762.682968771 2622148.3681953005 -835670.4455545386 3303636.6728706746 4486352.200645678 2585484.843023304
          1402504.7168275774 1486916.1606137808 3041398.813614805 1371104.8566886233 1423830.3760264 3162584.3662796724
          1339704.9965496687 1360744.591439019 3283769.918944539 3256721.2260110844 2602751.7101973603 1460648.3685905878
          3192188.1923417794 3143912.4986914666 2646116.9286587173 1548065.0916451528 3049907.758949603 3031103.771371849
          2689482.147120075 1635481.8146997183 2907627.325557426 162536.12550754627 -72184.12043961603 461551.2340520943
          -92923.22416905695 53298.30346527856 36543.66342909665 563189.5853937224 -191482.27391573664 -55939.518576989125
          145271.44729780935 664827.9367353504 -290041.3236624163 -170133.14409907517 -122290.5722693688 -74448.00043966246
          1855655.445886397 2758508.5988526656 1299783.062977253 1879154.6550161783 2868359.992012817 1467111.5867930928
          1902653.8641459595 2978211.3851729683 1634440.1106089326 1399119.8827208383 414244.45300426317 1307113.830364723
          524976.8233773018 1215107.7780086077 635709.1937503405 518090.1166326253 1376081.5217294877 2283014.3774151197
          2158433.3634217945 561126.7851307124 1398660.7080610436 2292852.3089133874 2211745.190678594 604163.4536287994
          1421239.8943925998 2302690.2404116546 2265057.0179353934 -647379.6091657153 -4508077.003080915 -5755196.337140661
          -3900762.1494713984 -910924.9943874334 -4826192.238814827 -6092013.089303527 -4300768.045944964 -1174470.3796091513
          -5144307.47454874 -6428829.841466391 -4700773.942418529 3549845.962243769 1931511.0131179201 3375649.4076331025
          3594393.4945556354 1974964.6734217068 3453731.8909566384 3638941.0268675024 2018418.3337254936 3531814.374280174
          -3515491.5363151603 4568974.75484699 -3398192.876074678 4537103.085453968 -3280894.215834195 4505231.416060944
          309141.92273179704 870617.0479105769 -1040936.1861223686 -709487.4331457481 277327.11451571446 895058.428213009
          -1074547.1251239416 -849052.1980467599 245512.30629963204 919499.8085154411 -1108158.0641255144 -988616.9629477714
          2367105.25591929 1529013.9624379668 2374898.3616762646 1618182.094469646 2382691.4674332393 1707350.226501325
          -409736.3078931434 -818918.1524648691 -336603.1566367514 -807383.3134152838 -263470.00538035936 -795848.4743656984
          1452162.3283827985 1715515.9502291235 1369324.9165266564 1754244.5668730524 1286487.5046705147 1792973.1835169815
          -2513685.328557535 -3435664.555256356 -3555980.453722027 -2282706.968334477 -2579308.209873659 -3520597.1292671654
          -3571491.345360047 -2259273.55221501 -2644931.091189783 -3605529.7032779753 -3587002.2369980672 -2235840.136095543
          1779607.3286059943 -2503923.4247906455 1822780.4132334813 -2891080.1466926835 1865953.4978609683 -3278236.868594721
          -1057715.8226689624 -1039311.2133343765 -1020906.6039997906 1488455.2348102196 2188913.462656267 1512077.6409169557
          2211805.5510209305 1535700.047023692 2234697.6393855936 429749.790311535 910352.3099838572 179407.61994945403
          453314.0647300834 895687.4192804537 45183.78536330242 476878.3391486318 881022.5285770503 -89040.04922284934
          -1605013.1546983696 -1464593.699743142 -2643654.5838868236 -1535550.3991570126 -1337249.1724365482 -2610044.6686892165
          -1466087.643615655 -1209904.645129955 -2576434.753491609 2750930.350165936 3033468.0073398156 3316005.664513695
          5347330.58033129 5698149.0919785295 6048967.603625769 56267.227181000926 344597.9682609957 -52043.62674903215
          333929.02216529904 -160354.4806790651 323260.0760696024 -386115.77014709543 -174203.42008749762 37708.92997210019
          -2155457.0343039148 1195475.6029052339 104051.98531011574 -2161002.2498622993 1272172.9187884931 62541.07323115331
          -2166547.465420684 1348870.234671752 21030.16115219117 -145836.35208839894 898921.4561727612 -322656.90669622715
          728926.3645873822 -499477.4613040551 558931.2730020031 -1236682.1763690487 -1097615.3941586686 -1630538.8022524996
          -1547095.75756753 -1337597.067708476 -1166953.8461300305 -1706341.599553655 -1659671.7442012676 -1438511.959047903
          -1236292.2981013923 -1782144.39685481 -1772247.7308350052 784555.2893679023 -268863.605285016 -10784.626093142295
          962672.1308169108 746543.8277416525 -246856.7452542726 -12637.023399769798 892354.8592106288 708532.3661154025
          -224849.8852235293 -14489.42070639733 822037.587604347 1565022.2606247347 823875.891976457 -190844.4869716405
          1589321.5035384973 783259.1874485735 -347557.3163291105 1613620.7464522598 742642.4829206901 -504270.1456865805
          2730319.304666791 2821668.3411430665 2913017.3776193424 467102.2289621905 324225.59590014134 181348.96283809212
          -455581.6042018766 -1272710.8055254265 -400650.4930350219 -1151573.2762977674 -345719.38186816714 -1030435.7470701085
          -280001.99197178683 -657428.7961030857 -298281.7887204946 -613282.1520476846 -316561.5854692023 -569135.5079922836
          3999082.7377707493 4119197.2646966125 4239311.791622476 294051.94737050013 -188178.75942094982 1277970.5950388517
          1354137.8522303088 337176.45929159655 -233810.03514559325 1275410.4152042225 1437481.6441464014 380300.97121269297
          -279441.31087023654 1272850.2353695938 1520825.4360624945 -399362.2696854656 -446092.9255020852 -492823.5813187049
          -168001.73691244575 -118800.2233106709 -69598.70970889623 -1784350.7347215198 -3517666.738342587 -1803973.4649641323
          -3601131.4412235627 -1823596.1952067448 -3684596.1441045385 -748388.1948497072 -834052.9334264859 -919717.6720032648
          -3908952.350951001 -2442659.1810156303 -3917242.699137347 -2395587.9045500606 -3925533.0473236926 -2348516.62808449
          -3935183.7132796776 -4727092.123569341 -5519000.533859006 -1347851.6648488536 -1036823.326649802 -1315085.6257469135
          -1007782.0104082718 -1282319.5866449736 -978740.6941667413 -1041260.106938069 -1027765.6133305104 -1014271.1197229518
          763343.778825944 755078.8855367752 746813.9922476062 -903135.2829610168 -883476.3434232688 -863817.4038855208
          -3224468.224805991 -2089391.177031078 -3665298.604115987 -2439180.1760025835 -4106128.983425984 -2788969.1749740886
          78662.31179635221 145199.6618328416 211737.01186933095 -2544876.8160683224 -854914.3851091512 -2721990.3987361547
          -922506.1688424245 -2899103.981403987 -990097.9525756979 4232373.109163652 1368638.3419902418 2314387.6210430595
          4174228.9614597107 1235097.2501386537 2112547.5262562796 4116084.8137557684 1101556.1582870656 1910707.4314694994
          1839691.9066004667 1556029.044231713 1956189.4647813563 1849778.365779552 1558092.7094384867 1916188.8218480349
          1859864.824958637 1560156.3746452602 1876188.1789147132 1938804.448068036 3892376.7275475804 1978766.3110088075
          4096432.7401409885 2018728.1739495797 4300488.752734398 801588.1459987931 929786.3647914485 437385.1328434559
          910432.6414640155 942809.572219441 474142.5454845988 1019277.136929238 955832.7796474334 510899.9581257418
          -643534.404002251 301931.2903328656 -702479.9600046573 313830.92588217644 -761425.5160070637 325730.56143148727
          421464.98398122424 410375.3891632277 399285.794345231 801799.6267816629 1781240.9891716084 762747.4819503308
          1791977.613734072 723695.3371189989 1802714.238296536 2606693.4220736464 2354554.5309666973 2575502.149902554
          2212014.200997986 2544310.877731462 2069473.8710292745 134769.77717600355 453352.09233580786 -82810.17887977546
          279006.9421175952 -300390.13493555447 104661.79189938266 -918934.3020860928 -848445.5436849417 -777956.7852837904
          609647.0230489103 197159.5886843385 666311.593213582 242083.3974495948 722976.1633782536 287007.2062148512
          944945.0859633414 1018059.8763589598 1091174.6667545782 673630.0682347697 763325.4703389036 853020.8724430373
          1533730.65486413 1634893.3676403689 1736056.0804166077 955817.8611208913 1114222.7912992197 1272627.7214775481
          -481620.5779389837 -405999.04058967927 -330377.50324037473 -1339273.653545511 1047497.5328697918 -1446803.906335113
          1364598.497269632 -1554334.1591247148 1681699.4616694723 66596.72957503522 -289686.54519377346 34027.69167470393
          -278705.68956586946 1458.6537743726221 -267724.83393796533 -3409533.9825791186 -3459849.9856457207 -3510165.988712322
          329675.5931852543 351092.22041470645 372508.84764415846 -721025.943987604 -679438.3005672537 -637850.6571469031
          1562445.9352023979 1549443.174652804 1536440.4141032095 515088.83021033084 926225.3125459494 1337361.7948815678
          -1303943.8654033141 -1294158.1939933314 -1284372.5225833482 2724877.202215561 1997586.738051424 2742055.7576588923
          2083539.7183741773 2759234.3131022244 2169492.698696931 1948278.5332852148 1957532.6138786306 1966786.6944720463
          1006750.5889300008 1522028.3233355072 983212.3275017723 1360403.2126273597 959674.066073544 1198778.1019192126
          1183994.5166484986 694468.7981907937 926829.0383357706 1148356.4917074784 698904.8773435267 901681.0179078542
          1112718.4667664585 703340.9564962597 876532.9974799379 564548.880843666 553317.1472002184 542085.4135567708
          1573534.2381640356 1597696.8557065476 1621859.4732490594 542312.1181073596 1694566.6367282635 560319.2347976726
          1772307.949274122 578326.3514879855 1850049.26181998 2085261.7632094803 2889909.504267939 2122302.7727578236
          2932796.194593824 2159343.7823061673 2975682.8849197095 3744774.095007363 3870942.606749912 3997111.118492461
          3028027.168628784 4209761.691080669 3001413.7770551913 4350982.72899631 2974800.3854815983 4492203.766911954
          -4244712.415244071 1035612.7648889085 -2017061.1246254572 -3927373.263258478 -4364795.443722867 1452614.7449088588
          -1979127.8547237366 -3881134.530436497 -4484878.472201665 1869616.724928809 -1941194.5848220163 -3834895.797614516
          -896719.9149669915 -832315.3917203222 -767910.868473653 -1942653.747435188 -1850457.0374351898 -1758260.3274351927
          -47628.58623448215 -289623.48864767427 -163605.60639187106 -520079.33561541204 -279582.62654926005 -750535.1825831499
          509290.48968735477 557735.0023307331 606179.5149741113 9012.556370416773 330991.258323353 74822.01415048106
          163084.56960312987 140631.47193054538 -4822.119117093243 -2419379.9628349994 -3520336.849864313 -2419389.4483718327
          -3654535.902145816 -2419398.933908666 -3788734.954427318 655928.5461402462 739411.7558002205 822894.9654601945
          3373976.969374909 4522809.292652462 3577909.935401715 4811261.909588543 3781842.9014285207 5099714.526524624
          -3860690.838049241 -3481316.4337320123 -2425841.5486907233 -3169918.217927096 -3912073.0536046773 -3406547.1697988072
          -2365881.457780803 -3286356.6019639694 -3963455.269160115 -3331777.905865602 -2305921.366870882 -3402794.9860008433
          72342.6758442358 62700.22348512813 53057.77112602048 -2774010.097946576 -4346265.914149706 -2802678.485893286
          -4213614.90646982 -2831346.8738399954 -4080963.8987899325 418331.49348637904 3803674.626092872 400753.88688875205
          4000551.5319305193 383176.28029112506 4197428.437768166 3854642.688589504 3976630.176561766 4098617.664534028
          1735409.3290679897 1744754.6520880419 1754099.9751080943 -268958.0100884125 -332761.91396854835 -396565.8178486842
          -1866770.7776489123 -1944258.0880905613 -2021745.39853221 -3641848.1252025357 -3751825.6443411577 -3861803.16347978
          -1336592.902142671 521559.1133419036 -1361440.961492883 403111.7046778557 -1386289.0208430947 284664.29601380776
          -1828248.7150886874 -1909788.222852552 -1991327.7306164165 2343578.358041613 3083259.8047386594 3822941.251435706
          976317.2738139257 930726.4598692034 885135.645924481 1192584.5405860844 1152099.93139253 1111615.3221989758
          -4696703.838201465 -4725234.998128609 -4753766.1580557525 1949154.0275571612 1996936.8405266663 2044719.6534961709
          3273495.3525090986 3167426.9750498957 4714625.121462996 3215855.8630505474 3181736.30750966 4748572.601156508
          3158216.3735919967 3196045.6399694243 4782520.080850018 891775.6119584143 1349720.945905481 1807666.2798525472
          175402.46213028213 1290393.7256416858 -15485.225656137118 1030482.6053322022 -206372.9134425564 770571.4850227182
          -3277458.558189272 -3360693.6556972386 -3443928.7532052062 -3867997.241595176 -3854956.376524684 -3841915.511454193
          5600899.287942526 5553532.044040379 5506164.800138231 -4648762.513561436 -4586929.300259831 -4525096.086958227
          -99601.36646210516 519052.53419237153 -26505.452726915046 556600.454029915 46590.461008275044 594148.3738674583
          -4360118.921020166 -4392837.188632856 -4425555.456245547 -2346609.867767265 -2460506.514206456 -2574403.160645647
          -3399607.385097327 -3852248.1710489723 -4304888.957000618 -124469.21844029502 -112453.0268240324 -100436.8352077697
          913333.2319543675 927826.7182433604 942320.2045323533 3384372.4657738693 3650357.6529874927 3916342.8402011152
          1406285.2130372105 1093038.2966286715 1233788.246098678 1034850.4068092817 1061291.279160146 976662.5169898918
          -1316734.5367879025 -1382881.1503021545 -1449027.7638164063 -1603121.3095333527 -798703.5574699149 -1615610.373715065
          -796510.5823409518 -1628099.4378967774 -794317.6072119887 717927.8241184923 742761.2044502286 767594.5847819648
          -56236.80998570027 -78976.12471578123 -101715.43944586221 -1512260.6623160378 -1556252.0563304753 -1600243.4503449132
          -1295452.6754849441 -2115278.920850539 -1124232.3524829051 -2068079.6470738505 -953012.029480866 -2020880.3732971617
          -1485907.6873485192 -1472761.2027807005 -1459614.718212882 -1928436.8929564555 -2023592.696944587 -2118748.5009327186
        </DataArray>
        <DataArray type="Float64" Name="peeq" format="ascii" RangeMin="0.002347500664691071" RangeMax="0.00999008648805302">
          0.00563354663130277 0.005507505426262709 0.0049371019967929496 0.005172484730606174 0.005632818336451648 0.005506663908836118
          0.004936541710364844 0.005172133165097687 0.005632090041600528 0.005505822391409525 0.004935981423936738 0.0051717815995892
          0.00739145012359769 0.00708748509312372 0.007136473696218063 0.007441435899684571 0.007390067658997065 0.007087566619412832
          0.007137005021769883 0.007440999717007156 0.007388685194396441 0.007087648145701943 0.0071375363473217025 0.007440563534329743
          0.0037136023741589285 0.004256662115375855 0.0037132871424200593 0.0042569606779819 0.003712971910681191 0.0042572592405879465
          0.008710369171902047 0.008841321375534214 0.008293876719788344 0.008320919410561296 0.008710468343235469 0.00884053630203054
          0.008292053839914677 0.008318351808602254 0.008710567514568892 0.008839751228526864 0.008290230960041008 0.008315784206643213
          0.0072479238229905055 0.007570749637768702 0.007249770324534389 0.007571693354001418 0.0072516168260782716 0.007572637070234133
          0.005983857265763478 0.005738772752203744 0.005821398113582189 0.0060989283577539445 0.005982452346331696 0.005741053485253781
          0.005818303824683952 0.0060901426701566955 0.0059810474268999145 0.005743334218303815 0.005815209535785713 0.0060813569825594474
          0.008204617538795127 0.008805404745287229 0.008416824075711971 0.007894683098974608 0.008202479736944181 0.008799650458078415
          0.008413029545531567 0.007893553218721809 0.00820034193509324 0.008793896170869602 0.00840923501535116 0.00789242333846901
          0.005403323258319807 0.005761548880558157 0.005403653382321806 0.005761277715416942 0.005403983506323805 0.005761006550275729
          0.006129543172043013 0.005837064096236164 0.0070912907385427566 0.007183543593429614 0.006123174747881023 0.0058313277492928264
          0.007086496772839801 0.007179697246249968 0.006116806323719034 0.005825591402349488 0.0070817028071368466 0.007175850899070322
          0.00636089763147992 0.006447756397509115 0.006889355369625424 0.006359146471946093 0.0064460891978804944 0.006888398906514137
          0.006357395312412265 0.006444421998251873 0.00688744244340285 0.009545368375208686 0.009874254139892302 0.009718159047698089
          0.009437303572519188 0.009536765777825439 0.009867404315042488 0.00971030262703483 0.009428245547639045 0.009528163180442193
          0.009860554490192675 0.009702446206371573 0.009419187522758901 0.006972614568397619 0.007338006491458632 0.006906726033948225
          0.006730297213987795 0.00697088301499852 0.007337413971514481 0.0069071810597976955 0.0067298533062902476 0.00696915146159942
          0.00733682145157033 0.006907636085647166 0.006729409398592701 0.008468822658622336 0.008469230830023818 0.008469639001425304
          0.006060450394727912 0.00587748270944509 0.005653448564909798 0.006060875949707912 0.005878661404903901 0.005655895305873555
          0.006061301504687912 0.005879840100362711 0.005658342046837313 0.007140828853878541 0.00766372106257503 0.007137857396349761
          0.007662586301351169 0.00713488593882098 0.007661451540127308 0.009120324517332287 0.008788784909580622 0.009063248464908856
          0.009457135739826691 0.009121502178496214 0.008791027029665572 0.009064920666652572 0.009457001418163727 0.009122679839660142
          0.008793269149750522 0.009066592868396289 0.009456867096500763 0.004492173151903258 0.004999232767868244 0.0039016698656735155
          0.003064019623185946 0.004485770249579451 0.004991123034022112 0.003895777979850524 0.0030656080638090458 0.004479367347255643
          0.004983013300175979 0.0038898860940275322 0.0030671965044321457 0.008045382709359264 0.007850598452755845 0.00773411694485037
          0.008048082056279292 0.007851598663040523 0.0077371938540044954 0.008050781403199318 0.007852598873325201 0.007740270763158623
          0.002347500664691071 0.004219815720101116 0.0023556597039760207 0.004214413018463098 0.00236381874326097 0.00420901031682508
          0.006992923397613095 0.007014230972564102 0.007616748776178356 0.00786140557451633 0.006989517900892356 0.0070126907425764355
          0.007613494161414539 0.007854861001020497 0.006986112404171617 0.007011150512588769 0.007610239546650722 0.007848316427524666
          0.008407500073142664 0.008155148558485849 0.008410246645135646 0.00815608149973073 0.008412993217128625 0.00815701444097561
          0.005525887839030492 0.005827957445688379 0.005520398991126357 0.005821312678197919 0.005514910143222223 0.005814667910707461
          0.008072422284914886 0.007394141681245707 0.008067448027457508 0.007392768848532395 0.008062473770000128 0.007391396015819084
          0.005849154176319172 0.005569769145983501 0.005523006973915557 0.005909745015237144 0.005850004468377994 0.005570949434236312
          0.005524707909058049 0.005911707896871697 0.005850854760436817 0.0055721297224891235 0.00552640884420054 0.005913670778506252
          0.005538872333181457 0.005267172486863793 0.0055400993222909384 0.005266819110727515 0.005541326311400421 0.0052664657345912365
          0.005165652645605247 0.005160113835514532 0.0051545750254238165 0.0063996905199126125 0.006324857078831793 0.006401582475700728
          0.006325886838030831 0.006403474431488844 0.00632691659722987 0.0062238818802252795 0.006162899509712018 0.00611780281881791
          0.006222500465637921 0.006161729064337831 0.006112059185434506 0.006221119051050561 0.006160558618963646 0.006106315552051102
          0.00559639497679196 0.005796661744160955 0.004769522518548995 0.005591348652849805 0.0057939746468829625 0.004763514102198309
          0.005586302328907649 0.005791287549604968 0.004757505685847623 0.005379950511517171 0.005384497349768827 0.005389044188020484
          0.005686353820587837 0.005680808468443985 0.005675263116300131 0.007764299562693462 0.007871365301863054 0.007760409961984703
          0.007866584623859203 0.007756520361275943 0.00786180394585535 0.005991885830735899 0.00599028843924372 0.00598869104775154
          0.005318489851943244 0.005601618708772904 0.006113523713011269 0.00532141274660454 0.005605313655410758 0.006112806917093009
          0.005324335641265834 0.005609008602048613 0.006112090121174748 0.008441578949565659 0.00868299735072034 0.008432967785724884
          0.008674763128349385 0.008424356621884111 0.008666528905978436 0.0036369445507136917 0.0032245057059354944 0.0032538946606703867
          0.0038198986196594526 0.0036362465208401923 0.0032248773056075455 0.003255119026733696 0.003819535362308984 0.0036355484909666932
          0.0032252489052795974 0.0032563433927970055 0.0038191721049585163 0.005251500647186608 0.0045674143006906595 0.004733819993691881
          0.005388826467674043 0.005251207364030972 0.004567486492513753 0.004733380874828466 0.0053879593829673144 0.005250914080875335
          0.004567558684336849 0.004732941755965052 0.005387092298260585 0.00749449982353843 0.0070940566190633575 0.007524233723104976
          0.00749234467655768 0.007092481035235151 0.007521087002246154 0.0074901895295769304 0.007090905451406946 0.0075179402813873334
          0.0061011978558165965 0.006102400130054676 0.006103602404292757 0.006049615191629446 0.006040229225689609 0.006030843259749771
          0.002847928135487662 0.002668758802107505 0.0028509706792463423 0.0026727019649671604 0.0028540132230050227 0.002676645127826816
          0.0039189520549490426 0.004427241037342441 0.003919196895382017 0.004427780804019782 0.00391944173581499 0.0044283205706971245
          0.005901024659105046 0.005903659152968246 0.005906293646831446 0.0061475594829230205 0.006526157381629656 0.0064846340601129905
          0.0059640240435032 0.006148802428379218 0.006526860099173363 0.00648405933738024 0.005963973978763224 0.0061500453738354156
          0.006527562816717067 0.006483484614647491 0.0059639239140232446 0.006956748668320079 0.006955850796695303 0.0069549529250705275
          0.006109236683419914 0.006110578063046287 0.006111919442672662 0.006373350853327255 0.005797251128066764 0.00637284973300267
          0.005796444729586358 0.006372348612678085 0.005795638331105952 0.004896143074629477 0.00490117051266379 0.004906197950698105
          0.00557379578684632 0.006038680359301336 0.005574593111352957 0.006040607659398865 0.0055753904358595945 0.006042534959496398
          0.004858759327847775 0.004859122361356061 0.004859485394864345 0.0062449397787050056 0.006325570237809036 0.006246097491616141
          0.006327445853397352 0.006247255204527277 0.006329321468985668 0.00617642198885675 0.00617731550999976 0.006178209031142775
          0.0058917545842535335 0.005890756328559171 0.005889758072864806 0.006471898132451496 0.00647469064829986 0.006477483164148223
          0.004437157657189588 0.0048696334542220766 0.004437760501022519 0.004870428529893244 0.00443836334485545 0.004871223605564412
          0.006809654076429635 0.006811426647808619 0.0068131992191876045 0.0076488909112926206 0.00754276484300699 0.007646148956795933
          0.0075407495433160755 0.007643407002299245 0.007538734243625161 0.008878465074324039 0.00920756708220039 0.008853464796254717
          0.008872491347558149 0.009199247443290337 0.008848100403952749 0.00886651762079226 0.009190927804380283 0.008842736011650781
          0.009893174609089452 0.009717341842167364 0.009626137629889814 0.009888959989867732 0.00971583698417012 0.009623152844329238
          0.009884745370646009 0.009714332126172877 0.009620168058768662 0.0043940764030203005 0.005142500662027953 0.004397808462986293
          0.0051471623813206715 0.0044015405229522854 0.00515182410061339 0.007697872220041271 0.0075550209836759705 0.007497696278306675
          0.007696308354760126 0.0075520084850426855 0.007496136652216517 0.007694744489478978 0.007548995986409401 0.0074945770261263586
          0.00788914436631579 0.007664729979763455 0.007886985150701966 0.007663735608712025 0.007884825935088139 0.007662741237660596
          0.004836068586929934 0.0048362520910727735 0.004836435595215613 0.009798884120098526 0.00999008648805302 0.009797051725225003
          0.009986435040153497 0.00979521933035148 0.009982783592253972 0.009927354565941456 0.009585624047719194 0.009921078688520173
          0.00957742415772394 0.009914802811098888 0.009569224267728688 0.008851391395753298 0.009158046777667381 0.008842123742089682
          0.009148288701604081 0.008832856088426065 0.009138530625540785 0.008085254708628014 0.008081537250483812 0.00807781979233961
          0.00941355483842186 0.009340311005451261 0.009412788869735568 0.009340191150801928 0.009412022901049276 0.009340071296152592
          0.008872273760039618 0.0088706872579171 0.008869100755794581 0.006747294957900189 0.006748564460256158 0.006749833962612129
          0.008238807715145138 0.00823708476610955 0.008235361817073964 0.006613020988320926 0.006615491850476091 0.006617962712631258
          0.006629887081148152 0.006631692424456312 0.006633497767764471 0.0077169093851148975 0.007573025344629983 0.0077180428409738535
          0.007575425355182465 0.007719176296832809 0.007577825365734947 0.0068790591080232655 0.006745928922548474 0.006881772742304007
          0.0067475496186997445 0.00688448637658475 0.006749170314851015 0.00512444116542684 0.005125398047620016 0.005126354929813191
          0.005102453728767598 0.005102822288086594 0.00510319084740559 0.006674814694943357 0.00667614537885197 0.006677476062760584
          0.00640576693725456 0.006406560026774687 0.006407353116294813 0.004127578940183149 0.004134975987262847 0.004142373034342544
          0.003684057735882799 0.003687513456574666 0.0036909691772665327 0.008204208502436782 0.007614710360973793 0.008203994001285662
          0.007617383351471932 0.008203779500134541 0.007620056341970074 0.008781099210655237 0.008778015139756868 0.008774931068858497
          0.009431626883717428 0.009083097667608035 0.009422320683057076 0.009073591164755706 0.009413014482396722 0.009064084661903376
          0.005772694239056094 0.006228313272909267 0.005611405681779417 0.005771583194722099 0.006227228062354989 0.005610976430183087
          0.005770472150388105 0.006226142851800711 0.005610547178586759 0.005434802436947459 0.005435404155572714 0.005436005874197969
          0.009280402913853635 0.009275068238183826 0.00926973356251402 0.007073402063409906 0.007097878855403401 0.007073789750622261
          0.00709809870865763 0.007074177437834615 0.00709831856191186 0.00923546515760391 0.008755539668084254 0.009234660597374683
          0.008756993024640853 0.009233856037145455 0.008758446381197455 0.008251117825636891 0.008254634672937512 0.00825815152023813
          0.008620304128289409 0.008194402366861642 0.00862341927565526 0.008198647252014185 0.008626534423021108 0.008202892137166727
          0.003016573351768683 0.003389210060640501 0.003306595440607575 0.002892273248927799 0.003023418347947971 0.003398340701053368
          0.003312895166789681 0.0028992622545069395 0.003030263344127259 0.0034074713414662342 0.0033191948929717874 0.00290625126008608
          0.00409833723310992 0.004098863812328081 0.004099390391546242 0.004572156832567308 0.004578887424459645 0.004585618016351982
          0.006504426779201977 0.006519461270370261 0.006502397321681095 0.006518135500305503 0.006500367864160215 0.006516809730240744
          0.007146159506604287 0.0071498681720821786 0.007153576837560069 0.007803562897988627 0.0076588455524342096 0.007800959774387132
          0.007653729468859169 0.007798356650785637 0.007648613385284128 0.005360570436251524 0.0043723487489382255 0.0053529704536505645
          0.004365569473514903 0.005345370471049607 0.004358790198091581 0.006041956262360417 0.006042509508624016 0.006043062754887615
          0.007786993363792693 0.007892619546123254 0.007791908702377965 0.007897469899374862 0.007796824040963237 0.007902320252626471
          0.004515673169681306 0.00477346760432411 0.004397705506502645 0.004012315141693583 0.004516110492110791 0.004774070979208556
          0.004398264889263789 0.004013031850637081 0.0045165478145402765 0.004774674354093001 0.004398824272024933 0.004013748559580579
          0.006490347313236298 0.006487066748407278 0.006483786183578259 0.003478024209470325 0.0029790222665651307 0.0034801276448357303
          0.0029839125536861855 0.0034822310802011354 0.0029888028408072403 0.007254644751581603 0.008098439672842727 0.007251145683796526
          0.008095803459159175 0.00724764661601145 0.00809316724547562 0.008138116523841693 0.008133735515669795 0.008129354507497894
          0.007248033919526935 0.007245928401361788 0.007243822883196642 0.006461425771486532 0.006456380907928252 0.006451336044369973
          0.0038485189893107865 0.00385260904918475 0.0038566991090587133 0.00267901132535395 0.002683529557640713 0.0026880477899274774
          0.0063530159201476465 0.007248280299668526 0.006346635542139059 0.0072447468575677024 0.00634025516413047 0.0072412134154668795
          0.003327755557255314 0.0033293280418020235 0.0033309005263487323 0.0036855139347695375 0.003692477296646967 0.003699440658524398
          0.007517638140588976 0.007513435857870952 0.007509233575152929 0.009624889467362582 0.009618560583153931 0.00961223169894528
          0.0026246861010323207 0.00262967916204386 0.002634672223055399 0.00744566103393208 0.007449666203513457 0.007453671373094835
          0.009002319944917805 0.00895754741340955 0.008161480613870245 0.008995444228301015 0.008950901699723644 0.00815616811885482
          0.008988568511684223 0.00894425598603774 0.008150855623839394 0.003909974530466664 0.003919252998026014 0.0039285314655853635
          0.0077067199344933906 0.00752381924702616 0.007700647446688182 0.007518511058297032 0.007694574958882974 0.007513202869567904
          0.004450233427029688 0.00445285920715548 0.004455484987281271 0.005154534275259622 0.005155507296061868 0.005156480316864114
          0.007042948843516861 0.0070375935373878235 0.007032238231258786 0.0028576968089700193 0.0028621335602102187 0.002866570311450418
          0.004319059071528501 0.004955627195457502 0.004319637320065398 0.004956210699965397 0.004320215568602295 0.004956794204473295
          0.005055576458356084 0.005056047640369571 0.005056518822383057 0.0023651475272592135 0.0023682430318684986 0.002371338536477784
          0.007958594844965217 0.007956820463984937 0.007955046083004657 0.00788083370033521 0.007876754718604839 0.007872675736874467
          0.009795735506007928 0.009789589338090912 0.0097834431701739 0.00721036466410777 0.0072095148361988595 0.007208665008289947
          0.007447177045260324 0.007377028121078929 0.007443204388675603 0.007374717882879435 0.007439231732090882 0.007372407644679941
          0.008054235686278957 0.008051167161765693 0.008048098637252426 0.007431808236759383 0.007432993728426623 0.007432446054410005
          0.007432804314339769 0.007433083872060626 0.007432614900252915 0.007596179666160495 0.007595175004646239 0.007594170343131984
          0.007452159320521365 0.007452366022524937 0.0074525727245285086 0.007606508373412715 0.0076049349486502615 0.007603361523887808
          0.00702677264776688 0.007088382524776135 0.007031699529764518 0.007093169939764889 0.0070366264117621554 0.0070979573547536425
          0.007412584418057955 0.007414226330961778 0.007415868243865601 0.0076228227892359696 0.007622981202791526 0.007623139616347081
        </DataArray>
        <DataArray type="Float64" Name="pe11" format="ascii" RangeMin="0.0023430205337583213" RangeMax="0.009986891940522494">
          0.00563278096348821 0.005506883387470699 0.004936358311309348 0.005171252440714748 0.005632030603375641 0.005506030434906846
          0.004935777638520057 0.005170856516874564 0.00563128024326307 0.005505177482342994 0.0049351969657307655 0.005170460593034378
          0.007389968168834101 0.007085746219171329 0.007132889803649086 0.007437857774885734 0.007388546157382511 0.007085772925862268
          0.007133356782895878 0.007437365318335326 0.007387124145930926 0.0070857996325532045 0.007133823762142669 0.00743687286178492
          0.0037131560780508965 0.004256218866640974 0.0037128309119042724 0.004256507471991362 0.0037125057457576484 0.004256796077341751
          0.008703555060191616 0.008834449849846708 0.008288009175867712 0.008315619946863036 0.008703506480371881 0.008833528707429542
          0.008286123403909574 0.00831287064212193 0.008703457900552145 0.008832607565012376 0.008284237631951435 0.008310121337380825
          0.007241635750706321 0.007564506992209886 0.007243426354733844 0.00756540627879624 0.007245216958761365 0.007566305565382594
          0.005980837991413214 0.005734226413872167 0.005817573710859109 0.0060976813356800955 0.005979370479328137 0.005736493281157623
          0.0058144072922078315 0.006088774390528364 0.005977902967243061 0.005738760148443077 0.005811240873556555 0.006079867445376633
          0.008201908106620687 0.008801806115095004 0.008412212876355775 0.007891899786356944 0.008199790934050188 0.00879603465416519
          0.008408450913587492 0.00789081324316229 0.008197673761479687 0.008790263193235377 0.008404688950819209 0.007889726699967636
          0.005401129693299319 0.005760188892301168 0.005401375778582482 0.005759872451325767 0.0054016218638656445 0.005759556010350365
          0.006124760860998519 0.0058320760104460185 0.0070883510301961205 0.0071810092409372184 0.006118510203429085 0.005826378954441007
          0.007083592636590628 0.0071772097326216495 0.006112259545859654 0.005820681898435995 0.0070788342429851355 0.007173410224306082
          0.0063603134022025345 0.006447163101555613 0.006888588656827529 0.006358575890421026 0.006445503821997246 0.006887627286457694
          0.0063568383786395165 0.006443844542438878 0.006886665916087857 0.009544532331713106 0.009872591799512283 0.00971543715329254
          0.009435361425531318 0.009535933731599172 0.009865682760607607 0.009707523449898376 0.009426283306453176 0.009527335131485239
          0.009858773721702931 0.00969960974650421 0.009417205187375037 0.006970340325369924 0.007333146944416689 0.0069005634811724025
          0.006727404161121221 0.006968652905197221 0.007332609561836585 0.006901107201789272 0.00672700411665114 0.006966965485024516
          0.007332072179256481 0.006901650922406141 0.00672660407218106 0.008461705484095089 0.008462011480648427 0.008462317477201768
          0.00605712691429536 0.0058723783830977455 0.005647442557516329 0.0060575122765117 0.005873562709337384 0.0056498552343549995
          0.00605789763872804 0.005874747035577023 0.005652267911193672 0.007139253104691982 0.007660473199823753 0.007136301617214385
          0.007659369758631696 0.007133350129736784 0.007658266317439635 0.00911242472780334 0.008779997149587661 0.009053949022938896
          0.009449202090455567 0.009113479827430779 0.008782154229306192 0.009055537671789113 0.009448958973570338 0.009114534927058217
          0.008784311309024724 0.00905712632063933 0.009448715856685108 0.004485797689160092 0.004992564419792673 0.0038927729447694624
          0.0030566918013141013 0.004479438547223402 0.004984594586882656 0.0038867436733344713 0.003058086843963808 0.00447307940528671
          0.004976624753972639 0.0038807144018994794 0.0030594818866135154 0.00803610417748053 0.00784414047234851 0.007724915099021696
          0.008038783322011859 0.007845105546803045 0.007727980132215848 0.008041462466543189 0.007846070621257578 0.007731045165410002
          0.0023430205337583213 0.004214577566330612 0.0023509629215366762 0.004209082304277582 0.002358905309315031 0.004203587042224552
          0.006981323513830635 0.0070053277930919935 0.007609122728687256 0.007850379083159342 0.006977821833582254 0.007003837118359881
          0.0076059105304234305 0.007843797233516686 0.006974320153333874 0.007002346443627768 0.007602698332159605 0.007837215383874033
          0.008398295017324833 0.008148424982478171 0.00840099284624865 0.008149310526653106 0.008403690675172468 0.008150196070828043
          0.005522857818610296 0.0058260180847367945 0.005517226615022489 0.005819275275876103 0.005511595411434681 0.00581253246701541
          0.008059827009457066 0.007381686286600367 0.008054719215537834 0.007380158464617214 0.008049611421618601 0.007378630642634064
          0.005846378034386944 0.005566575393069262 0.005517390856641146 0.005904227792564008 0.005847153335575877 0.005567643686405302
          0.005518928632635196 0.00590607370379188 0.005847928636764809 0.0055687119797413415 0.0055204664086292475 0.005907919615019752
          0.005530082127718149 0.005257278438660631 0.00553141282705414 0.0052568475278276855 0.005532743526390131 0.005256416616994742
          0.005161418719926902 0.005155702633081069 0.005149986546235236 0.0063927006404064825 0.006315229551003118 0.006394738251864646
          0.006316367937714117 0.0063967758633228095 0.006317506324425119 0.006222496626637807 0.0061606590880333 0.006116465890957809
          0.006221083999497957 0.006159458690275135 0.00611061066224684 0.006219671372358107 0.0061582582925169705 0.00610475543353587
          0.005592756318916471 0.005794262803212337 0.004764000556698194 0.005587644108737043 0.0057914769634064625 0.0047578120235311685
          0.005582531898557615 0.00578869112360059 0.004751623490364143 0.0053724106605813424 0.005376998900010088 0.005381587139438833
          0.005681979029757225 0.005676382007660816 0.005670784985564407 0.0077634663192077 0.007870572266722192 0.007759598045949603
          0.00786581060149696 0.007755729772691505 0.00786104893627173 0.0059904184224626785 0.005988741717193027 0.005987065011923375
          0.005306153003120982 0.005590728976762768 0.006101927744761444 0.0053091592066770435 0.005594650207161179 0.0061011777929140506
          0.005312165410233105 0.005598571437559591 0.006100427841066657 0.00843302254068702 0.008673284932805368 0.008424422766423797
          0.00866497490892422 0.008415822992160576 0.008656664885043071 0.003636415200004504 0.0032240196606944157 0.0032534259287342396
          0.0038192984790977567 0.0036357062203068087 0.0032243872169396234 0.003254643613065151 0.003818918432588125 0.0036349972406091143
          0.00322475477318483 0.0032558612973960623 0.003818538386078494 0.005250934010527311 0.004566802366961555 0.004733223014781878
          0.005388217193341382 0.0052506410587924044 0.004566866780344464 0.004732774046493579 0.005387343536502558 0.005250348107057497
          0.0045669311937273725 0.004732325078205281 0.005386469879663734 0.007493582032738947 0.007093236958240883 0.007523582171987654
          0.007491423554949373 0.007091659953396915 0.007520436812539629 0.007489265077159798 0.007090082948552952 0.007517291453091604
          0.006096661558239035 0.006097946927210055 0.006099232296181077 0.006048602487808143 0.006039085740474335 0.006029568993140527
          0.0028472754397274903 0.0026683059539810727 0.002850304495806754 0.00267225065984218 0.0028533335518860174 0.0026761953657032872
          0.003918350811980357 0.004426609962040959 0.00391857662604891 0.004427137069144553 0.003918802440117462 0.004427664176248148
          0.005893413111423956 0.005896243120448633 0.005899073129473309 0.006146854889163868 0.006525267216439537 0.006483900522158653
          0.005963411444711779 0.006148084676045454 0.006525960316624747 0.006483321966469027 0.005963349121228091 0.006149314462927041
          0.006526653416809955 0.006482743410779401 0.005963286797744402 0.0069559798107365475 0.006955078525384285 0.006954177240032023
          0.006108530425916291 0.006109859848166766 0.00611118927041724 0.0063621982915441746 0.005785460974316838 0.006361527631670669
          0.005784485651343138 0.006360856971797165 0.005783510328369438 0.004884802450969135 0.004890042853466978 0.004895283255964822
          0.005564668389356509 0.00602962661076419 0.005565254147720009 0.006031391234069843 0.00556583990608351 0.006033155857375494
          0.00484790524808234 0.0048482198658939294 0.004848534483705519 0.006242648254746129 0.006320972642276511 0.006243772597249605
          0.006322787296317208 0.00624489693975308 0.0063246019503579035 0.006175262934039006 0.00617613828914374 0.006177013644248474
          0.005891215764896552 0.005890220316042756 0.00588922486718896 0.006463939221615532 0.006466634523461365 0.006469329825307197
          0.00442425195831027 0.00485811425688479 0.004424742594171951 0.004858865380968857 0.004425233230033633 0.004859616505052922
          0.00679940251965757 0.006801049371732733 0.006802696223807896 0.0076465045986882025 0.007540845657597385 0.007643664389269551
          0.007538767189096187 0.007640824179850899 0.00753668872059499 0.008876343853253015 0.009204689441393962 0.00885051240101378
          0.008870375928093144 0.009196331434616397 0.008845138326996599 0.00886440800293327 0.009187973427838834 0.008839764252979417
          0.009889075989455818 0.009711065589084952 0.009619322337313373 0.009884754055899218 0.009709411361473668 0.009616246027607607
          0.00988043212234262 0.009707757133862382 0.009613169717901842 0.004380605040812939 0.005132674587024672 0.0043845114442926485
          0.005137449237144827 0.004388417847772359 0.0051422238872649816 0.007696341570364168 0.007554229998696189 0.007496495001437375
          0.007694765985514196 0.007551214077962299 0.007494929416686628 0.007693190400664226 0.007548198157228408 0.00749336383193588
          0.007885272891804603 0.007661081547023939 0.007883034078691705 0.00766003020088937 0.007880795265578808 0.007658978854754804
          0.004835562341140088 0.004835727716633131 0.004835893092126175 0.009793462476870938 0.009986891940522494 0.0097914502914184
          0.009983106815150392 0.009789438105965862 0.00997932168977829 0.009926120828963962 0.009585075448370683 0.009919784065096977
          0.009576894537685815 0.009913447301229995 0.009568713627000949 0.008845305773236254 0.009150857265084918 0.008836022088504952
          0.00914104763679767 0.00882673840377365 0.009131238008510423 0.008079256917466806 0.008075590530698258 0.008071924143929713
          0.009406213246197585 0.00933301827461783 0.009405271076754061 0.009332741335788574 0.009404328907310536 0.00933246439695932
          0.008864706076637746 0.008863000327209145 0.008861294577780544 0.006746611025962555 0.006747873457381289 0.006749135888800022
          0.008231439262657663 0.00822975200219827 0.008228064741738875 0.006612327610396198 0.006614785936722664 0.006617244263049127
          0.006628885921391554 0.0066306737481759805 0.006632461574960407 0.007710858826656113 0.007565241695411994 0.0077120265755068005
          0.007567849033339225 0.0077131943243574875 0.0075704563712664565 0.00687234274435855 0.006742175007049356 0.006874991138092186
          0.006743744428752082 0.0068776395318258235 0.0067453138504548074 0.005113397133814507 0.005114230904288667 0.005115064674762828
          0.0051018929280288675 0.005102258747763891 0.005102624567498913 0.006672983555299012 0.006674280249678134 0.006675576944057256
          0.006402167043105346 0.006403029981304374 0.006403892919503402 0.0041159553935804305 0.004123486376098594 0.004131017358616759
          0.003672192673706891 0.003675620993694853 0.003679049313682815 0.008192009592535344 0.007602861068951489 0.008191685250462757
          0.007605417700729612 0.00819136090839017 0.007607974332507736 0.008770633656004091 0.008767467687197864 0.008764301718391636
          0.009427231698446998 0.009078848016718892 0.00941787180184721 0.009069286418644964 0.009408511905247424 0.009059724820571035
          0.005772105480614234 0.006227808519452742 0.0056108301469274344 0.0057710025245562594 0.006226734915146083 0.0056104002903486425
          0.005769899568498285 0.006225661310839426 0.0056099704337698505 0.005434299685751223 0.005434888599792092 0.0054354775138329625
          0.009272104582064917 0.009266704934507094 0.00926130528694927 0.007072541941543893 0.007097251760526019 0.0070728949499737105
          0.007097444359125621 0.007073247958403527 0.007097636957725225 0.009226434409339403 0.008744557753151094 0.009225553429188998
          0.008745970612919549 0.00922467244903859 0.008747383472688008 0.008238808847992114 0.00824231301037366 0.008245817172755205
          0.008609799565487304 0.008183013487008927 0.008612872628304612 0.008187265244572958 0.00861594569112192 0.008191517002136987
          0.003011244068486146 0.003382575411562609 0.0033022754562806946 0.0028897885251980386 0.003018075364950507 0.0033918831543914394
          0.003308695316480072 0.002896816760414172 0.003024906661414868 0.0034011908972202682 0.00331511517667945 0.0029038449956303057
          0.004097542321517728 0.004098046425157656 0.004098550528797583 0.00456013036461669 0.004567066917392798 0.004574003470168906
          0.006503455872430788 0.006518234385072493 0.0065014366412455265 0.006516923817613246 0.006499417410060266 0.006515613250154001
          0.007136500315213127 0.007140121616688085 0.007143742918163042 0.007802536574748883 0.0076581505959496775 0.0077999309818059465
          0.0076530418985708264 0.00779732538886301 0.007647933201191975 0.0053555179877387985 0.004365867899433506 0.005347948991808942
          0.004358922991397967 0.005340379995879087 0.004351978083362429 0.0060415227153805704 0.006042076159392053 0.006042629603403535
          0.007775353861498032 0.007881293459791541 0.007780247069145258 0.007886164612428167 0.007785140276792484 0.007891035765064794
          0.00450992469767981 0.004770701320704425 0.00439623658876794 0.004009044731648764 0.004510252679347719 0.0047712337661333796
          0.0043967618914407805 0.004009722792383311 0.004510580661015628 0.004771766211562334 0.004397287194113622 0.004010400853117859
          0.006489140545739194 0.006485850564420956 0.006482560583102716 0.0034764540720392924 0.0029779365735041825 0.0034785480084889796
          0.0029828335807431956 0.0034806419449386677 0.002987730587982209 0.007252591540044446 0.008096511401030394 0.007249134476875363
          0.008093887033746777 0.007245677413706278 0.00809126266646316 0.008136641447105655 0.008132301715382683 0.008127961983659714
          0.007247445776613884 0.0072453201613777544 0.007243194546141625 0.006459410601391447 0.006454376520497129 0.006449342439602812
          0.003842155801794093 0.003846336342349193 0.003850516882904293 0.0026746770141473967 0.0026791720004025158 0.0026836669866576357
          0.006349775955342955 0.00724656328992608 0.006343463100488304 0.007243058165160194 0.006337150245633653 0.007239553040394308
          0.0033272739283714886 0.0033288300694521607 0.003330386210532833 0.0036749537185049555 0.0036819411857107903 0.0036889286529166246
          0.007517047417491719 0.007512842286429918 0.0075086371553681145 0.009619154891564069 0.009612764448188302 0.009606374004812537
          0.002623657992663533 0.002628665543201246 0.002633673093738959 0.007436445865625334 0.007440408623029106 0.007444371380432876
          0.009001514661688286 0.008956583842164103 0.008160049688115643 0.008994698839154578 0.008949974661182043 0.008154797561173667
          0.00898788301662087 0.008943365480199986 0.008149545434231688 0.0039003501670699034 0.003909916460572366 0.003919482754074829
          0.0077061110851666115 0.007523280464556729 0.007700041400499316 0.0075179511448497565 0.00769397171583202 0.0075126218251427845
          0.004441081374412478 0.004443667886217397 0.004446254398022317 0.005150028695991798 0.0051508653291246174 0.005151701962257437
          0.007040105504956184 0.007034765460339112 0.00702942541572204 0.00285724381159055 0.00286168950849635 0.0028661352054021494
          0.004318541792648711 0.00495507813097298 0.00431910564266386 0.004955649169121371 0.004319669492679009 0.004956220207269763
          0.005047492360336256 0.005047777475513305 0.005048062590690352 0.0023644208302173193 0.002367538427036681 0.002370656023856042
          0.007953830764366012 0.00795188497076585 0.007949939177165693 0.007879958797135201 0.00787589236369839 0.007871825930261577
          0.00979199890301279 0.0097857804007852 0.009779561898557611 0.007209527411359864 0.007208649905469149 0.007207772399578433
          0.007446612636981702 0.007376371568564695 0.007442623352423371 0.007374038873018097 0.0074386340678650395 0.0073717061774715
          0.008049458150947379 0.008046274120892998 0.008043090090838614 0.007429162218774818 0.007430875218660145 0.007429773150102133
          0.00743067515832273 0.0074303840814294465 0.0074304750979853175 0.007593810705280347 0.007592810074873756 0.007591809444467164
          0.007449038277306109 0.007449262148454549 0.0074494860196029885 0.007603226845510859 0.007601621271265855 0.007600015697020851
          0.0070204396956406 0.007083678551898276 0.007025569900005972 0.007088557460388253 0.007030700104371346 0.00709343636887823
          0.007409167830584737 0.007410819084294472 0.007412470338004208 0.00761853055327659 0.007618621237326293 0.007618711921375996
        </DataArray>
        <DataArray type="Float64" Name="pe22" format="ascii" RangeMin="-0.005191268514897967" RangeMax="-0.001115893111520475">
          -0.0027984454511316647 -0.0027317399245244873 -0.0024533533239416015 -0.002579057561143976 -0.002797898288654525 -0.002731230025904412
          -0.0024524205608318036 -0.0025783721907085442 -0.0027973511261773836 -0.0027307201272843366 -0.0024514877977220052 -0.0025776868202731134
          -0.0037831026066140333 -0.0036255660300221464 -0.0036882032671108544 -0.003860366269502765 -0.003782873521894936 -0.0036258853378166637
          -0.003688355217478004 -0.003860136034734439 -0.003782644437175839 -0.0036262046456111813 -0.003688507167845154 -0.0038599057999661127
          -0.001836243029597069 -0.0021022755428110663 -0.0018357266315953715 -0.0021018231316246886 -0.001835210233593674 -0.002101370720438311
          -0.004620224102926482 -0.004705236471912311 -0.004393356760042853 -0.004390706497798032 -0.004622703626027792 -0.00470710809604987
          -0.004393490235687749 -0.004392941599107365 -0.004625183149129102 -0.004708979720187427 -0.004393623711332646 -0.004395176700416698
          -0.0037853844389583976 -0.003975810001776512 -0.0037854996600426277 -0.003975502610546855 -0.0037856148811268573 -0.003975195219317198
          -0.0031236911454548466 -0.003033500289985518 -0.0030483182222574923 -0.003121705940480987 -0.003125586126037385 -0.003035815688616248
          -0.003050487166930034 -0.003122816965878104 -0.0031274811066199226 -0.003038131087246978 -0.003052656111602576 -0.003123927991275222
          -0.004077095961621273 -0.004421042439528341 -0.004231115400736514 -0.003949801952425057 -0.004078501647121646 -0.004422642592320736
          -0.004233110475103226 -0.0039514483283781595 -0.004079907332622019 -0.004424242745113132 -0.004235105549469937 -0.0039530947043312625
          -0.002701572583634617 -0.002876965995934087 -0.0027011763930772114 -0.0028763572935300457 -0.0027007802025198063 -0.002875748591126005
          -0.0028926895847190327 -0.0027484083673422117 -0.00340669462374869 -0.0034649356528399697 -0.0028930701649726863 -0.0027468043748877327
          -0.0034065938457442588 -0.0034654017070612497 -0.0028934507452263395 -0.0027452003824332545 -0.0034064930677398285 -0.00346586776128253
          -0.003151322080420597 -0.0031944214934606385 -0.003397221905996277 -0.0031522156151898495 -0.003194789676095269 -0.0033970811482345073
          -0.003153109149959102 -0.0031951578587299 -0.0033969403904727377 -0.0047537491544013015 -0.005011938257901383 -0.004927379866057817
          -0.004724979212514113 -0.004755492139660151 -0.005014124575093861 -0.004929357314148994 -0.004726450846208696 -0.004757235124918998
          -0.005016310892286339 -0.004931334762240171 -0.00472792247990328 -0.003526448105907433 -0.003746749824196722 -0.003574589321360325
          -0.003453292028422631 -0.003527669473135836 -0.003749102177517602 -0.003576342392890747 -0.003454776826599209 -0.0035288908403642385
          -0.0037514545308384817 -0.0035780954644211685 -0.003456261624775787 -0.004490088618723099 -0.004491507015537152 -0.004492925412351206
          -0.0031792067599917366 -0.003112208329420484 -0.0030108562606787435 -0.0031815840700358997 -0.0031134676723979576 -0.003013158158148727
          -0.0031839613800800637 -0.003114727015375431 -0.0030154600556187108 -0.0035645880610439837 -0.003873814418310976 -0.0035654615318682645
          -0.003875880684009816 -0.0035663350026925444 -0.0038779469497086565 -0.004843583395899125 -0.004666551551914463 -0.004789851421249462
          -0.004990642331474841 -0.004846306432628647 -0.004668526455445432 -0.00479235098537682 -0.00499356435269106 -0.00484902946935817
          -0.004670501358976403 -0.004794850549504178 -0.0049964863739072815 -0.0020891455870028493 -0.002321418703605365 -0.0017946067627289113
          -0.0014243238714243018 -0.0020863652757250007 -0.002320748775152337 -0.001792035327700585 -0.0014227269500180482 -0.002083584964447152
          -0.0023200788466993085 -0.0017894638926722588 -0.0014211300286117948 -0.004277824018268434 -0.004138459136808164 -0.004104872217099571
          -0.004277262781149829 -0.004138049084812435 -0.004104217866690163 -0.004276701544031224 -0.004137639032816706 -0.004103563516280754
          -0.0011163502375183393 -0.001981069752666372 -0.001116121674519407 -0.0019761534147011957 -0.001115893111520475 -0.0019712370767360184
          -0.0036023267601868144 -0.003631029311764254 -0.0038864148838433903 -0.004010018796837437 -0.003601731834096762 -0.003631783983688789
          -0.003888419230172069 -0.004010957718777988 -0.00360113690800671 -0.003632538655613323 -0.003890423576500748 -0.004011896640718541
          -0.0044667394886504785 -0.004313453163568662 -0.004467486814063835 -0.004313651127220533 -0.004468234139477192 -0.004313849090872404
          -0.0027134913226900008 -0.0029020612942589072 -0.002713708318916214 -0.0029036158335155335 -0.0027139253151424285 -0.002905170372772159
          -0.004152522593134705 -0.0038317133114516683 -0.0041533136075665635 -0.003831078927351363 -0.004154104621998422 -0.0038304445432510575
          -0.0029384564895558797 -0.0027900269423643954 -0.0027787807168238067 -0.0029895526734646473 -0.0029376184578851577 -0.002789625519281091
          -0.002778215525103651 -0.002988659267513032 -0.002936780426214435 -0.002789224096197786 -0.0027776503333834957 -0.0029877658615614167
          -0.0029465663355552375 -0.002801537567676569 -0.0029469676747100083 -0.0028036543677193238 -0.002947369013864779 -0.002805771167762079
          -0.002498379763178034 -0.0024975957721344363 -0.0024968117810908385 -0.0033530113081768386 -0.003316438563290355 -0.003353605130524973
          -0.003316262484621447 -0.003354198952873107 -0.003316086405952541 -0.003160302921008852 -0.0031895237664382394 -0.003124475962786155
          -0.0031620233960645053 -0.003192008183404236 -0.0031266218895753977 -0.0031637438711201588 -0.003194492600370233 -0.00312876781636464
          -0.002679020990561279 -0.002821856984743501 -0.002268276917104175 -0.0026781928073788103 -0.002821771403272806 -0.002266521408084502
          -0.002677364624196342 -0.0028216858218021116 -0.0022647658990648293 -0.0028781577629030655 -0.0028814103122452362 -0.002884662861587407
          -0.0026919844693425268 -0.0026886174934395695 -0.002685250517536612 -0.0038522918202462397 -0.003908218301272223 -0.0038537243817857703
          -0.003909551721181573 -0.0038551569433253013 -0.003910885141090921 -0.0029684522588858536 -0.0029690955822360547 -0.0029697389055862557
          -0.0027612575824194213 -0.002953272585988571 -0.003162387790135545 -0.0027617050238351007 -0.0029534590747899987 -0.0031621988290613393
          -0.00276215246525078 -0.0029536455635914257 -0.0031620098679871335 -0.004266328880769079 -0.004425801104021775 -0.004268427955954358
          -0.004427986324035699 -0.004270527031139637 -0.004430171544049623 -0.0017947188731881635 -0.0015967879033202332 -0.001613632531020984
          -0.00187824413284485 -0.0017938303575318001 -0.0015957675871873054 -0.001612497088468692 -0.001877129548761803 -0.0017929418418754367
          -0.0015947472710543783 -0.0016113616459164002 -0.0018760149646787562 -0.002605045856025301 -0.0022528922985809072 -0.002343730330128066
          -0.002676091215483502 -0.002605384168218413 -0.002252271929711402 -0.0023428415435883315 -0.0026759299976693764 -0.0026057224804115257
          -0.0022516515608418976 -0.002341952757048596 -0.002675768779855251 -0.0037109973719902526 -0.003512461165865116 -0.0037412902339627706
          -0.003711463293114001 -0.0035130831158689383 -0.00374268071016527 -0.003711929214237749 -0.00351370506587276 -0.003744071186367768
          -0.0031968918176099475 -0.003198050009933247 -0.0031992082022565464 -0.0030581077774719336 -0.0030595291896931055 -0.0030609506019142773
          -0.0014149434399766355 -0.001342336678067034 -0.0014144700487763206 -0.0013417496868662958 -0.0014139966575760054 -0.001341162695665558
          -0.0019304024571743642 -0.0021814788664300316 -0.00192891459245636 -0.0021809734791626975 -0.0019274267277383556 -0.0021804680918953634
          -0.003121177073031608 -0.0031210318935344238 -0.0031208867140372397 -0.003055551745808943 -0.003233318909904243 -0.0032070128547128755
          -0.0029648126817252473 -0.0030556198065617686 -0.0032336852449754067 -0.0032072948779460794 -0.002965187411785274 -0.003055687867314594
          -0.003234051580046571 -0.0032075769011792833 -0.0029655621418453017 -0.0034623749826253668 -0.003462983994598671 -0.003463593006571975
          -0.0030482101998119075 -0.0030478588265392104 -0.003047507453266513 -0.003254722552985707 -0.0029497657526609804 -0.00325414283859231
          -0.0029495678502804734 -0.0032535631241989134 -0.0029493699478999663 -0.0025905118163179136 -0.0025913480267580136 -0.0025921842371981136
          -0.002815816829043484 -0.003066321124227421 -0.0028152998683719462 -0.0030659739846314723 -0.002814782907700408 -0.0030656268450355234
          -0.0025594728410203126 -0.0025611302456501808 -0.0025627876502800485 -0.003161078328735002 -0.003226784455401676 -0.0031602583493335968
          -0.0032259811537959037 -0.0031594383699321917 -0.0032251778521901323 -0.0031040776805520117 -0.003103370822571064 -0.0031026639645901155
          -0.00292981530102929 -0.002930719004626735 -0.00293162270822418 -0.003319653194998759 -0.003319351510915248 -0.003319049826831737
          -0.002365634563458884 -0.002599221960185102 -0.0023659999363412638 -0.002601536021600632 -0.0023663653092236433 -0.002603850083016162
          -0.0035165850234881177 -0.0035160050364243544 -0.003515425049360591 -0.003967563611173676 -0.003888081826523561 -0.003968168663199528
          -0.0038882233423776684 -0.003968773715225381 -0.0038883648582317765 -0.004402015286678275 -0.004628780935637431 -0.00442193996205835
          -0.004403463987183613 -0.004630223360607993 -0.004423407755114122 -0.004404912687688951 -0.004631665785578556 -0.004424875548169893
          -0.005120334125285636 -0.005121702963654619 -0.005011792817333533 -0.005123257608294085 -0.00512517861862915 -0.005014732877053271
          -0.005126181091302534 -0.00512865427360368 -0.0050176729367730115 -0.00238335035516533 -0.0027720860986218416 -0.002383923296837279
          -0.0027749643544391816 -0.0023844962385092287 -0.0027778426102565215 -0.0038787568068081846 -0.0038020076070959755 -0.0038147062673249623
          -0.003879421743158025 -0.003802110385921747 -0.0038146977374339678 -0.003880086679507866 -0.003802213164747519 -0.003814689207542973
          -0.004123994833437864 -0.003986251131362984 -0.00412411178663423 -0.0039861293144437294 -0.004124228739830595 -0.0039860074975244745
          -0.0023901960713945346 -0.0023894904171126727 -0.002388784762830811 -0.005163532655988795 -0.005184696987922909 -0.0051673940340114044
          -0.005187982751410438 -0.005171255412034013 -0.005191268514897967 -0.00504016042896297 -0.004759526879472311 -0.005042737602846868
          -0.004761703073605352 -0.005045314776730766 -0.004763879267738393 -0.004454053733529772 -0.004649857544435289 -0.004456370257085044
          -0.004652422311346766 -0.0044586867806403144 -0.004654987078258241 -0.004093696973680874 -0.004095992849270865 -0.004098288724860857
          -0.005016446950537205 -0.004969524273847794 -0.00501969179755962 -0.0049726672644348595 -0.005022936644582034 -0.004975810255021928
          -0.004738091381894386 -0.0047390052274993546 -0.004739919073104323 -0.0033750120791357255 -0.0033751160572419677 -0.00337522003534821
          -0.004398106665309402 -0.004395650081496033 -0.0043931934976826625 -0.0033247430394210253 -0.003324507178073026 -0.003324271316725026
          -0.0033561241017413214 -0.0033559573662565643 -0.003355790630771807 -0.0040917218175565056 -0.004055962920912727 -0.004091851739100644
          -0.004052839576215244 -0.004091981660644782 -0.004049716231517762 -0.003565423129891483 -0.0034669793644982825 -0.0035654363078155304
          -0.0034669804888424484 -0.003565449485739578 -0.0034669816131866153 -0.002616783383225595 -0.0026161870575345447 -0.0026155907318434948
          -0.0025265275498557596 -0.0025266792493309543 -0.002526830948806149 -0.003400748063021568 -0.0034008279473991473 -0.003400907831776728
          -0.0033208554960165136 -0.0033224032151914083 -0.0033239509343663035 -0.002218137936567994 -0.0022176773067678762 -0.002217216676967759
          -0.0019902077713975274 -0.0019892304073841002 -0.001988253043370673 -0.004282881664792277 -0.0039914385975570055 -0.004283626609595486
          -0.003991352743193443 -0.004284371554398692 -0.003991266888829881 -0.0045511282245658995 -0.00455310346703604 -0.00455507870950618
          -0.004773546461288115 -0.004563569342199925 -0.00477557075514041 -0.004565408922610169 -0.004777595048992704 -0.004567248503020413
          -0.0028640594504456235 -0.0030896057173246923 -0.002782940449475752 -0.002864834037358384 -0.0030908883092978226 -0.0027832612817862423
          -0.0028656086242711447 -0.0030921709012709524 -0.0027835821140967322 -0.0026990353466177074 -0.0026987942140084178 -0.002698553081399128
          -0.004785662806522261 -0.004788223610436442 -0.004790784414350622 -0.003589811843157497 -0.0035780927585690077 -0.003590273069978038
          -0.003578452740263095 -0.0035907342967985783 -0.0035788127219571826 -0.004831297558928485 -0.00460288564556346 -0.004833980969628068
          -0.0046046157493996225 -0.0048366643803276505 -0.0046063458532357845 -0.004365633735852931 -0.004365932845184204 -0.004366231954515477
          -0.004567150541386213 -0.0043628945209557264 -0.004568605586701706 -0.004362767438579516 -0.004570060632017198 -0.004362640356203305
          -0.0015831907550668371 -0.0018001780539043703 -0.001698054141446788 -0.0014767957616874654 -0.0015827984104413244 -0.001798723182126005
          -0.0016961109109383454 -0.001476071061972873 -0.0015824060658158115 -0.0017972683103476394 -0.0016941676804299029 -0.0014753463622582804
          -0.002033159936007242 -0.0020314554212253243 -0.0020297509064434063 -0.002400222949817286 -0.002399901047916485 -0.0023995791460156833
          -0.0032505349363920744 -0.003307086044162131 -0.0032510695685550213 -0.003308013146280536 -0.0032516042007179682 -0.0033089402483989405
          -0.003732095668113771 -0.003732006446418275 -0.0037319172247227785 -0.003907121159574254 -0.003823195067817628 -0.003908140770818576
          -0.0038240548446561344 -0.003909160382062897 -0.0038249146214946426 -0.0025252915379350782 -0.0020456153157517075 -0.002524337379909427
          -0.0020426722916118247 -0.0025233832218837754 -0.002039729267471942 -0.0030074096843704223 -0.0030081514624920157 -0.0030088932406136097
          -0.0041301633929114534 -0.0042108147777054315 -0.004129935547154383 -0.004210098268041043 -0.004129707701397313 -0.004209381758376656
          -0.002279163378531282 -0.0023936054935823695 -0.002194423676469565 -0.0020214018639479383 -0.0022770036417010045 -0.0023924085061657625
          -0.002192893852696286 -0.002018863085251168 -0.0022748439048707264 -0.0023912115187491555 -0.002191364028923007 -0.002016324306554398
          -0.003193955817076702 -0.003194168422643163 -0.0031943810282096235 -0.0017395364591625672 -0.0014942312440016856 -0.0017373899530757305
          -0.0014928873600803451 -0.001735243446988894 -0.001491543476159005 -0.003535517284177764 -0.003979827293689278 -0.003536221524754424
          -0.003981064773788953 -0.0035369257653310835 -0.003982302253888631 -0.003979199386527906 -0.003980882625482763 -0.003982565864437618
          -0.0036356182756923806 -0.0036357596807043793 -0.003635901085716378 -0.0031359453233440453 -0.003136050292885923 -0.003136155262427801
          -0.0019885311686596804 -0.0019854852915666917 -0.0019824394144737027 -0.0014063378792187793 -0.0014052372092849632 -0.0014041365393511474
          -0.0030409111124582175 -0.0035753418768899293 -0.0030412720619924405 -0.0035761489596525487 -0.003041633011526663 -0.003576956042415167
          -0.0016485960554099024 -0.0016469338237197699 -0.0016452715920296376 -0.0020024926414421943 -0.0020011644502767635 -0.0019998362591113323
          -0.003749024869208674 -0.0037497140081600294 -0.003750403147111385 -0.004936869377168744 -0.004939497052778808 -0.004942124728388873
          -0.0013482968289866455 -0.0013472913117557176 -0.0013462857945247893 -0.003925620991348976 -0.003925653717622608 -0.00392568644389624
          -0.004421453836607317 -0.004415241179831675 -0.003978981867903184 -0.004423855386082437 -0.004417162712172939 -0.003981002636132997
          -0.004426256935557557 -0.004419084244514203 -0.003983023404362809 -0.0020825918017549814 -0.0020806837497654427 -0.002078775697775904
          -0.0038430337494571682 -0.003762433445691699 -0.003843865801831448 -0.003763057988633994 -0.0038446978542057276 -0.0037636825315762886
          -0.002286987277671633 -0.0022848523044240883 -0.0022827173311765437 -0.002589855574945704 -0.002589079546277145 -0.002588303517608585
          -0.003385084964369027 -0.003384489555935469 -0.0033838941475019114 -0.0014388690402834998 -0.0014379039861464058 -0.001436938932009312
          -0.0021318199942231865 -0.0024508339745079348 -0.002131205338389224 -0.0024503960071905846 -0.0021305906825552614 -0.0024499580398732357
          -0.0025530464167400958 -0.0025518075688603513 -0.002550568720980607 -0.0012105381511994823 -0.001209081756464922 -0.001207625361730362
          -0.004190653424735143 -0.004193405858345738 -0.004196158291956332 -0.003929414721550601 -0.003930569419515144 -0.003931724117479687
          -0.005007385909937858 -0.005009902352266038 -0.005012418794594218 -0.0035522574805018415 -0.00355197521453209 -0.003551692948562339
          -0.003732582514339008 -0.003727618585264586 -0.003733386361170773 -0.003727890928743409 -0.003734190208002539 -0.003728163272222233
          -0.004240862211127109 -0.00424116553932252 -0.00424146886751793 -0.00386888589278779 -0.0038275439412292925 -0.0038698381252591867
          -0.0038281964308753387 -0.0038707903577305837 -0.0038288489205213854 -0.0038593763417940855 -0.0038598699555620654 -0.0038603635693300452
          -0.0038153226594383263 -0.0038157056758671105 -0.0038160886922958943 -0.0039776547799314915 -0.003977031966778503 -0.003976409153625517
          -0.003748043304623452 -0.003740358669678429 -0.003746452944175792 -0.0037405169379771063 -0.0037448625837281325 -0.0037406752062757826
          -0.0038853016848732695 -0.003885363437850301 -0.0038854251908273327 -0.004008256789811878 -0.004009204378469857 -0.004010151967127836
        </DataArray>
        <DataArray type="Float64" Name="pe33" format="ascii" RangeMin="-0.004885960400000991" RangeMax="-0.0011538826790178367">
          -0.0028343355123565455 -0.0027751434629462125 -0.0024830049873677466 -0.0025921948795707733 -0.0028341323147211155 -0.0027748004090024344
          -0.002483357077688253 -0.0025924843261660186 -0.0028339291170856856 -0.0027744573550586562 -0.0024837091680087594 -0.0025927737727612643
          -0.0036068655622200655 -0.0034601801891491835 -0.0034446865365382316 -0.003577491505382968 -0.0036056726354875756 -0.0034598875880456036
          -0.003445001565417873 -0.0035772292836008875 -0.0036044797087550857 -0.0034595949869420236 -0.0034453165942975156 -0.0035769670618188065
          -0.0018769130484538276 -0.0021539433238299075 -0.0018771042803089005 -0.0021546843403666732 -0.0018772955121639735 -0.0021554253569034394
          -0.004083330957265134 -0.004129213377934395 -0.0038946524158248595 -0.0039249134490650026 -0.004080802854344087 -0.004126420611379671
          -0.0038926331682218236 -0.003919929043014563 -0.004078274751423042 -0.004123627844824947 -0.003890613920618787 -0.003914944636964125
          -0.0034562513117479226 -0.003588696990433372 -0.003457926694691215 -0.003589903668249383 -0.0034596020776345078 -0.003591110346065395
          -0.0028571468459583677 -0.002700726123886648 -0.002769255488601615 -0.0029759753951991066 -0.0028537843532907524 -0.0027006775925413726
          -0.002763920125277796 -0.002965957424650258 -0.0028504218606231367 -0.002700629061196098 -0.002758584761953978 -0.00295593945410141
          -0.004124812144999414 -0.004380763675566663 -0.004181097475619261 -0.003942097833931884 -0.004121289286928542 -0.004373392061844453
          -0.004175340438484266 -0.003939364914784129 -0.004117766428857668 -0.004366020448122244 -0.00416958340134927 -0.003936631995636374
          -0.0026995571096647027 -0.0028832228963670825 -0.00270019938550527 -0.002883515157795721 -0.0027008416613458377 -0.0028838074192243605
          -0.003232071276279486 -0.0030836676431038063 -0.0036816564064474297 -0.0037160735880972474 -0.003225440038456399 -0.0030795745795532737
          -0.0036769987908463675 -0.0037118080255603985 -0.0032188088006333123 -0.0030754815160027402 -0.003672341175245307 -0.00370754246302355
          -0.003208991321781938 -0.0032527416080949762 -0.003491366750831253 -0.0032063602752311765 -0.003250714145901978 -0.003490546138223187
          -0.0032037292286804147 -0.003248686683708979 -0.00348972552561512 -0.004790783177311801 -0.004860653541610898 -0.004788057287234724
          -0.004710382213017204 -0.00478044159193902 -0.004851558185513746 -0.00477816613574938 -0.00469983246024448 -0.004770100006566237
          -0.004842462829416592 -0.004768274984264038 -0.004689282707471755 -0.0034438922194624895 -0.003586397120219967 -0.0033259741598120765
          -0.0032741121326985883 -0.0034409834320613835 -0.0035835073843189834 -0.003324764808898524 -0.0032722272900519308 -0.0034380746446602767
          -0.0035806176484179985 -0.003323555457984972 -0.0032703424474052724 -0.003971616865371989 -0.003970504465111274 -0.0039693920648505585
          -0.0028779201543036232 -0.0027601700536772616 -0.0026365862968375843 -0.0028759282064758 -0.002760095036939426 -0.0026366970762062725
          -0.0028739362586479764 -0.0027600200202015906 -0.0026368078555749613 -0.0035746650436479983 -0.0037866587815127764 -0.003570840085346119
          -0.0037834890746218774 -0.00356701512704424 -0.0037803193677309783 -0.004268841331904215 -0.004113445597673198 -0.004264097601689434
          -0.004458559758980726 -0.00426717339480213 -0.004113627773860759 -0.004263186686412292 -0.004455394620879275 -0.0042655054577000456
          -0.004113809950048319 -0.00426227577113515 -0.004452229482777825 -0.002396652102157243 -0.002671145716187308 -0.0020981661820405513
          -0.0016323679298897997 -0.0023930732714984005 -0.002663845811730319 -0.002094708345633886 -0.00163535989394576 -0.0023894944408395574
          -0.0026565459072733296 -0.0020912505092272205 -0.0016383518580017204 -0.003758280159212096 -0.0037056813355403444 -0.0036200428819221243
          -0.00376152054086203 -0.0037070564619906083 -0.003623762265525686 -0.0037647609225119638 -0.0037084315884408723 -0.0036274816491292483
          -0.0012266702962399818 -0.0022335078136642393 -0.0012348412470172688 -0.002232928889576386 -0.0012430121977945558 -0.0022323499654885322
          -0.0033789967536438205 -0.00337429848132774 -0.0037227078448438633 -0.0038403602863219034 -0.003376089999485492 -0.0033720531346710927
          -0.003717491300251361 -0.003832839514738697 -0.003373183245327164 -0.003369807788014446 -0.003712274755658858 -0.0038253187431554914
          -0.003931555528674353 -0.0038349718189095083 -0.0039335060321848145 -0.0038356593994325738 -0.003935456535695277 -0.0038363469799556384
          -0.002809366495920294 -0.0029239567904778873 -0.0028035182961062737 -0.0029156594423605693 -0.0027976700962922523 -0.0029073620942432514
          -0.003907304416322359 -0.0035499729751486955 -0.00390140560797127 -0.003549079537265851 -0.00389550679962018 -0.0035481860993830053
          -0.0029079215448310643 -0.002776548450704866 -0.0027386101398173377 -0.002914675119099361 -0.002909534877690719 -0.00277801816712421
          -0.0027407131075315445 -0.0029174144362788482 -0.0029111482105503733 -0.0027794878835435545 -0.002742816075245752 -0.002920153753458335
          -0.0025835157921629114 -0.002455740870984061 -0.002584445152344132 -0.002453193160108362 -0.0025853745125253525 -0.0024506454492326628
          -0.002663038956748868 -0.002658106860946633 -0.0026531747651443974 -0.0030396893322296426 -0.0029987909877127626 -0.003041133121339673
          -0.0030001054530926705 -0.003042576910449702 -0.0030014199184725788 -0.0030621937056289537 -0.0029711353215950602 -0.0029919899281716546
          -0.003059060603433452 -0.0029674505068708985 -0.002983988772671442 -0.0030559275012379495 -0.002963765692146737 -0.002975987617171229
          -0.0029137353283551918 -0.002972405818468835 -0.0024957236395940184 -0.002909451301358232 -0.0029697055601336556 -0.002491290615446666
          -0.0029051672743612726 -0.002967005301798477 -0.0024868575912993136 -0.0024942528976782774 -0.002495588587764851 -0.0024969242778514257
          -0.0029899945604146974 -0.0029877645142212467 -0.0029855344680277955 -0.003911174498961458 -0.003962353965449968 -0.0039058736641638296
          -0.003956258880315386 -0.0039005728293662013 -0.0039501637951808045 -0.0030219661635768236 -0.003019646134956972 -0.00301732610633712
          -0.002544895420701561 -0.0026374563907741976 -0.0029395399546258993 -0.0025474541828419428 -0.002641191132371181 -0.0029389789638527113
          -0.002550012944982325 -0.002644925873968164 -0.002938417973079523 -0.00416669365991794 -0.004247483828783594 -0.004155994810469439
          -0.004236988584888521 -0.004145295961020937 -0.004226493340993448 -0.0018416963268163404 -0.0016272317573741825 -0.0016397933977132548
          -0.001941054346252905 -0.001841875862775008 -0.001628619629752317 -0.0016421465245964584 -0.0019417888838263214 -0.0018420553987336767
          -0.0016300075021304513 -0.0016444996514796623 -0.0019425234213997378 -0.0026458881545020105 -0.0023139100683806486 -0.002389492684653812
          -0.0027121259778578807 -0.002645256890573991 -0.0023145948506330615 -0.0023899325029052483 -0.002711413538833182 -0.0026446256266459715
          -0.0023152796328854744 -0.0023903723211566837 -0.002710701099808483 -0.003782584660748694 -0.0035807757923757657 -0.003782291938024882
          -0.003779960261835371 -0.0035785768375279775 -0.003777756102374358 -0.003777335862922047 -0.00357637788268019 -0.0037732202667238334
          -0.002899769740629087 -0.0028998969172768074 -0.0029000240939245285 -0.0029904947103362093 -0.0029795565507812296 -0.0029686183912262503
          -0.0014323319997508544 -0.0013259692759140383 -0.0014358344470304326 -0.001330500972975884 -0.0014393368943100106 -0.0013350326700377294
          -0.0019879483548059934 -0.0022451310956109268 -0.00198966203359255 -0.0022461635899818553 -0.0019913757123791067 -0.0022471960843527842
          -0.0027722360383923483 -0.002775211226914209 -0.0027781864154360686 -0.003091303143354924 -0.003291948306535293 -0.0032768876674457784
          -0.0029985987629865315 -0.003092464869483685 -0.0032922750716493387 -0.0032760270885229476 -0.0029981617094428153 -0.0030936265956124464
          -0.0032926018367633834 -0.0032751665096001164 -0.002997724655899101 -0.0034936048281111794 -0.0034920945307856132 -0.003490584233460047
          -0.003060320226104383 -0.0030620010216275547 -0.0030636818171507264 -0.0031074757385584663 -0.0028356952216558574 -0.0031073847930783586
          -0.002834917801062663 -0.003107293847598251 -0.00283414038046947 -0.0022942906346512214 -0.0022986948267089647 -0.0023030990187667077
          -0.0027488515603130243 -0.0029633054865367686 -0.0027499542793480622 -0.00296541724943837 -0.0027510569983831006 -0.00296752901233997
          -0.002288432407062028 -0.0022870896202437483 -0.002285746833425469 -0.0030815699260111264 -0.0030941881868748345 -0.003083514247916007
          -0.0030968061425213026 -0.0030854585698208876 -0.0030994240981677703 -0.0030711852534869933 -0.0030727674665726756 -0.0030743496796583588
          -0.0029614004638672635 -0.0029595013114160217 -0.0029576021589647803 -0.003144286026616774 -0.003147283012546117 -0.0031502799984754596
          -0.0020586173948513864 -0.002258892296699688 -0.002058742657830688 -0.0022573293593682233 -0.0020588679208099897 -0.0022557664220367595
          -0.003282817496169452 -0.0032850443353083774 -0.0032872711744473043 -0.0036789409875145253 -0.003652763831073824 -0.003675495726070021
          -0.0036505438467185174 -0.0036720504646255174 -0.0036483238623632114 -0.004474328566574737 -0.004575908505756529 -0.004428572438955427
          -0.004466911940909529 -0.004566108074008403 -0.004421730571882477 -0.004459495315244319 -0.004556307642260278 -0.004414888704809526
          -0.004768741864170182 -0.004589362625430332 -0.0046075295199798395 -0.004761496447605133 -0.004584232742844516 -0.004601513150554334
          -0.004754251031040084 -0.004579102860258701 -0.00459549678112883 -0.0019972546856476085 -0.00236058848840283 -0.0020005881474553693
          -0.002362484882705645 -0.002003921609263129 -0.002364381277008459 -0.0038175847635559834 -0.0037522223916002136 -0.0036817887341124124
          -0.0038153442423561716 -0.0037491036920405513 -0.0036802316792526593 -0.0038131037211563594 -0.003745984992480889 -0.0036786746243929066
          -0.0037612780583667375 -0.003674830415660955 -0.003758922292057474 -0.0036739008864456403 -0.0037565665257482113 -0.0036729713572303258
          -0.0024453662697455528 -0.002446237299520458 -0.002447108329295363 -0.004629929820882141 -0.0048021949525995835 -0.004624056257406995
          -0.004795124063739953 -0.004618182693931848 -0.0047880531748803225 -0.004885960400000991 -0.00482554856889837 -0.00487704646225011
          -0.004815191464080462 -0.0048681325244992295 -0.004804834359262555 -0.004391252039706483 -0.004500999720649628 -0.004379651831419907
          -0.004488625325450905 -0.004368051623133332 -0.004476250930252182 -0.003985559943785932 -0.003979597681427393 -0.003973635419068854
          -0.004389766295660378 -0.004363494000770036 -0.00438557927919444 -0.004360074071353713 -0.004381392262728502 -0.00435665414193739
          -0.004126614694743361 -0.00412399509970979 -0.004121375504676218 -0.0033715989468268287 -0.00337275740013932 -0.0033739158534518126
          -0.003833332597348261 -0.003834101920702236 -0.0038348712440562116 -0.0032875845709751726 -0.003290278758649637 -0.003292972946324101
          -0.0032727618196502326 -0.003274716381919416 -0.0032766709441885995 -0.003619137009099605 -0.003509278774499266 -0.0036201748364061547
          -0.0035150094571239814 -0.0036212126637127032 -0.003520740139748696 -0.003306919614467066 -0.0032751956425510734 -0.0033095548302766553
          -0.003276763939909632 -0.003312190046086244 -0.0032783322372681913 -0.002496613750588912 -0.0024980438467541223 -0.0024994739429193323
          -0.0025753653781731074 -0.002575579498432936 -0.002575793618692765 -0.0032722354922774437 -0.0032734523022789853 -0.0032746691122805273
          -0.0030813115470888315 -0.0030806267661129647 -0.003079941985137098 -0.0018978174570124368 -0.0019058090693307185 -0.001913800681649
          -0.0016819849023093636 -0.0016863905863107528 -0.0016907962703121425 -0.003909127927743064 -0.003611422471394483 -0.003908058640867271
          -0.00361406495753617 -0.003906989353991478 -0.003616707443677855 -0.004219505431438191 -0.0042143642201618245 -0.004209223008885456
          -0.0046536852371588805 -0.004515278674518967 -0.0046423010467068 -0.004503877496034793 -0.0046309168562547205 -0.00449247631755062
          -0.00290804603016861 -0.0031382028021280485 -0.0028278896974516816 -0.002906168487197876 -0.00313584660584826 -0.0028271390085623997
          -0.0029042909442271413 -0.003133490409568471 -0.002826388319673118 -0.002735264339133515 -0.002736094385783674 -0.002736924432433834
          -0.004486441775542657 -0.0044784813240706526 -0.004470520872598648 -0.0034827300983863957 -0.00351915900195701 -0.0034826218799956727
          -0.0035189916188625254 -0.0034825136616049492 -0.0035188242357680408 -0.004395136850410918 -0.004141672107587634 -0.004391572459560929
          -0.004141354863519929 -0.00438800806871094 -0.004141037619452223 -0.003873175112139183 -0.0038763801651894554 -0.003879585218239728
          -0.0040426490241010915 -0.003820118966053201 -0.004044267041602906 -0.0038244978059934426 -0.004045885059104721 -0.0038288766459336834
          -0.0014280533134193086 -0.0015823973576582387 -0.0016042213148339069 -0.0014129927635105734 -0.0014352769545091823 -0.0015931599722654338
          -0.0016125844055417265 -0.001420745698441299 -0.0014425005955990562 -0.0016039225868726284 -0.0016209474962495464 -0.0014284986333720248
          -0.0020643823855104864 -0.002066591003932331 -0.0020687996223541756 -0.002159907414799404 -0.0021671658694763125 -0.002174424324153222
          -0.0032529209360387134 -0.0032111483409103616 -0.0032503670726905056 -0.003208910671332711 -0.0032478132093422974 -0.0032066730017550602
          -0.0034044046470993556 -0.0034081151702698093 -0.0034118256934402625 -0.003895415415174627 -0.0038349555281320486 -0.00389179021098737
          -0.003828987053914691 -0.003888165006800112 -0.0038230185796973323 -0.0028302264498037194 -0.002320252583681798 -0.0028236116118995147
          -0.002316250699786142 -0.00281699677399531 -0.0023122488158904865 -0.003034113031010147 -0.003033924696900036 -0.0030337363627899244
          -0.003645190468586579 -0.0036704786820861107 -0.0036503115219908744 -0.003676066344387125 -0.00365543257539517 -0.003681654006688139
          -0.0022307613191485266 -0.002377095827122056 -0.002201812912298375 -0.001987642867700825 -0.0022332490376467144 -0.002378825259967617
          -0.0022038680387444945 -0.001990859707132143 -0.0022357367561449014 -0.0023805546928131784 -0.0022059231651906136 -0.0019940765465634607
          -0.0032951847286624906 -0.0032916821417777915 -0.0032881795548930916 -0.0017369176128767256 -0.0014837053295024976 -0.0017411580554132493
          -0.0014899462206628506 -0.0017453984979497732 -0.0014961871118232039 -0.0037170742558666815 -0.004116684107341115 -0.003712912952120938
          -0.004112822259957822 -0.003708751648375194 -0.00410896041257453 -0.004157442060577747 -0.004151419089899921 -0.004145396119222095
          -0.003611827500921502 -0.003609560480673374 -0.003607293460425246 -0.0033234652780474013 -0.003318326227611206 -0.0033131871771750095
          -0.0018536246331344122 -0.0018608510507825012 -0.00186807746843059 -0.001268339134928617 -0.0012739347911175523 -0.001279530447306488
          -0.0033088648428847376 -0.0036712214130361497 -0.0033021910384958635 -0.003666909205507645 -0.003295517234106989 -0.0036625969979791396
          -0.0016786778729615858 -0.0016818962457323906 -0.0016851146185031954 -0.001672461077062761 -0.0016807767354340263 -0.0016890923938052919
          -0.0037680225482830446 -0.0037631282782698864 -0.003758234008256728 -0.004682285514395323 -0.004673267395409493 -0.004664249276423664
          -0.0012753611636768878 -0.0012813742314455282 -0.0012873872992141687 -0.003510824874276357 -0.0035147549054064956 -0.0035186849365366345
          -0.004580060825080969 -0.004541342662332426 -0.004181067820212459 -0.00457084345307214 -0.004532811949009103 -0.004173794925040669
          -0.004561626081063311 -0.00452428123568578 -0.004166522029868879 -0.0018177583653149216 -0.001829232710806923 -0.0018407070562989247
          -0.0038630773357094432 -0.003760847018865029 -0.0038561755986678678 -0.0037548931562157626 -0.0038492738616262923 -0.003748939293566496
          -0.0021540940967408446 -0.0021588155817933085 -0.002163537066845773 -0.002560173121046092 -0.0025617857828474718 -0.0025633984446488504
          -0.0036550205405871555 -0.003650275904403642 -0.003645531268220129 -0.0014183747713070504 -0.001423785522349944 -0.0014291962733928374
          -0.0021867217984255245 -0.0025042441564650446 -0.002187900304274636 -0.002505253161930786 -0.002189078810123747 -0.002506262167396527
          -0.0024944459435961596 -0.002495969906652952 -0.0024974938697097443 -0.0011538826790178367 -0.0011584566705717587 -0.0011630306621256805
          -0.003763177339630868 -0.003758479112420114 -0.0037537808852093593 -0.003950544075584598 -0.003945322944183243 -0.00394010181278189
          -0.004784612993074931 -0.0047758780485191625 -0.004767143103963392 -0.0036572699308580225 -0.0036566746909370584 -0.0036560794510160934
          -0.003714030122642692 -0.003648752983300108 -0.003709236991252596 -0.0036461479442746873 -0.0037044438598624993 -0.003643542905249266
          -0.0038085959398202725 -0.003805108581570478 -0.003801621223320684 -0.0035602763259870275 -0.0036033312774308517 -0.0035599350248429447
          -0.003602478727447391 -0.003559593723698861 -0.00360162617746393 -0.0037344343634862615 -0.00373294011931169 -0.003731445875137118
          -0.003633715617867783 -0.003633556472587438 -0.0036333973273070933 -0.0036255720655793667 -0.0036245893044873504 -0.0036236065433953336
          -0.0032723963910171465 -0.0033433198822198445 -0.00327911695583018 -0.0033480405224111456 -0.0032858375206432132 -0.003352761162602447
          -0.0035238661457114655 -0.0035254556464441706 -0.0035270451471768748 -0.0036102737634647114 -0.003609416858856436 -0.0036085599542481604
        </DataArray>
        <DataArray type="Float64" Name="disp_x" format="ascii" RangeMin="0.000007949779837562052" RangeMax="0.00007750580516356925">
          0.00005389643509248185 0.00005435267208358837 0.00005118538565942564 0.00005086226461243926 0.00005390128937054725 0.00005435882058013277
          0.00005119180701762577 0.00005086783799798773 0.000053916007824418214 0.00005437623444147732 0.000051212639502684894 0.000050886187689949425
          0.00006573628770609439 0.0000611183354597725 0.000058479576093915445 0.00006106571800262116 0.00006573767184290344 0.00006112137235661206
          0.000058481770276731225 0.00006106684024016365 0.00006574194094896319 0.00006113129406552938 0.00005848851588154674 0.00006107053660188352
          0.00005256027139156968 0.000055063014175955505 0.000052566659430043425 0.00005506916965630744 0.00005258420434821634 0.00005508737030212332
          0.00005975829860500386 0.00006009958968474421 0.00006492388951133984 0.00006430441581775272 0.000059754737951771594 0.00006009394290506619
          0.00006491734028772621 0.00006429918468758601 0.00005974261073692476 0.000060079125620217365 0.00006489869207831477 0.00006428798604649618
          0.0000552162541201667 0.000057451731607871394 0.00005521780753007148 0.00005745290700356523 0.00005522201692069983 0.000057455224914209766
          0.00002477268877458942 0.000027633082615608373 0.00002709925515109842 0.000023328776114254127 0.000024768387527183856 0.0000276272813830384
          0.000027091303831748886 0.000023325649905019132 0.000024753249637013147 0.000027607651706928513 0.000027066468323826545 0.00002331436999971235
          0.000024956866285274214 0.000029740292691390035 0.000030017911106043022 0.000025839956271766472 0.00002496492747125257 0.000029746734612926763
          0.00003002396618681372 0.00002584699179695289 0.000024991148217995818 0.000029768885798330153 0.000030045397577831623 0.000025864917067471284
          0.00005059876232136766 0.00005320162492627145 0.00005060336614604706 0.00005320592347087575 0.000050617635664081214 0.00005321873028687113
          0.000015336087109878566 0.000014242781475764659 0.000017952868398053143 0.00001891897279728777 0.000015348197643335996 0.000014257020240334417
          0.000017965429725562532 0.00001892939775671853 0.000015386579472923816 0.000014303400671632688 0.000018001676972985298 0.000018958954572786993
          0.00006247834724450697 0.00006198622845676346 0.00006571469740510554 0.00006248468679544692 0.00006199234368920123 0.00006572090579059165
          0.00006250379676179776 0.00006201025504961635 0.00006573381630604606 0.00003164836840013259 0.00003683211413665058 0.00003567396074607229
          0.00003111765872886429 0.00003165232753929761 0.00003683177640400592 0.00003567472793205412 0.00003112248422758576 0.000031663038263754996
          0.000036831128329781155 0.00003567652669896275 0.0000311361206064543 0.000024808575555743968 0.00002855545003411502 0.000029759833203707795
          0.000026037738035259583 0.000024814220096169978 0.000028560161673540316 0.00002976255397696957 0.000026041299951937037 0.000024829297775728994
          0.000028574007780279325 0.00002977203920359792 0.00002604944574602881 0.00005971851135665596 0.000059715927566539656 0.000059708206768578664
          0.000026127307571096453 0.000028704041202647795 0.000029455698680402323 0.000026124299341751106 0.000028701622858890443 0.00002945239831065395
          0.00002611581236030034 0.000028693256496557922 0.000029443173064542947 0.000023213561624474333 0.000027117312246935517 0.000023220484892492672
          0.00002712333498639135 0.00002324106127792373 0.000027141202101348365 0.000054875354946075115 0.00005490241900254077 0.000050452084400093926
          0.00004975111656890637 0.00005487094022187562 0.00005489914785050091 0.00005044744123213765 0.000049745869766782216 0.00005485694386759719
          0.000054888678074510204 0.000050433756589720124 0.00004973029774828293 0.000011261246373810658 0.000012478839723971974 0.000010469312628567357
          0.00000900006110535927 0.000011279317781815265 0.000012496025162708965 0.000010489216806950674 0.00000902183191979989 0.000011330130944424659
          0.000012543343848125144 0.000010552078786027515 0.00000908807059292995 0.000054963636849289547 0.000058761362994758745 0.00005408198499282602
          0.00005496239330994594 0.000058761301441223554 0.00005408166138150266 0.00005495948297091195 0.00005876105366272971 0.00005408229079151886
          0.000007949779837562052 0.000010302754277884449 0.00000796992860263103 0.000010322956739750198 0.000008033547618496279 0.000010377558279846916
          0.000039461475028517275 0.00003403033475313637 0.00003279294883762905 0.00003714285244827534 0.00003946170069541404 0.00003403292869359137
          0.000032796655005436794 0.00003714333594128731 0.00003946231636680751 0.00003404097787007865 0.00003280895833795925 0.000037145003616241324
          0.000055085678042356154 0.000059411963992008123 0.00005508330460790612 0.00005941101251187612 0.00005507437726094167 0.000059407251041109215
          0.000016676928474642436 0.000018831891251055613 0.000016683254293143752 0.000018834797483473053 0.000016699644259613242 0.00001884357021482176
          0.00004119600067559256 0.000043541462118352755 0.00004119307587115509 0.00004353905779946434 0.00004118264645841833 0.00004353075499309834
          0.000052043996356793534 0.0000503790718037087 0.000048564199823575815 0.000050004159630430074 0.00005204766118890838 0.00005038285466898924
          0.00004856693160087738 0.00005000645985342341 0.00005205830853946305 0.000050394377858159826 0.000048576043238197884 0.00005001430496886051
          0.00003223821561659961 0.00003283865593686141 0.00003223547047191792 0.000032834949494091 0.00003222605696368178 0.000032827756499969976
          0.000014691016863383762 0.000014700892686607333 0.000014730650306962713 0.000030722528480421895 0.00003477076012202636 0.00003072370490041647
          0.000034772693769546117 0.00003072637719541726 0.00003477772357231881 0.000022507762338049356 0.000024658216689736833 0.000022207075889249237
          0.000022509742354714166 0.000024656693184115054 0.00002220623134363354 0.000022517226899050894 0.00002465050382195175 0.000022204458929942256
          0.000015173527906348618 0.0000169308006077492 0.000013018863741554888 0.000015186005759963902 0.000016940079965069323 0.00001303238334484405
          0.000015223293540308773 0.00001696752100297077 0.000013073444636651679 0.00003043217675700548 0.000030427990119387485 0.000030416898871209827
          0.000013443829782304093 0.000013459270701855711 0.000013509638945892643 0.00007143463401439495 0.00007265713570502574 0.00007143905942195205
          0.00007266003878720965 0.00007145072563511757 0.00007266889197612522 0.000019123222850800167 0.000019129435891186196 0.000019148812027521535
          0.000039075886082291444 0.000035378296907860615 0.000038855008723869534 0.00003907800368007018 0.000035378679320434566 0.00003885713631003831
          0.00003908380480564556 0.00003538199179661817 0.000038864188975362905 0.000035396945311172024 0.00003939430657580778 0.00003539919674867201
          0.00003939205340254862 0.000035405879195142935 0.000039384768133368816 0.00005073166211826202 0.00004866055827815686 0.00004801428629974322
          0.000050259265346521923 0.0000507383479861422 0.000048668173562661 0.00004802187475857617 0.000050266535505956354 0.00005075890828415584
          0.000048690986859668965 0.000048046581777720265 0.000050287912025348596 0.000055155852813910503 0.00005218551558998968 0.00005159269121860524
          0.00005469328325894283 0.00005516343926151997 0.00005219292913029835 0.0000516000272362732 0.00005470022527588745 0.00005518620296882681
          0.000052216269959896407 0.000051624196585160665 0.00005471994672470761 0.0000697827419900837 0.00006575828890253677 0.0000684792068902414
          0.00006978761659629967 0.00006576391666656282 0.0000684845475359101 0.00006980478352489549 0.0000657827442525927 0.00006849985480941933
          0.000027857569933031197 0.000027855981094964432 0.000027850234503630025 0.000020483330773689838 0.0000204841985847304 0.000020489322062097873
          0.00004772094756876945 0.000045940377110231684 0.00004772823714515729 0.00004594597663584451 0.00004775021843361309 0.000045963370719942734
          0.00004949341251837098 0.00005290896388828662 0.00004950118902389266 0.00005291634032405443 0.00004952374255123143 0.00005293705813747513
          0.000031535695940743214 0.00003153490952479071 0.000031532536755280145 0.000058480218167486825 0.00006134488209128351 0.00006150532378585489
          0.00005805668679900045 0.00005848602793366205 0.0000613516046080166 0.00006151220188698593 0.00005806331412098992 0.00005850445277462452
          0.000061371895289823 0.00006153334496812065 0.000058081792239696394 0.00006387147554450872 0.00006387919246332383 0.00006389897774900126
          0.000057310862746497214 0.00005731563961428872 0.00005732756017662539 0.00004398004262869074 0.000042638431017644916 0.00004397952838570511
          0.00004264005393949458 0.00004397706950564595 0.00004264475739613519 0.000036358169174141546 0.00003635584030409395 0.00003634591976982038
          0.00004593762197685001 0.0000472580486848106 0.00004593950782133111 0.000047259007408065056 0.00004594396235722738 0.00004726077311698236
          0.00003520311423001977 0.00003519946433357292 0.00003518544531662188 0.0000547623617660037 0.00005249927929823359 0.000054765736444056956
          0.00005250175152048711 0.00005477512400887089 0.00005250862877738523 0.00005628322359532978 0.00005628734562728139 0.0000562985310887316
          0.000058394230925714345 0.0000584015567515679 0.000058423739035480734 0.00004962712912820987 0.00004962825872987293 0.000049631556615186566
          0.00003648563833983512 0.00003380856057713326 0.00003648063897240272 0.00003380475253991554 0.000036461693212745685 0.00003379712895736051
          0.000046490649056533885 0.000046489497627517746 0.000046485544422325 0.00006791265373988964 0.00006728810699965929 0.00006791014384491637
          0.00006728773814391575 0.00006790278076042696 0.00006728654890540478 0.000026874224838356884 0.000030426971950834666 0.000027457939707465563
          0.000026881872066249158 0.000030433514490993626 0.00002746579741081477 0.00002690953054714 0.000030448770499656347 0.000027490203557446248
          0.00004275802110298343 0.000049426288868665015 0.00004485225583230864 0.00004275494658639547 0.00004942143077893863 0.00004484818550463058
          0.00004274600732636838 0.0000494073411552156 0.0000448338782417972 0.00003506252884686874 0.000031461750946311586 0.00003505756851721886
          0.00003145465950620306 0.000035044762761004307 0.00003143126834051853 0.00007497959994476295 0.00007088728303196394 0.00007140752981006637
          0.00007498036363681074 0.00007088895468856158 0.00007140854528621094 0.00007498274126041322 0.00007089327471644493 0.00007141115620288686
          0.00006371002290363191 0.00006283557383962206 0.00006370918182618595 0.00006283646373155914 0.00006370781030949498 0.00006283751012024389
          0.000057914118715462883 0.00005792085982843818 0.0000579413963842454 0.00005003851680484187 0.00004422344992269466 0.000050033703755224906
          0.00004422010022265434 0.000050018995212443334 0.0000442100123788398 0.000038380436498096526 0.000032636292488217535 0.00003837976867138818
          0.000032639295859291083 0.000038375625757594834 0.000032648547401150616 0.00003390115075448853 0.00003770320593055876 0.00003390500283266859
          0.00003770289479191184 0.00003391841056878028 0.00003769943500478112 0.000031300081776360364 0.00003130540187810856 0.000031321411869347276
          0.00005568657655274704 0.000055019259220228497 0.000055681418366697843 0.000055014723313953904 0.000055663155777462075 0.00005499870388556303
          0.00006107205260166886 0.0000610659663385279 0.00006104696268186677 0.00006212019165315032 0.00006212717162940548 0.00006214758302002326
          0.00006611554517148486 0.0000661085310856424 0.00006608391935516557 0.00006074035264379347 0.00006074601571372331 0.00006076240588308138
          0.00005953167742459588 0.00005953619540989389 0.00005954932461351361 0.00006912288534201616 0.00007077392015362817 0.0000691160590367148
          0.00007076761917209173 0.00006909073837998026 0.00007074833398305911 0.00005251682024131513 0.00005548772362261521 0.000052518321116444905
          0.000055490492504060496 0.000052522047499944356 0.00005549758676851893 0.00004241989988743816 0.00004242284507027381 0.00004243129679389268
          0.00005583642095581522 0.00005584418641219644 0.000055867980710135956 0.00005777993991024485 0.000057783826204195444 0.00005779479212555248
          0.000026866286131979133 0.000026867523458725017 0.000026871042743757556 0.00003856059192187376 0.00003855708443363211 0.00003854277996705993
          0.00003857613788104475 0.00003857329371652371 0.000038563669504626804 0.00004488203393567751 0.000046921574188060414 0.00004487737122208949
          0.00004691823685037092 0.00004486180901919395 0.000046908373226090535 0.00004325842634770935 0.000043253599729958993 0.000043238239279353576
          0.000035195354530071774 0.00003281413089178568 0.00003519655878322519 0.000032818732667534 0.0000352008978352971 0.00003283109684295624
          0.00005901605643351558 0.00006315481517070385 0.0000598296571889325 0.00005902386443021517 0.00006316173819967347 0.000059837099303943144
          0.00005904599058440149 0.00006318309205944584 0.00005985919806293059 0.00006088893678949832 0.000060895698187399055 0.000060915730311492496
          0.00004176106950235677 0.000041756978269026595 0.00004174313514494115 0.00006296700590995294 0.0000640089716737849 0.00006297175417654747
          0.00006401540488643965 0.00006298479916917583 0.00006403475838297266 0.000046016625098671306 0.00004712041915238938 0.00004601166399588735
          0.00004711552955037671 0.00004599660681942556 0.000047100320678664036 0.000048297284619528346 0.00004829303089985422 0.00004827914117075139
          0.00005102831888253182 0.00005156520691779496 0.00005102470515599273 0.00005156284861591344 0.0000510125784033553 0.00005155427361990282
          0.00004141828519233878 0.00004124768640594649 0.000043389117136673564 0.0000434718322250577 0.000041418111072175006 0.000041248226487351127
          0.00004339440892699522 0.00004347581753643011 0.00004141658301408457 0.000041252625802232637 0.0000434110141217825 0.00004348512982800861
          0.000048790091385723945 0.0000487977449735245 0.00004881908043370145 0.00003985437150599731 0.00003985556588796855 0.000039860366743421826
          0.00002169984197654272 0.000023389783193350315 0.00002170601557620957 0.000023393908575947728 0.00002172793083780281 0.000023406009982884063
          0.0000495579727323855 0.00004955740662042834 0.000049555043085955237 0.00007442907237434751 0.00007063990937446669 0.00007442958902394183
          0.00007064268948071546 0.00007443103847200109 0.00007064930998435074 0.000013729567680732524 0.000011666451656923118 0.000013744133899531515
          0.00001168355524755188 0.00001378783879014791 0.000011735030930115167 0.00006402650918822671 0.00006403348443607973 0.00006405457939667255
          0.00004991722550072802 0.00005188020474417122 0.00004991550163031839 0.00005187899915475488 0.00004990723063519978 0.000051874420702668786
          0.00004542620188721103 0.00004809970932300502 0.00004835166341374498 0.000045692619700002206 0.00004543120686330066 0.00004810532617322055
          0.00004835833909271313 0.000045698762693124695 0.000045446435189578084 0.000048121848696257866 0.00004837741614123851 0.00004571656023415001
          0.000019758492461038473 0.000019767047476254535 0.00001979255802360287 0.00004590383877645641 0.00004486846352143311 0.000045910736854174695
          0.00004487420209567473 0.00004593170503818479 0.000044893531107304103 0.000020170465620381632 0.000022879353040008474 0.000020179950060134047
          0.000022889116152496015 0.000020206099709544325 0.000022917039237170734 0.000022174497722058807 0.000022184557974968722 0.00002221405587580841
          0.00006529169685427167 0.0000652986050522123 0.00006531958349081352 0.00001800210148241525 0.00001801233392133156 0.000018044824872329206
          0.00004315824890613367 0.00004316409709484951 0.00004318176527929543 0.00004171017336051146 0.00004171133706415188 0.000041714788396276615
          0.00001659247795316259 0.00002162362248870499 0.000016603745524281273 0.000021631424062972187 0.000016638402254924522 0.00002165419548347991
          0.000047198124596266075 0.00004720561118332497 0.000047227047680378736 0.000039584100579514605 0.00003958237259201018 0.00003957280668761388
          0.00006793238088744046 0.0000679381216043427 0.00006795593779976103 0.00004030982677679915 0.00004030753396524917 0.00004030066549462489
          0.000043595287605647406 0.000043598650145885355 0.00004360920871525258 0.00005222780419342652 0.00005222809396003032 0.00005222801506678304
          0.000027125006578094903 0.000026805243320773057 0.00002198417056792815 0.000027132325546475618 0.000026813089328427622 0.000021994879896269906
          0.000027155568647589967 0.000026836384488390546 0.000022026914376600456 0.00004071675368113953 0.000040718247557872726 0.00004072545104743179
          0.00006991003285894743 0.00006745484097735971 0.00006991423547157489 0.00006746027097766557 0.00006992357754224625 0.00006747752865187086
          0.00004273782727525146 0.00004274257531775652 0.00004275591328115064 0.00004811306730994996 0.000048117679945720245 0.000048130358781835745
          0.000017370293385141442 0.000017384068002668602 0.00001742526101532835 0.00004532606195947035 0.00004533233168310468 0.000045350589859535325
          0.000053818103644685945 0.00005673872387872292 0.00005382503701774636 0.00005674599221291228 0.000053844584175281 0.00005676822815339586
          0.00004543280292014736 0.00004543654190869301 0.00004544706652848728 0.00004369906859873482 0.00004370275644781174 0.000043711752300690895
          0.00006778552405303922 0.00006777978456275462 0.00006776097950492425 0.00007367394229936274 0.00007367559329452306 0.00007367873241889685
          0.00003931889273374311 0.00003931740652984264 0.000039312644151958714 0.00006861665426712787 0.00006862207052359638 0.00006863944942000057
          0.00006719307674193401 0.00006674832049978806 0.00006719884823720226 0.00006675217141369456 0.00006721510412488735 0.00006676179441418834
          0.00006525522216295756 0.00006525113753913674 0.00006523960234140152 0.00007175909193730278 0.00007295717898642623 0.00007175605865747057
          0.00007295565313229672 0.00007174486191820172 0.00007295167735540224 0.00007581254358572575 0.00007581337604158599 0.00007581546221348712
          0.00007750580516356925 0.00007750546848906607 0.00007750327671176297 0.00006918060914227006 0.00006917620301477525 0.00006916022653966284
          0.00007508670065933694 0.00007383796600060971 0.00007508328842447632 0.0000738326734098694 0.00007507739210738447 0.0000738170451408469
          0.00007154576331635364 0.00007154235822224379 0.0000715284812545821 0.00006971359930119834 0.00006970768516733841 0.0000696840681858841
        </DataArray>
        <DataArray type="Float64" Name="disp_y" format="ascii" RangeMin="-0.0000338604049749505" RangeMax="0">
          -0.000023944642043200177 -0.0000254350137433396 -0.0000255294366356948 -0.000024238209388433855 -0.00002394695234129415 -0.000025437144279957858
          -0.000025532435519613743 -0.00002424169033310977 -0.000023954091376297714 -0.00002544360213820327 -0.00002554159766294188 -0.000024252597050238975
          -0.000015110559305557287 -0.000017456140677603207 -0.000016435803194232323 -0.000014365957515972054 -0.000015111146151706177 -0.000017457884428796668
          -0.000016438186512224574 -0.000014368146300654112 -0.000015112407642476371 -0.000017463012731068456 -0.000016445527788211087 -0.000014374491333343235
          -0.000031605833861596 -0.00003229564503430625 -0.00003160741337808177 -0.00003229716702464057 -0.00003161162525260264 -0.000032301284177339126
          -0.000004692776481199152 -0.0000023207843464022124 -0.0000021208923190507018 -0.00000421722629955 -0.000004694536161077408 -0.0000023216157173571418
          -0.0000021206820707034184 -0.000004217412794959725 -0.00000469990421949319 -0.0000023228996736791267 -0.000002117787060523295 -0.000004220587518607117
          -0.000015799059823741842 -0.000013925334955662312 -0.00001580221010708192 -0.000013927961389785126 -0.000015812106112507006 -0.000013936424132861329
          -0.00001414439814681588 -0.0000162428084590884 -0.00001614727312402055 -0.000013457580008238922 -0.000014146721156444341 -0.00001624657451961651
          -0.00001615070649256428 -0.000013458713063253914 -0.000014156385971617538 -0.000016257668692588515 -0.000016160469794623086 -0.00001346239006289925
          -0.000006425610076732565 -0.000008035545590010795 -0.000009905188265111838 -0.000008719039840100256 -0.000006428125414819926 -0.000008039427791900273
          -0.000009909887963306624 -0.000008722466972833964 -0.0000064360566487918136 -0.000008052450793175565 -0.000009924301375243578 -0.000008732440917045766
          -0.000023025198514423155 -0.00002261142963950967 -0.000023028927228947754 -0.000022614209051408495 -0.000023040474739079126 -0.00002262154881907737
          -0.00000295840924029693 -0.000001404876314268319 -0.0000017126255626591882 -0.000003503873558554189 -0.0000029574568728736784 -0.0000014035080674280825
          -0.0000017132012116536678 -0.0000035047036832255047 -0.0000029564273643376234 -0.0000013988176454143592 -0.0000017133956628856514 -0.000003507937771161301
          -0.00003030876525595412 -0.000028575848104302244 -0.000028488861267454408 -0.00003031057542851626 -0.000028577604158257562 -0.000028490655507260617
          -0.00003031745417653872 -0.000028581271582548652 -0.000028495295146816124 -0.0000022575592651247715 -0.0000025064292828302265 -0.0000048429270791162505
          -0.000004437303199170687 -0.0000022588228712739926 -0.000002507482399996966 -0.000004845032639610404 -0.000004439521676477217 -0.0000022625574891940358
          -0.0000025122460429634434 -0.00000485149619952986 -0.00000444591219519086 -0.000011253990226862964 -0.000012728275022062445 -0.000014472441173816288
          -0.000012764358059963049 -0.000011258081906712445 -0.000012733974384949531 -0.000014479457556645262 -0.000012769044723855046 -0.000011270713140208426
          -0.000012751740348239446 -0.000014499802246881192 -0.000012784371059245946 -0.000007142378358902653 -0.000007145244304114923 -0.000007154375339630758
          -0.000014636387505136125 -0.000016198906360807634 -0.000017109740195173145 -0.000014639531561001269 -0.000016204218973621028 -0.00001711455000700604
          -0.000014650728156111391 -0.000016218366989198094 -0.000017130198834972857 -0.000009443987082077737 -0.00001079484365194102 -0.000009447391244689991
          -0.000010799326276380936 -0.000009457903644187862 -0.000010812035731110144 -0.00000500437256884763 -0.000007406301021340976 -0.000007857530593638317
          -0.00000534921416458701 -0.000005007090927382188 -0.0000074104754608879785 -0.000007862173736998026 -0.000005352699247232226 -0.000005016455417590194
          -0.000007422363199086294 -0.000007875805128217246 -0.000005363457394321004 -0.0000012013405265631364 -0.0000025179869627767354 -0.000002254882994143194
          -0.0000011611501959674724 -0.000001199956498897504 -0.0000025169132074021553 -0.000002252911235951791 -0.0000011586829237478058 -0.0000011894390759167007
          -0.0000025125383544354136 -0.0000022514501606801594 -0.000001153560585071989 -0.000011814480811442302 -0.000011869288777145943 -0.000013580246169508457
          -0.000011818737666619085 -0.000011872311837485529 -0.000013584179553021201 -0.000011831804828833187 -0.000011879789397185822 -0.000013595250943903035
          0 0 0 0 0 0
          -0.000017577809921641735 -0.000016101227975637128 -0.000014102933566741043 -0.000014794173567051134 -0.00001758632977589051 -0.00001610982951258262
          -0.000014110245715254106 -0.000014802307662397783 -0.000017612155118397456 -0.00001613731791439884 -0.000014132848190158149 -0.000014827943939809969
          -0.000009713730090694762 -0.000009611355951324232 -0.000009718292063232056 -0.000009614382464825721 -0.00000973224805915378 -0.000009624159450978501
          -0.000007788138342940362 -0.000009733330805289899 -0.00000778571490682057 -0.000009731559481696898 -0.00000777824367601389 -0.000009725646184603434
          -0.000014649095379955334 -0.000016643852818187705 -0.000014657210190959627 -0.000016651286209354458 -0.000014682027724197242 -0.000016674642115159797
          -0.00002159474424299774 -0.00002220947197443286 -0.000021922442370927295 -0.000020869860856547152 -0.00002159799137386052 -0.000022213334402841977
          -0.00002192737726539049 -0.000020874061834618254 -0.00002160686069113927 -0.000022224872181420815 -0.000021941541590691384 -0.000020886283287172796
          -0.00001826459106686906 -0.000019114783875153684 -0.000018269950335657086 -0.000019120545539583414 -0.0000182840328051433 -0.000019134761193488084
          -0.000006079414808365939 -0.000006076895242153245 -0.000006069768187282178 -0.00001597247924740301 -0.00001779055453605726 -0.0000159797510667764
          -0.000017799307491242318 -0.000016002281653275403 -0.000017825447884405443 -0.000011534408563265827 -0.00001342908833593106 -0.000012215167290391959
          -0.00001153597950462397 -0.000013431551397839122 -0.000012216550770289312 -0.000011539568376225672 -0.000013439643455412785 -0.00001222012715316996
          -0.00000535217446276686 -0.000007010459857069591 -0.000004593722232147706 -0.000005352346167600304 -0.000007010355578724479 -0.00000459146721099204
          -0.00000535237745368159 -0.000007011489600695384 -0.000004584109563162674 -0.00001806863964782819 -0.000018073605567666112 -0.00001808789867746252
          0 0 0 -0.000025341140369414792 -0.00002334785128290107 -0.00002534236884684794
          -0.000023347867056390158 -0.00002534622918850048 -0.00002334724856149283 -0.000008929333299977392 -0.00000892954617675522 -0.000008930550172992807
          -0.000020754141706275106 -0.00001920049427298396 -0.000019365015449334352 -0.00002076319161649307 -0.000019207904893144984 -0.000019373519204105225
          -0.000020790776802573955 -0.000019230802667335478 -0.000019398274929545868 -0.00001256189990610452 -0.000012428642637499649 -0.000012568854898357367
          -0.000012435663436247713 -0.000012590079322045742 -0.00001245660037494285 -0.00003001836543543837 -0.00002896863032768181 -0.000028266909876034996
          -0.000028830672881172934 -0.00003001967413236241 -0.000028970065209320096 -0.000028268405272875478 -0.00002883212823493564 -0.000030023835808642498
          -0.000028973560555312344 -0.000028273355504630188 -0.000028836409213332456 -0.000028505079921751436 -0.00002817983367060807 -0.000026870437448806913
          -0.000027022773226323437 -0.000028507274330852587 -0.00002818211215986534 -0.000026873110314084316 -0.000027024822809716083 -0.000028514544576270466
          -0.00002818967719468368 -0.000026880890639379454 -0.000027030743622559143 -0.000027168470388469036 -0.00002645148391129757 -0.00002502802557419188
          -0.000027169907544605012 -0.000026452879134835287 -0.00002502886082733916 -0.0000271770123034229 -0.00002645843620814228 -0.000025031896451246742
          -0.000015190782254261203 -0.000015195845032062251 -0.000015211669520939051 -0.000011406438583762082 -0.000011406360216972413 -0.000011402838063267302
          -0.000028891142894717033 -0.000027694284994842548 -0.00002889199467770681 -0.000027695780808686287 -0.000028893949942801544 -0.00002770085063083284
          -0.00002771286672262754 -0.000029484823082213532 -0.00002771519845305923 -0.000029487203312679654 -0.000027720058409873684 -0.00002949406949672937
          -0.000017228650799442672 -0.000017235047251490894 -0.00001725530236518117 -0.000024948002160219834 -0.000025559598922860705 -0.000026869103516098054
          -0.000026980499187633723 -0.000024949256917199308 -0.000025560543727016335 -0.000026870100040611552 -0.000026981667166096977 -0.00002495273195881393
          -0.000025563661154990943 -0.00002687337922339832 -0.00002698455936744006 -0.00002470756224406714 -0.00002470867439440237 -0.000024710272228329264
          -0.000023104490165863205 -0.00002310618165245724 -0.000023110622442592163 -0.00001932731931944996 -0.000020578138296753937 -0.000019334183686658984
          -0.00002058577805103644 -0.000019354058130566426 -0.0000206098780915844 -0.00002062465674547028 -0.000020632736280088844 -0.000020654853978250744
          -0.00002140697854763326 -0.0000202189310229055 -0.00002141341815080797 -0.000020224413516250252 -0.000021432036119606174 -0.000020241602055886978
          -0.00002039715905949393 -0.00002040498049636151 -0.000020423559519691295 -0.00002048381347510402 -0.000019636756928558257 -0.000020486984756491283
          -0.00001964053089294185 -0.00002049545446831539 -0.000019651831806117612 -0.00002163281452620002 -0.000021635314242394074 -0.000021642234660914273
          -0.00002861962535825909 -0.000028621445959156233 -0.000028625474408227445 -0.000018938974017787656 -0.000018943732603798956 -0.000018957808919343423
          -0.000021423547030055268 -0.000020100921526067976 -0.00002143059278132002 -0.000020108107680546413 -0.000021456488622777272 -0.00002013172616964615
          -0.000018072959883393543 -0.00001807894104085194 -0.00001809540712626817 -0.000009653317469416497 -0.000012030844004124466 -0.000009653035417731943
          -0.00001203143150018989 -0.000009652727860492493 -0.000012034190284335479 -0.000004137897097616838 -0.000006367693921060158 -0.000005604259922416467
          -0.000004140622191095336 -0.000006370691588196272 -0.00000560705915499947 -0.000004146116238837775 -0.000006380975281657652 -0.000005615750025978882
          -0.000003300885525584016 -0.0000026807048101855573 -0.000006073850531862166 -0.0000033027329442875184 -0.000002682733828559122 -0.0000060773708130972304
          -0.000003307499563104701 -0.000002689925730453365 -0.000006087895424321999 -0.000021158207808316615 -0.000018973097060415636 -0.000021165804501714875
          -0.000018979408083037074 -0.00002119263468715665 -0.00001899600571899627 -0.000016977699540641597 -0.000016994404660275327 -0.000014637089704560268
          -0.00001697568552789491 -0.000016992836562726128 -0.000014635618611443046 -0.000016969760100884435 -0.0000169872575075281 -0.00001463184558870002
          -0.00000963245971880274 -0.00001202173172592394 -0.000009634075043551642 -0.000012023755369898482 -0.000009639375611145018 -0.000012029559911991259
          -0.000033012288115065824 -0.00003301450087487002 -0.00003302056653556112 0 0 0
          0 0 0 0 0 0
          0 0 0 -0.000010450588021349191 -0.000010131055016533438 -0.000010455371224151246
          -0.000010136247899168113 -0.000010471367573459851 -0.000010150391515649166 -0.000011997116276229036 -0.000012003181382823232 -0.000012019104431003077
          0 -0.0000024878382674766074 0 -0.0000024894101623522065 0 -0.000002494186810241476
          0 0 0 -0.000023274609499714813 -0.00002327549379276345 -0.00002327695399897179
          0 0 0 -0.00002179619960678545 -0.000021797601478785044 -0.000021801413175546867
          -0.000020311112503877138 -0.00002031324802369266 -0.00002032011075544263 -0.0000021282109166127716 0 -0.0000021273212686601953
          0 -0.0000021168930457325527 0 -0.000017462967039182208 -0.00001816400873020447 -0.000017467153203952363
          -0.00001816730674786743 -0.000017479109576940176 -0.00001817698855515736 -0.000021857961691351686 -0.000021866449320146055 -0.000021893048638755745
          -0.000029958235766403542 -0.00002996095675088836 -0.00002996877093180372 -0.00001910525533696371 -0.000019108184305339346 -0.000019116413675574415
          -0.000014003231504140256 -0.000014008465728315834 -0.000014024170190701772 -0.00002230897962426624 -0.000022316186029676948 -0.000022342502932935753
          -0.000023076978206617312 -0.000023084366935133812 -0.000023104146060495307 -0.000013725688371918156 -0.000015468844882621694 -0.000013732393989045924
          -0.000015474917176800428 -0.000013752397441592584 -0.00001549332101870228 -0.000011611287936457937 -0.000011617698134975593 -0.000011636532999230752
          -0.000007538344349538204 -0.000008831008120985308 -0.00000754178575305659 -0.000008835134285253955 -0.000007550390426267719 -0.000008845551049560306
          -0.000030220792043857593 -0.00003204954434319969 -0.00003186079391974197 -0.000030223171304226645 -0.00003205252037010084 -0.000031863742897312606
          -0.000030230536376354082 -0.00003206095616165076 -0.00003187254028827914 -0.00003355321625804705 -0.0000335565010731401 -0.00003356625543746315
          -0.000009324608663699975 -0.000009329750323669637 -0.000009344937385404264 -0.000018861838831411942 -0.000020452996329534002 -0.000018863250431157083
          -0.000020454095225517295 -0.00001886815741490872 -0.00002045771178817843 -0.000008447570720255188 -0.000010697202285186622 -0.0000084525720280986
          -0.0000107032618378456 -0.000008467986095186912 -0.00001072125683836584 -0.000012693718815262287 -0.000012699608543053508 -0.000012718205896740818
          -0.000010043475048921506 -0.00001200557634966765 -0.000010049025555742547 -0.000012010683162259566 -0.000010065919937773215 -0.000012028237540521218
          -0.000024598233313312654 -0.00002403729252233988 -0.00002496383808336597 -0.000025529478584987564 -0.000024602778119885788 -0.000024042730399832658
          -0.000024968477630967596 -0.000025533282705416295 -0.00002461553061421066 -0.000024055451518119747 -0.000024983328380811707 -0.000025544562208038243
          -0.000026539631648880103 -0.000026542807106803057 -0.000026552307033959468 -0.000022062094295956863 -0.000022071299023617685 -0.000022101269284313046
          -0.00000997629388713491 -0.000011383555082663923 -0.000009978948627450521 -0.000011386286226754159 -0.000009985317949454317 -0.000011395515875130015
          -0.00001664079802293161 -0.000016645874495383385 -0.000016660621062232532 -0.00001910468844835022 -0.000019065137891625935 -0.00001910296667447319
          -0.000019064153238719 -0.000019097720603614858 -0.000019058801195294 -0.000003876687921191325 -0.000003345479091969241 -0.00000387647136449295
          -0.000003343591637577792 -0.000003877223015227289 -0.000003339574721645091 -0.00003384457307491189 -0.00003384800255223379 -0.0000338604049749505
          -0.000014203618646257948 -0.000013305014523568743 -0.000014209110219851503 -0.00001330993122608991 -0.000014223963425362992 -0.000013324232371479797
          -0.000023744986460893865 -0.00002416379192130875 -0.000025358278451817763 -0.000024860062112075997 -0.000023750998167219413 -0.00002416871121979221
          -0.000025362536736347572 -0.00002486517563974551 -0.000023769237603408756 -0.000024183179183019688 -0.000025375512889681477 -0.000024880321958187438
          -0.000008138494258061464 -0.000008140332172390863 -0.000008146071515077654 -0.000026029171818026465 -0.00002612833453406635 -0.00002603295496813245
          -0.000026131787429709257 -0.00002604473555181417 -0.000026141591854056313 -0.000005472021345337891 -0.0000039852933163290525 -0.000005473815351820504
          -0.000003987077442659552 -0.000005477593105042409 -0.000003993316847168334 -0.000001968819349035036 -0.0000019699050819542577 -0.000001975037807688443
          -0.0000218720760246462 -0.00002187260661287628 -0.000021874549830538064 -0.0000062963752640633755 -0.000006297713197124835 -0.000006302614302224252
          -0.0000241257094219954 -0.000024132075340365594 -0.000024151930217257843 -0.0000251746026710241 -0.0000251790883824597 -0.000025194441284677114
          -0.0000045980986413501 -0.000007481242244607313 -0.000004598892965867824 -0.000007483654947722313 -0.000004600942306667349 -0.000007491116457282515
          -0.00002728073593731247 -0.000027283178439141246 -0.000027290469000836568 -0.000023182695060001172 -0.000023190147672508726 -0.000023207770331176194
          -0.000023268626919054526 -0.000023269248319737216 -0.00002327060580459516 -0.000006930734926133674 -0.000006934287626314622 -0.0000069459035810855
          -0.000026074368982936078 -0.000026077180314336912 -0.000026084487811130336 -0.00001514325468817328 -0.000015147581824781707 -0.000015159144550176096
          0 -0.0000021148469558435464 0 0 -0.000002115919241257589 0
          0 -0.00000212005773972981 0 -0.000023225969268712488 -0.000023233139105930055 -0.000023256505462208617
          -0.000020978470540788748 -0.0000208026773908152 -0.000020978223828241726 -0.000020803090962648188 -0.000020978408420772152 -0.000020803781537862036
          -0.000023059489931045532 -0.000023067683532871246 -0.000023091399956578676 -0.00002298226666311702 -0.00002298734447829892 -0.000023002617739271636
          0 0 0 -0.000026751959232522787 -0.000026754861255409426 -0.000026762654198024127
          -0.00003086027808968356 -0.00003145764996888244 -0.000030862335843313456 -0.0000314600952274827 -0.00003086798594171374 -0.00003146791341123373
          -0.000022583576230654057 -0.00002259015474837802 -0.000022610018020721043 -0.000026580250228870603 -0.00002658199517988295 -0.000026587572286409113
          -0.0000036892275993365893 -0.00000368816365792604 -0.000003686966807192863 -0.000021229549782119105 -0.00002122883121681808 -0.000021225440309683375
          -0.000005148989519744167 -0.000005151886920160095 -0.0000051584907583595455 -0.00002844017770894671 -0.000028442057182181522 -0.000028446909871239294
          -0.00001950056863197125 -0.000017645800390082253 -0.000019500759831828712 -0.00001764554677766745 -0.000019499252375547612 -0.000017644067010240153
          -0.000006725615812739942 -0.0000067271424181657075 -0.000006730940581078572 -0.00000923833491053886 -0.000011611036976137292 -0.000009237101629063077
          -0.000011609551058977988 -0.000009232128369493523 -0.000011605018371999871 -0.00001480661418735569 -0.000014804492806572687 -0.00001479818908441497
          -0.000012666115026024948 -0.000012664007664850809 -0.00001265647841080367 -0.000007569907259489658 -0.000007569012763433925 -0.000007564835711398827
          0 -0.0000025764506526101483 0 -0.0000025752421366199594 0 -0.0000025717038068445815
          -0.000007884068349419375 -0.00000788286006772543 -0.000007878122783956362 -0.000004649129363596565 -0.000004648592772816974 -0.000004650385543487077
        </DataArray>
        <DataArray type="Float64" Name="disp_z" format="ascii" RangeMin="-0.0000015941192111268835" RangeMax="0">
          0 0 0 0 -4.870871572718347e-7 -4.746105277406822e-7
          -4.286726308687515e-7 -4.4476236171199224e-7 -9.738395511344482e-7 -9.490400190828464e-7 -8.572669607730041e-7 -8.89504828835042e-7
          0 0 0 0 -5.960632016593019e-7 -5.774422879390532e-7
          -5.708690346438443e-7 -5.894762458630481e-7 -0.0000011920882138347672 -0.000001154409201610839 -0.0000011418009545862219 -0.0000011788521024111199
          0 0 -3.4274126540441693e-7 -3.787450876821437e-7 -6.852782852312948e-7 -7.578228631225483e-7
          0 0 0 0 -6.629824177320097e-7 -6.773377980475944e-7
          -6.520023980245777e-7 -6.438644573925065e-7 -0.0000013254308653922382 -0.000001354050178041855 -0.0000013032161884866273 -0.000001285312938539499
          0 0 -5.721985684072935e-7 -5.927160432843821e-7 -0.000001144855817706057 -0.0000011853309407585802
          0 0 0 0 -4.875524572708601e-7 -4.4533537551756624e-7
          -4.725828219470454e-7 -5.181294406563233e-7 -9.742084663772523e-7 -8.913438533234124e-7 -9.432448493356917e-7 -0.00000103248562306902
          0 0 0 0 -6.712359493171668e-7 -7.190167827196098e-7
          -6.76437206145066e-7 -6.443526434769648e-7 -0.00000134182876642632 -0.0000014361297024328532 -0.000001351775430584761 -0.000001288386668513071
          0 0 -4.622411414460312e-7 -4.91371710329437e-7 -9.243820185865987e-7 -9.825184180400738e-7
          0 0 0 0 -5.501565249425935e-7 -5.303779424569682e-7
          -6.195251732420235e-7 -6.21324753869119e-7 -0.0000010975441122810235 -0.0000010606497086193157 -0.0000012372856024862694 -0.0000012416580215636193
          0 0 0 -5.397188425614499e-7 -5.526718493041196e-7 -5.776437612562332e-7
          -0.000001078283174102984 -0.0000011043770394411623 -0.000001156022425415479 0 0 0
          0 -7.790510979171095e-7 -7.867658173484067e-7 -7.75478428145305e-7 -7.732443699530561e-7 -0.0000015543452505990464
          -0.0000015706540615550274 -0.0000015481739869512192 -0.0000015431874848465173 0 0 0
          0 -5.785658408304942e-7 -5.938977671624402e-7 -5.534668857844046e-7 -5.450980559338672e-7 -0.0000011562921607131037
          -0.000001186925923708239 -0.0000011067522786713332 -0.0000010888748811053784 0 -6.527692038415029e-7 -0.000001305344177520262
          0 0 0 -4.82483257805781e-7 -4.661867306865818e-7 -4.4846253092026043e-7
          -9.645887308872706e-7 -9.322094182494115e-7 -8.986881331976172e-7 0 0 -5.954209480896573e-7
          -6.257705188700718e-7 -0.0000011893421636835208 -0.000001250637595115236 0 0 0
          0 -6.932399866014336e-7 -6.696015566382675e-7 -6.934730495882997e-7 -7.209421263112049e-7 -0.0000013860510442311445
          -0.000001339510146219378 -0.0000013868425409158147 -0.0000014411260595505734 0 0 0
          0 -4.234449586676203e-7 -4.7347126322599664e-7 -3.9098743002011225e-7 -3.248081559302207e-7 -8.442443348829827e-7
          -9.42499936354523e-7 -7.815217733494286e-7 -6.506392713858023e-7 0 0 0
          -6.118335822444179e-7 -6.08420356031596e-7 -5.932117611896145e-7 -0.0000012247633161054993 -0.0000012175749364858745 -0.0000011879440827422644
          0 0 -2.4378812812760633e-7 -3.6755485301554984e-7 -4.926539236572596e-7 -7.335562337538158e-7
          0 0 0 0 -5.644493565740908e-7 -5.62732769819288e-7
          -6.210211777427914e-7 -6.420457141641776e-7 -0.0000011277786365543308 -0.0000011246265017818246 -0.0000012400216658518501 -0.0000012812023621779383
          0 0 -6.410320552540631e-7 -6.208125678065231e-7 -0.000001282815787077708 -0.0000012422229967149917
          0 0 -4.798799729561706e-7 -5.003051630074155e-7 -9.58714480104133e-7 -9.984324051529233e-7
          0 0 -6.479073812020938e-7 -5.818831523753307e-7 -0.000001293858591629875 -0.0000011635086687057731
          0 0 0 0 -4.937793293500171e-7 -4.7446865396601696e-7
          -4.671088018581724e-7 -4.910291314609848e-7 -9.879707096767421e-7 -9.495748639819154e-7 -9.349805216455553e-7 -9.8308470309059e-7
          0 0 -4.373725264706411e-7 -4.260120375336429e-7 -8.749837777121314e-7 -8.490091746595505e-7
          0 -4.6075380891354445e-7 -9.200030723014631e-7 0 0 -5.104696823763872e-7
          -4.988991467676395e-7 -0.0000010215996086345667 -9.9857374689249e-7 0 0 0
          -5.17181870514295e-7 -5.050264927190659e-7 -5.121926386887404e-7 -0.0000010331761098864907 -0.0000010088446840840175 -0.000001021148216097003
          0 0 0 -4.978451810486429e-7 -5.062830544296865e-7 -4.352955620381745e-7
          -9.946272528419312e-7 -0.0000010122171325555197 -8.69586755172895e-7 0 -4.1999871505461695e-7 -8.415214194909285e-7
          0 -4.928145919813185e-7 -9.858627118472042e-7 0 0 -6.445736880894583e-7
          -6.586136153256371e-7 -0.0000012864813385373155 -0.0000013150288288811248 0 -5.039858732605838e-7 -0.0000010076496849338758
          0 0 0 -4.402070004275165e-7 -4.47345516779066e-7 -4.948813601322271e-7
          -8.80716781774412e-7 -8.965278757495911e-7 -9.893613750612644e-7 0 0 -6.877887664081051e-7
          -6.986118476039141e-7 -0.0000013715269758745734 -0.000001393156804427715 0 0 0
          0 -3.3765290979042544e-7 -3.009768723610296e-7 -3.030249685000368e-7 -3.554414590171921e-7 -6.750653162472513e-7
          -6.012487855732726e-7 -6.067624391132895e-7 -7.11066212996099e-7 0 0 0
          0 -4.5520689859298805e-7 -4.0470528327503733e-7 -4.1523493574388906e-7 -4.685156880513267e-7 -9.101299528684199e-7
          -8.096165360669942e-7 -8.30515853349906e-7 -9.365676775031182e-7 0 0 0
          -6.269741995477044e-7 -5.969410608958995e-7 -6.330440733666595e-7 -0.0000012538794359542125 -0.0000011928504358473266 -0.000001265723387870343
          0 -4.872862211931807e-7 -9.748899320030113e-7 0 -5.072612599535686e-7 -0.000001010705701721729
          0 0 -2.728522811639286e-7 -2.4868083152396084e-7 -5.481241626883192e-7 -4.993695705615271e-7
          0 0 -3.542052296570012e-7 -3.9185021093822586e-7 -7.088848776338455e-7 -7.839140940538518e-7
          0 -4.6273976161252166e-7 -9.274640595947812e-7 0 0 0
          0 -5.164589213999162e-7 -5.58157336092337e-7 -5.456890762275768e-7 -5.003891779972259e-7 -0.0000010333178484230411
          -0.000001117915005058049 -0.000001090906406397709 -0.0000010006551724193472 0 -5.800171896214037e-7 -0.0000011586725654535888
          0 -5.124742454637729e-7 -0.0000010254948311037354 0 0 -5.252756220582849e-7
          -4.861383003175423e-7 -0.0000010503654393194096 -9.710826909865984e-7 0 -3.917528331440786e-7 -7.842416192921446e-7
          0 0 -4.6784110618858074e-7 -4.962048413669311e-7 -9.358134740184966e-7 -9.932691575839116e-7
          0 -4.17069533735418e-7 -8.355346752939008e-7 0 0 -5.172829210305768e-7
          -5.19457519358452e-7 -0.0000010352719280360039 -0.0000010397858963656091 0 -5.172282939569374e-7 -0.0000010349985484276124
          0 -5.029088890282488e-7 -0.0000010049935533711257 0 -5.248858325756272e-7 -0.0000010507741387955477
          0 0 -3.724356956963788e-7 -3.973027492092872e-7 -7.44076518711523e-7 -7.921007907537165e-7
          0 -5.417062532685361e-7 -0.0000010845532216163403 0 0 -6.152480067546145e-7
          -6.040825755145037e-7 -0.000001228459206341606 -0.0000012073216813542127 0 0 0
          -7.291184714834127e-7 -7.441454701735929e-7 -7.330929046197155e-7 -0.0000014555716345481247 -0.0000014838202499715165 -0.0000014654137630070895
          0 0 0 -7.733743227992913e-7 -7.483116469870298e-7 -7.494472270214732e-7
          -0.0000015445763267034576 -0.0000014949279578050487 -0.0000014968908487906759 0 0 -3.407250261900018e-7
          -4.068431504040098e-7 -6.831134375326792e-7 -8.151845059405087e-7 0 0 0
          -6.27060480063842e-7 -6.183024883152531e-7 -6.064642539570687e-7 -0.000001253701540347507 -0.0000012357781547145602 -0.0000012125590413416313
          0 0 -6.193476733704883e-7 -6.041127541630395e-7 -0.0000012378414274797377 -0.0000012079493685658126
          0 -4.2344107704449213e-7 -8.472970257680303e-7 0 0 -7.526218919665886e-7
          -7.750473273841916e-7 -0.0000015030919600703083 -0.0000015482612140572499 0 0 -7.982794891661771e-7
          -7.944185467248395e-7 -0.0000015941192111268835 -0.0000015855825618360362 0 0 -7.261246629627034e-7
          -7.417167867517035e-7 -0.0000014478149742565784 -0.0000014788572199441754 0 -6.577837692091318e-7 -0.0000013139871788914072
          0 0 -7.079387966286184e-7 -7.126517376132356e-7 -0.0000014145448848753124 -0.000001424399720794641
          0 -6.623551604289111e-7 -0.000001323406044788896 0 -5.619022675253644e-7 -0.00000112485863420014
          0 -6.15751186650531e-7 -0.0000012317778969882252 0 -5.436774678455083e-7 -0.0000010889377623124337
          0 -5.471007204924725e-7 -0.0000010951176006318385 0 0 -5.998402209839062e-7
          -5.446519097739742e-7 -0.0000011998886752146166 -0.0000010932762040105748 0 0 -5.485658635598507e-7
          -5.451312659988935e-7 -0.0000010978632738706541 -0.0000010907711964913586 0 -4.290432374139374e-7 -8.584516943323732e-7
          0 -4.4473951521900856e-7 -8.898942785250422e-7 0 -5.445604633015064e-7 -0.0000010893959824119834
          0 -5.191316277907523e-7 -0.0000010380655954179278 0 -3.2336141307883203e-7 -6.507113364004421e-7
          0 -3.040457370642943e-7 -6.097809740233149e-7 0 0 -6.38344692330819e-7
          -5.923482461439069e-7 -0.0000012763311246955127 -0.000001185773861003109 0 -6.896061739137119e-7 -0.0000013777437617177465
          0 0 -7.562011732182957e-7 -7.398659727679423e-7 -0.000001509007952602535 -0.0000014759590022860594
          0 0 0 -4.952759814927774e-7 -5.29463894533681e-7 -4.822086674305652e-7
          -9.894590110299215e-7 -0.000001057958627529872 -9.64113555758411e-7 0 -4.6863425532960033e-7 -9.374105574216745e-7
          0 -7.288608903850928e-7 -0.000001455260875011975 0 0 -5.806786355337496e-7
          -5.804753985882396e-7 -0.0000011613514196466267 -0.0000011613035335805534 0 0 -7.130582019920497e-7
          -6.748177089749499e-7 -0.0000014252134883321154 -0.0000013498713411168004 0 -6.302572932663889e-7 -0.00000126196091510191
          0 0 -6.592635446508981e-7 -6.206432954062277e-7 -0.000001318798762233447 -0.0000012434022012614523
          0 0 0 0 -2.7045353541441077e-7 -2.806062438232603e-7
          -2.8766888763475174e-7 -2.6270319442986936e-7 -5.435965947209048e-7 -5.664207131297315e-7 -5.774197181201267e-7 -5.289320879664196e-7
          0 -3.617590019199348e-7 -7.243078928336124e-7 0 -3.7133638802720835e-7 -7.455251558468886e-7
          0 0 -5.495121844412806e-7 -5.451877401536039e-7 -0.0000010980594082278297 -0.0000010912026989146447
          0 -5.60750101779591e-7 -0.0000011230625335413051 0 0 -6.421966475328883e-7
          -6.373858277334397e-7 -0.0000012835525907108172 -0.000001272163926687436 0 0 -4.885115890809511e-7
          -4.102418403783006e-7 -9.74432042384003e-7 -8.191563588611794e-7 0 -5.11874063583258e-7 -0.0000010238126973204203
          0 0 -5.940917074023488e-7 -5.93105557214651e-7 -0.0000011906045893515605 -0.00000118752173430631
          0 0 0 0 -3.88862038471015e-7 -4.1113077738018477e-7
          -3.8466705580235437e-7 -3.558729951745588e-7 -7.782587789377019e-7 -8.228565742122925e-7 -7.701942241133399e-7 -7.124141885445812e-7
          0 -5.531488362101943e-7 -0.0000011053933060022096 0 0 -3.175739676763827e-7
          -2.765005772714765e-7 -6.364849149275085e-7 -5.546496313014671e-7 0 0 -6.18728124984305e-7
          -6.64793293186991e-7 -0.0000012364346108751529 -0.0000013287940179931176 0 -6.834592671639382e-7 -0.000001365239788100989
          0 -5.96886185767962e-7 -0.0000011932974243569844 0 -5.609111684961991e-7 -0.0000011198028365089173
          0 -3.3023110496835606e-7 -6.625544200878593e-7 0 -2.3818952926321089e-7 -4.770128327788449e-7
          0 0 -5.619056375358049e-7 -6.177771045790725e-7 -0.000001121400934086032 -0.0000012338917530218033
          0 -3.086993583808659e-7 -6.183558359970337e-7 0 -2.817903785602641e-7 -5.630276885229788e-7
          0 -6.2495836908305e-7 -0.0000012481666849606038 0 -7.661785674323824e-7 -0.0000015292739308890822
          0 -2.436584143246633e-7 -4.894984650562508e-7 0 -5.766560841018717e-7 -0.0000011545035821423123
          0 0 0 -7.543452818452169e-7 -7.427887887854283e-7 -6.879630963931408e-7
          -0.0000015056496768670577 -0.000001483203995168265 -0.000001373054441890547 0 -3.14352257988683e-7 -6.347720616298046e-7
          0 0 -6.446462326921476e-7 -6.285239860724758e-7 -0.000001286578363683349 -0.0000012550444587937355
          0 -3.739017465930114e-7 -7.490857436035689e-7 0 -4.4057260526652655e-7 -8.815629451644611e-7
          0 -6.040496291536355e-7 -0.0000012061887954345233 0 -2.684267944874451e-7 -5.388052150737862e-7
          0 0 -3.8335978070007216e-7 -4.324851929393496e-7 -7.672382011085534e-7 -8.65633203094931e-7
          0 -4.31254611404928e-7 -8.630763878832052e-7 0 -2.2814872645092672e-7 -4.574918191410973e-7
          0 -6.43811971869052e-7 -0.0000012845983766566184 0 -6.499093054724776e-7 -0.000001298147987649524
          0 -7.791529686809866e-7 -0.0000015557841508790242 0 -5.896165159432069e-7 -0.0000011783381583053125
          0 0 -6.176607898113162e-7 -6.043506845616374e-7 -0.000001233268568739585 -0.000001207879067396315
          0 -6.318347167385063e-7 -0.0000012622749473258864 0 0 -5.882175082977774e-7
          -5.971904752735749e-7 -0.000001176299179436839 -0.0000011939451216440593 0 -6.179620100005925e-7 -0.0000012353676828752016
          0 -6.000580387929041e-7 -0.0000012001410192801138 0 -6.025846323968861e-7 -0.0000012042152817841002
          0 0 -5.316245738477687e-7 -5.459737291958511e-7 -0.0000010656941177632855 -0.000001094086463335566
          0 -5.820656591886819e-7 -0.0000011648950077747076 0 -5.978659472343924e-7 -0.0000011945993758582097
        </DataArray>
      </PointData>
      <CellData>
        <DataArray type="Int32" Name="libmesh_elem_id" format="ascii" RangeMin="1392" RangeMax="3231">
          1392 1393 1402 1403 1418 1419
          1434 1435 1442 1443 1448 1449
          1454 1455 1478 1479 1500 1501
          1512 1513 1522 1523 1546 1547
          1572 1573 1582 1583 1590 1591
          1608 1609 1614 1615 1616 1617
          1630 1631 1638 1639 1650 1651
          1654 1655 1656 1657 1678 1679
          1682 1683 1684 1685 1704 1705
          1714 1715 1718 1719 1746 1747
          1760 1761 1762 1763 1772 1773
          1790 1791 1794 1795 1802 1803
          1816 1817 1824 1825 1832 1833
          1838 1839 1840 1841 1846 1847
          1848 1849 1852 1853 1856 1857
          1858 1859 1862 1863 1864 1865
          1874 1875 1876 1877 1878 1879
          1882 1883 1888 1889 1904 1905
          1906 1907 1910 1911 1916 1917
          1924 1925 1926 1927 1930 1931
          1936 1937 1946 1947 1950 1951
          1956 1957 1960 1961 1982 1983
          1996 1997 1998 1999 2026 2027
          2028 2029 2038 2039 2046 2047
          2048 2049 2052 2053 2054 2055
          2058 2059 2060 2061 2084 2085
          2088 2089 2096 2097 2102 2103
          2106 2107 2110 2111 2126 2127
          2136 2137 2138 2139 2144 2145
          2148 2149 2154 2155 2158 2159
          2162 2163 2164 2165 2170 2171
          2176 2177 2178 2179 2196 2197
          2200 2201 2202 2203 2204 2205
          2212 2213 2220 2221 2222 2223
          2224 2225 2226 2227 2228 2229
          2232 2233 2236 2237 2246 2247
          2250 2251 2252 2253 2254 2255
          2260 2261 2264 2265 2266 2267
          2274 2275 2282 2283 2308 2309
          2310 2311 2312 2313 2318 2319
          2324 2325 2328 2329 2346 2347
          2350 2351 2364 2365 2368 2369
          2370 2371 2402 2403 2416 2417
          2420 2421 2444 2445 2458 2459
          2462 2463 2466 2467 2468 2469
          2470 2471 2478 2479 2484 2485
          2488 2489 2490 2491 2502 2503
          2504 2505 2510 2511 2512 2513
          2524 2525 2550 2551 2566 2567
          2570 2571 2580 2581 2582 2583
          2602 2603 2608 2609 2616 2617
          2628 2629 2634 2635 2636 2637
          2640 2641 2642 2643 2644 2645
          2650 2651 2666 2667 2668 2669
          2684 2685 2690 2691 2696 2697
          2700 2701 2710 2711 2714 2715
          2716 2717 2726 2727 2750 2751
          2760 2761 2766 2767 2772 2773
          2782 2783 2798 2799 2802 2803
          2810 2811 2826 2827 2830 2831
          2838 2839 2860 2861 2868 2869
          2874 2875 2884 2885 2922 2923
          2928 2929 2934 2935 2938 2939
          2946 2947 2948 2949 2960 2961
          2962 2963 2964 2965 2974 2975
          2978 2979 2994 2995 2998 2999
          3004 3005 3008 3009 3020 3021
          3028 3029 3034 3035 3038 3039
          3040 3041 3042 3043 3050 3051
          3052 3053 3054 3055 3060 3061
          3066 3067 3072 3073 3076 3077
          3082 3083 3086 3087 3096 3097
          3100 3101 3102 3103 3112 3113
          3116 3117 3148 3149 3154 3155
          3158 3159 3166 3167 3182 3183
          3230 3231
        </DataArray>
        <DataArray type="Int32" Name="subdomain_id" format="ascii" RangeMin="107" RangeMax="107">
          107 107 107 107 107 107
          107 107 107 107 107 107
          107 107 107 107 107 107
          107 107 107 107 107 107
          107 107 107 107 107 107
          107 107 107 107 107 107
          107 107 107 107 107 107
          107 107 107 107 107 107
          107 107 107 107 107 107
          107 107 107 107 107 107
          107 107 107 107 107 107
          107 107 107 107 107 107
          107 107 107 107 107 107
          107 107 107 107 107 107
          107 107 107 107 107 107
          107 107 107 107 107 107
          107 107 107 107 107 107
          107 107 107 107 107 107
          107 107 107 107 107 107
          107 107 107 107 107 107
          107 107 107 107 107 107
          107 107 107 107 107 107
          107 107 107 107 107 107
          107 107 107 107 107 107
          107 107 107 107 107 107
          107 107 107 107 107 107
          107 107 107 107 107 107
          107 107 107 107 107 107
          107 107 107 107 107 107
          107 107 107 107 107 107
          107 107 107 107 107 107
          107 107 107 107 107 107
          107 107 107 107 107 107
          107 107 107 107 107 107
          107 107 107 107 107 107
          107 107 107 107 107 107
          107 107 107 107 107 107
          107 107 107 107 107 107
          107 107 107 107 107 107
          107 107 107 107 107 107
          107 107 107 107 107 107
          107 107 107 107 107 107
          107 107 107 107 107 107
          107 107 107 107 107 107
          107 107 107 107 107 107
          107 107 107 107 107 107
          107 107 107 107 107 107
          107 107 107 107 107 107
          107 107 107 107 107 107
          107 107 107 107 107 107
          107 107 107 107 107 107
          107 107 107 107 107 107
          107 107 107 107 107 107
          107 107 107 107 107 107
          107 107 107 107 107 107
          107 107 107 107 107 107
          107 107 107 107 107 107
          107 107 107 107 107 107
          107 107 107 107 107 107
          107 107 107 107 107 107
          107 107 107 107 107 107
          107 107 107 107 107 107
          107 107 107 107 107 107
          107 107 107 107 107 107
          107 107 107 107 107 107
          107 107 107 107 107 107
          107 107 107 107 107 107
          107 107 107 107 107 107
          107 107 107 107 107 107
          107 107 107 107 107 107
          107 107 107 107 107 107
          107 107 107 107 107 107
          107 107 107 107 107 107
          107 107 107 107 107 107
          107 107 107 107 107 107
          107 107
        </DataArray>
        <DataArray type="Int32" Name="processor_id" format="ascii" RangeMin="2" RangeMax="2">
          2 2 2 2 2 2
          2 2 2 2 2 2
          2 2 2 2 2 2
          2 2 2 2 2 2
          2 2 2 2 2 2
          2 2 2 2 2 2
          2 2 2 2 2 2
          2 2 2 2 2 2
          2 2 2 2 2 2
          2 2 2 2 2 2
          2 2 2 2 2 2
          2 2 2 2 2 2
          2 2 2 2 2 2
          2 2 2 2 2 2
          2 2 2 2 2 2
          2 2 2 2 2 2
          2 2 2 2 2 2
          2 2 2 2 2 2
          2 2 2 2 2 2
          2 2 2 2 2 2
          2 2 2 2 2 2
          2 2 2 2 2 2
          2 2 2 2 2 2
          2 2 2 2 2 2
          2 2 2 2 2 2
          2 2 2 2 2 2
          2 2 2 2 2 2
          2 2 2 2 2 2
          2 2 2 2 2 2
          2 2 2 2 2 2
          2 2 2 2 2 2
          2 2 2 2 2 2
          2 2 2 2 2 2
          2 2 2 2 2 2
          2 2 2 2 2 2
          2 2 2 2 2 2
          2 2 2 2 2 2
          2 2 2 2 2 2
          2 2 2 2 2 2
          2 2 2 2 2 2
          2 2 2 2 2 2
          2 2 2 2 2 2
          2 2 2 2 2 2
          2 2 2 2 2 2
          2 2 2 2 2 2
          2 2 2 2 2 2
          2 2 2 2 2 2
          2 2 2 2 2 2
          2 2 2 2 2 2
          2 2 2 2 2 2
          2 2 2 2 2 2
          2 2 2 2 2 2
          2 2 2 2 2 2
          2 2 2 2 2 2
          2 2 2 2 2 2
          2 2 2 2 2 2
          2 2 2 2 2 2
          2 2 2 2 2 2
          2 2 2 2 2 2
          2 2 2 2 2 2
          2 2 2 2 2 2
          2 2 2 2 2 2
          2 2 2 2 2 2
          2 2 2 2 2 2
          2 2 2 2 2 2
          2 2 2 2 2 2
          2 2 2 2 2 2
          2 2 2 2 2 2
          2 2 2 2 2 2
          2 2 2 2 2 2
          2 2 2 2 2 2
          2 2 2 2 2 2
          2 2 2 2 2 2
          2 2 2 2 2 2
          2 2 2 2 2 2
          2 2
        </DataArray>
      </CellData>
      <Points>
        <DataArray type="Float64" Name="Points" NumberOfComponents="3" format="ascii" RangeMin="0.0055128205128194" RangeMax="0.014586579917196396">
          0.010655961336451 0.0054415469453289 0 0.010738296327413 0.0059250363170334 0
          0.010252884061106 0.0059462536680524 0 0.010205117478458 0.0054994523140404 0
          0.010655961336451 0.0054415469453289 0.00015 0.010738296327413 0.0059250363170334 0.00015
          0.010252884061106 0.0059462536680524 0.00015 0.010205117478458 0.0054994523140404 0.00015
          0.010655961336451 0.0054415469453289 0.0003 0.010738296327413 0.0059250363170334 0.0003
          0.010252884061106 0.0059462536680524 0.0003 0.010205117478458 0.0054994523140404 0.0003
          0.011940440807394 0.0034141066074527 0 0.011459595517011 0.003824326979063 0
          0.011102612382238 0.0034627190197861 0 0.011355953963772 0.0030463545109029 0
          0.011940440807394 0.0034141066074527 0.00015 0.011459595517011 0.003824326979063 0.00015
          0.011102612382238 0.0034627190197861 0.00015 0.011355953963772 0.0030463545109029 0.00015
          0.011940440807394 0.0034141066074527 0.0003 0.011459595517011 0.003824326979063 0.0003
          0.011102612382238 0.0034627190197861 0.0003 0.011355953963772 0.0030463545109029 0.0003
          0.010057653370411 0.0084974472595183 0 0.01054988842507 0.0084422245958245 0
          0.010057653370411 0.0084974472595183 0.00015 0.01054988842507 0.0084422245958245 0.00015
          0.010057653370411 0.0084974472595183 0.0003 0.01054988842507 0.0084422245958245 0.0003
          0.011046194733105 0.00090743319272295 0 0.011064186406242 0.00044456569898216 0
          0.011549090679959 0.00043919238601916 0 0.011507246232172 0.00087204304167501 0
          0.011046194733105 0.00090743319272295 0.00015 0.011064186406242 0.00044456569898216 0.00015
          0.011549090679959 0.00043919238601916 0.00015 0.011507246232172 0.00087204304167501 0.00015
          0.011046194733105 0.00090743319272295 0.0003 0.011064186406242 0.00044456569898216 0.0003
          0.011549090679959 0.00043919238601916 0.0003 0.011507246232172 0.00087204304167501 0.0003
          0.010695724673322 0.003201084864495 0 0.010922769205465 0.002821493997395 0
          0.010695724673322 0.003201084864495 0.00015 0.010922769205465 0.002821493997395 0.00015
          0.010695724673322 0.003201084864495 0.0003 0.010922769205465 0.002821493997395 0.0003
          0.0063972422249218 0.0045440807567198 0 0.0065062213292024 0.0050164807168814 0
          0.0062389906493372 0.0053128670028646 0 0.0060512178389602 0.0047929387822649 0
          0.0063972422249218 0.0045440807567198 0.00015 0.0065062213292024 0.0050164807168814 0.00015
          0.0062389906493372 0.0053128670028646 0.00015 0.0060512178389602 0.0047929387822649 0.00015
          0.0063972422249218 0.0045440807567198 0.0003 0.0065062213292024 0.0050164807168814 0.0003
          0.0062389906493372 0.0053128670028646 0.0003 0.0060512178389602 0.0047929387822649 0.0003
          0.0077450758336629 0.0014176167893871 0 0.0081853433575 0.0016343392489207 0
          0.0081296210030831 0.0020475545417094 0 0.0077097822266787 0.0019577759081516 0
          0.0077450758336629 0.0014176167893871 0.00015 0.0081853433575 0.0016343392489207 0.00015
          0.0081296210030831 0.0020475545417094 0.00015 0.0077097822266787 0.0019577759081516 0.00015
          0.0077450758336629 0.0014176167893871 0.0003 0.0081853433575 0.0016343392489207 0.0003
          0.0081296210030831 0.0020475545417094 0.0003 0.0077097822266787 0.0019577759081516 0.0003
          0.010163700921554 0.0050965322104848 0 0.010539876174215 0.0050107335132671 0
          0.010163700921554 0.0050965322104848 0.00015 0.010539876174215 0.0050107335132671 0.00015
          0.010163700921554 0.0050965322104848 0.0003 0.010539876174215 0.0050107335132671 0.0003
          0.0067145785472978 0.00092067788586619 0 0.0066311284750677 0.00045344715700039 0
          0.0071039644964018 0.00045254776362746 0 0.0071622170579096 0.00091220258976311 0
          0.0067145785472978 0.00092067788586619 0.00015 0.0066311284750677 0.00045344715700039 0.00015
          0.0071039644964018 0.00045254776362746 0.00015 0.0071622170579096 0.00091220258976311 0.00015
          0.0067145785472978 0.00092067788586619 0.0003 0.0066311284750677 0.00045344715700039 0.0003
          0.0071039644964018 0.00045254776362746 0.0003 0.0071622170579096 0.00091220258976311 0.0003
          0.011832021157187 0.0073476785459853 0 0.011779780861271 0.0068646395959748 0
          0.012243708910156 0.0068324173193727 0 0.011832021157187 0.0073476785459853 0.00015
          0.011779780861271 0.0068646395959748 0.00015 0.012243708910156 0.0068324173193727 0.00015
          0.011832021157187 0.0073476785459853 0.0003 0.011779780861271 0.0068646395959748 0.0003
          0.012243708910156 0.0068324173193727 0.0003 0.0084907788898463 0.00044286110481525 0
          0.0089555217282148 0.00046389179151574 0 0.0088246864415892 0.00090448805343066 0
          0.0084146790711037 0.00087434414493667 0 0.0084907788898463 0.00044286110481525 0.00015
          0.0089555217282148 0.00046389179151574 0.00015 0.0088246864415892 0.00090448805343066 0.00015
          0.0084146790711037 0.00087434414493667 0.00015 0.0084907788898463 0.00044286110481525 0.0003
          0.0089555217282148 0.00046389179151574 0.0003 0.0088246864415892 0.00090448805343066 0.0003
          0.0084146790711037 0.00087434414493667 0.0003 0.0073198391209489 0.002802975731369 0
          0.007729981097025 0.0028801564362105 0 0.0077015154526268 0.0033237594367458 0
          0.0072927827923603 0.0032114269239825 0 0.0073198391209489 0.002802975731369 0.00015
          0.007729981097025 0.0028801564362105 0.00015 0.0077015154526268 0.0033237594367458 0.00015
          0.0072927827923603 0.0032114269239825 0.00015 0.0073198391209489 0.002802975731369 0.0003
          0.007729981097025 0.0028801564362105 0.0003 0.0077015154526268 0.0033237594367458 0.0003
          0.0072927827923603 0.0032114269239825 0.0003 0.011061956134478 0.0014022262787872 0
          0.011061956134478 0.0014022262787872 0.00015 0.011061956134478 0.0014022262787872 0.0003
          0.0067262777673885 0.0043003855308917 0 0.0070184374453973 0.0044097475846897 0
          0.0069143452336461 0.0047780273607631 0 0.0067262777673885 0.0043003855308917 0.00015
          0.0070184374453973 0.0044097475846897 0.00015 0.0069143452336461 0.0047780273607631 0.00015
          0.0067262777673885 0.0043003855308917 0.0003 0.0070184374453973 0.0044097475846897 0.0003
          0.0069143452336461 0.0047780273607631 0.0003 0.0072966772765568 0.0023596996909359 0
          0.0077191611848381 0.0024307703640478 0 0.0072966772765568 0.0023596996909359 0.00015
          0.0077191611848381 0.0024307703640478 0.00015 0.0072966772765568 0.0023596996909359 0.0003
          0.0077191611848381 0.0024307703640478 0.0003 0.010569749843509 0.00092230265866691 0
          0.010578573679683 0.0013844170604281 0 0.010145320905195 0.0014335884987508 0
          0.01008894187929 0.00096115561381429 0 0.010569749843509 0.00092230265866691 0.00015
          0.010578573679683 0.0013844170604281 0.00015 0.010145320905195 0.0014335884987508 0.00015
          0.01008894187929 0.00096115561381429 0.00015 0.010569749843509 0.00092230265866691 0.0003
          0.010578573679683 0.0013844170604281 0.0003 0.010145320905195 0.0014335884987508 0.0003
          0.01008894187929 0.00096115561381429 0.0003 0.0061669869081239 0.00049673093518566 0
          0.0062913293509889 0.00097410606592609 0 0.0059245902968253 0.0010856763727913 0
          0.0057061681768373 0.00065177476244477 0 0.0061669869081239 0.00049673093518566 0.00015
          0.0062913293509889 0.00097410606592609 0.00015 0.0059245902968253 0.0010856763727913 0.00015
          0.0057061681768373 0.00065177476244477 0.00015 0.0061669869081239 0.00049673093518566 0.0003
          0.0062913293509889 0.00097410606592609 0.0003 0.0059245902968253 0.0010856763727913 0.0003
          0.0057061681768373 0.00065177476244477 0.0003 0.010613957240618 0.0022894151744625 0
          0.011031068838334 0.0023895404946521 0 0.01053554486979 0.0026566023779455 0
          0.010613957240618 0.0022894151744625 0.00015 0.011031068838334 0.0023895404946521 0.00015
          0.01053554486979 0.0026566023779455 0.00015 0.010613957240618 0.0022894151744625 0.0003
          0.011031068838334 0.0023895404946521 0.0003 0.01053554486979 0.0026566023779455 0.0003
          0.0055128205128194 0 0 0.0060256410256386 0 0
          0.0055128205128194 0 0.00015 0.0060256410256386 0 0.00015
          0.0055128205128194 0 0.0003 0.0060256410256386 0 0.0003
          0.0087932726011055 0.003543484648519 0 0.0081725565838686 0.0034418576035907 0
          0.0081844882448281 0.0029554535172717 0 0.0086653225286358 0.0029358056411338 0
          0.0087932726011055 0.003543484648519 0.00015 0.0081725565838686 0.0034418576035907 0.00015
          0.0081844882448281 0.0029554535172717 0.00015 0.0086653225286358 0.0029358056411338 0.00015
          0.0087932726011055 0.003543484648519 0.0003 0.0081725565838686 0.0034418576035907 0.0003
          0.0081844882448281 0.0029554535172717 0.0003 0.0086653225286358 0.0029358056411338 0.0003
          0.010609256891376 0.0018508518753275 0 0.011063963632424 0.0019108783312894 0
          0.010609256891376 0.0018508518753275 0.00015 0.011063963632424 0.0019108783312894 0.00015
          0.010609256891376 0.0018508518753275 0.0003 0.011063963632424 0.0019108783312894 0.0003
          0.0061614658010566 0.0029736343202522 0 0.0061372854142827 0.0036106222238676 0
          0.0061614658010566 0.0029736343202522 0.00015 0.0061372854142827 0.0036106222238676 0.00015
          0.0061614658010566 0.0029736343202522 0.0003 0.0061372854142827 0.0036106222238676 0.0003
          0.0091223832784702 0.0028108558594978 0 0.0093224708097351 0.0032450014434347 0
          0.0091223832784702 0.0028108558594978 0.00015 0.0093224708097351 0.0032450014434347 0.00015
          0.0091223832784702 0.0028108558594978 0.0003 0.0093224708097351 0.0032450014434347 0.0003
          0.010365654248251 0.0046741943492533 0 0.010130092133721 0.0048347586786618 0
          0.0098673679311407 0.0047157860708196 0 0.010078628200493 0.0044157313734999 0
          0.010365654248251 0.0046741943492533 0.00015 0.010130092133721 0.0048347586786618 0.00015
          0.0098673679311407 0.0047157860708196 0.00015 0.010078628200493 0.0044157313734999 0.00015
          0.010365654248251 0.0046741943492533 0.0003 0.010130092133721 0.0048347586786618 0.0003
          0.0098673679311407 0.0047157860708196 0.0003 0.010078628200493 0.0044157313734999 0.0003
          0.0074225055052033 0.0045889494028562 0 0.0073125071067115 0.0049521547682488 0
          0.0074225055052033 0.0045889494028562 0.00015 0.0073125071067115 0.0049521547682488 0.00015
          0.0074225055052033 0.0045889494028562 0.0003 0.0073125071067115 0.0049521547682488 0.0003
          0.0061231952422177 0.002444135475079 0 0.0061231952422177 0.002444135475079 0.00015
          0.0061231952422177 0.002444135475079 0.0003 0.007634491258567 0.0037589111207536 0
          0.0080978935956725 0.0039120786728548 0 0.007634491258567 0.0037589111207536 0.00015
          0.0080978935956725 0.0039120786728548 0.00015 0.007634491258567 0.0037589111207536 0.0003
          0.0080978935956725 0.0039120786728548 0.0003 0.0067400809843091 0.0034207975388345 0
          0.0067100713183769 0.0039836679330495 0 0.0063054236008776 0.0041223407032968 0
          0.0067400809843091 0.0034207975388345 0.00015 0.0067100713183769 0.0039836679330495 0.00015
          0.0063054236008776 0.0041223407032968 0.00015 0.0067400809843091 0.0034207975388345 0.0003
          0.0067100713183769 0.0039836679330495 0.0003 0.0063054236008776 0.0041223407032968 0.0003
          0.0064429727892239 0.0018594619814901 0 0.0065003657821779 0.0023397297588745 0
          0.0060722038988066 0.0019538017587265 0 0.0064429727892239 0.0018594619814901 0.00015
          0.0065003657821779 0.0023397297588745 0.00015 0.0060722038988066 0.0019538017587265 0.00015
          0.0064429727892239 0.0018594619814901 0.0003 0.0065003657821779 0.0023397297588745 0.0003
          0.0060722038988066 0.0019538017587265 0.0003 0.0068255396015086 0.0051581133306003 0
          0.0068255396015086 0.0051581133306003 0.00015 0.0068255396015086 0.0051581133306003 0.0003
          0.0065384615384579 0 0 0.0065384615384579 0 0.00015
          0.0065384615384579 0 0.0003 0.012879713087233 0.0060908484912964 0
          0.012982043505355 0.0056371881930815 0 0.012879713087233 0.0060908484912964 0.00015
          0.012982043505355 0.0056371881930815 0.00015 0.012879713087233 0.0060908484912964 0.0003
          0.012982043505355 0.0056371881930815 0.0003 0.0065699942646101 0.0028542668018424 0
          0.0065699942646101 0.0028542668018424 0.00015 0.0065699942646101 0.0028542668018424 0.0003
          0.0084683943974961 0.0045583446766593 0 0.0079943718437571 0.0043747262241866 0
          0.0085823759797054 0.0040943119694046 0 0.0084683943974961 0.0045583446766593 0.00015
          0.0079943718437571 0.0043747262241866 0.00015 0.0085823759797054 0.0040943119694046 0.00015
          0.0084683943974961 0.0045583446766593 0.0003 0.0079943718437571 0.0043747262241866 0.0003
          0.0085823759797054 0.0040943119694046 0.0003 0.0085830886495109 0.0024681574500846 0
          0.0090044137010858 0.0023542069269131 0 0.0085830886495109 0.0024681574500846 0.00015
          0.0090044137010858 0.0023542069269131 0.00015 0.0085830886495109 0.0024681574500846 0.0003
          0.0090044137010858 0.0023542069269131 0.0003 0.0098857235699117 0.0079055319030787 0
          0.0095144479526816 0.0076594245921199 0 0.0094715724969347 0.0073263583858313 0
          0.0099283521138692 0.0073475677072736 0 0.0098857235699117 0.0079055319030787 0.00015
          0.0095144479526816 0.0076594245921199 0.00015 0.0094715724969347 0.0073263583858313 0.00015
          0.0099283521138692 0.0073475677072736 0.00015 0.0098857235699117 0.0079055319030787 0.0003
          0.0095144479526816 0.0076594245921199 0.0003 0.0094715724969347 0.0073263583858313 0.0003
          0.0099283521138692 0.0073475677072736 0.0003 0.010833716827414 0.0069257207373803 0
          0.010357413059119 0.0069077241183533 0 0.010300982556592 0.0064274708783385 0
          0.010786080808085 0.0064391381968206 0 0.010833716827414 0.0069257207373803 0.00015
          0.010357413059119 0.0069077241183533 0.00015 0.010300982556592 0.0064274708783385 0.00015
          0.010786080808085 0.0064391381968206 0.00015 0.010833716827414 0.0069257207373803 0.0003
          0.010357413059119 0.0069077241183533 0.0003 0.010300982556592 0.0064274708783385 0.0003
          0.010786080808085 0.0064391381968206 0.0003 0.012723582323863 0.006509831652106 0
          0.012251440655851 0.0062918667587536 0 0.012542392069256 0.0059723735377719 0
          0.012723582323863 0.006509831652106 0.00015 0.012251440655851 0.0062918667587536 0.00015
          0.012542392069256 0.0059723735377719 0.00015 0.012723582323863 0.006509831652106 0.0003
          0.012251440655851 0.0062918667587536 0.0003 0.012542392069256 0.0059723735377719 0.0003
          0.0071151184692216 0.0040272738406853 0 0.0071151184692216 0.0040272738406853 0.00015
          0.0071151184692216 0.0040272738406853 0.0003 0.005927800859391 0.0043689372395662 0
          0.005927800859391 0.0043689372395662 0.00015 0.005927800859391 0.0043689372395662 0.0003
          0.0092411258002763 0.0078319639415625 0 0.0089588909882048 0.0073942383853577 0
          0.0092411258002763 0.0078319639415625 0.00015 0.0089588909882048 0.0073942383853577 0.00015
          0.0092411258002763 0.0078319639415625 0.0003 0.0089588909882048 0.0073942383853577 0.0003
          0.009874674666521 0.0068715373563056 0 0.010410157305432 0.007394545582291 0
          0.009874674666521 0.0068715373563056 0.00015 0.010410157305432 0.007394545582291 0.00015
          0.009874674666521 0.0068715373563056 0.0003 0.010410157305432 0.007394545582291 0.0003
          0.0075354000991736 0.004186248288406 0 0.0075354000991736 0.004186248288406 0.00015
          0.0075354000991736 0.004186248288406 0.0003 0.01131847387487 0.0058224977902188 0
          0.011696082283392 0.0060272916092408 0 0.011725204011411 0.0063910302275778 0
          0.011265055974573 0.0064250601080915 0 0.01131847387487 0.0058224977902188 0.00015
          0.011696082283392 0.0060272916092408 0.00015 0.011725204011411 0.0063910302275778 0.00015
          0.011265055974573 0.0064250601080915 0.00015 0.01131847387487 0.0058224977902188 0.0003
          0.011696082283392 0.0060272916092408 0.0003 0.011725204011411 0.0063910302275778 0.0003
          0.011265055974573 0.0064250601080915 0.0003 0.012000241143886 0.0058170880130831 0
          0.012000241143886 0.0058170880130831 0.00015 0.012000241143886 0.0058170880130831 0.0003
          0.011120492592586 0.0052514705902296 0 0.011120492592586 0.0052514705902296 0.00015
          0.011120492592586 0.0052514705902296 0.0003 0.0092910901193945 0.0039260363263486 0
          0.0090503465409481 0.0043132092761106 0 0.0092910901193945 0.0039260363263486 0.00015
          0.0090503465409481 0.0043132092761106 0.00015 0.0092910901193945 0.0039260363263486 0.0003
          0.0090503465409481 0.0043132092761106 0.0003 0.007889027184575 0.0048982243533992 0
          0.007889027184575 0.0048982243533992 0.00015 0.007889027184575 0.0048982243533992 0.0003
          0.0094935553236164 0.004533528646427 0 0.0097061514105808 0.0041851036755216 0
          0.0094935553236164 0.004533528646427 0.00015 0.0097061514105808 0.0041851036755216 0.00015
          0.0094935553236164 0.004533528646427 0.0003 0.0097061514105808 0.0041851036755216 0.0003
          0.007602124101561 0.0050930903063015 0 0.007602124101561 0.0050930903063015 0.00015
          0.007602124101561 0.0050930903063015 0.0003 0.010723762445737 0.0044202706845482 0
          0.010410164583979 0.0041181159817359 0 0.010723762445737 0.0044202706845482 0.00015
          0.010410164583979 0.0041181159817359 0.00015 0.010723762445737 0.0044202706845482 0.0003
          0.010410164583979 0.0041181159817359 0.0003 0.01095205032792 0.0047963590452232 0
          0.01095205032792 0.0047963590452232 0.00015 0.01095205032792 0.0047963590452232 0.0003
          0.011303178752756 0.0069106117689346 0 0.011303178752756 0.0069106117689346 0.00015
          0.011303178752756 0.0069106117689346 0.0003 0.01003253261535 0.0038623502872685 0
          0.01003253261535 0.0038623502872685 0.00015 0.01003253261535 0.0038623502872685 0.0003
          0.0076528923620256 0.0053996878686031 0 0.0072494384034052 0.005322441352826 0
          0.0076528923620256 0.0053996878686031 0.00015 0.0072494384034052 0.005322441352826 0.00015
          0.0076528923620256 0.0053996878686031 0.0003 0.0072494384034052 0.005322441352826 0.0003
          0.0096442187720765 0.0035928190702974 0 0.0096442187720765 0.0035928190702974 0.00015
          0.0096442187720765 0.0035928190702974 0.0003 0.012013949131265 0.002158444108951 0
          0.012018063243501 0.0027123142038817 0 0.012013949131265 0.002158444108951 0.00015
          0.012018063243501 0.0027123142038817 0.00015 0.012013949131265 0.002158444108951 0.0003
          0.012018063243501 0.0027123142038817 0.0003 0.0080144547016537 0.00086684480617367 0
          0.008304219624614 0.0012703006012415 0 0.0080327132462595 0.0011721512048422 0
          0.0080144547016537 0.00086684480617367 0.00015 0.008304219624614 0.0012703006012415 0.00015
          0.0080327132462595 0.0011721512048422 0.00015 0.0080144547016537 0.00086684480617367 0.0003
          0.008304219624614 0.0012703006012415 0.0003 0.0080327132462595 0.0011721512048422 0.0003
          0.0094736490244467 0.0005865877812969 0 0.010068957850501 0.00047856930843549 0
          0.0096358530086744 0.0010887425154837 0 0.0094736490244467 0.0005865877812969 0.00015
          0.010068957850501 0.00047856930843549 0.00015 0.0096358530086744 0.0010887425154837 0.00015
          0.0094736490244467 0.0005865877812969 0.0003 0.010068957850501 0.00047856930843549 0.0003
          0.0096358530086744 0.0010887425154837 0.0003 0.0071984303565192 0.0057392272964834 0
          0.0067200519522164 0.0055550541115669 0 0.0071984303565192 0.0057392272964834 0.00015
          0.0067200519522164 0.0055550541115669 0.00015 0.0071984303565192 0.0057392272964834 0.0003
          0.0067200519522164 0.0055550541115669 0.0003 0.013091675611077 0.0041736873632184 0
          0.012621380555602 0.004071395146678 0 0.012601464682814 0.0035037767307713 0
          0.013091675611077 0.0041736873632184 0.00015 0.012621380555602 0.004071395146678 0.00015
          0.012601464682814 0.0035037767307713 0.00015 0.013091675611077 0.0041736873632184 0.0003
          0.012621380555602 0.004071395146678 0.0003 0.012601464682814 0.0035037767307713 0.0003
          0.01153639784925 0.0020208067996516 0 0.011496246026306 0.0025480504488598 0
          0.01153639784925 0.0020208067996516 0.00015 0.011496246026306 0.0025480504488598 0.00015
          0.01153639784925 0.0020208067996516 0.0003 0.011496246026306 0.0025480504488598 0.0003
          0.011043213382792 0.0084269911709333 0 0.011043213382792 0.0084269911709333 0.00015
          0.011043213382792 0.0084269911709333 0.0003 0.010128205128191 0 0
          0.0096153846153732 0 0 0.010128205128191 0 0.00015
          0.0096153846153732 0 0.00015 0.010128205128191 0 0.0003
          0.0096153846153732 0 0.0003 0.0091025641025551 0 0
          0.0085897435897353 0 0 0.0091025641025551 0 0.00015
          0.0085897435897353 0 0.00015 0.0091025641025551 0 0.0003
          0.0085897435897353 0 0.0003 0.0085182476127008 0.0020437661198126 0
          0.0089029205554566 0.0019047336662455 0 0.0085182476127008 0.0020437661198126 0.00015
          0.0089029205554566 0.0019047336662455 0.00015 0.0085182476127008 0.0020437661198126 0.0003
          0.0089029205554566 0.0019047336662455 0.0003 0.0081522818828449 0.0024947087352937 0
          0.0081522818828449 0.0024947087352937 0.00015 0.0081522818828449 0.0024947087352937 0.0003
          0.010641025641009 0 0 0.010579843756946 0.00045349299099366 0
          0.010641025641009 0 0.00015 0.010579843756946 0.00045349299099366 0.00015
          0.010641025641009 0 0.0003 0.010579843756946 0.00045349299099366 0.0003
          0.011153846153828 0 0 0.011153846153828 0 0.00015
          0.011153846153828 0 0.0003 0.011760912133753 0.0054122119446059 0
          0.011760912133753 0.0054122119446059 0.00015 0.011760912133753 0.0054122119446059 0.0003
          0.011666666666648 0 0 0.011666666666648 0 0.00015
          0.011666666666648 0 0.0003 0.011547825504055 0.0049713459697514 0
          0.011547825504055 0.0049713459697514 0.00015 0.011547825504055 0.0049713459697514 0.0003
          0.011349632014182 0.0045239710214715 0 0.011349632014182 0.0045239710214715 0.00015
          0.011349632014182 0.0045239710214715 0.0003 0.011997463288521 0.00046572766410539 0
          0.012179487179468 0 0 0.011997463288521 0.00046572766410539 0.00015
          0.012179487179468 0 0.00015 0.011997463288521 0.00046572766410539 0.0003
          0.012179487179468 0 0.0003 0.01039056673058 0.0035410773695937 0
          0.010772622187787 0.0038062315725381 0 0.01039056673058 0.0035410773695937 0.00015
          0.010772622187787 0.0038062315725381 0.00015 0.01039056673058 0.0035410773695937 0.0003
          0.010772622187787 0.0038062315725381 0.0003 0.0089323359070786 0.0047421281357296 0
          0.0089323359070786 0.0047421281357296 0.00015 0.0089323359070786 0.0047421281357296 0.0003
          0.010891746765568 0.007407252260552 0 0.010891746765568 0.007407252260552 0.00015
          0.010891746765568 0.007407252260552 0.0003 0.011089383238376 0.0041358143249023 0
          0.011089383238376 0.0041358143249023 0.00015 0.011089383238376 0.0041358143249023 0.0003
          0.007205317033861 0.0036141963404016 0 0.007205317033861 0.0036141963404016 0.00015
          0.007205317033861 0.0036141963404016 0.0003 0.0080269839945158 0.0054023282425744 0
          0.0080269839945158 0.0054023282425744 0.00015 0.0080269839945158 0.0054023282425744 0.0003
          0.0077721363879251 0.0058968168784219 0 0.0077721363879251 0.0058968168784219 0.00015
          0.0077721363879251 0.0058968168784219 0.0003 0.0095370253310475 0.0025850582106885 0
          0.009732219723835 0.0029713438236062 0 0.0095370253310475 0.0025850582106885 0.00015
          0.009732219723835 0.0029713438236062 0.00015 0.0095370253310475 0.0025850582106885 0.0003
          0.009732219723835 0.0029713438236062 0.0003 0.0094100372761059 0.0021522308351028 0
          0.0094100372761059 0.0021522308351028 0.00015 0.0094100372761059 0.0021522308351028 0.0003
          0.0087313387484914 0.001424359608332 0 0.0084651319029022 0.0017289788972556 0
          0.0087313387484914 0.001424359608332 0.00015 0.0084651319029022 0.0017289788972556 0.00015
          0.0087313387484914 0.001424359608332 0.0003 0.0084651319029022 0.0017289788972556 0.0003
          0.011363196701121 0.0073867521895413 0 0.011894488312007 0.0078344841271679 0
          0.011431801070778 0.0078815011129823 0 0.011363196701121 0.0073867521895413 0.00015
          0.011894488312007 0.0078344841271679 0.00015 0.011431801070778 0.0078815011129823 0.00015
          0.011363196701121 0.0073867521895413 0.0003 0.011894488312007 0.0078344841271679 0.0003
          0.011431801070778 0.0078815011129823 0.0003 0.011511795106494 0.0083968566041475 0
          0.011511795106494 0.0083968566041475 0.00015 0.011511795106494 0.0083968566041475 0.0003
          0.0093066157528448 0.0017085494075796 0 0.0093066157528448 0.0017085494075796 0.00015
          0.0093066157528448 0.0017085494075796 0.0003 0.011737204813157 0.0042624504192267 0
          0.011920232844873 0.0047153506313134 0 0.011737204813157 0.0042624504192267 0.00015
          0.011920232844873 0.0047153506313134 0.00015 0.011737204813157 0.0042624504192267 0.0003
          0.011920232844873 0.0047153506313134 0.0003 0.0097199155871303 0.0015315099671301 0
          0.0098040259351994 0.0019696894002764 0 0.0097199155871303 0.0015315099671301 0.00015
          0.0098040259351994 0.0019696894002764 0.00015 0.0097199155871303 0.0015315099671301 0.0003
          0.0098040259351994 0.0019696894002764 0.0003 0.0099068743951204 0.0023814903757239 0
          0.0099068743951204 0.0023814903757239 0.00015 0.0099068743951204 0.0023814903757239 0.0003
          0.010196799496301 0.0018655242590307 0 0.010252080701677 0.0022738797315184 0
          0.010196799496301 0.0018655242590307 0.00015 0.010252080701677 0.0022738797315184 0.00015
          0.010196799496301 0.0018655242590307 0.0003 0.010252080701677 0.0022738797315184 0.0003
          0.0082479601882269 0.0062087007836213 0 0.0083721174281176 0.0058457654542534 0
          0.0087793359412623 0.006030240425184 0 0.0086690881028679 0.0063945203238097 0
          0.0082479601882269 0.0062087007836213 0.00015 0.0083721174281176 0.0058457654542534 0.00015
          0.0087793359412623 0.006030240425184 0.00015 0.0086690881028679 0.0063945203238097 0.00015
          0.0082479601882269 0.0062087007836213 0.0003 0.0083721174281176 0.0058457654542534 0.0003
          0.0087793359412623 0.006030240425184 0.0003 0.0086690881028679 0.0063945203238097 0.0003
          0.0098103305116681 0.0063862496116293 0 0.0098103305116681 0.0063862496116293 0.00015
          0.0098103305116681 0.0063862496116293 0.0003 0.0084248193747317 0.0050261658136402 0
          0.0084248193747317 0.0050261658136402 0.00015 0.0084248193747317 0.0050261658136402 0.0003
          0.0069463016830039 0.0027787422025108 0 0.0070048409545821 0.0031125297586922 0
          0.0069463016830039 0.0027787422025108 0.00015 0.0070048409545821 0.0031125297586922 0.00015
          0.0069463016830039 0.0027787422025108 0.0003 0.0070048409545821 0.0031125297586922 0.0003
          0.010028456835002 0.0032748409090605 0 0.010028456835002 0.0032748409090605 0.00015
          0.010028456835002 0.0032748409090605 0.0003 0.013084530633285 0.0046685927017207 0
          0.012657407202949 0.0045740785705039 0 0.013084530633285 0.0046685927017207 0.00015
          0.012657407202949 0.0045740785705039 0.00015 0.013084530633285 0.0046685927017207 0.0003
          0.012657407202949 0.0045740785705039 0.0003 0.0063788755008874 0.0014091508241809 0
          0.0060137569775388 0.0015029488511318 0 0.0063788755008874 0.0014091508241809 0.00015
          0.0060137569775388 0.0015029488511318 0.00015 0.0063788755008874 0.0014091508241809 0.0003
          0.0060137569775388 0.0015029488511318 0.0003 0.01196380743939 0.0083394019710021 0
          0.01196380743939 0.0083394019710021 0.00015 0.01196380743939 0.0083394019710021 0.0003
          0.010073855840534 0.0027196155419985 0 0.010289681297386 0.0025561678844121 0
          0.010073855840534 0.0027196155419985 0.00015 0.010289681297386 0.0025561678844121 0.00015
          0.010073855840534 0.0027196155419985 0.0003 0.010289681297386 0.0025561678844121 0.0003
          0.0093223919318803 0.0053434698815888 0 0.009764317340127 0.0054658727348424 0
          0.0097769212248058 0.0059119658621614 0 0.0093027527337708 0.0057939169389015 0
          0.0093223919318803 0.0053434698815888 0.00015 0.009764317340127 0.0054658727348424 0.00015
          0.0097769212248058 0.0059119658621614 0.00015 0.0093027527337708 0.0057939169389015 0.00015
          0.0093223919318803 0.0053434698815888 0.0003 0.009764317340127 0.0054658727348424 0.0003
          0.0097769212248058 0.0059119658621614 0.0003 0.0093027527337708 0.0057939169389015 0.0003
          0.0068882925124701 0.0023177669638962 0 0.0068882925124701 0.0023177669638962 0.00015
          0.0068882925124701 0.0023177669638962 0.0003 0.0092499592325966 0.0063238181416562 0
          0.0089620052424248 0.0065330227489775 0 0.0092499592325966 0.0063238181416562 0.00015
          0.0089620052424248 0.0065330227489775 0.00015 0.0092499592325966 0.0063238181416562 0.0003
          0.0089620052424248 0.0065330227489775 0.0003 0.0072168253422346 0.001397514094839 0
          0.0076041066380058 0.00089936619415626 0 0.0072168253422346 0.001397514094839 0.00015
          0.0076041066380058 0.00089936619415626 0.00015 0.0072168253422346 0.001397514094839 0.0003
          0.0076041066380058 0.00089936619415626 0.0003 0.0075718226613923 0.00044755222139025 0
          0.0075718226613923 0.00044755222139025 0.00015 0.0075718226613923 0.00044755222139025 0.0003
          0.012116660000204 0.0051206445675074 0 0.012116660000204 0.0051206445675074 0.00015
          0.012116660000204 0.0051206445675074 0.0003 0.0068338524094732 0.0018398489073113 0
          0.0068338524094732 0.0018398489073113 0.00015 0.0068338524094732 0.0018398489073113 0.0003
          0.0088473960481577 0.0056214227923259 0 0.0088473960481577 0.0056214227923259 0.00015
          0.0088473960481577 0.0056214227923259 0.0003 0.0081402125110085 0.0066115625704341 0
          0.0081402125110085 0.0066115625704341 0.00015 0.0081402125110085 0.0066115625704341 0.0003
          0.0067824993802385 0.0013824026215467 0 0.0072591856110724 0.0018865642034293 0
          0.0067824993802385 0.0013824026215467 0.00015 0.0072591856110724 0.0018865642034293 0.00015
          0.0067824993802385 0.0013824026215467 0.0003 0.0072591856110724 0.0018865642034293 0.0003
          0.0094035295411974 0.0068662830960629 0 0.0094035295411974 0.0068662830960629 0.00015
          0.0094035295411974 0.0068662830960629 0.0003 0.0080770297303238 0.0057078658228848 0
          0.0080770297303238 0.0057078658228848 0.00015 0.0080770297303238 0.0057078658228848 0.0003
          0.012455160230445 0.0055307966461266 0 0.012455160230445 0.0055307966461266 0.00015
          0.012455160230445 0.0055307966461266 0.0003 0.0092134396095011 0.0012639463069257 0
          0.0092134396095011 0.0012639463069257 0.00015 0.0092134396095011 0.0012639463069257 0.0003
          0.0085681017610313 0.0067725899286886 0 0.0085681017610313 0.0067725899286886 0.00015
          0.0085681017610313 0.0067725899286886 0.0003 0.010337781301114 0.0029713007827362 0
          0.010337781301114 0.0029713007827362 0.00015 0.010337781301114 0.0029713007827362 0.0003
          0.0080769230769162 0 0 0.0080362994401078 0.00044130282391618 0
          0.0075641025640979 0 0 0.0080769230769162 0 0.00015
          0.0080362994401078 0.00044130282391618 0.00015 0.0075641025640979 0 0.00015
          0.0080769230769162 0 0.0003 0.0080362994401078 0.00044130282391618 0.0003
          0.0075641025640979 0 0.0003 0.0084157309119158 0.0054663429893237 0
          0.0084157309119158 0.0054663429893237 0.00015 0.0084157309119158 0.0054663429893237 0.0003
          0.012625060394875 0.0050215313919928 0 0.012340535819996 0.0049145470001145 0
          0.012625060394875 0.0050215313919928 0.00015 0.012340535819996 0.0049145470001145 0.00015
          0.012625060394875 0.0050215313919928 0.0003 0.012340535819996 0.0049145470001145 0.0003
          0.0088807280393962 0.0051824777758032 0 0.0088807280393962 0.0051824777758032 0.00015
          0.0088807280393962 0.0051824777758032 0.0003 0.00978640191627 0.0050564284414982 0
          0.00978640191627 0.0050564284414982 0.00015 0.00978640191627 0.0050564284414982 0.0003
          0.007051282051278 0 0 0.007051282051278 0 0.00015
          0.007051282051278 0 0.0003 0.0089738769927721 0.0068608682916542 0
          0.0089738769927721 0.0068608682916542 0.00015 0.0089738769927721 0.0068608682916542 0.0003
          0.010464396561549 0.007914442793445 0 0.010959162019398 0.0079079830093058 0
          0.010464396561549 0.007914442793445 0.00015 0.010959162019398 0.0079079830093058 0.00015
          0.010464396561549 0.007914442793445 0.0003 0.010959162019398 0.0079079830093058 0.0003
          0.0093768424757788 0.0049206652486621 0 0.0093768424757788 0.0049206652486621 0.00015
          0.0093768424757788 0.0049206652486621 0.0003 0.0084364690699339 0.0071912877673881 0
          0.0084364690699339 0.0071912877673881 0.00015 0.0084364690699339 0.0071912877673881 0.0003
          0.011870414872976 0.00080294526771027 0 0.011870414872976 0.00080294526771027 0.00015
          0.011870414872976 0.00080294526771027 0.0003 0.013048655853798 0.0051555709380823 0
          0.013048655853798 0.0051555709380823 0.00015 0.013048655853798 0.0051555709380823 0.0003
          0.0091480378790118 0.00093783666102615 0 0.0091480378790118 0.00093783666102615 0.00015
          0.0091480378790118 0.00093783666102615 0.0003 0.012592651705639 0.0068198098450163 0
          0.012592651705639 0.0068198098450163 0.00015 0.012592651705639 0.0068198098450163 0.0003
          0.012272070002081 0.0045810549534562 0 0.012153081904124 0.0040944528080542 0
          0.012272070002081 0.0045810549534562 0.00015 0.012153081904124 0.0040944528080542 0.00015
          0.012272070002081 0.0045810549534562 0.0003 0.012153081904124 0.0040944528080542 0.0003
          0.011634800364854 0.0014122839921498 0 0.011634800364854 0.0014122839921498 0.00015
          0.011634800364854 0.0014122839921498 0.0003 0.012451479243686 0.0021914486022899 0
          0.012674188674928 0.0028095410694266 0 0.012451479243686 0.0021914486022899 0.00015
          0.012674188674928 0.0028095410694266 0.00015 0.012451479243686 0.0021914486022899 0.0003
          0.012674188674928 0.0028095410694266 0.0003 0.013121586466294 0.0036708577033715 0
          0.013121586466294 0.0036708577033715 0.00015 0.013121586466294 0.0036708577033715 0.0003
          0.013248150362312 0.0031919567697963 0 0.013248150362312 0.0031919567697963 0.00015
          0.013248150362312 0.0031919567697963 0.0003 0.012096711335481 0.0017058387426491 0
          0.012096711335481 0.0017058387426491 0.00015 0.012096711335481 0.0017058387426491 0.0003
          0.012692307692288 0 0 0.012542896420733 0.00061304595643839 0
          0.012692307692288 0 0.00015 0.012542896420733 0.00061304595643839 0.00015
          0.012692307692288 0 0.0003 0.012542896420733 0.00061304595643839 0.0003
          0.012384518900215 0.0018567382086698 0 0.012384518900215 0.0018567382086698 0.00015
          0.012384518900215 0.0018567382086698 0.0003 0.012087580163866 0.0010424427844857 0
          0.012087580163866 0.0010424427844857 0.00015 0.012087580163866 0.0010424427844857 0.0003
          <InformationKey name="L2_NORM_RANGE" location="vtkDataArray" length="2">
            <Value index="0">
              0.0055128205128
            </Value>
            <Value index="1">
              0.014586579917
            </Value>
          </InformationKey>
        </DataArray>
      </Points>
      <Cells>
        <DataArray type="Int64" Name="connectivity" format="ascii" RangeMin="0" RangeMax="773">
          0 1 2 3 4 5
          6 7 4 5 6 7
          8 9 10 11 12 13
          14 15 16 17 18 19
          16 17 18 19 20 21
          22 23 30 31 32 33
          34 35 36 37 34 35
          36 37 38 39 40 41
          15 14 42 43 19 18
          44 45 19 18 44 45
          23 22 46 47 48 49
          50 51 52 53 54 55
          52 53 54 55 56 57
          58 59 60 61 62 63
          64 65 66 67 64 65
          66 67 68 69 70 71
          3 72 73 0 7 74
          75 4 7 74 75 4
          11 76 77 8 78 79
          80 81 82 83 84 85
          82 83 84 85 86 87
          88 89 99 100 101 102
          103 104 105 106 103 104
          105 106 107 108 109 110
          111 112 113 114 115 116
          117 118 115 116 117 118
          119 120 121 122 744 123
          30 33 745 124 34 37
          745 124 34 37 746 125
          38 41 48 126 127 128
          52 129 130 131 52 129
          130 131 56 132 133 134
          135 136 112 111 137 138
          116 115 137 138 116 115
          139 140 120 119 141 142
          143 144 145 146 147 148
          145 146 147 148 149 150
          151 152 153 154 155 156
          157 158 159 160 157 158
          159 160 161 162 163 164
          165 166 43 167 168 169
          45 170 168 169 45 170
          171 172 47 173 174 175
          153 156 176 177 157 160
          176 177 157 160 178 179
          161 164 180 181 182 183
          184 185 186 187 184 185
          186 187 188 189 190 191
          166 165 192 193 169 168
          194 195 169 168 194 195
          172 171 196 197 112 182
          181 113 116 186 185 117
          116 186 185 117 120 190
          189 121 204 205 180 183
          206 207 184 187 206 207
          184 187 208 209 188 191
          210 211 212 213 214 215
          216 217 214 215 216 217
          218 219 220 221 222 223
          128 127 224 225 131 130
          224 225 131 130 226 227
          134 133 154 153 79 78
          158 157 83 82 158 157
          83 82 162 161 87 86
          231 113 181 232 233 117
          185 234 233 117 185 234
          235 121 189 236 237 238
          239 199 240 241 242 201
          240 241 242 201 243 244
          245 203 246 247 228 248
          249 250 229 251 249 250
          229 251 252 253 230 254
          255 49 48 128 256 53
          52 131 256 53 52 131
          257 57 56 134 175 258
          79 153 177 259 83 157
          177 259 83 157 179 260
          87 161 267 237 199 198
          268 240 201 200 268 240
          201 200 269 243 203 202
          270 271 232 272 273 274
          234 275 273 274 234 275
          276 277 236 278 267 198
          228 247 268 200 229 250
          268 200 229 250 269 202
          230 253 183 279 280 204
          187 281 282 206 187 281
          282 206 191 283 284 208
          285 286 287 288 289 290
          291 292 289 290 291 292
          293 294 295 296 297 298
          299 300 301 302 303 304
          301 302 303 304 305 306
          307 308 261 309 310 311
          263 312 313 314 263 312
          313 314 265 315 316 317
          238 318 127 126 241 319
          130 129 241 319 130 129
          244 320 133 132 324 325
          287 286 326 327 291 290
          326 327 291 290 328 329
          295 294 330 298 331 288
          332 302 333 292 332 302
          333 292 334 306 335 296
          318 336 222 127 319 337
          224 130 319 337 224 130
          320 338 226 133 339 340
          341 342 343 344 345 346
          343 344 345 346 347 348
          349 350 300 1 339 342
          304 5 343 346 304 5
          343 346 308 9 347 350
          351 310 341 340 352 313
          345 344 352 313 345 344
          353 316 349 348 354 339
          1 0 355 343 5 4
          355 343 5 4 356 347
          9 8 357 358 272 180
          359 360 275 184 359 360
          275 184 361 362 278 188
          48 239 238 126 52 242
          241 129 52 242 241 129
          56 245 244 132 336 271
          363 222 337 274 364 224
          337 274 364 224 338 277
          365 226 51 321 239 48
          55 322 242 52 55 322
          242 52 59 323 245 56
          366 367 213 212 368 369
          217 216 368 369 217 216
          370 371 221 220 223 222
          363 372 225 224 364 373
          225 224 364 373 227 226
          365 374 375 210 213 376
          377 214 217 378 377 214
          217 378 379 218 221 380
          375 381 73 210 377 382
          75 214 377 382 75 214
          379 383 77 218 381 354
          0 73 382 355 4 75
          382 355 4 75 383 356
          8 77 297 300 342 384
          301 304 346 385 301 304
          346 385 305 308 350 386
          376 213 367 387 378 217
          369 388 378 217 369 388
          380 221 371 389 223 372
          390 391 225 373 392 393
          225 373 392 393 227 374
          394 395 396 357 180 205
          397 359 184 207 397 359
          184 207 398 361 188 209
          387 367 357 396 388 369
          359 397 388 369 359 397
          389 371 361 398 399 747
          748 400 401 749 750 402
          401 749 750 402 403 751
          752 404 405 102 406 407
          408 106 409 410 408 106
          409 410 411 110 412 413
          180 272 232 181 184 275
          234 185 184 275 234 185
          188 278 236 189 414 415
          144 416 417 418 148 419
          417 418 148 419 420 421
          152 422 423 424 255 391
          425 426 256 393 425 426
          256 393 427 428 257 395
          429 430 431 753 432 433
          434 754 432 433 434 754
          435 436 437 755 438 399
          400 439 440 401 402 441
          440 401 402 441 442 403
          404 443 447 415 414 448
          449 418 417 450 449 418
          417 450 451 421 420 452
          453 100 99 454 455 104
          103 456 455 104 103 456
          457 108 107 458 279 459
          460 280 281 461 462 282
          281 461 462 282 283 463
          464 284 279 465 62 459
          281 466 66 461 281 466
          66 461 283 467 70 463
          448 414 100 453 450 417
          104 455 450 417 104 455
          452 420 108 457 468 469
          415 447 470 471 418 449
          470 471 418 449 472 473
          421 451 753 431 748 756
          754 434 750 757 754 434
          750 757 755 437 752 758
          400 748 431 12 402 750
          434 16 402 750 434 16
          404 752 437 20 474 31
          469 468 475 35 471 470
          475 35 471 470 476 39
          473 472 399 438 744 759
          401 440 745 760 401 440
          745 760 403 442 746 761
          339 477 351 340 343 478
          352 344 343 478 352 344
          347 479 353 348 367 366
          358 357 369 368 360 359
          369 368 360 359 371 370
          362 361 480 32 31 474
          481 36 35 475 481 36
          35 475 482 40 39 476
          483 477 339 354 484 478
          343 355 484 478 343 355
          485 479 347 356 486 483
          354 381 487 484 355 382
          487 484 355 382 488 485
          356 383 183 182 465 279
          187 186 466 281 187 186
          466 281 191 190 467 283
          762 763 489 490 764 765
          491 492 764 765 491 492
          766 767 493 494 490 489
          32 480 492 491 36 481
          492 491 36 481 494 493
          40 482 387 495 496 376
          388 497 498 378 388 497
          498 378 389 499 500 380
          501 270 272 358 502 273
          275 360 502 273 275 360
          503 276 278 362 504 331
          298 297 505 333 302 301
          505 333 302 301 506 335
          306 305 507 486 381 375
          508 487 382 377 508 487
          382 377 509 488 383 379
          318 238 237 510 319 241
          240 511 319 241 240 511
          320 244 243 512 50 49
          255 424 54 53 256 426
          54 53 256 426 58 57
          257 428 363 513 390 372
          364 514 392 373 364 514
          392 373 365 515 394 374
          516 423 391 390 517 425
          393 392 517 425 393 392
          518 427 395 394 519 520
          205 204 521 522 207 206
          521 522 207 206 523 524
          209 208 525 519 204 280
          526 521 206 282 526 521
          206 282 527 523 208 284
          528 460 459 529 530 462
          461 531 530 462 461 531
          532 464 463 533 534 90
          535 536 537 93 538 539
          537 93 538 539 540 96
          541 542 546 525 280 460
          547 526 282 462 547 526
          282 462 548 527 284 464
          759 768 747 399 760 769
          749 401 760 769 749 401
          761 770 751 403 507 375
          376 496 508 377 378 498
          508 377 378 498 509 379
          380 500 483 486 549 550
          484 487 551 552 484 487
          551 552 485 488 553 554
          231 232 271 336 233 234
          274 337 233 234 274 337
          235 236 277 338 391 255
          128 223 393 256 131 225
          393 256 131 225 395 257
          134 227 525 546 555 556
          526 547 557 558 526 547
          557 558 527 548 559 560
          519 525 556 561 521 526
          558 562 521 526 558 562
          523 527 560 563 561 556
          564 565 562 558 566 567
          562 558 566 567 563 560
          568 569 570 571 572 573
          574 575 576 577 574 575
          576 577 578 579 580 581
          2 1 300 299 6 5
          304 303 6 5 304 303
          10 9 308 307 582 299
          298 330 583 303 302 332
          583 303 302 332 584 307
          306 334 585 363 271 270
          586 364 274 273 586 364
          274 273 587 365 277 276
          555 416 144 143 557 419
          148 147 557 419 148 147
          559 422 152 151 588 589
          237 267 590 591 240 268
          590 591 240 268 592 593
          243 269 396 594 495 387
          397 595 497 388 397 595
          497 388 398 596 499 389
          594 396 205 520 595 397
          207 522 595 397 207 522
          596 398 209 524 597 598
          430 429 599 600 433 432
          599 600 433 432 601 602
          436 435 603 246 248 604
          605 249 251 606 605 249
          251 606 607 252 254 608
          72 211 210 73 74 215
          214 75 74 215 214 75
          76 219 218 77 536 535
          609 543 539 538 610 544
          539 538 610 544 542 541
          611 545 612 561 565 613
          614 562 567 615 614 562
          567 615 616 563 569 617
          618 619 620 621 622 623
          624 625 622 623 624 625
          626 627 628 629 630 588
          267 247 631 590 268 250
          631 590 268 250 632 592
          269 253 633 634 573 572
          635 636 577 576 635 636
          577 576 637 638 581 580
          60 639 81 640 64 641
          85 642 64 641 85 642
          68 643 89 644 561 612
          520 519 562 614 522 521
          562 614 522 521 563 616
          524 523 510 231 336 318
          511 233 337 319 511 233
          337 319 512 235 338 320
          640 81 80 645 642 85
          84 646 642 85 84 646
          644 89 88 647 550 648
          477 483 552 649 478 484
          552 649 478 484 554 650
          479 485 630 247 246 651
          631 250 249 652 631 250
          249 652 632 253 252 653
          633 572 654 621 635 576
          655 625 635 576 655 625
          637 580 656 629 15 43
          166 439 19 45 169 441
          19 45 169 441 23 47
          172 443 660 639 661 651
          662 641 663 652 662 641
          663 652 664 643 665 653
          666 330 288 287 667 332
          292 291 667 332 292 291
          668 334 296 295 603 660
          651 246 605 662 652 249
          605 662 652 249 607 664
          653 252 571 570 516 669
          575 574 517 670 575 574
          517 670 579 578 518 671
          672 262 261 311 673 264
          263 314 673 264 263 314
          674 266 265 317 416 555
          546 675 419 557 547 676
          419 557 547 676 422 559
          548 677 570 573 678 657
          574 577 679 658 574 577
          679 658 578 581 680 659
          495 42 14 496 497 44
          18 498 497 44 18 498
          499 46 22 500 61 529
          459 62 65 531 461 66
          65 531 461 66 69 533
          463 70 13 507 496 14
          17 508 498 18 17 508
          498 18 21 509 500 22
          114 510 237 589 118 511
          240 591 118 511 240 591
          122 512 243 593 513 669
          516 390 514 670 517 392
          514 670 517 392 515 671
          518 394 594 681 42 495
          595 682 44 497 595 682
          44 497 596 683 46 499
          114 589 588 111 118 591
          590 115 118 591 590 115
          122 593 592 119 510 114
          113 231 511 118 117 233
          511 118 117 233 512 122
          121 235 681 594 520 612
          682 595 522 614 682 595
          522 614 683 596 524 616
          684 685 645 686 687 688
          646 689 687 688 646 689
          690 691 647 692 693 654
          572 571 694 655 576 575
          694 655 576 575 695 656
          580 579 675 546 460 528
          676 547 462 530 676 547
          462 530 677 548 464 532
          439 400 12 15 441 402
          16 19 441 402 16 19
          443 404 20 23 696 672
          648 697 698 673 649 699
          698 673 649 699 700 674
          650 701 702 618 621 654
          703 622 625 655 703 622
          625 655 704 626 629 656
          72 705 212 211 74 706
          216 215 74 706 216 215
          76 707 220 219 182 112
          136 465 186 116 138 466
          186 116 138 466 190 120
          140 467 708 686 645 80
          709 689 646 84 709 689
          646 84 710 692 647 88
          91 341 310 92 94 345
          313 95 94 345 313 95
          97 349 316 98 135 630
          651 661 137 631 652 663
          137 631 652 663 139 632
          653 665 666 287 325 711
          667 291 327 712 667 291
          327 712 668 295 329 713
          444 25 714 715 445 27
          716 717 445 27 716 717
          446 29 718 719 705 720
          366 212 706 721 368 216
          706 721 368 216 707 722
          370 220 331 504 715 714
          333 505 717 716 333 505
          717 716 335 506 719 718
          13 549 486 507 17 551
          487 508 17 551 487 508
          21 553 488 509 571 669
          513 693 575 670 514 694
          575 670 514 694 579 671
          515 695 102 405 685 99
          106 408 688 103 106 408
          688 103 110 411 691 107
          672 351 477 648 673 352
          478 649 673 352 478 649
          674 353 479 650 693 513
          363 585 694 514 364 586
          694 514 364 586 695 515
          365 587 285 714 25 24
          289 716 27 26 289 716
          27 26 293 718 29 28
          143 142 192 564 147 146
          194 566 147 146 194 566
          151 150 196 568 726 489
          763 771 727 491 765 772
          727 491 765 772 728 493
          767 773 534 536 715 504
          537 539 717 505 537 539
          717 505 540 542 719 506
          165 565 564 192 168 567
          566 194 168 567 566 194
          171 569 568 196 78 81
          639 660 82 85 641 662
          82 85 641 662 86 89
          643 664 136 135 661 63
          138 137 663 67 138 137
          663 67 140 139 665 71
          729 262 672 696 730 264
          673 698 730 264 673 698
          731 266 674 700 630 135
          111 588 631 137 115 590
          631 137 115 590 632 139
          119 592 702 585 270 501
          703 586 273 502 703 586
          273 502 704 587 276 503
          585 702 654 693 586 703
          655 694 586 703 655 694
          587 704 656 695 61 406
          528 529 65 409 530 531
          65 409 530 531 69 412
          532 533 414 732 101 100
          417 733 105 104 417 733
          105 104 420 734 109 108
          63 62 465 136 67 66
          466 138 67 66 466 138
          71 70 467 140 501 720
          618 702 502 721 622 703
          502 721 622 703 503 722
          626 704 720 501 358 366
          721 502 360 368 721 502
          360 368 722 503 362 370
          685 684 454 99 688 687
          456 103 688 687 456 103
          691 690 458 107 685 405
          640 645 688 408 642 646
          688 408 642 646 691 411
          644 647 30 141 469 31
          34 145 471 35 34 145
          471 35 38 149 473 39
          598 738 739 430 600 740
          741 433 600 740 741 433
          602 742 743 436 43 42
          681 167 45 44 682 170
          45 44 682 170 47 46
          683 173 678 711 325 723
          679 712 327 724 679 712
          327 724 680 713 329 725
          619 618 720 705 623 622
          721 706 623 622 721 706
          627 626 722 707 102 101
          528 406 106 105 530 409
          106 105 530 409 110 109
          532 412 549 13 12 739
          551 17 16 741 551 17
          16 741 553 21 20 743
          711 678 573 634 712 679
          577 636 712 679 577 636
          713 680 581 638 80 79
          258 708 84 83 259 709
          84 83 259 709 88 87
          260 710 738 598 696 697
          740 600 698 699 740 600
          698 699 742 602 700 701
          714 285 288 331 716 289
          292 333 716 289 292 333
          718 293 296 335 672 311
          310 351 673 314 313 352
          673 314 313 352 674 317
          316 353 430 739 12 431
          433 741 16 434 433 741
          16 434 436 743 20 437
          193 438 439 166 195 440
          441 169 195 440 441 169
          197 442 443 172 489 726
          33 32 491 727 37 36
          491 727 37 36 493 728
          41 40 444 715 536 543
          445 717 539 544 445 717
          539 544 446 719 542 545
          3 619 705 72 7 623
          706 74 7 623 706 74
          11 627 707 76 633 666
          711 634 635 667 712 636
          635 667 712 636 637 668
          713 638 384 534 504 297
          385 537 505 301 385 537
          505 301 386 540 506 305
          726 771 744 33 727 772
          745 37 727 772 745 37
          728 773 746 41 167 613
          565 165 170 615 567 168
          170 615 567 168 173 617
          569 171 675 732 414 416
          676 733 417 419 676 733
          417 419 677 734 420 422
          550 549 739 738 552 551
          741 740 552 551 741 740
          554 553 743 742 732 675
          528 101 733 676 530 105
          733 676 530 105 734 677
          532 109 63 661 639 60
          67 663 641 64 67 663
          641 64 71 665 643 68
          384 91 90 534 385 94
          93 537 385 94 93 537
          386 97 96 540 123 744
          438 193 124 745 440 195
          124 745 440 195 125 746
          442 197 406 61 60 407
          409 65 64 410 409 65
          64 410 412 69 68 413
          154 78 660 603 158 82
          662 605 158 82 662 605
          162 86 664 607 91 384
          342 341 94 385 346 345
          94 385 346 345 97 386
          350 349 405 407 60 640
          408 410 64 642 408 410
          64 642 411 413 68 644
          648 550 738 697 649 552
          740 699 649 552 740 699
          650 554 742 701 735 92
          310 309 736 95 313 312
          736 95 313 312 737 98
          316 315 633 582 330 666
          635 583 332 667 635 583
          332 667 637 584 334 668
          167 681 612 613 170 682
          614 615 170 682 614 615
          173 683 616 617 620 2
          299 582 624 6 303 583
          624 6 303 583 628 10
          307 584 582 633 621 620
          583 635 625 624 583 635
          625 624 584 637 629 628
          141 144 415 469 145 148
          418 471 145 148 418 471
          149 152 421 473 143 564
          556 555 147 566 558 557
          147 566 558 557 151 568
          560 559 2 620 619 3
          6 624 623 7 6 624
          623 7 10 628 627 11
          729 696 598 597 730 698
          600 599 730 698 600 599
          731 700 602 601 141 30
          123 142 145 34 124 146
          145 34 124 146 149 38
          125 150 154 603 604 155
          158 605 606 159 158 605
          606 159 162 607 608 163
          193 192 142 123 195 194
          146 124 195 194 146 124
          197 196 150 125
        </DataArray>
        <DataArray type="Int64" Name="offsets" format="ascii" RangeMin="8" RangeMax="3616">
          8 16 24 32 40 48
          56 64 72 80 88 96
          104 112 120 128 136 144
          152 160 168 176 184 192
          200 208 216 224 232 240
          248 256 264 272 280 288
          296 304 312 320 328 336
          344 352 360 368 376 384
          392 400 408 416 424 432
          440 448 456 464 472 480
          488 496 504 512 520 528
          536 544 552 560 568 576
          584 592 600 608 616 624
          632 640 648 656 664 672
          680 688 696 704 712 720
          728 736 744 752 760 768
          776 784 792 800 808 816
          824 832 840 848 856 864
          872 880 888 896 904 912
          920 928 936 944 952 960
          968 976 984 992 1000 1008
          1016 1024 1032 1040 1048 1056
          1064 1072 1080 1088 1096 1104
          1112 1120 1128 1136 1144 1152
          1160 1168 1176 1184 1192 1200
          1208 1216 1224 1232 1240 1248
          1256 1264 1272 1280 1288 1296
          1304 1312 1320 1328 1336 1344
          1352 1360 1368 1376 1384 1392
          1400 1408 1416 1424 1432 1440
          1448 1456 1464 1472 1480 1488
          1496 1504 1512 1520 1528 1536
          1544 1552 1560 1568 1576 1584
          1592 1600 1608 1616 1624 1632
          1640 1648 1656 1664 1672 1680
          1688 1696 1704 1712 1720 1728
          1736 1744 1752 1760 1768 1776
          1784 1792 1800 1808 1816 1824
          1832 1840 1848 1856 1864 1872
          1880 1888 1896 1904 1912 1920
          1928 1936 1944 1952 1960 1968
          1976 1984 1992 2000 2008 2016
          2024 2032 2040 2048 2056 2064
          2072 2080 2088 2096 2104 2112
          2120 2128 2136 2144 2152 2160
          2168 2176 2184 2192 2200 2208
          2216 2224 2232 2240 2248 2256
          2264 2272 2280 2288 2296 2304
          2312 2320 2328 2336 2344 2352
          2360 2368 2376 2384 2392 2400
          2408 2416 2424 2432 2440 2448
          2456 2464 2472 2480 2488 2496
          2504 2512 2520 2528 2536 2544
          2552 2560 2568 2576 2584 2592
          2600 2608 2616 2624 2632 2640
          2648 2656 2664 2672 2680 2688
          2696 2704 2712 2720 2728 2736
          2744 2752 2760 2768 2776 2784
          2792 2800 2808 2816 2824 2832
          2840 2848 2856 2864 2872 2880
          2888 2896 2904 2912 2920 2928
          2936 2944 2952 2960 2968 2976
          2984 2992 3000 3008 3016 3024
          3032 3040 3048 3056 3064 3072
          3080 3088 3096 3104 3112 3120
          3128 3136 3144 3152 3160 3168
          3176 3184 3192 3200 3208 3216
          3224 3232 3240 3248 3256 3264
          3272 3280 3288 3296 3304 3312
          3320 3328 3336 3344 3352 3360
          3368 3376 3384 3392 3400 3408
          3416 3424 3432 3440 3448 3456
          3464 3472 3480 3488 3496 3504
          3512 3520 3528 3536 3544 3552
          3560 3568 3576 3584 3592 3600
          3608 3616
        </DataArray>
        <DataArray type="UInt8" Name="types" format="ascii" RangeMin="12" RangeMax="12">
          12 12 12 12 12 12
          12 12 12 12 12 12
          12 12 12 12 12 12
          12 12 12 12 12 12
          12 12 12 12 12 12
          12 12 12 12 12 12
          12 12 12 12 12 12
          12 12 12 12 12 12
          12 12 12 12 12 12
          12 12 12 12 12 12
          12 12 12 12 12 12
          12 12 12 12 12 12
          12 12 12 12 12 12
          12 12 12 12 12 12
          12 12 12 12 12 12
          12 12 12 12 12 12
          12 12 12 12 12 12
          12 12 12 12 12 12
          12 12 12 12 12 12
          12 12 12 12 12 12
          12 12 12 12 12 12
          12 12 12 12 12 12
          12 12 12 12 12 12
          12 12 12 12 12 12
          12 12 12 12 12 12
          12 12 12 12 12 12
          12 12 12 12 12 12
          12 12 12 12 12 12
          12 12 12 12 12 12
          12 12 12 12 12 12
          12 12 12 12 12 12
          12 12 12 12 12 12
          12 12 12 12 12 12
          12 12 12 12 12 12
          12 12 12 12 12 12
          12 12 12 12 12 12
          12 12 12 12 12 12
          12 12 12 12 12 12
          12 12 12 12 12 12
          12 12 12 12 12 12
          12 12 12 12 12 12
          12 12 12 12 12 12
          12 12 12 12 12 12
          12 12 12 12 12 12
          12 12 12 12 12 12
          12 12 12 12 12 12
          12 12 12 12 12 12
          12 12 12 12 12 12
          12 12 12 12 12 12
          12 12 12 12 12 12
          12 12 12 12 12 12
          12 12 12 12 12 12
          12 12 12 12 12 12
          12 12 12 12 12 12
          12 12 12 12 12 12
          12 12 12 12 12 12
          12 12 12 12 12 12
          12 12 12 12 12 12
          12 12 12 12 12 12
          12 12 12 12 12 12
          12 12 12 12 12 12
          12 12 12 12 12 12
          12 12 12 12 12 12
          12 12 12 12 12 12
          12 12 12 12 12 12
          12 12 12 12 12 12
          12 12 12 12 12 12
          12 12 12 12 12 12
          12 12 12 12 12 12
          12 12 12 12 12 12
          12 12 12 12 12 12
          12 12 12 12 12 12
          12 12 12 12 12 12
          12 12 12 12 12 12
          12 12 12 12 12 12
          12 12
        </DataArray>
      </Cells>
    </Piece>
  </UnstructuredGrid>
</VTKFile>
