<?xml version="1.0"?>
<VTKFile type="UnstructuredGrid" version="0.1" byte_order="LittleEndian" header_type="UInt32" compressor="vtkZLibDataCompressor">
  <UnstructuredGrid>
    <Piece NumberOfPoints="798" NumberOfCells="454">
      <PointData>
        <DataArray type="Int32" Name="libmesh_node_id" format="ascii" RangeMin="2250" RangeMax="5441">
          2250 2251 2252 2253 2254 2255
          2256 2257 2258 2259 2260 2261
          2274 2275 2276 2277 2278 2279
          2280 2281 2282 2283 2284 2285
          2298 2299 2300 2301 2302 2303
          2304 2305 2306 2307 2308 2309
          2328 2329 2330 2331 2332 2333
          2334 2335 2336 2337 2338 2339
          2352 2353 2354 2355 2356 2357
          2358 2359 2360 2361 2362 2363
          2376 2377 2378 2379 2380 2381
          2382 2383 2384 2385 2386 2387
          2424 2425 2426 2427 2428 2429
          2430 2431 2432 2445 2446 2447
          2448 2449 2450 2451 2452 2453
          2454 2455 2456 2457 2458 2459
          2460 2461 2462 2481 2482 2483
          2484 2485 2486 2493 2494 2495
          2496 2497 2498 2535 2536 2537
          2538 2539 2540 2541 2542 2543
          2544 2545 2546 2547 2548 2549
          2562 2563 2564 2565 2566 2567
          2568 2569 2570 2571 2572 2573
          2604 2605 2606 2607 2608 2609
          2610 2611 2612 2615 2619 2623
          2625 2626 2627 2628 2629 2630
          2631 2632 2633 2664 2665 2666
          2667 2668 2669 2670 2671 2672
          2787 2788 2789 2790 2791 2792
          2793 2794 2795 2820 2821 2822
          2823 2824 2825 2850 2851 2854
          2855 2858 2859 2880 2882 2884
          2886 2887 2888 2889 2890 2891
          2892 2893 2894 2895 2896 2897
          2898 2899 2900 2928 2929 2930
          2931 2932 2933 2934 2935 2936
          2937 2938 2939 2972 2975 2978
          2979 2980 2981 2982 2983 2984
          2985 2986 2987 2988 2989 2990
          3078 3079 3080 3111 3112 3113
          3114 3115 3116 3129 3130 3131
          3132 3133 3134 3135 3136 3137
          3138 3139 3140 3141 3142 3143
          3144 3145 3146 3147 3148 3149
          3150 3151 3152 3153 3154 3155
          3156 3157 3158 3159 3160 3161
          3162 3163 3164 3165 3166 3167
          3186 3188 3189 3191 3192 3194
          3259 3261 3263 3342 3343 3344
          3345 3346 3347 3435 3436 3437
          3438 3439 3440 3447 3448 3449
          3450 3451 3452 3513 3514 3515
          3519 3520 3521 3522 3523 3524
          3537 3538 3539 3540 3541 3542
          3714 3715 3716 3717 3718 3719
          3720 3721 3722 3792 3793 3794
          3822 3823 3824 3825 3826 3827
          3828 3829 3830 3831 3832 3833
          3855 3856 3857 3858 3859 3860
          3867 3868 3869 3870 3871 3872
          3873 3874 3875 3876 3877 3878
          3879 3880 3881 3883 3886 3889
          3921 3922 3923 3957 3961 3965
          4065 4066 4067 4077 4078 4079
          4086 4087 4088 4119 4120 4121
          4191 4192 4193 4206 4207 4210
          4211 4214 4215 4224 4225 4226
          4227 4228 4229 4251 4252 4253
          4260 4261 4262 4263 4264 4265
          4275 4276 4277 4278 4279 4280
          4296 4297 4298 4347 4348 4349
          4401 4402 4403 4404 4405 4406
          4407 4408 4409 4410 4411 4412
          4413 4414 4415 4431 4432 4433
          4452 4453 4454 4461 4462 4463
          4464 4465 4466 4533 4534 4535
          4551 4552 4553 4554 4555 4556
          4557 4558 4559 4560 4561 4562
          4590 4591 4592 4593 4594 4595
          4608 4609 4610 4617 4618 4619
          4620 4621 4622 4623 4624 4625
          4626 4627 4628 4629 4630 4631
          4665 4666 4667 4668 4669 4670
          4680 4681 4682 4683 4684 4685
          4719 4720 4721 4728 4729 4730
          4731 4732 4733 4734 4735 4736
          4752 4753 4754 4761 4762 4763
          4764 4765 4766 4767 4768 4769
          4773 4774 4775 4785 4786 4787
          4869 4870 4871 4881 4882 4883
          4887 4888 4889 4890 4891 4892
          4893 4894 4895 4917 4918 4919
          4920 4921 4922 4926 4927 4928
          4929 4930 4931 4962 4963 4964
          4965 4966 4967 4971 4972 4973
          4974 4975 4976 4995 4996 4997
          4998 4999 5000 5001 5002 5003
          5004 5005 5006 5022 5023 5024
          5031 5032 5033 5037 5038 5039
          5046 5047 5048 5049 5050 5051
          5052 5053 5054 5058 5059 5060
          5064 5065 5066 5067 5068 5069
          5070 5071 5072 5076 5077 5078
          5082 5083 5084 5085 5086 5087
          5091 5092 5093 5097 5098 5099
          5100 5101 5102 5106 5107 5108
          5109 5110 5111 5112 5113 5114
          5115 5116 5117 5118 5119 5120
          5121 5122 5123 5124 5125 5126
          5127 5128 5129 5130 5131 5132
          5133 5134 5135 5136 5137 5138
          5139 5140 5141 5142 5143 5144
          5145 5146 5147 5148 5149 5150
          5154 5155 5156 5157 5158 5159
          5163 5164 5165 5166 5167 5168
          5172 5173 5174 5175 5176 5177
          5181 5182 5183 5184 5185 5186
          5190 5191 5192 5193 5194 5195
          5196 5197 5198 5199 5200 5201
          5250 5251 5252 5277 5278 5279
          5304 5305 5306 5331 5332 5333
          2852 2853 2856 2857 2860 2861
          2970 2644 2971 2973 2647 2974
          2976 2650 2977 3187 3190 3193
          4662 4663 4664 3270 3271 3272
          5151 5152 5153 5160 5161 5162
          5169 5170 5171 5178 5179 5180
          5187 5188 5189 5202 5203 5204
          5205 5206 5207 5253 5254 5255
          5280 5281 5282 5307 5308 5309
          5334 5335 5336 5358 5359 5360
          5361 5362 5363 5385 5386 5387
          5412 5413 5414 5439 5440 5441
        </DataArray>
        <DataArray type="Float64" Name="resid_x" format="ascii" RangeMin="-4.915129462943816" RangeMax="3.326470438766996">
          -0.007195018365905526 -0.004205382460050089 -0.0023185195548490745 0.00002066083568807997 -0.02027975065380172 -0.013264779113689507
          -0.009508485327593186 -0.0034024308097722056 -0.0207945257760489 -0.012554939550793343 -0.00878776555532107 -0.012234846623205176
          -0.0010708353951756067 0.0006705265546420591 0.0009415454360337527 0.002805239478053334 -0.005643904833380731 -0.006739017704994854
          -0.005823998271252018 -0.008170680989318946 -0.028185484294144914 -0.026744516019428843 -0.026564431107651165 -0.030642098387889227
          0.2550852185840844 0.03558315474273854 0.23827923867970213 1.6559915446391162 0.5031042160401373 0.06566561508254942
          0.47641700329786474 3.326470438766996 0.2541922870432298 0.03369846690485989 0.24378454508388714 1.760373916053302
          -0.0025429932742726535 -0.0009844835740882019 -0.0002653680914077583 -0.006501812691397824 -0.011330038027322686 -0.0030430841811197595
          -0.010011972662064217 -0.022209381638027548 -0.01713618255005933 -0.013773679854461207 -0.024800547494675085 -0.02301510143547203
          -0.0009864795614005217 0.0008966741914395726 0.0016250147407754767 0.0017766611822187528 -0.005943592333409242 -0.0023079871983613387
          -0.008537123726272355 -0.008419231161965968 -0.0210708053069677 -0.022150148898824717 -0.02904199236770122 -0.026946870594956707
          -0.00480782366003929 0.002238968822377174 -0.008752422970287554 -0.008537223604554889 -0.012239595778846812 -0.002832127674080809
          -0.0229744210329752 -0.024946657203980926 -0.02533698469212009 -0.027286606166620153 -0.03965097148642016 -0.03456839405036671
          -0.01399811682194052 -0.0018529026039701968 -0.006823730141097606 -0.007707876176435757 -0.0025640096811154756 -0.009948292532033332
          -0.030569056303550557 -0.028421386994225806 -0.03301132996500078 -0.00963551308758781 -0.0054843684603671505 0.00012901827749622896
          0.0014894903750155564 -0.02544981168505167 -0.023441222721944044 -0.006173291667981307 0.0017766584146228226 0.002275861270061519
          -0.000990575680120731 -0.014975115207458867 -0.0034354057303046526 -0.0019145193797935889 -0.014347737637928182 -0.023183270744657314
          -0.020107674327500602 -0.02123602408318348 -0.03293245424279134 -0.016408517530981825 -0.021007895390131814 -0.018776889652263762
          -0.0249991008264967 -0.0230077786597489 -0.03386720449705738 -0.018238319636391775 -0.00819259166967834 -0.003572270146180223
          0.0038849202988999743 -0.022604962729057654 -0.017622648357077164 -0.017648271980927888 -0.007148548749349892 0.3475276331271111
          -0.0213607586171225 -0.002074278841031507 0.704958673341916 -0.010995410158043839 -0.0009049540693251146 0.3693325127098177
          -0.02315530658475784 -0.013971775355795302 -0.03154780395855861 -0.019395402775341353 -0.03133228796549803 -0.02594284236850619
          0.00038129459915836605 -0.00043802633438261296 0.0008900979474528725 0.0022608869819622512 -0.0007338312104891997 -0.008818789943510374
          -0.005264802704049387 -0.005743401742706489 -0.021465247309748747 -0.031121098562200356 -0.02985174548021874 -0.028644252233484657
          -0.018537270764442226 -0.027153044807324278 -0.01224794151471631 -0.005924757117993451 -0.014280234607005227 -0.00539152718065683
          -0.02592818139468278 -0.029064835354451368 -0.02279975502056697 -0.026693191689206586 -0.040254118944622164 -0.03238859203098432
          -0.015603943008245302 0.0032132608572208454 -0.003474755064222901 -0.009115789867138346 0.02667086974950017 -0.006606296002195755
          -0.03089471611164285 -0.007428899820549617 -0.03573831095410118 -0.024329060280583015 -0.004163100600975689 -0.016891374786885294
          -0.006866133278161435 -0.0007706219284222549 -0.005828587644515437 -0.025958233159832256 -0.02424810708526648 -0.03287712372940188
          -0.01362572654424632 -0.004973389148889673 -0.017163034135712962 -0.013125901302593945 -0.006538380328397153 -0.022831078316019493
          -0.02192228414890174 -0.014690669539456636 -0.022521039431051992 -0.02651499334063412 -0.08837402113431025 -0.04303428166320722
          -0.16738273242513024 -0.03252464791854748 -0.0959063969429943 -0.010624240741390345 -0.00788479880769799 -0.012936749965630767
          -0.01978357550142995 -0.006392057820942654 -0.012717099181395852 0.0036801134583566153 0.010219502323961294 0.009718294407949912
          -0.0075541256187809935 -0.004379881943131991 -0.009513663089428803 -0.010523958874867567 -0.02204145366676702 -0.021621567188327973
          -0.009168861194309041 -0.02312517968887562 -0.0006010014258936991 -0.0069807683810854115 -0.020563057513918626 -0.023154911506563458
          -0.029114708239019294 -0.009482932322720572 -0.02778107489595527 0.005054893500703983 0.003963275075227202 0.00552624639079724
          0.0071470154361761296 0.0057124380786932605 -0.00009351880000263435 0.0040571709769690045 0.00372396334996683 -0.01662706309981754
          -0.02156359543040587 -0.02254001315341636 -0.019980417300427433 -0.010920835865002587 -0.021267653936103414 0.002849452204747749
          0.06552444740841956 0.002324974193347984 0.12587725570882213 0.017500851461575095 0.06541273570610251 0.015742657589919773
          -0.013591065324876528 -0.016919447390113085 -0.015276369920609989 -0.020687920443001495 -0.015715178826544607 -0.016276582849439336
          -0.02267564538816469 -0.006043522502050536 -0.022943136601854874 -0.018907428671237625 -0.02218764219742564 -0.009322813327207413
          -0.0037381522722945704 -0.02263132560061365 -0.01827855392166633 -0.010212577299157033 -0.010933183013380088 -0.00819682861790838
          -0.007435931094995851 0.00834702483902916 -0.0008284130306499549 -0.008026538497151847 -0.011456792021002471 -0.011092955924183912
          -0.006409524434435099 -0.009313561356817601 -0.03509647443599917 -0.028458127202159567 -0.028029106340023646 -0.009949145149700023
          -0.008700768276821425 -0.012563546758896038 -0.009616271756264005 -0.010143676703653348 -0.005314646311656901 -0.0030648261287771206
          -0.011580038963238337 -0.008581214299078432 -0.00896748843830375 -0.015395456328209711 -0.00807107917787242 -0.0062463479741037276
          -0.00711321801020226 -0.01320350368724732 -0.010680491074523957 -0.03492761005266676 -0.03144564975419595 -0.022607108139108156
          -0.010848973609371981 -0.009212027442782045 -0.009626414324596766 -0.007616625408182198 -0.016662438271897173 -0.023106718652486702
          -0.10070426025910262 0.010514084345914831 -0.14153871344017332 0.033519162693574245 -0.0751040004987873 0.02447227643380323
          -0.03911172506131422 -0.02457640724864163 0.000020963096829973438 -0.024372880917164608 -0.019251340631806446 -0.012372748361558106
          -0.016870232846931232 -0.023634456994793496 -0.026447975533192558 -0.020111814204669343 -0.021857570349053113 -0.018419601056312296
          -0.021323713268293965 -0.025250457126304637 -0.021278887779880407 -0.06049639399019924 -0.019076314245140225 -0.06293399188942317
          0.055792875317724366 -0.036810344406211115 0.04407339097122076 -0.04259873916631207 -0.05351525241731636 -0.04488082296196527
          -0.018337644554543786 -0.015489283210895266 0.0003301757293145968 -0.011895625349975347 -0.024399020906570534 -0.018086855282309244
          -0.07649959587164457 -0.04742991928675799 -0.10350969311777902 -0.0891399770809862 -0.0433116416089554 -0.03696500888179077
          -0.0013636390579642166 -0.024374789643935024 -0.010013463466198136 0.004838646162589333 -0.02182284437569293 -0.004464431072504604
          -0.007991713645991716 -0.028539354340627376 -0.014865792869766858 -0.006212245732679644 0.01074627905795067 -0.0076640159531558005
          -0.020371290238738737 -0.017098548109319545 -0.0023857235990094594 -0.00172637748708393 -0.023218341985996815 -0.02193658657650399
          -0.005915497066269815 -0.01890606655659699 0.011644842351216766 -0.0013888165055031543 -0.012597853761985078 -0.021385270083611907
          -0.02700869125153904 -0.016950880447282657 -0.01583771862411254 -0.012027931195037311 -0.010366120733809048 -0.010280484918435917
          -0.03571185518527953 -0.011317680427453958 -0.04344748956824862 -0.01294833876144974 -0.033635778110696624 -0.011069264917528798
          -0.007762701357503232 -0.006803541738405139 -0.0059379771084326904 -0.009697724154076326 0.008001632354680766 0.0037446228472397536
          -0.008588068586409037 -0.005088571337383718 -0.005341910688125395 -0.015918543893700843 -0.022684909535588105 -0.010024226403825054
          -0.022096942985806667 -0.0033984214901949805 -0.024839076316084174 -0.012554603595734903 -0.015388217326370857 -0.009063007032614312
          -0.010426445827885988 -0.0034343856595067113 -0.008510540538053002 -0.021878351070419466 -0.00443244603306292 -0.027118695870488985
          -0.026391707511383533 -0.03175220558092162 -0.02592478872003312 -0.008007876083121701 -0.0064481970319523185 -0.001934044146890912
          -0.004755688700561311 0.008476243020417495 -0.008427023212596474 0.0198944636033076 0.1542918975854164 0.03785377803259138
          0.32071399446287074 0.019017002755465917 0.16554482489779865 -0.1909458808977531 -0.45797905465545696 -0.39571564620160427
          -0.9254969610472283 -0.20679908302914818 -0.4777666215228713 -0.009740657519939688 -0.008195553383700371 -0.00306162174520086
          0.005096377462082913 -0.000002022169860005363 0.02000861199166515 0.02349417740415749 0.003588445544319363 0.0003858209714904248
          0.003113586516015232 0.8907262441072223 -0.0007389731743749905 1.7910150179933169 -0.009876491929986742 0.9365117001715806
          -0.02622540650228622 -0.01760774874651716 -0.01248316117058934 -0.01566261534518887 -0.012445441096240017 -0.004131528906937909
          -0.014212994982240268 -0.005391722492595896 -0.015774534740191193 -0.003858744944419179 -0.017647563963946844 -0.013046971450819456
          -0.002023221835577793 -0.0024494717471617022 0.0009934066915189277 -0.0010965670893154922 -0.00981115927451448 -0.011227139870135794
          -0.015206906172012147 -0.005093319530116602 -0.009935925910825816 -0.011794253218839756 -0.008756251870781995 -0.013064319479364706
          -0.019264573556774245 -0.029563687853959797 -0.04493908784154166 -0.00324256573450743 0.00037246383850764175 0.00706077508327585
          0.007047877932951252 -0.011043402069549124 -0.004724936857320117 -0.025723843330963447 -0.007241320850893906 -0.024436264896863236
          -0.005211980078065892 -0.01587234316615671 -0.00024416892530609857 0.002354144268264413 -0.005409799557559047 -0.011053928588108164
          -0.0023882592925703605 -0.0001457677510030564 -0.010713937425153475 -0.0244376212446058 -0.016404498256331834 -0.00960461778341859
          -0.01813715970041141 -0.005027088265595836 -0.010806409707483589 0.00021710100693717038 -0.026372197600736058 -0.015105111971493557
          -0.03654732635660185 -0.019146451992869906 -0.02268460472261946 -0.014821241803280039 -0.032663683077283956 -0.006462782825721547
          -0.02028006545315364 -0.01974872985911169 -0.02813420509990472 -0.020323955323604537 -0.010187833564788917 -0.004759526248609092
          -0.005562305775098864 -0.02544043314031974 -0.02185141429523707 0.019762044566645542 0.017515063365125094 -0.03542222266420314
          -0.01534380778168587 0.029625029652353696 -0.000009527718052737555 -0.02567920965060405 -0.009493842352036208 -0.020944134337969822
          -0.0029286438708484575 0.003968374401423169 0.018954873474595235 0.01983782081501495 -0.004544338056810204 0.0013562562286022484
          -0.027080053824451 -0.004916505149011763 -0.019704138606107757 -0.003561193078040148 -0.00413476039242755 -0.02530021275864991
          -0.0041082187830099315 -0.005773524773279748 -0.013597265899746969 -0.003113917479295125 -0.004507875676856843 -0.012357932516120052
          -0.018992406765480974 -0.00690974526341781 -0.012849504703269732 -0.003969596075124926 -0.002103370967591278 -0.010964730975159931
          -0.0017094949546194727 -0.003100637058345068 -0.007240061661746289 -0.011167585502776411 -0.010706358499879443 -0.018686037014555623
          -0.01277459561121752 -0.009322152597265543 -0.013410279850961437 -0.029213217192298746 -0.006003612603679542 -0.023838625131257896
          -0.03617035157911275 -0.018169326194520607 0.0004276005297612073 -0.01549742121661879 -0.010032185765810553 -0.012880632543714299
          -0.02644635870078771 -0.014478112899051432 -0.010535120315095625 -0.007167804267566247 -0.018213186434411277 -0.010935805140394272
          -0.02097423738920945 -0.00636787119195148 -0.016314129516635134 -0.01423317222287146 -0.01312962101743853 -0.0023129011529494647
          -0.0014740986537891132 -0.00865993871416304 -0.011602206086251066 -0.02406902637492525 -0.019556689848037934 -0.009598990487083015
          -0.009608153495662464 -0.018153767574797364 -0.012190163764977058 -0.027298284841290155 -0.02760316601512436 -0.0053429746840389925
          -0.0074772661884434655 -0.008335056608681946 -0.008540034053897472 -0.01533251978521566 -0.009763858232932243 -0.013310529282314576
          -0.007130088930684231 -0.009214785467559494 -0.012611501949787218 -0.031162003797996718 -0.00794386926312285 -0.003621644854864492
          -0.015933354669399158 -0.005047870828821743 -0.00039788548160490933 -0.018583279291152444 -0.0068048773389017825 -0.00548845014377175
          -0.029208386446099244 -0.0034380321974358807 -0.005230590738288132 -0.011105236229347781 -0.009032714443804046 -0.00847802110492335
          -0.013258840241695324 -0.0035575365929387814 -0.007816712709714402 -0.03629487801400266 -0.00382671818397462 0.011669493467271863
          -0.002048216331345998 -0.006457214468850836 -0.01719167760477447 -0.002359902295856031 -0.00868946160703743 -0.014689145071374643
          -0.004487252646998563 -0.005591836207813117 -0.010028391223514621 -0.011304192086300624 -0.006931825058344998 -0.004967070368191884
          -0.011416496501107432 -0.004258218834826799 -0.005796370263897899 -0.016313232385882337 -0.02316699649351328 -0.010334710178252493
          0.0066815425275379425 -0.0004983796256565753 0.01814156166239833 -0.011728070486747733 -0.011274778968240362 -0.005777254972125334
          -0.020239557403497255 -0.007722542462167636 -0.005167492786003924 0.8847519722724293 1.6413761239160785 0.6946901091235365
          0.16987518439830218 0.3584963075966279 0.18602428941512272 0.3135975115101841 0.5922141425209198 0.23416241213624023
          0.30800993729797277 0.6904578263817669 0.45150448053263226 -0.1493144513957425 -0.08456712051245674 -0.22750882389126126
          -0.1288787376174092 -0.09000642909306222 -0.04352017361789784 -2.4688529929577765 -1.4799736059075137 -4.915129462943816
          -2.950142030370669 -2.4424626495266786 -1.512729131328891 -0.12405434360954004 0.0017427275081924876 -0.24611766662150636
          0.002031096666595289 -0.12700996220134186 -0.0007727831952664133 0.6347820415155745 1.304930565154578 0.624742821734884
          -1.1903066021230444 -2.3423919064113328 -1.1324132088630599 -0.3981579607521972 -0.7755105280514929 -0.3957247999134452
          0.3039176312250831 0.624926903386454 0.3071339550182355 0.3876575166093108 0.8029506022553452 0.4225606100818897
          -0.5186560467903032 -1.0163694456009384 -0.4954442972572579 0.0065268200994772485 0.024126899909246546 0.019311768177461275
          0.4880638530599182 0.9891002079044853 0.5127025195952477 0.17388854590227254 0.3703740143825467 0.2129665205413076
          0.033093586732798386 0.07943833888456808 0.05569151152070795 0.7242228909675958 1.4847046682513074 0.7796726798084528
          -0.014853758050573873 -0.023806919813921468 0.002905220395735597 0.3429639236393385 0.7012953430570352 0.3733172265635041
          -0.011201581615003064 -0.014940788452381781 0.0008441560467726816 0.000642792927513014 0.017654087144311603 0.02227343286966743
          -0.008370390267605998 -0.011901354647166684 -0.0055274808285386 -0.013237588845003145 -0.00963391603593955 0.004788722773053422
          0.04341210810072482 0.09090792384171742 0.042703434277118646 0.029141210909976678 0.07269641303874153 0.04021570895881155
          -0.006325691562979685 -0.00395980991251399 -0.004520232668388857 -0.004339754598998269 -0.0023389918100811258 -0.00042281459705861835
          -0.00464809225101348 -0.0025963543495652885 -0.005309953548952251 -0.1815988535373343 -0.3578235544868651 -0.1829763866232419
          -0.6566941433905669 -1.3009046797998103 -0.6611655473676112 -0.48083356192663196 -0.9499948321063965 -0.4475735733622024
          -0.017684853077755136 -0.002575034489851191 -0.00823549144259772 0.00890607852711156 0.004199239817667788 0.010269247762565215
          -0.008625639489814318 0.0038794897366880576 -0.011696409510001615 0.021757709128749525 0.01109125166123448 -0.01563790381446495
          0.009850671993746118 -0.002904860438782464 0.008305472233365307 -0.07193545626148001 -0.14231348504224073 -0.09364007284641929
          -0.010941365496424105 -0.0028775963149820782 -0.027108970993802828 0.00014610587111896223 0.0064090756303585295 0.012366378012123036
          -0.01010453893430352 -0.008867704781867047 0.008331593359462985 -0.02469130562348454 -0.027055735496780642 -0.004754697520695572
          -0.02007507666187891 -0.02178580669139052 -0.0031634643472067125 -0.015606129913674494 -0.012458155871804877 -0.0033924723276790303
          0.04208074166652409 0.1019073276651703 0.05370770650349144 -0.0005270530915453264 -0.0019455691929355368 -0.005695429879210678
          -0.004517262738701788 -0.004768474465411288 0.0008458517758249684 -0.00019188782098922275 -0.0021532990192127954 -0.0059285779558990725
          -0.0020050571511127657 -0.0018827930464269116 -0.0017020978101847106 -0.027503351462257797 -0.0546328445956803 -0.02712152285890923
          -0.3342886689468969 -0.6685888401314983 -0.3397201631084421 0.13495779288090404 0.28684531106952704 0.17041425132481614
          -0.4689037675034502 -0.9382385096567454 -0.46463824366909634 0.3126274926841539 0.6168083056307978 0.3243605836281347
          0.06651159509975813 0.1336298085175045 0.07769831094167756 0.03984488992857038 0.08435774614600433 0.04945246233086742
        </DataArray>
        <DataArray type="Float64" Name="resid_y" format="ascii" RangeMin="-7.339332446054671" RangeMax="1.729878821220435">
          -0.006346974754785878 -0.001999463204678604 -0.006448052707783647 0.08775260929699841 -0.012681825670247698 -0.0013728957835657807
          -0.012547481914530478 0.18565232523635744 -0.00601324527894459 0.0014406316169871501 -0.0023596031201020273 0.1007545227571
          0.0008858421518239123 0.0003820499020787682 0.0007283027984671397 0.001170225165972122 0.0017316420421664563 -0.000030120832790969665
          0.003700925703778196 0.004769015456764614 0.002622896889750717 0.002175190764442475 0.004199697132647839 0.003499333242742292
          0.019880169177036944 0.005283957112860893 0.04831860290761247 0.6784848508885125 0.02797345813787766 0.010999454128289177
          0.10810199465048587 1.3601633606660621 0.0022483895585001523 0.002203142085358767 0.04329923967634253 0.7709808301611573
          0.009998138492242695 0.0023030610909151594 0.005432702347031262 0.0031942099575018104 0.02244784964342339 0.0028548395699087015
          0.002929279227275705 0.010171428985890824 0.01168320215457229 -0.001059728901492779 -0.002832414690173077 0.005835001889278921
          -0.0002405175844920615 -0.0005138040859251729 0.0002022623769647458 -0.0002691054301628554 -0.0015733847045358296 -0.0023040541839294687
          0.00013027722193725833 -0.0037482329807942485 -0.002937416852306196 -0.00339811464848307 -0.001964561363859474 -0.002584986593409352
          0.00033305852161713556 -0.003446665252022252 0.004186722495732514 0.005718359652948979 0.0010513691385096724 -0.007748833984512926
          0.010145108905228378 0.013499177513253774 0.003058026540719294 -0.0009242751643317448 0.009294974632553243 0.008910074239901825
          -0.00551150731185851 -0.0020378472842904616 0.005126691253911464 -0.0012446165033034862 0.0018358530228510528 0.002548694079809455
          0.001893222441568032 0.005362400049469029 0.005069612423496073 -0.004622473085628465 -0.0048751093115032285 -0.007117843278066582
          -0.00017415818006816242 0.0010242832432110771 0.007604086047870023 -0.009807023679757276 -0.0020859803642225005 -0.0015115351087267026
          -0.005135265209619183 -0.020115384715900242 -0.006102850839814433 -0.0022744885324004205 -0.009482671006904558 -0.0158851952645509
          -0.008104818626882004 -0.002393835310549819 -0.012742252060019221 0.011553159195736781 0.013472573072071337 0.011919250196976885
          0.007418472602161358 0.007086671041124565 0.003355331337400541 0.0004611787759843805 -0.0030461986575267552 0.0008130906074691954
          0.00034097814422023864 0.005575722188150056 0.006227984591281488 -0.009572755698501745 -0.0053855841940968485 0.0033803077664096293
          -0.006042814455977541 -0.006170204686446523 0.007804841651493699 -0.0014744295870980362 -0.003784759723168385 -0.002067073100730621
          0.0060846134260459095 -0.0001703683370804154 0.018533343652126416 0.00746203881184026 0.011921072737071048 0.005931630156545371
          0.0013876436428182648 0.0026282545275436164 -0.0015904737695313365 0.0004655023210774767 0.002581659736390546 0.004094090424330871
          -0.0011258566893377064 0.0020963420641144023 0.003979333712893884 0.005757778362492472 0.0033934571510864098 0.0009711860281396562
          -0.0029859527766707694 0.005434691970979413 0.0071172943497535 -0.00276895729588697 0.004362214472715453 0.003471465733759671
          -0.002659171784589992 0.0003868077887334981 -0.0034005208828461475 0.002682000729028161 0.022267065392381047 0.020539375826071293
          -0.014966254002300672 0.021997765858485726 -0.012743686873124632 -0.024307423290980512 0.03593827913853552 -0.030156165569068527
          -0.008575625016423005 0.03745732641140395 -0.01487698951343197 -0.007047403872228686 -0.00517516360945347 -0.0034935859235131206
          -0.004159897040710903 -0.0031304031460428483 -0.004056698678595205 -0.005370545591106668 -0.0006802256353637681 -0.0012154093586871917
          0.012382219323952712 0.006804053043453162 0.010022789026891715 0.017690566383510173 0.011389044176569593 0.0253650749923906
          0.008891075002838186 0.006808114098737231 0.014628058111919334 0.00572138977199145 0.03008207742841351 0.009247803393831744
          0.05911517341774451 0.003206578844183905 0.030869406653132703 -0.019350245172191416 -0.019944575370117235 -0.0345924462449097
          -0.036851313491152504 -0.02032436596298287 -0.026170154296072112 0.006591625163844162 0.009612808262577877 0.0011927473779092396
          -0.005077502848270576 -0.0009415332986529718 -0.002169731714312728 0.002651968100881849 -0.0016887620467718745 -0.0016176267243167564
          -0.0026980644338139015 0.007771209302767368 0.0011698983304766486 0.009313730414533122 0.005165185877482686 0.008424382974691114
          0.010930155669606811 0.003954425556773632 0.003463745043617364 -0.002527205914660151 -0.0012706350585056092 -0.0037489493647023253
          -0.00466761495930966 -0.004695800653449392 -0.0019270616641201 -0.009066566247642627 -0.008908895107023376 -0.0009383305284210997
          0.00033629185094524727 -0.0022727944409869916 -0.003710930163606782 -0.004158087570825253 -0.008304824044288117 -0.012627458485091836
          0.06409893946860867 0.0014206475470295299 0.13555750384408083 0.01019720832851223 0.06659668012889242 -0.007392507408868543
          -0.0064314636669074166 0.0005650480370522765 -0.005349619688433699 0.006996192523816391 0.00040857834031357565 0.005833991934911659
          -0.003398721764888188 -0.004830150960247713 -0.0049137332830129585 -0.002509492275381081 -0.02275520249566944 -0.004203881137823565
          -0.026696072196016517 -0.003393493956025659 -0.010771159947528162 0.007003444705501965 -0.008324450488311715 -0.014374138392185931
          0.013065328608128174 0.007225767368356396 -0.010691997677928312 -0.02799599529232541 0.03297703907605845 0.007181030797199811
          -0.003684637250649117 -0.009812628498940684 0.02963202992344041 -0.0056211453395743766 -0.003062131534266932 -0.004522166905597272
          0.00006288828305156535 -0.004567248143992481 -0.0016453429887988702 0.001509997593749146 0.0011451315627488134 -0.004614764026009743
          0.00032455362954064704 0.0010874222730407057 -0.0011722891486272147 -0.013199084190365001 -0.009512103345655304 -0.0015768605468698405
          -0.003255347642635631 -0.009361850165698321 -0.010051905798663358 0.005396556743956338 0.01686337850399086 0.01237430167416792
          0.0031611519198928573 0.0046126719283036965 0.00024849128896231587 -0.004709367920080115 -0.00047124311350693615 -0.0030909328255770696
          -0.00762248564764717 0.0018104726556900236 -0.00786099117092931 -0.013151683712888856 0.0136098093654336 -0.02306812832113539
          0.01178933660559665 0.02173944419934161 0.010918306446084443 0.024744202937887247 0.016171331760347893 0.025468438168388313
          0.011673559663321148 0.018001603613169853 0.007013183639946463 0.00817531242086448 0.009224967015141694 0.007605050025651608
          0.0065741906483982315 0.00524459314151543 0.003927546257745107 0.005278387942550533 -0.006488648022128146 -0.011916948076983264
          0.010388204585189909 -0.02186177504616435 0.0161729549149478 0.022466494170289175 0.04476565671532107 0.03682691467873844
          -0.0007676583809645421 -0.001420488770642797 -0.008665007747983622 -0.0011454869432525189 -0.0018686410078192495 0.00007178054593412475
          0.026980142280941637 0.04467739432664508 0.054570791247153305 0.10162084234385955 0.023253951236848293 0.06033138765362753
          0.0040878846577883515 0.008770971742237885 0.0002765756231937998 0.008402547625245324 0.01824101566403262 -0.004942359134599811
          0.005059891405857039 0.012509597817741934 -0.00270337334074483 0.007512016792704315 0.010633798819509349 0.006809528382834523
          -0.0010688345034819413 -0.004747277329072819 -0.009784048779463594 -0.007956610204017112 -0.0014950967112203062 -0.0014801721680597346
          -0.003468393948034082 0.005300611516493414 -0.004263151484908578 0.007069830383503839 0.0010904148851469675 0.00779083210367601
          -0.011291333148013227 -0.0062130388089911 -0.016440436612509046 -0.005895937476228463 -0.012190368432247856 -0.007152280046454518
          0.01178881634167931 -0.0031944110773724083 0.02579026967608186 -0.005963995516759177 0.013002238691452516 -0.0034996070070543936
          0.0030864369146679227 0.003986558720961292 0.011365006701773202 0.003635674309024506 0.003801392676789278 0.014523766014672507
          0.00013479452837170114 0.0013846274348698617 0.008295420949385922 0.0011755072668717392 -0.00024039705003753298 -0.0015284737117592373
          -0.0024428540573939728 -0.0035850215699874677 0.0006043994726249169 0.010795689914004276 0.014457861782740201 0.005368474849759261
          -0.003517274980000179 -0.008010398743939745 -0.005191723734940229 0.01918598411350983 0.02056286925683712 0.01948072134514396
          0.012429626497860329 0.019517185606113676 0.006409875570775207 0.0021498173190221403 0.00012098401700821881 -0.0011286933384781483
          0.004231677225790584 0.005346463637616594 0.003866051389905832 0.4367805682402648 0.14457395619423974 0.754848905263611
          0.3212536153089086 0.136810532008934 0.19411337855575184 0.20356801023140852 0.11089954489321413 0.34604242226437276
          0.2336483801367695 0.12017395446557941 0.12672292877425742 -0.004572898367381617 -0.007490609095026413 -0.0009215552843153119
          0.05845427380349767 0.006839566450190945 0.14274128303710132 0.010856135278973833 0.09991906682130453 0.0025988870346291826
          0.04138665533442243 0.5256451339733563 0.10525360166314512 1.0643791775877773 0.04708668344586897 0.5235612297169911
          -0.011274039504425515 -0.014676777012984532 -0.014104779399705003 0.0041992128692200925 0.007270372343371356 0.004278585013773095
          -0.003090471267447173 -0.0050346601719826745 -0.0046847591450333015 -0.0037333529930212994 -0.005762934758450147 -0.001636512853439298
          -0.17067713279114044 -0.20478302622546019 -0.3327279537406701 -0.40679871723788674 -0.15406449743096287 -0.1855708007968488
          -0.0005117635292540001 -0.0033314745057918815 -0.0009409712280459281 0.005337735858170219 0.010335797170512272 0.005678311922376944
          -0.0008986019832830233 -0.015602184639297925 -0.01275253222416823 -0.0069859859366628585 -0.09556975863409711 -0.012540453052783465
          -0.17949281064117995 -0.005857664038900104 -0.08635598029170091 -0.0012161009213305651 -0.006491827407448358 -0.0020942354559400356
          -0.4699650982210085 -0.006551841097053118 -0.0001906394687896662 -0.4673828022283838 -0.9454333342942782 -0.005971634151175187
          0.0006844839142085002 -0.9356679912110624 -0.49662380483930024 -0.00304473139419148 0.0003171799501535122 -0.4709055228424705
          -0.0007780855398398095 0.0016345229796899674 0.000923293285780398 0.0006933795161813694 0.0020825311037245345 0.0010433711254221323
          -0.007236874035325526 -0.005071953067582569 -0.004221957102819546 0.01001755381845107 0.00021796745793156713 0.004940498545462996
          -0.00479953634935204 0.0002393601859013994 -0.005232848781636268 0.003031531031684187 0.00026276813775888766 0.00005695102760047699
          -0.0012530429261887735 0.0016511943350631109 -0.0015179691433004003 0.009618922333974433 0.022972382718467743 0.02938453790518078
          0.005039641974105613 0.0022765268484138956 0.007131303303855405 -0.0008947683710130994 -0.000692224586292034 -0.0036680628279346927
          -0.00474828611174162 -0.000042283040289539664 -0.012586751914634528 0.027406700915092896 -0.008134698586530348 0.032941669375149515
          -0.0024551045082723266 -0.003308517349583623 -0.005899220196243282 -0.0089300322675403 -0.015157647826672505 -0.01712362662932175
          -0.012801447456350368 -0.03721173414112339 -0.013652621873923312 -0.011036886908153465 -0.026265063234957697 -0.010576477717131383
          -0.005107691911101053 -0.0037194956424392855 -0.0037149808105478854 -0.2778800806011285 -0.4825774762329709 0.0008277653601790891
          -0.5522179375410262 -0.9649638156163883 -0.0019524670799880295 -0.26742223873336163 -0.4605709232174542 0.0003991880465933628
          -0.4775759252391195 -0.9625751589917025 -0.510293882032568 -0.006750405598253434 -0.016179342527368606 -0.005738131106863165
          -0.010251651414107443 -0.011254767462257398 -0.01084841414712423 -0.21574690610943467 -0.4255517892888692 -0.19384021424971165
          -0.007551282647230484 -0.4994035166519908 -0.003333427055395355 -0.991719951959929 -0.0006085878475238782 -0.4747437378807797
          -0.0045035080639855285 -0.004680224074583107 -0.006289303106453906 -0.003659514046008616 -0.005025298049523508 -0.01198222564042696
          -0.012836465914342884 -0.0073985377415053954 -0.005918490719898084 0.005031176750128992 0.00001945017048734371 0.003997957827486163
          -0.0018177032298927684 0.001971392747867371 0.0003227439606449771 -0.002255579117504229 -0.009593365339599931 -0.003275079423772788
          -0.009537678050582934 -0.003944979808548183 -0.005956480278803057 -0.013817680238774721 -0.011009117510053512 -0.016276583879680784
          -0.009078553827197952 -0.014558789883411694 -0.010715931705609305 -0.0044424252572024675 -0.41761819046913295 -0.41377227162203223
          -0.0003612177574546238 -0.8363253791506291 -0.84161401016359 -0.0013716667481840361 -0.4466723716513477 -0.48391522051753294
          -0.015274432792610926 -0.012075042566077165 -0.011567681260603924 -0.43166185483637703 -0.8822132122262804 -0.5203290277099342
          -0.47345366317609683 -0.9492612234448768 -0.4968176413891179 -0.01561650438047213 -0.006487205104107052 -0.008964887142214883
          0.02569263529992441 0.08102336631046098 -0.003287156054442464 0.036396183779870084 0.15350330059966 -0.004108503318709156
          -0.04185073334720946 -0.03921725386764846 -0.0032641439147655937 -0.19953755039915735 -0.423868935981045 -0.24578181675050603
          -0.009380063801283034 -0.005525518263564122 -0.005570472884946054 -0.017858798921584262 -0.010142012989625748 -0.021588893004031884
          -0.0027053589097058572 -0.01233800866957313 -0.005633135437120629 0.21588462895460564 0.46455858141293893 0.3161176408422709
          -0.0027318548346239035 0.000361380147423096 -0.00007012492379532276 0.11291967422076644 0.20792974515651388 0.13478959656998374
          -0.12582581235965096 -0.20031864815026995 0.02506860322518134 -0.20077636109729513 -0.3825613618014996 -0.8055906060537483
          0.3090552830856764 0.4858139816381044 -1.076585534300508 0.5945717329239587 -3.215021586052867 1.1882492498867199
          -6.461623878180712 0.5655772873435103 -3.0815578993694537 0.06273685031687937 -3.379728204103353 0.12393315075612044
          -6.7879173893518265 0.04572185182163341 -3.4859200015796703 -0.04103137547434166 -3.08952876709635 -0.08072588473739661
          -6.1973722677884515 -0.04079921886751103 -3.1939709184797156 0.8673577198439935 1.729878821220435 0.8798359450039854
          0.214927745896008 0.43108532049681664 0.21892690680605797 -0.12619481482931239 -0.2493102513588974 -0.12217119604215698
          0.33168418081356155 0.6695692689971676 0.3210308485204183 0.2732077864661687 0.5562954061741068 0.26797466720751817
          -0.24000080931138923 -0.46550478738429735 -0.23724011691309232 0.009603520304570567 0.024661043096282254 0.00042056131054235557
          0.16967443156019746 0.35166131621380403 0.16696711904124295 0.04782966985052017 0.10847488598222932 0.05031982048696926
          0.04011382996668034 0.09018153077809898 0.03636070030859173 0.15868991320284498 0.32958241259113863 0.15483483602968406
          -0.00584525756186971 -0.000015420687232925445 -0.012635957454963154 0.17285321861136638 0.36194555931629496 0.17158839387305824
          -0.00627471251611611 0.003817773959424564 -0.00986329553398202 -0.0017120376275247262 0.012126748663916387 -0.001987707497938418
          -0.011552208701932853 -0.006492864443210733 -0.016733511962398584 -0.01459232023319737 -0.006943590838709601 -0.013788781866141075
          -0.012973669930174125 -0.004821774481746921 -0.005877743660070878 -0.012671906482414563 0.001224117577239392 -0.002927068437960534
          -0.0012888660747281122 -3.665125120659585 -0.00028071606992430276 -7.330056068336363 0.00010959227237750113 -3.697514429450588
          -0.005193468654335565 0.0019957862037940366 -0.00706459358677769 -0.10403659023886336 -0.20428497052537864 -0.1111101693983847
          -0.2051401718125585 -0.3984415124058296 -0.20001831934669934 -0.11229195882434073 -0.21046144010076295 -0.11455316497566059
          -0.022808244996787408 -0.023163226543467197 -0.025494359364134134 -0.03260983531725847 -0.011754685883697713 -0.017963093221254278
          -0.006549099878675857 0.005329442904389192 -0.00408156497129053 0.005187167996919428 0.010344169155125815 0.0008765390528484573
          -0.004277124815145528 -0.006912738481131608 0.003549507064253943 0.000568197611033161 0.0036108261032511413 -0.0019525046010154812
          -0.010797381139649578 -0.018627634028887036 0.007561438585600919 -0.017699454225438005 -0.01434511956995077 -0.007690734654704767
          0.0026520753604866165 0.016713036030156836 0.006858515874468063 -0.0036876943130266238 0.0018032988769971503 -0.008393520632091533
          -0.010706091835456788 -0.006764867379570383 -0.016182005081615936 -0.016241512437068895 -0.00702673025174938 -0.018971670110212224
          -0.014733008790756175 -0.0005013070703343558 -0.005085655545651602 -0.0010017004248101813 -3.669291641516312 -0.0023856632323850935
          -7.339332446054671 0.0024097217693115347 -3.6807610606078374 -0.002520443626577551 0.0011541232798164547 -0.003342976437535894
          0.0029292162599754423 -0.001517749380765654 -0.003334569142739996 -0.027513787468260276 -0.049873336749336694 -0.028503202054215526
          -0.1228577671244393 -0.2434967361535083 -0.12572548621453805 0.1954050481532953 0.39617320107300347 0.18470064140603104
          -0.07891009711458352 -0.14942945537737984 -0.08440331856702699 0.14976733817195087 0.29736392832700975 0.14041845183754242
          0.028070595731384262 0.06321640333176992 0.025965282579066162 0.0006740750902145543 0.010109314770399003 0.002815338675082213
        </DataArray>
        <DataArray type="Float64" Name="resid_z" format="ascii" RangeMin="0" RangeMax="0">
          0 0 0 0 0 0
          0 0 0 0 0 0
          0 0 0 0 0 0
          0 0 0 0 0 0
          0 0 0 0 0 0
          0 0 0 0 0 0
          0 0 0 0 0 0
          0 0 0 0 0 0
          0 0 0 0 0 0
          0 0 0 0 0 0
          0 0 0 0 0 0
          0 0 0 0 0 0
          0 0 0 0 0 0
          0 0 0 0 0 0
          0 0 0 0 0 0
          0 0 0 0 0 0
          0 0 0 0 0 0
          0 0 0 0 0 0
          0 0 0 0 0 0
          0 0 0 0 0 0
          0 0 0 0 0 0
          0 0 0 0 0 0
          0 0 0 0 0 0
          0 0 0 0 0 0
          0 0 0 0 0 0
          0 0 0 0 0 0
          0 0 0 0 0 0
          0 0 0 0 0 0
          0 0 0 0 0 0
          0 0 0 0 0 0
          0 0 0 0 0 0
          0 0 0 0 0 0
          0 0 0 0 0 0
          0 0 0 0 0 0
          0 0 0 0 0 0
          0 0 0 0 0 0
          0 0 0 0 0 0
          0 0 0 0 0 0
          0 0 0 0 0 0
          0 0 0 0 0 0
          0 0 0 0 0 0
          0 0 0 0 0 0
          0 0 0 0 0 0
          0 0 0 0 0 0
          0 0 0 0 0 0
          0 0 0 0 0 0
          0 0 0 0 0 0
          0 0 0 0 0 0
          0 0 0 0 0 0
          0 0 0 0 0 0
          0 0 0 0 0 0
          0 0 0 0 0 0
          0 0 0 0 0 0
          0 0 0 0 0 0
          0 0 0 0 0 0
          0 0 0 0 0 0
          0 0 0 0 0 0
          0 0 0 0 0 0
          0 0 0 0 0 0
          0 0 0 0 0 0
          0 0 0 0 0 0
          0 0 0 0 0 0
          0 0 0 0 0 0
          0 0 0 0 0 0
          0 0 0 0 0 0
          0 0 0 0 0 0
          0 0 0 0 0 0
          0 0 0 0 0 0
          0 0 0 0 0 0
          0 0 0 0 0 0
          0 0 0 0 0 0
          0 0 0 0 0 0
          0 0 0 0 0 0
          0 0 0 0 0 0
          0 0 0 0 0 0
          0 0 0 0 0 0
          0 0 0 0 0 0
          0 0 0 0 0 0
          0 0 0 0 0 0
          0 0 0 0 0 0
          0 0 0 0 0 0
          0 0 0 0 0 0
          0 0 0 0 0 0
          0 0 0 0 0 0
          0 0 0 0 0 0
          0 0 0 0 0 0
          0 0 0 0 0 0
          0 0 0 0 0 0
          0 0 0 0 0 0
          0 0 0 0 0 0
          0 0 0 0 0 0
          0 0 0 0 0 0
          0 0 0 0 0 0
          0 0 0 0 0 0
          0 0 0 0 0 0
          0 0 0 0 0 0
          0 0 0 0 0 0
          0 0 0 0 0 0
          0 0 0 0 0 0
          0 0 0 0 0 0
          0 0 0 0 0 0
          0 0 0 0 0 0
          0 0 0 0 0 0
          0 0 0 0 0 0
          0 0 0 0 0 0
          0 0 0 0 0 0
          0 0 0 0 0 0
          0 0 0 0 0 0
          0 0 0 0 0 0
          0 0 0 0 0 0
          0 0 0 0 0 0
          0 0 0 0 0 0
          0 0 0 0 0 0
          0 0 0 0 0 0
          0 0 0 0 0 0
          0 0 0 0 0 0
          0 0 0 0 0 0
          0 0 0 0 0 0
          0 0 0 0 0 0
          0 0 0 0 0 0
          0 0 0 0 0 0
          0 0 0 0 0 0
          0 0 0 0 0 0
          0 0 0 0 0 0
          0 0 0 0 0 0
          0 0 0 0 0 0
          0 0 0 0 0 0
          0 0 0 0 0 0
          0 0 0 0 0 0
          0 0 0 0 0 0
          0 0 0 0 0 0
          0 0 0 0 0 0
          0 0 0 0 0 0
        </DataArray>
        <DataArray type="Float64" Name="stress_zz" format="ascii" RangeMin="-4640784.661092742" RangeMax="21167287.942350768">
          -1159832.6716283797 285958.9493222274 873480.8820923904 -1545227.6205016752 -1209843.5601849235 218510.17328702667
          991549.1364488604 -1423671.322583053 -1259854.4487414667 151061.39725182587 1109617.3908053301 -1302115.0246644306
          762756.8227611752 547847.9896010965 623078.2879294066 672857.1867796225 747269.3839554292 464968.30368879595
          546745.439070598 683964.7483515886 731781.9451496835 382088.61777649546 470412.59021178936 695072.3099235548
          4051429.9116280796 -3963242.391309289 3512336.188721078 11068706.006936213 3945108.1784420097 -4246050.891635629
          3432679.974809047 11251109.62070374 3838786.445255941 -4528859.391961972 3353023.760897016 11433513.234471267
          741472.7434465883 -224964.77746798238 -530011.2174905952 619619.3187515563 700082.3107933333 -210391.90913876833
          -502165.327024139 590586.0575096677 658691.8781400784 -195819.04080955434 -474319.4365576826 561552.7962677791
          858493.7355908279 1558590.3650844295 1396806.3882093097 1445740.3877407853 854937.1981919594 1552093.9084468768
          1383267.236437173 1435296.0226883134 851380.6607930912 1545597.4518093236 1369728.0846650358 1424851.657635842
          -373466.307767368 399844.04243589716 105129.91794183067 -259643.18864717346 -433922.4706085029 366648.94104915444
          60938.49610511629 -262836.17885649565 -494378.6334496379 333453.8396624117 16747.07426840197 -266029.16906581784
          901316.2826155814 902172.584315001 1179264.2890521465 911520.0720268285 905559.238401613 1135618.4434752415
          921723.8614380755 908945.8924882247 1091972.5978983364 917300.5733712837 863139.6764463156 989467.1272340178
          850508.8590478352 1061633.6810967517 837878.0416493552 1672128.4296763146 3002089.5661239005 1923281.7591595773
          407799.364277393 1657751.66186402 3077646.971048007 2132852.497239275 385479.5889200135 1643374.8940517257
          3153204.375972113 2342423.2353189737 363159.8135626342 -993187.5817957702 -585630.7462458771 -996952.6408007152
          -566101.4862170512 -1000717.6998056602 -546572.2261882252 1256181.9869705567 1207359.7343104861 1297712.4182391958
          1208386.8416899971 1339242.849507835 1209413.949069508 6807482.810776857 5408133.589973692 9114125.11129232
          6899718.22737601 5606773.748856681 8725926.533674506 6991953.643975165 5805413.907739668 8337727.9560566945
          -1139180.1163892348 -1084809.3736105906 -1082078.6219123674 -1072834.921943223 -1024977.1274355003 -1060860.4702758556
          534086.8238282116 818267.8520823454 481889.28114506695 56992.26910821625 572524.1655318766 859428.8671015501
          531101.350753552 93864.49381686651 610961.5072355416 900589.8821207547 580313.420362037 130736.71852551668
          1084731.2421262017 1044180.7628089816 1303749.2540938251 1109003.7960354437 1073586.765400778 1339759.9265276256
          1133276.3499446856 1102992.7679925745 1375770.598961426 263878.7715191521 266268.4184397301 268658.06536030804
          1242734.3294448263 -266506.0267368957 342271.6420244428 1231597.26315421 -240966.73700712324 284411.33396732237
          1220460.196863594 -215427.44727735073 226551.02591020206 1114483.9375528453 -48519.60961058525 619803.5067544803
          1060732.772834029 -33493.79059205884 633367.755568329 1006981.6081152132 -18467.971573532384 646932.0043821777
          -958633.1482066421 -1909811.0305633324 -2032243.710080699 -903143.9623918099 -1870338.1132948236 -1931560.5223105275
          -847654.7765769779 -1830865.1960263145 -1830877.3345403564 -2097550.6784698362 -1620894.5453995094 -2096128.185605469
          -1667499.845111025 -2094705.6927411016 -1714105.1448225414 11575.186048872798 346443.7030034234 344.9511707290876
          263266.6252397017 -10885.283707414714 180089.5474759802 -1876586.8609751272 -1959706.6896978095 -2042826.5184204914
          -1452698.2869481747 439842.07190114504 -1409255.7727861388 90700.44163235842 -1365813.258624103 -258441.18863642844
          1403242.4128389854 1341350.4485346263 1380576.0602786723 1313795.5394690977 1357909.7077183593 1286240.630403569
          571795.721814368 534219.8225895194 496643.9233646708 -411719.066447612 250161.24400804276 23758.135458032135
          -618542.7236403462 -451243.03355276573 223041.78637042243 14300.901605152161 -674282.7653191652 -490767.0006579195
          195922.32873280207 4843.667752272166 -730022.8069979842 4178659.9390437435 4231870.127386486 4285080.315729229
          5418599.271565108 4853732.016541469 5475570.821407579 4813686.279257441 5532542.371250048 4773640.541973412
          -1884305.1734866994 -2367093.9112268235 -1875234.2288988489 -2256210.610574631 -1866163.2843109989 -2145327.3099224395
          1512358.7495046116 1432594.2759407898 1352829.802376968 -364730.78142102505 -455356.2655907342 -435518.8812194811
          -428760.7987217501 -506306.9810179373 -402165.33185276587 -1371340.576296409 -1801130.5090014886 -1240115.2232959974
          -348916.26583137375 -1403093.6068266938 -1942325.1128932035 -1336870.4812327703 -432508.0319999792 -1434846.637356979
          -2083519.7167849187 -1433625.7391695434 -516099.7981685847 1976281.319912851 2509704.3501343946 1944672.528942545
          2430482.9588515866 1913063.7379722388 2351261.5675687776 2538332.5140852933 836857.5148217764 796154.1248199577
          2332214.906431472 2098994.4771066546 701073.8384662509 957441.5051118592 2379028.9782624613 1659656.4401280163
          565290.1621107257 1118728.8854037612 2425843.050093451 544682.0800865412 586774.6636865652 628867.2472865894
          -1065140.9570201864 -590457.3532613993 -1126565.8941219894 -652235.0509796062 -1187990.8312237917 -714012.7486978131
          463488.3436535322 775430.2452633074 452530.1820490013 746536.2277525562 441572.0204444703 717642.2102418051
          71293.18376989933 59844.13554793238 48395.0873259654 992292.0460448068 101041.48607045293 979821.5170706746
          41555.726676529026 967350.9880965427 -17930.032717394817 -706308.2759295037 -781932.6249019136 -674513.0010373965
          -874666.3215809414 -642717.7261452891 -967400.0182599694 1039006.329810634 116199.37830677262 1089973.8538771998
          84946.85510998883 1140941.3779437656 53694.33191320492 -1109376.5332019017 -1155587.3283744915 -1201798.1235470818
          220211.44545763973 807096.4299670531 249161.39971531238 766478.4995921374 278111.35397298506 725860.5692172218
          -829485.9660920931 -431777.42910229997 -899964.5938690157 -469333.31946408644 -970443.2216459382 -506889.20982587285
          -146223.3645879993 -409641.1325547676 -104182.42648201738 -113884.6811041419 -353251.0548994216 -56502.37419569955
          -81545.99762028444 -296860.9772440755 -8822.321909381717 -148043.76257662507 -159386.144163449 -170728.52575027297
          -188969.7539084201 772433.6216924341 -207380.16342751164 861452.2593872303 -225790.57294660318 950470.8970820263
          1095774.2645323076 982375.8531204986 1092619.812445343 989176.9795074586 1089465.3603583784 995978.1058944184
          1048020.2840494299 -1167503.107511676 1068311.8087286162 -1163802.7192877345 1088603.3334078025 -1160102.3310637933
          -1431174.4065933311 -937986.0224399181 -1377549.169236687 -943563.4748841136 -1323923.931880043 -949140.9273283089
          -143442.92745859473 -742344.8878814534 454093.4322582369 -172487.33232388156 -732622.5711174989 384339.0051401912
          -201531.7371891684 -722900.2543535443 314584.57802214543 -773143.2078434315 -836349.0919189877 -899554.9759945438
          1003156.8734606166 1032772.5766922788 1062388.2799239415 1164521.3507726083 1159863.9717432936 1155206.592713979
          -678573.878141836 -739471.2108306764 -800368.5435195167 1441474.5859140304 1427605.3465530984 1413736.1071921666
          180684.97383601693 97364.69634475705 14044.418853496907 -1149733.671176666 -1179067.4655226388 -1208401.2598686116
          882332.2861545191 864358.590115062 846384.8940756049 -2681771.556227331 -3779727.3469897 -1935034.9086656566
          -3409217.909156865 -1188298.2611039823 -3038708.4713240294 -951709.1923519608 -1174147.0743746897 -828081.9401203782
          -1087729.5989465455 -704454.6878887953 -1001312.1235184015 -2562180.101630496 -2666358.2842139117 -2770536.4667973267
          2329096.0523442826 1799323.2740249874 2083053.0911222515 1592520.426165364 1837010.1299002203 1385717.5783057404
          10122416.398923114 9677036.167950574 10176449.475406142 9796045.78251053 10230482.551889168 9915055.397070486
          1380207.849259648 1379007.3143497831 1377806.7794399182 -210099.12117787474 -251348.6774222202 -292598.23366656556
          1110952.6722270208 512192.86281274975 845834.7955770808 530619.7712493003 580716.9189271409 549046.6796858509
          -391690.1498837387 142774.9398420045 -426218.4049431931 98523.9836835844 -460746.6600026474 54273.02752516429
          1110895.521051941 1136985.864867078 1163076.2086822146 1238091.0106624318 1195658.553647493 1153226.0966325542
          -1245274.5145840438 -1346034.6552097702 -1446794.7958354966 -541274.1530952462 -561119.1693836864 -511055.6782475712
          -508318.48483866133 -480837.20339989616 -455517.8002936363 570976.2635780742 589627.4420180729 608278.6204580716
          1890114.5603400993 1708791.9252040333 1693834.8271257698 2271068.305835741 1946685.276829313 1717927.945486966
          1693082.743934701 2279616.167983501 2003255.9933185268 1727063.9657698981 1692330.6607436328 2288164.0301312604
          685187.9352950678 895627.6922793823 749101.5634765823 995112.6706971438 813015.1916580967 1094597.6491149052
          978496.7224022057 993083.9899332477 1007671.2574642895 970896.2544320412 1318517.1701182819 985382.3718563679
          1324399.2202833109 999868.4892806946 1330281.2704483394 121339.38647886307 -551197.0185038811 174138.925277532
          -550895.9775262413 226938.46407620085 -550594.9365486017 832807.3131879901 821970.0787557086 811132.844323427
          1378684.900515508 1349581.5469384699 1320478.193361432 702286.9658093442 645867.5624467881 589448.1590842317
          161040.90572178736 276833.36238048936 111615.99237765171 215487.1103478152 62191.07903351611 154140.85831514106
          542562.9719429843 506353.9547504537 470144.9375579229 3623255.2646324444 2225228.696863982 1110377.545168389
          3484065.340335072 2244030.2796854945 1068837.2982902955 3344875.4160376997 2262831.8625070066 1027297.0514122018
          -218818.22259513102 -399804.9463155979 -580791.6700360645 766853.341846424 1253988.3093030984 1394259.1487691698
          825806.0191566455 1254158.9583159005 1342378.932403283 884758.6964668671 1254329.6073287027 1290498.7160373966
          1341576.0148961798 1382369.6430498953 1423163.2712036108 722045.8592279762 722579.4786331357 723113.0980382953
          1994257.6877190035 1909809.8995654942 1825362.111411984 688695.8841666264 698270.8566909584 707845.8292152905
          1684393.1227565047 2207840.618848851 1579420.4652073842 2152189.5465321178 1474447.807658264 2096538.4742153846
          1510176.4552181035 1457404.160470387 1404631.8657226702 -257278.45477139653 -685606.5340854634 -280286.0638919225
          -734794.2958407139 -303293.6730124484 -783982.0575959644 498472.2240547581 590626.7720067102 385093.599021464
          479161.85389907815 271714.9739881697 367696.93579144584 2253568.5776232486 1961110.0898058144 2115894.4917327114
          1873681.2269810806 1978220.405842175 1786252.3641563468 6236556.368811049 4897974.083411657 6387831.714854919
          4949215.157431868 6539107.060898789 5000456.2314520795 472898.19199948496 1263313.2888972906 2224426.158044142
          481021.0532220545 1307885.3290099227 2408821.3633383824 489143.9144446239 1352457.3691225545 2593216.5686326222
          3083936.144848788 2986033.950943443 2888131.757038098 1920865.7309648856 2006675.9372190514 2092486.143473217
          770194.3735572507 761810.879252439 753427.3849476273 7246744.162075322 7184933.0476038745 7123121.933132425
          2973544.2138120634 4090216.8551704036 2234075.911566892 3233646.275829692 4049542.4569419995 2055924.7647818015
          3493748.337847321 4008868.058713595 1877773.6179967108 729085.121907114 904387.5461547773 1079689.9704024403
          5750986.297647938 5851222.224837956 5951458.152027975 7033335.621092571 6219905.944832569 7279745.506370778
          6208403.3641081 7526155.391648985 6196900.78338363 2549153.468137848 2896264.5510638207 3243375.6339897932
          3999794.2632539193 3935498.4847978204 3871202.7063417225 11791622.959159927 11284629.758190373 10777636.557220815
          8473263.997351563 7669343.144932418 6865422.292513274 14450847.251315204 14027409.717905987 13603972.184496773
          19546285.436281275 20356786.68931602 21167287.942350768 12627066.13189124 17029740.26007586 12539584.754900945
          16913203.141909543 12452103.377910651 16796666.023743227 -343519.6283217431 -364826.91732622497 -349544.5132175543
          -397968.0582689927 -355569.39811336575 -431109.1992117595 -4265968.094693808 -4175912.6047532246 -4235123.804892614
          -4144687.3905813266 -4204279.515091419 -4113462.1764094285 6668148.270005971 6594221.965223294 6520295.660440617
          -579291.544190511 -576851.1212118581 -574410.6982332054 -4640784.661092742 -4610532.016252876 -4580279.37141301
          4084211.8748248997 4037221.250767677 3990230.626710456 19646.260986626818 4140.539540159632 -11365.181906307436
          -3310171.7958040982 -3285670.697544068 -3261169.5992840375 3253530.8607918024 3240521.385195696 3227511.9095995887
          1058729.408604188 1038278.2598303196 1017827.1110564517 -415402.20252377214 -411556.021266464 -407709.8400091558
          1554451.5284918204 1538486.437953765 1522521.3474157096 1422417.9006007747 1419010.5383543274 1415603.1761078797
          2328829.8707052306 2316930.742609717 2305031.6145142037 2083432.0656611659 2074040.2511263688 2064648.4365915717
          3030843.411091684 3022583.13811755 3014322.8651434164 3220384.015220019 3211379.7457063864 3202375.4761927547
          942744.2566500928 949760.2558935907 956776.2551370887 1637535.2458667005 1639804.859565449 1642074.4732641974
          -1385646.0782850005 -1373062.9888132939 -1360479.8993415872 -979675.7595762952 -980364.8074844368 -981053.8553925783
          251078.59720413137 733438.5975534732 223047.29451532 703425.1730011856 195015.99182650878 673411.7484488983
          -1680650.8263545819 -1699118.8705110766 -1717586.914667571 -3468031.451754208 -3467124.489792018 -3466217.5278298277
          -3187198.3082360653 -3175964.6445991406 -3164730.980962216 -908413.1610428953 -902655.3480219988 -896897.5350011021
          1712300.5272047506 2184442.290460403 1713073.5397776726 2196997.768497832 1713846.552350595 2209553.246535261
          3763548.478897437 2086022.0112867272 2241096.3025667164 3813410.326281896 2055911.4206698933 2199373.3749363553
          3863272.173666355 2025800.8300530594 2157650.4473059936 1411781.7246522526 1386113.7310158052 1360445.7373793577
          149854.51283554264 115396.09601224777 80937.67918895278 1724424.5303345867 1735277.6284327663 1746130.7265309456
          3438181.985624154 3421173.88344237 3404165.7812605863 3021036.522597173 3010414.3812884875 2999792.2399798017
          2406684.048028005 2398641.2876388542 2390598.527249704 976628.8217066436 974452.2578540302 972275.6940014169
          -243858.8704575579 -240819.2324671374 -237779.59447671694 -148196.25376199596 -273390.8786609207 -145985.6047100124
          -268536.3277317903 -143774.9556580289 -263681.7768026599 146681.75971655868 140309.7919629526 133937.8242093465
          -507487.45974600647 -519916.430357454 -532345.4009689016 -2403560.4039500467 -2402732.1482700915 -2401903.8925901363
          -3561527.247706432 -3536239.925773449 -3510952.6038404657 1044094.4318122314 1022129.5666988505 1000164.7015854698
          -2617479.78510109 -2608497.117628075 -2599514.4501550603 2701477.003840224 2672480.0564733837 2643483.1091065435
          1347729.1717407126 1332859.058563839 1317988.9453869655 -1370834.441016438 -1388259.633043244 -1405684.8250700498
        </DataArray>
        <DataArray type="Float64" Name="peeq" format="ascii" RangeMin="0" RangeMax="0.008738898832680347">
          0.0072862161886099765 0.007629852430485691 0.0076463938197307265 0.007182029519087239 0.007290918025298129 0.007634430182867559
          0.007651068980746278 0.007189308242189829 0.007295619861986281 0.007639007935249428 0.0076557441417618305 0.007196586965292419
          0.008590334251545161 0.008471982988867695 0.00860439299215097 0.008690342019909671 0.008587843811415941 0.008469769134096212
          0.008600881901048062 0.008687394209721762 0.00858535337128672 0.008467555279324732 0.008597370809945154 0.008684446399533852
          0.004011827314532469 0.004432331495999844 0.004182389632047072 0.0028009092053669377 0.00401199374680458 0.004431029172021596
          0.00418141454459157 0.0028041873060900314 0.004012160179076691 0.004429726848043348 0.004180439457136068 0.0028074654068131247
          0.008370872082992822 0.008128238123733627 0.008221798280978769 0.008476565793239636 0.00837040645480489 0.008128838211110575
          0.008222403435129264 0.008476353594021485 0.00836994082661696 0.008129438298487522 0.008223008589279757 0.008476141394803334
          0.008196073923500377 0.008255897285505378 0.008499904047793397 0.00844163353168887 0.008195346867861998 0.008254319306590761
          0.008497852045858156 0.008440282577402921 0.00819461981222362 0.008252741327676142 0.008495800043922915 0.008438931623116975
          0.00755158490326622 0.007800114485414722 0.007820141485601744 0.00755726210461919 0.007551436983814741 0.007799900161597825
          0.007820001613863672 0.007558159255121996 0.007551289064363264 0.007799685837780929 0.0078198617421256 0.007559056405624799
          0.008600149429543144 0.008484478934695798 0.008455220361337216 0.008598659105783916 0.008483080823885672 0.00845317822033267
          0.008597168782024687 0.008481682713075549 0.008451136079328125 0.008008161965132654 0.008002095724565663 0.008008866095905821
          0.008002323568036809 0.008009570226678989 0.008002551411507956 0.006857532386704791 0.007620153095940203 0.007507692588435568
          0.006888840419420668 0.006856711618480016 0.007618244715973231 0.007506977950340964 0.006886708620780746 0.006855890850255239
          0.007616336336006259 0.007506263312246359 0.006884576822140822 0.007962756544490104 0.008060239074630122 0.007963212343686764
          0.0080606832528867 0.007963668142883424 0.008061127431143277 0.008189147534903603 0.008125700632495667 0.00818932177864571
          0.008126187572365443 0.008189496022387815 0.00812667451223522 0.00512238624130941 0.004974782382081651 0.004132488407002978
          0.005121248096962388 0.00497338301464202 0.004127838873119096 0.005120109952615368 0.00497198364720239 0.004123189339235212
          0.007330468136964224 0.007300589758715618 0.007333154623199523 0.0073020196676242995 0.007335841109434822 0.007303449576532982
          0.00764679512111707 0.00785230043780303 0.008020283110105414 0.007852459941078166 0.007645536193125592 0.007852434758573754
          0.008020138637834877 0.007851242667765889 0.007644277265134114 0.007852569079344477 0.008019994165564339 0.007850025394453612
          0.008518271568711704 0.008658681709482495 0.008530990803415274 0.00851682736687779 0.008656850093265668 0.008529027953493511
          0.00851538316504388 0.008655018477048842 0.00852706510357175 0.008261298040813016 0.008261829778249052 0.00826236151568509
          0.008021526643855139 0.007664294632751212 0.007937468211550917 0.008021366825785501 0.007664964643124837 0.00793701334664364
          0.008021207007715862 0.007665634653498466 0.007936558481736366 0.008280254135939122 0.008305207612033221 0.008432219801569175
          0.008277047119722996 0.00830327597392997 0.008431265073803143 0.008273840103506874 0.00830134433582672 0.00843031034603711
          0.00748160359923372 0.007392218368194474 0.007202339566698063 0.007484483712569352 0.007395265909422459 0.007205885659048221
          0.0074873638259049845 0.007398313450650446 0.007209431751398381 0.007117049481556269 0.007002114202319782 0.00712062377297433
          0.007006560303256087 0.007124198064392391 0.0070110064041923915 0.006606848913192319 0.006276217002873218 0.00660485773068259
          0.006274950133009148 0.006602866548172864 0.006273683263145077 0.008476462502486366 0.008473102637239322 0.008469742771992275
          0.007580500342771612 0.007258334039017807 0.007579689158431094 0.007254282849528945 0.007578877974090576 0.007250231660040084
          0.008202767848657175 0.008311159458061199 0.008202486201299427 0.008309997698967135 0.008202204553941675 0.008308835939873072
          0.008319648679611666 0.008318730741822277 0.008317812804032886 0.007537261967963321 0.007813488413283467 0.007805378823761724
          0.007543840470395179 0.007536862126473717 0.00781336857288514 0.00780546625648291 0.0075432396646772 0.007536462284984113
          0.007813248732486814 0.007805553689204098 0.007542638858959218 0.0033793393424818726 0.0033798175526036753 0.003380295762725478
          0.003006325003897612 0.003844400608804503 0.0030072778420935286 0.0038450204360676176 0.0030082306802894443 0.003845640263330733
          0.007353554035621877 0.007179492130674053 0.007356720343175222 0.007182995209635473 0.007359886650728569 0.007186498288596893
          0.008317282496147958 0.008314549537056709 0.00831181657796546 0.007663230230157923 0.007255729518185277 0.007659812177759035
          0.007253007202038161 0.007656394125360148 0.0072502848858910455 0.007420599918624201 0.00720645658381638 0.006862295017764642
          0.007107299886264606 0.007419605813864849 0.007203963167328958 0.006860011731561993 0.0071067875850864114 0.007418611709105497
          0.007201469750841539 0.006857728445359345 0.007106275283908217 0.007970588177020442 0.008006888664980357 0.007968829870391029
          0.008003601188709816 0.007967071563761616 0.008000313712439278 0.006940896426645768 0.006774061403775257 0.006251590053631435
          0.006341567930123486 0.0069374695107726585 0.0067719350482854665 0.00625273844617914 0.006341019288781641 0.0069340425948995485
          0.006769808692795676 0.006253886838726845 0.0063404706474397944 0.00811147915187024 0.008112161575099572 0.008112843998328905
          0.007307732833148057 0.007549622344889534 0.0073082085815069 0.007549091190119267 0.007308684329865743 0.007548560035349
          0.007340129757486034 0.007049213873110286 0.007341872171180899 0.007051260763932289 0.0073436145848757624 0.007053307654754294
          0.007578731655748262 0.007580121781985986 0.007581511908223711 0.008097306000673477 0.008014236858344749 0.008097840948932728
          0.008014413348412764 0.008098375897191977 0.00801458983848078 0.007816451915304893 0.007930955396968746 0.007817510076270573
          0.007930906821236308 0.00781856823723625 0.007930858245503868 0.00810787007167476 0.008124809222965601 0.008108469217156009
          0.008125676840030606 0.008109068362637258 0.00812654445709561 0.007769507272676096 0.0077702517676899166 0.007770996262703738
          0.008092150446605932 0.008313332911740719 0.00809289425133899 0.00831283391337446 0.008093638056072041 0.008312334915008199
          0.00794754469020574 0.008005672013510849 0.007948304640046363 0.008005973684142681 0.007949064589886987 0.008006275354774512
          0.007880732685650729 0.007642795706195049 0.007997170301355662 0.007882559935882674 0.0076448785094843045 0.007998442364862744
          0.007884387186114618 0.0076469613127735595 0.007999714428369824 0.007789927197657895 0.007791508089233871 0.007793088980809847
          0.007799405343361727 0.008056441896150133 0.007799585014674373 0.00805776018413049 0.00779976468598702 0.008059078472110844
          0.008209153465600536 0.00833891213388101 0.008208492241423102 0.008337782395709176 0.008207831017245665 0.008336652657537342
          0.0054317768085565855 0.006146449547921544 0.005430912239303492 0.006145843190598532 0.005430047670050399 0.00614523683327552
          0.007124496186341774 0.007156428872488095 0.007127341165485646 0.007158305327512001 0.007130186144629519 0.007160181782535907
          0.008053018310411404 0.00773280689434167 0.008096271596363301 0.00805221448667165 0.007734427462253214 0.00809587430012778
          0.008051410662931895 0.007736048030164758 0.00809547700389226 0.007981282553989024 0.007981803287732552 0.007982324021476079
          0.008367852986873396 0.008367215434546757 0.008366577882220118 0.008288566336455725 0.008286904795969649 0.008285243255483573
          0.007687522466015105 0.00769012583616243 0.007692729206309753 0.00813854642223371 0.00813866441887036 0.008138782415507011
          0.007032222817741746 0.007034574403983824 0.007036925990225901 0.00805244583099476 0.008051512518608897 0.008050579206223036
          0.00815734343843954 0.008157545668292247 0.008157747898144952 0.007101248195313508 0.007253406886791415 0.007109801796810698
          0.007261304298485418 0.007118355398307887 0.007269201710179423 0.006894674770853445 0.006910596958886391 0.006899618614734206
          0.006915657965495963 0.006904562458614967 0.006920718972105536 0.007933739440325925 0.00793533274390913 0.007936926047492333
          0.006963468376265677 0.006981100815371891 0.006964711281525909 0.006982627977427488 0.006965954186786142 0.006984155139483085
          0.0037486866953713015 0.002699367964393115 0.0037496646790752073 0.0027011599754813414 0.003750642662779112 0.002702951986569568
          0.005937165420518507 0.0059370710746591325 0.005936976728799757 0.007908699541485221 0.007910908851696555 0.007913118161907888
          0.007228488984498031 0.007601946637227426 0.007224313471127983 0.007600236733997965 0.007220137957757934 0.007598526830768502
          0.007536706561229925 0.007820593712954394 0.007536499123914801 0.00782040151897951 0.007536291686599675 0.007820209325004625
          0.008185393590076978 0.008185878055797973 0.008186362521518968 0.008366219399780057 0.008365049408083141 0.008363879416386225
          0.007907493204158962 0.007907070656770647 0.007906648109382332 0.007293269528654962 0.007288007618485525 0.007293959281221969
          0.0072889373369186775 0.007294649033788977 0.007289867055351829 0.008288214588207998 0.00828766310511955 0.008287111622031098
          0.008611885713652316 0.008634272102145919 0.008738898832680347 0.008735157386886676 0.008610269083561793 0.00863223073232219
          0.008735419818877488 0.008731626902109026 0.008608652453471272 0.008630189362498462 0.008731940805074626 0.008728096417331375
          0.008079470187137653 0.008328587152858988 0.00808067730949468 0.008329180061167864 0.008081884431851706 0.008329772969476741
          0.007938033754565614 0.007937717063399696 0.00793740037223378 0.008736686118146823 0.008664829849441176 0.008733428548537732
          0.008662614057866525 0.00873017097892864 0.008660398266291874 0.008184218434116477 0.008047235977774094 0.008183606434342228
          0.008044860335575879 0.008182994434567981 0.008042484693377663 0.008056540661128124 0.008056120309556391 0.008055699957984656
          0.008117755151358638 0.008117248341196296 0.008116741531033951 0.007926913858046412 0.007923139214366824 0.007919364570687232
          0.007111999676932864 0.007102703303593336 0.00711302490352326 0.007103638064900865 0.0071140501301136545 0.007104572826208395
          0.008115269691872483 0.008111199191320907 0.008107128690769332 0.006531058042187312 0.005780085069076498 0.0069711436677874685
          0.006529183711042107 0.005781022796440407 0.006967906752289708 0.0065273093798969015 0.005781960523804315 0.006964669836791949
          0.00790102619542803 0.00789661864933736 0.00789221110324669 0.00835216126480507 0.00857351152843245 0.008564249743317029
          0.008352394918436905 0.008570749964866935 0.008561563219840748 0.008352628572068744 0.00856798840130142 0.008558876696364466
          0.008408411390566879 0.00840758841352742 0.00840676543648796 0.008143891137732909 0.008143524036635347 0.008143156935537785
          0.005038695236357407 0.005038047711639211 0.005037400186921015 0.008100837549784537 0.00810173423742826 0.008102630925071984
          0.008720888825885698 0.008724242967006886 0.008716249045534577 0.008719547663593686 0.008711609265183457 0.008714852360180488
          0.0074529970907166905 0.0074499868036295375 0.0074469765165423845 0.007134221943598723 0.007308739389515831 0.007135720898289741
          0.0073090485358139065 0.0071372198529807565 0.0073093576821119804 0.008693572071447752 0.00857045053549086 0.008689182224621578
          0.00856731392602714 0.008684792377795406 0.008564177316563422 0.007824171557458315 0.007443990437149568 0.007819148460689382
          0.007439781673677966 0.007814125363920447 0.007435572910206365 0.0056269508244485315 0.006356147420739033 0.005628085073911161
          0.006356088030924202 0.005629219323373792 0.006356028641109371 0.007919530562459509 0.007907681686657165 0.007574888568401236
          0.007919144525297957 0.007906660793828828 0.007572508166597823 0.007918758488136406 0.007905639901000492 0.0075701277647944095
          0.00699683348113995 0.006993833669192685 0.006990833857245419 0.007154905765757962 0.00715087641706053 0.007146847068363098
          0.008171411680320336 0.0081706520723718 0.008169892464423265 0.004755415606394879 0.004755109404528173 0.004754803202661467
          0.006187821865873177 0.005611225578291936 0.005667906689715145 0.006188200432150548 0.0056117349308514785 0.005668352523749453
          0.006188578998427917 0.00561224428341102 0.005668798357783765 0.006686769288685217 0.006684793278688702 0.006682817268692187
          0.0060984964594392775 0.006099409351211615 0.006100322242983953 0.0054661823013936245 0.004649734760846258 0.005468626465699723
          0.004650613778416139 0.005471070630005819 0.00465149279598602 0.004939075181028138 0.00493744082300543 0.004935806464982722
          0.005713479038246657 0.005713853613282391 0.005714228188318122 0.0033111765150164213 0.003311132853977396 0.00331108919293837
          0.004160647838982977 0.004152273296544699 0.004143898754106421 0.0031666226410244133 0.0031670985843576744 0.003167574527690936
          0.0021517088184857796 0.002159540217527906 0.002167371616570032 0.0013614055676159768 0.001232944695884455 0.0013619686536920765
          0.0012336532436039711 0.0013625317397681761 0.001234361791323487 0.0004743564973118449 0.00038806666845258913 0.0004744988358993816
          0.000388011545179025 0.0004746411744869183 0.00038795642190546094 0.00004279333961994943 0.000008842349795179382 0.00004316037761427511
          0.000009094111502596911 0.000043527415608600776 0.00000934587321001444 0.001687664317413394 0.0016878937823125474 0.0016881232472117011
          0.0007518412497513377 0.0007521626972444519 0.000752484144737566 0.00016723365053971336 0.00016775930629219218 0.000168284962044671
          0.002113023192437456 0.002113034178028413 0.00211304516361937 0.001191059441550598 0.0011911879610544747 0.0011913164805583511
          0.0004460560995811787 0.0004465831169314699 0.0004471101342817612 0.00259391570465149 0.002593862790506087 0.0025938098763606835
          0.0017182059026969294 0.001718064844418625 0.0017179237861403203 0.0008874913244185209 0.0008878031048172818 0.0008881148852160426
          0.002289743166975268 0.0022894577188688854 0.0022891722707625017 0.0014362204789914422 0.0014362080001990398 0.001436195521406638
          0.002870726030525158 0.002870377197799563 0.0028700283650739677 0.0020524559391797903 0.002052237959306568 0.002052019979433346
          0.0034338882594670667 0.003433492202151977 0.0034330961448368856 0.002717181538874848 0.0027167857444755587 0.002716389950076269
          0.003957841360554042 0.003957443210120119 0.003957045059686196 0.0034210020156497964 0.003420341134959572 0.003419680254269347
          0.004207201024897966 0.004206834008395107 0.004206466991892248 0.0037807052952359846 0.0037799026438131373 0.0037790999923902903
          0 0 0 0 0 0
          0.0000048081579449539335 0.000004896955420866861 0.000004985752896779787 0.0000741792625923742 0.00007444455310389558 0.00007470984361541695
          0.00028613631095717406 0.0002865518395077579 0.0002869673680583418 0.0006723669992989279 0.0006726894303125088 0.0006730118613260897
          0.005533747534968527 0.0059523391957854496 0.005534490554971478 0.0059519085120920455 0.005535233574974429 0.0059514778283986415
          0.0037433407844228985 0.004269614434439964 0.004064221930620288 0.003743631778833398 0.004269316385608556 0.004064320122619447
          0.0037439227732438962 0.004269018336777148 0.004064418314618608 0.006753851295640576 0.006753549193231649 0.006753247090822721
          0.006277465296367751 0.006275661621969485 0.006273857947571218 0.004875782506347346 0.00487681178354967 0.004877841060751993
          0.003092764710582453 0.0030926500569315686 0.0030925354032806844 0.0035579111446215157 0.0035577676809124595 0.0035576242172034034
          0.003964431959965079 0.003964252029253278 0.003964072098541478 0.004297025180667713 0.004296818883910481 0.00429661258715325
          0.004442726529390753 0.0044425296830764485 0.004442332836762146 0 0 0
          0 0 0 0 0 0
          0 0 0 0.000032675285281829005 0.000032835985327715734 0.00003299668537360247
          0.00017555173009945355 0.00017593136884039125 0.00017631100758132894 0.0012094879128760581 0.0012095327249003467 0.0012095775369246355
          0.0004955905599442972 0.0004960030189295815 0.0004964154779148657 0.0018639459709730302 0.001863647496293566 0.0018633490216141018
          0.002636543372231689 0.0026357653516192363 0.0026349873310067833 0.0030529670422910857 0.0030519307834764747 0.0030508945246618636
        </DataArray>
        <DataArray type="Float64" Name="pe11" format="ascii" RangeMin="0" RangeMax="0.008734512670152147">
          0.007283259693161589 0.007626085704352355 0.007642620443579572 0.007178883665936005 0.007288046817021184 0.007630746318152111
          0.00764736823695452 0.007186260128129006 0.007292833940880776 0.007635406931951867 0.007652116030329467 0.007193636590322006
          0.00858754546058699 0.008469608292247983 0.008601608647545434 0.008687071440614192 0.008585088679278378 0.008467419921852726
          0.008598143011416377 0.008684179338759621 0.008582631897969765 0.008465231551457472 0.00859467737528732 0.00868128723690505
          0.004008230784645329 0.004428438247449742 0.004179853865294866 0.002798026518247997 0.004008383785053934 0.004427147200676137
          0.004178829469149404 0.002801162677392928 0.004008536785462539 0.004425856153902533 0.004177805073003942 0.00280429883653786
          0.008366119504386463 0.008122907126241736 0.008216304209242943 0.00847185589420864 0.008365618559151775 0.008123446136780975
          0.008216861672121333 0.008471611444522598 0.008365117613917089 0.00812398514732021 0.008217419134999725 0.008471366994836554
          0.00819171117426755 0.008250965605957904 0.008495269111776471 0.008437094822522917 0.008190995692060664 0.008249413386448285
          0.008493255309845679 0.008435766507883528 0.008190280209853778 0.00824786116693867 0.008491241507914884 0.008434438193244137
          0.0075491911483633704 0.007797508883537724 0.007816321851670882 0.00755389354054185 0.007549027569438455 0.0077972699555615265
          0.007816153270897394 0.007554767531294636 0.007548863990513542 0.007797031027585329 0.007815984690123911 0.007555641522047423
          0.008597244139989269 0.008482092511120342 0.008452764376830686 0.008595786320241999 0.008480712136661238 0.008450729888778336
          0.00859432850049473 0.008479331762202133 0.008448695400725988 0.008005715339544726 0.00799878070089914 0.008006388888902741
          0.007998982009675672 0.008007062438260756 0.007999183318452206 0.006853145562744872 0.007616100194491753 0.00750396506036975
          0.0068854763704060806 0.006852365380444296 0.00761422192526187 0.007503265250045778 0.0068833609689713405 0.006851585198143719
          0.007612343656031987 0.007502565439721808 0.006881245567536598 0.007958123005619 0.008055422767532142 0.007958520827606836
          0.008055814791516461 0.00795891864959467 0.00805620681550078 0.008186829979226786 0.00812290727006115 0.008186971896751476
          0.0081233610517139 0.008187113814276168 0.008123814833366653 0.00512048472225286 0.004973631688397681 0.004130418534860748
          0.005119342705992256 0.004972237542004525 0.00412568451967808 0.005118200689731651 0.004970843395611367 0.004120950504495412
          0.007327873504483976 0.007298599679143985 0.007330557830645773 0.007300035381322338 0.007333242156807569 0.007301471083500689
          0.007645288983212281 0.007850951598048989 0.008018880049319808 0.007850383317416408 0.007644036637265613 0.00785107847090922
          0.008018737675095514 0.007849191745641327 0.007642784291318947 0.007851205343769454 0.008018595300871222 0.007848000173866249
          0.008515154188374051 0.008655147155938826 0.008526921674912183 0.008513748020922304 0.008653359243716633 0.00852500265640782
          0.008512341853470556 0.00865157133149444 0.008523083637903455 0.008255775261079899 0.008256274646197192 0.008256774031314484
          0.008019865921416087 0.00766246369168855 0.007935432368448996 0.008019686704944752 0.007663125710083825 0.007934950850864498
          0.008019507488473415 0.007663787728479102 0.007934469333279999 0.008276475192863689 0.008302733692100835 0.008429971595810833
          0.008273318552565306 0.00830083328902705 0.008429036760020494 0.008270161912266925 0.008298932885953262 0.008428101924230156
          0.007478351675294644 0.00738933877399771 0.007200021266821252 0.007481232775864768 0.007392410291477036 0.0072035940648122925
          0.007484113876434893 0.007395481808956363 0.0072071668628033315 0.0071145294797868045 0.00699936433275644 0.0071181581687429175
          0.007003878957867504 0.007121786857699031 0.007008393582978568 0.006604170897611131 0.006273558576769565 0.006602208718189027
          0.006272293160402374 0.006600246538766923 0.006271027744035181 0.008471526983782604 0.008468046422293051 0.008464565860803502
          0.007576783228590412 0.007254900787642178 0.007576023865304776 0.007250915994778256 0.00757526450201914 0.007246931201914332
          0.008200269661979332 0.008308847366742735 0.00819996091368772 0.008307667849547383 0.008199652165396107 0.008306488332352032
          0.008317463141677528 0.008316538345189552 0.008315613548701578 0.007536698717985494 0.007812682164120859 0.007804119452304702
          0.007542838302630665 0.007536296158458355 0.007812555881390192 0.00780419646767262 0.007542232722601786 0.007535893598931221
          0.007812429598659524 0.007804273483040536 0.007541627142572909 0.003376905293318997 0.0033773688003896213 0.003377832307460245
          0.0030037040633208835 0.0038414612797357853 0.003004640857455462 0.003842042186685043 0.0030055776515900408 0.0038426230936342985
          0.0073507470907872565 0.007177083380411206 0.007353962652277474 0.007180630248449109 0.007357178213767692 0.007184177116487012
          0.008312475580785201 0.00830979376928222 0.008307111957779244 0.007660130821293293 0.007253293615814641 0.0076567762038532005
          0.007250600410934937 0.007653421586413108 0.007247907206055235 0.0074190811507226385 0.007204503502330099 0.006860336699261773
          0.007105695248387264 0.0074181114745887795 0.00720205169788937 0.006858087416272351 0.007105199276726841 0.00741714179845492
          0.007199599893448642 0.0068558381332829285 0.007104703305066414 0.007965918733755649 0.008002494486733762 0.00796419293721633
          0.007999242693225364 0.007962467140677013 0.007995990899716967 0.00693770165612185 0.006771065808595773 0.006249819106272192
          0.006339144040299852 0.0069343227180838 0.006768980854371312 0.0062509728282472195 0.006338602784176184 0.0069309437800457495
          0.006766895900146852 0.006252126550222245 0.006338061528052519 0.008106903700613528 0.008107542958998813 0.008108182217384097
          0.007306381056821633 0.007548049078292296 0.007306863827019392 0.007547510452265653 0.007307346597217149 0.007546971826239011
          0.007338086352655334 0.007046879560730709 0.007339818266940424 0.007048931631639983 0.007341550181225513 0.007050983702549256
          0.007576104296520786 0.007577473932570449 0.007578843568620111 0.00809380228880139 0.008010297126010047 0.00809430378635891
          0.008010438477311858 0.008094805283916429 0.008010579828613668 0.007811958375081517 0.00792682767378798 0.00781297216943842
          0.007926739159595705 0.007813985963795324 0.007926650645403432 0.008104185556550566 0.008120309679543001 0.00810474123044514
          0.008121131365796251 0.008105296904339716 0.008121953052049501 0.00776721422343778 0.007767928368355575 0.007768642513273371
          0.008090331492398465 0.008311451631177864 0.008091059278304731 0.008310959341229112 0.008091787064210997 0.008310467051280362
          0.007944728863739696 0.008002844531215192 0.007945445857656996 0.008003098019499798 0.007946162851574297 0.008003351507784404
          0.00787606113463863 0.0076387230225942295 0.007991969687616108 0.007877880587267173 0.007640783193869439 0.007993200032964578
          0.007879700039895715 0.007642843365144647 0.007994430378313048 0.007786186875154978 0.0077877805750784365 0.007789374275001898
          0.007797630718654245 0.00805504069009522 0.007797792813913343 0.008056347726494047 0.00779795490917244 0.008057654762892875
          0.008207130487833489 0.008336851304103967 0.008206454217938239 0.008335719640044124 0.008205777948042987 0.00833458797598428
          0.005428456355115685 0.006142361572439694 0.005427603513586203 0.0061417763668084316 0.005426750672056719 0.006141191161177167
          0.007122480231908443 0.007154942813598878 0.00712535726414659 0.00715683973428398 0.007128234296384736 0.007158736654969079
          0.008050719020535741 0.007729571455855632 0.008092834187237755 0.008049901509448584 0.0077312159164384855 0.008092453583016416
          0.008049083998361429 0.007732860377021339 0.008092072978795073 0.007978358288360151 0.007978848189712857 0.007979338091065564
          0.008365860889489988 0.0083652292948842 0.008364597700278417 0.008285941237005549 0.008284283562587869 0.008282625888170188
          0.007684170445647334 0.007686818594964115 0.007689466744280896 0.008135570216356608 0.008135657309776173 0.008135744403195738
          0.007030105949864122 0.007032498960065815 0.007034891970267508 0.008048862758261766 0.008047893087645938 0.00804692341703011
          0.00815274321442351 0.00815294792821492 0.008153152642006327 0.00709482306312301 0.007248516129478246 0.0071035811641545574
          0.007256506979719371 0.0071123392651861045 0.007264497829960495 0.006890997437949658 0.006907312684839005 0.006896053097859938
          0.006912469010343663 0.006901108757770218 0.006917625335848318 0.007929243976696324 0.007930766889712913 0.007932289802729503
          0.006961661309037333 0.006979120377379712 0.006962970216291169 0.006980704095480808 0.0069642791235450035 0.006982287813581904
          0.0037459135720555874 0.0026968334613604373 0.003746843328608685 0.002698603470235832 0.0037477730851617833 0.0027003734791112267
          0.0059333147299030975 0.005933240137592121 0.0059331655452811456 0.007904881088602302 0.007907098132837175 0.007909315177072048
          0.007224546242504017 0.007598326199834541 0.0072204435078562414 0.007596667777534241 0.007216340773208465 0.007595009355233942
          0.007536282966840909 0.0078198897192645 0.00753607539357915 0.007819696701427186 0.00753586782031739 0.00781950368358987
          0.008180168506656852 0.008180625429774184 0.008181082352891516 0.008362343159471434 0.008361167003594162 0.008359990847716893
          0.007905352567690609 0.007904894408836969 0.007904436249983327 0.00729273978032402 0.0072876537656459284 0.0072934421119315
          0.007288596899031599 0.007294144443538978 0.007289540032417269 0.008286465831754252 0.00828591709567382 0.008285368359593388
          0.00860748488035236 0.008629825239089362 0.008734512670152147 0.008730556432789957 0.008605897660485503 0.008627825318498362
          0.008731104351091224 0.008727091889889517 0.008604310440618646 0.00862582539790736 0.008727696032030302 0.008723627346989076
          0.008078410440687512 0.0083267926768963 0.008079610316148352 0.00832738421790191 0.008080810191609191 0.008327975758907518
          0.00793358990281143 0.007933298910148111 0.007933007917484794 0.008732825404689191 0.008660651455743167 0.008729637490791375
          0.008658486995065384 0.00872644957689356 0.008656322534387601 0.008182399887688659 0.008044716748138838 0.008181801339117466
          0.008042390223825108 0.008181202790546273 0.00804006369951138 0.008053847709712075 0.008053390155878885 0.00805293260204569
          0.008115484964151126 0.008114953076655823 0.00811442118916052 0.007923021574790582 0.007919308126047424 0.007915594677304266
          0.00711097584836577 0.007101878514274953 0.007112035987025981 0.007102855112539165 0.0071130961256861925 0.007103831710803378
          0.008112211259562005 0.008108201368502162 0.00810419147744232 0.00652881447858484 0.0057780505270306455 0.006968562375605217
          0.006526953094059257 0.005778963643835957 0.006965351776979329 0.006525091709533675 0.0057798767606412685 0.00696214117835344
          0.007897695391910672 0.00789338020651442 0.007889065021118169 0.008350346436293425 0.008569985563286964 0.008561014404963352
          0.008350584078763303 0.008567267401054336 0.008558367670647575 0.008350821721233179 0.008564549238821707 0.008555720936331798
          0.008404150605574083 0.008403338240051805 0.008402525874529526 0.008142385676085006 0.008142010463476332 0.008141635250867658
          0.005034902630788041 0.005034260932781942 0.005033619234775841 0.00809988423437371 0.008100777400996934 0.008101670567620154
          0.008716671081255602 0.008719638185461842 0.008712111980637453 0.008715021919346989 0.008707552880019304 0.008710405653232138
          0.007448469279933689 0.007445529237331157 0.007442589194728624 0.007132836665225847 0.007307810162379722 0.0071343613611138555
          0.007308128667868071 0.007135886057001862 0.007308447173356419 0.00869013510092383 0.008567591896810505 0.008685811804599193
          0.008564489248968698 0.008681488508274555 0.008561386601126892 0.007820438289574582 0.0074404525844221575 0.007815507220224692
          0.007436316308410214 0.007810576150874804 0.007432180032398272 0.005624382017984422 0.006352836631441973 0.005625500781946157
          0.006352798888512747 0.005626619545907895 0.00635276114558352 0.007915765552374247 0.007904218014705497 0.007571457476147099
          0.007915397060015017 0.007903213958619225 0.007569101554953983 0.007915028567655788 0.007902209902532951 0.007566745633760867
          0.006992906200281079 0.0069899570605087774 0.006987007920736477 0.0071514982590384826 0.007147492941111585 0.007143487623184688
          0.00816742763427094 0.00816667960904921 0.008165931583827484 0.0047523940653019505 0.004752044663058506 0.004751695260815061
          0.006186709827966794 0.005610297455885427 0.005666599166398274 0.006187079387847889 0.005610796817413569 0.005667047674996003
          0.006187448947728983 0.0056112961789417095 0.005667496183593732 0.006684667312655926 0.00668270184272658 0.006680736372797233
          0.006096478139342193 0.006097388661404056 0.00609829918346592 0.005464329375181847 0.0046469845779594345 0.005466737144677662
          0.004647810359844724 0.005469144914173478 0.0046486361417300125 0.0049381059409750825 0.004936483174907302 0.004934860408839522
          0.005711629105363994 0.005712012504981517 0.00571239590459904 0.003307882984970203 0.0033075226719860365 0.0033071623590018705
          0.004158068970329561 0.0041496147756280004 0.004141160580926441 0.003162570821559136 0.003162654264422103 0.0031627377072850705
          0.002148526320898333 0.0021560481849138406 0.002163570048929348 0.0013590496056458032 0.001231003429342474 0.001359600113206036
          0.001231692034553086 0.0013601506207662692 0.0012323806397636981 0.0004731185372561763 0.00038721076195525397 0.00047325033916304746
          0.00038714290515469397 0.0004733821410699185 0.0003870750483541339 0.000042634529258199135 0.000008826821714272041 0.00004300010641136794
          0.00000907791150560183 0.00004336568356453674 0.000009329001296931619 0.0016847083947794273 0.0016849329408455695 0.0016851574869117113
          0.0007493983132594038 0.0007497129888863251 0.0007500276645132464 0.00016635694302132386 0.00016687947249721324 0.0001674020019731026
          0.0021095536622327783 0.002109556455577601 0.0021095592489224235 0.0011868296842953083 0.0011869516880661604 0.0011870736918370125
          0.0004432891040214349 0.00044381211283061407 0.0004443351216397933 0.00259011287784853 0.0025900495492539974 0.0025899862206594636
          0.0017124955120670713 0.001712346605067929 0.0017121976980687865 0.0008818462063057559 0.0008821541044547024 0.0008824620026036489
          0.002283678578939397 0.002283384929904187 0.0022830912808689775 0.0014280634298269432 0.001428047280217115 0.0014280311306072869
          0.002865457116976322 0.0028651012406158624 0.0028647453642554038 0.002043257101616917 0.00204303509279458 0.0020428130839722437
          0.0034299434131010876 0.0034295397074354055 0.003429136001769724 0.0027082032244299618 0.002707796761218311 0.002707390298006661
          0.003955109326683821 0.0039546992298414765 0.003954289132999132 0.0034123212482007823 0.003411636634567542 0.0034109520209343012
          0.0042049908727445524 0.00420460970484028 0.004204228536936008 0.003772009244930752 0.0037711759987788607 0.003770342752626969
          0 0 0 0 0 0
          0.000004774147247619082 0.000004862139213334472 0.000004950131179049864 0.00007351038906755554 0.00007377375319040456 0.0000740371173132536
          0.0002833066126984843 0.0002837192321599154 0.00028413185162134654 0.0006656984368244421 0.0006660183327682412 0.0006663382287120402
          0.005531341296609708 0.00595012407714678 0.005532060703426374 0.005949694819296426 0.00553278011024304 0.0059492655614460715
          0.0037413618544019827 0.004268114861758645 0.00406184034517788 0.0037416415063363465 0.004267803245381699 0.004061915210873202
          0.0037419211582707104 0.004267491629004752 0.004061990076568523 0.0067521744700684075 0.006751872321735467 0.006751570173402526
          0.0062758663483506935 0.006274071055884433 0.006272275763418172 0.004873416892544844 0.004874410883547912 0.004875404874550981
          0.003089274111313459 0.0030891504745926726 0.003089026837871886 0.0035552023637688414 0.0035550514520624856 0.0035549005403561302
          0.003962744773445594 0.003962559618048133 0.003962374462650672 0.00429617452605428 0.004295963851710841 0.004295753177367402
          0.004442155448969361 0.004441954299449986 0.004441753149930612 0 0 0
          0 0 0 0 0 0
          0 0 0 0.00003221985881920983 0.00003237892710786397 0.00003253799539651811
          0.00017305670615978716 0.00017343272706708043 0.00017380874797437372 0.0011982905523402888 0.0011983362048231237 0.0011983818573059583
          0.00048794039995064375 0.0004883573425001897 0.0004887742850497355 0.001848452210834974 0.0018481511985443866 0.0018478501862537987
          0.0026151441736145726 0.0026143506034528997 0.002613557033291227 0.0030277088983479863 0.0030266497902924822 0.003025590682236978
        </DataArray>
        <DataArray type="Float64" Name="pe22" format="ascii" RangeMin="-0.004460349146316123" RangeMax="0">
          -0.0037960283884734955 -0.00400434147095115 -0.00401107377613275 -0.0037523238860497107 -0.003795103969384596 -0.0040038659716622235
          -0.004010810694977453 -0.0037525872227677356 -0.003794179550295696 -0.004003390472373296 -0.004010547613822159 -0.003752850559485762
          -0.00413305451961108 -0.004095653489060828 -0.004130410299208166 -0.004153270525918264 -0.0041332728998931985 -0.004095997629422282
          -0.004130678138248388 -0.0041538111774818 -0.004133491280175317 -0.004096341769783736 -0.004130945977288609 -0.004154351829045338
          -0.001965304970840853 -0.002144880577307943 -0.0020435511926518183 -0.0013920989912887607 -0.001965423914047969 -0.00214492079158891
          -0.002043450341234503 -0.0013927423644570826 -0.001965542857255084 -0.002144961005869877 -0.0020433494898171867 -0.0013933857376254048
          -0.004236394388557819 -0.0040944772599034954 -0.0041306124298442016 -0.004283609012830631 -0.004237277740349301 -0.004094828909317666
          -0.004131019787453101 -0.004284406559793781 -0.0042381610921407836 -0.004095180558731837 -0.004131427145061999 -0.0042852041067569305
          -0.003876426805932559 -0.003895244330992529 -0.00401872441128035 -0.003991700951445203 -0.003876543302959574 -0.003895386387846074
          -0.004019078842789994 -0.003991834557309784 -0.0038766597999865893 -0.0038955284446996205 -0.004019433274299637 -0.003991968163174362
          -0.0037740057277706883 -0.0038704528814023863 -0.0039018230881729316 -0.0037948815135684256 -0.003773292774845709 -0.0038699304571401163
          -0.0039014110217476124 -0.003794441528956203 -0.00377257982192073 -0.003869408032877848 -0.0039009989553222928 -0.0037940015443439796
          -0.004123782611306915 -0.0040969918070970605 -0.004097294005081781 -0.004124281113651758 -0.004097165870910884 -0.0040970044017231795
          -0.004124779615996601 -0.0040973399347247075 -0.004096714798364579 -0.003951380869462568 -0.003968922139997491 -0.003951159392161205
          -0.003968812333830267 -0.003950937914859841 -0.003968702527663044 -0.0032615808240534006 -0.0036209447197048106 -0.0035698604133744226
          -0.003300551486467267 -0.0032620453657159674 -0.0036208370982703914 -0.0035698244434377567 -0.003300425063371979 -0.0032625099073785345
          -0.0036207294768359722 -0.00356978847350109 -0.0033002986402766903 -0.0039841166033982665 -0.0040238529493241745 -0.003984082749013272
          -0.004023771673236242 -0.003984048894628277 -0.004023690397148309 -0.004017590135830795 -0.004010864591836194 -0.004017300780275567
          -0.004010924070652164 -0.004017011424720339 -0.0040109835494681325 -0.002470941733274675 -0.0024389604767529006 -0.002019716120868378
          -0.00247096199527667 -0.0024399264069503677 -0.002019158412921713 -0.0024709822572786654 -0.002440892337147834 -0.0020186007049750477
          -0.003710496511098108 -0.0036839108227616794 -0.0037101395499735935 -0.0036831665644008267 -0.0037097825888490793 -0.0036824223060399736
          -0.0037194048630227517 -0.003851787789928792 -0.003902071134093475 -0.0037860421347574815 -0.0037190984196030295 -0.0038519291119132842
          -0.003902203815080818 -0.0037864091064739947 -0.003718791976183308 -0.0038520704338977766 -0.0039023364960681607 -0.0037867760781905074
          -0.004072875759915391 -0.004125247247497025 -0.004049094969851959 -0.004073566511007857 -0.0041258082875722905 -0.004049707680564588
          -0.004074257262100324 -0.004126369327647555 -0.004050320391277216 -0.004145594642063181 -0.00414561135042191 -0.0041456280587806385
          -0.003951317894749918 -0.003796792229779153 -0.003936548541138151 -0.003951248446712537 -0.0037968623587381475 -0.003936442307786821
          -0.003951178998675158 -0.0037969324876971425 -0.003936336074435493 -0.003940574332247876 -0.0039896775353112125 -0.004064245760106182
          -0.003940828003319119 -0.003990068790393572 -0.004064610187001519 -0.003941081674390362 -0.0039904600454759315 -0.004064974613896858
          -0.003802297092875824 -0.0037884968551648345 -0.0036831266181711554 -0.003801977963510544 -0.0037879193440459973 -0.003682488176203889
          -0.0038016588341452644 -0.00378734183292716 -0.003681849734236621 -0.0036835873397867997 -0.0036366971521795207 -0.0036826976491726913
          -0.003636204028104482 -0.003681807958558583 -0.0036357109040294428 -0.0031954496048102222 -0.003053747916604754 -0.003195579468601721
          -0.0030538416137725556 -0.0031957093323932194 -0.003053935310940358 -0.0044600979245359666 -0.004460223535426045 -0.004460349146316123
          -0.003598870209878424 -0.003455264086952629 -0.0036000224837269656 -0.003456159275909082 -0.003601174757575507 -0.0034570544648655343
          -0.004028743252721955 -0.004054133985964725 -0.004028580624609138 -0.004053694390818458 -0.00402841799649632 -0.004053254795672191
          -0.004053808969187406 -0.004053713350808721 -0.004053617732430036 -0.003733964184422905 -0.0038399611831273833 -0.0038472542508198237
          -0.0037459384278716694 -0.0037329642816834644 -0.0038394974109136316 -0.003846610830667529 -0.0037449559688712882 -0.003731964378944024
          -0.0038390336386998803 -0.0038459674105152343 -0.0037439735098709066 -0.0016697847680320226 -0.001670051199258356 -0.0016703176304846896
          -0.0014857046252621173 -0.0018851910315964447 -0.0014859818859304815 -0.0018850745547418517 -0.0014862591465988459 -0.001884958077887258
          -0.0038040306557742534 -0.003699321541472913 -0.0038030911810398448 -0.0036983654187112795 -0.0038021517063054357 -0.003697409295949646
          -0.0039317301723001755 -0.003932137115044291 -0.003932544057788409 -0.003664633719017412 -0.0034980435686811696 -0.0036650926789261774
          -0.003497756973397727 -0.003665551638834943 -0.003497470378114284 -0.003635701169430115 -0.0034911105428947647 -0.003338335768363967
          -0.003502705636716492 -0.0036355293075719776 -0.0034910091395304915 -0.0033382293691267264 -0.0035024603959532144 -0.003635357445713841
          -0.0034909077361662193 -0.0033381229698894854 -0.0035022151551899377 -0.003769793063612233 -0.0037937151639011995 -0.0037698202803598457
          -0.00379333647398569 -0.003769847497107459 -0.00379295778407018 -0.003310465552623591 -0.0032359311624022623 -0.0030292861667557567
          -0.003051428419300902 -0.0033119605478012775 -0.0032367461463417213 -0.0030309343500027064 -0.0030524605403974415 -0.0033134555429789637
          -0.0032375611302811807 -0.003032582533249655 -0.003053492661493981 -0.004046548956675084 -0.004046346967904736 -0.004046144979134386
          -0.0036724268990701876 -0.0037583964964483145 -0.0036714854118272294 -0.003757482849903108 -0.0036705439245842716 -0.0037565692033579017
          -0.003660748262540119 -0.00354087639221072 -0.003660761117649809 -0.0035410203869413754 -0.0036607739727594992 -0.0035411643816720315
          -0.0037934538015509567 -0.003793652297647318 -0.0037938507937436794 -0.004018413118608676 -0.003985448000566604 -0.004018506734052201
          -0.003985494425824653 -0.0040186003494957255 -0.003985540851082703 -0.00392623679611694 -0.003952734998928717 -0.0039262185149735755
          -0.0039526279261580975 -0.003926200233830212 -0.003952520853387479 -0.004039315213565915 -0.004062504673346321 -0.004039058032926675
          -0.004062607145488917 -0.0040388008522874354 -0.004062709617631514 -0.0038715849408579393 -0.0038717122788324656 -0.003871839616806991
          -0.003963668887132172 -0.004036980637446122 -0.003963756795039473 -0.004037449035100438 -0.003963844702946775 -0.004037917432754756
          -0.003965613025014376 -0.0039906807174129475 -0.003966313765568713 -0.003990730817904992 -0.003967014506123053 -0.0039907809183970374
          -0.004014381162473761 -0.0038607787748631095 -0.004049998637666432 -0.004014407871608481 -0.003860649903815022 -0.00405018387396989
          -0.004014434580743201 -0.003860521032766934 -0.004050369110273348 -0.0039863067293244795 -0.003986185964248462 -0.0039860651991724455
          -0.003852548528213194 -0.00394391361435461 -0.0038520550774697013 -0.003943795231460888 -0.0038515616267262077 -0.0039436768485671654
          -0.004018872585096141 -0.004053411109141774 -0.0040185723932968966 -0.0040531996836241195 -0.004018272201497652 -0.004052988258106465
          -0.0026060758075858695 -0.002944114371276906 -0.0026063662824209436 -0.002944785804663718 -0.002606656757256018 -0.0029454572380505305
          -0.0036441754645177614 -0.003628358926840191 -0.003643557745457473 -0.0036277437241324377 -0.003642940026397183 -0.003627128521424685
          -0.004146449098458651 -0.0039881761100010685 -0.004143487662714794 -0.004146945405396341 -0.003988205228445476 -0.004143678440083802
          -0.004147441712334031 -0.003988234346889884 -0.004143869217452812 -0.004156600738477845 -0.004157621123578953 -0.004158641508680061
          -0.004048675982933415 -0.004048845246939664 -0.004049014510945912 -0.004209300006256978 -0.00420956289502092 -0.004209825783784865
          -0.004006597909506487 -0.004006493614631688 -0.00400638931975689 -0.004026279894882581 -0.0040261582492473295 -0.004026036603612076
          -0.0036170002123135773 -0.003616287453738393 -0.003615574695163209 -0.004212722718246324 -0.004212386217007797 -0.004212049715769271
          -0.004162739713022135 -0.004162986223949892 -0.004163232734877651 -0.0037880553926410397 -0.003828077586567337 -0.003788248685187654
          -0.0038297270829814045 -0.0037884419777342686 -0.003831376579395472 -0.0036220854655880756 -0.003611452453407638 -0.0036215710981141644
          -0.003611070925391161 -0.0036210567306402533 -0.0036106893973746846 -0.0041713877165289945 -0.004173014503633075 -0.004174641290737155
          -0.0035977732672874997 -0.0036007987408919447 -0.0035957306604361377 -0.0035992371405776033 -0.0035936880535847758 -0.0035976755402632628
          -0.001840933042112263 -0.00133840032446604 -0.0018406950340535554 -0.0013387478320965474 -0.0018404570259948475 -0.0013390953397270553
          -0.0028499455364932 -0.0028508390177864155 -0.002851732499079631 -0.004149027448155499 -0.004149386768485038 -0.0041497460888145765
          -0.0034214914409834334 -0.0036070397643334882 -0.00342190804878325 -0.0036079889415508632 -0.0034223246565830666 -0.003608938118768238
          -0.0037293928595476976 -0.0038362135646963233 -0.003728405278355709 -0.00383593790526669 -0.00372741769716372 -0.0038356622458370565
          -0.004163590407921017 -0.004163921774960367 -0.004164253141999718 -0.004243296855091682 -0.004244037941409897 -0.004244779027728112
          -0.003933947420776718 -0.003933866219654132 -0.003933785018531546 -0.0036606779690499104 -0.003657391724393646 -0.0036593479820848833
          -0.0036559202631761723 -0.0036580179951198567 -0.0036544488019586993 -0.004020948688367879 -0.004020948876031157 -0.004020949063694434
          -0.004076519095802471 -0.004086280849908028 -0.0041381440511522195 -0.00413055738891524 -0.004076731363688124 -0.004086630581147468
          -0.004138609361970212 -0.004130846491602445 -0.004076943631573777 -0.004086980312386908 -0.004139074672788203 -0.00413113559428965
          -0.003950754020875229 -0.004033940907952883 -0.0039508132777342055 -0.004034249107748475 -0.003950872534593181 -0.004034557307544067
          -0.003753483058345061 -0.0037539706723856963 -0.0037544582864263323 -0.004153375788379754 -0.004108384411593919 -0.004154056823802896
          -0.0041089650644260504 -0.004154737859226039 -0.004109545717258182 -0.003955835566797868 -0.003861204052332659 -0.003956189156709861
          -0.0038619894618572223 -0.003956542746621854 -0.003862774871381785 -0.004001931536363381 -0.004001551805803629 -0.004001172075243876
          -0.004004095454095261 -0.004003817089549959 -0.004003538725004658 -0.0037769347157794383 -0.00377720720421299 -0.003777479692646542
          -0.0036207689909528986 -0.003619464607145433 -0.0036191326657292818 -0.003617386422511313 -0.003617496340505665 -0.003615308237877193
          -0.0038839872478687518 -0.003884476132913146 -0.0038849650179575406 -0.003165218143464656 -0.002821287077426177 -0.003371050965975276
          -0.003165270142855226 -0.0028216322550910756 -0.003371060866172797 -0.003165322142245796 -0.002821977432755974 -0.0033710707663703187
          -0.0037648475102319313 -0.003765922445191264 -0.0037669973801505983 -0.004042802653952277 -0.004087371891651968 -0.004091720526987811
          -0.004043148036350868 -0.004087493205705046 -0.00409191027933563 -0.004043493418749459 -0.004087614519758124 -0.004092100031683448
          -0.003981554287753451 -0.00398157281895711 -0.003981591350160768 -0.003979430684253899 -0.003979225567915319 -0.003979020451576739
          -0.0024345457021908504 -0.0024349839054954806 -0.002435422108800111 -0.003957003314806491 -0.00395728461572245 -0.003957565916638408
          -0.004134844137786919 -0.00412539509615277 -0.004135068353883915 -0.004125466410331549 -0.004135292569980911 -0.004125537724510327
          -0.0035440114868947117 -0.0035446898011466093 -0.0035453681153985073 -0.0036253996930252553 -0.0036688195451979647 -0.00362453842974401
          -0.003667758046983606 -0.003623677166462765 -0.003666696548769246 -0.00414838520669876 -0.004108385753059516 -0.004148602988310576
          -0.004108395320331467 -0.0041488207699223924 -0.004108404887603418 -0.0037309930768738156 -0.003560391585282207 -0.003731836675345563
          -0.003561111643149756 -0.0037326802738173103 -0.003561831701017304 -0.0027298172835996106 -0.003044038204518076 -0.002729901282471965
          -0.0030440497334729435 -0.0027299852813443192 -0.003044061262427812 -0.0037562671262938753 -0.0037590147408319797 -0.003600040886023467
          -0.0037567698493826333 -0.003759235020227066 -0.0035999116109471634 -0.0037572725724713905 -0.003759455299622152 -0.0035997823358708604
          -0.0033387263102239366 -0.0033390381064877244 -0.003339349902751512 -0.0033998861266457815 -0.003398570852297583 -0.0033972555779493846
          -0.0038732170902119217 -0.003873316261161869 -0.003873415432111816 -0.0023152150783892133 -0.002314643386536336 -0.002314071694683459
          -0.003030098055252602 -0.002762516661835337 -0.002766018553140282 -0.0030303910061832942 -0.0027630853477860293 -0.0027668494444697293
          -0.0030306839571139863 -0.0027636540337367217 -0.0027676803357991773 -0.0032224161868514294 -0.0032214127408159016 -0.0032204092947803733
          -0.002954261888724975 -0.002954167350113869 -0.002954072811502764 -0.0026592350535576555 -0.002258359684759362 -0.002659277990870247
          -0.002257979493812349 -0.0026593209281828385 -0.0022575993028653343 -0.002438500926591041 -0.0024401532008638646 -0.0024418054751366883
          -0.002758030564677851 -0.0027588555367890114 -0.0027596805089001707 -0.0016133251956201716 -0.001612587010188 -0.001611848824755828
          -0.002021062608294669 -0.0020200105331858735 -0.002018958458077078 -0.001525386361722759 -0.001524767653650495 -0.0015241489455782306
          -0.0010661326333794088 -0.0010678775355501345 -0.00106962243772086 -0.0006619554986101649 -0.000600738374559013 -0.0006617233701597105
          -0.0006004471816507776 -0.0006614912417092561 -0.0006001559887425422 -0.00021671719305732388 -0.00017580966383012127 -0.00021661289020591214
          -0.00017564175764666183 -0.00021650858735450043 -0.00017547385146320243 -0.000019301913471501684 -0.000003994613738649622 -0.000019451429974866456
          -0.000004106113350598875 -0.00001960094647823122 -0.000004217612962548128 -0.0008173629643068903 -0.0008172666837081822 -0.0008171704031094741
          -0.00034738790128171826 -0.000347378755734981 -0.0003473696101882437 -0.00007522294355811682 -0.00007539451867068935 -0.00007556609378326189
          -0.0010228569887132757 -0.0010228260078075728 -0.0010227950269018696 -0.0005535001083808325 -0.0005534505733346624 -0.0005534010382884924
          -0.00019895032606371464 -0.00019906305157969923 -0.00019917577709568378 -0.0012601500395543084 -0.0012601545649716629 -0.0012601590903890173
          -0.0008031441939526608 -0.0008030481167742339 -0.0008029520395958073 -0.00039503766259072246 -0.000395045932671151 -0.00039505420275157946
          -0.0010802103493560416 -0.0010801733350481386 -0.0010801363207402354 -0.0006452627300416921 -0.0006452014117588834 -0.0006451400934760746
          -0.0013707729886592362 -0.0013708056950744254 -0.0013708384014896146 -0.000939420425995788 -0.0009394163077504978 -0.0009394121895052078
          -0.0016639486847905187 -0.0016639568404579433 -0.0016639649961253677 -0.0012767808941362853 -0.001276706242478572 -0.0012766315908208585
          -0.0019357697233768258 -0.0019356473450441668 -0.001935524966711508 -0.0016357154393027368 -0.0016353342487453557 -0.0016349530581879746
          -0.0020612066072015697 -0.002061014304808964 -0.002060822002416358 -0.00181419582920699 -0.0018136438574419447 -0.0018130918856768992
          0 0 0 0 0 0
          -0.0000019788077679735673 -0.000002012686877211011 -0.0000020465659864484553 -0.00003119837314416807 -0.00003127699800789119 -0.000031355622871614306
          -0.00012005336642178966 -0.00012013462120505437 -0.00012021587598831906 -0.00028431110570549404 -0.00028431391728441803 -0.00028431672886334203
          -0.0027010327117626977 -0.002904268934103616 -0.002701125824068769 -0.0029039969052953845 -0.0027012189363748405 -0.002903724876487154
          -0.0018542998732970196 -0.002104040520072582 -0.0019947553042272987 -0.00185456708432934 -0.002104068038082612 -0.001994778219048761
          -0.0018548342953616608 -0.0021040955560926423 -0.001994801133870223 -0.0033599504197638066 -0.003359424435438428 -0.00335889845111305
          -0.003084917575750102 -0.003084221748359043 -0.0030835259209679835 -0.002377078931245647 -0.0023772402675737597 -0.002377401603901872
          -0.0015106027827269863 -0.0015106873688057628 -0.001510771954884539 -0.001748309408094076 -0.0017484376345391407 -0.001748565860984205
          -0.001959793155008838 -0.0019598999871084394 -0.0019600068192080415 -0.0021312536769150237 -0.0021312832234731856 -0.0021313127700313475
          -0.0022044737021810813 -0.002204457927272149 -0.002204442152363217 0 0 0
          0 0 0 0 0 0
          0 0 0 -0.000012728424733822593 -0.000012777543928217422 -0.000012826663122612248
          -0.00006977554452575496 -0.000069861652955728 -0.00006994776138570099 -0.000523216947503828 -0.0005231663504756428 -0.0005231157534474576
          -0.0002023494185181411 -0.00020241543921791985 -0.0002024814599176986 -0.000838200476773826 -0.0008380256412765627 -0.0008378508057792991
          -0.0012199228758327893 -0.0012194037766608719 -0.0012188846774889544 -0.0014229240838057847 -0.0014222017572998167 -0.0014214794307938483
        </DataArray>
        <DataArray type="Float64" Name="pe33" format="ascii" RangeMin="-0.004599999043874717" RangeMax="0">
          -0.0034872313046880924 -0.003621744233401202 -0.003631546667446821 -0.0034265597798862936 -0.003492942847636586 -0.003626880346489886
          -0.003636557541977064 -0.003433672905361269 -0.0034986543905850807 -0.00363201645957857 -0.0036415684165073065 -0.003440786030836244
          -0.0044544909409759085 -0.0043739548031871515 -0.004471198348337266 -0.004533800914695926 -0.0044518157793851775 -0.0043714222924304425
          -0.004467464873167988 -0.004530368161277819 -0.004449140617794447 -0.004368889781673734 -0.004463731397998711 -0.0045269354078597114
          -0.002042925813804476 -0.0022835576701417987 -0.0021363026726430472 -0.0014059275269592364 -0.0020429598710059657 -0.002282226409087228
          -0.0021353791279149015 -0.0014084203129358455 -0.0020429939282074552 -0.002280895148032657 -0.0021344555831867558 -0.0014109130989124544
          -0.0041297251158286434 -0.004028429866338241 -0.004085691779398741 -0.004188246881378009 -0.004128340818802474 -0.004028617227463306
          -0.0040858418846682325 -0.004187204884728816 -0.0041269565217763055 -0.004028804588588373 -0.004085991989937724 -0.004186162888079623
          -0.00431528436833499 -0.004355721274965375 -0.00447654470049612 -0.004445393871077713 -0.004314452389101088 -0.004354026998602212
          -0.004474176467055684 -0.004443931950573743 -0.004313620409867187 -0.0043523327222390485 -0.004471808233615246 -0.0044424700300697735
          -0.0037751854205926817 -0.003927056002135338 -0.00391449876349795 -0.003759012026973423 -0.003775734794592747 -0.003927339498421409
          -0.003914742249149783 -0.003760326002338433 -0.003776284168592812 -0.00392762299470748 -0.003914985734801616 -0.003761639977703442
          -0.004473461528682353 -0.004385100704023278 -0.004355470371748904 -0.00447150520659024 -0.004383546265750351 -0.004353725487055157
          -0.004469548884498128 -0.004381991827477423 -0.004351980602361409 -0.004054334470082159 -0.00402985856090165 -0.004055229496741536
          -0.004030169675845406 -0.004056124523400915 -0.004030480790789161 -0.003591564738691472 -0.003995155474786942 -0.003934104646995325
          -0.0035849248839388134 -0.003590320014728328 -0.003993384826991478 -0.0039334408066080215 -0.0035829359055993605 -0.0035890752907651842
          -0.003991614179196013 -0.003932776966220718 -0.003580946927259908 -0.003974006402220731 -0.004031569818207965 -0.003974438078593562
          -0.004032043118280218 -0.003974869754966391 -0.004032516418352471 -0.004169239843395991 -0.004112042678224955 -0.0041696711164759094
          -0.004112436981061738 -0.004170102389555828 -0.004112831283898519 -0.002649542988978184 -0.0025346712116447795 -0.002110702413992369
          -0.0026483807107155846 -0.0025323111350541564 -0.002106526106756367 -0.0026472184324529855 -0.0025299510584635334 -0.0021023497995203647
          -0.0036173769933858678 -0.0036146888563823067 -0.0036204182806721785 -0.003616868816921512 -0.0036234595679584887 -0.0036190487774607166
          -0.0039258841201895295 -0.0039991638081201975 -0.0041168089152263335 -0.004064341182658926 -0.0039249382176625835 -0.003999149358995937
          -0.004116533860014698 -0.004062782639167333 -0.0039239923151356375 -0.003999134909871677 -0.004116258804803062 -0.0040612240956757395
          -0.004442278428458659 -0.004529899908441801 -0.0044778267050602245 -0.004440181509914446 -0.004527550956144342 -0.00447529497584323
          -0.004438084591370232 -0.004525202003846882 -0.004472763246626236 -0.004110180619016718 -0.0041106632957752815 -0.004111145972533846
          -0.004068548026666172 -0.003865671461909395 -0.003998883827310845 -0.004068438258232214 -0.0038662633513456774 -0.003998508543077676
          -0.004068328489798257 -0.0038668552407819584 -0.0039981332588445075 -0.004335900860615812 -0.004313056156789622 -0.004365725835704649
          -0.004332490549246186 -0.004310764498633476 -0.004364426573018974 -0.00432908023787656 -0.004308472840477329 -0.004363127310333299
          -0.0036760545824188195 -0.003600841918832874 -0.003516894648650096 -0.0036792548123542232 -0.003604490947431038 -0.003521105888608403
          -0.0036824550422896274 -0.0036081399760292017 -0.0035253171285667103 -0.0034309421400000044 -0.003362667180576919 -0.0034354605195702262
          -0.0033676749297630224 -0.0034399788991404476 -0.0033726826789491253 -0.003408721292800907 -0.003219810660164811 -0.0034066292495873057
          -0.003218451546629816 -0.003404537206373704 -0.0032170924330948217 -0.004011429059246638 -0.004007822886867008 -0.004004216714487378
          -0.003977913018711987 -0.003799636700689548 -0.00397600138157781 -0.0037947567188691728 -0.003974089744443634 -0.003789876737048799
          -0.004171526409257377 -0.004254713380778008 -0.004171380289078582 -0.004253973458728925 -0.004171234168899788 -0.004253233536679842
          -0.0042636541724901215 -0.004262824994380832 -0.004261995816271542 -0.003802734533562588 -0.0039727209809934765 -0.0039568652014848795
          -0.0037968998747589964 -0.0038033318767748915 -0.00397305847047656 -0.003957585637005091 -0.0037972767537304986 -0.0038039292199871953
          -0.003973395959959644 -0.003958306072525303 -0.0037976536327020017 -0.0017071205252869742 -0.0017073176011312646 -0.0017075146769755553
          -0.0015179994380587658 -0.0019562702481393406 -0.0015186589715249802 -0.0019569676319431905 -0.0015193185049911942 -0.0019576650157470403
          -0.0035467164350130023 -0.003477761838938292 -0.003550871471237629 -0.0034822648297378293 -0.003555026507462255 -0.0034867678205373655
          -0.004380745408485027 -0.00437765665423793 -0.004374567899990834 -0.00399549710227588 -0.0037552500471334698 -0.003991683524927021
          -0.003752843437537211 -0.003987869947578162 -0.0037504368279409504 -0.0037833799812925215 -0.003713392959435334 -0.0035220009308978045
          -0.0036029896116707718 -0.0037825821670167993 -0.0037110425583588777 -0.0035198580471456236 -0.003602738880773624 -0.003781784352741078
          -0.0037086921572824223 -0.0035177151633934423 -0.0036024881498764767 -0.004196125670143415 -0.004208779322832561 -0.004194372656856485
          -0.004205906219239673 -0.004192619643569553 -0.004203033115646786 -0.003627236103498259 -0.0035351346461935116 -0.003220532939516436
          -0.003287715620998949 -0.0036223621702825217 -0.003532234708029592 -0.003220038478244513 -0.0032861422437787434 -0.0036174882370667853
          -0.003529334769865672 -0.00321954401697259 -0.003284568866558537 -0.004060354743938444 -0.004061195991094077 -0.00406203723824971
          -0.0036339541577514456 -0.0037896525818439794 -0.0036353784151921613 -0.003790027602362545 -0.003636802672632877 -0.0037904026228811104
          -0.0036773380901152135 -0.00350600316851999 -0.003679057149290614 -0.003507911244698607 -0.0036807762084660137 -0.003509819320877225
          -0.0037826504949698284 -0.0037838216349231303 -0.0037849927748764317 -0.0040753891701927145 -0.0040248491254434434 -0.004075797052306708
          -0.004024944051487203 -0.004076204934420701 -0.004025038977530964 -0.0038857215789645755 -0.003974092674859261 -0.003886753654464843
          -0.0039741112334376084 -0.0038877857299651113 -0.003974129792015954 -0.004064870342984651 -0.004057805006196681 -0.004065683197518465
          -0.004058524220307335 -0.00406649605205228 -0.004059243434417988 -0.003895629282579839 -0.0038962160895231086 -0.0038968028964663786
          -0.00412666260526629 -0.004274470993731741 -0.004127302483265256 -0.004273510306128673 -0.004127942361264222 -0.004272549618525604
          -0.0039791158387253184 -0.004012163813802245 -0.003979132092088281 -0.004012367201594806 -0.003979148345451244 -0.004012570589387367
          -0.003861679972164869 -0.0037779442477311187 -0.0039419710499496744 -0.0038634727156586913 -0.003780133290054415 -0.003943016158994687
          -0.003865265459152514 -0.003782322332377711 -0.0039440612680396985 -0.0037998801458304986 -0.0038015946108299753 -0.0038033090758294516
          -0.003945082190441052 -0.004111127075740607 -0.003945737736443642 -0.004112552495033158 -0.0039463932824462325 -0.0041139779143257085
          -0.004188257902737346 -0.004283440194962191 -0.0041878818246413405 -0.0042825199564200025 -0.004187505746545336 -0.004281599717877815
          -0.002822380547529815 -0.0031982472011627874 -0.0028212372311652587 -0.0031969905621447125 -0.002820093914800701 -0.003195733923126637
          -0.003478304767390681 -0.003526583886758687 -0.0034817995186891167 -0.00352909601015154 -0.003485294269987553 -0.003531608133544394
          -0.00390426992207709 -0.0037413953458545627 -0.003949346524522962 -0.003902956104052243 -0.0037430106879930082 -0.00394877514293261
          -0.0039016422860273956 -0.003744626030131454 -0.00394820376134226 -0.003821757549882305 -0.0038212270661339034 -0.003820696582385502
          -0.004317184906556571 -0.004316384047944538 -0.004315583189332503 -0.00407664123074857 -0.004074720667566947 -0.004072800104385324
          -0.003677572536140846 -0.0036803249803324255 -0.003683077424524005 -0.004109290321474027 -0.004109499060528844 -0.00410970779958366
          -0.003413105737550545 -0.0034162115063274224 -0.0034193172751042994 -0.0038361400400154406 -0.0038355068706381395 -0.0038348737012608384
          -0.003990003501401376 -0.003989961704265027 -0.0039899199071286775 -0.003306767670481969 -0.0034204385429109072 -0.0033153324789669016
          -0.003426779896737964 -0.0033238972874518337 -0.0034331212505650218 -0.0032689119723615795 -0.0032958602314313657 -0.0032744819997457706
          -0.0033013980849524987 -0.003280052027129962 -0.0033069359384736326 -0.003757856260167328 -0.003757752386079837 -0.0037576485119923467
          -0.0033638880417498312 -0.003378321636487766 -0.003367239555855029 -0.003381466954903204 -0.003370591069960226 -0.003384612273318641
          -0.001904980529943325 -0.0013584331368943971 -0.00190614829455513 -0.001359855638139284 -0.0019073160591669355 -0.0013612781393841707
          -0.0030833691934098973 -0.003082401119805706 -0.003081433046201514 -0.003755853640446801 -0.003757711364352136 -0.0037595690882574716
          -0.0038030548015205827 -0.003991286435501052 -0.003798535459072991 -0.003988678835983378 -0.0037940161166253985 -0.003986071236465703
          -0.0038068901072932093 -0.003983676154568176 -0.0038076701152234397 -0.003983758796160495 -0.00380845012315367 -0.003983841437752813
          -0.004016578098735834 -0.004016703654813816 -0.004016829210891798 -0.00411904630437975 -0.004117129062184265 -0.00411521181998878
          -0.003971405146913889 -0.003971028189182835 -0.00397065123145178 -0.0036320618112741093 -0.0036302620412522802 -0.0036340941298466153
          -0.003632676635855425 -0.0036361264484191204 -0.003635091230458569 -0.004265517143386372 -0.004264968219642662 -0.004264419295898951
          -0.004530965784549891 -0.004543544389181333 -0.004596368618999927 -0.004599999043874717 -0.0045291662967973795 -0.004541194737350893
          -0.004592494989121012 -0.0045962453982870705 -0.004527366809044869 -0.004538845085520452 -0.004588621359242096 -0.004592491752699424
          -0.004127656419812281 -0.004292851768943415 -0.004128797038414145 -0.004293135110153432 -0.00412993765701601 -0.00429341845136345
          -0.004180106844466366 -0.004179328237762414 -0.004178549631058463 -0.004579449616309437 -0.004552267044149246 -0.0045755806669884784
          -0.004549521930639332 -0.004571711717667518 -0.004546776817129417 -0.004226564320890792 -0.004183512695806179 -0.004225612182407605
          -0.004180400761967886 -0.004224660043924418 -0.004177288828129595 -0.004051916173348693 -0.004051838350075255 -0.0040517605268018154
          -0.004111389510055864 -0.0041111359871058625 -0.004110882464155862 -0.004146086859011141 -0.004142100921834432 -0.004138114984657722
          -0.0034902068574128703 -0.003482413907129519 -0.0034929033212966983 -0.003485468690027851 -0.0034955997851805268 -0.0034885234729261838
          -0.004228224011693253 -0.0042237252355890155 -0.004219226459484776 -0.0033635963351201824 -0.0029567634496044676 -0.0035975114096299405
          -0.003361682951204031 -0.0029573313887448797 -0.003594290910806531 -0.003359769567287879 -0.0029578993278852926 -0.0035910704119831213
          -0.00413284788167874 -0.004127457761323154 -0.004122067640967568 -0.004307543782341147 -0.004482613671634992 -0.004469293877975537
          -0.004307436042412433 -0.004479774195349288 -0.004466457391311943 -0.0043073283024837195 -0.004476934719063581 -0.004463620904648349
          -0.004422596317820632 -0.004421765421094694 -0.004420934524368756 -0.0041629549918311085 -0.004162784895561014 -0.004162614799290919
          -0.0026003569285971903 -0.00259927702728646 -0.0025981971259757303 -0.004142880919567218 -0.004143492785274482 -0.004144104650981747
          -0.00458182694346868 -0.004594243089309068 -0.004577043626753536 -0.0045895555090154395 -0.004572260310038392 -0.00458486792872181
          -0.0039044577930389783 -0.0039008394361845474 -0.003897221079330117 -0.0035074369722005905 -0.003638990617181756 -0.0035098229313698433
          -0.003640370620884465 -0.003512208890539096 -0.0036417506245871724 -0.00454174989422507 -0.004459206143750986 -0.004537208816288616
          -0.00445609392863723 -0.004532667738352161 -0.004452981713523474 -0.004089445212700766 -0.003880060999139949 -0.004083670544879129
          -0.0038752046652604584 -0.004077895877057492 -0.003870348331380967 -0.0028945647343848104 -0.0033087984269238964 -0.0028955994994741925
          -0.0033087491550398023 -0.0028966342645635745 -0.0033086998831557087 -0.0041594984260803726 -0.004145203273873516 -0.003971416590123631
          -0.004158627210632385 -0.004143978938392157 -0.003969189944006819 -0.0041577559951843975 -0.004142754602910797 -0.003966963297890006
          -0.003654179890057143 -0.0036509189540210535 -0.003647658017984965 -0.0037516121323927 -0.0037489220888140017 -0.003746232045235303
          -0.004294210544059018 -0.004293363347887341 -0.004292516151715664 -0.0024371789869127376 -0.00243740127652217 -0.0024376235661316024
          -0.003156611772714193 -0.0028477807940500907 -0.002900580613257993 -0.003156688381664595 -0.002847711469627539 -0.002900198230526274
          -0.0031567649906149966 -0.002847642145204987 -0.002899815847794555 -0.0034622511258044983 -0.003461289101910679 -0.0034603270780168595
          -0.0031422162506172177 -0.003143221311290186 -0.0031442263719631547 -0.002805094321624191 -0.0023886248932000727 -0.002807459153807415
          -0.0023898308660323746 -0.0028098239859906393 -0.0023910368388646774 -0.002499605014384042 -0.002496329974043438 -0.0024930549337028344
          -0.002953598540686143 -0.002953156968192506 -0.0029527153956988694 -0.0016945577893500308 -0.0016949356617980364 -0.0016953135342460419
          -0.0021370063620348902 -0.0021296042424421265 -0.0021222021228493623 -0.0016371844598363763 -0.0016378866107716074 -0.0016385887617068385
          -0.0010823936875189242 -0.0010881706493637057 -0.0010939476112084873 -0.000697094107035638 -0.0006302650547834609 -0.0006978767430463255
          -0.0006312448529023083 -0.0006986593790570129 -0.0006322246510211557 -0.0002564013441988524 -0.00021140109812513262 -0.00025663744895713524
          -0.00021150114750803205 -0.0002568735537154181 -0.0002116011968909315 -0.000023332615786697447 -0.000004832207975622417 -0.00002354867643650148
          -0.000004971798155002955 -0.000023764737086305513 -0.0000051113883343834934 -0.0008673454304725369 -0.0008676662571373869 -0.0008679870838022369
          -0.00040201041197768554 -0.00040233423315134406 -0.00040265805432500263 -0.000091133999463207 -0.00009148495382652386 -0.0000918359081898407
          -0.001086696673519503 -0.0010867304477700282 -0.0010867642220205535 -0.0006333295759144759 -0.000633501114731498 -0.00063367265354852
          -0.0002443387779577202 -0.0002447490612509148 -0.00024515934454410944 -0.0013299628382942217 -0.0013298949842823343 -0.0013298271302704468
          -0.0009093513181144105 -0.000909298488293695 -0.0009092456584729794 -0.0004868085437150334 -0.0004871081717835514 -0.0004874077998520694
          -0.0012034682295833557 -0.0012032115948560484 -0.0012029549601287417 -0.0007828006997852511 -0.0007828458684582313 -0.0007828910371312117
          -0.001494684128317086 -0.001494295545541437 -0.0014939069627657887 -0.0011038366756211287 -0.0011036187850440823 -0.0011034008944670356
          -0.0017659947283105687 -0.0017655828669774624 -0.001765171005644356 -0.0014314223302936762 -0.0014310905187397394 -0.0014307587071858028
          -0.0020193396033069953 -0.0020190518847973096 -0.002018764166287624 -0.0017766058088980454 -0.001776302385822186 -0.0017759989627463267
          -0.002143784265542982 -0.0021435954000313157 -0.0021434065345196495 -0.001957813415723762 -0.001957532141336916 -0.0019572508669500697
          0 0 0 0 0 0
          -0.0000027953394796455123 -0.000002849452336123461 -0.0000029035651926014095 -0.00004231201592338746 -0.00004249675518251338 -0.0000426814944416393
          -0.00016325324627669457 -0.000163584610954861 -0.00016391597563302743 -0.00038138733111894814 -0.00038170441548382314 -0.0003820214998486981
          -0.0028303085848470078 -0.0030458551430431616 -0.0028309348793576035 -0.0030456979140010398 -0.0028315611738681987 -0.003045540684958918
          -0.001887061981104963 -0.002164074341686063 -0.002067085040950582 -0.0018870744220070062 -0.0021637352072990863 -0.0020671369918244405
          -0.0018870868629090492 -0.00216339607291211 -0.002067188942698299 -0.0033922240503046017 -0.0033924478862970386 -0.0033926717222894755
          -0.003190948772600591 -0.00318984930752539 -0.0031887498424501884 -0.0024963379612991956 -0.0024971706159741514 -0.0024980032706491072
          -0.0015786713285864725 -0.0015784631057869098 -0.001578254882987347 -0.001806892955674765 -0.001806613817523345 -0.0018063346793719243
          -0.002002951618436757 -0.0020026596309396937 -0.00200236764344263 -0.0021649208491392557 -0.002164680628237655 -0.0021644404073360543
          -0.002237681746788279 -0.0022374963721778357 -0.0022373109975673934 0 0 0
          0 0 0 0 0 0
          0 0 0 -0.000019491434085387237 -0.000019601383179646545 -0.000019711332273905857
          -0.00010328116163403216 -0.00010357107411135245 -0.00010386098658867272 -0.0006750736048364609 -0.0006751698543474808 -0.0006752661038585006
          -0.0002855909814325026 -0.00028594190328226973 -0.00028629282513203686 -0.001010251734061148 -0.0010101255572678239 -0.0010099993804744995
          -0.0013952212977817835 -0.0013949468267920278 -0.0013946723558022722 -0.0016047848145422016 -0.0016044480329926655 -0.0016041112514431292
        </DataArray>
        <DataArray type="Float64" Name="disp_x" format="ascii" RangeMin="0.00006846461530208645" RangeMax="0.00019634951731298302">
          0.00008054019661249442 0.00007742171007874879 0.0000754012794874862 0.00007915133610354677 0.00008053839184561715 0.00007741829663032231
          0.0000753945844932774 0.00007914915968908414 0.00008053331272725922 0.00007740914928084535 0.00007537571785034101 0.00007914425180504326
          0.00012211497214267253 0.0001169892457089564 0.00011910268949177526 0.00012412879495821762 0.00012211639976342814 0.00011699174574568057
          0.0001191050510531632 0.00012412864923741368 0.00012212047256849386 0.00011700005032688925 0.00011911392143901618 0.00012412971318711554
          0.00017441192244371998 0.00017326997530101777 0.0001752759244200234 0.00018096975015095934 0.00017440223865075697 0.00017326198061828532
          0.00017526598890484858 0.00018096295821251642 0.0001743717231363349 0.00017323999095151003 0.00017523406338049407 0.00018094262016292396
          0.00008925785247401429 0.00009404710540253704 0.00009767344557014047 0.00009316637935821357 0.0000892566681486892 0.00009404672937430938
          0.00009767262483444114 0.00009316472133505379 0.00008925382980273631 0.00009404553363653191 0.00009767015290327364 0.0000931600080228365
          0.00014336948798974414 0.0001419419767898114 0.0001366303302463263 0.00013817570406907096 0.00014336565623845326 0.00014193809004429893
          0.00013662759386949013 0.00013817228088040725 0.00014335582352598456 0.00014192734975361032 0.0001366203954729923 0.00013816352231027883
          0.00009661998718422196 0.0001015716186698951 0.00009922653075010947 0.00009424540854497455 0.00009662304270960793 0.00010157325007083261
          0.00009922830866153102 0.0000942475774796881 0.00009663281647899371 0.00010157903847404095 0.0000992344910142734 0.0000942553244531227
          0.00012770477090223988 0.00012544990760212247 0.00011989769450325485 0.00012770526100101972 0.00012544991586433348 0.00011989903233751075
          0.00012770591051254978 0.0001254507693006068 0.00011990333675909443 0.00010700094477268451 0.00010532774823873545 0.00010700325013821555
          0.0001053294890516037 0.00010700865778054584 0.00010533361223429222 0.00015633447078587298 0.00015012434827713615 0.0001518809502693698
          0.00015879035694114446 0.00015632790558001592 0.00015011821313383404 0.0001518761748275322 0.00015878446079959285 0.00015630963326068967
          0.0001500993331880853 0.00015186203573591673 0.00015876961955331713 0.0000977493608240436 0.00010142355993563721 0.00009775030305759556
          0.00010142397833450955 0.00009775290509834051 0.00010142441622358728 0.00011236990369726327 0.00011050144736095438 0.0001123728814390844
          0.00011050318165557346 0.00011238077516646161 0.00011050740632910383 0.00017122240486656585 0.00017299300498815169 0.00017647808654399776
          0.00017121499569516991 0.0001729864398705886 0.00017646950306532855 0.00017119312846259528 0.0001729585580379228 0.00017645606012779298
          0.00009019141893540486 0.00009242911138927995 0.00009019369078529021 0.00009243244099787748 0.0000901995449124978 0.00009244223932599304
          0.00013459714680002293 0.00012907325701328997 0.00013152876154393512 0.0001367402639102813 0.00013459629299039034 0.00012907282656077866
          0.00013152820715710517 0.00013673962024992613 0.00013459384540933966 0.00012907223642612522 0.00013152723652687593 0.00013673919714386735
          0.00013369966240071017 0.00012956729506986733 0.00013529171554186784 0.0001336995970285027 0.00012956734562983037 0.00013529097326620647
          0.00013369752038712603 0.00012956477405620326 0.0001352875067460263 0.00010263355413115374 0.00010263252402791941 0.00010262953266499165
          0.00012384278524897043 0.00012564584765507582 0.00012108327373225716 0.00012384260611953245 0.00012564502536504724 0.00012108238466189621
          0.00012384157653790056 0.00012564217448905163 0.0001210786499157063 0.00014110120283374015 0.0001370797278124862 0.00013123523675485744
          0.00014109954506832362 0.0001370790596055669 0.00013123558034118648 0.00014109403728148492 0.00013707781715003 0.00013123541374387168
          0.0000874713427381321 0.0000844172535934637 0.00008672740431124632 0.00008747146450410998 0.00008441621564718893 0.0000867282724757423
          0.00008747149365020696 0.00008441298589106322 0.00008673051462754298 0.00008396477973404557 0.00008325346718928797 0.0000839649957929049
          0.00008325444411768464 0.00008396466012926196 0.00008325716576829504 0.00014340871522091486 0.000150247560247688 0.00014340456575778456
          0.00015024146509454563 0.00014339260488873467 0.00015022433733522843 0.0000684828328027593 0.00006847804870313045 0.00006846461530208645
          0.00015249277920367153 0.00015736627488376602 0.00015248997799525253 0.00015736075171534343 0.00015248029879827245 0.00015734838960526005
          0.00011566175530290909 0.00011771299010597259 0.00011566313417114687 0.00011771576963653844 0.00011566667533714711 0.00011772151011388284
          0.00011461242115437916 0.00011461657193707526 0.00011462583022403768 0.0000996596213189655 0.00010420366065804623 0.00010375192046347685
          0.00009906309181685277 0.00009966316966224526 0.00010420639026469774 0.00010375411206457493 0.00009906585401922814 0.00009967422752856865
          0.000104215993445003 0.00010376189914115687 0.0000990756045367871 0.0001735029408596692 0.00017350006864310004 0.00017349173083955466
          0.0001765655421084762 0.00017120052312701782 0.00017656200671960145 0.0001711955846053398 0.000176551398826756 0.00017118024318865075
          0.00008216648643644909 0.00008430031139703135 0.00008216557501253922 0.00008430071967447586 0.00008216100873765672 0.00008429895384207385
          0.00014102185397044692 0.00014101968998469228 0.00014101233706915328 0.0001418928601755418 0.00014106573187016392 0.00014189149218617325
          0.0001410634009420734 0.00014188631905518372 0.00014105470031645603 0.0001324365055325231 0.00013666284103527453 0.00013707110521715772
          0.0001312151468218642 0.0001324366512667465 0.00013666183587922903 0.00013706919224627304 0.00013121473364540503 0.00013243692284615091
          0.0001366569227450512 0.00013706229650701786 0.0001312137687267355 0.00014651701048897393 0.0001461546608945186 0.0001465129613265824
          0.00014615190821941286 0.00014649603701037355 0.0001461373033216949 0.0001607653902197011 0.00016169152016650855 0.0001651848133659486
          0.0001632263114818169 0.00016075848781756284 0.00016168340572314443 0.0001651767358894459 0.00016321844970732278 0.00016073196522946887
          0.00016165689245734315 0.0001651559231094147 0.00016319121694551472 0.0001062680137042441 0.0001062682915647412 0.0001062678987046171
          0.0000940582547058171 0.00009818530545103088 0.00009406186450620804 0.00009818863973238918 0.00009407232598577913 0.00009819755679954258
          0.0001254572360941965 0.00012502353319922537 0.000125457328234501 0.00012502087317706756 0.00012545490519235466 0.00012501432125678282
          0.0001198441615285828 0.00011984115445839839 0.00011983367112214202 0.00010868091668858306 0.00010385697722050257 0.00010868217060088036
          0.00010385851275323644 0.00010868482639841677 0.00010386116509025913 0.0000946002637544992 0.00010040829172867497 0.00009460223635678686
          0.00010041049881524173 0.00009460663847800465 0.00010041397174861197 0.00011167634259270999 0.0001098036729001679 0.00011167714450199631
          0.00010980315274689889 0.00011167830913169219 0.00010979932928205026 0.00011944846511881396 0.00011944764463262595 0.00011944276947598137
          0.00010933712613785284 0.00011350185755608561 0.00010934068272306635 0.00011350576896806226 0.00010935072258856204 0.00011351639318014877
          0.00011433270571421588 0.00011499673171642588 0.00011433145707778374 0.00011499694546113029 0.00011432625328545916 0.00011499690335170947
          0.00008787738988363021 0.0000911075914337395 0.00009105530486574661 0.00008787678891441288 0.00009110934964105486 0.00009105572002050702
          0.00008787541639576832 0.00009111223991383032 0.00009105561373718664 0.00008431779944379075 0.0000843172892094662 0.0000843138133730723
          0.00010304058182482499 0.00010875275149704454 0.00010304450049657189 0.00010875689237257885 0.00010305261772950099 0.00010876614823914495
          0.0001209117142507144 0.00012303072787943727 0.00012091231958780961 0.0001230321925248916 0.00012091394103740123 0.0001230341107182518
          0.00016846636705300538 0.00016355634497480909 0.00016845975246551815 0.0001635494572275391 0.0001684403436033053 0.00016352470344607503
          0.00008839420251808852 0.00009126440448546537 0.00008839683015000389 0.0000912680263802968 0.00008840261957495488 0.00009127832339930627
          0.00007660636248657752 0.00008116458720573287 0.00008154159853188964 0.00007660497342711112 0.00008116332987836851 0.00008154088794647681
          0.00007660145378964405 0.00008115767916821964 0.00008153756124839685 0.00007528005816497701 0.00007527739957806823 0.00007526734129508416
          0.0001143857186451592 0.00011439108719366708 0.00011440528745629615 0.00007977761065717075 0.00007977813657397078 0.00007977969761710428
          0.00007899367729626244 0.00007899164026523204 0.00007898400327390998 0.00011376605596434464 0.00011376771297163473 0.00011377020800069177
          0.00008727409419798142 0.00008727679403626706 0.00008728258315483137 0.00007255251663472451 0.00007254783401853132 0.00007253120411031836
          0.00008550898514080482 0.0000855088368240302 0.00008550562484446121 0.00007870074076673586 0.00007744513695126908 0.00007869772624387425
          0.0000774395923068349 0.00007869327436571931 0.00007742258878506269 0.00008290363184181856 0.00008266451449661279 0.00008290594227488035
          0.00008266581616117163 0.00008291352555226895 0.00008267114072259363 0.00007318328432462643 0.00007317564012962429 0.00007314644086370605
          0.00008711588619110557 0.00008700449993891456 0.0000871192787178002 0.00008700824869009939 0.00008712703805859547 0.00008701789075044829
          0.000173750134042067 0.00017893841348843039 0.00017374295555176806 0.00017893540859536188 0.00017372098210958564 0.00017892704775914706
          0.00016345393293110727 0.0001634476601388628 0.00016342620492006197 0.00007503992310127326 0.00007503666313726833 0.00007502425890860458
          0.00015780805345943006 0.00015321100320805545 0.00015780246759217217 0.0001532073561800013 0.0001577860138228793 0.0001531969649457761
          0.000100224326578446 0.0001048476351700233 0.00010022851136826528 0.00010485137293889475 0.0001002400127330763 0.00010486164546083555
          0.00008854312675515403 0.00008854364484084131 0.00008854184850540327 0.00008413633689965743 0.00008413642132463033 0.0000841350895325376
          0.00011863246874493822 0.00011863271337384494 0.00011863132072829684 0.00009528486223893636 0.00009574793233466793 0.00009528851029534956
          0.0000957519294284837 0.00009529900374752753 0.00009576324724315483 0.00012852941968874646 0.00012853012968971756 0.00012853038483533492
          0.00013508390473768885 0.00013307547799269026 0.00012786263220454944 0.00012994203117558972 0.0001350813598151776 0.00013307388477054293
          0.00012786181413077286 0.00012994011783294557 0.00013507364736189465 0.0001330675420137987 0.00012786009564664968 0.0001299348603427728
          0.00010906786695807611 0.00011363584001194586 0.00010907157599923201 0.0001136401591482584 0.00010908009297251454 0.0001136531396090146
          0.00014730468317077777 0.00014730178108376903 0.00014728950468441553 0.00012605655666605344 0.00013129131028867736 0.0001260574293470072
          0.00013129107741045886 0.00012605747061487425 0.00013128763076737467 0.00013396506906650926 0.0001388833197913625 0.00013396614850333494
          0.00013888332067506063 0.0001339665453314766 0.00013888405320925854 0.00011668086853461017 0.0001166811910640176 0.00011668123745468646
          0.00011886277251282995 0.00011886456926485976 0.000118865436617359 0.00014638250207327008 0.00014637824324228345 0.00014636443076363652
          0.00009116024296325836 0.00009139034422786284 0.00009116388124784631 0.00009139374788804305 0.0000911718421184229 0.00009140187786735184
          0.00014212985321337631 0.00014212912416929893 0.00014212440150574321 0.0001541636369229798 0.00015672268473002196 0.0001484697791548626
          0.00015415489451273256 0.00015671495815155033 0.00014846530713659252 0.00015413068155064452 0.0001566898812911976 0.00014845225745462794
          0.00014217520676645682 0.0001421745416676494 0.00014216942901608848 0.0001145479967232479 0.00011960383530506001 0.00011751106489989193
          0.00011455218581573408 0.00011960682782129103 0.0001175154019660115 0.00011456414001889659 0.00011961650293248463 0.00011752833808916309
          0.00014012429446347917 0.00014012284703194901 0.00014011460382454437 0.00012624151423603502 0.0001262427992437357 0.0001262430446996778
          0.00016896507589748475 0.00016895840858911873 0.00016893847495319284 0.0001096228669900502 0.00010962766346235718 0.00010963799426344868
          0.00012289698117063053 0.0001247544292947193 0.00012289966003985666 0.00012475641122890112 0.00012290396253524508 0.00012475752625978388
          0.00015033871481526532 0.00015033276951675371 0.00015031317047946047 0.00009112265867705981 0.00009489128524402526 0.00009112670399764293
          0.00009489574972232881 0.0000911359280047384 0.00009490657405350328 0.00012106874735439869 0.00011783189914766701 0.00012107254386776141
          0.00011783707451029103 0.00012107768236008164 0.00011784947922449563 0.00014545381346095707 0.00014720979720052936 0.00014545073662034622
          0.0001472055022937671 0.00014543883893129364 0.00014718999043621865 0.00016277890924719276 0.00015761507539606198 0.00016277241262380317
          0.00015760714036986803 0.000162753828583558 0.00015758332897167505 0.00014826746632290666 0.0001498504014596444 0.00015449863983267625
          0.0001482651818973964 0.0001498467140504221 0.0001544944161287599 0.00014825461681305767 0.00014983503363846876 0.00015448065376544296
          0.00015250515994102114 0.0001524987484768295 0.00015247664394751458 0.00015892918295974152 0.0001589236896418134 0.00015890595238599798
          0.0001450478628373194 0.00014504635408412941 0.00014503723371059253 0.00016817389567970204 0.00016816736069856554 0.00016814634993642363
          0.00016706660073829852 0.0001707171471407007 0.00016922025801227234 0.00016705944303212897 0.0001707100868646629 0.00016921289963072603
          0.00016703727477424438 0.00017068953042182839 0.00016919131706509723 0.00016311149338000462 0.0001631052232843997 0.00016308296449393784
          0.00015766567559393824 0.000157657502668073 0.00015762631100520644 0.00016083660127761372 0.00016561335466131543 0.00016083035765671828
          0.00016560983654668164 0.00016081135264259716 0.00016559952075385505 0.00017406076028837048 0.00017405627816555484 0.0001740398181817894
          0.0001680852707702465 0.00016807926141302893 0.00016806064257856383 0.0001789094001171423 0.00017889793276941395 0.00017885771995370683
          0.00017712837297173195 0.00017711512096124386 0.00017708282230558984 0.00017968622559073563 0.00017966899462523394 0.00017959853787017252
          0.00018143340060141974 0.00018142801430127433 0.00018141618256105758 0.00018579289866418712 0.0001860252491845669 0.00018579050736550675
          0.0001860240864656725 0.00018578320007822406 0.00018601959309371864 0.0001889885654409331 0.0001890970945876103 0.00018898652400116463
          0.0001890945590553147 0.00018898038669096166 0.0001890869260148368 0.00019118396908445894 0.00019118295993341834 0.00019118373525685558
          0.00019118312027999206 0.00019118308678007498 0.00019118374503839409 0.0001847325086232054 0.00018472932257761418 0.00018471941669108928
          0.0001886433448871804 0.00018864032674127416 0.00018863118943573628 0.0001911951910425268 0.00019119446545211554 0.00019119228480445264
          0.0001830008815633093 0.00018299817531193215 0.0001829901449951651 0.00018783369394674698 0.0001878303889990313 0.00018782033064823796
          0.00019109780216002126 0.00019109584351662183 0.00019108994582843768 0.00018070945965279392 0.000180707129943333 0.00018069999689156218
          0.00018647506252236385 0.00018647187656402553 0.00018646227802215015 0.00019066409742328865 0.00019066129078052524 0.00019065281630007946
          0.0001845519550724043 0.00018454903259931078 0.00018454018024181563 0.00018976949867350302 0.00018976651023250825 0.00018975749163267755
          0.00018203584325848345 0.0001820333352189334 0.00018202578119094683 0.00018832595084470612 0.00018832306609831652 0.00018831442119563807
          0.00017892067569076376 0.00017891878868518473 0.00017891319918703264 0.00018629461510925478 0.00018629203417284311 0.0001862842073457711
          0.00017528808767525077 0.0001752867334822982 0.00017528269100635865 0.00018371133977450508 0.00018370926170468228 0.00018370284085650175
          0.00017118371881207273 0.00017118358257413188 0.00017118328784190533 0.00018059651015090653 0.00018059561954128394 0.00018059286686332077
          0.00019311146354999287 0.00019308019247523764 0.00019311162386515654 0.0001930802945363648 0.00019311210126497246 0.00019308054162863811
          0.00019317905607272893 0.00019317908810913373 0.0001931792164395647 0.000193302296506011 0.0001933019390458642 0.00019330087744814746
          0.00019346138647869816 0.00019345991513160254 0.0001934554300772651 0.00019342892632029694 0.0001934263201979682 0.0001934184238269593
          0.00015168896569494358 0.00014463302166638984 0.00015168422637038117 0.00014462855950942067 0.00015166875383915656 0.00014461501274917784
          0.00016989091336104596 0.00016436011284297008 0.00016788775390963386 0.00016988856010438769 0.0001643569328766542 0.0001678842361260843
          0.00016988113400951335 0.0001643472066681539 0.0001678732181176988 0.00013041349328968822 0.0001304125787760438 0.00013040976298306188
          0.00013726005751584294 0.0001372571051708212 0.00013724673580657864 0.00016049325982104158 0.00016048948886283326 0.0001604786781761225
          0.00017783320248526243 0.00017783129140455558 0.00017782567994976208 0.0001744148782232908 0.00017441339423635813 0.00017440883164181848
          0.00017048772655833198 0.0001704866497011091 0.0001704832319595589 0.00016612289014090878 0.00016612230045040047 0.00016612023202725856
          0.00016149249986197376 0.0001614925059963875 0.00016149235407623454 0.00019501084677143432 0.0001949610850087335 0.0001950107329992436
          0.00019496099271739835 0.00019501038212324151 0.00019496072415791694 0.00019511262031469466 0.00019511258728441554 0.00019511248191255912
          0.00019528777067465676 0.00019528781621980395 0.00019528798776399572 0.0001955608442758778 0.0001955606775788151 0.00019556024894824494
          0.0001959652025782666 0.00019596409469457962 0.00019596077524585917 0.00019304958188895934 0.00019304638405739778 0.00019303668120044227
          0.00019634951731298302 0.00019634716077940404 0.0001963400533753263 0.00019222700420665992 0.00019222374477542958 0.0001922140090591044
          0.0001909675844175009 0.00019096423997336996 0.0001909541639969018 0.00018932088915029415 0.00018931740463817807 0.0001893069907817328
        </DataArray>
        <DataArray type="Float64" Name="disp_y" format="ascii" RangeMin="-0.000029328992669043947" RangeMax="0">
          -0.0000060576413024720705 -0.00000713276816495927 -0.000005899899636299598 -0.000004526495893202589 -0.000006054518299668315 -0.0000071299985173865926
          -0.00000589837145932721 -0.0000045232439032239435 -0.000006045030005247018 -0.000007119544261574061 -0.00000589213840873112 -0.000004513427950999164
          -0.000007806424057900329 -0.000006861145492829042 -0.000005063047634558602 -0.000005748251327202592 -0.000007807897149179287 -0.000006862327912054189
          -0.000005063809387760131 -0.000005749290447659252 -0.000007812455845935594 -0.000006866177705783694 -0.0000050664909534813 -0.0000057529985749611155
          -0.000005421730429691498 -0.000004439776910147973 -0.0000030565981706503684 -0.0000022094271589144665 -0.00000542371496436574 -0.000004441027979994082
          -0.0000030580369569447945 -0.0000022074343682400707 -0.0000054319776281987076 -0.000004441987565306017 -0.0000030620120444158188 -0.00000220102839350809
          -0.000016603342056446512 -0.0000152743830391387 -0.000017123130814048143 -0.000018635525614016724 -0.000016600365476557747 -0.000015271905488794805
          -0.000017121536961356798 -0.00001863344848147797 -0.000016590721988546743 -0.00001526413859894664 -0.000017116155789712738 -0.00001862768710863058
          -0.0000021401330834384762 -0.000004366728136618334 -0.000004311542345591726 -0.0000021064149953038758 -0.000002139933195929434 -0.000004366730407983461
          -0.000004311495196156366 -0.0000021065462399242067 -0.0000021396887486162888 -0.000004366184278254245 -0.000004312272921466763 -0.0000021057917950978834
          -0.0000074835592918954075 -0.000008499237426841187 -0.000011014235645724549 -0.000009311890711280734 -0.000007482883795392175 -0.000008498770325312375
          -0.00001101329725751125 -0.000009310265572730367 -0.000007480068896675678 -0.000008497593609344026 -0.000011010392864156357 -0.000009306227242546419
          -0.000008604842720388399 -0.000010893919864177248 -0.000009890664291278544 -0.000008606080832023495 -0.000010895732729574257 -0.000009892442259056201
          -0.000008610679120265973 -0.000010901615869297325 -0.000009897121903101256 -0.000009566621557305192 -0.000011796593465645494 -0.000009566495667942764
          -0.00001179625630614205 -0.000009566591467557086 -0.000011794718698311939 -0.000010002065615052219 -0.00000889174771519202 -0.000006528327466245112
          -0.000006322777641313684 -0.000010003677178699694 -0.000008891680817857055 -0.000006529558981678062 -0.000006324062469310311 -0.000010008253319820485
          -0.000008889543529715031 -0.000006534187421643813 -0.000006327768867211872 -0.00001396331935855729 -0.00001552550788328275 -0.000013961823815060786
          -0.00001552499594097877 -0.000013957187714007421 -0.00001552256638928358 -0.00001075308257028261 -0.000012895835587749452 -0.000010753726888412615
          -0.000012896125468539575 -0.000010755586990168607 -0.00001289699472565348 -0.000003092960613824257 -0.0000014956503625367032 -0.0000014553420817131477
          -0.000003093520153646617 -0.0000014960508594433765 -0.0000014564701069786036 -0.0000030949669523650564 -0.0000014984177900553268 -0.0000014637554622303937
          -0.00000812046806843413 -0.000006500103239428519 -0.000008118319638789606 -0.000006498657217292499 -0.000008111923847006155 -0.000006495038192280909
          -0.000020740635150145726 -0.000020049523515803605 -0.000017496920200885417 -0.00001813459598176542 -0.000020743396515850442 -0.00002005180126373372
          -0.00001749913230974457 -0.00001813744106703063 -0.000020751511625955735 -0.000020058983207319427 -0.0000175056836991244 -0.000018145800378830195
          -0.000009226853303330799 -0.000006302503510943202 -0.000006697331097094717 -0.000009228227607120582 -0.000006303836715204185 -0.0000066981293589426285
          -0.000009232373077608738 -0.000006307185841597885 -0.000006699799630821958 -0.000019597624825326338 -0.000019596473682852064 -0.000019593493224106008
          -0.000018823639280068856 -0.000023069086958304027 -0.00002085082688691209 -0.000018825241366253055 -0.000023071840429664172 -0.000020852709333229794
          -0.000018830912938316007 -0.00002307953244173413 -0.000020857907319237134 -0.000009628758864358186 -0.000012614989009083788 -0.00001177560422076149
          -0.00000962953568163071 -0.00001261654788302045 -0.00001177764643653666 -0.000009632476195669509 -0.000012621486171347973 -0.00001178396825705531
          -0.000009719051706515695 -0.000008581845623579333 -0.00000719081484396998 -0.000009716291723525641 -0.000008578736193115194 -0.000007188283946792158
          -0.000009707381591359665 -0.000008569160569787273 -0.0000071813162027527805 -0.000005456858238738208 -0.0000038090376221482123 -0.000005454534550788215
          -0.0000038073572032342313 -0.000005448849541323465 -0.000003800933085147829 -0.000023088998893290236 -0.00002010487653504011 -0.000023092842652491267
          -0.000020108045269824298 -0.000023103752589005545 -0.000020118315290666665 -0.000007002963260945496 -0.000007004289725492244 -0.000007007713931669676
          -0.0000042047168157345235 -0.0000037760681144461923 -0.0000042060801560559455 -0.0000037767638225242717 -0.000004212261463853321 -0.000003781890139820886
          -0.00001408964617971171 -0.000011990181735698856 -0.000014090896711048186 -0.000011991393974529457 -0.000014094402364687436 -0.000011995500905645256
          -0.000008720246357642183 -0.000008721620432979157 -0.000008725087643760127 -0.000001835115676267806 -0.0000019800445641972214 -0.000004059028588173362
          -0.0000036915643766165717 -0.0000018348870742855292 -0.000001980049451256662 -0.000004059019507455164 -0.0000036909186553355717 -0.000001834011757118837
          -0.0000019801685262304964 -0.000004058676150740996 -0.000003689381125224193 -0.000010269447172560893 -0.000010268011863741804 -0.000010263649503485473
          -0.0000073791271820134 -0.000010000022660974575 -0.000007377467502170121 -0.000009998739216296873 -0.000007372433044962966 -0.000009994902828473045
          -0.000007410185646602532 -0.000006660966351202346 -0.000007407080165474817 -0.000006658522717179115 -0.0000073978563071966895 -0.0000066509332730998966
          -0.000006732018493625727 -0.000006732217223573998 -0.000006732425929264686 -0.000017872364241219744 -0.000020943353775643647 -0.000017875630194630642
          -0.000020946572863441084 -0.000017887835845892374 -0.00002095597728326566 -0.000023482153055129405 -0.00002343298182239986 -0.000025228902082143687
          -0.000026226233056046686 -0.000023484947667372605 -0.0000234357444977941 -0.000025232604546813192 -0.000026229326428749895 -0.00002349284353277937
          -0.00002344290786288537 -0.000025245024781374723 -0.000026238762373342846 -0.000006548514984267006 -0.000008251019053905461 -0.000006548838454843747
          -0.000008251101764008886 -0.0000065482331621015415 -0.000008253998552524422 -0.000003204178923229373 -0.0000017727951368348259 -0.0000017666536825991626
          -0.000004097547139796603 -0.000003204734097247221 -0.0000017723502545528738 -0.000001766783999411816 -0.0000040992641923712406 -0.000003208257966756448
          -0.000001767561670901105 -0.0000017668955348726348 -0.000004104013429831738 -0.000017031294776434456 -0.000017031015095343334 -0.00001703038087675953
          -0.000004936937812857207 -0.000005576002838760016 -0.000004936285391978762 -0.000005575537419302088 -0.000004934321709836854 -0.0000055733962751877804
          -0.00002645676552523449 -0.00002931714872591798 -0.0000264591708705521 -0.000029320388822687982 -0.00002646715568000267 -0.000029328992669043947
          -0.00002645375677864413 -0.000026455922226664664 -0.000026461992806985744 -0.000014975288436231193 -0.000013784959391185249 -0.000014975822838846196
          -0.000013784729920617438 -0.00001497689257374519 -0.000013783780770950888 -0.000012388488727316357 -0.000013014334466798265 -0.000012386511485069374
          -0.000013013696818545524 -0.000012379892301614329 -0.00001301080902434039 -0.000018343751094582723 -0.000020609544529768568 -0.00001834442991672601
          -0.000020609270397125824 -0.000018346636698903033 -0.000020608449922719236 -0.000023824996962324505 -0.000023826803170305253 -0.000023833579672099655
          -0.0000069593439816080864 -0.000006018154183221149 -0.000006959360452446774 -0.0000060186727913099325 -0.0000069597769144089015 -0.0000060192697924393185
          -0.000023625446153282543 -0.000021442994092074777 -0.000023626240002978693 -0.000021443624311781984 -0.00002362824912860894 -0.000021446055165344316
          -0.000012500508965093176 -0.000010946799257612732 -0.000013725633184389501 -0.000012497182150479295 -0.00001094409237658645 -0.000013723111424567034
          -0.000012486947625090824 -0.000010936047603656324 -0.000013714307687710066 -0.000011372341147205978 -0.000011368967452924084 -0.000011357891373422615
          -0.000006266793762648762 -0.000004231739966660511 -0.000006266430955162329 -0.0000042318193204037345 -0.000006265037029932509 -0.000004231952752667575
          -0.000015305649736161202 -0.000013111207902364346 -0.00001530711834021962 -0.000013112896117202167 -0.00001531216086311303 -0.000013118406932763413
          -0.000005272754609701254 -0.0000069221832079279036 -0.00000527346472118872 -0.000006923521289529228 -0.0000052752185651126 -0.000006926564548390661
          -0.0000053435897808643215 -0.000004462956286102323 -0.00000534234193155663 -0.000004462158469704054 -0.0000053391145839788104 -0.000004459797172722364
          -0.000012147648278696157 -0.000010071432114703154 -0.000013360971287677399 -0.00001214549409398627 -0.000010068046672773833 -0.00001335821596706509
          -0.000012138968417090678 -0.0000100573370517483 -0.000013348674983750857 -0.000009594559450846607 -0.000009592383560553089 -0.000009584626402576084
          -0.00000410530292382556 -0.000004105702663356497 -0.000004105742896343465 -0.000015650144400261965 -0.000015647550463741955 -0.00001563989633364387
          -0.000008533456653995477 -0.000008529937207776866 -0.000008519512980337208 -0.000016210544726075416 -0.000016211745588518464 -0.000016214910538176844
          -0.0000034279657568977778 -0.0000034271400810070967 -0.0000034252354054359766 -0.000007824592855169081 -0.000007822663464278214 -0.00000781531929664133
          -0.00001421159242354594 -0.000014208130588281505 -0.000014197550744153685 0 -0.0000025889886516517865 0
          -0.0000025861969647395414 0 -0.000002577517832154136 0 -0.0000019314611150050442 0
          -0.000001930047350967108 0 -0.000001926272988474596 -0.000004771365981244592 -0.000004769858970106693 -0.000004768538929352521
          0 -0.0000017313438045793815 0 -0.0000017310378630985881 0 -0.0000017297169173778752
          -0.000007298408306732529 -0.000004728742686652062 -0.0000072984349060928785 -0.000004727242740462447 -0.000007297801293622719 -0.000004722966640918517
          -0.000008812829599147128 -0.000008815417763671627 -0.000008824134049461007 -0.000008150578043377793 -0.000008148319838304611 -0.000008140014743850514
          -0.000001850517490252409 -0.0000020315545898627637 -0.0000018508663567241597 -0.000002031873761427358 -0.000001848377340901894 -0.0000020310799827245778
          0 0 0 0 0 0
          -0.000014762601433550769 -0.000014759453918764622 -0.00001474850729284971 -0.000016153952504193404 -0.00001615101138751591 -0.000016141557963970346
          -0.000022063612061228884 -0.000022065192392492847 -0.00002206857329029621 -0.0000017007247206072883 0 -0.0000017003064078920306
          0 -0.0000016987557215900253 0 -0.000014156264512508205 -0.000014158535716166964 -0.000014164980545121546
          0 -0.000002008395312647194 -0.0000018563217776595005 0 0 -0.000002008583010173201
          -0.000001856402443580037 0 0 -0.000002008742863135084 -0.0000018574085611777366 0
          -0.0000020381962632431424 -0.0000019238233937690883 -0.000002038227471871457 -0.000001923515177861061 -0.000002039748205875697 -0.000001923764181149356
          -0.000004318516579150089 -0.000004318399511313041 -0.000004318458355895265 -0.0000037725426931661845 -0.000004101709059804579 -0.0000037733127071386012
          -0.000004102413763546149 -0.0000037754433876342407 -0.000004104129311834965 -0.000015071576984858209 -0.000015780855829951163 -0.000015073604670366588
          -0.00001578321461420313 -0.00001508019219545859 -0.00001578963013294146 -0.000019503951389323262 -0.000019505205333283315 -0.000019509403688391044
          -0.000017471519988093615 -0.000017473052355261785 -0.000017477107352488212 -0.000011202696938746276 -0.00001120308986102809 -0.000011203507604839908
          -0.0000016684999459269693 0 -0.000001668218852996255 0 -0.0000016670512329917451 0
          -0.000013534984063360016 -0.000013536386747028056 -0.000013541120585070708 -0.000015810811329004925 -0.000016677875708405956 -0.00001837106992303794
          -0.000015813116410087254 -0.000016679595244231964 -0.000018374164027125006 -0.000015819728908222123 -0.000016683459113665575 -0.00001838511438044496
          -0.000016151586166343577 -0.00001615418430878398 -0.000016161172106596624 0 0 -0.0000016583440905921088
          0 0 -0.0000016589587026267422 0 0 -0.0000016591718377058054
          0 0 0 -0.000016497597694032178 -0.00001649974073723649 -0.000016505985297595742
          -0.0000073865987818392126 -0.000007387953934322905 -0.0000073924069906418645 0 0 0
          -0.0000017051497196366707 0 -0.0000017051581111346005 0 -0.0000017057051609944608 0
          -0.000012615896871533765 -0.000012616867467182219 -0.000012620626289219629 -0.0000032860179497722172 -0.0000033706626732505568 -0.0000032853792005285997
          -0.000003370175849293131 -0.000003283483316654449 -0.0000033679247975353185 -0.0000033603172909061263 -0.000002987586113680798 -0.0000033608188492070574
          -0.000002988439380360386 -0.0000033623368385912637 -0.00000299036386777225 -0.00001477290600276216 -0.000016437869206843653 -0.000014774550527410098
          -0.000016440520534298907 -0.000014778968138770025 -0.000016449150600301687 -0.00001127640402256458 -0.000012555415274207614 -0.000011279685791397015
          -0.000012557583537648363 -0.000011290342360499348 -0.000012564797378680266 -0.000002113104552993775 0 0
          -0.0000021130482171814055 0 0 -0.0000021139450108055053 0 0
          -0.000014309882492136496 -0.000014311551352986842 -0.000014315828076866801 0 0 0
          0 0 0 -0.0000096446593770107 -0.000009646183009673598 -0.00000965131014908929
          0 0 -0.0000015280529282935047 0 0 -0.0000015290431665017999
          0 0 -0.0000015290059549240358 0 0 0
          -0.000014090325525802698 -0.000014091981496726676 -0.000014097279891563887 -0.000013784959359391996 -0.000012452650745442008 -0.000013786362765576614
          -0.000012453399384115793 -0.000013791247018572196 -0.000012455694897730119 0 0 0
          -0.000002770504774246751 -0.000002770641937202144 -0.000002775776144270583 -0.0000010426916116378617 -0.0000010421330893362515 -0.000001038129047525703
          0 0 0 0 0 0
          0 0 0 -0.0000011466321736455868 0 -0.0000011454942659282667
          0 -0.000001142221851071952 0 -5.557710238639979e-7 0 -5.550051190642773e-7
          0 -5.527058273565569e-7 0 -3.5414916530496e-7 0 -3.539524145418653e-7
          0 -3.533886227201316e-7 0 -0.0000025306380264491863 -0.0000025283246291735468 -0.0000025211430491805833
          -0.0000012552567518115342 -0.000001253426088580457 -0.0000012478782569903048 -7.372926012207203e-7 -7.366306937896235e-7 -7.346691709967277e-7
          -0.000004333011980333968 -0.000004331234811807062 -0.0000043261246772870565 -0.00000226701481261109 -0.0000022646737650511325 -0.0000022576010713195546
          -0.0000012275295567745313 -0.000001225884547046407 -0.0000012209037290729985 -0.0000065012543857675964 -0.000006499177158278696 -0.0000064929059532629995
          -0.0000036838037167076953 -0.0000036814293231716764 -0.0000036743606095476242 -0.000001977382456110248 -0.0000019750203472919227 -0.000001967878934934839
          -0.000005530047003262412 -0.000005527642829057153 -0.000005520459709557792 -0.0000031033545902680275 -0.0000031008032536571085 -0.0000030932008316629558
          -0.00000782267690174023 -0.000007820448284170237 -0.000007813784567528889 -0.000004675926744565353 -0.000004673208287294083 -0.000004665037453201587
          -0.000010564193304598935 -0.00001056225759023344 -0.000010556501938601568 -0.0000067534081950547045 -0.000006750967625300443 -0.0000067438072873105015
          -0.000013750045665138705 -0.000013748125018206961 -0.000013742407612329001 -0.000009400384670346198 -0.000009397417732935833 -0.000009388606818754125
          -0.0000172968263461842 -0.000017294537807404016 -0.000017287811904583274 -0.00001258614145375869 -0.000012581994442077848 -0.00001256976451273761
          -3.202169150916921e-7 0 -3.2022818771039276e-7 0 -3.2026008200743315e-7 0
          -6.375790110448258e-7 -6.376039633735911e-7 -6.377368801568276e-7 -9.496434266413462e-7 -9.493123639998948e-7 -9.483797546975642e-7
          -0.000001314196269815576 -0.000001312903432914056 -0.0000013090039912431021 -0.000001864904268445679 -0.000001862703388680368 -0.0000018560535610811971
          -0.00002144925551726859 -0.00002487538682633346 -0.000021452337156015045 -0.000024879380999081822 -0.000021462298410479733 -0.00002489262231730953
          -0.000013432352959659207 -0.000016260606454700745 -0.000013133534911667885 -0.000013430883900195756 -0.000016259870505354955 -0.000013132613662680842
          -0.000013426644954078279 -0.00001625735307631884 -0.00001313013017867277 -0.000028985383376729456 -0.00002898892028572429 -0.00002900041815632063
          -0.00002809483199455895 -0.00002809884489856773 -0.000028110166225796945 -0.000016669152043620813 -0.00001666948867114848 -0.00001667047430420016
          -0.00000904819135438133 -0.000009046311423216553 -0.000009040687098213014 -0.000011970860845400662 -0.000011969303731189142 -0.000011964652721331452
          -0.000015231231530901443 -0.000015229857678878696 -0.00001522588285597424 -0.00001878412489376793 -0.000018782962437618416 -0.000018779547659176975
          -0.00002254451695761488 -0.000022543543771835774 -0.00002254106824249917 -3.186426603026123e-7 0 -3.1860523788282904e-7
          0 -3.1849005195753016e-7 0 -6.36738596902529e-7 -6.366460753632803e-7 -6.363571391485572e-7
          -9.536086371587388e-7 -9.536333402835443e-7 -9.537009934012232e-7 -0.000001258850865849716 -0.0000012587301031949704 -0.0000012584406911865408
          -0.0000015725723941053588 -0.0000015717089092871837 -0.0000015691430717957496 -0.0000027527641623210885 -0.00000275007215429168 -0.0000027419366458542037
          -0.000002008839913658844 -0.000002006911424298849 -0.0000020010300444315312 -0.00000410051856002508 -0.000004097864788378013 -0.000004089920808370164
          -0.000006041798415794805 -0.00000603837142793972 -0.000006028071049196056 -0.000008628541321369473 -0.000008623515282304302 -0.000008608365394381674
        </DataArray>
        <DataArray type="Float64" Name="disp_z" format="ascii" RangeMin="-0.0000015092345922541277" RangeMax="0">
          0 0 0 0 -5.75660103244485e-7 -5.928514790186298e-7
          -5.865838075499352e-7 -5.586538423244333e-7 -0.0000011525796330746868 -0.0000011880538685995958 -0.000001176506640685304 -0.0000011202015293414064
          0 0 0 0 -7.289489634454077e-7 -7.163319971740331e-7
          -7.361230996608674e-7 -7.443345248204758e-7 -0.0000014570637618279168 -0.0000014315315293079366 -0.0000014705626768085246 -0.0000014875066288584347
          0 0 0 0 -3.7148726363920767e-7 -4.260624704162845e-7
          -3.7594334439040905e-7 -2.1701485461882328e-7 -7.430792632759602e-7 -8.51270357675505e-7 -7.519123119001419e-7 -4.3494189108362844e-7
          0 0 0 0 -6.785373260044506e-7 -6.596892104756583e-7
          -6.694416636259683e-7 -6.86955172472031e-7 -0.0000013565092127668067 -0.0000013196461440188631 -0.0000013389460905991908 -0.0000013736002953794125
          0 0 0 0 -7.094902363733404e-7 -7.151002324598348e-7
          -7.344352343433591e-7 -7.287148097915734e-7 -0.0000014190422851401565 -0.0000014297203629492567 -0.0000014679050801667689 -0.0000014570223887713017
          0 0 0 0 -6.258528979813909e-7 -6.491696938051153e-7
          -6.448735111367558e-7 -6.1936925111857e-7 -0.0000012515659340757932 -0.0000012982397364556265 -0.0000012896657802557297 -0.0000012391252902249152
          0 0 0 -7.333721691725705e-7 -7.181132687658985e-7 -7.153294608160783e-7
          -0.0000014660854483773208 -0.000001435821122128862 -0.0000014298513410607262 0 0 -6.62092947142065e-7
          -6.626159688720691e-7 -0.0000013247011461587288 -0.0000013251741796301301 0 0 0
          0 -6.011876815068222e-7 -6.547905683662144e-7 -6.377271004711908e-7 -6.046353936154271e-7 -0.000001202083330742084
          -0.000001309364826330546 -0.0000012762002574505637 -0.0000012084172409241161 0 0 -6.522740730343408e-7
          -6.604588640335653e-7 -0.0000013046695494816464 -0.0000013211000173293964 0 0 -6.808743364677075e-7
          -6.748358529440858e-7 -0.0000013622460615704421 -0.0000013497782791666938 0 0 0
          -4.5621248296978897e-7 -4.318955055561124e-7 -3.6640357894460183e-7 -9.112815401108853e-7 -8.646764024610017e-7 -7.292662663447189e-7
          0 0 -5.962246635300598e-7 -5.959201291461812e-7 -0.000001193523562314963 -0.0000011926497580040762
          0 0 0 0 -6.493036447654274e-7 -6.583529279766372e-7
          -6.762971349850434e-7 -6.690889164825927e-7 -0.0000012982537949380032 -0.0000013166962652942763 -0.0000013525289476846979 -0.000001337860809419937
          0 0 0 -7.307073917889031e-7 -7.420171781443897e-7 -7.323446699372313e-7
          -0.0000014608175456107252 -0.0000014836532869411851 -0.0000014640048792566996 0 -6.727070085387093e-7 -0.0000013455196379792925
          0 0 0 -6.676607912579693e-7 -6.353622979855075e-7 -6.583749818595023e-7
          -0.0000013354423504370754 -0.0000012710780253932154 -0.000001316301515116181 0 0 0
          -7.154050166940423e-7 -7.104275462462705e-7 -7.144374186274593e-7 -0.0000014296571465090054 -0.0000014203678168949112 -0.0000014285357115456732
          0 0 0 -6.033090689718455e-7 -5.912685993926529e-7 -5.795334083428449e-7
          -0.000001207960844550706 -0.000001183765131705888 -0.0000011606441866465116 0 0 -5.665482595749911e-7
          -5.576410524420139e-7 -0.000001134173441924966 -0.0000011170379299388212 0 0 -5.751356758621166e-7
          -5.527386151858317e-7 -0.0000011494409084942076 -0.0000011045457660999238 0 -6.626345297701481e-7 -0.0000013238099540540424
          0 0 -6.583736755512372e-7 -6.406540434910073e-7 -0.0000013164027758822033 -0.0000012788707835243203
          0 0 -6.840509042220275e-7 -6.981891987213699e-7 -0.0000013679601836992983 -0.0000013959448050548169
          0 -7.001970960536386e-7 -0.0000014001655323635784 0 0 0
          0 -6.271395740205714e-7 -6.542650184011808e-7 -6.524978117745005e-7 -6.276842920770665e-7 -0.0000012542621143256575
          -0.000001308261819626209 -0.0000013052458722050076 -0.0000012551213463609012 0 -3.0821025159778656e-7 -6.164516027711971e-7
          0 0 -2.7822634588646837e-7 -3.579989267733956e-7 -5.567104266440203e-7 -7.161350120462179e-7
          0 0 -5.864630407969346e-7 -5.741217887289717e-7 -0.0000011741984465743106 -0.0000011498402006644958
          0 -7.240955879140866e-7 -0.0000014466558669359672 0 0 -6.677578588646181e-7
          -6.236454743324916e-7 -0.0000013343041209276317 -0.0000012467767597171893 0 0 0
          0 -6.267703161450251e-7 -6.273086046486082e-7 -5.963601271565298e-7 -6.022230424578579e-7 -0.000001253197342102548
          -0.0000012536222833562915 -0.000001191472558472175 -0.0000012040370301204694 0 0 -6.982629267253172e-7
          -7.003960917054968e-7 -0.0000013958699073521637 -0.0000013997358874935292 0 0 0
          0 -6.297911675540568e-7 -5.910432176722971e-7 -5.380913883451017e-7 -5.552327631138128e-7 -0.0000012580666633462814
          -0.0000011808066159623003 -0.0000010760704221040633 -0.0000011100199954145125 0 -6.640399742168093e-7 -0.0000013286112759259516
          0 0 -6.035320813671985e-7 -6.261019047978871e-7 -0.0000012074223744286287 -0.0000012520324882032936
          0 0 -6.056120051639681e-7 -5.774569239413231e-7 -0.000001212106166675637 -0.0000011562153111487068
          0 -6.19785921297792e-7 -0.0000012405391074206926 0 0 -6.682882293447368e-7
          -6.619243864876686e-7 -0.000001336740710903272 -0.0000013236662243841083 0 0 -6.37185915495706e-7
          -6.5724091787726e-7 -0.0000012746574834689482 -0.0000013147646532519464 0 0 -6.638616407757089e-7
          -6.631175733864627e-7 -0.000001327931692395072 -0.0000013269647393362114 0 -6.441519980174424e-7 -0.0000012884432799729935
          0 0 -6.760129908929747e-7 -7.011777727001474e-7 -0.0000013521684393625902 -0.0000014020643628032922
          0 0 -6.553285739601654e-7 -6.536549143074961e-7 -0.0000013107780113566955 -0.0000013077682210365844
          0 0 0 -6.345759892250888e-7 -6.181637603872872e-7 -6.466188439048005e-7
          -0.0000012699868180868365 -0.00000123729259612782 -0.0000012937355508372902 0 -6.235705873243277e-7 -0.0000012476597837432941
          0 0 -6.496018856377095e-7 -6.701730810988852e-7 -0.0000012994912860854796 -0.0000013412117585430587
          0 0 -6.870307072319161e-7 -7.025833624880348e-7 -0.0000013740280151466474 -0.000001404727401163694
          0 0 -4.750392238204275e-7 -5.55131836939174e-7 -9.501675525832149e-7 -0.0000011102429973275281
          0 0 -5.736707492746621e-7 -5.837793122255272e-7 -0.0000011487270518932783 -0.000001168333246308189
          0 0 0 -6.436584514496564e-7 -6.150852305265042e-7 -6.491410380027362e-7
          -0.0000012866085645159428 -0.0000012306233165175365 -0.0000012980684128382989 0 -6.273474871100142e-7 -0.0000012544790681656673
          0 -7.021959672890551e-7 -0.0000014043343700726077 0 -6.705478754768889e-7 -0.0000013403728055047154
          0 -6.041020406291138e-7 -0.000001208900998337321 0 -6.748558277675628e-7 -0.0000013498153856579091
          0 -5.676384404305121e-7 -0.0000011359615693241225 0 -6.321453129041694e-7 -0.0000012632606094378413
          0 -6.523235778916003e-7 -0.0000013047086117274287 0 0 -5.260008675589257e-7
          -5.466869421763812e-7 -0.0000010555206579833739 -0.0000010962627026297557 0 0 -5.436803817485905e-7
          -5.365334031749254e-7 -0.0000010889439973704697 -0.0000010748288732057279 0 -6.208316423607475e-7 -0.000001241041091412303
          0 0 -5.583377353179387e-7 -5.631562826716802e-7 -0.0000011177752506977215 -0.0000011273393653505378
          0 0 -3.2775311548994517e-7 -2.4560722900556235e-7 -6.570829523721457e-7 -4.914523821747925e-7
          0 -5.219514267400738e-7 -0.000001043190611828646 0 -6.153507021151788e-7 -0.0000012317915901573472
          0 0 -6.405958321817407e-7 -6.625773883242298e-7 -0.0000012790260434677687 -0.0000013240482977908104
          0 0 -6.309129568643597e-7 -6.585402104399239e-7 -0.0000012619516572474308 -0.0000013169927969015424
          0 -6.547273160382909e-7 -0.0000013095996784789309 0 -6.771552315300973e-7 -0.000001353496448009424
          0 -6.591680322731275e-7 -0.000001317651694821817 0 0 -6.001937550686033e-7
          -6.011371575595488e-7 -0.0000012011964427785241 -0.0000012031656185021213 0 -6.987452750742001e-7 -0.000001397376262173867
          0 0 0 0 -7.363075029426143e-7 -7.447442380041962e-7
          -7.529997238427134e-7 -7.50823321641509e-7 -0.000001472399186934055 -0.0000014888570461121005 -0.0000015047963763664146 -0.0000015003311236171802
          0 0 -6.767457649398661e-7 -6.950061576810176e-7 -0.0000013540388438295066 -0.0000013906124892170742
          0 -6.851832281519289e-7 -0.0000013704778667899963 0 0 -7.480531083124367e-7
          -7.455737614713105e-7 -0.0000014949219327179729 -0.0000014901425548758983 0 0 -6.920590496007698e-7
          -6.885519768929784e-7 -0.000001384135374663376 -0.0000013761618438704246 0 -6.679139066034168e-7 -0.0000013357176549636193
          0 -6.751923961235925e-7 -0.0000013500733996752786 0 -6.929707766343286e-7 -0.0000013839512727275923
          0 0 -5.779739862335426e-7 -5.761045058900396e-7 -0.0000011563046950732229 -0.0000011530912257137913
          0 -6.991691842131908e-7 -0.0000013966529009979314 0 0 0
          -5.768706439577122e-7 -5.007178122339903e-7 -6.031378711676976e-7 -0.0000011522436745349864 -0.0000010021616334940023 -0.000001205140949621609
          0 -6.90579601618937e-7 -0.0000013789794533108195 0 0 0
          -7.075817413883886e-7 -7.430213810729564e-7 -7.293277492249427e-7 -0.0000014149615181061652 -0.0000014852181516433432 -0.0000014573947473885822
          0 -7.180968851412387e-7 -0.0000014362718993577917 0 -6.834941483608131e-7 -0.0000013668792500446616
          0 -4.471859171917336e-7 -8.932301597515986e-7 0 -6.832823746450235e-7 -0.0000013666164893914952
          0 0 -7.501756949372479e-7 -7.554748057041025e-7 -0.000001498700768808215 -0.0000015092345922541277
          0 -6.534742835165039e-7 -0.0000013063481181540892 0 0 -5.805328566553421e-7
          -6.029156549644614e-7 -0.0000011618690301732728 -0.0000012061150220011541 0 0 -7.453876257262883e-7
          -7.360005767384134e-7 -0.0000014888608975857637 -0.000001471306261252621 0 0 -6.790566918052433e-7
          -6.496896694930938e-7 -0.0000013554272907720278 -0.0000012975287855361928 0 0 -4.915245878221911e-7
          -5.493350848278374e-7 -9.84001019022607e-7 -0.0000010987238548616069 0 0 0
          -6.876500788538158e-7 -6.775021054921816e-7 -6.468960026985016e-7 -0.0000013755577048207157 -0.0000013542131079232611 -0.0000012933525684761027
          0 -6.096965086509392e-7 -0.0000012181905848866103 0 -6.131466286742217e-7 -0.0000012258020038312603
          0 -7.004439149048152e-7 -0.0000014003481865280328 0 -4.2332593212500415e-7 -8.462210248471058e-7
          0 0 0 -5.145487561259422e-7 -4.6680188433954293e-7 -5.072807371881127e-7
          -0.0000010288543268745885 -9.33668747961235e-7 -0.0000010141370957668993 0 -5.672933647920774e-7 -0.0000011357988334328983
          0 -5.237653131916678e-7 -0.0000010484745689688796 0 0 -4.568763481008825e-7
          -4.1031150726725916e-7 -9.155661767135474e-7 -8.207529554956533e-7 0 -4.2519973153495917e-7 -8.504778959172915e-7
          0 -5.0448551313751e-7 -0.0000010096893404462273 0 -3.5367372559136963e-7 -7.110144335523441e-7
          0 -3.881061026007096e-7 -7.675827323613614e-7 0 -2.727041336380687e-7 -5.496557845968476e-7
          0 -1.5260550617244028e-7 -3.0669285549739393e-7 0 0 -1.4317702738829063e-7
          -1.5241492739257937e-7 -2.867630949963194e-7 -3.0528135845027906e-7 0 0 -8.273049241280283e-8
          -7.418224268998064e-8 -1.656142000590287e-7 -1.4833069675883232e-7 0 0 -5.932808502976266e-8
          -5.8304540960546424e-8 -1.1881967667133914e-7 -1.1685606011407336e-7 0 -1.9111505110180362e-7 -3.823016081186044e-7
          0 -1.0703035480007913e-7 -2.1432255374803952e-7 0 -6.668121768320557e-8 -1.3364623801406164e-7
          0 -2.2372216924723417e-7 -4.473243251099352e-7 0 -1.5113782209570816e-7 -3.023532313305279e-7
          0 -8.781558050273312e-8 -1.7598162982306872e-7 0 -2.637042944212699e-7 -5.27468400532872e-7
          0 -1.9570416805363242e-7 -3.9128057485318205e-7 0 -1.2944089211231684e-7 -2.5915118111261646e-7
          0 -2.42691622751713e-7 -4.852441031392935e-7 0 -1.7684313601204836e-7 -3.537507930165141e-7
          0 -2.8696074436665464e-7 -5.737242683745496e-7 0 -2.2787172611044794e-7 -4.55642664493912e-7
          0 -3.282945927817556e-7 -6.564054359131393e-7 0 -2.788902705114889e-7 -5.577012233046556e-7
          0 -3.633063274403386e-7 -7.265066255780137e-7 0 -3.252247990293198e-7 -6.504004352248964e-7
          0 -4.042917858502925e-7 -8.086088343631266e-7 0 -3.964607670186923e-7 -7.928504015446924e-7
          0 0 -6.323244563547054e-8 -6.290219684751769e-8 -1.264668251753739e-7 -1.2573762031748098e-7
          0 -6.236956790861776e-8 -1.2474449601783697e-7 0 -6.357961456459993e-8 -1.2731200188375368e-7
          0 -7.791421554625538e-8 -1.5606240906911345e-7 0 -1.1341246513339344e-7 -2.2709481981382003e-7
          0 0 -4.82207693460407e-7 -5.145467319952472e-7 -9.649143503586185e-7 -0.0000010290456073587942
          0 0 0 -3.3638605805218375e-7 -3.90996237831449e-7 -3.7072874798773565e-7
          -6.728804641702915e-7 -7.819195581754216e-7 -7.413969972354096e-7 0 -5.662613763612714e-7 -0.0000011327662961766783
          0 -5.416425363582447e-7 -0.0000010826766038502241 0 -4.225229975935666e-7 -8.454622315761642e-7
          0 -3.0075495273934706e-7 -6.014006186614939e-7 0 -3.35493291294013e-7 -6.709234409044953e-7
          0 -3.6121979195260585e-7 -7.223622223420582e-7 0 -3.866321699479396e-7 -7.731182983285796e-7
          0 -4.042015881684722e-7 -8.083875030926917e-7 0 0 -6.173823884443487e-8
          -6.149347713497225e-8 -1.2345685445194638e-7 -1.229881524920883e-7 0 -6.304404435738711e-8 -1.2607796050771786e-7
          0 -6.447570350315096e-8 -1.2897081893721848e-7 0 -6.34888697134802e-8 -1.2707215643921302e-7
          0 -7.159312702184453e-8 -1.434496251154321e-7 0 -1.608635006453921e-7 -3.2176349623411114e-7
          0 -9.85501378058699e-8 -1.9737111552027492e-7 0 -2.1522635038872073e-7 -4.303953236509206e-7
          0 -2.6719537798003493e-7 -5.343186828021103e-7 0 -3.54109977054356e-7 -7.081720314936338e-7
        </DataArray>
      </PointData>
      <CellData>
        <DataArray type="Int32" Name="libmesh_elem_id" format="ascii" RangeMin="1386" RangeMax="3465">
          1386 1387 1390 1391 1394 1395
          1400 1401 1406 1407 1410 1411
          1420 1421 1424 1425 1426 1427
          1432 1433 1436 1437 1444 1445
          1446 1447 1450 1451 1462 1463
          1466 1467 1474 1475 1498 1499
          1504 1505 1508 1509 1514 1515
          1524 1525 1526 1527 1530 1531
          1540 1541 1550 1551 1552 1553
          1554 1555 1578 1579 1588 1589
          1592 1593 1594 1595 1596 1597
          1598 1599 1600 1601 1606 1607
          1662 1663 1698 1699 1702 1703
          1712 1713 1726 1727 1730 1731
          1734 1735 1748 1749 1752 1753
          1774 1775 1778 1779 1834 1835
          1854 1855 1872 1873 1892 1893
          1894 1895 1896 1897 1902 1903
          1914 1915 1920 1921 1922 1923
          1932 1933 1942 1943 1944 1945
          1988 1989 2000 2001 2010 2011
          2024 2025 2070 2071 2100 2101
          2112 2113 2132 2133 2140 2141
          2150 2151 2166 2167 2206 2207
          2218 2219 2238 2239 2242 2243
          2244 2245 2256 2257 2258 2259
          2268 2269 2278 2279 2284 2285
          2306 2307 2334 2335 2340 2341
          2360 2361 2372 2373 2392 2393
          2396 2397 2398 2399 2418 2419
          2422 2423 2426 2427 2432 2433
          2434 2435 2436 2437 2476 2477
          2480 2481 2482 2483 2518 2519
          2534 2535 2540 2541 2542 2543
          2546 2547 2556 2557 2562 2563
          2568 2569 2574 2575 2584 2585
          2588 2589 2598 2599 2612 2613
          2638 2639 2656 2657 2664 2665
          2678 2679 2682 2683 2702 2703
          2704 2705 2708 2709 2720 2721
          2724 2725 2734 2735 2738 2739
          2742 2743 2746 2747 2774 2775
          2788 2789 2790 2791 2804 2805
          2806 2807 2834 2835 2840 2841
          2844 2845 2850 2851 2854 2855
          2858 2859 2872 2873 2888 2889
          2892 2893 2896 2897 2908 2909
          2912 2913 2916 2917 2918 2919
          2924 2925 2932 2933 2944 2945
          2972 2973 2984 2985 2996 2997
          3000 3001 3002 3003 3022 3023
          3024 3025 3030 3031 3032 3033
          3044 3045 3048 3049 3080 3081
          3092 3093 3108 3109 3120 3121
          3130 3131 3136 3137 3140 3141
          3142 3143 3146 3147 3150 3151
          3160 3161 3162 3163 3164 3165
          3170 3171 3172 3173 3174 3175
          3178 3179 3186 3187 3188 3189
          3198 3199 3216 3217 3218 3219
          3228 3229 3232 3233 3238 3239
          3242 3243 3246 3247 3250 3251
          3256 3257 3260 3261 3262 3263
          3266 3267 3268 3269 3270 3271
          3272 3273 3274 3275 3276 3277
          3278 3279 3280 3281 3282 3283
          3284 3285 3286 3287 3288 3289
          3290 3291 3292 3293 3294 3295
          3298 3299 3300 3301 3304 3305
          3306 3307 3310 3311 3312 3313
          3316 3317 3318 3319 3320 3321
          3322 3323 3338 3339 3340 3341
          3356 3357 3358 3359 3374 3375
          3376 3377 3392 3393 3394 3395
          3410 3411 3412 3413 3428 3429
          3446 3447 3464 3465
        </DataArray>
        <DataArray type="Int32" Name="subdomain_id" format="ascii" RangeMin="107" RangeMax="109">
          107 107 107 107 107 107
          107 107 107 107 107 107
          107 107 107 107 107 107
          107 107 107 107 107 107
          107 107 107 107 107 107
          107 107 107 107 107 107
          107 107 107 107 107 107
          107 107 107 107 107 107
          107 107 107 107 107 107
          107 107 107 107 107 107
          107 107 107 107 107 107
          107 107 107 107 107 107
          107 107 107 107 107 107
          107 107 107 107 107 107
          107 107 107 107 107 107
          107 107 107 107 107 107
          107 107 107 107 107 107
          107 107 107 107 107 107
          107 107 107 107 107 107
          107 107 107 107 107 107
          107 107 107 107 107 107
          107 107 107 107 107 107
          107 107 107 107 107 107
          107 107 107 107 107 107
          107 107 107 107 107 107
          107 107 107 107 107 107
          107 107 107 107 107 107
          107 107 107 107 107 107
          107 107 107 107 107 107
          107 107 107 107 107 107
          107 107 107 107 107 107
          107 107 107 107 107 107
          107 107 107 107 107 107
          107 107 107 107 107 107
          107 107 107 107 107 107
          107 107 107 107 107 107
          107 107 107 107 107 107
          107 107 107 107 107 107
          107 107 107 107 107 107
          107 107 107 107 107 107
          107 107 107 107 107 107
          107 107 107 107 107 107
          107 107 107 107 107 107
          107 107 107 107 107 107
          107 107 107 107 107 107
          107 107 107 107 107 107
          107 107 107 107 107 107
          107 107 107 107 107 107
          107 107 107 107 107 107
          107 107 107 107 107 107
          107 107 107 107 107 107
          107 107 107 107 107 107
          107 107 107 107 107 107
          107 107 107 107 107 107
          107 107 107 107 107 107
          107 107 107 107 107 107
          107 107 107 107 107 107
          107 107 107 107 107 107
          107 107 107 107 107 107
          107 107 107 107 107 107
          107 107 107 107 107 107
          107 107 107 107 107 107
          107 107 107 107 107 107
          108 108 108 108 108 108
          108 108 108 108 108 108
          108 108 108 108 108 108
          108 108 108 108 108 108
          108 108 108 108 108 108
          108 108 108 108 108 108
          108 108 108 108 108 108
          108 108 108 108 109 109
          109 109 109 109 109 109
          109 109 109 109 109 109
          109 109 109 109 109 109
          109 109 109 109 109 109
          109 109 109 109
        </DataArray>
        <DataArray type="Int32" Name="processor_id" format="ascii" RangeMin="1" RangeMax="1">
          1 1 1 1 1 1
          1 1 1 1 1 1
          1 1 1 1 1 1
          1 1 1 1 1 1
          1 1 1 1 1 1
          1 1 1 1 1 1
          1 1 1 1 1 1
          1 1 1 1 1 1
          1 1 1 1 1 1
          1 1 1 1 1 1
          1 1 1 1 1 1
          1 1 1 1 1 1
          1 1 1 1 1 1
          1 1 1 1 1 1
          1 1 1 1 1 1
          1 1 1 1 1 1
          1 1 1 1 1 1
          1 1 1 1 1 1
          1 1 1 1 1 1
          1 1 1 1 1 1
          1 1 1 1 1 1
          1 1 1 1 1 1
          1 1 1 1 1 1
          1 1 1 1 1 1
          1 1 1 1 1 1
          1 1 1 1 1 1
          1 1 1 1 1 1
          1 1 1 1 1 1
          1 1 1 1 1 1
          1 1 1 1 1 1
          1 1 1 1 1 1
          1 1 1 1 1 1
          1 1 1 1 1 1
          1 1 1 1 1 1
          1 1 1 1 1 1
          1 1 1 1 1 1
          1 1 1 1 1 1
          1 1 1 1 1 1
          1 1 1 1 1 1
          1 1 1 1 1 1
          1 1 1 1 1 1
          1 1 1 1 1 1
          1 1 1 1 1 1
          1 1 1 1 1 1
          1 1 1 1 1 1
          1 1 1 1 1 1
          1 1 1 1 1 1
          1 1 1 1 1 1
          1 1 1 1 1 1
          1 1 1 1 1 1
          1 1 1 1 1 1
          1 1 1 1 1 1
          1 1 1 1 1 1
          1 1 1 1 1 1
          1 1 1 1 1 1
          1 1 1 1 1 1
          1 1 1 1 1 1
          1 1 1 1 1 1
          1 1 1 1 1 1
          1 1 1 1 1 1
          1 1 1 1 1 1
          1 1 1 1 1 1
          1 1 1 1 1 1
          1 1 1 1 1 1
          1 1 1 1 1 1
          1 1 1 1 1 1
          1 1 1 1 1 1
          1 1 1 1 1 1
          1 1 1 1 1 1
          1 1 1 1 1 1
          1 1 1 1 1 1
          1 1 1 1 1 1
          1 1 1 1 1 1
          1 1 1 1 1 1
          1 1 1 1 1 1
          1 1 1 1
        </DataArray>
      </CellData>
      <Points>
        <DataArray type="Float64" Name="Points" NumberOfComponents="3" format="ascii" RangeMin="0.011720201602553146" RangeMax="0.03445906060790294">
          0.012969222910182 0.0014853020742274 0 0.012627852011276 0.0016898182928561 0
          0.01236786906931 0.0013587217336166 0 0.012783325134333 0.0011067100297067 0
          0.012969222910182 0.0014853020742274 0.00015 0.012627852011276 0.0016898182928561 0.00015
          0.01236786906931 0.0013587217336166 0.00015 0.012783325134333 0.0011067100297067 0.00015
          0.012969222910182 0.0014853020742274 0.0003 0.012627852011276 0.0016898182928561 0.0003
          0.01236786906931 0.0013587217336166 0.0003 0.012783325134333 0.0011067100297067 0.0003
          0.017563073004652 0.0017425656775748 0 0.017044554764736 0.0015497457581888 0
          0.017260149731535 0.0011385367421141 0 0.017760141546291 0.0012815461285561 0
          0.017563073004652 0.0017425656775748 0.00015 0.017044554764736 0.0015497457581888 0.00015
          0.017260149731535 0.0011385367421141 0.00015 0.017760141546291 0.0012815461285561 0.00015
          0.017563073004652 0.0017425656775748 0.0003 0.017044554764736 0.0015497457581888 0.0003
          0.017260149731535 0.0011385367421141 0.0003 0.017760141546291 0.0012815461285561 0.0003
          0.023776898874178 0.0022456328082928 0 0.023504823460796 0.0016933718681226 0
          0.023764932341086 0.0012053538973125 0 0.025 0.0014444444444417 0
          0.023776898874178 0.0022456328082928 0.00015 0.023504823460796 0.0016933718681226 0.00015
          0.023764932341086 0.0012053538973125 0.00015 0.025 0.0014444444444417 0.00015
          0.023776898874178 0.0022456328082928 0.0003 0.023504823460796 0.0016933718681226 0.0003
          0.023764932341086 0.0012053538973125 0.0003 0.025 0.0014444444444417 0.0003
          0.014128459199836 0.0039835282877348 0 0.014611363502717 0.0036877867763913 0
          0.015005639561329 0.0040763460944633 0 0.014554004584986 0.0044253882271801 0
          0.014128459199836 0.0039835282877348 0.00015 0.014611363502717 0.0036877867763913 0.00015
          0.015005639561329 0.0040763460944633 0.00015 0.014554004584986 0.0044253882271801 0.00015
          0.014128459199836 0.0039835282877348 0.0003 0.014611363502717 0.0036877867763913 0.0003
          0.015005639561329 0.0040763460944633 0.0003 0.014554004584986 0.0044253882271801 0.0003
          0.019696280766899 0.00050763342021358 0 0.019550033943553 0.0010320458815065 0
          0.01900444612813 0.00098950685152215 0 0.019158982336274 0.00048623495360749 0
          0.019696280766899 0.00050763342021358 0.00015 0.019550033943553 0.0010320458815065 0.00015
          0.01900444612813 0.00098950685152215 0.00015 0.019158982336274 0.00048623495360749 0.00015
          0.019696280766899 0.00050763342021358 0.0003 0.019550033943553 0.0010320458815065 0.0003
          0.01900444612813 0.00098950685152215 0.0003 0.019158982336274 0.00048623495360749 0.0003
          0.014859009547347 0.0018414606933245 0 0.015407964407671 0.0020438178723745 0
          0.01515544156871 0.0026588338800995 0 0.014598102610542 0.0022982704245768 0
          0.014859009547347 0.0018414606933245 0.00015 0.015407964407671 0.0020438178723745 0.00015
          0.01515544156871 0.0026588338800995 0.00015 0.014598102610542 0.0022982704245768 0.00015
          0.014859009547347 0.0018414606933245 0.0003 0.015407964407671 0.0020438178723745 0.0003
          0.01515544156871 0.0026588338800995 0.0003 0.014598102610542 0.0022982704245768 0.0003
          0.018126604709057 0.0019215066283495 0 0.017910174904861 0.0024312076221655 0
          0.017342980714859 0.0022157520731189 0 0.018126604709057 0.0019215066283495 0.00015
          0.017910174904861 0.0024312076221655 0.00015 0.017342980714859 0.0022157520731189 0.00015
          0.018126604709057 0.0019215066283495 0.0003 0.017910174904861 0.0024312076221655 0.0003
          0.017342980714859 0.0022157520731189 0.0003 0.015995561521593 0.0022418351865966 0
          0.01581460170494 0.0027743126456578 0 0.015995561521593 0.0022418351865966 0.00015
          0.01581460170494 0.0027743126456578 0.00015 0.015995561521593 0.0022418351865966 0.0003
          0.01581460170494 0.0027743126456578 0.0003 0.021203243478062 0.0026574159093233 0
          0.020454986610371 0.0022211941162512 0 0.020632218270446 0.001642443645643 0
          0.021442904813338 0.0016925342242502 0 0.021203243478062 0.0026574159093233 0.00015
          0.020454986610371 0.0022211941162512 0.00015 0.020632218270446 0.001642443645643 0.00015
          0.021442904813338 0.0016925342242502 0.00015 0.021203243478062 0.0026574159093233 0.0003
          0.020454986610371 0.0022211941162512 0.0003 0.020632218270446 0.001642443645643 0.0003
          0.021442904813338 0.0016925342242502 0.0003 0.015000171033694 0.0033600360828681 0
          0.015396645228865 0.0036775895732469 0 0.015000171033694 0.0033600360828681 0.00015
          0.015396645228865 0.0036775895732469 0.00015 0.015000171033694 0.0033600360828681 0.0003
          0.015396645228865 0.0036775895732469 0.0003 0.016564676280502 0.0024636417082771 0
          0.016363912484153 0.0029730068966809 0 0.016564676280502 0.0024636417082771 0.00015
          0.016363912484153 0.0029730068966809 0.00015 0.016564676280502 0.0024636417082771 0.0003
          0.016363912484153 0.0029730068966809 0.0003 0.023072410624366 0.001035238244058 0
          0.023303887517976 0.00051385162283572 0 0.023907474886085 0.00057797945625648 0
          0.023072410624366 0.001035238244058 0.00015 0.023303887517976 0.00051385162283572 0.00015
          0.023907474886085 0.00057797945625648 0.00015 0.023072410624366 0.001035238244058 0.0003
          0.023303887517976 0.00051385162283572 0.0003 0.023907474886085 0.00057797945625648 0.0003
          0.014126846853415 0.0020250855845452 0 0.014376196219822 0.0016213258676016 0
          0.014126846853415 0.0020250855845452 0.00015 0.014376196219822 0.0016213258676016 0.00015
          0.014126846853415 0.0020250855845452 0.0003 0.014376196219822 0.0016213258676016 0.0003
          0.018981322625637 0.0048047339747308 0 0.018357141436072 0.0045551651420339 0
          0.018591751365599 0.0039752866369835 0 0.01916753543825 0.0042045163914746 0
          0.018981322625637 0.0048047339747308 0.00015 0.018357141436072 0.0045551651420339 0.00015
          0.018591751365599 0.0039752866369835 0.00015 0.01916753543825 0.0042045163914746 0.00015
          0.018981322625637 0.0048047339747308 0.0003 0.018357141436072 0.0045551651420339 0.0003
          0.018591751365599 0.0039752866369835 0.0003 0.01916753543825 0.0042045163914746 0.0003
          0.018733892370512 0.0020905204418308 0 0.018302277235643 0.001411928503633 0
          0.018878430913296 0.0015272195647153 0 0.018733892370512 0.0020905204418308 0.00015
          0.018302277235643 0.001411928503633 0.00015 0.018878430913296 0.0015272195647153 0.00015
          0.018733892370512 0.0020905204418308 0.0003 0.018302277235643 0.001411928503633 0.0003
          0.018878430913296 0.0015272195647153 0.0003 0.015535554193674 0.0045828394817383 0
          0.015535554193674 0.0045828394817383 0.00015 0.015535554193674 0.0045828394817383 0.0003
          0.017780760549951 0.0042442262797048 0 0.018018112537919 0.0052480329433742 0
          0.017497318700769 0.0047182001999379 0 0.017780760549951 0.0042442262797048 0.00015
          0.018018112537919 0.0052480329433742 0.00015 0.017497318700769 0.0047182001999379 0.00015
          0.017780760549951 0.0042442262797048 0.0003 0.018018112537919 0.0052480329433742 0.0003
          0.017497318700769 0.0047182001999379 0.0003 0.019494677591535 0.00226139088066 0
          0.019117853172676 0.0029004952170283 0 0.018505903140776 0.002650294613165 0
          0.019494677591535 0.00226139088066 0.00015 0.019117853172676 0.0029004952170283 0.00015
          0.018505903140776 0.002650294613165 0.00015 0.019494677591535 0.00226139088066 0.0003
          0.019117853172676 0.0029004952170283 0.0003 0.018505903140776 0.002650294613165 0.0003
          0.013829014690192 0.0024142080164891 0 0.013458574547778 0.0021218274131508 0
          0.013711742209243 0.0017918189860839 0 0.013829014690192 0.0024142080164891 0.00015
          0.013458574547778 0.0021218274131508 0.00015 0.013711742209243 0.0017918189860839 0.00015
          0.013829014690192 0.0024142080164891 0.0003 0.013458574547778 0.0021218274131508 0.0003
          0.013711742209243 0.0017918189860839 0.0003 0.0133672983588 0.0013583262253912 0
          0.013268156677071 0.00095273786274694 0 0.0133672983588 0.0013583262253912 0.00015
          0.013268156677071 0.00095273786274694 0.00015 0.0133672983588 0.0013583262253912 0.0003
          0.013268156677071 0.00095273786274694 0.0003 0.020151989638292 0.0057951577471947 0
          0.020929132214341 0.005368110675239 0 0.020151989638292 0.0057951577471947 0.00015
          0.020929132214341 0.005368110675239 0.00015 0.020151989638292 0.0057951577471947 0.0003
          0.020929132214341 0.005368110675239 0.0003 0.011634800364854 0.0014122839921498 0
          0.011634800364854 0.0014122839921498 0.00015 0.011634800364854 0.0014122839921498 0.0003
          0.020690070611507 0.0010537467946972 0 0.021241463234904 0.0010007048777636 0
          0.020690070611507 0.0010537467946972 0.00015 0.021241463234904 0.0010007048777636 0.00015
          0.020690070611507 0.0010537467946972 0.0003 0.021241463234904 0.0010007048777636 0.0003
          0.01690585017332 0.0031962434076044 0 0.017120511962154 0.0027019865785896 0
          0.01690585017332 0.0031962434076044 0.00015 0.017120511962154 0.0027019865785896 0.00015
          0.01690585017332 0.0031962434076044 0.0003 0.017120511962154 0.0027019865785896 0.0003
          0.016801656731456 0.0019822328720047 0 0.016801656731456 0.0019822328720047 0.00015
          0.016801656731456 0.0019822328720047 0.0003 0.015193226280812 0.00045041659473928 0
          0.015698309574236 0.00047366638839958 0 0.015648437383567 0.00097128418016613 0
          0.015127663000402 0.00090574444628299 0 0.015193226280812 0.00045041659473928 0.00015
          0.015698309574236 0.00047366638839958 0.00015 0.015648437383567 0.00097128418016613 0.00015
          0.015127663000402 0.00090574444628299 0.00015 0.015193226280812 0.00045041659473928 0.0003
          0.015698309574236 0.00047366638839958 0.0003 0.015648437383567 0.00097128418016613 0.0003
          0.015127663000402 0.00090574444628299 0.0003 0.025 0.0057777777777625 0
          0.025 0.0057777777777625 0.00015 0.025 0.0057777777777625 0.0003
          0.025 0.0043333333333224 0 0.023896353247243 0.0043894596145303 0
          0.025 0.0043333333333224 0.00015 0.023896353247243 0.0043894596145303 0.00015
          0.025 0.0043333333333224 0.0003 0.023896353247243 0.0043894596145303 0.0003
          0.013179014717582 0.001822526704721 0 0.013420070576712 0.0016525675047962 0
          0.013179014717582 0.001822526704721 0.00015 0.013420070576712 0.0016525675047962 0.00015
          0.013179014717582 0.001822526704721 0.0003 0.013420070576712 0.0016525675047962 0.0003
          0.01946472134525 0.0015844882179861 0 0.01946472134525 0.0015844882179861 0.00015
          0.01946472134525 0.0015844882179861 0.0003 0.019738918970445 0.0042679072806348 0
          0.019737200842686 0.0050366958134185 0 0.019738918970445 0.0042679072806348 0.00015
          0.019737200842686 0.0050366958134185 0.00015 0.019738918970445 0.0042679072806348 0.0003
          0.019737200842686 0.0050366958134185 0.0003 0.018801022408002 0.0054477015438504 0
          0.019301386887175 0.0055580415356932 0 0.019427042946373 0.0060730727381959 0
          0.018733542944404 0.0061279994653871 0 0.018801022408002 0.0054477015438504 0.00015
          0.019301386887175 0.0055580415356932 0.00015 0.019427042946373 0.0060730727381959 0.00015
          0.018733542944404 0.0061279994653871 0.00015 0.018801022408002 0.0054477015438504 0.0003
          0.019301386887175 0.0055580415356932 0.0003 0.019427042946373 0.0060730727381959 0.0003
          0.018733542944404 0.0061279994653871 0.0003 0.020038894590203 0.0015918984718873 0
          0.020014763899096 0.0020069766457038 0 0.020038894590203 0.0015918984718873 0.00015
          0.020014763899096 0.0020069766457038 0.00015 0.020038894590203 0.0015918984718873 0.0003
          0.020014763899096 0.0020069766457038 0.0003 0.02163606673442 0.0008902471917336 0
          0.021744201350165 0.00049421716196859 0 0.022190644598282 0.0005058615377216 0
          0.021944604947084 0.0011684672971015 0 0.02163606673442 0.0008902471917336 0.00015
          0.021744201350165 0.00049421716196859 0.00015 0.022190644598282 0.0005058615377216 0.00015
          0.021944604947084 0.0011684672971015 0.00015 0.02163606673442 0.0008902471917336 0.0003
          0.021744201350165 0.00049421716196859 0.0003 0.022190644598282 0.0005058615377216 0.0003
          0.021944604947084 0.0011684672971015 0.0003 0.015913060403389 0.0039637658470315 0
          0.015913060403389 0.0039637658470315 0.00015 0.015913060403389 0.0039637658470315 0.0003
          0.014558693053864 0.0012292895498017 0 0.015031644896308 0.0013689537442351 0
          0.014558693053864 0.0012292895498017 0.00015 0.015031644896308 0.0013689537442351 0.00015
          0.014558693053864 0.0012292895498017 0.0003 0.015031644896308 0.0013689537442351 0.0003
          0.018057579772584 0.0060827128421873 0 0.018070157245618 0.0068021820766994 0
          0.018057579772584 0.0060827128421873 0.00015 0.018070157245618 0.0068021820766994 0.00015
          0.018057579772584 0.0060827128421873 0.0003 0.018070157245618 0.0068021820766994 0.0003
          0.017413401850906 0.0060417176080878 0 0.017413401850906 0.0060417176080878 0.00015
          0.017413401850906 0.0060417176080878 0.0003 0.016169389215855 0.0034677229039223 0
          0.015655980876909 0.003250339095381 0 0.016169389215855 0.0034677229039223 0.00015
          0.015655980876909 0.003250339095381 0.00015 0.016169389215855 0.0034677229039223 0.0003
          0.015655980876909 0.003250339095381 0.0003 0.014652329158707 0.0030238496825634 0
          0.015285307382498 0.0031101507370722 0 0.014652329158707 0.0030238496825634 0.00015
          0.015285307382498 0.0031101507370722 0.00015 0.014652329158707 0.0030238496825634 0.0003
          0.015285307382498 0.0031101507370722 0.0003 0.016487808895433 0.0042010147125967 0
          0.016291762387835 0.0047307906783276 0 0.016487808895433 0.0042010147125967 0.00015
          0.016291762387835 0.0047307906783276 0.00015 0.016487808895433 0.0042010147125967 0.0003
          0.016291762387835 0.0047307906783276 0.0003 0.017341722495578 0.0054175123203669 0
          0.017341722495578 0.0054175123203669 0.00015 0.017341722495578 0.0054175123203669 0.0003
          0.016251164393845 0.0016133033435965 0 0.016687160352932 0.001374608348519 0
          0.016251164393845 0.0016133033435965 0.00015 0.016687160352932 0.001374608348519 0.00015
          0.016251164393845 0.0016133033435965 0.0003 0.016687160352932 0.001374608348519 0.0003
          0.01678493258985 0.0053840721103251 0 0.016848637368385 0.0048798435935376 0
          0.01678493258985 0.0053840721103251 0.00015 0.016848637368385 0.0048798435935376 0.00015
          0.01678493258985 0.0053840721103251 0.0003 0.016848637368385 0.0048798435935376 0.0003
          0.013915703094631 0.0030656560250288 0 0.01425441565673 0.0027053116394345 0
          0.014277331184122 0.0033493109511997 0 0.013915703094631 0.0030656560250288 0.00015
          0.01425441565673 0.0027053116394345 0.00015 0.014277331184122 0.0033493109511997 0.00015
          0.013915703094631 0.0030656560250288 0.0003 0.01425441565673 0.0027053116394345 0.0003
          0.014277331184122 0.0033493109511997 0.0003 0.013503308513005 0.0027817056572273 0
          0.013503308513005 0.0027817056572273 0.00015 0.013503308513005 0.0027817056572273 0.0003
          0.015571407447371 0.001500509245043 0 0.016188320748251 0.0009824473909215 0
          0.015571407447371 0.001500509245043 0.00015 0.016188320748251 0.0009824473909215 0.00015
          0.015571407447371 0.001500509245043 0.0003 0.016188320748251 0.0009824473909215 0.0003
          0.017456683820944 0.0034405145363726 0 0.017671289470578 0.0029336357035204 0
          0.017456683820944 0.0034405145363726 0.00015 0.017671289470578 0.0029336357035204 0.00015
          0.017456683820944 0.0034405145363726 0.0003 0.017671289470578 0.0029336357035204 0.0003
          0.022716879195272 0.001694170750475 0 0.022069698771397 0.0020298487038736 0
          0.022716879195272 0.001694170750475 0.00015 0.022069698771397 0.0020298487038736 0.00015
          0.022716879195272 0.001694170750475 0.0003 0.022069698771397 0.0020298487038736 0.0003
          0.013893710777701 0.0013389894450257 0 0.014229820502632 0.0011148528015907 0
          0.013893710777701 0.0013389894450257 0.00015 0.014229820502632 0.0011148528015907 0.00015
          0.013893710777701 0.0013389894450257 0.0003 0.014229820502632 0.0011148528015907 0.0003
          0.012674188674928 0.0028095410694266 0 0.013119330518162 0.0024349279719224 0
          0.013248150362312 0.0031919567697963 0 0.012674188674928 0.0028095410694266 0.00015
          0.013119330518162 0.0024349279719224 0.00015 0.013248150362312 0.0031919567697963 0.00015
          0.012674188674928 0.0028095410694266 0.0003 0.013119330518162 0.0024349279719224 0.0003
          0.013248150362312 0.0031919567697963 0.0003 0.012451479243686 0.0021914486022899 0
          0.012451479243686 0.0021914486022899 0.00015 0.012451479243686 0.0021914486022899 0.0003
          0.016782084774574 0.00093367828557597 0 0.016782084774574 0.00093367828557597 0.00015
          0.016782084774574 0.00093367828557597 0.0003 0.013121586466294 0.0036708577033715 0
          0.013121586466294 0.0036708577033715 0.00015 0.013121586466294 0.0036708577033715 0.0003
          0.012837862818801 0.0020433604618052 0 0.012837862818801 0.0020433604618052 0.00015
          0.012837862818801 0.0020433604618052 0.0003 0.016706746155521 0.0036970402910047 0
          0.016706746155521 0.0036970402910047 0.00015 0.016706746155521 0.0036970402910047 0.0003
          0.013749164985008 0.00086088989331873 0 0.013749164985008 0.00086088989331873 0.00015
          0.013749164985008 0.00086088989331873 0.0003 0.012096711335481 0.0017058387426491 0
          0.012096711335481 0.0017058387426491 0.00015 0.012096711335481 0.0017058387426491 0.0003
          0.013693266362936 0.0034326845509566 0 0.013693266362936 0.0034326845509566 0.00015
          0.013693266362936 0.0034326845509566 0.0003 0.012692307692288 0 0
          0.012542896420733 0.00061304595643839 0 0.012692307692288 0 0.00015
          0.012542896420733 0.00061304595643839 0.00015 0.012692307692288 0 0.0003
          0.012542896420733 0.00061304595643839 0.0003 0.013205128205107 0 0
          0.013181655749567 0.00048421972568225 0 0.013205128205107 0 0.00015
          0.013181655749567 0.00048421972568225 0.00015 0.013205128205107 0 0.0003
          0.013181655749567 0.00048421972568225 0.0003 0.012087580163866 0.0010424427844857 0
          0.012087580163866 0.0010424427844857 0.00015 0.012087580163866 0.0010424427844857 0.0003
          0.013717948717925 0 0 0.013709151553936 0.00043508888993868 0
          0.013717948717925 0 0.00015 0.013709151553936 0.00043508888993868 0.00015
          0.013717948717925 0 0.0003 0.013709151553936 0.00043508888993868 0.0003
          0.023934294716764 0.0032087575652495 0 0.025 0.0028888888888822 0
          0.023934294716764 0.0032087575652495 0.00015 0.025 0.0028888888888822 0.00015
          0.023934294716764 0.0032087575652495 0.0003 0.025 0.0028888888888822 0.0003
          0.022119784948444 0.002618759724243 0 0.022119784948444 0.002618759724243 0.00015
          0.022119784948444 0.002618759724243 0.0003 0.012384518900215 0.0018567382086698 0
          0.012384518900215 0.0018567382086698 0.00015 0.012384518900215 0.0018567382086698 0.0003
          0.021279978971931 0.00049482730399591 0 0.020757556768826 0.00050973095909409 0
          0.021279978971931 0.00049482730399591 0.00015 0.020757556768826 0.00050973095909409 0.00015
          0.021279978971931 0.00049482730399591 0.0003 0.020757556768826 0.00050973095909409 0.0003
          0.015256410256382 0 0 0.015769230769205 0 0
          0.015256410256382 0 0.00015 0.015769230769205 0 0.00015
          0.015256410256382 0 0.0003 0.015769230769205 0 0.0003
          0.014025581742285 0.0035717972510793 0 0.014025581742285 0.0035717972510793 0.00015
          0.014025581742285 0.0035717972510793 0.0003 0.013590285783394 0.0038446716816234 0
          0.013590285783394 0.0038446716816234 0.00015 0.013590285783394 0.0038446716816234 0.0003
          0.017243082343815 0.0050067004105205 0 0.017243082343815 0.0050067004105205 0.00015
          0.017243082343815 0.0050067004105205 0.0003 0.014691316585943 0.00042340821879555 0
          0.014743589743561 0 0 0.014691316585943 0.00042340821879555 0.00015
          0.014743589743561 0 0.00015 0.014691316585943 0.00042340821879555 0.0003
          0.014743589743561 0 0.0003 0.018245486290569 0.0031782516753476 0
          0.018245486290569 0.0031782516753476 0.00015 0.018245486290569 0.0031782516753476 0.0003
          0.018846153846135 0 0 0.018644197304734 0.00045373129675669 0
          0.01812656348281 0.00041497632726255 0 0.018333333333313 0 0
          0.018846153846135 0 0.00015 0.018644197304734 0.00045373129675669 0.00015
          0.01812656348281 0.00041497632726255 0.00015 0.018333333333313 0 0.00015
          0.018846153846135 0 0.0003 0.018644197304734 0.00045373129675669 0.0003
          0.01812656348281 0.00041497632726255 0.0003 0.018333333333313 0 0.0003
          0.016222123693441 0.00047331176344161 0 0.016700854199337 0.00043557402690065 0
          0.016222123693441 0.00047331176344161 0.00015 0.016700854199337 0.00043557402690065 0.00015
          0.016222123693441 0.00047331176344161 0.0003 0.016700854199337 0.00043557402690065 0.0003
          0.020119253581834 0.0010505613075795 0 0.020119253581834 0.0010505613075795 0.00015
          0.020119253581834 0.0010505613075795 0.0003 0.017948162073368 0.00084248305268282 0
          0.018468108748109 0.00092264731154686 0 0.017948162073368 0.00084248305268282 0.00015
          0.018468108748109 0.00092264731154686 0.00015 0.017948162073368 0.00084248305268282 0.0003
          0.018468108748109 0.00092264731154686 0.0003 0.018823294200687 0.0034327213803771 0
          0.019357958441624 0.0036753812238739 0 0.018823294200687 0.0034327213803771 0.00015
          0.019357958441624 0.0036753812238739 0.00015 0.018823294200687 0.0034327213803771 0.0003
          0.019357958441624 0.0036753812238739 0.0003 0.017020820655581 0.0044256808272369 0
          0.017020820655581 0.0044256808272369 0.00015 0.017020820655581 0.0044256808272369 0.0003
          0.017246333426457 0.0039469397271967 0 0.017246333426457 0.0039469397271967 0.00015
          0.017246333426457 0.0039469397271967 0.0003 0.020078691259254 0.0027314397537426 0
          0.020078691259254 0.0027314397537426 0.00015 0.020078691259254 0.0027314397537426 0.0003
          0.014206101807249 0.00041708713844452 0 0.014230769230743 0 0
          0.014206101807249 0.00041708713844452 0.00015 0.014230769230743 0 0.00015
          0.014206101807249 0.00041708713844452 0.0003 0.014230769230743 0 0.0003
          0.019663480844036 0.0032045589214632 0 0.019663480844036 0.0032045589214632 0.00015
          0.019663480844036 0.0032045589214632 0.0003 0.021168425648455 0.0043064684914555 0
          0.021635594211814 0.0048272474453844 0 0.020555573714582 0.0046911399787169 0
          0.021168425648455 0.0043064684914555 0.00015 0.021635594211814 0.0048272474453844 0.00015
          0.020555573714582 0.0046911399787169 0.00015 0.021168425648455 0.0043064684914555 0.0003
          0.021635594211814 0.0048272474453844 0.0003 0.020555573714582 0.0046911399787169 0.0003
          0.019723975353689 0.0038421555098755 0 0.019723975353689 0.0038421555098755 0.00015
          0.019723975353689 0.0038421555098755 0.0003 0.01679487179485 0 0
          0.017307692307672 0 0 0.017098243235352 0.00037703288126221 0
          0.01679487179485 0 0.00015 0.017307692307672 0 0.00015
          0.017098243235352 0.00037703288126221 0.00015 0.01679487179485 0 0.0003
          0.017307692307672 0 0.0003 0.017098243235352 0.00037703288126221 0.0003
          0.019358974358957 0 0 0.019358974358957 0 0.00015
          0.019358974358957 0 0.0003 0.018021318366412 0.0037089471112668 0
          0.018021318366412 0.0037089471112668 0.00015 0.018021318366412 0.0037089471112668 0.0003
          0.022914230268928 0.0025172233828488 0 0.022914230268928 0.0025172233828488 0.00015
          0.022914230268928 0.0025172233828488 0.0003 0.016282051282027 0 0
          0.016282051282027 0 0.00015 0.016282051282027 0 0.0003
          0.017636327566636 0.00038375181151782 0 0.017820512820494 0 0
          0.017636327566636 0.00038375181151782 0.00015 0.017820512820494 0 0.00015
          0.017636327566636 0.00038375181151782 0.0003 0.017820512820494 0 0.0003
          0.020545307319607 0.0031941956482125 0 0.020545307319607 0.0031941956482125 0.00015
          0.020545307319607 0.0031941956482125 0.0003 0.014207774647908 0.00082121811907846 0
          0.014649951203035 0.00083908958777153 0 0.014207774647908 0.00082121811907846 0.00015
          0.014649951203035 0.00083908958777153 0.00015 0.014207774647908 0.00082121811907846 0.0003
          0.014649951203035 0.00083908958777153 0.0003 0.017453973974276 0.00075538641526017 0
          0.017131504825278 0.00067680946789985 0 0.017453973974276 0.00075538641526017 0.00015
          0.017131504825278 0.00067680946789985 0.00015 0.017453973974276 0.00075538641526017 0.0003
          0.017131504825278 0.00067680946789985 0.0003 0.020049549059284 0.0035870308776452 0
          0.020306231316884 0.0040846257713005 0 0.020049549059284 0.0035870308776452 0.00015
          0.020306231316884 0.0040846257713005 0.00015 0.020049549059284 0.0035870308776452 0.0003
          0.020306231316884 0.0040846257713005 0.0003 0.022163023796879 0.0034061119862663 0
          0.021471654866651 0.0034951402573089 0 0.022163023796879 0.0034061119862663 0.00015
          0.021471654866651 0.0034951402573089 0.00015 0.022163023796879 0.0034061119862663 0.0003
          0.021471654866651 0.0034951402573089 0.0003 0.020216848120139 0.00051365536395203 0
          0.020384615384602 0 0 0.020897435897425 0 0
          0.020216848120139 0.00051365536395203 0.00015 0.020384615384602 0 0.00015
          0.020897435897425 0 0.00015 0.020216848120139 0.00051365536395203 0.0003
          0.020384615384602 0 0.0003 0.020897435897425 0 0.0003
          0.020867240059882 0.0037570922548429 0 0.020867240059882 0.0037570922548429 0.00015
          0.020867240059882 0.0037570922548429 0.0003 0.021410256410247 0 0
          0.021410256410247 0 0.00015 0.021410256410247 0 0.0003
          0.01987179487178 0 0 0.01987179487178 0 0.00015
          0.01987179487178 0 0.0003 0.022975084693504 0.003367305376383 0
          0.022975084693504 0.003367305376383 0.00015 0.022975084693504 0.003367305376383 0.0003
          0.022435897435893 0 0 0.022948717948713 0 0
          0.022737844672879 0.00047743690091317 0 0.022435897435893 0 0.00015
          0.022948717948713 0 0.00015 0.022737844672879 0.00047743690091317 0.00015
          0.022435897435893 0 0.0003 0.022948717948713 0 0.0003
          0.022737844672879 0.00047743690091317 0.0003 0.02192307692307 0 0
          0.02192307692307 0 0.00015 0.02192307692307 0 0.0003
          0.021567010772127 0.0039949981403974 0 0.021567010772127 0.0039949981403974 0.00015
          0.021567010772127 0.0039949981403974 0.0003 0.02205136800235 0.0041574599345453 0
          0.022874799944018 0.0043411431204517 0 0.02205136800235 0.0041574599345453 0.00015
          0.022874799944018 0.0043411431204517 0.00015 0.02205136800235 0.0041574599345453 0.0003
          0.022874799944018 0.0043411431204517 0.0003 0.023461538461532 0 0
          0.023461538461532 0 0.00015 0.023461538461532 0 0.0003
          0.022597273609822 0.0008601076908125 0 0.022597273609822 0.0008601076908125 0.00015
          0.022597273609822 0.0008601076908125 0.0003 0.024392416230449 0.00057909033861659 0
          0.024392416230449 0.00057909033861659 0.00015 0.024392416230449 0.00057909033861659 0.0003
          0.023974358974355 0 0 0.023974358974355 0 0.00015
          0.023974358974355 0 0.0003 0.024487179487177 0 0
          0.024487179487177 0 0.00015 0.024487179487177 0 0.0003
          0.025 0 0 0.025 0 0.00015
          0.025 0 0.0003 0.026666666666664 0.0014444444444417 0
          0.026666666666663 0 0 0.026666666666664 0.0014444444444417 0.00015
          0.026666666666663 0 0.00015 0.026666666666664 0.0014444444444417 0.0003
          0.026666666666663 0 0.0003 0.028333333333331 0.0014444444444417 0
          0.02833333333333 0 0 0.028333333333331 0.0014444444444417 0.00015
          0.02833333333333 0 0.00015 0.028333333333331 0.0014444444444417 0.0003
          0.02833333333333 0 0.0003 0.03 0.0014444444444417 0
          0.03 0 0 0.03 0.0014444444444417 0.00015
          0.03 0 0.00015 0.03 0.0014444444444417 0.0003
          0.03 0 0.0003 0.026666666666665 0.0028888888888822 0
          0.026666666666665 0.0028888888888822 0.00015 0.026666666666665 0.0028888888888822 0.0003
          0.028333333333331 0.0028888888888822 0 0.028333333333331 0.0028888888888822 0.00015
          0.028333333333331 0.0028888888888822 0.0003 0.03 0.0028888888888822 0
          0.03 0.0028888888888822 0.00015 0.03 0.0028888888888822 0.0003
          0.026666666666666 0.0043333333333224 0 0.026666666666666 0.0043333333333224 0.00015
          0.026666666666666 0.0043333333333224 0.0003 0.028333333333332 0.0043333333333224 0
          0.028333333333332 0.0043333333333224 0.00015 0.028333333333332 0.0043333333333224 0.0003
          0.03 0.0043333333333224 0 0.03 0.0043333333333224 0.00015
          0.03 0.0043333333333224 0.0003 0.026666666666666 0.0057777777777625 0
          0.026666666666666 0.0057777777777625 0.00015 0.026666666666666 0.0057777777777625 0.0003
          0.028333333333333 0.0057777777777625 0 0.028333333333333 0.0057777777777625 0.00015
          0.028333333333333 0.0057777777777625 0.0003 0.03 0.0057777777777625 0
          0.03 0.0057777777777625 0.00015 0.03 0.0057777777777625 0.0003
          0.028333333333334 0.0072222222222063 0 0.028333333333334 0.0072222222222063 0.00015
          0.028333333333334 0.0072222222222063 0.0003 0.03 0.0072222222222063 0
          0.03 0.0072222222222063 0.00015 0.03 0.0072222222222063 0.0003
          0.028333333333334 0.0086666666666559 0 0.028333333333334 0.0086666666666559 0.00015
          0.028333333333334 0.0086666666666559 0.0003 0.03 0.0086666666666559 0
          0.03 0.0086666666666559 0.00015 0.03 0.0086666666666559 0.0003
          0.028333333333335 0.010111111111103 0 0.028333333333335 0.010111111111103 0.00015
          0.028333333333335 0.010111111111103 0.0003 0.03 0.010111111111103 0
          0.03 0.010111111111103 0.00015 0.03 0.010111111111103 0.0003
          0.028333333333336 0.011555555555552 0 0.028333333333336 0.011555555555552 0.00015
          0.028333333333336 0.011555555555552 0.0003 0.03 0.011555555555552 0
          0.03 0.011555555555552 0.00015 0.03 0.011555555555552 0.0003
          0.028333333333337 0.013 0 0.028333333333337 0.013 0.00015
          0.028333333333337 0.013 0.0003 0.03 0.013 0
          0.03 0.013 0.00015 0.03 0.013 0.0003
          0.031601181467612 0.0014508094753802 0 0.03158989866902 0 0
          0.031601181467612 0.0014508094753802 0.00015 0.03158989866902 0 0.00015
          0.031601181467612 0.0014508094753802 0.0003 0.03158989866902 0 0.0003
          0.031612464266204 0.0029016189507591 0 0.031612464266204 0.0029016189507591 0.00015
          0.031612464266204 0.0029016189507591 0.0003 0.031623747064796 0.0043524284261377 0
          0.031623747064796 0.0043524284261377 0.00015 0.031623747064796 0.0043524284261377 0.0003
          0.031635029863388 0.0058032379015163 0 0.031635029863388 0.0058032379015163 0.00015
          0.031635029863388 0.0058032379015163 0.0003 0.031646312661979 0.0072540473768985 0
          0.031646312661979 0.0072540473768985 0.00015 0.031646312661979 0.0072540473768985 0.0003
          0.021356284292895 0.0061182113295331 0 0.020489019208248 0.0065103794253073 0
          0.021356284292895 0.0061182113295331 0.00015 0.020489019208248 0.0065103794253073 0.00015
          0.021356284292895 0.0061182113295331 0.0003 0.020489019208248 0.0065103794253073 0.0003
          0.025 0.0072222222222063 0 0.023816654948859 0.0069324696013164 0
          0.023829479378086 0.0056593315311521 0 0.025 0.0072222222222063 0.00015
          0.023816654948859 0.0069324696013164 0.00015 0.023829479378086 0.0056593315311521 0.00015
          0.025 0.0072222222222063 0.0003 0.023816654948859 0.0069324696013164 0.0003
          0.023829479378086 0.0056593315311521 0.0003 0.018734278863615 0.0068564365277259 0
          0.018734278863615 0.0068564365277259 0.00015 0.018734278863615 0.0068564365277259 0.0003
          0.019611341590458 0.0069319215290848 0 0.019611341590458 0.0069319215290848 0.00015
          0.019611341590458 0.0069319215290848 0.0003 0.022477642087048 0.0055533155338694 0
          0.022477642087048 0.0055533155338694 0.00015 0.022477642087048 0.0055533155338694 0.0003
          0.026666666666667 0.0072222222222063 0 0.026666666666667 0.0072222222222063 0.00015
          0.026666666666667 0.0072222222222063 0.0003 0.026666666666668 0.0086666666666559 0
          0.026666666666668 0.0086666666666559 0.00015 0.026666666666668 0.0086666666666559 0.0003
          0.026666666666669 0.010111111111103 0 0.026666666666669 0.010111111111103 0.00015
          0.026666666666669 0.010111111111103 0.0003 0.026666666666669 0.011555555555552 0
          0.026666666666669 0.011555555555552 0.00015 0.026666666666669 0.011555555555552 0.0003
          0.02666666666667 0.013 0 0.02666666666667 0.013 0.00015
          0.02666666666667 0.013 0.0003 0.033201501647561 0.0014698753983525 0
          0.033179797338052 0 0 0.033201501647561 0.0014698753983525 0.00015
          0.033179797338052 0 0.00015 0.033201501647561 0.0014698753983525 0.0003
          0.033179797338052 0 0.0003 0.033223205957069 0.0029397507967035 0
          0.033223205957069 0.0029397507967035 0.00015 0.033223205957069 0.0029397507967035 0.0003
          0.033244910266578 0.0044096261950543 0 0.033244910266578 0.0044096261950543 0.00015
          0.033244910266578 0.0044096261950543 0.0003 0.033266614576087 0.0058795015934051 0
          0.033266614576087 0.0058795015934051 0.00015 0.033266614576087 0.0058795015934051 0.0003
          0.033288318885596 0.0073493769917596 0 0.033288318885596 0.0073493769917596 0.00015
          0.033288318885596 0.0073493769917596 0.0003 0.031657595460571 0.0087048568522863 0
          0.031657595460571 0.0087048568522863 0.00015 0.031657595460571 0.0087048568522863 0.0003
          0.033310023195106 0.0088192523901195 0 0.033310023195106 0.0088192523901195 0.00015
          0.033310023195106 0.0088192523901195 0.0003 0.031668878259163 0.010155666327672 0
          0.031668878259163 0.010155666327672 0.00015 0.031668878259163 0.010155666327672 0.0003
          0.031680161057755 0.011606475803059 0 0.031680161057755 0.011606475803059 0.00015
          0.031680161057755 0.011606475803059 0.0003 0.031691443856347 0.013057285278446 0
          0.031691443856347 0.013057285278446 0.00015 0.031691443856347 0.013057285278446 0.0003
          <InformationKey name="L2_NORM_RANGE" location="vtkDataArray" length="2">
            <Value index="0">
              0.011720201603
            </Value>
            <Value index="1">
              0.034459060608
            </Value>
          </InformationKey>
        </DataArray>
      </Points>
      <Cells>
        <DataArray type="Int64" Name="connectivity" format="ascii" RangeMin="0" RangeMax="797">
          0 1 2 3 4 5
          6 7 4 5 6 7
          8 9 10 11 12 13
          14 15 16 17 18 19
          16 17 18 19 20 21
          22 23 24 25 26 27
          28 29 30 31 28 29
          30 31 32 33 34 35
          36 37 38 39 40 41
          42 43 40 41 42 43
          44 45 46 47 48 49
          50 51 52 53 54 55
          52 53 54 55 56 57
          58 59 60 61 62 63
          64 65 66 67 64 65
          66 67 68 69 70 71
          72 73 74 12 75 76
          77 16 75 76 77 16
          78 79 80 20 61 81
          82 62 65 83 84 66
          65 83 84 66 69 85
          86 70 87 88 89 90
          91 92 93 94 91 92
          93 94 95 96 97 98
          37 99 100 38 41 101
          102 42 41 101 102 42
          45 103 104 46 81 105
          106 82 83 107 108 84
          83 107 108 84 85 109
          110 86 26 111 112 113
          30 114 115 116 30 114
          115 116 34 117 118 119
          63 120 121 60 67 122
          123 64 67 122 123 64
          71 124 125 68 126 127
          128 129 130 131 132 133
          130 131 132 133 134 135
          136 137 138 72 139 140
          141 75 142 143 141 75
          142 143 144 78 145 146
          150 127 151 152 153 131
          154 155 153 131 154 155
          156 135 157 158 159 160
          161 138 162 163 164 141
          162 163 164 141 165 166
          167 144 120 168 169 170
          122 171 172 173 122 171
          172 173 124 174 175 176
          15 139 72 12 19 142
          75 16 19 142 75 16
          23 145 78 20 177 0
          3 178 179 4 7 180
          179 4 7 180 181 8
          11 182 183 184 726 727
          185 186 728 729 185 186
          728 729 187 188 730 731
          192 193 90 89 194 195
          94 93 194 195 94 93
          196 197 98 97 198 106
          105 199 200 108 107 201
          200 108 107 201 202 110
          109 203 204 13 12 74
          205 17 16 77 205 17
          16 77 206 21 20 80
          207 208 209 210 211 212
          213 214 211 212 213 214
          215 216 217 218 732 733
          734 219 735 736 737 220
          735 736 737 220 738 739
          740 221 222 219 734 223
          224 220 737 225 224 220
          737 225 226 221 740 227
          228 229 170 169 230 231
          173 172 230 231 173 172
          232 233 176 175 234 140
          50 49 235 143 54 53
          235 143 54 53 236 146
          58 57 129 237 238 126
          133 239 240 130 133 239
          240 130 137 241 242 134
          243 244 245 246 247 248
          249 250 247 248 249 250
          251 252 253 254 255 256
          159 234 257 258 162 235
          257 258 162 235 259 260
          165 236 261 262 263 264
          265 266 267 268 265 266
          267 268 269 270 271 272
          273 147 38 100 274 148
          42 102 274 148 42 102
          275 149 46 104 121 276
          277 60 123 278 279 64
          123 278 279 64 125 280
          281 68 282 246 741 283
          284 250 742 285 284 250
          742 285 286 254 743 287
          291 292 82 106 293 294
          84 108 293 294 84 108
          295 296 86 110 99 297
          62 298 101 299 66 300
          101 299 66 300 103 301
          70 302 303 304 147 273
          305 306 148 274 305 306
          148 274 307 308 149 275
          105 204 74 199 107 205
          77 201 107 205 77 201
          109 206 80 203 288 309
          151 282 289 310 154 284
          289 310 154 284 290 311
          157 286 312 313 13 204
          314 315 17 205 314 315
          17 205 316 317 21 206
          99 298 292 100 101 300
          294 102 101 300 294 102
          103 302 296 104 292 298
          62 82 294 300 66 84
          294 300 66 84 296 302
          70 86 151 127 126 243
          154 131 130 247 154 131
          130 247 157 135 134 251
          246 282 151 243 250 284
          154 247 250 284 154 247
          254 286 157 251 100 292
          291 273 102 294 293 274
          102 294 293 274 104 296
          295 275 324 325 297 326
          327 328 299 329 327 328
          299 329 330 331 301 332
          325 63 62 297 328 67
          66 299 328 67 66 299
          331 71 70 301 333 168
          325 324 334 171 328 327
          334 171 328 327 335 174
          331 330 168 120 63 325
          171 122 67 328 171 122
          67 328 174 124 71 331
          312 336 209 337 314 338
          213 339 314 338 213 339
          316 340 217 341 88 256
          255 89 92 258 257 93
          92 258 257 93 96 260
          259 97 342 198 199 343
          344 200 201 345 344 200
          201 345 346 202 203 347
          90 264 348 349 94 268
          350 351 94 268 350 351
          98 272 352 353 354 355
          276 121 356 357 278 123
          356 357 278 123 358 359
          280 125 360 361 333 362
          363 364 334 365 363 364
          334 365 366 367 335 368
          336 277 210 209 338 279
          214 213 338 279 214 213
          340 281 218 217 73 72
          138 161 76 75 141 164
          76 75 141 164 79 78
          144 167 372 14 13 313
          373 18 17 315 373 18
          17 315 374 22 21 317
          168 333 361 169 171 334
          364 172 171 334 364 172
          174 335 367 175 378 361
          360 369 379 364 363 370
          379 364 363 370 380 367
          366 371 381 291 106 198
          382 293 108 200 382 293
          108 200 383 295 110 202
          354 177 178 384 356 179
          180 385 356 179 180 385
          358 181 182 386 37 326
          297 99 41 329 299 101
          41 329 299 101 45 332
          301 103 324 390 362 333
          327 391 365 334 327 391
          365 334 330 392 368 335
          394 393 399 400 396 395
          401 402 396 395 401 402
          398 397 403 404 2 387
          189 405 6 388 190 406
          6 388 190 406 10 389
          191 407 400 399 408 409
          402 401 410 411 402 401
          410 411 404 403 412 413
          414 24 27 415 416 28
          31 417 416 28 31 417
          418 32 35 419 420 87
          90 349 421 91 94 351
          421 91 94 351 422 95
          98 353 199 74 73 343
          201 77 76 345 201 77
          76 345 203 80 79 347
          336 61 60 277 338 65
          64 279 338 65 64 279
          340 69 68 281 426 193
          192 427 428 195 194 429
          428 195 194 429 430 197
          196 431 207 432 433 208
          211 434 435 212 211 434
          435 212 215 436 437 216
          326 438 390 324 329 439
          391 327 329 439 391 327
          332 440 392 330 441 375
          362 390 442 376 365 391
          442 376 365 391 443 377
          368 392 381 303 273 291
          382 305 274 293 382 305
          274 293 383 307 275 295
          348 111 26 25 350 114
          30 29 350 114 30 29
          352 117 34 33 319 444
          309 318 321 445 310 320
          321 445 310 320 323 446
          311 322 432 207 447 448
          434 211 449 450 434 211
          449 450 436 215 451 452
          238 244 243 126 240 248
          247 130 240 248 247 130
          242 252 251 134 140 234
          159 138 143 235 162 141
          143 235 162 141 146 236
          165 144 161 453 343 73
          164 454 345 76 164 454
          345 76 167 455 347 79
          456 457 458 459 460 461
          462 463 460 461 462 463
          464 465 466 467 61 336
          312 81 65 338 314 83
          65 338 314 83 69 340
          316 85 81 312 204 105
          83 314 205 107 83 314
          205 107 85 316 206 109
          468 469 372 337 470 471
          373 339 470 471 373 339
          472 473 374 341 468 337
          209 208 470 339 213 212
          470 339 213 212 472 341
          217 216 474 255 234 49
          475 257 235 53 475 257
          235 53 476 259 236 57
          372 313 312 337 373 315
          314 339 373 315 314 339
          374 317 316 341 152 151
          309 444 155 154 310 445
          155 154 310 445 158 157
          311 446 477 478 139 15
          479 480 142 19 479 480
          142 19 481 482 145 23
          483 484 129 128 485 486
          133 132 485 486 133 132
          487 488 137 136 489 319
          304 303 490 321 306 305
          490 321 306 305 491 323
          308 307 744 741 246 245
          745 742 250 249 745 742
          250 249 746 743 254 253
          492 381 198 342 493 382
          200 344 493 382 200 344
          494 383 202 346 88 495
          159 256 92 496 162 258
          92 496 162 258 96 497
          165 260 498 499 448 447
          500 501 450 449 500 501
          450 449 502 503 452 451
          223 414 415 222 225 416
          417 224 225 416 417 224
          227 418 419 226 354 121
          120 170 356 123 122 173
          356 123 122 173 358 125
          124 176 394 3 2 405
          396 7 6 406 396 7
          6 406 398 11 10 407
          453 161 160 483 454 164
          163 485 454 164 163 485
          455 167 166 487 495 504
          160 159 496 505 163 162
          496 505 163 162 497 506
          166 165 492 489 303 381
          493 490 305 382 493 490
          305 382 494 491 307 383
          264 90 193 261 268 94
          195 265 268 94 195 265
          272 98 197 269 507 508
          184 509 510 511 186 512
          510 511 186 512 513 514
          188 515 237 129 484 516
          239 133 486 517 239 133
          486 517 241 137 488 518
          469 519 520 521 471 522
          523 524 471 522 523 524
          473 525 526 527 457 456
          528 51 461 460 529 55
          461 460 529 55 465 464
          530 59 531 342 343 453
          532 344 345 454 532 344
          345 454 533 346 347 455
          238 183 245 244 240 185
          249 248 240 185 249 248
          242 187 253 252 1 378
          369 423 5 379 370 424
          5 379 370 424 9 380
          371 425 504 484 483 160
          505 486 485 163 505 486
          485 163 506 488 487 166
          453 483 128 531 454 485
          132 532 454 485 132 532
          455 487 136 533 747 726
          184 508 748 728 186 511
          748 728 186 511 749 730
          188 514 478 457 51 50
          480 461 55 54 480 461
          55 54 482 465 59 58
          400 409 384 178 402 411
          385 180 402 411 385 180
          404 413 386 182 420 349
          348 534 421 351 350 535
          421 351 350 535 422 353
          352 536 468 537 519 469
          470 538 522 471 470 538
          522 471 472 539 525 473
          509 184 183 238 512 186
          185 240 512 186 185 240
          515 188 187 242 170 229
          177 354 173 231 179 356
          173 231 179 356 176 233
          181 358 499 498 409 408
          501 500 411 410 501 500
          411 410 503 502 413 412
          540 541 459 458 542 543
          463 462 542 543 463 462
          544 545 467 466 87 546
          495 88 91 547 496 92
          91 547 496 92 95 548
          497 96 228 169 361 378
          230 172 364 379 230 172
          364 379 232 175 367 380
          549 550 276 355 551 552
          278 357 551 552 278 357
          553 554 280 359 478 50
          140 139 480 54 143 142
          480 54 143 142 482 58
          146 145 540 555 556 521
          542 557 558 524 542 557
          558 524 544 559 560 527
          36 441 390 438 40 442
          391 439 40 442 391 439
          44 443 392 440 561 562
          237 516 563 564 239 517
          563 564 239 517 565 566
          241 518 152 444 319 489
          155 445 321 490 155 445
          321 490 158 446 323 491
          567 568 87 420 569 570
          91 421 569 570 91 421
          571 572 95 422 150 492
          342 531 153 493 344 532
          153 493 344 532 156 494
          346 533 477 15 14 555
          479 19 18 557 479 19
          18 557 481 23 22 559
          531 128 127 150 532 132
          131 153 532 132 131 153
          533 136 135 156 24 534
          348 25 28 535 350 29
          28 535 350 29 32 536
          352 33 504 495 546 561
          505 496 547 563 505 496
          547 563 506 497 548 565
          474 192 89 255 475 194
          93 257 475 194 93 257
          476 196 97 259 573 574
          575 427 576 577 578 429
          576 577 578 429 579 580
          581 431 546 582 562 561
          547 583 564 563 547 583
          564 563 548 584 566 565
          561 516 484 504 563 517
          486 505 563 517 486 505
          565 518 488 506 555 540
          458 477 557 542 462 479
          557 542 462 479 559 544
          466 481 550 210 277 276
          552 214 279 278 552 214
          279 278 554 218 281 280
          744 245 183 727 745 249
          185 729 745 249 185 729
          746 253 187 731 210 550
          447 207 214 552 449 211
          214 552 449 211 218 554
          451 215 427 575 585 426
          429 578 586 428 429 578
          586 428 431 581 587 430
          150 152 489 492 153 155
          490 493 153 155 490 493
          156 158 491 494 48 588
          574 573 52 589 577 576
          52 589 577 576 56 590
          580 579 573 474 49 48
          576 475 53 52 576 475
          53 52 579 476 57 56
          562 509 238 237 564 512
          240 239 564 512 240 239
          566 515 242 241 372 556
          555 14 373 558 557 18
          373 558 557 18 374 560
          559 22 534 591 567 420
          535 592 569 421 535 592
          569 421 536 593 571 422
          521 556 372 469 524 558
          373 471 524 558 373 471
          527 560 374 473 178 3
          394 400 180 7 396 402
          180 7 396 402 182 11
          398 404 263 594 595 596
          267 597 598 599 267 597
          598 599 271 600 601 602
          549 355 354 384 551 357
          356 385 551 357 356 385
          553 359 358 386 0 228
          378 1 4 230 379 5
          4 230 379 5 8 232
          380 9 426 585 603 262
          428 586 604 266 428 586
          604 266 430 587 605 270
          582 546 87 568 583 547
          91 570 583 547 91 570
          584 548 95 572 474 573
          427 192 475 576 429 194
          475 576 429 194 476 579
          431 196 262 603 594 263
          266 604 597 267 266 604
          597 267 270 605 600 271
          537 468 208 433 538 470
          212 435 538 470 212 435
          539 472 216 437 36 438
          326 37 40 439 329 41
          40 439 329 41 44 440
          332 45 541 540 521 520
          543 542 524 523 543 542
          524 523 545 544 527 526
          1 423 387 2 5 424
          388 6 5 424 388 6
          9 425 389 10 498 447
          550 549 500 449 552 551
          500 449 552 551 502 451
          554 553 228 0 177 229
          230 4 179 231 230 4
          179 231 232 8 181 233
          507 582 568 606 510 583
          570 607 510 583 570 607
          513 584 572 608 588 48
          51 528 589 52 55 529
          589 52 55 529 590 56
          59 530 609 567 591 610
          611 569 592 612 611 569
          592 612 613 571 593 614
          596 595 615 112 599 598
          616 115 599 598 616 115
          602 601 617 118 414 591
          534 24 416 592 535 28
          416 592 535 28 418 593
          536 32 262 261 193 426
          266 265 195 428 266 265
          195 428 270 269 197 430
          223 610 591 414 225 612
          592 416 225 612 592 416
          227 614 593 418 477 458
          457 478 479 462 461 480
          479 462 461 480 481 466
          465 482 610 747 508 609
          612 748 511 611 612 748
          511 611 614 749 514 613
          549 384 409 498 551 385
          411 500 551 385 411 500
          553 386 413 502 223 734
          747 610 225 737 748 612
          225 737 748 612 227 740
          749 614 596 618 264 263
          599 619 268 267 599 619
          268 267 602 620 272 271
          507 606 609 508 510 607
          611 511 510 607 611 511
          513 608 613 514 582 507
          509 562 583 510 512 564
          583 510 512 564 584 513
          515 566 113 621 27 26
          116 622 31 30 116 622
          31 30 119 623 35 34
          112 615 624 113 115 616
          625 116 115 616 625 116
          118 617 626 119 609 606
          568 567 611 607 570 569
          611 607 570 569 613 608
          572 571 112 111 618 596
          115 114 619 599 115 114
          619 599 118 117 620 602
          113 624 627 621 116 625
          628 622 116 625 628 622
          119 626 629 623 111 348
          264 618 114 350 268 619
          114 350 268 619 117 352
          272 620 27 621 627 630
          31 622 628 631 31 622
          628 631 35 623 629 632
          633 27 630 634 635 31
          631 636 635 31 631 636
          637 35 632 638 639 633
          634 640 641 635 636 642
          641 635 636 642 643 637
          638 644 645 639 640 646
          647 641 642 648 647 641
          642 648 649 643 644 650
          651 415 27 633 652 417
          31 635 652 417 31 635
          653 419 35 637 654 651
          633 639 655 652 635 641
          655 652 635 641 656 653
          637 643 657 654 639 645
          658 655 641 647 658 655
          641 647 659 656 643 649
          660 222 415 651 661 224
          417 652 661 224 417 652
          662 226 419 653 663 660
          651 654 664 661 652 655
          664 661 652 655 665 662
          653 656 666 663 654 657
          667 664 655 658 667 664
          655 658 668 665 656 659
          669 219 222 660 670 220
          224 661 670 220 224 661
          671 221 226 662 672 669
          660 663 673 670 661 664
          673 670 661 664 674 671
          662 665 675 672 663 666
          676 673 664 667 676 673
          664 667 677 674 665 668
          750 732 219 669 751 735
          220 670 751 735 220 670
          752 738 221 671 678 750
          669 672 679 751 670 673
          679 751 670 673 680 752
          671 674 681 678 672 675
          682 679 673 676 682 679
          673 676 683 680 674 677
          684 753 750 678 685 754
          751 679 685 754 751 679
          686 755 752 680 687 684
          678 681 688 685 679 682
          688 685 679 682 689 686
          680 683 690 756 753 684
          691 757 754 685 691 757
          754 685 692 758 755 686
          693 690 684 687 694 691
          685 688 694 691 685 688
          695 692 686 689 696 759
          756 690 697 760 757 691
          697 760 757 691 698 761
          758 692 699 696 690 693
          700 697 691 694 700 697
          691 694 701 698 692 695
          702 762 759 696 703 763
          760 697 703 763 760 697
          704 764 761 698 705 702
          696 699 706 703 697 700
          706 703 697 700 707 704
          698 701 708 645 646 709
          710 647 648 711 710 647
          648 711 712 649 650 713
          765 708 709 766 767 710
          711 768 767 710 711 768
          769 712 713 770 714 657
          645 708 715 658 647 710
          715 658 647 710 716 659
          649 712 771 714 708 765
          772 715 710 767 772 715
          710 767 773 716 712 769
          717 666 657 714 718 667
          658 715 718 667 658 715
          719 668 659 716 774 717
          714 771 775 718 715 772
          775 718 715 772 776 719
          716 773 720 675 666 717
          721 676 667 718 721 676
          667 718 722 677 668 719
          777 720 717 774 778 721
          718 775 778 721 718 775
          779 722 719 776 723 681
          675 720 724 682 676 721
          724 682 676 721 725 683
          677 722 780 723 720 777
          781 724 721 778 781 724
          721 778 782 725 722 779
          783 687 681 723 784 688
          682 724 784 688 682 724
          785 689 683 725 786 783
          723 780 787 784 724 781
          787 784 724 781 788 785
          725 782 789 693 687 783
          790 694 688 784 790 694
          688 784 791 695 689 785
          792 699 693 789 793 700
          694 790 793 700 694 790
          794 701 695 791 795 705
          699 792 796 706 700 793
          796 706 700 793 797 707
          701 794
        </DataArray>
        <DataArray type="Int64" Name="offsets" format="ascii" RangeMin="8" RangeMax="3632">
          8 16 24 32 40 48
          56 64 72 80 88 96
          104 112 120 128 136 144
          152 160 168 176 184 192
          200 208 216 224 232 240
          248 256 264 272 280 288
          296 304 312 320 328 336
          344 352 360 368 376 384
          392 400 408 416 424 432
          440 448 456 464 472 480
          488 496 504 512 520 528
          536 544 552 560 568 576
          584 592 600 608 616 624
          632 640 648 656 664 672
          680 688 696 704 712 720
          728 736 744 752 760 768
          776 784 792 800 808 816
          824 832 840 848 856 864
          872 880 888 896 904 912
          920 928 936 944 952 960
          968 976 984 992 1000 1008
          1016 1024 1032 1040 1048 1056
          1064 1072 1080 1088 1096 1104
          1112 1120 1128 1136 1144 1152
          1160 1168 1176 1184 1192 1200
          1208 1216 1224 1232 1240 1248
          1256 1264 1272 1280 1288 1296
          1304 1312 1320 1328 1336 1344
          1352 1360 1368 1376 1384 1392
          1400 1408 1416 1424 1432 1440
          1448 1456 1464 1472 1480 1488
          1496 1504 1512 1520 1528 1536
          1544 1552 1560 1568 1576 1584
          1592 1600 1608 1616 1624 1632
          1640 1648 1656 1664 1672 1680
          1688 1696 1704 1712 1720 1728
          1736 1744 1752 1760 1768 1776
          1784 1792 1800 1808 1816 1824
          1832 1840 1848 1856 1864 1872
          1880 1888 1896 1904 1912 1920
          1928 1936 1944 1952 1960 1968
          1976 1984 1992 2000 2008 2016
          2024 2032 2040 2048 2056 2064
          2072 2080 2088 2096 2104 2112
          2120 2128 2136 2144 2152 2160
          2168 2176 2184 2192 2200 2208
          2216 2224 2232 2240 2248 2256
          2264 2272 2280 2288 2296 2304
          2312 2320 2328 2336 2344 2352
          2360 2368 2376 2384 2392 2400
          2408 2416 2424 2432 2440 2448
          2456 2464 2472 2480 2488 2496
          2504 2512 2520 2528 2536 2544
          2552 2560 2568 2576 2584 2592
          2600 2608 2616 2624 2632 2640
          2648 2656 2664 2672 2680 2688
          2696 2704 2712 2720 2728 2736
          2744 2752 2760 2768 2776 2784
          2792 2800 2808 2816 2824 2832
          2840 2848 2856 2864 2872 2880
          2888 2896 2904 2912 2920 2928
          2936 2944 2952 2960 2968 2976
          2984 2992 3000 3008 3016 3024
          3032 3040 3048 3056 3064 3072
          3080 3088 3096 3104 3112 3120
          3128 3136 3144 3152 3160 3168
          3176 3184 3192 3200 3208 3216
          3224 3232 3240 3248 3256 3264
          3272 3280 3288 3296 3304 3312
          3320 3328 3336 3344 3352 3360
          3368 3376 3384 3392 3400 3408
          3416 3424 3432 3440 3448 3456
          3464 3472 3480 3488 3496 3504
          3512 3520 3528 3536 3544 3552
          3560 3568 3576 3584 3592 3600
          3608 3616 3624 3632
        </DataArray>
        <DataArray type="UInt8" Name="types" format="ascii" RangeMin="12" RangeMax="12">
          12 12 12 12 12 12
          12 12 12 12 12 12
          12 12 12 12 12 12
          12 12 12 12 12 12
          12 12 12 12 12 12
          12 12 12 12 12 12
          12 12 12 12 12 12
          12 12 12 12 12 12
          12 12 12 12 12 12
          12 12 12 12 12 12
          12 12 12 12 12 12
          12 12 12 12 12 12
          12 12 12 12 12 12
          12 12 12 12 12 12
          12 12 12 12 12 12
          12 12 12 12 12 12
          12 12 12 12 12 12
          12 12 12 12 12 12
          12 12 12 12 12 12
          12 12 12 12 12 12
          12 12 12 12 12 12
          12 12 12 12 12 12
          12 12 12 12 12 12
          12 12 12 12 12 12
          12 12 12 12 12 12
          12 12 12 12 12 12
          12 12 12 12 12 12
          12 12 12 12 12 12
          12 12 12 12 12 12
          12 12 12 12 12 12
          12 12 12 12 12 12
          12 12 12 12 12 12
          12 12 12 12 12 12
          12 12 12 12 12 12
          12 12 12 12 12 12
          12 12 12 12 12 12
          12 12 12 12 12 12
          12 12 12 12 12 12
          12 12 12 12 12 12
          12 12 12 12 12 12
          12 12 12 12 12 12
          12 12 12 12 12 12
          12 12 12 12 12 12
          12 12 12 12 12 12
          12 12 12 12 12 12
          12 12 12 12 12 12
          12 12 12 12 12 12
          12 12 12 12 12 12
          12 12 12 12 12 12
          12 12 12 12 12 12
          12 12 12 12 12 12
          12 12 12 12 12 12
          12 12 12 12 12 12
          12 12 12 12 12 12
          12 12 12 12 12 12
          12 12 12 12 12 12
          12 12 12 12 12 12
          12 12 12 12 12 12
          12 12 12 12 12 12
          12 12 12 12 12 12
          12 12 12 12 12 12
          12 12 12 12 12 12
          12 12 12 12 12 12
          12 12 12 12 12 12
          12 12 12 12 12 12
          12 12 12 12 12 12
          12 12 12 12 12 12
          12 12 12 12 12 12
          12 12 12 12 12 12
          12 12 12 12 12 12
          12 12 12 12 12 12
          12 12 12 12 12 12
          12 12 12 12 12 12
          12 12 12 12 12 12
          12 12 12 12 12 12
          12 12 12 12
        </DataArray>
      </Cells>
    </Piece>
  </UnstructuredGrid>
</VTKFile>
