<?xml version="1.0"?>
<VTKFile type="UnstructuredGrid" version="0.1" byte_order="LittleEndian" header_type="UInt32" compressor="vtkZLibDataCompressor">
  <UnstructuredGrid>
    <Piece NumberOfPoints="819" NumberOfCells="454">
      <PointData>
        <DataArray type="Int32" Name="libmesh_node_id" format="ascii" RangeMin="2316" RangeMax="5735">
          2316 2317 2318 2319 2320 2321
          2322 2323 2324 2325 2326 2327
          2433 2434 2435 2436 2437 2438
          2439 2440 2441 2442 2443 2444
          2598 2599 2600 2601 2602 2603
          2643 2644 2645 2646 2647 2648
          2649 2650 2651 2709 2710 2711
          2712 2713 2714 2715 2716 2717
          2718 2719 2720 2766 2767 2768
          2769 2770 2771 2772 2773 2774
          2775 2776 2777 2808 2809 2810
          2811 2812 2813 2814 2815 2816
          2817 2818 2819 2852 2853 2856
          2857 2860 2861 2970 2971 2973
          2974 2976 2977 2991 2994 2995
          2998 2999 3002 3081 3082 3083
          3084 3085 3086 3087 3088 3089
          3090 3091 3092 3187 3190 3193
          3241 3243 3245 3270 3271 3272
          3312 3313 3314 3315 3316 3317
          3495 3496 3497 3498 3499 3500
          3501 3502 3503 3504 3505 3506
          3765 3766 3767 3768 3769 3770
          3852 3853 3854 4470 4471 4472
          4584 4585 4586 4587 4588 4589
          4635 4636 4637 4638 4639 4640
          4641 4642 4643 4644 4645 4646
          4659 4660 4661 4662 4663 4664
          4722 4723 4724 4782 4783 4784
          4791 4792 4793 4794 4795 4796
          4797 4798 4799 4812 4813 4814
          4815 4816 4817 4818 4819 4820
          4833 4834 4835 4836 4837 4838
          4848 4849 4850 4851 4852 4853
          4896 4897 4898 4899 4900 4901
          4911 4912 4913 4935 4936 4937
          4938 4939 4940 4944 4945 4946
          4947 4948 4949 4950 4951 4952
          4953 4954 4955 4956 4957 4958
          4992 4993 4994 5007 5008 5009
          5010 5011 5012 5013 5014 5015
          5016 5017 5018 5019 5020 5021
          5025 5026 5027 5028 5029 5030
          5040 5041 5042 5043 5044 5045
          5055 5056 5057 5073 5074 5075
          5079 5080 5081 5088 5089 5090
          5094 5095 5096 5103 5104 5105
          5151 5152 5153 5160 5161 5162
          5169 5170 5171 5178 5179 5180
          5187 5188 5189 5202 5203 5204
          5205 5206 5207 5208 5209 5210
          5211 5212 5213 5214 5215 5216
          5217 5218 5219 5220 5221 5222
          5223 5224 5225 5226 5227 5228
          5229 5230 5231 5232 5233 5234
          5235 5236 5237 5238 5239 5240
          5241 5242 5243 5244 5245 5246
          5247 5248 5249 5253 5254 5255
          5256 5257 5258 5259 5260 5261
          5262 5263 5264 5265 5266 5267
          5268 5269 5270 5271 5272 5273
          5274 5275 5276 5280 5281 5282
          5283 5284 5285 5286 5287 5288
          5289 5290 5291 5292 5293 5294
          5295 5296 5297 5298 5299 5300
          5301 5302 5303 5307 5308 5309
          5310 5311 5312 5313 5314 5315
          5316 5317 5318 5319 5320 5321
          5322 5323 5324 5325 5326 5327
          5328 5329 5330 5334 5335 5336
          5337 5338 5339 5340 5341 5342
          5343 5344 5345 5346 5347 5348
          5349 5350 5351 5352 5353 5354
          5355 5356 5357 5358 5359 5360
          5361 5362 5363 5364 5365 5366
          5367 5368 5369 5370 5371 5372
          5373 5374 5375 5376 5377 5378
          5379 5380 5381 5382 5383 5384
          5385 5386 5387 5388 5389 5390
          5391 5392 5393 5394 5395 5396
          5397 5398 5399 5400 5401 5402
          5403 5404 5405 5406 5407 5408
          5409 5410 5411 5412 5413 5414
          5415 5416 5417 5418 5419 5420
          5421 5422 5423 5424 5425 5426
          5427 5428 5429 5430 5431 5432
          5433 5434 5435 5436 5437 5438
          5439 5440 5441 5442 5443 5444
          5445 5446 5447 5448 5449 5450
          5451 5452 5453 5454 5455 5456
          5457 5458 5459 5460 5461 5462
          5463 5464 5465 5466 5467 5468
          5469 5470 5471 5472 5473 5474
          5475 5476 5477 5478 5479 5480
          5481 5482 5483 5484 5485 5486
          5487 5488 5489 5490 5491 5492
          5493 5494 5495 5496 5497 5498
          5499 5500 5501 5502 5503 5504
          5505 5506 5507 5508 5509 5510
          5511 5512 5513 5514 5515 5516
          5517 5518 5519 5520 5521 5522
          5523 5524 5525 5526 5527 5528
          5529 5530 5531 5532 5533 5534
          5535 5536 5537 5538 5539 5540
          5541 5542 5543 5544 5545 5546
          5547 5548 5549 5550 5551 5552
          5553 5554 5555 5556 5557 5558
          5559 5560 5561 5562 5563 5564
          5565 5566 5567 5568 5569 5570
          5571 5572 5573 5574 5575 5576
          5577 5578 5579 5580 5581 5582
          5583 5584 5585 5586 5587 5588
          5589 5590 5591 5592 5593 5594
          5595 5596 5597 5598 5599 5600
          5601 5602 5603 5604 5605 5606
          5607 5608 5609 5610 5611 5612
          5613 5614 5615 5616 5617 5618
          5619 5620 5621 5622 5623 5624
          5625 5626 5627 5628 5629 5630
          5631 5632 5633 5634 5635 5636
          5637 5638 5639 5640 5641 5642
          5643 5644 5645 5646 5647 5648
          5649 5650 5651 5652 5653 5654
          5655 5656 5657 5658 5659 5660
          5661 5662 5663 5664 5665 5666
          5667 5668 5669 5670 5671 5672
          5673 5674 5675 5676 5677 5678
          5679 5680 5681 5682 5683 5684
          5685 5686 5687 5688 5689 5690
          5691 5692 5693 5694 5695 5696
          5697 5698 5699 5700 5701 5702
          5703 5704 5705 5706 5707 5708
          5709 5710 5711 5712 5713 5714
          5715 5716 5717 5718 5719 5720
          5721 5722 5723 5724 5725 5726
          5727 5728 5729 5730 5731 5732
          5733 5734 5735
        </DataArray>
        <DataArray type="Float64" Name="resid_x" format="ascii" RangeMin="-0.0016052618296642507" RangeMax="20.26163746921548">
          -0.00002766482415594851 -0.00003574052843902109 -0.000015500710602633916 -0.00001388333874974279 -0.00005025722137919075 -0.0000655500498449868
          -0.000025724263987614293 -0.000022101929361806327 -0.0000479060042195556 -0.00005583643626216883 -0.000016991404263144716 -0.000015352169475679744
          -0.00000592056132786567 -0.000005532925861473359 -0.000007637950850902797 -0.000008884301682110518 -0.000007191717311449963 -0.00000659035269467978
          -0.000008756873282056432 -0.000010675582708952192 -0.000003662549776795032 -0.000003497042107447612 -0.0000041039212352878 -0.000004684165871404744
          -0.000004871757425473078 -0.000005803307726953699 -0.00002060859684949179 -0.00001837534680684816 -0.00001572911628011653 -0.00000981596484003755
          -0.000002763884682011053 -0.0000020796757365104668 -0.0000013589998024698957 -0.000003255238857136078 -0.0000015491137137502164 -0.000012638893165828335
          -0.0000030249254505676504 -1.1835463809006797e-7 -0.000007025955936157402 -0.000007132153461666957 -0.000005868419994836671 -0.000007466776318354462
          -0.000007963346234429736 -0.000009344693147922412 -0.000006394816871146958 -0.000008695354048793291 -0.000009806000668355352 -0.000003351618469427109
          -0.000002119612305895302 -6.37623581933866e-7 -0.0000010510710382050092 -0.0000066937750857754 -0.000007293779508144027 -0.000003863813442084307
          -0.000004608893152457938 -0.000007815282798473433 -0.0000061701005029668465 -0.000005536287392304828 -0.000010355108080783992 -1.7908897853580186e-7
          0.000001935599779789854 7.947864442137131e-7 -2.800925296142509e-7 -5.199964094870779e-7 -0.0000022458422122006994 9.646799932205852e-7
          -0.0000037887663504321267 -0.0000036437044950154984 -0.0000037997511581622234 -6.772736009796887e-7 -9.008848129710145e-7 -0.0000012710025156792426
          -0.0000051708292447827375 -0.000020737104970081077 -0.00001883933298874041 0.000006048813381287488 0.000004066496743337922 0.000005475079272621031
          0.0000037182012428971234 5.1084610319662715e-8 0.0000011097677092841707 0.000004433213684151838 0.000005441521636839752 -0.000001910641018287862
          0.000012753426510414556 -0.000004931578621469868 0.0000020015864246047954 -0.000002192133115919148 -0.000006308625096096421 -0.000005771054301995093
          -0.000009252523170744098 -8.657319399141272e-7 -0.000004874722811187837 -8.006465903598325e-7 -0.000005165283029684442 -0.0000062783410867961464
          -0.0000024234031367753595 -0.000005021855971953926 -0.000006192685970768386 -0.000009801741357007288 -0.000008832086458715471 -0.0000022020869838712542
          -0.000003281897545226453 -0.000005773598631630961 -0.0000035050557894433787 0.000010290177134830714 0.00001280083402832588 0.000005442246191478262
          -1.7019710174537295e-7 0.000005714930669142859 0.0000016701226441817596 0.0000049795014511744284 0.000010156217137957668 9.723971974295864e-7
          -0.0000031657126587925077 -0.000005029909764919793 -0.000010292277438039843 -0.000007438162940021087 -0.000005875748847583573 -0.000004163796115452811
          0.00000263321147819795 -0.000004176872807182264 -0.000004882050718357789 0.000001578988237938006 0.000010727586381875653 -0.0000046539233142794956
          -0.000005802219831707589 0.000009023540977537436 0.000006735356405052073 5.970097749496972e-8 -0.0000019210650523682204 0.000006026452804341886
          -0.0000027246378744294475 -0.0000012624301883590316 -0.000011357510775411583 -0.000012040882514191553 -0.000005361466849151952 -0.0000033394074021864117
          0.000002811504092647965 0.000010689011268993909 0.0000050646885374483475 -1.825556534829076e-7 -0.000005322066826130012 4.440056362575717e-7
          -0.0000016384204228891974 -0.0000012979474361962673 2.9961195036065646e-7 2.2071464700346155e-7 -0.000001554885493249003 -0.0000019856033672827067
          -6.007171125532729e-7 -0.0000012521286911759688 -0.000005563448017997796 -0.000006890070845866347 -0.0000017301254979229519 -9.676522003676524e-7
          4.926614600719859e-7 7.698864639138492e-7 -0.00000328809545191433 -0.000002001838574017256 2.832030820965059e-7 0.0000010419685843032767
          -0.000005913860524842107 -0.000007526811363067765 -0.000003429092493512087 0.0000026743123051620188 -0.0000013902804010257341 0.0000019678664699984694
          1.2990514364208394e-7 -0.0000034230215594788227 -5.146449469639602e-7 0.0000022292870445195234 -0.000004515778027625039 -3.0367510217566007e-7
          -0.000001006440763839933 -0.000001929616006535184 -8.331415781714924e-7 0.000016602315557001646 -0.000001192707413277816 0.000038379349406092444
          0.0000025886941603658897 0.000018910516614845108 0.0000013805806684530353 -0.0000018735535394220904 -0.000010380164011003501 -0.000004567380168296609
          -0.0000016660861548167816 -0.000004379967035395005 -0.000008358824050258562 -0.000006751597886989202 -0.000004353311290561379 -0.000003527193630503689
          0.000001944373007045641 -0.0000011776729345047698 -0.000004123686150325767 -0.000005235344103571293 -0.000002266364051539682 -0.0000017843945974149733
          0.0000018941577955011724 -0.000001383037377733487 -0.000011938813737621956 -0.000010599260645838271 -0.000005744912086935727 -0.00000394269932613156
          1.3551603794681455e-7 -0.000004388547096167983 -0.000002764029115143174 0.0000034319878432498285 0.000005368131649419183 0.0000018467801874422207
          0.000003864715892198944 0.000004171426684962398 0.0000025813163366805725 -5.658057542490269e-7 -0.0000017030276473484207 -0.000006722308999229654
          -0.000004793095452537699 -0.000002675782412087102 -0.000002796057541942787 -0.00000486947256339576 0.000015126068689363947 -0.0000057984129426813524
          0.00003564253513133053 -0.0000012750592670585092 0.000018169758697172966 3.5984866153526696e-7 5.845728610065493e-7 -0.0000010712353915032224
          -0.000005480500040677683 -0.0000044012212083721636 -0.000003567231063872356 -0.0000016391491497458333 1.2635029400520637e-7 5.093389707777618e-7
          0.00002194133401633991 0.000040592670233596806 0.000020887914496059423 0.000002206272740501447 -3.355468547461271e-7 -0.000006011445099041168
          -0.000006210126439532004 -0.0000025793453160005697 -0.0000025381809296565194 -0.0000013784171928321598 -0.0000036660829065837675 -0.000011156838042092332
          -0.0000070172334138973724 -0.0000036691594798021754 -0.000008282039662965701 0.000023282965198268002 0.00004168863932796363 0.000020818219642837477
          0.0000016212708029428313 -0.000003765000786914996 -0.0000021084216710320902 9.32826847321877e-7 -0.000002862589167040852 -0.000002197906747714029
          0.000026262568816548537 0.00002392224304248458 0.000052354973211876654 0.00004950684143745221 0.000026709471466768164 0.00002547781905049007
          0.000025190378961648108 0.000045309378972513414 0.000022829361625564815 0.000029657618489498105 0.00005585979080025005 0.000027975205066921305
          0.0000029982535050265824 -0.000004767356464707717 -0.000002908224143727267 0.00003192772295612656 0.00005960911331159835 0.00002811480152997703
          0.00003109478377560926 0.00005903174259014321 0.000024917351116204856 0.00007210990587314114 0.0001379045816980451 0.00005697061766962719
          0.000011608736514290285 0.00001914800550295581 -0.000007028531594954757 0.00000170793034470762 -0.00000692785899758519 -0.00003032149635373571
          -0.0000172365473574132 -0.00004844954180782679 -0.00006339579966407882 -0.00004616541377089334 -0.00010314553185608588 -0.00010745294223113433
          0.00012141042478841513 0.00023573025048406748 0.000081578328201104 0.000016803647973517855 0.000005257523381985152 0.00003736881924609747
          0.000017734725073381696 0.00006200409563916764 0.00002528824637959559 0.000011696272368411087 0.0000019117649507904844 0.000030010421222748107
          0.000010244331638098458 0.0000633262913636301 0.000027244606789267323 0.000020131560368064072 0.000006125190183503548 0.000024956705080292352
          0.000006648540265885572 0.00007218674226017185 0.000031914143101552384 0.000019010746705738768 0.000005768851022658339 0.0000196293952052784
          0.0000046271755547167 0.000069578151491001 0.000028700460060093747 0.000013179991404044245 0.0000015333132559192109 0.000016432607372607322
          0.000003201197397828537 0.0000716710387003161 0.000029412519495508604 0.000011343563778964949 0.0000010608365990094626 0.00001540318805126617
          0.0000019196776177565766 0.00007352545809169442 0.000031019875526894225 0.000010224690213611609 0.0000026471225487156858 0.000016774795710716717
          0.0000023469616250437753 0.00007532482054095624 0.000032156949787420785 0.000010912798613205155 -1.691671167591835e-7 0.000015190785184415745
          0.000003274038610889818 0.00006955495312066517 0.00003262903169964915 0.00001867711604219835 0.00004194677867630503 0.00005973893787647455
          0.00001772352754692008 0.0000346704235605344 0.00006656896216750141 0.000024472590952839823 0.000030314436105349785 0.00007621812308578058
          0.00002319013340201792 0.00002488396309452412 0.00007743372001289828 0.000019502563775475323 0.000022223419377631615 0.00008116886158404668
          0.00001878195670812488 0.000021562779468631277 0.00008253439686978226 0.00001818005387121957 0.00002374004491922932 0.000076999674348599
          0.000012719476883304992 0.000021018193978150634 0.00006932291755834541 0.000023351300825424914 0.000045618915940792704 0.00006236210870369518
          0.000022257783751644666 0.00004334937417560525 0.00007183204331040471 0.00002902532710225003 0.00003955680173106657 0.00008122468933491334
          0.00002520448701215372 0.00003623669519203787 0.00008577766999984249 0.000022544615360331477 0.000033884336832823436 0.00008976376373492911
          0.00002284625198623047 0.00003326044835727515 0.00008777530327552796 0.00001706018587466218 0.00003589857484165293 0.00008818857301484684
          0.0000163546072826648 0.00003168105910589247 0.00007699964814911198 0.00002950357632869327 0.00005943217712456317 0.00006843862875172135
          0.000029071360424293147 0.00005714525181055308 0.00008083718546547658 0.00003613537391311539 0.000057556989997209484 0.00009280868464500713
          0.000030011946863695016 0.00005571510018231862 0.00010245833519828551 0.000026791548099591722 0.000053729722894857446 0.0001086012628142008
          0.000025291151400708145 0.00005231596748034306 0.0001097826395173307 0.000022008448940180614 0.000053729904975874376 0.00010753770487870185
          0.000021263391930759212 0.000046403813698248086 0.00009042251999247242 0.000038282817060419916 0.00007158954369756998 0.00007250836971017804
          0.00003963866068135147 0.00007925241179673748 0.00009577312423614259 0.000047944643903452544 0.00008717512716271969 0.00012083714823329927
          0.00004538901969919351 0.00009003247847916285 0.00013978361045285936 0.00004472050053561105 0.00008744261499549211 0.00014987292809864883
          0.00004005419970631863 0.00008115238121986224 0.00014974118700106231 0.000038023956475452536 0.00007555485256371952 0.0001314365184308386
          0.00002853829404347863 0.00006072504697307579 0.00010730474173836768 0.000031503976712699 0.0000548127441337698 0.000032382623116333775
          0.000040495296528497704 0.00008501461486432049 0.00007982807151218907 0.00005675060658916209 0.00011561036335550057 0.00012435295656310075
          0.00007254015013336002 0.00014076591363609836 0.0001700974333598282 0.00008031563367705274 0.0001511756366729955 0.00020158766278299822
          0.00007909816985574025 0.00014397276993349806 0.00020775369331804683 0.00006522592368751745 0.00012168342157226064 0.0002008247129072771
          0.0000507593984826471 0.00009561779215205846 0.00015887042499773685 0.00003404471875700921 0.0000647341360737741 0.00011813991621067998
          0.000012244040014763868 0.00003613764951992948 0.000003682859306408659 0.00004740621573962045 0.00010211624074507597 0.00008355712942087479
          0.00008982971098348003 0.00018070268833980663 0.00017295163589370333 0.00012284168859011402 0.00023773792462566945 0.00024787036703077803
          0.00013821953086567973 0.00025993226180398565 0.0002890082357573931 0.00012695089393988113 0.00023894930208934184 0.0002927083053325674
          0.0000918870371604541 0.00017711836746681087 0.0002685513458811073 0.000050928913361669714 0.0000947798002943756 0.00018078182085412564
          0.00001898500131414238 0.00003275467920627051 0.00011303664875761399 -0.000024041660710238943 -0.00004419590214510549 -0.00006890590310781874
          0.00006355073271091527 0.00013179062140000752 0.00009542698408271377 0.00015182514798262048 0.0002999756883053095 0.00025999750302663216
          0.0002111754052380732 0.000412699903806768 0.00037852339138844115 0.00023156490871478752 0.0004506362513647666 0.0004377281086909157
          0.00020611117522673084 0.000401941786674076 0.0004279115547158874 0.00013967951818827373 0.00027119605959669 0.00036436847038423537
          0.00003248224915575193 0.0000617408701817368 0.0001740473743239157 -0.00004264418285115923 -0.00008496113364175883 0.00004342106911447985
          -0.00011361607823268116 -0.00022107201714227642 -0.000166023210072197 -0.0003527996091543528 -0.000702147701678868 -0.00033584838313238663
          -0.0005781217193892019 -0.0011568685221430286 -0.0005034744929917068 -0.0007380600898905243 -0.0014775670853923728 -0.0006224148114188921
          -0.0008015175568756305 -0.0016052618296642507 -0.0006620101146674884 -0.0007569328812460085 -0.0015178695675244214 -0.0006107796811836153
          -0.0006152431277568482 -0.0012336780345871823 -0.00047259438608637794 -0.0004153350581415083 -0.0008347642167305658 -0.0003267788694358842
          -0.00023254774532888156 -0.00045706868502315423 -0.0001929190660225899 0.0000052274535775609365 0.000013476618189400824 9.436784154104316e-7
          0.000011741573413104334 0.000027391537899212892 0.00005780949980938033 0.000012109108791236167 0.00001516407627200067 0.00005804035356771209
          0.000016823870266691188 0.000025585531560956554 0.0000611406419652738 0.00002282966845257306 0.00003795860696076403 0.00007724848645818128
          0.000023499540517057937 0.00004746502541230768 0.00008491942759203397 0.000025383370660492233 0.00004487587927748393 0.00008879130572658767
          0.000011897042875297359 0.000013194949305628256 0.00007144980870243955 -0.00004783028946553358 -0.00009204476631330394 -0.0000011445196399506585
          -0.00011316812106265672 -0.00021457894470566785 -0.00011936030155368371 0.000011449518734885089 0.00002302719449787105 6.869987734248184e-7
          0.000011879483984067463 0.000020060865584703436 0.00005053526519382956 0.000017707355024043636 0.00001567826708548381 0.00005036062642194139
          0.000019260713469471114 0.000025039006239069295 0.000048407395765615036 0.00002336880373388084 0.00003503301813356785 0.00005691800914142675
          0.000029450045799350733 0.00004347493654766055 0.00006305098185421798 0.000024284994744050437 0.00004051493194534572 0.00005524832285441761
          0.000011559409048178537 0.000012676073070316818 0.00002837870420568933 -0.000042411277854093044 -0.00008408483705224512 -0.00006674350918300931
          -0.00008273556396476422 -0.00015714634443098063 -0.00012199634587028996 0.00000715587607125201 0.00001850221439703148 7.575783085300714e-7
          0.00001167800829637855 0.000014575219932311256 0.000046690429369888875 0.000019755385712194595 0.000015579222479189525 0.00004292503350900034
          0.000016458041677047675 0.000023233437449476924 0.000036770928318219376 0.000025242037520634142 0.00003351606338508617 0.000043753096927723334
          0.000026325925400527694 0.00004064070515852336 0.00005085059604681419 0.000022893118645228583 0.000035976920448987926 0.00003747591374914094
          0.0000039865225724966535 0.000004026484002217501 0.000008311498588930988 -0.00004144766534475153 -0.00008262816164794629 -0.0000682834963412482
          -0.00006435723091913204 -0.0001156628344158861 -0.00009706421127742004 2.4433248313471267e-8 0.000019483755759885923 2.1926027926610914e-7
          0.000011108811198035085 0.000007019701260269073 0.000026452843123081493 0.000015136518541680744 0.000014558403443665213 0.00002583401566802479
          0.000005739260496184784 0.000019106109711231056 0.000018362917697523073 0.000011167955267232799 0.000028654602854949474 0.0000347370640483291
          0.000019815564090031046 0.00003600357003730181 0.00003369158147847884 0.000014079769090180605 0.00002940423870967379 0.000024892052810976395
          0.000005906873174588156 -0.000004843156511391555 -9.417846902337601e-7 -0.000039524365392118455 -0.00007820869954411336 -0.00006996595105812631
          -0.00004683437378005806 -0.00008547549214155126 -0.00007335073439218576 -0.000004071239701808338 0.000006725173314237054 -8.691205488631226e-7
          0.00000843065389499742 0.000006806993076757806 0.00002075444550264649 0.0000053862296267581655 0.000011884161906117185 0.00001551703132918192
          -0.0000030527596948104474 0.00001304891937259356 0.00002275438240761929 0.000004144617083312596 0.000020327219156790477 0.000021325963460050446
          0.000015446698819587823 0.000030536143536430416 0.000031023909429883645 0.00000826827981015299 0.000021533708722820677 0.00001518777767195445
          3.8442912586589273e-7 -0.000006400323163902044 -0.000013103330839037142 -0.000024582208365320213 -0.00006687892577694754 -0.000060089586325418054
          -0.000035903296680128705 -0.00006425848190438899 -0.00005737595205346224 -0.0000014216860044768964 0.0000013934577136609505 0.000003160529925771982
          0.000016763019288212888 3.963480930124774e-7 0.000008511220181084411 0.000007607451644631169 0.000039951853753272815 0.000015629574370734645
          -0.000007664586852307309 0.00001002986127840444 0.000008372411571144767 0.000007021147208519096 0.00001570648881443759 0.000015720444439537573
          0.000010740574254874957 0.000027640714363563745 0.000021931825939347505 0.000007347505311727787 0.000014932200670614293 0.00001270515319529153
          0.000004072755698913966 0.000004441452704284643 -0.000002774640665670347 -0.000019771956301095628 -0.000040405249857933256 -0.00004157522579362194
          -0.00002209634216487899 -0.00004216767238363062 -0.000039095230278451965 -0.000009395507166942707 -3.0993691257918954e-7 -0.000006815301579088384
          0.000009134847743119678 -0.000005322425307596745 -0.00004622802118614544 0.0001703507020032191 0.0004064412910098625 0.000027251113252191317
          0.00004336563829987483 0.00009178883701377316 0.000020382780362204755 -0.00001193985243119755 0.000005469060595508779 -0.000033377715483950965
          0.000021395128294798837 0.00004090492961594805 0.0000035036715209102454 0.000014235197544287814 0.0000341298727581929 0.0000033914437738147285
          0.000015451477653805057 0.00003205124755689681 -0.0000107611402078156 0.00003130491571434746 0.00005579453569204418 0.0000031259882904421943
          0.000013016375862928697 0.000031931917185978875 0.000005361530533765091 0.0007470396519151379 0.0011453727625374555 0.0014863095985413466
          0.0022821533293146956 0.0009186911799003994 0.001054849569188221 0.00043006733607420244 0.0008395341500166964 -0.001000054244435944
          0.0007963363130256695 0.0015542795074310334 0.0006745660239220186 0.0001637391231117391 0.00031027685127948956 0.00019097629044217967
          0.000007814872668987505 0.000028677575439672864 0.000017231296745023883 0.00004939718219443279 0.00008141434379815848 -0.000026375949222945394
          0.00030882609086280155 0.0006154133971705278 -0.00017041105825477132 0.00026363259281803053 0.0005375138023353543 -0.000040248531980147106
          0.00005799451488597285 0.00012315567389542537 0.00005409981120951812 5.090555710720074 10.130768106004776 10.181144036805295
          20.26163746921548 5.090771852602982 10.131383928213296 9.976921676157833 19.95400600667163 9.977043763667952
          9.713103138258475 19.42627544404936 9.713054020826291 9.335716865696629 18.67149284232022 9.33624608642858
          8.849972240149171 17.699981881618015 8.850373897189307 8.287328398903501 16.57462614498633 8.287071629579033
          7.723651250000812 15.44718142132633 7.721864048986787 7.288966849760067 14.577697437359092 7.286182732263345
          3.5645120206563137 7.1288373032278525 3.5629659687435855
        </DataArray>
        <DataArray type="Float64" Name="resid_y" format="ascii" RangeMin="-1.336681043488334" RangeMax="1.5326962958115191">
          -0.000022006296263588077 -0.000010973269982172962 -0.0000034287586114685464 -0.000006339466035620855 -0.00004404484551689958 -0.00002121092990366169
          -0.000006312419702827685 -0.000010642362795708349 -0.000018335351437082092 -0.000006122694160400066 6.591026087496982e-7 5.346398999905855e-7
          -0.000002918777438187803 -0.000004665341062575802 -0.000007122123957717386 -0.000005828685047497284 -0.000005536780233985489 -0.000007685156149456543
          -0.000013806676169528243 -0.000010565487963680453 0.0000013681885297489593 0.000001133179816567402 -0.0000024245155591379186 -3.5242310583716296e-8
          -0.000004605880611227575 -0.0000013410785906341899 -0.000018803052724988834 -0.000011604708137654546 -0.000006824410319267171 -7.810749168592201e-7
          -0.000005985922867962623 -0.000011523332053550717 -0.000008799233558384745 -0.0000153139780730005 -0.00002230435432032385 -0.000021821761272813878
          -0.0000036248096184909873 -0.000006597698057900225 -0.000006299436856246898 -0.000001327373615592209 -7.294759745415588e-7 -0.0000015125905409550666
          -0.0000029165644920801925 -0.0000020468995800947826 -7.929087639749893e-7 -0.000002454078153448381 -8.958978301547293e-7 0.0000050738525661717104
          0.000003903394810962982 0.00001070954732267787 0.000011379369195332889 -3.755417345618819e-7 -5.514805893266916e-7 0.000005198868049379
          0.0000033553800102038844 -9.890746459971338e-7 -0.000001511802179686439 0.0000050459641521166144 -1.6109134328562424e-7 0.000001561348309188533
          0.0000023673807297208346 0.000008053390686157957 0.000005941407319201564 -0.0000018059606541331874 -0.0000025290829846688623 -0.00000178581173084294
          -0.000004356130019471816 -0.0000051288137344618345 -0.000009124323164681758 0.000003893901752797472 0.000003997933355127936 1.3426015417483672e-8
          -0.000017215008262683185 -0.00004010312645635894 -0.000014680568409086714 0.0000027364162135667947 0.00000588689973993195 -9.041346372695713e-7
          0.0000024923712178548385 5.9539176339162836e-8 0.000004222336767778501 -0.000012754063586806197 -0.000006246281197910125 -0.000031982225578208734
          -0.000014528249667682125 -0.000010775778803373548 -0.000005565525325223336 0.000009188368984116083 0.00000916317854323355 0.000007586089986530778
          0.000019714113131138675 0.000011198740250605195 0.00001434995138643435 0.000003026269132750531 -0.0000018575698763918097 -0.0000037268278213552046
          0.0000026896972194923735 -4.758250378451151e-7 -0.0000024072314730875025 -0.0000033473831051764958 -0.000001908698849388199 0.0000097697331802888
          0.000009163793656930506 0.000012007897635746192 0.000012593491729395029 0.000007295135891614846 0.000006833105288372998 0.00000496331127362859
          0.000017272092462264875 0.000037623594082438275 0.000022003502733213172 -0.0000031333046855985813 -0.000009690408130202943 -0.000006008756160413853
          -2.2859577470529802e-7 -0.000001099121872329134 -0.000006928711229876872 -0.000004283059643159226 0.000001052715240739549 0.000002990093086636947
          5.518239367258149e-7 -0.0000013742825326276686 -0.0000015378013287336428 4.538454210292753e-7 0.0000020591391219904054 -0.000001946622007087395
          -0.0000018526050204435707 7.102719185858586e-7 0.000006429315450119655 0.0000057806221179096395 0.000005992091600057203 0.000006801453938873325
          -0.000001244859499031914 -0.000003129789327571339 -0.0000046673023158042 -0.0000048227202936890895 0.000003696752551685112 0.000004073738457979065
          0.0000028396058277813108 0.000008907941203447484 0.000010689753130836699 0.000006272034460897552 0.0000017786515291483632 0.000008517073218583526
          0.000003087819715627549 0.000006207942460320116 0.0000036411581455578212 0.000008120481084127745 0.000004782087463614526 0.000004508490479233039
          0.000002046655922090853 9.173066181345467e-7 1.29654096631647e-7 -5.763801258855915e-7 0.000002009208925274732 0.000001626933547810034
          8.09434716486819e-7 0.000002075944046102396 -0.0000018370604490903705 0.0000018389703440174765 0.000006537943677054937 0.000005920656136713942
          0.0000022925227754870547 1.0744160204405329e-7 0.000008929099587199132 0.000005283327869365362 0.0000048779103116181055 0.000007507793776062588
          0.000008406556525689113 0.000003403935620410921 0.000011801136279429233 0.0000015466699263815692 -0.0000021795585769162143 0.00000440119612421519
          0.000006134805725662926 0.0000023734519959822675 0.000006586731334683182 -3.0967762131440656e-7 0.0000029776765000364726 0.000004723871784603588
          0.000005705069540905966 0.000006493945597519767 0.0000061711757998518 0.000003793123135739651 -0.000002470513149582798 0.000005079434744710565
          0.000004813013329503513 0.0000011638080339593931 -0.0000033975257490367894 -0.000004719998124986342 0.000005832215251744266 0.000005579670905197197
          0.000011439102872892737 0.0000075199984877951515 -7.253091066292128e-7 -0.0000011757211831617612 0.000008587447535048087 0.000008437875724981274
          2.2574098833619272e-7 -8.271483885585046e-8 -0.000002273489974780052 -0.0000010608240497422816 0.0000027470550929588333 0.000001993862118990393
          0.000007776999821237224 -7.530838680748497e-7 0.000005107576573890049 0.00001469540471621747 0.000011204506705077971 0.000008790021440278212
          0.00001178188162621191 0.000004544067880821179 0.000008684846698036458 0.000005748872089603521 0.0000044549069362050456 9.079707964133876e-8
          -3.160292921366298e-7 0.000008630129870085962 0.0000031447760925123677 -1.0926313419399453e-7 -7.721605269665147e-7 -2.2030466272993446e-7
          0.0000036667986893432203 0.000004765969721923311 0.00000639714644834824 0.000008472332202348349 0.0000035329923102952326 0.0000020673319786083597
          0.0000037351052868050353 -0.0000010654005389385685 -0.0000026311080317722307 0.00000808786516124987 0.000004923031855142215 0.000004033004659325084
          0.0000050686511386839866 0.000002629195800825509 0.0000044491202494329266 0.0000041817324869380945 0.000007937916781446591 -0.0000026628183420543405
          -0.0000026116791521068597 0.0000033274072401556776 0.0000036242044507247195 9.447974879724791e-7 0.0000015690602130601083 -0.0000010809812080398232
          4.5899642178715006e-7 0.000002650367279949384 0.0000023678710470258213 0.000004567693143191307 7.957041554863559e-7 0.000002284145042094404
          0.000013884522844250999 0.000006920352929484135 0.000007890323892858911 0.000003813878015093003 -0.0000010843899663492973 0.0000023418229222922637
          0.0000025763161391467726 0.000003102781199973469 7.204513713015073e-7 0.0000014906550906111388 9.144535793930916e-7 0.000001718191679924699
          0.000003599480443714073 0.0000014549351140594451 0.0000027220591933881794 0.000002419816528312444 9.616471196953469e-8 9.406539462995106e-7
          0.000006174986147203243 -0.00000190585202636262 0.0000023587075758876863 0.0000015613960029350546 -8.389400797731081e-7 2.5430053358661137e-7
          0.0000014193506031583841 -0.0000020303576437957424 -2.827848807028521e-7 5.840075517730969e-7 -0.000006719232268057734 -6.671501784627498e-7
          -0.000013833706755705596 -0.00003765891708061922 -0.000016605092235146002 -0.000023405248238850263 -0.00005412569111085119 -0.000025206859329329756
          -0.000026538513224538818 -0.000060841841471703795 -0.00002830927840380415 -0.000017607124873253444 -0.0000444561717707348 -0.00001636021945849997
          4.539677006115683e-7 -0.000013426119799403446 -0.000004908502001826909 0.000003127405670266814 -0.6683045539720929 0.00000626517279334049
          -1.336681043488334 0.000008613527911593977 -0.6697757957525037 0.0000037289279619101556 -0.5874528198978648 0.000007464319122685303
          -1.1749751751493083 0.000005368151754003847 -0.589064309989722 0.000005678930707575525 -0.4563082503516034 0.00000821921580262952
          -0.9126779748962248 0.000005756578372428933 -0.4579721307418581 0.0000059689899006565295 -0.2826833182889474 0.000008367449169571772
          -0.565412574975788 0.0000037034520953271866 -0.2842004883900481 0.000004521256791005512 -0.07978284946129151 0.000006907700971316155
          -0.15959033697351505 -5.717886948086726e-7 -0.08087790330197744 0.0000019112347529604 0.13621166823182945 0.000004677664825758487
          0.2724230744609816 -0.000002611583232101089 0.13582254597430515 6.879123162217837e-7 0.34905218859811077 0.0000025484022246335947
          0.6981261765936533 -0.0000027160954495508705 0.3495452305443595 8.507060170193093e-7 0.44912629977814356 0.0000010456456445706586
          0.8982778578228391 -0.000004687349232063154 0.4501592928025913 0.000010598649062609766 0.000008120605625328015 0.000013552284943096904
          0.0000092677671620911 0.000014215823368302072 0.0000121925219694341 0.00001171710445224683 0.000016215826279086798 0.000012049068924213646
          0.000010201976341467356 0.000016457989373636073 0.00000816939547232387 0.000004813626869243359 0.000013462623642962468 0.0000039119507031226686
          -5.352467500330249e-7 0.000009078789978279878 0.0000015403498233243496 2.4456587879861935e-7 0.0000045946452725403875 -3.4954257430164226e-7
          -7.030249259826205e-7 0.0000017734045335421333 -0.000004094337363619305 0.00001100300717155056 0.000013527830240334104 0.00001920390327614374
          0.0000141708920999295 0.000021610361555624014 0.000018977220933358296 0.000016882425942554846 0.000025350683882374714 0.000018949456315142665
          0.000015001888628379811 0.000026176669135125064 0.00001547238462223932 0.000009659213709739545 0.000022969200418054836 0.000011200161382618479
          0.000004500679484271963 0.000017054049463061105 0.000008566322081991068 0.000004197839083591726 0.000010589186608081502 0.000004752218789261242
          -6.619479003822093e-8 0.000006286940784042128 4.7658527283639396e-7 0.00001792595490607285 0.000012501698032352238 0.000020922826423575014
          0.000020146566285128564 0.000027451500957731412 0.0000248094593888748 0.00002478398715416441 0.000034139068395167005 0.000025675684989900915
          0.000022490776586059358 0.00003831123235831235 0.00002287466584249831 0.00001817800111594825 0.00003646173964336197 0.000018165457729757417
          0.000013378692546306414 0.000029951531482996785 0.000015062152199041279 0.000010649000418208598 0.000021409868656003042 0.000006947832286986061
          0.000005252371240146991 0.000014514142155683252 0.0000031882481164730025 0.000012883834032195729 0.000015263168035017927 0.000018761334241057526
          0.00002524975744477853 0.000029761125879379513 0.000026277050887091313 0.00003054793524703836 0.00004473870142773784 0.00003079772827052629
          0.000031611433625677865 0.00005527178208120098 0.000030499643996984016 0.00002893627873618021 0.00005907243227465386 0.000028934116647227892
          0.000024207631216410785 0.00005422304606730877 0.00002482588745619796 0.00001866934172975454 0.00004292141492619195 0.000016121016167797153
          0.000012474883446106366 0.000030001585969080535 0.00001022990969426485 -0.00001141392277836939 -0.000020054967833527115 1.5455910662431904e-8
          0.000009966217003998246 -8.484643427841831e-7 0.000010601738558602136 0.00002261966577721264 0.00002259237788526658 0.000021026779640775928
          0.00003399366047496244 0.00005168121264043091 0.00003431820559529619 0.00004155133590499904 0.0000805881481453774 0.00004501087803621129
          0.000045046998931486115 0.00010041571629321178 0.00005429501024245553 0.00004511164117609878 0.00010238858144850926 0.000054277267138913565
          0.000033852220976265945 0.00008596656269660441 0.000042539456184959024 0.000024592200159767597 0.00005901693864834856 0.000026409936230764597
          -0.000030358535954344568 -0.00006765525334873068 -0.000028882810739760956 -0.000011926602847101009 -0.00004860371617687598 -0.000013653932346313624
          0.000007867306449971245 -0.00000830900038939486 0.000008489687840840254 0.00003077557761599348 0.00005185706112686983 0.00004088572174787419
          0.000057086120203608814 0.00011949854759274459 0.00007856012641005439 0.00008112610291888256 0.0001754746697371079 0.00010736138047195976
          0.0000907188501500511 0.0001980128594309405 0.00011660712823979846 0.00007804193778909729 0.00017199745655077647 0.00009523601517846814
          0.000048132263614775184 0.00010510948468134274 0.00005040414519541514 -0.00007957640863465176 -0.0001763876385294516 -0.0000830238770217484
          -0.00007365953440319206 -0.00017207941609242994 -0.00007471577123630002 -0.000038831159741681276 -0.00009891544541429376 -0.00002875668986668245
          0.000015921351700587394 0.000023671439884909162 0.00004814463702329519 0.00008246132669276207 0.00016612027656304207 0.00013274322281331408
          0.000142117094591665 0.00029404797824761353 0.00020019842274665578 0.0001765649396190394 0.00036751994814787636 0.00023817427740424613
          0.00017485449605147974 0.0003632264740015545 0.00020987694706559035 0.00008104462161562243 0.00017284669854022994 0.00009584251884936501
          -0.00006954565572120375 -0.00016047897411564094 -0.00008667345138602123 -0.0001197140297551913 -0.00026424611442366075 -0.0001337029505187326
          -0.00018055969554919837 -0.0003808869588116659 -0.0001806405223296892 -0.0002405987387241737 -0.0004943901542349138 -0.00022282857669275735
          -0.0002797597042460964 -0.000567265047550114 -0.0002455953875293293 -0.0002820323806691505 -0.0005583740851797803 -0.0002329765457027566
          -0.00023149391225785187 -0.00044417278067010457 -0.00017182066075083213 -0.00010916370117297625 -0.00020736464868842397 -0.00007575177359719909
          -0.00003056573186066558 -0.00005657712625162237 -0.000029987326831570904 0.4695264338853058 -3.5327135050611247e-7 0.9390910625983031
          3.047482671769686e-8 0.47072824414232795 -0.000002511189534731839 -7.43173544703879e-7 1.468352263389594e-7 -0.0000014716643706724764
          -5.458053050494405e-7 0.000003352339910694946 -0.000003441910604043419 0.000002854937224308629 0.000008724995258859586 -0.000002457284789689207
          0.000005094518642390078 0.000018087586951237578 0.0000011612572625163686 0.000013457313146614247 0.00003184251587012854 0.000009222225677896212
          0.000019623236796939558 0.00004795608047442057 0.00001819729584695562 0.00002380748322611259 0.000056620854620659244 0.00002597423874856064
          -0.000005142730425511388 -0.000004605226223919345 -0.00001703362501531691 0.5446594033163998 0.000001953615800881492 1.0893636562774265
          9.346871532311951e-8 0.5460338785568628 -0.0000014324387565822772 0.000001398500642124656 0.0000014216291779334256 -0.000007246687741907509
          0.0000010094940784688422 0.000004756871731750878 -0.000006591005714623455 -0.0000013917654317100944 0.000010547949851131416 -0.0000019409889457280144
          0.000004218426622709659 0.000018458033159515774 0.0000010046455649198593 0.0000071133500660347515 0.00002691648862945817 0.0000040836305468250345
          0.000015660467229894337 0.00003952982772981173 0.000014675968088795344 0.000020638161259689536 0.00004474268649706792 0.000009180908947914457
          0.00001588144277270276 0.000029293063158131183 0.000002890702869684514 0.6083825296789889 5.674898117535854e-7 1.2168150727126013
          3.543524689231248e-7 0.6098712077009718 -2.5541804227202647e-9 0.0000010407565897430082 0.000003842258847086555 -0.000004062993439968299
          -0.000003269962898455603 0.000007197870905556458 -0.0000013266243433784908 0.000002556048052000659 0.000014935813271270415 0.0000021403705519895677
          0.000006090220207102814 0.000022717352979303995 0.000003492576223326771 0.000008873654831431654 0.000030864904616068056 0.000007552268631527692
          0.000017487397533932914 0.00004231645794855465 0.00001318268328109884 0.00002542444868777749 0.000039328312844671975 0.000008346819281052076
          0.000018675299381237798 0.00004224801969088254 0.000014206262423155369 0.6606109726561318 1.5949159765105136e-7 1.321275191628509
          4.331600184093176e-7 0.662171468400826 0.0000029652411229208475 0.000005241461436655825 0.000005074829351886523 0.0000020354531494737316
          0.0000049508633161443605 0.000010630053408011708 -0.000002711207046257602 0.000005711792081461442 0.000021937276075773005 0.00000732291136497365
          0.00001210870921027063 0.00003058545225100018 0.000008757011224762301 0.000015055036953953715 0.0000372911322465419 0.000015022639149819828
          0.00001864773402815434 0.00004442497917805932 0.000018898348429163825 0.000013764511486269448 0.000030245371900328166 0.000005044645875335041
          0.000025693213017263794 0.000052332717207753676 0.000022456154447653143 0.7017723056668574 0.000003606741283690429 1.4035975716529374
          -1.9209182811064096e-7 0.7033700109434045 -0.0000025312048821946043 0.000008566283378530493 0.000007079438864687759 -0.000007000818403546383
          0.0000030385822000489338 0.000011109203790132804 0.0000028914819087955124 0.000010152980972108483 0.0000333991840862774 0.000014229286370043281
          0.00001900291180663904 0.00003913987335244949 0.000018146095327159495 0.0000186363377194243 0.00004309334484273175 0.00002395312372696634
          0.00002717761276149755 0.00004495094174067349 0.00001771102529438129 0.00000591628666310462 0.000016153771153423757 0.0000036146020066102347
          0.000031463853690863464 0.00006373884786134432 0.000029528049945909407 0.7325762861477052 4.806606568319438e-8 1.4652078366460923
          0.000002360991947836233 0.7341915524099045 -0.000012732859033359745 0.0000046986891751310544 0.0000211454529155386 0.0000011379770301078729
          -0.000006359516665332965 -9.957519903069922e-8 -0.000004455713089407398 0.00003135240397503236 0.000048541399637558325 0.000028249823160492182
          0.00001686535104750836 0.00004171674138668535 0.00002695090111078796 0.000029039024486782195 0.00004161374716379895 0.000025472786845927298
          0.00003069857601711856 0.00004723443782983505 0.000025850747293193477 -0.000004866359084781946 -0.000007746940063321772 0.0000012240276035108133
          0.000041256901089400944 0.00007319947957791506 0.000035372524839746844 0.7537945264174789 -0.00000426590800728377 1.5076435379217634
          -0.000004351949083991613 0.7554245377317829 0.000022396769161270313 0.000004664238920315533 0.000013611635261867594 0.00005874857571291914
          -0.00004116011738031222 -0.0000768444290705772 -0.00004949660045255877 0.00004646276662403914 0.00010877311128179579 0.00001089728459807704
          0.00003475388179907668 0.0000602117265126878 0.000018067823734979616 0.000031140503818364446 0.00005918164381775448 1.226227465955798e-7
          0.000047705026203388734 0.00009233630412820021 0.000025068316666432278 0.000007981507676460553 0.00000490301383703276 -0.000023036753164715207
          0.000047739118893129484 0.00009195120935842627 0.000019310326420537982 0.7663223706516075 0.00010633369748980215 1.5326962958115191
          0.00018560676654783004 0.7679792735727301 -0.00011785051077112252 -0.000025129781179245025 -0.00004407963553293426 0.000025211681043357803
          -0.00016701863882051526 -0.000287133215874702 0.00004852708523367388 0.000032125025513585204 0.0000688797737284641 0.00009629018520662669
          0.000021175303766579612 0.000034421035949389056 0.00005555832282602702 0.00007888704933294022 0.00014318924445130832 -0.000026640382779705152
          0.000050143354199304324 0.00008962335080607217 -0.00008978189420739274 -0.0000775908858984839 -0.00016938971607914123 -0.00005189696159231712
          -0.00003213157463558686 -0.00006209990728540601 -0.000049783152614640835 0.3853311612720153 0.000028575867186519943 0.7706975854844886
          0.00004142290844300067 0.3861506386253587 -0.0004777176711878717 -0.00007442564970128185 -0.00013518290200376093 0.000100155012354608
          -0.00003443559612792413 -0.0000667705268089791 0.0002193639636152711 -0.00017408225794829368 -0.0003438193484854857 0.00011004438845307885
          0.000010739883859467447 0.000020197146811978817 0.000018407187066415975 0.00007490333204560051 0.00013625674686099098 -0.00004396277375542934
          0.0001433067153374934 0.0002816383576851045 -0.0000662602562551684 -0.00004609965586558143 -0.00009131830077052996 0.00014620833043097262
          -0.000013504060359513731 -0.00001609575256798063 0.000011818432508610768
        </DataArray>
        <DataArray type="Float64" Name="resid_z" format="ascii" RangeMin="0" RangeMax="0">
          0 0 0 0 0 0
          0 0 0 0 0 0
          0 0 0 0 0 0
          0 0 0 0 0 0
          0 0 0 0 0 0
          0 0 0 0 0 0
          0 0 0 0 0 0
          0 0 0 0 0 0
          0 0 0 0 0 0
          0 0 0 0 0 0
          0 0 0 0 0 0
          0 0 0 0 0 0
          0 0 0 0 0 0
          0 0 0 0 0 0
          0 0 0 0 0 0
          0 0 0 0 0 0
          0 0 0 0 0 0
          0 0 0 0 0 0
          0 0 0 0 0 0
          0 0 0 0 0 0
          0 0 0 0 0 0
          0 0 0 0 0 0
          0 0 0 0 0 0
          0 0 0 0 0 0
          0 0 0 0 0 0
          0 0 0 0 0 0
          0 0 0 0 0 0
          0 0 0 0 0 0
          0 0 0 0 0 0
          0 0 0 0 0 0
          0 0 0 0 0 0
          0 0 0 0 0 0
          0 0 0 0 0 0
          0 0 0 0 0 0
          0 0 0 0 0 0
          0 0 0 0 0 0
          0 0 0 0 0 0
          0 0 0 0 0 0
          0 0 0 0 0 0
          0 0 0 0 0 0
          0 0 0 0 0 0
          0 0 0 0 0 0
          0 0 0 0 0 0
          0 0 0 0 0 0
          0 0 0 0 0 0
          0 0 0 0 0 0
          0 0 0 0 0 0
          0 0 0 0 0 0
          0 0 0 0 0 0
          0 0 0 0 0 0
          0 0 0 0 0 0
          0 0 0 0 0 0
          0 0 0 0 0 0
          0 0 0 0 0 0
          0 0 0 0 0 0
          0 0 0 0 0 0
          0 0 0 0 0 0
          0 0 0 0 0 0
          0 0 0 0 0 0
          0 0 0 0 0 0
          0 0 0 0 0 0
          0 0 0 0 0 0
          0 0 0 0 0 0
          0 0 0 0 0 0
          0 0 0 0 0 0
          0 0 0 0 0 0
          0 0 0 0 0 0
          0 0 0 0 0 0
          0 0 0 0 0 0
          0 0 0 0 0 0
          0 0 0 0 0 0
          0 0 0 0 0 0
          0 0 0 0 0 0
          0 0 0 0 0 0
          0 0 0 0 0 0
          0 0 0 0 0 0
          0 0 0 0 0 0
          0 0 0 0 0 0
          0 0 0 0 0 0
          0 0 0 0 0 0
          0 0 0 0 0 0
          0 0 0 0 0 0
          0 0 0 0 0 0
          0 0 0 0 0 0
          0 0 0 0 0 0
          0 0 0 0 0 0
          0 0 0 0 0 0
          0 0 0 0 0 0
          0 0 0 0 0 0
          0 0 0 0 0 0
          0 0 0 0 0 0
          0 0 0 0 0 0
          0 0 0 0 0 0
          0 0 0 0 0 0
          0 0 0 0 0 0
          0 0 0 0 0 0
          0 0 0 0 0 0
          0 0 0 0 0 0
          0 0 0 0 0 0
          0 0 0 0 0 0
          0 0 0 0 0 0
          0 0 0 0 0 0
          0 0 0 0 0 0
          0 0 0 0 0 0
          0 0 0 0 0 0
          0 0 0 0 0 0
          0 0 0 0 0 0
          0 0 0 0 0 0
          0 0 0 0 0 0
          0 0 0 0 0 0
          0 0 0 0 0 0
          0 0 0 0 0 0
          0 0 0 0 0 0
          0 0 0 0 0 0
          0 0 0 0 0 0
          0 0 0 0 0 0
          0 0 0 0 0 0
          0 0 0 0 0 0
          0 0 0 0 0 0
          0 0 0 0 0 0
          0 0 0 0 0 0
          0 0 0 0 0 0
          0 0 0 0 0 0
          0 0 0 0 0 0
          0 0 0 0 0 0
          0 0 0 0 0 0
          0 0 0 0 0 0
          0 0 0 0 0 0
          0 0 0 0 0 0
          0 0 0 0 0 0
          0 0 0 0 0 0
          0 0 0 0 0 0
          0 0 0 0 0 0
          0 0 0 0 0 0
          0 0 0 0 0 0
          0 0 0 0 0 0
          0 0 0
        </DataArray>
        <DataArray type="Float64" Name="stress_zz" format="ascii" RangeMin="-497648.67343331425" RangeMax="488830.44999490445">
          -20480.873390947363 -70315.4513802512 -26419.651118646347 5515.142991731222 -20579.487042224795 -70063.4433210152
          -26803.724068965723 5861.904921347401 -20678.100693502223 -69811.4352617792 -27187.79701928509 6208.66685096358
          -20954.842945246244 -9313.461497844768 -28587.377895519894 -35947.13976491749 -20900.591121895337 -9279.993058174636
          -28551.961094528364 -35990.94444271878 -20846.33929854443 -9246.524618504503 -28516.54429353683 -36034.74912052006
          -26010.43580486566 12439.391007861272 -26212.27715201294 12615.625315029813 -26414.11849916021 12791.859622198353
          -8910.957573333111 -8560.77110901313 -32262.01524666803 -8884.76014124924 -8621.343612458122 -32417.390913070954
          -8858.56270916537 -8681.916115903114 -32572.76657947388 13332.907071561169 12596.673905156173 5106.656366155538
          8435.945647808672 13430.300310099197 13062.20147842548 5125.626501606405 8450.14404406038 13527.693548637224
          13527.729051694789 5144.596637057272 8464.34244031209 373.0674526195369 -5086.761110209984 1624.2387470124033
          4401.08624784688 304.8740088537801 -5229.233137858996 1688.1752336962109 4337.292476051055 236.68056508802377
          -5371.705165508009 1752.1117203800181 4273.498704255229 1299.4679287874928 10372.63507746115 10137.498059073449
          1244.3500151352607 10287.154814367717 10227.29813277561 1189.2321014830288 10201.674551274285 10317.098206477775
          1721.375915038456 1811.2676783665095 1901.1594416945627 12543.781401135859 10285.536208250378 12688.154551587959
          10248.221021666584 12832.527702040057 10210.905835082795 24122.89944007186 14080.937437360357 24254.14232334774
          13983.607960367453 24385.38520662363 13886.278483374554 2383.225582573624 1062.1344400513244 2458.085876985943
          1010.8413618012685 2532.9461713982614 959.5482835512122 6861.437409439136 1223.6807429010953 -2232.794843973975
          1171.7015632664559 6884.437847110123 1283.6495850065046 -2193.3872228434 1161.266073117968 6907.438284781109
          1343.6184271119137 -2153.979601712827 1150.830582969481 197.4062143445704 170.8580423007993 144.30987025702774
          -1774.7745189627808 -1818.2349287047346 -1861.6953384466883 1998.8124460861625 1993.5105932350975 1988.208740384033
          -15823.28549336403 -21521.624909379283 -15886.575108697973 -21542.29749817525 -15949.864724031911 -21562.970086971203
          -2645.7728981798405 4156.576908684006 3576.5772180929666 234.34832096639084 -2728.004862225026 4145.707574251679
          3550.2426900953524 253.56196740482375 -2810.2368262702125 4134.838239819352 3523.908162097737 272.7756138432566
          19595.47479788142 10182.435308590786 19541.256522473894 10266.9634787274 19487.03824706636 10351.491648864017
          -2684.0084956476467 -2649.8234847760446 -2615.638473904442 -3877.9151838559183 -3994.4565457355343 -4110.99790761515
          -8489.776941166754 -9552.106420679913 -8534.620664267606 -9604.815624538478 -8579.46438736846 -9657.524828397045
          -1494.7049331646376 -1274.9966124199327 -1069.9237131720622 -743.5347200429028 -645.1424931794869 -212.0728276658724
          8986.756815407625 13475.989900026345 9005.913721060166 13660.799660418788 9025.070626712708 13845.609420811235
          1364.726663266269 1366.2450113150653 1367.7633593638614 6256.275714707021 6257.999580531728 6259.723446356433
          4905.059321142297 4925.189791075031 4945.320261007765 13561.653487075884 13709.979376409201 13858.305265742518
          -7695.60275132172 -7790.392741080277 -7885.182730838835 1554.015047909148 -365.7425418104368 1645.9937924861001
          -404.32978430709943 1737.9725370630522 -442.917026803762 5887.574193231669 5883.580806515666 5879.5874197996645
          -10768.029506305173 -13388.936564473835 -10798.186488215299 -13503.348717748182 -10828.343470125423 -13617.760871022529
          3809.1768938448517 663.7820793176097 3848.5240313378895 652.4819966263735 3887.871168830927 641.1819139351373
          -14091.313668659233 -13908.064710882469 -14587.748288797375 -14922.794026580024 -15084.18290893552 -15937.523342277582
          -7141.658219545333 -7289.452107609619 -7437.245995673905 -440.41602021062954 -466.80461150680435 -493.19320280297916
          -2523.1441956607005 -2499.3001304679874 -2475.456065275275 1780.9089515323133 2912.8857452585926 1806.3555840966023
          3026.096108193368 1831.8022166608912 3139.3064711281436 -1342.9523160865224 861.681423234436 -1417.8701020684205
          890.9847563779239 -1492.7878880503185 920.2880895214117 -3324.9002616304915 -4280.998642574537 -1854.6081459471843
          -3366.3767265244287 -4330.425295392461 -1883.2373361589891 -3407.8531914183664 -4379.851948210384 -1911.8665263707942
          -379.21876988546677 -330.28535660471175 -281.35194332395673 8467.69743068454 -3317.0965357620507 8580.663091197683
          -3289.6823702245933 8693.628751710825 -3262.268204687136 -3387.9724982992993 -27846.073881892156 -3264.4309284672495
          -25392.808037807914 -3140.8893586351996 -22939.542193723664 -1189.1823128506219 -1064.9145750621278 -940.646837273634
          -86.3951227168086 -111.73381918701682 -137.07251565722504 -22472.168346407547 -22863.54369873443 -23254.91905106131
          -5152.645312064115 -2052.508692871323 -4771.600075139155 -2039.658781103942 -4390.554838214193 -2026.8088693365607
          -1353.5308130238982 -1268.6584016826241 -1183.7859903413503 -2480.123733495842 -3410.9776629192384 -4341.831592342634
          -15023.07438524046 -15236.220639986483 -15449.366894732506 19399.804579441225 20196.24726095818 20992.689942475132
          -37301.043530370516 -34867.94095156403 -32434.83837275754 -114502.86101510786 -114513.57082684292 -114524.28063857794
          35171.9777385827 35161.45641886754 35150.9350991524 32144.85995664323 32225.966227344314 32307.072498045396
          -39.05995799313314 -33.44391657742926 -27.82787516172175 -79358.2368588424 -79418.9520394754 -79479.66722010841
          -131347.00319786934 -131290.798326763 -131234.59345565666 -10711.041754140186 -10633.858624121276 -10698.738915036916
          -10627.559125013859 -10686.436075933643 -10621.259625906441 -11992.60267142918 -11341.812438636913 -12001.784128306348
          -11355.276566574925 -12010.965585183518 -11368.740694512933 -9665.883107225973 -8449.329172883106 -9668.005124243507
          -8444.32353786776 -9670.127141261042 -8439.317902852414 -4730.042239480404 -3242.5770108151664 -4735.884209970377
          -3237.0132808336302 -4741.72618046035 -3231.4495508520945 1551.8952039092708 2855.9497653859307 1544.9343306832736
          2867.95303561574 1537.9734574572765 2879.956305845549 7732.872383670605 8076.2811346784765 7727.791960542286
          8088.334597426056 7722.711537413968 8100.388060173634 11157.312475239423 11076.14888858439 11157.226055748784
          11092.997230860215 11157.139636258144 11109.845573136041 5817.843955743931 6732.980139184352 5813.5265687811125
          6755.483457178178 5809.209181818294 6777.986775172004 -9747.040248811369 -9773.829101601 -9800.617954390636
          -11367.327798342503 -11403.740980874127 -11440.154163405754 -9106.849208895783 -9134.383683602486 -9161.918158309187
          -3780.5732284169367 -3794.904651566314 -3809.2360747156927 3280.9185690991235 3265.01152914776 3249.104489196397
          11436.69355410678 11447.704364821588 11458.715175536398 13883.503206539 13924.928070215094 13966.352933891185
          3240.65185520614 3258.396913157235 3276.1419711083295 -6608.803333896435 -6541.2937643173545 -6473.784194738273
          -7718.812605371884 -7666.052319327722 -7613.292033283562 -4494.974253487889 -4454.3860833389 -4413.79791318991
          2048.4863435417656 2093.8400699900826 2139.1937964384006 10180.5477455242 10171.762298495169 10162.976851466134
          20780.583750837257 20775.729862646807 20770.87597445635 19191.556548512748 19170.740574777257 19149.92460104177
          -2875.51655155513 -3013.7167036503615 -3151.9168557455932 -64.79798977550433 -258.1747195431517 -451.55144931079894
          -88.13474803887038 -266.12715653777104 -444.1195650366718 4191.334979965428 4036.3208179726976 3881.306655979969
          11395.687469126819 11331.196719388037 11266.705969649258 19533.12170874235 19457.438239563333 19381.754770384323
          32746.736616280697 32830.25359859979 32913.770580918885 22941.578071711963 23184.415504637505 23427.252937563047
          -17532.502825030064 -17430.16837950404 -17327.83393397802 16325.617298136844 16670.397174916907 17015.177051696977
          18975.58932583196 19286.180383731484 19596.771441631005 24000.20427065846 24212.64008135215 24425.075892045836
          29085.855973588823 29296.30584490361 29506.755716218388 32623.98327242197 32558.12112011998 32492.258967817983
          45720.37696169942 45638.698654314096 45557.02034692878 14429.59124805675 14220.052193296755 14010.51313853676
          -58117.78368230443 -58835.43789190489 -59553.09210150535 32800.649407817364 32370.43377798192 31940.218148146483
          34749.431976101194 34278.625379627934 33807.818783154675 44392.16532853189 44002.65286457731 43613.14040062271
          49854.97096887039 49490.55972347334 49126.1484780763 49754.33187221969 49693.78205798971 49633.23224375972
          43627.71512797655 43412.05210915268 43196.389090328805 58600.46223317116 58908.56221516467 59216.66219715818
          -6411.363491242932 -5622.310659607538 -4833.257827972146 -121886.78022528472 -121736.04267489408 -121585.30512450347
          140941.6797621348 140486.40193050486 140031.12409887492 171369.94846409763 170853.34540334588 170336.74234259408
          179640.05853502356 179245.8012759353 178851.54401684698 161735.59325032154 161258.82580778797 160782.0583652544
          126920.02290795324 126888.5118050663 126857.00070217933 70694.14414349521 70076.0638596538 69457.98357581238
          28270.26449507867 28440.811651550808 28611.358808022942 -194178.55193541283 -193577.09964619417 -192975.64735697545
          -396190.0090634594 -397062.13017056964 -397934.2512776799 38163.54406546122 38548.071360395414 38932.59865532961
          46321.014498059245 46835.05816952835 47349.101840997435 38602.625297268285 39294.6426741514 39986.660051034516
          38329.70012158277 38541.842295259776 38753.98446893678 47038.82967550346 47766.812443474264 48494.79521144507
          50784.213155788246 49995.87784510954 49207.542534430846 142837.91133573858 142771.54052716136 142705.16971858422
          -136514.71399982861 -136564.95692488275 -136615.19984993682 -492661.13390713144 -495154.9036702228 -497648.67343331425
          -169754.74558577372 -170053.64842818558 -170352.55127059744 -208868.08350136987 -209031.61946680662 -209195.1554322434
          -226071.62144790823 -225828.7121880067 -225585.80292810514 -185060.8957703698 -185273.79459477653 -185486.69341918326
          -101074.67140515597 -100328.78716224144 -99582.90291932691 7206.746157897149 6426.949263657936 5647.1523694187235
          294311.69343070104 294838.39175081294 295365.0900709249 97674.33979015099 98995.31085632753 100316.28192250407
          -348215.6193821457 -349174.43577106175 -350133.2521599778 -811.8061442930076 -1786.0933769221888 -812.3523482947074
          -1795.2660741652476 -812.8985522964072 -1804.438771408306 -5111.671488904191 -5073.6158127516865 -5035.5601365991815
          -12470.890624598378 -12485.449900131063 -12500.009175663748 -26643.538014185815 -26388.44344226278 -26133.348870339738
          -58056.03702023625 -58156.86590559267 -58257.69479094909 -89344.9366149901 -88512.35331275615 -87679.77001052219
          -251280.06388515863 -250077.80700541876 -248875.55012567888 -129037.4759530006 -127472.74175408368 -125908.00755516677
          146099.11952737646 149324.1167786122 152549.11402984787 -4214.039246017039 -4800.534796548481 -4211.473934428277
          -4799.400814459312 -4208.9086228395145 -4798.266832370143 -6773.069548163124 -6752.805334831389 -6732.541121499653
          -11042.755690783011 -11032.26182757685 -11021.767964370687 -19121.941750223486 -19011.34972596934 -18900.7577017152
          -33630.67165797217 -33617.38246764386 -33604.09327731554 -45940.41195831417 -45624.07644898484 -45307.74093965549
          -116732.43313513472 -116280.31742921374 -115828.20172329278 152151.2725967231 151954.1176781084 151756.96275949365
          488830.44999490445 488379.023480005 487927.5969651054 -6929.9413506797955 -7826.3254369902215 -6919.217965380257
          -7819.71319381554 -6908.494580080718 -7813.10095064086 -10713.158149341061 -10715.914997227148 -10718.671845113236
          -16270.497348344215 -16296.200432494992 -16321.903516645772 -25754.16201343415 -25803.708258422168 -25853.254503410182
          -40208.07298306062 -40356.02409930594 -40503.97521555125 -63273.270699592686 -63530.73196281569 -63788.19322603868
          -86097.93479885472 -86758.17944691249 -87418.42409497025 100766.49979021182 99440.51900555057 98114.53822088928
          295927.5376395076 294321.34395384876 292715.1502681899 -10356.661249406876 -11425.140710856856 -10359.511928593303
          -11425.41829526344 -10362.36260777973 -11425.695879670022 -14756.770766359954 -14750.54929400348 -14744.327821647006
          -20741.37908021283 -20724.872019043352 -20708.364957873873 -29749.135723253774 -29716.016790012058 -29682.897856770345
          -42564.28707715773 -42493.73665677447 -42423.18623639121 -55271.27041495284 -55166.41976834331 -55061.56912173376
          -39511.82498822325 -39235.92594764207 -38960.02690706089 110175.24180968643 110969.64615065593 111764.05049162544
          238924.73227373415 240073.71450544754 241222.6967371609 -13794.76803940304 -15014.962217328615 -13787.39330742166
          -15010.330039900993 -13780.018575440281 -15005.69786247337 -18749.397749096956 -18748.615356123828 -18747.8329631507
          -24986.526949725 -24988.409702961544 -24990.292456198084 -33343.66832260063 -33362.96087676546 -33382.25343093029
          -42284.91366191875 -42312.608106260144 -42340.30255060154 -42608.01198159003 -42725.985109413115 -42843.95823723619
          -8491.697973461372 -8631.86891813613 -8772.039862810883 103774.84392715187 103494.96492026656 103215.08591338125
          185908.96531319295 185413.8473830243 184918.7294528556 -16989.071937874098 -18288.694391070654 -16994.17943897463
          -18298.5469747606 -16999.28694007516 -18308.399558450546 -22262.59802916984 -22280.911504251875 -22299.22497933391
          -28493.780839976687 -28507.88096384055 -28521.98108770442 -35497.08071945967 -35507.209726336136 -35517.33873321259
          -39504.937318645374 -39498.10776459886 -39491.27821055236 -29908.835901127124 -29941.003914296434 -29973.17192746575
          11365.389636628062 11410.361689006657 11455.33374138525 96870.99129782879 97040.14323775325 97209.2951776777
          151259.9271843995 151416.2047751497 151572.4823658999 -19083.535402698435 -20896.379816323428 -19080.12853726331
          -20892.852856066966 -19076.721671828185 -20889.325895810503 -25426.478053760296 -25417.49657659622 -25408.51509943214
          -31028.083875614302 -31019.36511212009 -31010.646348625873 -36253.85379153814 -36269.90247205613 -36285.95115257412
          -36152.04870881545 -36169.52055479018 -36186.99240076491 -20151.266475749864 -20212.032498987715 -20272.798522225574
          23109.106431290264 23108.596256282468 23108.08608127467 91118.7793018557 91135.1049710756 91151.43064029551
          129425.6384978422 129337.50284299732 129249.36718815242 -23546.988775162157 -25436.98012871267 -23496.0892835542
          -25303.552365082025 -23445.189791946243 -25170.124601451374 -30628.5840437819 -30400.50491369356 -30172.42578360522
          -35606.125641675106 -35451.67249101071 -35297.21934034631 -37641.26920456594 -37614.733235270265 -37588.19726597459
          -33664.35128955561 -33662.31841246976 -33660.2855353839 -14849.524258465492 -14883.002681287559 -14916.481104109627
          27233.91802612308 27271.139777767676 27308.361529412272 85510.77310119232 85589.4125035195 85668.05190584667
          116182.88048123644 116179.06104457166 116175.24160790688 -27424.18555412623 -28894.568591150564 -27353.075744442067
          -28662.42652192505 -27281.965934757904 -28430.284452699536 -34265.34607801474 -33870.61057483799 -33475.87507166125
          -39171.2137454621 -38924.25216258032 -38677.29057969854 -38965.654409408875 -38913.37867850725 -38861.10294760563
          -32742.174819928776 -32716.455294657622 -32690.73576938647 -13431.085537657073 -13443.533977319774 -13455.982416982471
          27276.900914712103 27325.114992523217 27373.32907033433 82591.43290394347 82671.46576275975 82751.49862157603
          111496.620687258 111490.84729302695 111485.07389879589
        </DataArray>
        <DataArray type="Float64" Name="peeq" format="ascii" RangeMin="0" RangeMax="0">
          0 0 0 0 0 0
          0 0 0 0 0 0
          0 0 0 0 0 0
          0 0 0 0 0 0
          0 0 0 0 0 0
          0 0 0 0 0 0
          0 0 0 0 0 0
          0 0 0 0 0 0
          0 0 0 0 0 0
          0 0 0 0 0 0
          0 0 0 0 0 0
          0 0 0 0 0 0
          0 0 0 0 0 0
          0 0 0 0 0 0
          0 0 0 0 0 0
          0 0 0 0 0 0
          0 0 0 0 0 0
          0 0 0 0 0 0
          0 0 0 0 0 0
          0 0 0 0 0 0
          0 0 0 0 0 0
          0 0 0 0 0 0
          0 0 0 0 0 0
          0 0 0 0 0 0
          0 0 0 0 0 0
          0 0 0 0 0 0
          0 0 0 0 0 0
          0 0 0 0 0 0
          0 0 0 0 0 0
          0 0 0 0 0 0
          0 0 0 0 0 0
          0 0 0 0 0 0
          0 0 0 0 0 0
          0 0 0 0 0 0
          0 0 0 0 0 0
          0 0 0 0 0 0
          0 0 0 0 0 0
          0 0 0 0 0 0
          0 0 0 0 0 0
          0 0 0 0 0 0
          0 0 0 0 0 0
          0 0 0 0 0 0
          0 0 0 0 0 0
          0 0 0 0 0 0
          0 0 0 0 0 0
          0 0 0 0 0 0
          0 0 0 0 0 0
          0 0 0 0 0 0
          0 0 0 0 0 0
          0 0 0 0 0 0
          0 0 0 0 0 0
          0 0 0 0 0 0
          0 0 0 0 0 0
          0 0 0 0 0 0
          0 0 0 0 0 0
          0 0 0 0 0 0
          0 0 0 0 0 0
          0 0 0 0 0 0
          0 0 0 0 0 0
          0 0 0 0 0 0
          0 0 0 0 0 0
          0 0 0 0 0 0
          0 0 0 0 0 0
          0 0 0 0 0 0
          0 0 0 0 0 0
          0 0 0 0 0 0
          0 0 0 0 0 0
          0 0 0 0 0 0
          0 0 0 0 0 0
          0 0 0 0 0 0
          0 0 0 0 0 0
          0 0 0 0 0 0
          0 0 0 0 0 0
          0 0 0 0 0 0
          0 0 0 0 0 0
          0 0 0 0 0 0
          0 0 0 0 0 0
          0 0 0 0 0 0
          0 0 0 0 0 0
          0 0 0 0 0 0
          0 0 0 0 0 0
          0 0 0 0 0 0
          0 0 0 0 0 0
          0 0 0 0 0 0
          0 0 0 0 0 0
          0 0 0 0 0 0
          0 0 0 0 0 0
          0 0 0 0 0 0
          0 0 0 0 0 0
          0 0 0 0 0 0
          0 0 0 0 0 0
          0 0 0 0 0 0
          0 0 0 0 0 0
          0 0 0 0 0 0
          0 0 0 0 0 0
          0 0 0 0 0 0
          0 0 0 0 0 0
          0 0 0 0 0 0
          0 0 0 0 0 0
          0 0 0 0 0 0
          0 0 0 0 0 0
          0 0 0 0 0 0
          0 0 0 0 0 0
          0 0 0 0 0 0
          0 0 0 0 0 0
          0 0 0 0 0 0
          0 0 0 0 0 0
          0 0 0 0 0 0
          0 0 0 0 0 0
          0 0 0 0 0 0
          0 0 0 0 0 0
          0 0 0 0 0 0
          0 0 0 0 0 0
          0 0 0 0 0 0
          0 0 0 0 0 0
          0 0 0 0 0 0
          0 0 0 0 0 0
          0 0 0 0 0 0
          0 0 0 0 0 0
          0 0 0 0 0 0
          0 0 0 0 0 0
          0 0 0 0 0 0
          0 0 0 0 0 0
          0 0 0 0 0 0
          0 0 0 0 0 0
          0 0 0 0 0 0
          0 0 0 0 0 0
          0 0 0 0 0 0
          0 0 0 0 0 0
          0 0 0 0 0 0
          0 0 0 0 0 0
          0 0 0 0 0 0
          0 0 0 0 0 0
          0 0 0 0 0 0
          0 0 0 0 0 0
          0 0 0 0 0 0
          0 0 0
        </DataArray>
        <DataArray type="Float64" Name="pe11" format="ascii" RangeMin="0" RangeMax="0">
          0 0 0 0 0 0
          0 0 0 0 0 0
          0 0 0 0 0 0
          0 0 0 0 0 0
          0 0 0 0 0 0
          0 0 0 0 0 0
          0 0 0 0 0 0
          0 0 0 0 0 0
          0 0 0 0 0 0
          0 0 0 0 0 0
          0 0 0 0 0 0
          0 0 0 0 0 0
          0 0 0 0 0 0
          0 0 0 0 0 0
          0 0 0 0 0 0
          0 0 0 0 0 0
          0 0 0 0 0 0
          0 0 0 0 0 0
          0 0 0 0 0 0
          0 0 0 0 0 0
          0 0 0 0 0 0
          0 0 0 0 0 0
          0 0 0 0 0 0
          0 0 0 0 0 0
          0 0 0 0 0 0
          0 0 0 0 0 0
          0 0 0 0 0 0
          0 0 0 0 0 0
          0 0 0 0 0 0
          0 0 0 0 0 0
          0 0 0 0 0 0
          0 0 0 0 0 0
          0 0 0 0 0 0
          0 0 0 0 0 0
          0 0 0 0 0 0
          0 0 0 0 0 0
          0 0 0 0 0 0
          0 0 0 0 0 0
          0 0 0 0 0 0
          0 0 0 0 0 0
          0 0 0 0 0 0
          0 0 0 0 0 0
          0 0 0 0 0 0
          0 0 0 0 0 0
          0 0 0 0 0 0
          0 0 0 0 0 0
          0 0 0 0 0 0
          0 0 0 0 0 0
          0 0 0 0 0 0
          0 0 0 0 0 0
          0 0 0 0 0 0
          0 0 0 0 0 0
          0 0 0 0 0 0
          0 0 0 0 0 0
          0 0 0 0 0 0
          0 0 0 0 0 0
          0 0 0 0 0 0
          0 0 0 0 0 0
          0 0 0 0 0 0
          0 0 0 0 0 0
          0 0 0 0 0 0
          0 0 0 0 0 0
          0 0 0 0 0 0
          0 0 0 0 0 0
          0 0 0 0 0 0
          0 0 0 0 0 0
          0 0 0 0 0 0
          0 0 0 0 0 0
          0 0 0 0 0 0
          0 0 0 0 0 0
          0 0 0 0 0 0
          0 0 0 0 0 0
          0 0 0 0 0 0
          0 0 0 0 0 0
          0 0 0 0 0 0
          0 0 0 0 0 0
          0 0 0 0 0 0
          0 0 0 0 0 0
          0 0 0 0 0 0
          0 0 0 0 0 0
          0 0 0 0 0 0
          0 0 0 0 0 0
          0 0 0 0 0 0
          0 0 0 0 0 0
          0 0 0 0 0 0
          0 0 0 0 0 0
          0 0 0 0 0 0
          0 0 0 0 0 0
          0 0 0 0 0 0
          0 0 0 0 0 0
          0 0 0 0 0 0
          0 0 0 0 0 0
          0 0 0 0 0 0
          0 0 0 0 0 0
          0 0 0 0 0 0
          0 0 0 0 0 0
          0 0 0 0 0 0
          0 0 0 0 0 0
          0 0 0 0 0 0
          0 0 0 0 0 0
          0 0 0 0 0 0
          0 0 0 0 0 0
          0 0 0 0 0 0
          0 0 0 0 0 0
          0 0 0 0 0 0
          0 0 0 0 0 0
          0 0 0 0 0 0
          0 0 0 0 0 0
          0 0 0 0 0 0
          0 0 0 0 0 0
          0 0 0 0 0 0
          0 0 0 0 0 0
          0 0 0 0 0 0
          0 0 0 0 0 0
          0 0 0 0 0 0
          0 0 0 0 0 0
          0 0 0 0 0 0
          0 0 0 0 0 0
          0 0 0 0 0 0
          0 0 0 0 0 0
          0 0 0 0 0 0
          0 0 0 0 0 0
          0 0 0 0 0 0
          0 0 0 0 0 0
          0 0 0 0 0 0
          0 0 0 0 0 0
          0 0 0 0 0 0
          0 0 0 0 0 0
          0 0 0 0 0 0
          0 0 0 0 0 0
          0 0 0 0 0 0
          0 0 0 0 0 0
          0 0 0 0 0 0
          0 0 0 0 0 0
          0 0 0 0 0 0
          0 0 0 0 0 0
          0 0 0
        </DataArray>
        <DataArray type="Float64" Name="pe22" format="ascii" RangeMin="0" RangeMax="0">
          0 0 0 0 0 0
          0 0 0 0 0 0
          0 0 0 0 0 0
          0 0 0 0 0 0
          0 0 0 0 0 0
          0 0 0 0 0 0
          0 0 0 0 0 0
          0 0 0 0 0 0
          0 0 0 0 0 0
          0 0 0 0 0 0
          0 0 0 0 0 0
          0 0 0 0 0 0
          0 0 0 0 0 0
          0 0 0 0 0 0
          0 0 0 0 0 0
          0 0 0 0 0 0
          0 0 0 0 0 0
          0 0 0 0 0 0
          0 0 0 0 0 0
          0 0 0 0 0 0
          0 0 0 0 0 0
          0 0 0 0 0 0
          0 0 0 0 0 0
          0 0 0 0 0 0
          0 0 0 0 0 0
          0 0 0 0 0 0
          0 0 0 0 0 0
          0 0 0 0 0 0
          0 0 0 0 0 0
          0 0 0 0 0 0
          0 0 0 0 0 0
          0 0 0 0 0 0
          0 0 0 0 0 0
          0 0 0 0 0 0
          0 0 0 0 0 0
          0 0 0 0 0 0
          0 0 0 0 0 0
          0 0 0 0 0 0
          0 0 0 0 0 0
          0 0 0 0 0 0
          0 0 0 0 0 0
          0 0 0 0 0 0
          0 0 0 0 0 0
          0 0 0 0 0 0
          0 0 0 0 0 0
          0 0 0 0 0 0
          0 0 0 0 0 0
          0 0 0 0 0 0
          0 0 0 0 0 0
          0 0 0 0 0 0
          0 0 0 0 0 0
          0 0 0 0 0 0
          0 0 0 0 0 0
          0 0 0 0 0 0
          0 0 0 0 0 0
          0 0 0 0 0 0
          0 0 0 0 0 0
          0 0 0 0 0 0
          0 0 0 0 0 0
          0 0 0 0 0 0
          0 0 0 0 0 0
          0 0 0 0 0 0
          0 0 0 0 0 0
          0 0 0 0 0 0
          0 0 0 0 0 0
          0 0 0 0 0 0
          0 0 0 0 0 0
          0 0 0 0 0 0
          0 0 0 0 0 0
          0 0 0 0 0 0
          0 0 0 0 0 0
          0 0 0 0 0 0
          0 0 0 0 0 0
          0 0 0 0 0 0
          0 0 0 0 0 0
          0 0 0 0 0 0
          0 0 0 0 0 0
          0 0 0 0 0 0
          0 0 0 0 0 0
          0 0 0 0 0 0
          0 0 0 0 0 0
          0 0 0 0 0 0
          0 0 0 0 0 0
          0 0 0 0 0 0
          0 0 0 0 0 0
          0 0 0 0 0 0
          0 0 0 0 0 0
          0 0 0 0 0 0
          0 0 0 0 0 0
          0 0 0 0 0 0
          0 0 0 0 0 0
          0 0 0 0 0 0
          0 0 0 0 0 0
          0 0 0 0 0 0
          0 0 0 0 0 0
          0 0 0 0 0 0
          0 0 0 0 0 0
          0 0 0 0 0 0
          0 0 0 0 0 0
          0 0 0 0 0 0
          0 0 0 0 0 0
          0 0 0 0 0 0
          0 0 0 0 0 0
          0 0 0 0 0 0
          0 0 0 0 0 0
          0 0 0 0 0 0
          0 0 0 0 0 0
          0 0 0 0 0 0
          0 0 0 0 0 0
          0 0 0 0 0 0
          0 0 0 0 0 0
          0 0 0 0 0 0
          0 0 0 0 0 0
          0 0 0 0 0 0
          0 0 0 0 0 0
          0 0 0 0 0 0
          0 0 0 0 0 0
          0 0 0 0 0 0
          0 0 0 0 0 0
          0 0 0 0 0 0
          0 0 0 0 0 0
          0 0 0 0 0 0
          0 0 0 0 0 0
          0 0 0 0 0 0
          0 0 0 0 0 0
          0 0 0 0 0 0
          0 0 0 0 0 0
          0 0 0 0 0 0
          0 0 0 0 0 0
          0 0 0 0 0 0
          0 0 0 0 0 0
          0 0 0 0 0 0
          0 0 0 0 0 0
          0 0 0 0 0 0
          0 0 0 0 0 0
          0 0 0 0 0 0
          0 0 0
        </DataArray>
        <DataArray type="Float64" Name="pe33" format="ascii" RangeMin="0" RangeMax="0">
          0 0 0 0 0 0
          0 0 0 0 0 0
          0 0 0 0 0 0
          0 0 0 0 0 0
          0 0 0 0 0 0
          0 0 0 0 0 0
          0 0 0 0 0 0
          0 0 0 0 0 0
          0 0 0 0 0 0
          0 0 0 0 0 0
          0 0 0 0 0 0
          0 0 0 0 0 0
          0 0 0 0 0 0
          0 0 0 0 0 0
          0 0 0 0 0 0
          0 0 0 0 0 0
          0 0 0 0 0 0
          0 0 0 0 0 0
          0 0 0 0 0 0
          0 0 0 0 0 0
          0 0 0 0 0 0
          0 0 0 0 0 0
          0 0 0 0 0 0
          0 0 0 0 0 0
          0 0 0 0 0 0
          0 0 0 0 0 0
          0 0 0 0 0 0
          0 0 0 0 0 0
          0 0 0 0 0 0
          0 0 0 0 0 0
          0 0 0 0 0 0
          0 0 0 0 0 0
          0 0 0 0 0 0
          0 0 0 0 0 0
          0 0 0 0 0 0
          0 0 0 0 0 0
          0 0 0 0 0 0
          0 0 0 0 0 0
          0 0 0 0 0 0
          0 0 0 0 0 0
          0 0 0 0 0 0
          0 0 0 0 0 0
          0 0 0 0 0 0
          0 0 0 0 0 0
          0 0 0 0 0 0
          0 0 0 0 0 0
          0 0 0 0 0 0
          0 0 0 0 0 0
          0 0 0 0 0 0
          0 0 0 0 0 0
          0 0 0 0 0 0
          0 0 0 0 0 0
          0 0 0 0 0 0
          0 0 0 0 0 0
          0 0 0 0 0 0
          0 0 0 0 0 0
          0 0 0 0 0 0
          0 0 0 0 0 0
          0 0 0 0 0 0
          0 0 0 0 0 0
          0 0 0 0 0 0
          0 0 0 0 0 0
          0 0 0 0 0 0
          0 0 0 0 0 0
          0 0 0 0 0 0
          0 0 0 0 0 0
          0 0 0 0 0 0
          0 0 0 0 0 0
          0 0 0 0 0 0
          0 0 0 0 0 0
          0 0 0 0 0 0
          0 0 0 0 0 0
          0 0 0 0 0 0
          0 0 0 0 0 0
          0 0 0 0 0 0
          0 0 0 0 0 0
          0 0 0 0 0 0
          0 0 0 0 0 0
          0 0 0 0 0 0
          0 0 0 0 0 0
          0 0 0 0 0 0
          0 0 0 0 0 0
          0 0 0 0 0 0
          0 0 0 0 0 0
          0 0 0 0 0 0
          0 0 0 0 0 0
          0 0 0 0 0 0
          0 0 0 0 0 0
          0 0 0 0 0 0
          0 0 0 0 0 0
          0 0 0 0 0 0
          0 0 0 0 0 0
          0 0 0 0 0 0
          0 0 0 0 0 0
          0 0 0 0 0 0
          0 0 0 0 0 0
          0 0 0 0 0 0
          0 0 0 0 0 0
          0 0 0 0 0 0
          0 0 0 0 0 0
          0 0 0 0 0 0
          0 0 0 0 0 0
          0 0 0 0 0 0
          0 0 0 0 0 0
          0 0 0 0 0 0
          0 0 0 0 0 0
          0 0 0 0 0 0
          0 0 0 0 0 0
          0 0 0 0 0 0
          0 0 0 0 0 0
          0 0 0 0 0 0
          0 0 0 0 0 0
          0 0 0 0 0 0
          0 0 0 0 0 0
          0 0 0 0 0 0
          0 0 0 0 0 0
          0 0 0 0 0 0
          0 0 0 0 0 0
          0 0 0 0 0 0
          0 0 0 0 0 0
          0 0 0 0 0 0
          0 0 0 0 0 0
          0 0 0 0 0 0
          0 0 0 0 0 0
          0 0 0 0 0 0
          0 0 0 0 0 0
          0 0 0 0 0 0
          0 0 0 0 0 0
          0 0 0 0 0 0
          0 0 0 0 0 0
          0 0 0 0 0 0
          0 0 0 0 0 0
          0 0 0 0 0 0
          0 0 0 0 0 0
          0 0 0 0 0 0
          0 0 0 0 0 0
          0 0 0
        </DataArray>
        <DataArray type="Float64" Name="disp_x" format="ascii" RangeMin="0.000007190110162467314" RangeMax="0.00002">
          0.000009805256249403412 0.000009799271928551707 0.0000093845727773088 0.000009288813770446583 0.000009805268030293847 0.000009799287933747341
          0.000009384588409811345 0.00000928882560118316 0.000009805303226681496 0.000009799336169786832 0.00000938463935672685 0.000009288862350546416
          0.00000855108269006518 0.000008546368541711538 0.000008904741519182315 0.000008866569619394833 0.000008551087649950105 0.000008546373850948955
          0.00000890474897929265 0.000008866578139808567 0.000008551100354779679 0.000008546389023421904 0.000008904772229092156 0.00000886660530603207
          0.000009245949124153837 0.00000903796710587279 0.000009245958117059199 0.00000903797404894769 0.000009245985329866895 0.000009037993260819005
          0.000008877150740562876 0.00000932026645310673 0.000009324763452051287 0.000008877157617550896 0.000009320270042462015 0.00000932476819117676
          0.000008877179300430683 0.00000932028027279318 0.0000093247814500666 0.000008564141189692981 0.000008403716978022546 0.000008164550596171371
          0.000008366483675977919 0.000008564147288998875 0.000008403722272991254 0.000008164555256999501 0.000008366488763774958 0.000008564166898526234
          0.000008403736277614014 0.000008164569060962867 0.000008366503154261076 0.000008725945990270053 0.000008500365836085185 0.000008451363855680583
          0.000008732132754428471 0.000008725951972691664 0.000008500371157345392 0.000008451369642441438 0.000008732139906196124 0.000008725968078763639
          0.000008500387137832097 0.000008451386349268693 0.000008732164017988651 0.00000824274798440954 0.00000815044714152017 0.000008483063234031042
          0.000008242752954406918 0.00000815045093698618 0.000008483068003984691 0.000008242768409180437 0.000008150462180748102 0.000008483082031174334
          0.000009798252153217363 0.000009798258880704258 0.000009798278835410661 0.000008359266463378944 0.000008022667101901538 0.000008359269608842653
          0.000008022669801330128 0.000008359278731550308 0.000008022677366913772 0.000009783109342808426 0.000009314115387971943 0.000009783114490052963
          0.000009314117792956839 0.000009783130107557269 0.000009314124660235377 0.000007565992624550563 0.000007366389522307959 0.000007565995703635753
          0.000007366392354356996 0.000007566005075204367 0.000007366400825384868 0.000007931195077561426 0.000007705144828569112 0.00000787018155615301
          0.000008137566801163022 0.000007931199584488426 0.000007705148000521394 0.000007870185933339315 0.00000813757218420081 0.000007931213594557346
          0.000007705156955068684 0.000007870198722620917 0.000008137589096691147 0.00000733824545287502 0.0000073382482371962625 0.000007338256652758495
          0.000007190110162467314 0.000007190112975835683 0.0000071901211644563645 0.000008791667163190681 0.000008791670994906801 0.000008791682663488871
          0.000008747465104842396 0.000008489907118753371 0.00000874747120191759 0.000008489912868918885 0.00000874749048613053 0.000008489929521244724
          0.000007323246163377188 0.000007562220610514882 0.000007536913272547031 0.000007301511200074546 0.000007323249184984399 0.000007562222988473482
          0.000007536916538709893 0.0000073015141372257904 0.000007323258948607782 0.000007562228872663348 0.0000075369268163413006 0.000007301522692814398
          0.000008797058877676122 0.000008984813224192509 0.000008797065607772989 0.000008984819160834704 0.00000879708629678027 0.000008984832195828866
          0.000007361382542055561 0.00000736138566767796 0.0000073613953458157434 0.000008217294916017417 0.000008217299336969184 0.000008217312885930426
          0.000007327482201675672 0.000007345343166223742 0.00000732748572298311 0.0000073453465729254154 0.00000732749671522802 0.000007345357774112483
          0.000008932449945411572 0.000008936351403988086 0.000008932458607998227 0.00000893636084559113 0.000008932479893740044 0.000008936389568464156
          0.000007757786877701166 0.00000772872891779931 0.000007757790509261998 0.00000772873169522518 0.000007757802051833195 0.000007728738332716473
          0.000007543900092172979 0.000007543903128672255 0.000007543912004568302 0.000007680815697390852 0.00000768081889410234 0.000007680828720460003
          0.000007739487396756125 0.000007739490939537199 0.00000773950121639401 0.000007887765995833717 0.000007887769739956107 0.000007887782070402468
          0.000007491116403738538 0.000007491119599367957 0.000007491128910111989 0.000007753005572102055 0.000007679690095027887 0.00000775300876349996
          0.0000076796932123757 0.000007753017865407555 0.000007679702538084718 0.000008572814425806121 0.000008572820338313443 0.000008572838142437414
          0.000008342124353307901 0.000008156420404412413 0.000008342129501655997 0.000008156426080758193 0.00000834214430910754 0.000008156444405626087
          0.000007802964332921853 0.0000075508766423024574 0.000007802968243197542 0.0000075508798608339905 0.000007802979708166358 0.000007550889053363386
          0.00000910409499306753 0.000009150097841318401 0.000009104106552682748 0.000009150104358769353 0.0000091041460729187 0.000009150133643271466
          0.000007551720534492204 0.000007551723815032545 0.000007551733716782828 0.0000076158127601441935 0.000007615815985995655 0.000007615825383318834
          0.00000730465176653543 0.000007304654919615112 0.000007304664692422324 0.000007902652377842245 0.000007763436502229175 0.000007902656695989801
          0.000007763440285459914 0.000007902670313348066 0.000007763451492959788 0.000007874467044641039 0.000007953147493668293 0.000007874470641794377
          0.000007953151156295276 0.000007874481818248371 0.000007953161861684385 0.00000800500116823369 0.000008285202662305252 0.000008076195790235025
          0.000008005005403735126 0.00000828520758561881 0.000008076199889531719 0.000008005018038846272 0.000008285223227933235 0.000008076211350217863
          0.000008153572073099947 0.000008153576235260513 0.000008153588864480377 0.000007984394133053958 0.000008052766014536954 0.000007984398505610797
          0.000008052771527048936 0.000007984411098481498 0.000008052788242462958 0.00000937346161178602 0.000009512298780588984 0.000009373467805586762
          0.00000951231549582973 0.00000937345686258148 0.000009512378692565948 0.000008354317769100382 0.000008354322519189337 0.000008354336533839915
          0.000007809920802700413 0.000007809924527426222 0.000007809936103850659 0.0000083135569016447 0.000008313562070864066 0.000008313576454881848
          0.00000895889283431736 0.000008756911953905045 0.000008958901070629669 0.000008756918349200622 0.000008958922968214885 0.000008756938692598092
          0.00000855541692260044 0.000008555422045377794 0.00000855543685274995 0.00000916146318999267 0.000009161471585295393 0.00000916149892589405
          0.000008291318436284869 0.000008291323870810417 0.000008291341910857881 0.000009364724860556409 0.000009364739723948345 0.000009364784855220883
          0.000009569056437985418 0.000009569082897696709 0.000009569183811456344 0.000009775210619316747 0.00000977522500231631 0.000009775262838489848
          0.000010428586565538961 0.000010428593248173582 0.000010428613411195669 0.000010454986051372873 0.0000104549968750422 0.000010455029679588486
          0.000010473830576399404 0.000010473845499003128 0.000010473890272680005 0.000010475761735750008 0.000010475781219324645 0.000010475839253210426
          0.000010450581928748309 0.000010450603453013664 0.000010450668110082049 0.000012692310124083086 0.000012676873267185257 0.000012692296997382864
          0.000012676860202650703 0.000012692257682512416 0.000012676821069622897 0.000013248985997914779 0.000013229732127960262 0.000013248969385176305
          0.00001322971566734977 0.000013248919518364309 0.000013229666215442002 0.000013801362168552276 0.000013779184509604387 0.000013801342647691522
          0.00001377916530060583 0.000013801284121994812 0.0000137791076882771 0.000014351105468405872 0.000014327145969019378 0.0000143510838262379
          0.000014327124797041428 0.000014351018912562333 0.000014327061282289441 0.000014899512346059264 0.00001487519540745568 0.000014899489619042828
          0.00001487517328119321 0.000014899421445452476 0.00001487510689262773 0.000015447286527245787 0.000015424359100881447 0.000015447263797744624
          0.000015424337109414907 0.000015447195603237752 0.00001542427114617406 0.000015994467007230785 0.00001597503419766864 0.000015994445401599673
          0.000015975013188483192 0.000015994380567343914 0.00001597495019111029 0.00001654052143969653 0.000016527051907367533 0.0000165405017221972
          0.000016527032744839734 0.000016540442550773684 0.000016526975210865435 0.000012723631524521723 0.00001272361816660978 0.000012723578109885763
          0.000013285985879315384 0.000013285968504951199 0.00001328591635031917 0.000013843148387589006 0.000013843127620466384 0.000013843065340156887
          0.000014396562575408466 0.000014396539297771673 0.000014396469454716648 0.000014947239158504401 0.000014947214640876327 0.00001494714113727184
          0.000015495504386113022 0.00001549547966727847 0.000015495405471491564 0.000016040895340336524 0.00001604087234608664 0.00001604080345550789
          0.0000165822828487639 0.000016582261825601037 0.000016582198790633092 0.000012771557143493125 0.000012771543448392605 0.000012771502430870868
          0.000013341953243260236 0.000013341934615735217 0.00001334187873077222 0.000013906278396191746 0.000013906255456078378 0.000013906186709548267
          0.000014465755398311351 0.000014465729206656582 0.000014465650611530521 0.000015021081122103618 0.000015021053344270667 0.00001502097011585102
          0.000015572130836987958 0.000015572102454177997 0.000015572017161759863 0.000016117792000111962 0.000016117766449466758 0.00001611768981781336
          0.00001665614264569725 0.000016656119311745895 0.000016656049289420663 0.000012837291364287023 0.000012837277231450164 0.00001283723479984316
          0.000013419091096431954 0.000013419070461372566 0.000013419008449344041 0.000013993984163712756 0.00001399395772000455 0.000013993878370454925
          0.000014562899622323209 0.000014562868733066646 0.00001456277589932955 0.000015126113096758028 0.000015126080135926976 0.000015125981442427763
          0.000015682921994961427 0.00001568288785256353 0.00001568278512705052 0.000016231385872786914 0.000016231356844947503 0.0000162312702582363
          0.00001676857201633526 0.000016768545729269323 0.000016768467260355234 0.00001292256893760564 0.000012922554475893496 0.00001292251129066097
          0.000013520942735260752 0.000013520919377025134 0.00001352084943878007 0.000014111672929327396 0.000014111641479903787 0.000014111547411196051
          0.000014695104998164703 0.000014695067228134488 0.000014694953856132084 0.000015270776583698628 0.00001527073590804331 0.000015270614283627682
          0.000015837137791024685 0.000015837094708942228 0.000015836964736764768 0.00001639115490203298 0.0000163911200795848 0.000016391015422313176
          0.00001692861512272904 0.00001692858414518299 0.000016928490745071056 0.000012398423583839747 0.000012398420394940041 0.000012398410541593592
          0.000013029723429353098 0.000013029707833694576 0.000013029660776843161 0.000013653106492049755 0.000013653077854596465 0.000013652991546654624
          0.00001426824675433521 0.000014268206469819624 0.000014268085442229582 0.000014874083962045018 0.00001487403476223952 0.000014873886569238101
          0.00001546860313389616 0.000015468550627296737 0.0000154683940392434 0.00001604884259771854 0.00001604878641444933 0.000016048616813736466
          0.000016610194078861894 0.00001661015709459983 0.000016610049097085537 0.00001714680911142938 0.00001714677709967495 0.000017146683160340738
          0.000012493103753061214 0.000012493107501204562 0.000012493119361251874 0.000013161808443034664 0.000013161794052085674 0.000013161751155416638
          0.000013824651241323059 0.000013824618541387751 0.000013824520547912668 0.0000144785733701914 0.000014478524215052534 0.000014478377254658145
          0.000015119110982186581 0.000015119048146017611 0.000015118858697928337 0.0000157410877140642 0.000015741019043468476 0.00001574081408808216
          0.000016338799893443557 0.000016338719825017892 0.000016338475952184523 0.00001690520139247425 0.000016905145941498163 0.000016904977968507493
          0.000017432067534913122 0.000017432021346939497 0.000017431880211706314 0.000012594191279428937 0.000012594200518907685 0.000012594226864395598
          0.00001332331478099303 0.00001332329505970996 0.000013323236226412898 0.000014051580929900494 0.000014051532072140907 0.000014051386292333087
          0.000014768070714748456 0.000014767998275773627 0.000014767782925654385 0.000015461796463255086 0.000015461706834896078 0.000015461438388509145
          0.000016121810848306095 0.000016121719089057576 0.00001612144982963197 0.000016736714770988945 0.000016736610531418655 0.00001673629474151243
          0.000017292781422203708 0.000017292752546450536 0.000017292679946230206 0.000017780212965988986 0.000017780188749084673 0.00001778011942469611
          0.000012686898838978001 0.000012686935542553008 0.000012687048896415089 0.0000135246151870211 0.000013524580812469776 0.00001352447570132201
          0.000014363039836138877 0.000014362956710355054 0.000014362703908162321 0.000015179219560885582 0.000015179101349087158 0.000015178744360654155
          0.000015953055789547245 0.000015952907602189956 0.000015952454246032975 0.00001666371135977081 0.00001666355854993797 0.000016663101691477758
          0.000017288210715620453 0.000017288024778396495 0.000017287449444794826 0.000017797046806300907 0.00001779695206461261 0.00001779666275030544
          0.00001815610665768637 0.00001815609601193861 0.000018156061500320956 0.000016913541133243574 0.00001692620254970633 0.000016913523799778832
          0.0000169261847305864 0.000016913471899508814 0.000016926131335805286 0.000016965343776480242 0.00001696532455768339 0.000016965266830174358
          0.000017034305832460688 0.000017034284355675206 0.000017034219701235757 0.000017138515968584367 0.00001713849133366829 0.00001713841669221088
          0.00001728491705436455 0.00001728488902184897 0.000017284804176089122 0.00001748033565909906 0.000017480302157717967 0.000017480197858551146
          0.00001772624952771121 0.000017726218226383808 0.00001772612370421621 0.000018010387991252382 0.00001801034195754855 0.000018010184423189565
          0.000018244630541705288 0.000018244725367603453 0.000018245015072480955 0.000017300255552330088 0.000017311908449357736 0.000017300239771396795
          0.000017311892428078807 0.00001730019240019779 0.00001731184435035887 0.000017347851313830457 0.000017347834667902538 0.00001734778480647159
          0.00001741093175019418 0.000017410914234192658 0.000017410861950353128 0.000017505555185140783 0.00001750553698221365 0.000017505482978671643
          0.00001763681943680182 0.00001763680181610106 0.000017636750140205034 0.00001780826070464059 0.000017808246364128482 0.00001780820566742409
          0.000018016752258275293 0.00001801675367297352 0.000018016763347332764 0.000018239095643993196 0.0000182391225471844 0.00001823921224120624
          0.000018386196539731457 0.00001838636232615968 0.000018386886885227303 0.000017686941083975355 0.000017697389256941625 0.00001768692747759386
          0.00001769737548539266 0.000017686886732268362 0.000017697334210377353 0.000017729557111474638 0.000017729542861683116 0.000017729500111418053
          0.000017785797384531305 0.00001778578259031323 0.00001778573806305216 0.000017869567428285417 0.000017869552470577388 0.000017869507298716585
          0.000017984350945545322 0.000017984336983751368 0.000017984294414457494 0.000018131208766963714 0.000018131199551419147 0.000018131170621872743
          0.000018303256605431362 0.000018303257589819108 0.000018303257669358005 0.000018472650391013356 0.000018472676244618583 0.00001847274709764391
          0.000018567756427958035 0.000018567828104319194 0.00001856802776465274 0.000018073395959499426 0.00001808244856824164 0.00001807338453867339
          0.000018082437026034743 0.000018073350238678084 0.00001808240243900257 0.00001811027507088748 0.000018110263325140597 0.000018110228112232097
          0.000018158752856561636 0.00001815874100876936 0.000018158705531355043 0.000018230479656080798 0.00001823046827739985 0.000018230434271058526
          0.000018327621889690737 0.000018327612514708237 0.00001832758474059768 0.0000184494039463478 0.00001844939962588151 0.000018449387162707197
          0.000018586848298902505 0.000018586854644039632 0.000018586875278492522 0.000018713293677313057 0.000018713319381421367 0.00001871339844705126
          0.00001877562289893794 0.00001877568084421621 0.000018775864328591676 0.000018459480067638742 0.00001846696005539059 0.000018459470907044987
          0.000018466950835268484 0.00001845944337479548 0.000018466923180261788 0.000018489922284442508 0.000018489913008823853 0.000018489885184914004
          0.000018529800466173226 0.000018529791337185824 0.0000185297638728031 0.000018588446031805168 0.0000185884376616051 0.00001858841247330259
          0.00001866701931728018 0.00001866701308418013 0.00001866699427400249 0.000018763659682690113 0.000018763658131023915 0.000018763653253713736
          0.00001886919089150875 0.00001886919805541319 0.00001886921899699313 0.000018961176646062622 0.000018961198057507542 0.000018961261209357164
          0.000019002083226139957 0.000019002122087260266 0.00001900223560575206 0.00001884513269631396 0.000018850885350392277 0.000018845125835913768
          0.000018850878481891554 0.000018845105320642375 0.00001885085787689619 0.000018868529396301085 0.000018868522489191682 0.00001886850175325859
          0.00001889909567068093 0.000018899089080068117 0.00001889906935548316 0.000018943811187544502 0.00001894380533012152 0.00001894378781844093
          0.000019003161653525673 0.00001900315770397746 0.000019003145879130838 0.00001907498223460388 0.000019074982024035783 0.000019074981450475375
          0.000019151356297256605 0.00001915136260140563 0.00001915138175848056 0.00001921528596718898 0.000019215301761778286 0.000019215349314108155
          0.000019241504223223515 0.000019241530027516242 0.00001924160904022424 0.000019230375153088743 0.000019234275886765834 0.00001923037047539944
          0.000019234271221886085 0.000019230356270291094 0.00001923425722035824 0.000019246237653622267 0.000019246233252289142 0.00001924621996993005
          0.000019266939809193553 0.000019266935358162612 0.00001926692188330295 0.000019297089017610705 0.000019297085339721385 0.00001929707421756698
          0.000019336820368027456 0.000019336818059330365 0.000019336811164296796 0.000019384313433654854 0.00001938431377823025 0.000019384314775122288
          0.00001943385745368663 0.00001943386208335527 0.00001943387589172923 0.000019474182505047367 0.000019474192953501193 0.00001947422414335459
          0.000019489764353519882 0.000019489780673498556 0.000019489829384964745 0.000019615293502215547 0.000019617262619601293 0.000019615291573433096
          0.000019617260495839345 0.000019615285905784207 0.000019617254154136883 0.000019623283351206087 0.00001962328078651102 0.000019623272885220187
          0.000019633746575872294 0.000019633744993272032 0.00001963374044592551 0.000019648915146038724 0.000019648913349981776 0.000019648907973823276
          0.000019668822463136552 0.000019668821452534987 0.000019668818375579118 0.000019692438704844957 0.000019692438958943633 0.000019692439743382387
          0.000019716790236340366 0.000019716792751072875 0.000019716800336073323 0.000019736288080789325 0.000019736293379839044 0.000019736309274817953
          0.000019743551664096326 0.00001974355936536439 0.000019743582618379584 0.00002 0.00002 0.00002
          0.00002 0.00002 0.00002 0.00002 0.00002 0.00002
          0.00002 0.00002 0.00002 0.00002 0.00002 0.00002
          0.00002 0.00002 0.00002 0.00002 0.00002 0.00002
          0.00002 0.00002 0.00002 0.00002 0.00002 0.00002
          0.00002 0.00002 0.00002
        </DataArray>
        <DataArray type="Float64" Name="disp_y" format="ascii" RangeMin="-0.0000020005942997588006" RangeMax="0">
          -0.0000010383671145172098 -0.0000012085367544913825 -0.0000012429949819010642 -0.0000011520218966709843 -0.0000010383658129350066 -0.0000012085397974983696
          -0.000001242999158799868 -0.0000011520224766153124 -0.0000010383619942927535 -0.000001208548488644019 -0.0000012430081324606172 -0.0000011520225211107915
          -9.336204783016955e-7 -8.440890296744977e-7 -8.343979115369487e-7 -9.442171258692507e-7 -9.336215184210494e-7 -8.440887648778458e-7
          -8.34397772389664e-7 -9.442169164312863e-7 -9.336252636860158e-7 -8.440878324865195e-7 -8.343980907965384e-7 -9.442151810419822e-7
          -9.743063944905924e-7 -0.00000108249738438367 -9.743094449734055e-7 -0.0000010825060635845968 -9.743191124944938e-7 -0.000001082536674721673
          -7.174952239276698e-7 -7.085502876030893e-7 -8.465893406990169e-7 -7.174943078280909e-7 -7.085480393545146e-7 -8.46586489439583e-7
          -7.174915300313006e-7 -7.085417598223318e-7 -8.465769162011348e-7 -0.0000012320660719247587 -0.0000012728664748652112 -0.0000012626727481341135
          -0.0000011869032919964061 -0.0000012320706687570477 -0.0000012728706956728834 -0.0000012626770041670508 -0.0000011869075634013725 -0.000001232086633928799
          -0.0000012728818270851935 -0.0000012626905758051677 -0.0000011869201413813873 -0.0000013719208576467242 -0.00000138224293964565 -0.0000013201919793695212
          -0.0000012951850702794376 -0.0000013719278511829687 -0.0000013822494601901078 -0.0000013201964063671845 -0.0000012951902501983066 -0.0000013719482358292318
          -0.0000013822705823315887 -0.000001320206843446096 -0.0000012952068385980696 -8.678243253200449e-7 -7.887696443598239e-7 -7.469731477302012e-7
          -8.678247274375297e-7 -7.887707997807591e-7 -7.469720545821983e-7 -8.678261808283564e-7 -7.887748683770884e-7 -7.46967935320175e-7
          -8.741818290751972e-7 -8.741784299026666e-7 -8.741680972169091e-7 -6.559602749363457e-7 -7.100221551834986e-7 -6.559614338955305e-7
          -7.100223141007561e-7 -6.559651634500427e-7 -7.100220824017975e-7 -7.170513399901423e-7 -5.726221939998219e-7 -7.170475853146992e-7
          -5.726188488446772e-7 -7.170364415805335e-7 -5.726084267053106e-7 -0.0000013082791516766301 -0.0000012724631897898716 -0.0000013082832240218612
          -0.0000012724672179963175 -0.0000013082955442661068 -0.0000012724799426534389 -0.0000012068980058492512 -0.0000011688066404387214 -0.0000010855914622003536
          -0.0000011427068904169146 -0.0000012069017978185802 -0.0000011688103917828624 -0.0000010855943302903983 -0.0000011427107471972926 -0.0000012069125628776651
          -0.0000011688222186353756 -0.0000010856029970117113 -0.0000011427222730821193 -7.6721257963158e-7 -7.672133166694491e-7 -7.672147799404727e-7
          -0.0000012386424333036168 -0.000001238645944733807 -0.0000012386559191728531 -5.8005149171252e-7 -5.800507104744831e-7 -5.800484239569001e-7
          -0.000001038014328699574 -0.0000010094666360402645 -0.0000010380166189363163 -0.0000010094687491082011 -0.0000010380213787278847 -0.0000010094763157609115
          -8.506934566037636e-7 -8.575616920302031e-7 -9.306721717756086e-7 -9.330843164327529e-7 -8.506951620494086e-7 -8.57563515345668e-7
          -9.306739714488641e-7 -9.33086494256883e-7 -8.507004655502975e-7 -8.575694736099743e-7 -9.306797668372677e-7 -9.330932276042304e-7
          -0.0000011665303310552157 -0.0000012244866863872275 -0.0000011665334772827537 -0.0000012244888110660794 -0.000001166540509399717 -0.000001224493988884239
          -0.0000011952367418678325 -0.000001195240334026129 -0.0000011952510150282806 -0.000001336175451162738 -0.0000013361803011926145 -0.0000013361948585895106
          -0.0000010864037122405696 -0.000001132204865777215 -0.00000108640590327997 -0.0000011322078357034927 -0.000001086412431331132 -0.0000011322158421205796
          -0.0000013157664037723337 -0.0000013643699166619128 -0.000001315772436263622 -0.0000013643773392732095 -0.0000013157896455198372 -0.000001364400091603227
          -9.207128134477581e-7 -8.685023819348421e-7 -9.207141386567858e-7 -8.685037642255111e-7 -9.207184149994542e-7 -8.685061482206941e-7
          -0.00000122635713277512 -0.0000012263609709222134 -0.000001226371978254568 -7.672532689442827e-7 -7.67254396441365e-7 -7.672579965272224e-7
          -0.0000012612808411599748 -0.000001261284753309718 -0.0000012612965228619636 -8.328768547925605e-7 -8.328783084494456e-7 -8.328835670210012e-7
          -0.0000011445076608292377 -0.000001144511261266356 -0.000001144523009730999 -0.0000014691544705673351 -0.0000014207923762044345 -0.0000014691608520151699
          -0.0000014207978654148928 -0.0000014691799688476977 -0.0000014208149193305585 -0.0000011174540012029669 -0.0000011174580569072633 -0.000001117470847612404
          -0.000001076285306764602 -0.0000010295512782564082 -0.000001076289046245285 -0.0000010295534860895374 -0.0000010763006078103585 -0.0000010295601824205583
          -9.940591062833188e-7 -0.0000010074608847086674 -9.940608932849341e-7 -0.0000010074623937708006 -9.940661298859725e-7 -0.0000010074662926722748
          -0.000001285333769260997 -0.0000013494077079663543 -0.0000012853395087393634 -0.000001349415336537687 -0.0000012853577782250138 -0.0000013494341492313919
          -0.000001082739207221515 -0.0000010827415532510977 -0.0000010827480716008015 -0.0000013715366829321854 -0.000001371541180609386 -0.0000013715540245566339
          -0.0000010140658234042441 -0.0000010140677604848568 -0.0000010140733552330736 -0.0000013026991030461092 -0.0000013270913950208459 -0.0000013027031850534703
          -0.0000013270955153973714 -0.0000013027147785557757 -0.000001327108157214207 -0.0000014139939543185246 -0.0000014629557453859706 -0.0000014139997737385082
          -0.0000014629625016543955 -0.000001414017445492412 -0.0000014629842227153657 -0.000001351785622399351 -0.0000013935487190871733 -0.0000014045678522498895
          -0.0000013517905246134016 -0.0000013935550042334528 -0.0000014045740599739688 -0.0000013518049674907474 -0.0000013935741119587861 -0.000001404592819782431
          -0.0000014562784086604845 -0.0000014562854505598755 -0.000001456306681631674 -8.967381994828986e-7 -9.662350391852354e-7 -8.967390758151596e-7
          -9.662361659149918e-7 -8.967409293109282e-7 -9.662397068496966e-7 -0.0000013320036624941373 -0.0000013382713138948024 -0.000001332016240406185
          -0.0000013382787587591444 -0.0000013320671612228765 -0.0000013383147561927814 -0.0000014491100972062607 -0.0000014491174339224685 -0.0000014491392081641128
          -0.0000013642645591714385 -0.0000013642693347896417 -0.0000013642825054483284 -9.930728491335067e-7 -9.930744999833311e-7 -9.930784822733e-7
          -0.000001424255010072776 -0.000001433122366968996 -0.0000014242637934777938 -0.0000014331305312255814 -0.0000014242900572195074 -0.0000014331554277469165
          -0.0000014414062151383932 -0.0000014414146052888105 -0.0000014414402393543546 -0.000001414674383646537 -0.000001414685421217356 -0.0000014147257774428862
          -9.411055456635052e-7 -9.411059352432514e-7 -9.411058553999455e-7 -0.0000014043063232224285 -0.000001404310027515726 -0.0000014043071320701361
          -0.000001393166973670977 -0.0000013931573293857153 -0.0000013930910760543084 -0.000001381687834449984 -0.000001381692924053282 -0.0000013817113939456947
          -6.812639351492756e-7 -6.812570279018268e-7 -6.812362116685461e-7 -8.325950517302285e-7 -8.325881443899299e-7 -8.325677104642258e-7
          -9.930792964151723e-7 -9.93072574819094e-7 -9.930519500529699e-7 -0.0000011631430865323877 -0.0000011631447825251356 -0.0000011631503973427907
          -0.00000133921547656317 -0.000001339226883846407 -0.0000013392608841101558 -1.1784210305300499e-7 0 -1.178389525068607e-7
          0 -1.1782953497122634e-7 0 -1.2357807288438217e-7 0 -1.235750863155924e-7
          0 -1.2356613584135782e-7 0 -1.3401329771211943e-7 0 -1.3401077988666524e-7
          0 -1.3400321586948138e-7 0 -1.4903505546876855e-7 0 -1.4903331170626044e-7
          0 -1.4902805355529414e-7 0 -1.6815971137059327e-7 0 -1.6815899585007308e-7
          0 -1.681568163130151e-7 0 -1.905979052620333e-7 0 -1.9059835732860505e-7
          0 -1.9059967733308948e-7 0 -2.1537646555572238e-7 0 -2.1537816240289174e-7
          0 -2.153832357261981e-7 0 -2.415187919802628e-7 0 -2.4152130969960754e-7
          0 -2.415287975723865e-7 0 -2.354443997769914e-7 -2.3543793407642177e-7 -2.3541841252384677e-7
          -2.467936111489727e-7 -2.467876193157748e-7 -2.467695790093791e-7 -2.677220111050929e-7 -2.677172083930058e-7 -2.6770275473064456e-7
          -2.9794453108533153e-7 -2.9794151236515803e-7 -2.9793244789077373e-7 -3.363901150892693e-7 -3.3638930018346205e-7 -3.363868874990232e-7
          -3.813518107324973e-7 -3.813533559144862e-7 -3.813580358313694e-7 -4.307512444142476e-7 -4.3075522816531926e-7 -4.307672989291651e-7
          -4.825058362240291e-7 -4.825113554241729e-7 -4.825279881646232e-7 -3.5264499234970614e-7 -3.5263453334531456e-7 -3.526034434012218e-7
          -3.692055189505803e-7 -3.691957539971334e-7 -3.691666749453793e-7 -4.00544734506291e-7 -4.005368456199221e-7 -4.005133425384696e-7
          -4.4614223654157154e-7 -4.4613726299113413e-7 -4.4612243402638377e-7 -5.041963078936649e-7 -5.041950023332653e-7 -5.041911075972778e-7
          -5.718712880713695e-7 -5.718739615687451e-7 -5.718819095840611e-7 -6.457132428317162e-7 -6.457200178557971e-7 -6.457401956015139e-7
          -7.222493849946815e-7 -7.222585956597676e-7 -7.222858129266338e-7 -4.6957037610049557e-7 -4.695547261684719e-7 -4.69507009889202e-7
          -4.906090145531297e-7 -4.905943153553364e-7 -4.905496174154861e-7 -5.320604950685374e-7 -5.320486752807685e-7 -5.320127273004198e-7
          -5.93094407315e-7 -5.930871301940901e-7 -5.930649947174555e-7 -6.710052558605981e-7 -6.710037527683377e-7 -6.709991778095551e-7
          -7.615536979752788e-7 -7.615584702957385e-7 -7.615728809930999e-7 -8.595043718038527e-7 -8.595157760064752e-7 -8.595506045187456e-7
          -9.5950145151981e-7 -9.59516689962308e-7 -9.595631247103986e-7 -5.869293392192223e-7 -5.869083280753065e-7 -5.868469354602137e-7
          -6.113140295410256e-7 -6.112941533732128e-7 -6.112358437841396e-7 -6.621960815284903e-7 -6.621802911258165e-7 -6.621339733571005e-7
          -7.383296322966521e-7 -7.383203494884112e-7 -7.382931627752155e-7 -8.359496177181062e-7 -8.359485865138838e-7 -8.35945689196586e-7
          -9.491535443963868e-7 -9.491615175680865e-7 -9.491850891792103e-7 -0.0000010704205334250174 -0.000001070437601815084 -0.0000010704878130521356
          -0.0000011917114373266327 -0.0000011917321421993129 -0.0000011917919801237897 -7.115832352699074e-7 -7.115505329765098e-7 -7.114495168669367e-7
          -7.066409234349117e-7 -7.066050632487017e-7 -7.064944577670845e-7 -7.327358583171743e-7 -7.327023542617784e-7 -7.325993601729712e-7
          -7.91560141925396e-7 -7.915335826003285e-7 -7.914519771610461e-7 -8.812961467590226e-7 -8.812806667566979e-7 -8.812330156988749e-7
          -9.971580608138255e-7 -9.97156991455113e-7 -9.971535884134746e-7 -0.0000011315920947243568 -0.0000011316070518319318 -0.0000011316524132710634
          -0.000001274296808223221 -0.0000012743309953500015 -0.0000012744363606743653 -0.0000014134069198081123 -0.0000014134502136690063 -0.0000014135833527982585
          -8.439873467402327e-7 -8.439609043112821e-7 -8.438849491096188e-7 -8.327834699875827e-7 -8.327527498904261e-7 -8.326639596785918e-7
          -8.582647644385658e-7 -8.582348930851334e-7 -8.581479796945908e-7 -9.216780260870225e-7 -9.216554291906161e-7 -9.215896844758282e-7
          -0.0000010206376367072727 -0.000001020626895180899 -0.0000010205957962674022 -0.0000011499553192367633 -0.0000011499595785600344 -0.000001149972412853182
          -0.000001301299338765875 -0.0000013013200216147533 -0.0000013013807034641613 -0.000001461788105591075 -0.0000014618258045400423 -0.0000014619361894668577
          -0.0000016137936733464197 -0.0000016138278304145894 -0.0000016139239318298755 -9.936390861226218e-7 -9.935604105242313e-7 -9.933250401386545e-7
          -9.753245255716517e-7 -9.752352785237769e-7 -9.749687164005509e-7 -9.960632497814625e-7 -9.959826326062882e-7 -9.957422545086018e-7
          -0.000001055948268273435 -0.000001055887044939832 -0.000001055704860582272 -0.0000011531102955148516 -0.0000011530773356075525 -0.0000011529799182681963
          -0.0000012835076009089412 -0.0000012835117023820292 -0.0000012835257757628759 -0.0000014398938745407357 -0.0000014399410501616664 -0.000001440083343848909
          -0.000001610559076124735 -0.0000016106658974751918 -0.0000016109910654318189 -0.0000017721691015892435 -0.0000017723153026140836 -0.000001772751163034628
          -0.0000011770781378532372 -0.0000011769254235514143 -0.0000011764593522169576 -0.000001151358858534974 -0.0000011511897028874332 -0.0000011506736804829308
          -0.0000011571137589107966 -0.0000011569650504492734 -0.0000011565113192771504 -0.0000011958372194648098 -0.0000011957226814428884 -0.0000011953726005109258
          -0.0000012681761904280411 -0.0000012681106790782314 -0.0000012679087940228746 -0.0000013736382088161567 -0.0000013736379628635375 -0.0000013736343517299728
          -0.000001509640424008923 -0.000001509717066206795 -0.0000015099451865439164 -0.0000016697620487590178 -0.0000016699633285039194 -0.0000016705665365239522
          -0.0000018558573930521628 -0.000001856151262548266 -0.0000018570469308239047 0 -2.503172265694352e-7 0
          -2.503203961742752e-7 0 -2.503298983389786e-7 -4.998454105211459e-7 -4.998522198747286e-7 -4.998727668412588e-7
          -7.475622820057791e-7 -7.475734527676517e-7 -7.476068156786778e-7 -9.918662087043623e-7 -9.918841403286908e-7 -9.919385751405611e-7
          -0.0000012299216219955734 -0.0000012299463605597146 -0.0000012300196207805816 -0.0000014563867013272043 -0.0000014564332429044311 -0.0000014565754729167128
          -0.000001662202320401476 -0.0000016622519417635822 -0.0000016623990879818735 -0.0000018320657759473823 -0.0000018322002775853437 -0.000001832607535036859
          -0.0000019387750343818567 -0.0000019390193722256622 -0.0000019397563725208767 0 -2.578679180973117e-7 0
          -2.578714408023971e-7 0 -2.578819962778727e-7 -5.145509809652116e-7 -5.145583868664974e-7 -5.145805944580131e-7
          -7.685887269779889e-7 -7.686008338623341e-7 -7.686371252015759e-7 -0.000001017881124726656 -0.000001017899237330262 -0.0000010179535813741365
          -0.000001259091233894695 -0.0000012591175718549701 -0.0000012591964980440893 -0.0000014867072762042535 -0.0000014867464971677433 -0.0000014868640487903907
          -0.000001692108538980193 -0.0000016921604985683173 -0.000001692316432728541 -0.0000018593462135050575 -0.000001859430760260168 -0.0000018596813265785917
          -0.000001975247539616827 -0.0000019753567684670714 -0.0000019756841507516273 0 -2.641141031230815e-7 0
          -2.6411786646844225e-7 0 -2.6412915566334276e-7 -5.265530612518706e-7 -5.265608970559864e-7 -5.265844110569543e-7
          -7.853226089790146e-7 -7.853351154884241e-7 -7.853726576125123e-7 -0.0000010377233793059763 -0.0000010377416499703847 -0.00000103779649347475
          -0.0000012798142951199626 -0.0000012798397935554019 -0.0000012799162745339297 -0.0000015057075072543738 -0.0000015057423109196235 -0.0000015058468190427105
          -0.0000017063798005212968 -0.0000017064247948354009 -0.0000017065597803940458 -0.0000018692049866906833 -0.0000018692605006018302 -0.0000018694268442403429
          -0.000001991731340363274 -0.000001991791462442472 -0.0000019919725563723664 0 -2.69090592925429e-7 0
          -2.690944984428194e-7 0 -2.691062205495635e-7 -5.359701381731669e-7 -5.359781773863386e-7 -5.360022882118553e-7
          -7.98069190971577e-7 -7.98081807046087e-7 -7.981196505494892e-7 -0.0000010520629431327288 -0.000001052080799028856 -0.0000010521343625702
          -0.0000012934180716326464 -0.0000012934419232075132 -0.0000012935135116115715 -0.0000015158516489958659 -0.000001515882042791711 -0.0000015159731117562176
          -0.0000017109828864249854 -0.0000017110195619936483 -0.0000017111297672113882 -0.0000018706437353934653 -0.0000018706801492037225 -0.0000018707889383027995
          -0.000001998552563735298 -0.000001998585244207739 -0.0000019986829317765467 0 -2.728934648333376e-7 0
          -2.728974484129532e-7 0 -2.729093885529655e-7 -5.430468949272451e-7 -5.430550055327902e-7 -5.43079313466362e-7
          -8.073328855130911e-7 -8.073453654111767e-7 -8.073828086644144e-7 -0.000001061847548860668 -0.0000010618647159902342 -0.0000010619162460393485
          -0.0000013015575589608246 -0.0000013015795780541358 -0.0000013016456395921453 -0.0000015201097573686497 -0.0000015201361701259146 -0.0000015202153513407778
          -0.0000017104543301768439 -0.0000017104837079370815 -0.0000017105719768924354 -0.0000018682673626904756 -0.0000018682918468215369 -0.0000018683650669160482
          -0.000002000522384404707 -0.0000020005403941473307 -0.0000020005942997588006 0 -2.756524916038175e-7 0
          -2.756565039720014e-7 0 -2.756685392901132e-7 -5.480927953419746e-7 -5.481008707627396e-7 -5.481251196498e-7
          -8.137078731089068e-7 -8.137201025931793e-7 -8.137568290302477e-7 -0.0000010681108195753776 -0.0000010681272826687502 -0.0000010681765936936924
          -0.0000013059319260361357 -0.000001305952231016874 -0.0000013060132168416453 -0.0000015210217101935075 -0.0000015210448624104152 -0.0000015211141904588462
          -0.000001707760271522444 -0.0000017077840806652584 -0.000001707855642720851 -0.0000018646405987129531 -0.0000018646575233205479 -0.000001864708116596505
          -0.0000020002314988564465 -0.000002000241494060886 -0.0000020002712248182287 0 -2.775025584758596e-7 0
          -2.7750657140986924e-7 0 -2.7751863158057774e-7 -5.514219852967351e-7 -5.514299563830382e-7 -5.514538549309148e-7
          -8.177719751260741e-7 -8.177840056311587e-7 -8.178200803489818e-7 -0.0000010718131299686895 -0.000001071828938753758 -0.0000010718764095440329
          -0.0000013079903825495277 -0.0000013080094090731743 -0.000001308066481403145 -0.0000015204568297801924 -0.0000015204775546374842 -0.0000015205396709197927
          -0.0000017047602087599197 -0.0000017047802033642047 -0.0000017048403355652791 -0.0000018612334589582739 -0.0000018612458278778427 -0.0000018612827561610561
          -0.000001999173739355151 -0.0000019991791483467287 -0.000001999195201097014 0 -2.785544832554148e-7 0
          -2.7855839755792746e-7 0 -2.7857006424702716e-7 -5.533009186059102e-7 -5.533089223409454e-7 -5.533329745412818e-7
          -8.200029346894173e-7 -8.200147409207641e-7 -8.200502389862438e-7 -0.0000010737103307322026 -0.0000010737257588876713 -0.0000010737719929176747
          -0.0000013087991023430598 -0.00000130881723544553 -0.0000013088716491456046 -0.0000015196537199616623 -0.0000015196729976430545 -0.0000015197307551508702
          -0.000001702569209792426 -0.000001702587010832563 -0.0000017026405432486645 -0.0000018588947272799945 -0.0000018589046481032965 -0.000001858934236988158
          -0.0000019982293801792466 -0.0000019982324105736232 -0.00000199824130049915 0 -2.788968158017627e-7 0
          -2.7890133175303347e-7 0 -2.7891502184827825e-7 -5.53910916382914e-7 -5.53918299869168e-7 -5.539403955257262e-7
          -8.207044261953573e-7 -8.207163762902362e-7 -8.207521447718719e-7 -0.0000010742901454061779 -0.0000010743052985265915 -0.0000010743507681467912
          -0.000001308996975507281 -0.0000013090149229686292 -0.0000013090688176324475 -0.0000015193129025727489 -0.0000015193315861740225 -0.0000015193874993894927
          -0.0000017017743132850692 -0.0000017017914541911142 -0.0000017018430250507378 -0.0000018580627659420395 -0.0000018580718068065347 -0.0000018580987684845844
          -0.00000199786053993463 -0.0000019978631513838214 -0.000001997870940501987
        </DataArray>
        <DataArray type="Float64" Name="disp_z" format="ascii" RangeMin="-4.619684956899759e-8" RangeMax="0">
          0 0 0 0 -1.8214576511019002e-8 -1.8256906521221703e-8
          -1.8064814175319674e-8 -1.793351610097391e-8 -3.6428688180373504e-8 -3.651617506376413e-8 -3.613379719690857e-8 -3.586328402039946e-8
          0 0 0 0 -1.7894624378404867e-8 -1.7894889194071302e-8
          -1.7963655737853508e-8 -1.794483763550621e-8 -3.579069799861561e-8 -3.579003905249004e-8 -3.592686673752127e-8 -3.588813957769282e-8
          0 0 -1.808958540486803e-8 -1.7946686985278635e-8 -3.618066098284278e-8 -3.589494842312552e-8
          0 0 0 -1.79492850935996e-8 -1.8045980061862567e-8 -1.8080483637794298e-8
          -3.589796916340505e-8 -3.609261591511598e-8 -3.616037211942788e-8 0 0 0
          0 -1.7782675211344835e-8 -1.7731381130792522e-8 -1.771202719408375e-8 -1.7781933918217575e-8 -3.55644257267739e-8
          -3.5461588562428565e-8 -3.5424222337246616e-8 -3.556497132251167e-8 0 0 0
          0 -1.773941367475451e-8 -1.7701857029130395e-8 -1.7729061762401358e-8 -1.7792388384669467e-8 -3.547893199279584e-8
          -3.540324733615087e-8 -3.5459844862969466e-8 -3.558354772021244e-8 0 0 0
          -1.783714318665567e-8 -1.7832080094984352e-8 -1.7875018868806858e-8 -3.567436336327267e-8 -3.566393543121257e-8 -3.575099617762414e-8
          0 -1.8161718221109514e-8 -3.63230528538278e-8 0 0 -1.7847629983982117e-8
          -1.783027220101644e-8 -3.5694803542593196e-8 -3.566131552999959e-8 0 0 -1.8093086686653522e-8
          -1.7999045732550842e-8 -3.6185997333953175e-8 -3.599826777456826e-8 0 0 -1.761596261145681e-8
          -1.761652086862848e-8 -3.5232147886084876e-8 -3.523304066061352e-8 0 0 0
          0 -1.7699716328725822e-8 -1.768956356421357e-8 -1.774245539191887e-8 -1.775954293593103e-8 -3.539945246418519e-8
          -3.537905774524168e-8 -3.548515584209441e-8 -3.55186937455633e-8 0 -1.7749170592215387e-8 -3.549848962537867e-8
          0 -1.7616244460684635e-8 -3.5232448480464654e-8 0 -1.792025704761094e-8 -3.584033628415549e-8
          0 0 -1.791545521864681e-8 -1.786816597339972e-8 -3.5829992946547203e-8 -3.5736121823830967e-8
          0 0 0 0 -1.7737889090468566e-8 -1.775852563402477e-8
          -1.773616175703994e-8 -1.771248581888319e-8 -3.5475319733798033e-8 -3.551776339693887e-8 -3.547215206983503e-8 -3.542497251334073e-8
          0 0 -1.7865994012899307e-8 -1.789418242108387e-8 -3.573286682222062e-8 -3.579136866589248e-8
          0 -1.7647527491079367e-8 -3.529494504373235e-8 0 -1.768206386385132e-8 -3.536351371049405e-8
          0 0 -1.768066022577427e-8 -1.767188487138657e-8 -3.5360524711073e-8 -3.5343746848544643e-8
          0 0 -1.7821307654917116e-8 -1.7790605305794276e-8 -3.564274292015802e-8 -3.5582880416995944e-8
          0 0 -1.7765079451668364e-8 -1.776167720895833e-8 -3.5531027577115186e-8 -3.5522326165265866e-8
          0 -1.7652417448977052e-8 -3.530500514745535e-8 0 -1.7781608076372406e-8 -3.556303361064478e-8
          0 -1.7654385633942686e-8 -3.530891233857049e-8 0 -1.7785235200135968e-8 -3.557011567363057e-8
          0 -1.7683781092606858e-8 -3.5367282879121803e-8 0 0 -1.7543435678306747e-8
          -1.7571240329259378e-8 -3.508679819727137e-8 -3.51421041712764e-8 0 -1.7840755756731697e-8 -3.5681244626125814e-8
          0 0 -1.782281876414862e-8 -1.7810681551368584e-8 -3.564517012008492e-8 -3.562145332328395e-8
          0 0 -1.7751099547891777e-8 -1.7724847714361018e-8 -3.55014187340178e-8 -3.5450067168962137e-8
          0 0 -1.7883553146041026e-8 -1.7876594071708874e-8 -3.576494643753606e-8 -3.574905191134718e-8
          0 -1.771197607140799e-8 -3.5424214428899814e-8 0 -1.759346813202317e-8 -3.5187289221652844e-8
          0 -1.7695612861619156e-8 -3.5391260788960136e-8 0 0 -1.765678813474935e-8
          -1.7627066746419628e-8 -3.531373199100719e-8 -3.525375422582378e-8 0 0 -1.759631165255912e-8
          -1.7565567645496116e-8 -3.5192889866732754e-8 -3.5130440042721786e-8 0 0 0
          -1.7648364343135996e-8 -1.7656182847755868e-8 -1.762331802411359e-8 -3.52968982184117e-8 -3.531195833015025e-8 -3.5246670283197775e-8
          0 -1.7592200896344936e-8 -3.5184358488297687e-8 0 0 -1.7797210396788615e-8
          -1.7796742555075e-8 -3.559540297649825e-8 -3.559340855441334e-8 0 0 -1.7910546083125198e-8
          -1.7846270304486054e-8 -3.5828650520383754e-8 -3.5668322955660326e-8 0 -1.762254942320339e-8 -3.5244829155454935e-8
          0 -1.761545917987623e-8 -3.523034569664112e-8 0 -1.7849220430954886e-8 -3.56990787795183e-8
          0 0 -1.7742798504969455e-8 -1.7692279524855826e-8 -3.548587135980001e-8 -3.5383948715061294e-8
          0 -1.765472652907051e-8 -3.530947874623142e-8 0 -1.7792506868132946e-8 -3.5580849835988704e-8
          0 -1.784429246328248e-8 -3.5687175931132274e-8 0 -1.787395649981627e-8 -3.576216440878433e-8
          0 -1.801956261393838e-8 -3.605940472876089e-8 0 -1.8164723374199772e-8 -3.633019306173563e-8
          0 -1.8252920616253258e-8 -3.6505995379994734e-8 0 -1.838766206859034e-8 -3.677597254276798e-8
          0 -1.8515649701366007e-8 -3.7031005595655916e-8 0 -1.8582430992944244e-8 -3.71639786722881e-8
          0 -1.8420366067233154e-8 -3.684072151194548e-8 0 0 -1.731823221627909e-8
          -1.7290895698604633e-8 -3.463653846063323e-8 -3.458186716762781e-8 0 0 -1.7001105262569786e-8
          -1.6975949576751136e-8 -3.400222514883473e-8 -3.395183246626801e-8 0 0 -1.6616998287590283e-8
          -1.6596511404328612e-8 -3.323405417825136e-8 -3.3193001624430156e-8 0 0 -1.6179645654690707e-8
          -1.6166600242399194e-8 -3.235934387406496e-8 -3.2333151310417466e-8 0 0 -1.5708749232178783e-8
          -1.5705869303877758e-8 -3.1417543575043905e-8 -3.141171102083355e-8 0 0 -1.5227067877167643e-8
          -1.5236309774439498e-8 -3.04541698072749e-8 -3.047258429956064e-8 0 0 -1.4757442626777348e-8
          -1.4780195351613714e-8 -2.9514882063421928e-8 -2.9560394655337292e-8 0 0 -1.432148925577982e-8
          -1.4352765869197926e-8 -2.8642934703957098e-8 -2.8705518036300538e-8 0 -1.740788076731001e-8 -3.481572890108053e-8
          0 -1.7082425457080892e-8 -3.416475522395888e-8 0 -1.6680066104851812e-8 -3.336004892328538e-8
          0 -1.6215629623522253e-8 -3.243119484234269e-8 0 -1.5710918799370623e-8 -3.142174201750936e-8
          0 -1.519204272838387e-8 -3.0384131325829224e-8 0 -1.4681448764193952e-8 -2.9362871955424337e-8
          0 -1.4219205523200106e-8 -2.843854929278814e-8 0 -1.7568843482539658e-8 -3.513792428402418e-8
          0 -1.7232265323998748e-8 -3.4464707019107284e-8 0 -1.680041697724545e-8 -3.3600985104807763e-8
          0 -1.6289195926802358e-8 -3.257855679928779e-8 0 -1.5723359491675987e-8 -3.14466712135803e-8
          0 -1.5134589000695723e-8 -3.02693415923166e-8 0 -1.4545694705274124e-8 -2.909104623989274e-8
          0 -1.403090563624879e-8 -2.80616692074189e-8 0 -1.7817092834678323e-8 -3.5633599190556494e-8
          0 -1.7465748270602322e-8 -3.493096938807057e-8 0 -1.6988725743099608e-8 -3.397698578740107e-8
          0 -1.6403603287292114e-8 -3.2807010069997996e-8 0 -1.5739771525615007e-8 -3.1479222583488054e-8
          0 -1.5037957736423952e-8 -3.0076438702706585e-8 0 -1.4321369518837498e-8 -2.8642913470918415e-8
          0 -1.3726061259697926e-8 -2.7453301413725068e-8 0 -1.8178566622164974e-8 -3.635868891203294e-8
          0 -1.780865694699172e-8 -3.56186518167927e-8 0 -1.7265023051319963e-8 -3.453104116704283e-8
          0 -1.656809638116144e-8 -3.31370790500181e-8 0 -1.5753951022076333e-8 -3.150767086150275e-8
          0 -1.4877255496705659e-8 -2.9754924251827e-8 0 -1.395925201376929e-8 -2.7916288370675156e-8
          0 -1.324665876147459e-8 -2.6491886825418996e-8 0 -1.8836280521932048e-8 -3.7669352420823304e-8
          0 -1.8685626248759266e-8 -3.7367906638444325e-8 0 -1.8292125878587948e-8 -3.658146898335665e-8
          0 -1.7650274886044817e-8 -3.5298158473839006e-8 0 -1.678757968271754e-8 -3.3574112818547914e-8
          0 -1.5749002765812515e-8 -3.1496745451377844e-8 0 -1.4606640579122775e-8 -2.9215961809064843e-8
          0 -1.3376943380269176e-8 -2.6755595258828786e-8 0 -1.252935598484854e-8 -2.5064800035267198e-8
          0 -1.9538123365539294e-8 -3.908053790492589e-8 0 -1.9469920292782946e-8 -3.894432009793531e-8
          0 -1.9033990182071493e-8 -3.8071951629772476e-8 0 -1.823855787093273e-8 -3.6479815516056944e-8
          0 -1.7114592933867222e-8 -3.4231780603344594e-8 0 -1.57156701370562e-8 -3.1429710794863504e-8
          0 -1.4146490399678962e-8 -2.8294397030481267e-8 0 -1.2343147052057678e-8 -2.4677862290851116e-8
          0 -1.1256683262951364e-8 -2.2509446807217187e-8 0 -2.0194646789639807e-8 -4.0388766754909224e-8
          0 -2.0251494939956047e-8 -4.050212565048463e-8 0 -1.9784749377409083e-8 -3.956923177189093e-8
          0 -1.87947562320092e-8 -3.758880997163094e-8 0 -1.735280674266975e-8 -3.4707529600080545e-8
          0 -1.5528476214399892e-8 -3.10539619310234e-8 0 -1.3438715100841328e-8 -2.6886786883086656e-8
          0 -1.0991682027374553e-8 -2.197851002439459e-8 0 -9.842226469265558e-9 -1.9693126046246593e-8
          0 -2.272990089377425e-8 -4.546729908531943e-8 0 -2.3094496448288608e-8 -4.619684956899759e-8
          0 -2.233044545889185e-8 -4.466966292274235e-8 0 -2.078528202972237e-8 -4.157664425825959e-8
          0 -1.8494769039722375e-8 -3.6998114296079084e-8 0 -1.5459678749665988e-8 -3.0915610116918365e-8
          0 -1.1844740814748441e-8 -2.3700974861796315e-8 0 -6.8115016032912805e-9 -1.361141418151187e-8
          0 -3.391144129583885e-9 -6.786677248971311e-9 0 0 -1.4086193300108347e-8
          -1.4045764933054013e-8 -2.8172458580467896e-8 -2.8091547685999926e-8 0 -1.3917328178397293e-8 -2.7834652551521147e-8
          0 -1.3684980334912304e-8 -2.7369512362672015e-8 0 -1.3316414816179674e-8 -2.6632778764318797e-8
          0 -1.2748387507236006e-8 -2.549441587853547e-8 0 -1.1906544728077111e-8 -2.38131189282114e-8
          0 -1.046038366073164e-8 -2.0913597783445765e-8 0 -8.63536147089566e-9 -1.7259629899233385e-8
          0 -3.1879065346993533e-9 -6.3561747672958696e-9 0 0 -1.383857722445708e-8
          -1.379347497640314e-8 -2.7677083808386537e-8 -2.7586907668831195e-8 0 -1.365298725731387e-8 -2.730602963072389e-8
          0 -1.3402737389903882e-8 -2.6805679067152195e-8 0 -1.3014322427333892e-8 -2.602922095948948e-8
          0 -1.2444735853852972e-8 -2.4890256907313786e-8 0 -1.1609429250013917e-8 -2.322157440730247e-8
          0 -1.041353176231656e-8 -2.0830122353636177e-8 0 -8.753003308103063e-9 -1.7517206111005054e-8
          0 -6.1569258597041385e-9 -1.2325878589458653e-8 0 0 -1.3621583461910497e-8
          -1.357313914395308e-8 -2.7243206043895243e-8 -2.7146301596903973e-8 0 -1.3423791792518383e-8 -2.684756011802002e-8
          0 -1.3161610559601725e-8 -2.6323107149878425e-8 0 -1.2765537687754714e-8 -2.5530837073209928e-8
          0 -1.22013061085691e-8 -2.4402043666391302e-8 0 -1.1425676598701737e-8 -2.2850450770567674e-8
          0 -1.0388682439196856e-8 -2.0774780220297724e-8 0 -9.092990899097254e-9 -1.8181330814272557e-8
          0 -7.572325427195498e-9 -1.5126352904705378e-8 0 0 -1.3436019569392837e-8
          -1.3385592184265998e-8 -2.6872019159097527e-8 -2.6771171239559513e-8 0 -1.3231415617128938e-8 -2.6462842875823623e-8
          0 -1.2964916688365981e-8 -2.592987274794179e-8 0 -1.2571650459392547e-8 -2.5143391490337465e-8
          0 -1.2032348591215436e-8 -2.406495484804504e-8 0 -1.1330041126843339e-8 -2.2660344379189998e-8
          0 -1.0459181093541138e-8 -2.0919543552250716e-8 0 -9.48343807131302e-9 -1.896810042854254e-8
          0 -8.60899272014698e-9 -1.7222273031092758e-8 0 0 -1.328340378372212e-8
          -1.323196769197988e-8 -2.656683403547053e-8 -2.6463951529254193e-8 0 -1.3075810455138139e-8 -2.6151613491439394e-8
          0 -1.2809711905209288e-8 -2.5619438179409314e-8 0 -1.2425909456842924e-8 -2.485178473624763e-8
          0 -1.191786098671404e-8 -2.383567266518452e-8 0 -1.1288319327741906e-8 -2.2576411152635197e-8
          0 -1.0561292746235714e-8 -2.1122437100909747e-8 0 -9.83214303463521e-9 -1.9663372241952256e-8
          0 -9.312499393855709e-9 -1.862169459557461e-8 0 0 -1.3164507165032317e-8
          -1.3112641795488892e-8 -2.6328964354281253e-8 -2.622525845818939e-8 0 -1.295623429115989e-8 -2.5912482547751328e-8
          0 -1.2693143340447603e-8 -2.5386229994963523e-8 0 -1.2321051098347048e-8 -2.4642095689560298e-8
          0 -1.1843281858569808e-8 -2.3686607927499078e-8 0 -1.127632203148038e-8 -2.2552578784487705e-8
          0 -1.0662621993412596e-8 -2.1325553306860454e-8 0 -1.0105541242424394e-8 -2.0210851942762477e-8
          0 -9.789604722054119e-9 -1.9579384347605523e-8 0 0 -1.3079837867069429e-8
          -1.3027842814441034e-8 -2.615975945328013e-8 -2.6055716845803337e-8 0 -1.2871628452952721e-8 -2.5743395201954566e-8
          0 -1.2612616564332886e-8 -2.522534751033574e-8 0 -1.2250892907356434e-8 -2.4501800012393623e-8
          0 -1.1797738493550347e-8 -2.3595500748127955e-8 0 -1.1278041228508823e-8 -2.2555965833900534e-8
          0 -1.0744862706523147e-8 -2.1489901954539842e-8 0 -1.0299498229347958e-8 -2.0598657767941465e-8
          0 -1.010212465954558e-8 -2.020366625599047e-8 0 0 -1.3027542826810503e-8
          -1.297605896028532e-8 -2.6055054082252873e-8 -2.5952100371991726e-8 0 -1.2823663493844089e-8 -2.5646950975128875e-8
          0 -1.2563806143813661e-8 -2.5127437302576058e-8 0 -1.2210527244438812e-8 -2.4421078996555107e-8
          0 -1.1773451767646697e-8 -2.3546956540073255e-8 0 -1.1283269495834576e-8 -2.256650768749895e-8
          0 -1.0797761715289648e-8 -2.159571432672908e-8 0 -1.0414769170084294e-8 -2.0829252604610544e-8
          0 -1.0279816917797479e-8 -2.0559528167897172e-8 0 0 -1.3017594849413693e-8
          -1.2960912639858626e-8 -2.6034805139768048e-8 -2.5921768921639607e-8 0 -1.2812218913490496e-8 -2.5623396326131082e-8
          0 -1.2558560921266245e-8 -2.5116884843893713e-8 0 -1.2197540669877398e-8 -2.4394922417498486e-8
          0 -1.1766148102706545e-8 -2.3532268654637997e-8 0 -1.1284439953890278e-8 -2.256863373635106e-8
          0 -1.0821807801902963e-8 -2.164373572270767e-8 0 -1.0457514234546028e-8 -2.0914622861685444e-8
          0 -1.0334853095508074e-8 -2.0669270050434504e-8
        </DataArray>
      </PointData>
      <CellData>
        <DataArray type="Int32" Name="libmesh_elem_id" format="ascii" RangeMin="1398" RangeMax="3643">
          1398 1399 1422 1423 1460 1461
          1470 1471 1482 1483 1494 1495
          1502 1503 1506 1507 1520 1521
          1528 1529 1580 1581 1584 1585
          1612 1613 1636 1637 1652 1653
          1722 1723 1798 1799 1850 1851
          2298 2299 2406 2407 2442 2443
          2450 2451 2472 2473 2558 2559
          2610 2611 2646 2647 2648 2649
          2662 2663 2672 2673 2680 2681
          2748 2749 2756 2757 2776 2777
          2808 2809 2814 2815 2822 2823
          2828 2829 2836 2837 2852 2853
          2876 2877 2898 2899 2910 2911
          2926 2927 2936 2937 2950 2951
          2952 2953 2954 2955 2966 2967
          2980 2981 2982 2983 2990 2991
          3006 3007 3014 3015 3026 3027
          3068 3069 3074 3075 3104 3105
          3110 3111 3124 3125 3126 3127
          3168 3169 3194 3195 3204 3205
          3208 3209 3210 3211 3212 3213
          3220 3221 3222 3223 3224 3225
          3226 3227 3234 3235 3236 3237
          3240 3241 3252 3253 3254 3255
          3264 3265 3296 3297 3302 3303
          3308 3309 3314 3315 3324 3325
          3326 3327 3328 3329 3330 3331
          3332 3333 3334 3335 3336 3337
          3342 3343 3344 3345 3346 3347
          3348 3349 3350 3351 3352 3353
          3354 3355 3360 3361 3362 3363
          3364 3365 3366 3367 3368 3369
          3370 3371 3372 3373 3378 3379
          3380 3381 3382 3383 3384 3385
          3386 3387 3388 3389 3390 3391
          3396 3397 3398 3399 3400 3401
          3402 3403 3404 3405 3406 3407
          3408 3409 3414 3415 3416 3417
          3418 3419 3420 3421 3422 3423
          3424 3425 3426 3427 3430 3431
          3432 3433 3434 3435 3436 3437
          3438 3439 3440 3441 3442 3443
          3444 3445 3448 3449 3450 3451
          3452 3453 3454 3455 3456 3457
          3458 3459 3460 3461 3462 3463
          3466 3467 3468 3469 3470 3471
          3472 3473 3474 3475 3476 3477
          3478 3479 3480 3481 3482 3483
          3484 3485 3486 3487 3488 3489
          3490 3491 3492 3493 3494 3495
          3496 3497 3498 3499 3500 3501
          3502 3503 3504 3505 3506 3507
          3508 3509 3510 3511 3512 3513
          3514 3515 3516 3517 3518 3519
          3520 3521 3522 3523 3524 3525
          3526 3527 3528 3529 3530 3531
          3532 3533 3534 3535 3536 3537
          3538 3539 3540 3541 3542 3543
          3544 3545 3546 3547 3548 3549
          3550 3551 3552 3553 3554 3555
          3556 3557 3558 3559 3560 3561
          3562 3563 3564 3565 3566 3567
          3568 3569 3570 3571 3572 3573
          3574 3575 3576 3577 3578 3579
          3580 3581 3582 3583 3584 3585
          3586 3587 3588 3589 3590 3591
          3592 3593 3594 3595 3596 3597
          3598 3599 3600 3601 3602 3603
          3604 3605 3606 3607 3608 3609
          3610 3611 3612 3613 3614 3615
          3616 3617 3618 3619 3620 3621
          3622 3623 3624 3625 3626 3627
          3628 3629 3630 3631 3632 3633
          3634 3635 3636 3637 3638 3639
          3640 3641 3642 3643
        </DataArray>
        <DataArray type="Int32" Name="subdomain_id" format="ascii" RangeMin="107" RangeMax="110">
          107 107 107 107 107 107
          107 107 107 107 107 107
          107 107 107 107 107 107
          107 107 107 107 107 107
          107 107 107 107 107 107
          107 107 107 107 107 107
          107 107 107 107 107 107
          107 107 107 107 107 107
          107 107 107 107 107 107
          107 107 107 107 107 107
          107 107 107 107 107 107
          107 107 107 107 107 107
          107 107 107 107 107 107
          107 107 107 107 107 107
          107 107 107 107 107 107
          107 107 107 107 107 107
          107 107 107 107 107 107
          107 107 107 107 107 107
          107 107 107 107 107 107
          107 107 107 107 107 107
          107 107 107 107 107 107
          107 107 107 107 107 107
          107 107 107 107 107 107
          107 107 107 107 107 107
          107 107 107 107 107 107
          107 107 108 108 108 108
          108 108 108 108 109 109
          109 109 109 109 109 109
          109 109 109 109 109 109
          109 109 109 109 109 109
          109 109 109 109 109 109
          109 109 109 109 109 109
          109 109 109 109 109 109
          109 109 109 109 109 109
          109 109 109 109 109 109
          109 109 109 109 109 109
          109 109 109 109 109 109
          109 109 109 109 109 109
          109 109 109 109 109 109
          109 109 109 109 109 109
          109 109 109 109 109 109
          109 109 109 109 109 109
          109 109 109 109 109 109
          109 109 109 109 109 109
          109 109 109 109 109 109
          109 109 109 109 109 109
          109 109 109 109 109 109
          109 109 109 109 109 109
          109 109 109 109 110 110
          110 110 110 110 110 110
          110 110 110 110 110 110
          110 110 110 110 110 110
          110 110 110 110 110 110
          110 110 110 110 110 110
          110 110 110 110 110 110
          110 110 110 110 110 110
          110 110 110 110 110 110
          110 110 110 110 110 110
          110 110 110 110 110 110
          110 110 110 110 110 110
          110 110 110 110 110 110
          110 110 110 110 110 110
          110 110 110 110 110 110
          110 110 110 110 110 110
          110 110 110 110 110 110
          110 110 110 110 110 110
          110 110 110 110 110 110
          110 110 110 110 110 110
          110 110 110 110 110 110
          110 110 110 110 110 110
          110 110 110 110 110 110
          110 110 110 110 110 110
          110 110 110 110 110 110
          110 110 110 110 110 110
          110 110 110 110 110 110
          110 110 110 110
        </DataArray>
        <DataArray type="Int32" Name="processor_id" format="ascii" RangeMin="0" RangeMax="0">
          0 0 0 0 0 0
          0 0 0 0 0 0
          0 0 0 0 0 0
          0 0 0 0 0 0
          0 0 0 0 0 0
          0 0 0 0 0 0
          0 0 0 0 0 0
          0 0 0 0 0 0
          0 0 0 0 0 0
          0 0 0 0 0 0
          0 0 0 0 0 0
          0 0 0 0 0 0
          0 0 0 0 0 0
          0 0 0 0 0 0
          0 0 0 0 0 0
          0 0 0 0 0 0
          0 0 0 0 0 0
          0 0 0 0 0 0
          0 0 0 0 0 0
          0 0 0 0 0 0
          0 0 0 0 0 0
          0 0 0 0 0 0
          0 0 0 0 0 0
          0 0 0 0 0 0
          0 0 0 0 0 0
          0 0 0 0 0 0
          0 0 0 0 0 0
          0 0 0 0 0 0
          0 0 0 0 0 0
          0 0 0 0 0 0
          0 0 0 0 0 0
          0 0 0 0 0 0
          0 0 0 0 0 0
          0 0 0 0 0 0
          0 0 0 0 0 0
          0 0 0 0 0 0
          0 0 0 0 0 0
          0 0 0 0 0 0
          0 0 0 0 0 0
          0 0 0 0 0 0
          0 0 0 0 0 0
          0 0 0 0 0 0
          0 0 0 0 0 0
          0 0 0 0 0 0
          0 0 0 0 0 0
          0 0 0 0 0 0
          0 0 0 0 0 0
          0 0 0 0 0 0
          0 0 0 0 0 0
          0 0 0 0 0 0
          0 0 0 0 0 0
          0 0 0 0 0 0
          0 0 0 0 0 0
          0 0 0 0 0 0
          0 0 0 0 0 0
          0 0 0 0 0 0
          0 0 0 0 0 0
          0 0 0 0 0 0
          0 0 0 0 0 0
          0 0 0 0 0 0
          0 0 0 0 0 0
          0 0 0 0 0 0
          0 0 0 0 0 0
          0 0 0 0 0 0
          0 0 0 0 0 0
          0 0 0 0 0 0
          0 0 0 0 0 0
          0 0 0 0 0 0
          0 0 0 0 0 0
          0 0 0 0 0 0
          0 0 0 0 0 0
          0 0 0 0 0 0
          0 0 0 0 0 0
          0 0 0 0 0 0
          0 0 0 0 0 0
          0 0 0 0
        </DataArray>
      </CellData>
      <Points>
        <DataArray type="Float64" Name="Points" NumberOfComponents="3" format="ascii" RangeMin="0.019949534490770096" RangeMax="0.057059767276955435">
          0.025 0.010111111111103 0 0.025 0.011555555555552 0
          0.023969654121399 0.011643457228511 0 0.023712354871128 0.010827306146479 0
          0.025 0.010111111111103 0.00015 0.025 0.011555555555552 0.00015
          0.023969654121399 0.011643457228511 0.00015 0.023712354871128 0.010827306146479 0.00015
          0.025 0.010111111111103 0.0003 0.025 0.011555555555552 0.0003
          0.023969654121399 0.011643457228511 0.0003 0.023712354871128 0.010827306146479 0.0003
          0.021832836898909 0.0086447924127183 0 0.021823224979211 0.0078559681587773 0
          0.022737846371709 0.0079006862580081 0 0.022634898807434 0.0088549234284915 0
          0.021832836898909 0.0086447924127183 0.00015 0.021823224979211 0.0078559681587773 0.00015
          0.022737846371709 0.0079006862580081 0.00015 0.022634898807434 0.0088549234284915 0.00015
          0.021832836898909 0.0086447924127183 0.0003 0.021823224979211 0.0078559681587773 0.0003
          0.022737846371709 0.0079006862580081 0.0003 0.022634898807434 0.0088549234284915 0.0003
          0.023595500831214 0.0092794942281182 0 0.023071107871262 0.010124307969263 0
          0.023595500831214 0.0092794942281182 0.00015 0.023071107871262 0.010124307969263 0.00015
          0.023595500831214 0.0092794942281182 0.0003 0.023071107871262 0.010124307969263 0.0003
          0.022679909737796 0.0068405181074087 0 0.023816654948859 0.0069324696013164 0
          0.023805320189621 0.0081867285281858 0 0.022679909737796 0.0068405181074087 0.00015
          0.023816654948859 0.0069324696013164 0.00015 0.023805320189621 0.0081867285281858 0.00015
          0.022679909737796 0.0068405181074087 0.0003 0.023816654948859 0.0069324696013164 0.0003
          0.023805320189621 0.0081867285281858 0.0003 0.021890570917318 0.011219591567605 0
          0.021490495874743 0.011513015985888 0 0.020878683694742 0.011349585571751 0
          0.021380466308845 0.010767094219468 0 0.021890570917318 0.011219591567605 0.00015
          0.021490495874743 0.011513015985888 0.00015 0.020878683694742 0.011349585571751 0.00015
          0.021380466308845 0.010767094219468 0.00015 0.021890570917318 0.011219591567605 0.0003
          0.021490495874743 0.011513015985888 0.0003 0.020878683694742 0.011349585571751 0.0003
          0.021380466308845 0.010767094219468 0.0003 0.022336312736143 0.012467557709352 0
          0.021763745105177 0.012476629724541 0 0.021622459990569 0.011931223094182 0
          0.02233098651665 0.011816769005978 0 0.022336312736143 0.012467557709352 0.00015
          0.021763745105177 0.012476629724541 0.00015 0.021622459990569 0.011931223094182 0.00015
          0.02233098651665 0.011816769005978 0.00015 0.022336312736143 0.012467557709352 0.0003
          0.021763745105177 0.012476629724541 0.0003 0.021622459990569 0.011931223094182 0.0003
          0.02233098651665 0.011816769005978 0.0003 0.021047379294988 0.0079667793778881 0
          0.020813290684512 0.007243328880283 0 0.021666975794544 0.0069715825078724 0
          0.021047379294988 0.0079667793778881 0.00015 0.020813290684512 0.007243328880283 0.00015
          0.021666975794544 0.0069715825078724 0.00015 0.021047379294988 0.0079667793778881 0.0003
          0.020813290684512 0.007243328880283 0.0003 0.021666975794544 0.0069715825078724 0.0003
          0.025 0.0086666666666559 0 0.025 0.0086666666666559 0.00015
          0.025 0.0086666666666559 0.0003 0.021356284292895 0.0061182113295331 0
          0.020489019208248 0.0065103794253073 0 0.021356284292895 0.0061182113295331 0.00015
          0.020489019208248 0.0065103794253073 0.00015 0.021356284292895 0.0061182113295331 0.0003
          0.020489019208248 0.0065103794253073 0.0003 0.025 0.0072222222222063 0
          0.023829479378086 0.0056593315311521 0 0.025 0.0072222222222063 0.00015
          0.023829479378086 0.0056593315311521 0.00015 0.025 0.0072222222222063 0.0003
          0.023829479378086 0.0056593315311521 0.0003 0.019357361519954 0.01157618305141 0
          0.01884046117173 0.011223113854601 0 0.019357361519954 0.01157618305141 0.00015
          0.01884046117173 0.011223113854601 0.00015 0.019357361519954 0.01157618305141 0.0003
          0.01884046117173 0.011223113854601 0.0003 0.020274347850796 0.01080512315655 0
          0.019692191057164 0.010418143528135 0 0.020104676199583 0.0097475599042502 0
          0.020792052735599 0.010316149813733 0 0.020274347850796 0.01080512315655 0.00015
          0.019692191057164 0.010418143528135 0.00015 0.020104676199583 0.0097475599042502 0.00015
          0.020792052735599 0.010316149813733 0.00015 0.020274347850796 0.01080512315655 0.0003
          0.019692191057164 0.010418143528135 0.0003 0.020104676199583 0.0097475599042502 0.0003
          0.020792052735599 0.010316149813733 0.0003 0.018734278863615 0.0068564365277259 0
          0.018734278863615 0.0068564365277259 0.00015 0.018734278863615 0.0068564365277259 0.0003
          0.018384253973557 0.010894663204421 0 0.018384253973557 0.010894663204421 0.00015
          0.018384253973557 0.010894663204421 0.0003 0.022477642087048 0.0055533155338694 0
          0.022477642087048 0.0055533155338694 0.00015 0.022477642087048 0.0055533155338694 0.0003
          0.022333445868241 0.0096250088550796 0 0.021678233976573 0.0092839168226163 0
          0.022333445868241 0.0096250088550796 0.00015 0.021678233976573 0.0092839168226163 0.00015
          0.022333445868241 0.0096250088550796 0.0003 0.021678233976573 0.0092839168226163 0.0003
          0.018696511924608 0.0075816988835645 0 0.019307778433714 0.0076950261479263 0
          0.019244919669154 0.0083241905034728 0 0.018643245907353 0.0082916041839039 0
          0.018696511924608 0.0075816988835645 0.00015 0.019307778433714 0.0076950261479263 0.00015
          0.019244919669154 0.0083241905034728 0.00015 0.018643245907353 0.0082916041839039 0.00015
          0.018696511924608 0.0075816988835645 0.0003 0.019307778433714 0.0076950261479263 0.0003
          0.019244919669154 0.0083241905034728 0.0003 0.018643245907353 0.0082916041839039 0.0003
          0.02247089481133 0.010746063389313 0 0.022956441030322 0.011313723369763 0
          0.02247089481133 0.010746063389313 0.00015 0.022956441030322 0.011313723369763 0.00015
          0.02247089481133 0.010746063389313 0.0003 0.022956441030322 0.011313723369763 0.0003
          0.018817000838468 0.010560792840001 0 0.018817000838468 0.010560792840001 0.00015
          0.018817000838468 0.010560792840001 0.0003 0.021028725472558 0.011993213484042 0
          0.021028725472558 0.011993213484042 0.00015 0.021028725472558 0.011993213484042 0.0003
          0.018719100515555 0.0096191331103102 0 0.018769006148643 0.010016813571171 0
          0.018719100515555 0.0096191331103102 0.00015 0.018769006148643 0.010016813571171 0.00015
          0.018719100515555 0.0096191331103102 0.0003 0.018769006148643 0.010016813571171 0.0003
          0.022845614094026 0.012068678060928 0 0.022870050818517 0.012481997757377 0
          0.022845614094026 0.012068678060928 0.00015 0.022870050818517 0.012481997757377 0.00015
          0.022845614094026 0.012068678060928 0.0003 0.022870050818517 0.012481997757377 0.0003
          0.01980903614198 0.0082923028866096 0 0.019733887771193 0.007830319872041 0
          0.01980903614198 0.0082923028866096 0.00015 0.019733887771193 0.007830319872041 0.00015
          0.01980903614198 0.0082923028866096 0.0003 0.019733887771193 0.007830319872041 0.0003
          0.019287865107188 0.010870204720027 0 0.019287865107188 0.010870204720027 0.00015
          0.019287865107188 0.010870204720027 0.0003 0.019611341590458 0.0069319215290848 0
          0.019611341590458 0.0069319215290848 0.00015 0.019611341590458 0.0069319215290848 0.0003
          0.019793192887703 0.011218191570876 0 0.019793192887703 0.011218191570876 0.00015
          0.019793192887703 0.011218191570876 0.0003 0.02014052068744 0.0075597001530957 0
          0.02014052068744 0.0075597001530957 0.00015 0.02014052068744 0.0075597001530957 0.0003
          0.019142781766586 0.010156284019367 0 0.019142781766586 0.010156284019367 0.00015
          0.019142781766586 0.010156284019367 0.0003 0.019871794871807 0.013 0
          0.019671681078705 0.012567114388191 0 0.019871794871807 0.013 0.00015
          0.019671681078705 0.012567114388191 0.00015 0.019871794871807 0.013 0.0003
          0.019671681078705 0.012567114388191 0.0003 0.02189605775595 0.01024368797285 0
          0.02189605775595 0.01024368797285 0.00015 0.02189605775595 0.01024368797285 0.0003
          0.021306208963658 0.0098107932917518 0 0.020830530356293 0.0093484326970494 0
          0.021306208963658 0.0098107932917518 0.00015 0.020830530356293 0.0093484326970494 0.00015
          0.021306208963658 0.0098107932917518 0.0003 0.020830530356293 0.0093484326970494 0.0003
          0.019927087042343 0.0089401115508047 0 0.019284140679376 0.0089915496868705 0
          0.019927087042343 0.0089401115508047 0.00015 0.019284140679376 0.0089915496868705 0.00015
          0.019927087042343 0.0089401115508047 0.0003 0.019284140679376 0.0089915496868705 0.0003
          0.023272296973232 0.01187913061167 0 0.023408043049707 0.012441583397961 0
          0.023272296973232 0.01187913061167 0.00015 0.023408043049707 0.012441583397961 0.00015
          0.023272296973232 0.01187913061167 0.0003 0.023408043049707 0.012441583397961 0.0003
          0.019291729405334 0.009640079412969 0 0.019291729405334 0.009640079412969 0.00015
          0.019291729405334 0.009640079412969 0.0003 0.019497075330812 0.012129782091497 0
          0.019497075330812 0.012129782091497 0.00015 0.019497075330812 0.012129782091497 0.0003
          0.018655444813331 0.0089912542068827 0 0.018655444813331 0.0089912542068827 0.00015
          0.018655444813331 0.0089912542068827 0.0003 0.020217772280624 0.01161574996656 0
          0.019866459267603 0.011787315550137 0 0.020217772280624 0.01161574996656 0.00015
          0.019866459267603 0.011787315550137 0.00015 0.020217772280624 0.01161574996656 0.0003
          0.019866459267603 0.011787315550137 0.0003 0.020169909004412 0.012559422291794 0
          0.020384615384626 0.013 0 0.020169909004412 0.012559422291794 0.00015
          0.020384615384626 0.013 0.00015 0.020169909004412 0.012559422291794 0.0003
          0.020384615384626 0.013 0.0003 0.02048968364866 0.012063778985416 0
          0.021216890903006 0.012503701361908 0 0.020684692364028 0.012535095885709 0
          0.02048968364866 0.012063778985416 0.00015 0.021216890903006 0.012503701361908 0.00015
          0.020684692364028 0.012535095885709 0.00015 0.02048968364866 0.012063778985416 0.0003
          0.021216890903006 0.012503701361908 0.0003 0.020684692364028 0.012535095885709 0.0003
          0.020897435897446 0.013 0 0.020897435897446 0.013 0.00015
          0.020897435897446 0.013 0.0003 0.020387511226442 0.0081443073342907 0
          0.02056343795537 0.0087688297792787 0 0.020387511226442 0.0081443073342907 0.00015
          0.02056343795537 0.0087688297792787 0.00015 0.020387511226442 0.0081443073342907 0.0003
          0.02056343795537 0.0087688297792787 0.0003 0.023967653117571 0.012391671962311 0
          0.024322147732379 0.012509260561901 0 0.023967653117571 0.012391671962311 0.00015
          0.024322147732379 0.012509260561901 0.00015 0.023967653117571 0.012391671962311 0.0003
          0.024322147732379 0.012509260561901 0.0003 0.021410256410266 0.013 0
          0.021410256410266 0.013 0.00015 0.021410256410266 0.013 0.0003
          0.019993073529409 0.012116879865089 0 0.019993073529409 0.012116879865089 0.00015
          0.019993073529409 0.012116879865089 0.0003 0.02122910202584 0.0090825003429501 0
          0.02122910202584 0.0090825003429501 0.00015 0.02122910202584 0.0090825003429501 0.0003
          0.022948717948721 0.013 0 0.022435897435903 0.013 0
          0.022948717948721 0.013 0.00015 0.022435897435903 0.013 0.00015
          0.022948717948721 0.013 0.0003 0.022435897435903 0.013 0.0003
          0.021923076923085 0.013 0 0.021923076923085 0.013 0.00015
          0.021923076923085 0.013 0.0003 0.023461538461539 0.013 0
          0.023461538461539 0.013 0.00015 0.023461538461539 0.013 0.0003
          0.021171209164951 0.0086229949315581 0 0.021171209164951 0.0086229949315581 0.00015
          0.021171209164951 0.0086229949315581 0.0003 0.023974358974358 0.013 0
          0.023974358974358 0.013 0.00015 0.023974358974358 0.013 0.0003
          0.024487179487177 0.013 0 0.024487179487177 0.013 0.00015
          0.024487179487177 0.013 0.0003 0.025 0.013 0
          0.025 0.013 0.00015 0.025 0.013 0.0003
          0.026666666666667 0.0072222222222063 0 0.026666666666667 0.0072222222222063 0.00015
          0.026666666666667 0.0072222222222063 0.0003 0.026666666666668 0.0086666666666559 0
          0.026666666666668 0.0086666666666559 0.00015 0.026666666666668 0.0086666666666559 0.0003
          0.026666666666669 0.010111111111103 0 0.026666666666669 0.010111111111103 0.00015
          0.026666666666669 0.010111111111103 0.0003 0.026666666666669 0.011555555555552 0
          0.026666666666669 0.011555555555552 0.00015 0.026666666666669 0.011555555555552 0.0003
          0.02666666666667 0.013 0 0.02666666666667 0.013 0.00015
          0.02666666666667 0.013 0.0003 0.033201501647561 0.0014698753983525 0
          0.033179797338052 0 0 0.033201501647561 0.0014698753983525 0.00015
          0.033179797338052 0 0.00015 0.033201501647561 0.0014698753983525 0.0003
          0.033179797338052 0 0.0003 0.034800103200053 0.0015015548376625 0
          0.034769696007096 0 0 0.034800103200053 0.0015015548376625 0.00015
          0.034769696007096 0 0.00015 0.034800103200053 0.0015015548376625 0.0003
          0.034769696007096 0 0.0003 0.03639613666046 0.0015457026119765 0
          0.036359594676111 0 0 0.03639613666046 0.0015457026119765 0.00015
          0.036359594676111 0 0.00015 0.03639613666046 0.0015457026119765 0.0003
          0.036359594676111 0 0.0003 0.037988764334349 0.001602116400018 0
          0.037949493345121 0 0 0.037988764334349 0.001602116400018 0.00015
          0.037949493345121 0 0.00015 0.037988764334349 0.001602116400018 0.0003
          0.037949493345121 0 0.0003 0.039577164134098 0.001670537667151 0
          0.039539392014149 0 0 0.039577164134098 0.001670537667151 0.00015
          0.039539392014149 0 0.00015 0.039577164134098 0.001670537667151 0.0003
          0.039539392014149 0 0.0003 0.041160533348121 0.0017506528505884 0
          0.041129290683195 0 0 0.041160533348121 0.0017506528505884 0.00015
          0.041129290683195 0 0.00015 0.041160533348121 0.0017506528505884 0.0003
          0.041129290683195 0 0.0003 0.042738092320879 0.0018420947973532 0
          0.042719189352233 0 0 0.042738092320879 0.0018420947973532 0.00015
          0.042719189352233 0 0.00015 0.042738092320879 0.0018420947973532 0.0003
          0.042719189352233 0 0.0003 0.044309088021254 0.0019444444444413 0
          0.044309088021254 0 0 0.044309088021254 0.0019444444444413 0.00015
          0.044309088021254 0 0.00015 0.044309088021254 0.0019444444444413 0.0003
          0.044309088021254 0 0.0003 0.033223205957069 0.0029397507967035 0
          0.033223205957069 0.0029397507967035 0.00015 0.033223205957069 0.0029397507967035 0.0003
          0.03483051039301 0.0030031096753234 0 0.03483051039301 0.0030031096753234 0.00015
          0.03483051039301 0.0030031096753234 0.0003 0.036432678644808 0.0030914052239513 0
          0.036432678644808 0.0030914052239513 0.00015 0.036432678644808 0.0030914052239513 0.0003
          0.038028035323577 0.0032042328000343 0 0.038028035323577 0.0032042328000343 0.00015
          0.038028035323577 0.0032042328000343 0.0003 0.039614936254047 0.0033410753343001 0
          0.039614936254047 0.0033410753343001 0.00015 0.039614936254047 0.0033410753343001 0.0003
          0.041191776013048 0.0035013057011749 0 0.041191776013048 0.0035013057011749 0.00015
          0.041191776013048 0.0035013057011749 0.0003 0.042756995289524 0.0036841895947044 0
          0.042756995289524 0.0036841895947044 0.00015 0.042756995289524 0.0036841895947044 0.0003
          0.044309088021254 0.0038888888888803 0 0.044309088021254 0.0038888888888803 0.00015
          0.044309088021254 0.0038888888888803 0.0003 0.033244910266578 0.0044096261950543 0
          0.033244910266578 0.0044096261950543 0.00015 0.033244910266578 0.0044096261950543 0.0003
          0.034860917585967 0.004504664512984 0 0.034860917585967 0.004504664512984 0.00015
          0.034860917585967 0.004504664512984 0.0003 0.036469220629156 0.0046371078359259 0
          0.036469220629156 0.0046371078359259 0.00015 0.036469220629156 0.0046371078359259 0.0003
          0.038067306312805 0.0048063492000502 0 0.038067306312805 0.0048063492000502 0.00015
          0.038067306312805 0.0048063492000502 0.0003 0.039652708373995 0.0050116130014489 0
          0.039652708373995 0.0050116130014489 0.00015 0.039652708373995 0.0050116130014489 0.0003
          0.041223018677975 0.005251958551761 0 0.041223018677975 0.005251958551761 0.00015
          0.041223018677975 0.005251958551761 0.0003 0.04277589825817 0.0055262843920551 0
          0.04277589825817 0.0055262843920551 0.00015 0.04277589825817 0.0055262843920551 0.0003
          0.044309088021254 0.0058333333333189 0 0.044309088021254 0.0058333333333189 0.00015
          0.044309088021254 0.0058333333333189 0.0003 0.033266614576087 0.0058795015934051 0
          0.033266614576087 0.0058795015934051 0.00015 0.033266614576087 0.0058795015934051 0.0003
          0.034891324778924 0.0060062193506447 0 0.034891324778924 0.0060062193506447 0.00015
          0.034891324778924 0.0060062193506447 0.0003 0.036505762613504 0.0061828104479004 0
          0.036505762613504 0.0061828104479004 0.00015 0.036505762613504 0.0061828104479004 0.0003
          0.038106577302032 0.0064084656000662 0 0.038106577302032 0.0064084656000662 0.00015
          0.038106577302032 0.0064084656000662 0.0003 0.039690480493944 0.0066821506685977 0
          0.039690480493944 0.0066821506685977 0.00015 0.039690480493944 0.0066821506685977 0.0003
          0.041254261342902 0.0070026114023471 0 0.041254261342902 0.0070026114023471 0.00015
          0.041254261342902 0.0070026114023471 0.0003 0.042794801226816 0.0073683791894058 0
          0.042794801226816 0.0073683791894058 0.00015 0.042794801226816 0.0073683791894058 0.0003
          0.044309088021254 0.0077777777777574 0 0.044309088021254 0.0077777777777574 0.00015
          0.044309088021254 0.0077777777777574 0.0003 0.033288318885596 0.0073493769917596 0
          0.033288318885596 0.0073493769917596 0.00015 0.033288318885596 0.0073493769917596 0.0003
          0.034921731971881 0.0075077741883091 0 0.034921731971881 0.0075077741883091 0.00015
          0.034921731971881 0.0075077741883091 0.0003 0.036542304597852 0.0077285130598789 0
          0.036542304597852 0.0077285130598789 0.00015 0.036542304597852 0.0077285130598789 0.0003
          0.03814584829126 0.0080105820000862 0 0.03814584829126 0.0080105820000862 0.00015
          0.03814584829126 0.0080105820000862 0.0003 0.039728252613893 0.0083526883357508 0
          0.039728252613893 0.0083526883357508 0.00015 0.039728252613893 0.0083526883357508 0.0003
          0.041285504007829 0.0087532642529377 0 0.041285504007829 0.0087532642529377 0.00015
          0.041285504007829 0.0087532642529377 0.0003 0.042813704195461 0.0092104739867613 0
          0.042813704195461 0.0092104739867613 0.00015 0.042813704195461 0.0092104739867613 0.0003
          0.044309088021254 0.0097222222222011 0 0.044309088021254 0.0097222222222011 0.00015
          0.044309088021254 0.0097222222222011 0.0003 0.031657595460571 0.0087048568522863 0
          0.031657595460571 0.0087048568522863 0.00015 0.031657595460571 0.0087048568522863 0.0003
          0.033310023195106 0.0088192523901195 0 0.033310023195106 0.0088192523901195 0.00015
          0.033310023195106 0.0088192523901195 0.0003 0.034952139164838 0.009009329025979 0
          0.034952139164838 0.009009329025979 0.00015 0.034952139164838 0.009009329025979 0.0003
          0.0365788465822 0.0092742156718627 0 0.0365788465822 0.0092742156718627 0.00015
          0.0365788465822 0.0092742156718627 0.0003 0.038185119280488 0.0096126984001116 0
          0.038185119280488 0.0096126984001116 0.00015 0.038185119280488 0.0096126984001116 0.0003
          0.039766024733842 0.010023226002909 0 0.039766024733842 0.010023226002909 0.00015
          0.039766024733842 0.010023226002909 0.0003 0.041316746672756 0.010503917103534 0
          0.041316746672756 0.010503917103534 0.00015 0.041316746672756 0.010503917103534 0.0003
          0.042832607164107 0.011052568784123 0 0.042832607164107 0.011052568784123 0.00015
          0.042832607164107 0.011052568784123 0.0003 0.044309088021254 0.011666666666651 0
          0.044309088021254 0.011666666666651 0.00015 0.044309088021254 0.011666666666651 0.0003
          0.031668878259163 0.010155666327672 0 0.031668878259163 0.010155666327672 0.00015
          0.031668878259163 0.010155666327672 0.0003 0.033331727504615 0.010289127788478 0
          0.033331727504615 0.010289127788478 0.00015 0.033331727504615 0.010289127788478 0.0003
          0.034982546357795 0.010510883863647 0 0.034982546357795 0.010510883863647 0.00015
          0.034982546357795 0.010510883863647 0.0003 0.036615388566549 0.010819918283845 0
          0.036615388566549 0.010819918283845 0.00015 0.036615388566549 0.010819918283845 0.0003
          0.038224390269716 0.011214814800136 0 0.038224390269716 0.011214814800136 0.00015
          0.038224390269716 0.011214814800136 0.0003 0.039803796853791 0.011693763670067 0
          0.039803796853791 0.011693763670067 0.00015 0.039803796853791 0.011693763670067 0.0003
          0.041347989337683 0.012254569954129 0 0.041347989337683 0.012254569954129 0.00015
          0.041347989337683 0.012254569954129 0.0003 0.042851510132752 0.012894663581483 0
          0.042851510132752 0.012894663581483 0.00015 0.042851510132752 0.012894663581483 0.0003
          0.044309088021254 0.0136111111111 0 0.044309088021254 0.0136111111111 0.00015
          0.044309088021254 0.0136111111111 0.0003 0.031680161057755 0.011606475803059 0
          0.031680161057755 0.011606475803059 0.00015 0.031680161057755 0.011606475803059 0.0003
          0.033353431814124 0.011759003186837 0 0.033353431814124 0.011759003186837 0.00015
          0.033353431814124 0.011759003186837 0.0003 0.035012953550752 0.012012438701317 0
          0.035012953550752 0.012012438701317 0.00015 0.035012953550752 0.012012438701317 0.0003
          0.036651930550897 0.012365620895829 0 0.036651930550897 0.012365620895829 0.00015
          0.036651930550897 0.012365620895829 0.0003 0.038263661258944 0.012816931200161 0
          0.038263661258944 0.012816931200161 0.00015 0.038263661258944 0.012816931200161 0.0003
          0.03984156897374 0.013364301337225 0 0.03984156897374 0.013364301337225 0.00015
          0.03984156897374 0.013364301337225 0.0003 0.04137923200261 0.014005222804725 0
          0.04137923200261 0.014005222804725 0.00015 0.04137923200261 0.014005222804725 0.0003
          0.042870413101398 0.014736758378844 0 0.042870413101398 0.014736758378844 0.00015
          0.042870413101398 0.014736758378844 0.0003 0.044309088021254 0.015555555555549 0
          0.044309088021254 0.015555555555549 0.00015 0.044309088021254 0.015555555555549 0.0003
          0.031691443856347 0.013057285278446 0 0.031691443856347 0.013057285278446 0.00015
          0.031691443856347 0.013057285278446 0.0003 0.033375136123633 0.013228878585196 0
          0.033375136123633 0.013228878585196 0.00015 0.033375136123633 0.013228878585196 0.0003
          0.035043360743709 0.013513993538986 0 0.035043360743709 0.013513993538986 0.00015
          0.035043360743709 0.013513993538986 0.0003 0.036688472535245 0.013911323507812 0
          0.036688472535245 0.013911323507812 0.00015 0.036688472535245 0.013911323507812 0.0003
          0.038302932248172 0.014419047600187 0 0.038302932248172 0.014419047600187 0.00015
          0.038302932248172 0.014419047600187 0.0003 0.039879341093689 0.015034839004384 0
          0.039879341093689 0.015034839004384 0.00015 0.039879341093689 0.015034839004384 0.0003
          0.041410474667538 0.015755875655322 0 0.041410474667538 0.015755875655322 0.00015
          0.041410474667538 0.015755875655322 0.0003 0.042889316070044 0.016578853176207 0
          0.042889316070044 0.016578853176207 0.00015 0.042889316070044 0.016578853176207 0.0003
          0.044309088021254 0.0175 0 0.044309088021254 0.0175 0.00015
          0.044309088021254 0.0175 0.0003 0.045420199132363 0 0
          0.045420199132363 0.0019444444444413 0 0.045420199132363 0 0.00015
          0.045420199132363 0.0019444444444413 0.00015 0.045420199132363 0 0.0003
          0.045420199132363 0.0019444444444413 0.0003 0.045420199132363 0.0038888888888803 0
          0.045420199132363 0.0038888888888803 0.00015 0.045420199132363 0.0038888888888803 0.0003
          0.045420199132363 0.0058333333333189 0 0.045420199132363 0.0058333333333189 0.00015
          0.045420199132363 0.0058333333333189 0.0003 0.045420199132363 0.0077777777777574 0
          0.045420199132363 0.0077777777777574 0.00015 0.045420199132363 0.0077777777777574 0.0003
          0.045420199132363 0.0097222222222011 0 0.045420199132363 0.0097222222222011 0.00015
          0.045420199132363 0.0097222222222011 0.0003 0.045420199132363 0.011666666666651 0
          0.045420199132363 0.011666666666651 0.00015 0.045420199132363 0.011666666666651 0.0003
          0.045420199132363 0.0136111111111 0 0.045420199132363 0.0136111111111 0.00015
          0.045420199132363 0.0136111111111 0.0003 0.045420199132363 0.015555555555549 0
          0.045420199132363 0.015555555555549 0.00015 0.045420199132363 0.015555555555549 0.0003
          0.045420199132363 0.0175 0 0.045420199132363 0.0175 0.00015
          0.045420199132363 0.0175 0.0003 0.046531310243475 0 0
          0.046531310243475 0.0019444444444413 0 0.046531310243475 0 0.00015
          0.046531310243475 0.0019444444444413 0.00015 0.046531310243475 0 0.0003
          0.046531310243475 0.0019444444444413 0.0003 0.046531310243475 0.0038888888888803 0
          0.046531310243475 0.0038888888888803 0.00015 0.046531310243475 0.0038888888888803 0.0003
          0.046531310243475 0.0058333333333189 0 0.046531310243475 0.0058333333333189 0.00015
          0.046531310243475 0.0058333333333189 0.0003 0.046531310243475 0.0077777777777574 0
          0.046531310243475 0.0077777777777574 0.00015 0.046531310243475 0.0077777777777574 0.0003
          0.046531310243475 0.0097222222222011 0 0.046531310243475 0.0097222222222011 0.00015
          0.046531310243475 0.0097222222222011 0.0003 0.046531310243475 0.011666666666651 0
          0.046531310243475 0.011666666666651 0.00015 0.046531310243475 0.011666666666651 0.0003
          0.046531310243475 0.0136111111111 0 0.046531310243475 0.0136111111111 0.00015
          0.046531310243475 0.0136111111111 0.0003 0.046531310243475 0.015555555555549 0
          0.046531310243475 0.015555555555549 0.00015 0.046531310243475 0.015555555555549 0.0003
          0.046531310243475 0.0175 0 0.046531310243475 0.0175 0.00015
          0.046531310243475 0.0175 0.0003 0.04764242135458 0 0
          0.04764242135458 0.0019444444444413 0 0.04764242135458 0 0.00015
          0.04764242135458 0.0019444444444413 0.00015 0.04764242135458 0 0.0003
          0.04764242135458 0.0019444444444413 0.0003 0.04764242135458 0.0038888888888803 0
          0.04764242135458 0.0038888888888803 0.00015 0.04764242135458 0.0038888888888803 0.0003
          0.04764242135458 0.0058333333333189 0 0.04764242135458 0.0058333333333189 0.00015
          0.04764242135458 0.0058333333333189 0.0003 0.04764242135458 0.0077777777777574 0
          0.04764242135458 0.0077777777777574 0.00015 0.04764242135458 0.0077777777777574 0.0003
          0.04764242135458 0.0097222222222011 0 0.04764242135458 0.0097222222222011 0.00015
          0.04764242135458 0.0097222222222011 0.0003 0.04764242135458 0.011666666666651 0
          0.04764242135458 0.011666666666651 0.00015 0.04764242135458 0.011666666666651 0.0003
          0.04764242135458 0.0136111111111 0 0.04764242135458 0.0136111111111 0.00015
          0.04764242135458 0.0136111111111 0.0003 0.04764242135458 0.015555555555549 0
          0.04764242135458 0.015555555555549 0.00015 0.04764242135458 0.015555555555549 0.0003
          0.04764242135458 0.0175 0 0.04764242135458 0.0175 0.00015
          0.04764242135458 0.0175 0.0003 0.048753532465692 0 0
          0.048753532465692 0.0019444444444413 0 0.048753532465692 0 0.00015
          0.048753532465692 0.0019444444444413 0.00015 0.048753532465692 0 0.0003
          0.048753532465692 0.0019444444444413 0.0003 0.048753532465692 0.0038888888888803 0
          0.048753532465692 0.0038888888888803 0.00015 0.048753532465692 0.0038888888888803 0.0003
          0.048753532465692 0.0058333333333189 0 0.048753532465692 0.0058333333333189 0.00015
          0.048753532465692 0.0058333333333189 0.0003 0.048753532465692 0.0077777777777574 0
          0.048753532465692 0.0077777777777574 0.00015 0.048753532465692 0.0077777777777574 0.0003
          0.048753532465692 0.0097222222222011 0 0.048753532465692 0.0097222222222011 0.00015
          0.048753532465692 0.0097222222222011 0.0003 0.048753532465692 0.011666666666651 0
          0.048753532465692 0.011666666666651 0.00015 0.048753532465692 0.011666666666651 0.0003
          0.048753532465692 0.0136111111111 0 0.048753532465692 0.0136111111111 0.00015
          0.048753532465692 0.0136111111111 0.0003 0.048753532465692 0.015555555555549 0
          0.048753532465692 0.015555555555549 0.00015 0.048753532465692 0.015555555555549 0.0003
          0.048753532465692 0.0175 0 0.048753532465692 0.0175 0.00015
          0.048753532465692 0.0175 0.0003 0.0498646435768 0 0
          0.0498646435768 0.0019444444444413 0 0.0498646435768 0 0.00015
          0.0498646435768 0.0019444444444413 0.00015 0.0498646435768 0 0.0003
          0.0498646435768 0.0019444444444413 0.0003 0.0498646435768 0.0038888888888803 0
          0.0498646435768 0.0038888888888803 0.00015 0.0498646435768 0.0038888888888803 0.0003
          0.0498646435768 0.0058333333333189 0 0.0498646435768 0.0058333333333189 0.00015
          0.0498646435768 0.0058333333333189 0.0003 0.0498646435768 0.0077777777777574 0
          0.0498646435768 0.0077777777777574 0.00015 0.0498646435768 0.0077777777777574 0.0003
          0.0498646435768 0.0097222222222011 0 0.0498646435768 0.0097222222222011 0.00015
          0.0498646435768 0.0097222222222011 0.0003 0.0498646435768 0.011666666666651 0
          0.0498646435768 0.011666666666651 0.00015 0.0498646435768 0.011666666666651 0.0003
          0.0498646435768 0.0136111111111 0 0.0498646435768 0.0136111111111 0.00015
          0.0498646435768 0.0136111111111 0.0003 0.0498646435768 0.015555555555549 0
          0.0498646435768 0.015555555555549 0.00015 0.0498646435768 0.015555555555549 0.0003
          0.0498646435768 0.0175 0 0.0498646435768 0.0175 0.00015
          0.0498646435768 0.0175 0.0003 0.050975754687912 0 0
          0.050975754687912 0.0019444444444413 0 0.050975754687912 0 0.00015
          0.050975754687912 0.0019444444444413 0.00015 0.050975754687912 0 0.0003
          0.050975754687912 0.0019444444444413 0.0003 0.050975754687912 0.0038888888888803 0
          0.050975754687912 0.0038888888888803 0.00015 0.050975754687912 0.0038888888888803 0.0003
          0.050975754687912 0.0058333333333189 0 0.050975754687912 0.0058333333333189 0.00015
          0.050975754687912 0.0058333333333189 0.0003 0.050975754687912 0.0077777777777574 0
          0.050975754687912 0.0077777777777574 0.00015 0.050975754687912 0.0077777777777574 0.0003
          0.050975754687912 0.0097222222222011 0 0.050975754687912 0.0097222222222011 0.00015
          0.050975754687912 0.0097222222222011 0.0003 0.050975754687912 0.011666666666651 0
          0.050975754687912 0.011666666666651 0.00015 0.050975754687912 0.011666666666651 0.0003
          0.050975754687912 0.0136111111111 0 0.050975754687912 0.0136111111111 0.00015
          0.050975754687912 0.0136111111111 0.0003 0.050975754687912 0.015555555555549 0
          0.050975754687912 0.015555555555549 0.00015 0.050975754687912 0.015555555555549 0.0003
          0.050975754687912 0.0175 0 0.050975754687912 0.0175 0.00015
          0.050975754687912 0.0175 0.0003 0.052086865799025 0 0
          0.052086865799025 0.0019444444444413 0 0.052086865799025 0 0.00015
          0.052086865799025 0.0019444444444413 0.00015 0.052086865799025 0 0.0003
          0.052086865799025 0.0019444444444413 0.0003 0.052086865799025 0.0038888888888803 0
          0.052086865799025 0.0038888888888803 0.00015 0.052086865799025 0.0038888888888803 0.0003
          0.052086865799025 0.0058333333333189 0 0.052086865799025 0.0058333333333189 0.00015
          0.052086865799025 0.0058333333333189 0.0003 0.052086865799025 0.0077777777777574 0
          0.052086865799025 0.0077777777777574 0.00015 0.052086865799025 0.0077777777777574 0.0003
          0.052086865799025 0.0097222222222011 0 0.052086865799025 0.0097222222222011 0.00015
          0.052086865799025 0.0097222222222011 0.0003 0.052086865799025 0.011666666666651 0
          0.052086865799025 0.011666666666651 0.00015 0.052086865799025 0.011666666666651 0.0003
          0.052086865799025 0.0136111111111 0 0.052086865799025 0.0136111111111 0.00015
          0.052086865799025 0.0136111111111 0.0003 0.052086865799025 0.015555555555549 0
          0.052086865799025 0.015555555555549 0.00015 0.052086865799025 0.015555555555549 0.0003
          0.052086865799025 0.0175 0 0.052086865799025 0.0175 0.00015
          0.052086865799025 0.0175 0.0003 0.05319797691014 0 0
          0.05319797691014 0.0019444444444413 0 0.05319797691014 0 0.00015
          0.05319797691014 0.0019444444444413 0.00015 0.05319797691014 0 0.0003
          0.05319797691014 0.0019444444444413 0.0003 0.05319797691014 0.0038888888888803 0
          0.05319797691014 0.0038888888888803 0.00015 0.05319797691014 0.0038888888888803 0.0003
          0.05319797691014 0.0058333333333189 0 0.05319797691014 0.0058333333333189 0.00015
          0.05319797691014 0.0058333333333189 0.0003 0.05319797691014 0.0077777777777574 0
          0.05319797691014 0.0077777777777574 0.00015 0.05319797691014 0.0077777777777574 0.0003
          0.05319797691014 0.0097222222222011 0 0.05319797691014 0.0097222222222011 0.00015
          0.05319797691014 0.0097222222222011 0.0003 0.05319797691014 0.011666666666651 0
          0.05319797691014 0.011666666666651 0.00015 0.05319797691014 0.011666666666651 0.0003
          0.05319797691014 0.0136111111111 0 0.05319797691014 0.0136111111111 0.00015
          0.05319797691014 0.0136111111111 0.0003 0.05319797691014 0.015555555555549 0
          0.05319797691014 0.015555555555549 0.00015 0.05319797691014 0.015555555555549 0.0003
          0.05319797691014 0.0175 0 0.05319797691014 0.0175 0.00015
          0.05319797691014 0.0175 0.0003 0.054309088021254 0 0
          0.054309088021254 0.0019444444444413 0 0.054309088021254 0 0.00015
          0.054309088021254 0.0019444444444413 0.00015 0.054309088021254 0 0.0003
          0.054309088021254 0.0019444444444413 0.0003 0.054309088021254 0.0038888888888803 0
          0.054309088021254 0.0038888888888803 0.00015 0.054309088021254 0.0038888888888803 0.0003
          0.054309088021254 0.0058333333333189 0 0.054309088021254 0.0058333333333189 0.00015
          0.054309088021254 0.0058333333333189 0.0003 0.054309088021254 0.0077777777777574 0
          0.054309088021254 0.0077777777777574 0.00015 0.054309088021254 0.0077777777777574 0.0003
          0.054309088021254 0.0097222222222011 0 0.054309088021254 0.0097222222222011 0.00015
          0.054309088021254 0.0097222222222011 0.0003 0.054309088021254 0.011666666666651 0
          0.054309088021254 0.011666666666651 0.00015 0.054309088021254 0.011666666666651 0.0003
          0.054309088021254 0.0136111111111 0 0.054309088021254 0.0136111111111 0.00015
          0.054309088021254 0.0136111111111 0.0003 0.054309088021254 0.015555555555549 0
          0.054309088021254 0.015555555555549 0.00015 0.054309088021254 0.015555555555549 0.0003
          0.054309088021254 0.0175 0 0.054309088021254 0.0175 0.00015
          0.054309088021254 0.0175 0.0003
          <InformationKey name="L2_NORM_RANGE" location="vtkDataArray" length="2">
            <Value index="0">
              0.019949534491
            </Value>
            <Value index="1">
              0.057059767277
            </Value>
          </InformationKey>
        </DataArray>
      </Points>
      <Cells>
        <DataArray type="Int64" Name="connectivity" format="ascii" RangeMin="0" RangeMax="818">
          0 1 2 3 4 5
          6 7 4 5 6 7
          8 9 10 11 12 13
          14 15 16 17 18 19
          16 17 18 19 20 21
          22 23 24 0 3 25
          26 4 7 27 26 4
          7 27 28 8 11 29
          30 31 32 14 33 34
          35 18 33 34 35 18
          36 37 38 22 39 40
          41 42 43 44 45 46
          43 44 45 46 47 48
          49 50 51 52 53 54
          55 56 57 58 55 56
          57 58 59 60 61 62
          13 63 64 65 17 66
          67 68 17 66 67 68
          21 69 70 71 0 24
          32 72 4 26 35 73
          4 26 35 73 8 28
          38 74 24 15 14 32
          26 19 18 35 26 19
          18 35 28 23 22 38
          13 65 30 14 17 68
          33 18 17 68 33 18
          21 71 36 22 93 94
          95 96 97 98 99 100
          97 98 99 100 101 102
          103 104 72 32 31 81
          73 35 34 83 73 35
          34 83 74 38 37 85
          53 40 39 54 57 44
          43 58 57 44 43 58
          61 48 47 62 31 30
          111 82 34 33 112 84
          34 33 112 84 37 36
          113 86 12 15 114 115
          16 19 116 117 16 19
          116 117 20 23 118 119
          120 121 122 123 124 125
          126 127 124 125 126 127
          128 129 130 131 64 76
          75 65 67 78 77 68
          67 78 77 68 70 80
          79 71 132 133 54 39
          134 135 58 43 134 135
          58 43 136 137 62 47
          53 141 41 40 57 142
          45 44 57 142 45 44
          61 143 49 48 111 30
          65 75 112 33 68 77
          112 33 68 77 113 36
          71 79 54 150 151 51
          58 152 153 55 58 152
          153 55 62 154 155 59
          156 122 121 157 158 126
          125 159 158 126 125 159
          160 130 129 161 162 88
          108 138 163 90 109 139
          163 90 109 139 164 92
          110 140 168 87 88 162
          169 89 90 163 169 89
          90 163 170 91 92 164
          121 165 171 157 125 166
          172 159 125 166 172 159
          129 167 173 161 132 39
          42 183 134 43 46 184
          134 43 46 184 136 47
          50 185 186 96 95 187
          188 100 99 189 188 100
          99 189 190 104 103 191
          192 193 122 156 194 195
          126 158 194 195 126 158
          196 197 130 160 183 42
          96 186 184 46 100 188
          184 46 100 188 185 50
          104 190 151 150 198 199
          153 152 200 201 153 152
          200 201 155 154 202 203
          174 145 144 204 175 147
          146 205 175 147 146 205
          176 149 148 206 193 192
          95 204 195 194 99 205
          195 194 99 205 197 196
          103 206 123 122 193 210
          127 126 195 211 127 126
          195 211 131 130 197 212
          93 96 42 41 97 100
          46 45 97 100 46 45
          101 104 50 49 213 214
          87 168 215 216 89 169
          215 216 89 169 217 218
          91 170 178 219 220 177
          180 221 222 179 180 221
          222 179 182 223 224 181
          225 141 226 227 228 142
          229 230 228 142 229 230
          231 143 232 233 120 105
          165 121 124 106 166 125
          124 106 166 125 128 107
          167 129 210 193 204 144
          211 195 205 146 211 195
          205 146 212 197 206 148
          219 227 234 220 221 230
          235 222 221 230 235 222
          223 233 236 224 94 174
          204 95 98 175 205 99
          98 175 205 99 102 176
          206 103 192 156 237 238
          194 158 239 240 194 158
          239 240 196 160 241 242
          243 2 1 244 245 6
          5 246 245 6 5 246
          247 10 9 248 227 226
          249 234 230 229 250 235
          230 229 250 235 233 232
          251 236 238 187 95 192
          240 189 99 194 240 189
          99 194 242 191 103 196
          252 207 87 214 253 208
          89 216 253 208 89 216
          254 209 91 218 187 255
          115 186 189 256 117 188
          189 256 117 188 191 257
          119 190 94 162 138 174
          98 163 139 175 98 163
          139 175 102 164 140 176
          64 63 237 171 67 66
          239 172 67 66 239 172
          70 69 241 173 41 213
          168 93 45 215 169 97
          45 215 169 97 49 217
          170 101 2 198 133 3
          6 200 135 7 6 200
          135 7 10 202 137 11
          25 114 15 24 27 116
          19 26 27 116 19 26
          29 118 23 28 114 183
          186 115 116 184 188 117
          116 184 188 117 118 185
          190 119 51 151 258 259
          55 153 260 261 55 153
          260 261 59 155 262 263
          226 52 264 249 229 56
          265 250 229 56 265 250
          232 60 266 251 198 150
          54 133 200 152 58 135
          200 152 58 135 202 154
          62 137 64 171 165 76
          67 172 166 78 67 172
          166 78 70 173 167 80
          52 51 259 264 56 55
          261 265 56 55 261 265
          60 59 263 266 171 237
          156 157 172 239 158 159
          172 239 158 159 173 241
          160 161 252 214 213 225
          253 216 215 228 253 216
          215 228 254 218 217 231
          151 199 267 258 153 201
          268 260 153 201 268 260
          155 203 269 262 63 13
          12 270 66 17 16 271
          66 17 16 271 69 21
          20 272 270 255 187 238
          271 256 189 240 271 256
          189 240 272 257 191 242
          199 198 2 243 201 200
          6 245 201 200 6 245
          203 202 10 247 225 213
          41 141 228 215 45 142
          228 215 45 142 231 217
          49 143 52 226 141 53
          56 229 142 57 56 229
          142 57 60 232 143 61
          25 132 183 114 27 134
          184 116 27 134 184 116
          29 136 185 118 252 225
          227 219 253 228 230 221
          253 228 230 221 254 231
          233 223 219 178 207 252
          221 180 208 253 221 180
          208 253 223 182 209 254
          25 3 133 132 27 7
          135 134 27 7 135 134
          29 11 137 136 93 168
          162 94 97 169 163 98
          97 169 163 98 101 170
          164 102 270 12 115 255
          271 16 117 256 271 16
          117 256 272 20 119 257
          199 243 273 267 201 245
          274 268 201 245 274 268
          203 247 275 269 63 270
          238 237 66 271 240 239
          66 271 240 239 69 272
          242 241 243 244 276 273
          245 246 277 274 245 246
          277 274 247 248 278 275
          276 244 1 279 277 246
          5 280 277 246 5 280
          278 248 9 281 285 72
          81 282 286 73 83 283
          286 73 83 283 287 74
          85 284 288 0 72 285
          289 4 73 286 289 4
          73 286 290 8 74 287
          291 1 0 288 292 5
          4 289 292 5 4 289
          293 9 8 290 294 279
          1 291 295 280 5 292
          295 280 5 292 296 281
          9 293 303 297 298 304
          305 299 300 306 305 299
          300 306 307 301 302 308
          309 303 304 310 311 305
          306 312 311 305 306 312
          313 307 308 314 315 309
          310 316 317 311 312 318
          317 311 312 318 319 313
          314 320 321 315 316 322
          323 317 318 324 323 317
          318 324 325 319 320 326
          327 321 322 328 329 323
          324 330 329 323 324 330
          331 325 326 332 333 327
          328 334 335 329 330 336
          335 329 330 336 337 331
          332 338 339 333 334 340
          341 335 336 342 341 335
          336 342 343 337 338 344
          348 345 297 303 349 346
          299 305 349 346 299 305
          350 347 301 307 351 348
          303 309 352 349 305 311
          352 349 305 311 353 350
          307 313 354 351 309 315
          355 352 311 317 355 352
          311 317 356 353 313 319
          357 354 315 321 358 355
          317 323 358 355 317 323
          359 356 319 325 360 357
          321 327 361 358 323 329
          361 358 323 329 362 359
          325 331 363 360 327 333
          364 361 329 335 364 361
          329 335 365 362 331 337
          366 363 333 339 367 364
          335 341 367 364 335 341
          368 365 337 343 372 369
          345 348 373 370 346 349
          373 370 346 349 374 371
          347 350 375 372 348 351
          376 373 349 352 376 373
          349 352 377 374 350 353
          378 375 351 354 379 376
          352 355 379 376 352 355
          380 377 353 356 381 378
          354 357 382 379 355 358
          382 379 355 358 383 380
          356 359 384 381 357 360
          385 382 358 361 385 382
          358 361 386 383 359 362
          387 384 360 363 388 385
          361 364 388 385 361 364
          389 386 362 365 390 387
          363 366 391 388 364 367
          391 388 364 367 392 389
          365 368 396 393 369 372
          397 394 370 373 397 394
          370 373 398 395 371 374
          399 396 372 375 400 397
          373 376 400 397 373 376
          401 398 374 377 402 399
          375 378 403 400 376 379
          403 400 376 379 404 401
          377 380 405 402 378 381
          406 403 379 382 406 403
          379 382 407 404 380 383
          408 405 381 384 409 406
          382 385 409 406 382 385
          410 407 383 386 411 408
          384 387 412 409 385 388
          412 409 385 388 413 410
          386 389 414 411 387 390
          415 412 388 391 415 412
          388 391 416 413 389 392
          420 417 393 396 421 418
          394 397 421 418 394 397
          422 419 395 398 423 420
          396 399 424 421 397 400
          424 421 397 400 425 422
          398 401 426 423 399 402
          427 424 400 403 427 424
          400 403 428 425 401 404
          429 426 402 405 430 427
          403 406 430 427 403 406
          431 428 404 407 432 429
          405 408 433 430 406 409
          433 430 406 409 434 431
          407 410 435 432 408 411
          436 433 409 412 436 433
          409 412 437 434 410 413
          438 435 411 414 439 436
          412 415 439 436 412 415
          440 437 413 416 447 444
          417 420 448 445 418 421
          448 445 418 421 449 446
          419 422 450 447 420 423
          451 448 421 424 451 448
          421 424 452 449 422 425
          453 450 423 426 454 451
          424 427 454 451 424 427
          455 452 425 428 456 453
          426 429 457 454 427 430
          457 454 427 430 458 455
          428 431 459 456 429 432
          460 457 430 433 460 457
          430 433 461 458 431 434
          462 459 432 435 463 460
          433 436 463 460 433 436
          464 461 434 437 465 462
          435 438 466 463 436 439
          466 463 436 439 467 464
          437 440 471 468 441 444
          472 469 442 445 472 469
          442 445 473 470 443 446
          474 471 444 447 475 472
          445 448 475 472 445 448
          476 473 446 449 477 474
          447 450 478 475 448 451
          478 475 448 451 479 476
          449 452 480 477 450 453
          481 478 451 454 481 478
          451 454 482 479 452 455
          483 480 453 456 484 481
          454 457 484 481 454 457
          485 482 455 458 486 483
          456 459 487 484 457 460
          487 484 457 460 488 485
          458 461 489 486 459 462
          490 487 460 463 490 487
          460 463 491 488 461 464
          492 489 462 465 493 490
          463 466 493 490 463 466
          494 491 464 467 498 495
          468 471 499 496 469 472
          499 496 469 472 500 497
          470 473 501 498 471 474
          502 499 472 475 502 499
          472 475 503 500 473 476
          504 501 474 477 505 502
          475 478 505 502 475 478
          506 503 476 479 507 504
          477 480 508 505 478 481
          508 505 478 481 509 506
          479 482 510 507 480 483
          511 508 481 484 511 508
          481 484 512 509 482 485
          513 510 483 486 514 511
          484 487 514 511 484 487
          515 512 485 488 516 513
          486 489 517 514 487 490
          517 514 487 490 518 515
          488 491 519 516 489 492
          520 517 490 493 520 517
          490 493 521 518 491 494
          525 522 495 498 526 523
          496 499 526 523 496 499
          527 524 497 500 528 525
          498 501 529 526 499 502
          529 526 499 502 530 527
          500 503 531 528 501 504
          532 529 502 505 532 529
          502 505 533 530 503 506
          534 531 504 507 535 532
          505 508 535 532 505 508
          536 533 506 509 537 534
          507 510 538 535 508 511
          538 535 508 511 539 536
          509 512 540 537 510 513
          541 538 511 514 541 538
          511 514 542 539 512 515
          543 540 513 516 544 541
          514 517 544 541 514 517
          545 542 515 518 546 543
          516 519 547 544 517 520
          547 544 517 520 548 545
          518 521 340 549 550 339
          342 551 552 341 342 551
          552 341 344 553 554 343
          339 550 555 366 341 552
          556 367 341 552 556 367
          343 554 557 368 366 555
          558 390 367 556 559 391
          367 556 559 391 368 557
          560 392 390 558 561 414
          391 559 562 415 391 559
          562 415 392 560 563 416
          414 561 564 438 415 562
          565 439 415 562 565 439
          416 563 566 440 438 564
          567 465 439 565 568 466
          439 565 568 466 440 566
          569 467 465 567 570 492
          466 568 571 493 466 568
          571 493 467 569 572 494
          492 570 573 519 493 571
          574 520 493 571 574 520
          494 572 575 521 519 573
          576 546 520 574 577 547
          520 574 577 547 521 575
          578 548 549 579 580 550
          551 581 582 552 551 581
          582 552 553 583 584 554
          550 580 585 555 552 582
          586 556 552 582 586 556
          554 584 587 557 555 585
          588 558 556 586 589 559
          556 586 589 559 557 587
          590 560 558 588 591 561
          559 589 592 562 559 589
          592 562 560 590 593 563
          561 591 594 564 562 592
          595 565 562 592 595 565
          563 593 596 566 564 594
          597 567 565 595 598 568
          565 595 598 568 566 596
          599 569 567 597 600 570
          568 598 601 571 568 598
          601 571 569 599 602 572
          570 600 603 573 571 601
          604 574 571 601 604 574
          572 602 605 575 573 603
          606 576 574 604 607 577
          574 604 607 577 575 605
          608 578 579 609 610 580
          581 611 612 582 581 611
          612 582 583 613 614 584
          580 610 615 585 582 612
          616 586 582 612 616 586
          584 614 617 587 585 615
          618 588 586 616 619 589
          586 616 619 589 587 617
          620 590 588 618 621 591
          589 619 622 592 589 619
          622 592 590 620 623 593
          591 621 624 594 592 622
          625 595 592 622 625 595
          593 623 626 596 594 624
          627 597 595 625 628 598
          595 625 628 598 596 626
          629 599 597 627 630 600
          598 628 631 601 598 628
          631 601 599 629 632 602
          600 630 633 603 601 631
          634 604 601 631 634 604
          602 632 635 605 603 633
          636 606 604 634 637 607
          604 634 637 607 605 635
          638 608 609 639 640 610
          611 641 642 612 611 641
          642 612 613 643 644 614
          610 640 645 615 612 642
          646 616 612 642 646 616
          614 644 647 617 615 645
          648 618 616 646 649 619
          616 646 649 619 617 647
          650 620 618 648 651 621
          619 649 652 622 619 649
          652 622 620 650 653 623
          621 651 654 624 622 652
          655 625 622 652 655 625
          623 653 656 626 624 654
          657 627 625 655 658 628
          625 655 658 628 626 656
          659 629 627 657 660 630
          628 658 661 631 628 658
          661 631 629 659 662 632
          630 660 663 633 631 661
          664 634 631 661 664 634
          632 662 665 635 633 663
          666 636 634 664 667 637
          634 664 667 637 635 665
          668 638 639 669 670 640
          641 671 672 642 641 671
          672 642 643 673 674 644
          640 670 675 645 642 672
          676 646 642 672 676 646
          644 674 677 647 645 675
          678 648 646 676 679 649
          646 676 679 649 647 677
          680 650 648 678 681 651
          649 679 682 652 649 679
          682 652 650 680 683 653
          651 681 684 654 652 682
          685 655 652 682 685 655
          653 683 686 656 654 684
          687 657 655 685 688 658
          655 685 688 658 656 686
          689 659 657 687 690 660
          658 688 691 661 658 688
          691 661 659 689 692 662
          660 690 693 663 661 691
          694 664 661 691 694 664
          662 692 695 665 663 693
          696 666 664 694 697 667
          664 694 697 667 665 695
          698 668 669 699 700 670
          671 701 702 672 671 701
          702 672 673 703 704 674
          670 700 705 675 672 702
          706 676 672 702 706 676
          674 704 707 677 675 705
          708 678 676 706 709 679
          676 706 709 679 677 707
          710 680 678 708 711 681
          679 709 712 682 679 709
          712 682 680 710 713 683
          681 711 714 684 682 712
          715 685 682 712 715 685
          683 713 716 686 684 714
          717 687 685 715 718 688
          685 715 718 688 686 716
          719 689 687 717 720 690
          688 718 721 691 688 718
          721 691 689 719 722 692
          690 720 723 693 691 721
          724 694 691 721 724 694
          692 722 725 695 693 723
          726 696 694 724 727 697
          694 724 727 697 695 725
          728 698 699 729 730 700
          701 731 732 702 701 731
          732 702 703 733 734 704
          700 730 735 705 702 732
          736 706 702 732 736 706
          704 734 737 707 705 735
          738 708 706 736 739 709
          706 736 739 709 707 737
          740 710 708 738 741 711
          709 739 742 712 709 739
          742 712 710 740 743 713
          711 741 744 714 712 742
          745 715 712 742 745 715
          713 743 746 716 714 744
          747 717 715 745 748 718
          715 745 748 718 716 746
          749 719 717 747 750 720
          718 748 751 721 718 748
          751 721 719 749 752 722
          720 750 753 723 721 751
          754 724 721 751 754 724
          722 752 755 725 723 753
          756 726 724 754 757 727
          724 754 757 727 725 755
          758 728 729 759 760 730
          731 761 762 732 731 761
          762 732 733 763 764 734
          730 760 765 735 732 762
          766 736 732 762 766 736
          734 764 767 737 735 765
          768 738 736 766 769 739
          736 766 769 739 737 767
          770 740 738 768 771 741
          739 769 772 742 739 769
          772 742 740 770 773 743
          741 771 774 744 742 772
          775 745 742 772 775 745
          743 773 776 746 744 774
          777 747 745 775 778 748
          745 775 778 748 746 776
          779 749 747 777 780 750
          748 778 781 751 748 778
          781 751 749 779 782 752
          750 780 783 753 751 781
          784 754 751 781 784 754
          752 782 785 755 753 783
          786 756 754 784 787 757
          754 784 787 757 755 785
          788 758 759 789 790 760
          761 791 792 762 761 791
          792 762 763 793 794 764
          760 790 795 765 762 792
          796 766 762 792 796 766
          764 794 797 767 765 795
          798 768 766 796 799 769
          766 796 799 769 767 797
          800 770 768 798 801 771
          769 799 802 772 769 799
          802 772 770 800 803 773
          771 801 804 774 772 802
          805 775 772 802 805 775
          773 803 806 776 774 804
          807 777 775 805 808 778
          775 805 808 778 776 806
          809 779 777 807 810 780
          778 808 811 781 778 808
          811 781 779 809 812 782
          780 810 813 783 781 811
          814 784 781 811 814 784
          782 812 815 785 783 813
          816 786 784 814 817 787
          784 814 817 787 785 815
          818 788
        </DataArray>
        <DataArray type="Int64" Name="offsets" format="ascii" RangeMin="8" RangeMax="3632">
          8 16 24 32 40 48
          56 64 72 80 88 96
          104 112 120 128 136 144
          152 160 168 176 184 192
          200 208 216 224 232 240
          248 256 264 272 280 288
          296 304 312 320 328 336
          344 352 360 368 376 384
          392 400 408 416 424 432
          440 448 456 464 472 480
          488 496 504 512 520 528
          536 544 552 560 568 576
          584 592 600 608 616 624
          632 640 648 656 664 672
          680 688 696 704 712 720
          728 736 744 752 760 768
          776 784 792 800 808 816
          824 832 840 848 856 864
          872 880 888 896 904 912
          920 928 936 944 952 960
          968 976 984 992 1000 1008
          1016 1024 1032 1040 1048 1056
          1064 1072 1080 1088 1096 1104
          1112 1120 1128 1136 1144 1152
          1160 1168 1176 1184 1192 1200
          1208 1216 1224 1232 1240 1248
          1256 1264 1272 1280 1288 1296
          1304 1312 1320 1328 1336 1344
          1352 1360 1368 1376 1384 1392
          1400 1408 1416 1424 1432 1440
          1448 1456 1464 1472 1480 1488
          1496 1504 1512 1520 1528 1536
          1544 1552 1560 1568 1576 1584
          1592 1600 1608 1616 1624 1632
          1640 1648 1656 1664 1672 1680
          1688 1696 1704 1712 1720 1728
          1736 1744 1752 1760 1768 1776
          1784 1792 1800 1808 1816 1824
          1832 1840 1848 1856 1864 1872
          1880 1888 1896 1904 1912 1920
          1928 1936 1944 1952 1960 1968
          1976 1984 1992 2000 2008 2016
          2024 2032 2040 2048 2056 2064
          2072 2080 2088 2096 2104 2112
          2120 2128 2136 2144 2152 2160
          2168 2176 2184 2192 2200 2208
          2216 2224 2232 2240 2248 2256
          2264 2272 2280 2288 2296 2304
          2312 2320 2328 2336 2344 2352
          2360 2368 2376 2384 2392 2400
          2408 2416 2424 2432 2440 2448
          2456 2464 2472 2480 2488 2496
          2504 2512 2520 2528 2536 2544
          2552 2560 2568 2576 2584 2592
          2600 2608 2616 2624 2632 2640
          2648 2656 2664 2672 2680 2688
          2696 2704 2712 2720 2728 2736
          2744 2752 2760 2768 2776 2784
          2792 2800 2808 2816 2824 2832
          2840 2848 2856 2864 2872 2880
          2888 2896 2904 2912 2920 2928
          2936 2944 2952 2960 2968 2976
          2984 2992 3000 3008 3016 3024
          3032 3040 3048 3056 3064 3072
          3080 3088 3096 3104 3112 3120
          3128 3136 3144 3152 3160 3168
          3176 3184 3192 3200 3208 3216
          3224 3232 3240 3248 3256 3264
          3272 3280 3288 3296 3304 3312
          3320 3328 3336 3344 3352 3360
          3368 3376 3384 3392 3400 3408
          3416 3424 3432 3440 3448 3456
          3464 3472 3480 3488 3496 3504
          3512 3520 3528 3536 3544 3552
          3560 3568 3576 3584 3592 3600
          3608 3616 3624 3632
        </DataArray>
        <DataArray type="UInt8" Name="types" format="ascii" RangeMin="12" RangeMax="12">
          12 12 12 12 12 12
          12 12 12 12 12 12
          12 12 12 12 12 12
          12 12 12 12 12 12
          12 12 12 12 12 12
          12 12 12 12 12 12
          12 12 12 12 12 12
          12 12 12 12 12 12
          12 12 12 12 12 12
          12 12 12 12 12 12
          12 12 12 12 12 12
          12 12 12 12 12 12
          12 12 12 12 12 12
          12 12 12 12 12 12
          12 12 12 12 12 12
          12 12 12 12 12 12
          12 12 12 12 12 12
          12 12 12 12 12 12
          12 12 12 12 12 12
          12 12 12 12 12 12
          12 12 12 12 12 12
          12 12 12 12 12 12
          12 12 12 12 12 12
          12 12 12 12 12 12
          12 12 12 12 12 12
          12 12 12 12 12 12
          12 12 12 12 12 12
          12 12 12 12 12 12
          12 12 12 12 12 12
          12 12 12 12 12 12
          12 12 12 12 12 12
          12 12 12 12 12 12
          12 12 12 12 12 12
          12 12 12 12 12 12
          12 12 12 12 12 12
          12 12 12 12 12 12
          12 12 12 12 12 12
          12 12 12 12 12 12
          12 12 12 12 12 12
          12 12 12 12 12 12
          12 12 12 12 12 12
          12 12 12 12 12 12
          12 12 12 12 12 12
          12 12 12 12 12 12
          12 12 12 12 12 12
          12 12 12 12 12 12
          12 12 12 12 12 12
          12 12 12 12 12 12
          12 12 12 12 12 12
          12 12 12 12 12 12
          12 12 12 12 12 12
          12 12 12 12 12 12
          12 12 12 12 12 12
          12 12 12 12 12 12
          12 12 12 12 12 12
          12 12 12 12 12 12
          12 12 12 12 12 12
          12 12 12 12 12 12
          12 12 12 12 12 12
          12 12 12 12 12 12
          12 12 12 12 12 12
          12 12 12 12 12 12
          12 12 12 12 12 12
          12 12 12 12 12 12
          12 12 12 12 12 12
          12 12 12 12 12 12
          12 12 12 12 12 12
          12 12 12 12 12 12
          12 12 12 12 12 12
          12 12 12 12 12 12
          12 12 12 12 12 12
          12 12 12 12 12 12
          12 12 12 12 12 12
          12 12 12 12 12 12
          12 12 12 12 12 12
          12 12 12 12
        </DataArray>
      </Cells>
    </Piece>
  </UnstructuredGrid>
</VTKFile>
