<?xml version="1.0"?>
<VTKFile type="UnstructuredGrid" version="0.1" byte_order="LittleEndian" header_type="UInt32" compressor="vtkZLibDataCompressor">
  <UnstructuredGrid>
    <Piece NumberOfPoints="789" NumberOfCells="452">
      <PointData>
        <DataArray type="Int32" Name="libmesh_node_id" format="ascii" RangeMin="0" RangeMax="1901">
          0 1 2 3 4 5
          6 7 8 9 10 11
          12 13 14 15 16 17
          18 19 20 21 22 23
          24 25 26 27 28 29
          30 31 32 33 34 35
          36 37 38 39 40 41
          42 43 44 45 46 47
          48 49 50 51 52 53
          54 55 56 57 58 59
          60 61 62 63 64 65
          66 67 68 69 70 71
          72 73 74 75 76 77
          78 79 80 81 82 83
          84 85 86 87 88 89
          90 91 92 93 94 95
          96 97 98 99 100 101
          102 103 104 105 106 107
          108 109 110 111 112 113
          114 115 116 117 118 119
          180 181 182 183 184 185
          186 187 188 189 190 191
          192 193 194 195 196 197
          198 199 200 201 202 203
          204 205 206 207 208 209
          210 211 212 213 214 215
          216 217 218 219 220 221
          222 223 224 225 226 227
          228 229 230 231 232 233
          234 235 236 237 238 239
          270 271 272 273 274 275
          276 277 278 279 280 281
          282 283 284 285 286 287
          288 289 290 291 292 293
          294 295 296 297 298 299
          300 301 302 303 304 305
          306 307 308 309 310 311
          312 313 314 315 316 317
          318 319 320 321 322 323
          324 325 326 327 328 329
          360 361 362 363 364 365
          366 367 368 369 370 371
          372 373 374 375 376 377
          378 379 380 381 382 383
          384 385 386 387 388 389
          390 391 392 393 394 395
          396 397 398 399 400 401
          402 403 404 405 406 407
          408 409 410 411 412 413
          414 415 416 417 418 419
          450 451 452 453 454 455
          456 457 458 459 460 461
          462 463 464 465 466 467
          468 469 470 471 472 473
          474 475 476 477 478 479
          480 481 482 483 484 485
          486 487 488 489 490 491
          492 493 494 495 496 497
          498 499 500 501 502 503
          504 505 506 507 508 509
          540 541 542 543 544 545
          546 547 548 549 550 551
          552 553 554 555 556 557
          558 559 560 561 562 563
          564 565 566 567 568 569
          570 571 572 573 574 575
          576 577 578 579 580 581
          582 583 584 585 586 587
          588 589 590 591 592 593
          594 595 596 597 598 599
          630 631 632 633 634 635
          636 637 638 639 640 641
          642 643 644 645 646 647
          648 649 650 651 652 653
          654 655 656 657 658 659
          660 661 662 663 664 665
          666 667 668 669 670 671
          672 673 674 675 676 677
          678 679 680 681 682 683
          684 685 686 687 688 689
          720 721 722 723 724 725
          726 727 728 729 730 731
          732 733 734 735 736 737
          738 739 740 741 742 743
          744 745 746 747 748 749
          750 751 752 753 754 755
          756 757 758 759 760 761
          762 763 764 765 766 767
          768 769 770 771 772 773
          774 775 776 777 778 779
          810 811 812 813 814 815
          816 817 818 819 820 821
          822 823 824 825 826 827
          828 829 830 831 832 833
          834 835 836 837 838 839
          840 841 842 843 844 845
          846 847 848 849 850 851
          852 853 854 855 856 857
          858 859 860 861 862 863
          864 865 866 867 868 869
          870 871 872 873 874 875
          1272 1273 1274 1275 1276 1277
          1326 1327 1328 1353 1354 1355
          1380 1381 1382 1407 1408 1409
          1434 1435 1436 1677 1678 1679
          1704 1705 1706 1731 1732 1733
          1758 1759 1760 1785 1786 1787
          1788 1789 1790 1812 1813 1814
          1815 1816 1817 1839 1840 1841
          1842 1843 1844 1866 1867 1868
          1869 1870 1871 120 121 122
          123 124 125 240 241 242
          330 331 332 420 421 422
          510 511 512 600 601 602
          690 691 692 780 781 782
          783 784 785 876 786 877
          787 878 788 1278 1279 1280
          1281 1282 1283 1329 1330 1331
          1356 1357 1358 1383 1384 1385
          1410 1411 1412 1437 1438 1439
          1461 1462 1463 1464 1465 1466
          1488 1489 1490 1515 1516 1517
          1542 1543 1544 1569 1570 1571
          1596 1597 1598 1623 1624 1625
          1650 1651 1652 1680 1653 1681
          1654 1682 1655 1707 1708 1709
          1734 1735 1736 1761 1762 1763
          1791 1764 1792 1765 1793 1766
          1818 1819 1820 1845 1846 1847
          1872 1873 1874 1893 879 1894
          880 1895 881 1896 1897 1898
          1899 1900 1901
        </DataArray>
        <DataArray type="Float64" Name="resid_x" format="ascii" RangeMin="-16.784410605710935" RangeMax="1.1967507153308725">
          -4.020165073657578 0.0000012090779266671348 0.0000033467302165135493 -8.096377445525006 -8.04023141119642 0.000009323173767228354
          -0.000005984908167278036 -16.176096297458006 -4.0208247051773345 0.000039926004482992994 0.000009096929033169943 -8.076601301476906
          0.000011088579905838003 -8.194620994789076 -0.000015159011602428052 -16.252641085440306 0.000009334723876985862 -8.038346126298961
          -0.00003995310539828267 -8.17026409493407 -0.00002283333162722556 -16.29685346288818 0.00010709706428002619 -8.114916102783198
          0.010802091948694859 -8.081382214064842 0.009102576314390376 -16.126412207693352 -0.001962303264369858 -8.03188529546857
          0.0009628139959243498 -7.8011550635307545 -0.011266650947577173 -15.605405898680958 -0.015088966900565826 -7.807211749792069
          -0.01642520023477534 -7.615130881228285 -0.04020533527172576 -15.248666753264555 -0.026853893174590304 -7.646555696252252
          -0.0123337754327415 -7.635604504909448 -0.030645525987887723 -15.28610820853621 -0.019533272241344157 -7.66082500217151
          -0.004433908268339781 -7.773849158513855 -0.011112648626752097 -15.552961484255341 -0.007306497403329004 -7.78262016526107
          0.004826270807538169 -7.934377820687589 0.00687445969545486 -15.861848086169445 0.0018326299871964657 -7.924314570252415
          0.006141253588481277 -8.081746785478082 0.011005402726506297 -16.157042019128006 0.004375836361018237 -8.071075964825841
          -0.004403691013515676 -8.256057316492495 -0.006443397414916063 -16.515575807140216 -0.0024977406286961212 -8.26065329790726
          0.002677289447372111 -8.389052926799366 0.013884351392551508 -16.784410605710935 -0.0007120799664974697 -8.397491055882512
          0.012008314031802136 -8.383051796337082 0.059110314589156054 -16.764464340162508 -0.0006952076486790304 -8.373071336608904
          -0.00006042562173913524 -8.339591051749736 0.0015191389962492252 -16.67250710817524 -0.001103779892919654 -8.324999639709443
          0.00013938689680603744 -8.30455239126197 0.0018703256639627241 -16.5888950152899 -0.000948974239319611 -8.266037179803018
          0.00025292753327121886 -8.263553722776024 0.0014514818351907266 -16.497515104057726 -0.00020729862954382838 -8.208217860686668
          0.0006208895529704606 -8.21568140185644 0.0011622708182636998 -16.400307697780725 0.0016852904145006065 -8.160820350964709
          0.001694598795329405 -8.161292793926691 0.005417789350726565 -16.31535284144163 0.01246398872528598 -8.156522825542332
          0.01182716153186636 -8.132313653320157 0.023075874937976693 -16.31522571349941 0.04059873110036083 -8.237153805373314
          0.0003059211040303822 0.00014242771481587368 0.00035743034630808523 0.00014184715298171113 0.00012139203676753141 0.00013744888929867471
          0.0003250812145374482 0.0003774971108132519 0.00006347853033794593 0.030265162956540692 0.039255347161314624 0.011413354833852196
          0.14689437873311562 0.19264893280814732 0.051018982771533494 -0.009376419210772813 -0.03599546810590448 -0.03053453737925471
          -0.031604722352987835 -0.08272572457183225 -0.05544239089259584 -0.02404305493770531 -0.061085032022434316 -0.03894299232149523
          -0.009135865418258948 -0.02222450447509905 -0.013782382236353197 0.010268867732439624 0.017336972928866157 0.006664389066157295
          0.011357556821908865 0.01969299084343401 0.007904242804420925 -0.003443555358892958 -0.008374804087861065 -0.005399028549001095
          -0.006026505796513426 -0.018473991418113123 -0.0014560942906616248 -0.01566626273376226 -0.056078264971306524 0.0011685615231451507
          0.0007449955303524547 0.0010901667134373128 0.00010881042377608452 0.0015142222075512635 0.0028460285814544406 0.0006020782268896241
          0.0014272957087948512 0.002296108584173062 0.0011432818083232377 0.0012887909468402015 0.0029805211461724213 0.003215934348491878
          -0.01413181211876946 -0.028683223572840255 -0.013927617532978331 -0.03618956033298826 -0.07486722477726371 -0.038512719609745893
          0.000054009907614727126 0.00005276621381433699 0.00003864425467714483 0.0000027694568185410162 0.00001340589756804178 0.000026685646533408658
          0.00004700782583100249 -0.000001293458716133955 -0.000016278233227140504 0.001585718410098913 0.023456744980173028 0.017819945161610562
          0.001993682123987206 0.10257858596941771 0.07931185134567853 -0.04094363928788125 -0.08521994734840588 -0.04721947218578215
          -0.05589610055214056 -0.13725349338867954 -0.0849449508262845 -0.04371084619788679 -0.10452850270975578 -0.06310364843544658
          -0.014886833601556848 -0.03536395679436133 -0.021313207325041716 0.012776448620268166 0.019179550033822323 0.00537675804829485
          0.013190530007266332 0.019781662827566215 0.005261069204241409 -0.0052815314963243765 -0.014900720390993882 -0.01099767291753917
          -0.0034199876570850662 -0.005785842381372142 -0.002352614085562088 -0.0004303304205279801 0.0026459027274459146 0.0017890727398546247
          -0.0015329967266426436 -0.003609630646310258 -0.0009515151911534403 0.0012027285709281799 0.001960905729511353 0.0011986632756535442
          0.0009223823444557411 0.0011751647097097973 0.0010613989786447675 0.0007501557322342478 0.0023147413441551024 0.0019418453294619553
          -0.0019011496744587575 -0.002502250353916935 -0.0010535721685558386 -0.03367509057974871 -0.07451113070725324 -0.04981343277238448
          0.00003802638559147198 0.00000650342613806032 0.000029158737854917405 0.0000015540241617983952 0.000014585523370858056 0.000009651490612938574
          -0.0000036816723278931818 -0.00005698606477988477 -0.00008707450588563148 -0.003367319406556213 -0.006030118670174112 -0.0018488289537188507
          -0.042855186330013506 -0.07272768879623115 -0.024307197398890423 -0.0890727802039537 -0.14901755016351537 -0.06080221446498868
          -0.10595383339820863 -0.21214469381141665 -0.1056979307371857 -0.07664269927826917 -0.16118998781474625 -0.08511085920269723
          -0.019969504584151032 -0.04835858576030061 -0.03007708183360247 0.014267471267029208 0.012920420459068716 -0.0009045910714573502
          0.00995798611539822 0.008498041594295458 -0.002885529039215129 -0.010126361748189261 -0.029789230092255536 -0.021811066116405264
          -0.002745259458406757 -0.00659785604211649 -0.0024538797628217424 0.002688268033812946 0.0015275845504199026 0.00038710143646980555
          -0.00042222120153123655 -0.004071599454809061 -0.0025184295311087013 0.001200804977452563 0.002265018204749225 0.0014378607459697434
          0.0006642969144916577 0.0014470782078044309 0.001017585531424281 0.00016484913860725925 0.0006604732418287185 -0.00015468738634094592
          -0.000914565465050643 -0.0006744883474816277 -0.0016148098724695359 -0.009901984555061638 -0.013345870670130822 -0.014826050664381363
          0.000039122241954014925 -0.0000016250713148480145 0.00002897302224269538 -0.000005384057332413761 0.000026888997801677306 0.00000391008359468259
          -0.000035876929250555634 -0.00007805351586576137 -0.00010342483663450253 -0.0283260793569049 -0.056969555420949725 -0.027569158804775284
          -0.1679909845850336 -0.37498599411649813 -0.20373380139621577 -0.12629554928320896 -0.2412435850562109 -0.10457492715277894
          -0.19375628980265036 -0.3121648906211738 -0.09350202618531345 -0.12829432322936318 -0.2180817744759609 -0.08304540125581683
          -0.028449377439696555 -0.06958992868034874 -0.042182735450737585 -0.004800510547543713 -0.014300693088536764 -0.013956096151691355
          -0.004325048894072481 -0.01848179186970622 -0.01745707719647349 -0.019876914675289292 -0.049920020785628516 -0.02903459819677856
          -0.0017716145669623984 -0.005258467568423519 -0.0022611745866720767 0.005067535731853923 -0.0031061771181750686 -0.001652836247418854
          0.0016379448434022947 -0.0035224471776107436 -0.002685666333022141 0.0017944421781805886 0.002783991065012259 0.0014411337862414442
          0.0007504917535277045 0.0015747460835209282 0.0008618455089139943 0.00013718261725959024 0.0001645913717949199 -0.0010804852673338416
          -0.0006232620328763261 0.00034330745578703414 -0.0024520080730559 -0.006981847450579615 -0.009198541533493199 -0.008569208973630005
          0.00004589306503310908 0.000005087118786661904 0.00003579596809366592 -0.0000025728147665660117 0.00004525815836409208 0.000012594176770797105
          -0.00006432873455430865 -0.00010536461769472538 -0.00008687625747505479 -0.000018799573129335556 -0.000053672783786318234 -0.00005757502884584653
          -0.11399261100951019 -0.19429714371807716 -0.0738585811691106 -0.26694686100509024 -0.5527156711474612 -0.28018658379263783
          -0.6169717444759639 -0.7948186623345528 -0.27078549387050366 -0.2833145123264451 -0.3528485475032328 -0.09817023263375102
          -0.061686801914170974 -0.12025458431157743 -0.056652242804247965 -0.028892682125915226 -0.05739628523792728 -0.029931259040722136
          -0.029254381512388683 -0.0622416194213784 -0.0362696215841698 -0.026326789237323567 -0.048257164917049344 -0.025530057659685745
          0.0037267437714572083 0.004742271956339472 -0.0019620876271027043 0.0012475317050242296 -0.004908081340142978 -0.005315405347322333
          0.0011445047542339992 -0.0008269728095307016 -0.0018816196956299436 0.001377422049436916 0.002487584320153502 0.0010890111391717028
          0.0007857466374865396 0.0010531072586106305 -0.00006631154671943307 0.0004483999143065631 0.0011917085905768232 -0.0004906998512863581
          0.002268376056247856 0.008608123256215627 -0.0031819916572128903 -0.003086141126185993 0.012717031899065034 -0.011759103990660158
          0.00007055976803060915 0.000057865187448769007 0.000033450849172389496 0.0000066697663898551696 0.00008789502198691679 0.000053663424886885025
          -0.0001715343495760635 -0.00012282983348832488 0.00004967590985849313 -0.0000671890015704335 -0.000034265879782502395 0.00009904224662449224
          0.00007235168798924718 -0.000010627757013992323 0.000005580533600557658 -0.008251607218005219 -0.002701691643765436 -0.00009373266185086493
          0.2863920943199716 0.12243606865924761 -0.07914690734042029 -0.12323186304129763 -0.3238843653447203 -0.16344857861591944
          -0.14432602354623825 -0.20309161940553455 -0.0606337896486524 -0.07202440677136046 -0.11670170444950578 -0.04475756797652242
          -0.07242245569467975 -0.12646728611338798 -0.057395587270450577 -0.040486507988112486 -0.06799289992017155 -0.032930455469496245
          0.007869913760559122 0.009346448168666477 -0.00319031543846382 -0.0016874540113276382 -0.010219380504525866 -0.007714100698466453
          0.002713383342888065 0.0007144496801050337 0.0007045954213600325 0.0011827853675718814 0.0017108815019737378 0.0009529753803620977
          -0.00008788929455771921 -0.0006671666931410414 -0.0015317109851880062 -0.0006491374792538807 -0.0011186534928455671 -0.002094161890201285
          -0.0032319987229412206 -0.006302840338263671 -0.009141684408461082 0.005269938175277211 -0.010237221427767729 -0.02195196173068492
          0.0001795049954793626 0.006098096325954927 0.00011443320370485566 0.0169211942000409 0.00017015128819242165 0.020986390623037643
          0.0612343168648275 0.1998105878069696 0.2828942132629697 0.01044316981368798 0.03700188222862888 0.055709158114014556
          0.00019219000799708397 -0.0000771221263695665 -0.000033073744234002334 -0.000025886905416605543 0.000029364185222924277 0.0000752874039084972
          -0.00009203941457602838 -0.0021887181770736674 -0.008109100910831835 -0.041828592762040095 -0.16521662508589863 -0.08567991681983145
          -0.29598313534749643 -0.4298181682766833 -0.08614256087647298 -0.13850701842362056 -0.238405657502323 -0.08751535674865085
          -0.11656302086957648 -0.22663229610907898 -0.09804488609594042 -0.048430424544487316 -0.07209703504995257 -0.012293034329276864
          0.0015337226621934263 0.003952454171727737 0.009963857567708345 -0.006205537484987644 -0.009781877553183271 -0.004608097776172215
          0.004239115545146888 0.0022995191019798966 0.0008895537893556238 0.0014732638450301039 0.0005666780216255773 -0.001154902570765337
          -0.0014186597410992263 -0.0016875652650787387 -0.0021029234366984895 -0.0026503284635479574 -0.0015259072428071008 0.002811817652001558
          -0.004629099732430753 -0.006653993550968185 0.005616174896189818 0.09343500152146289 0.15715193718210418 0.018092402634438898
          0.0836184096146142 0.1270898868518655 0.07051621856281143 0.23287280374004116 0.020561894117707702 0.10096716508359815
          0.06951402127990747 0.060351758046683024 -0.15594907511170675 0.007380314461233439 -0.0022997135880666875 -0.03782252901464389
          0.0002653429639005722 0.00013184906204699587 0.00044685046996573163 0.0003218689900172933 0.00008497986187450124 0.0003150972924164108
          -0.00012584188560804677 -0.00039801622612856136 -0.00004003225618376405 0.07010059370709065 0.09735322901667498 -0.02061610593187524
          0.11272732356729964 0.0021225017330088747 -0.15618074366365864 -0.2054299397197834 -0.458031407982018 -0.2625025785651003
          -0.17101902379695488 -0.332042037264908 -0.1647828901889934 -0.01954049022925286 -0.005070921053993871 0.009192854548867757
          0.0032039512876931298 0.014388222640391746 -0.0015375083751170138 -0.01217572597427452 -0.024760707591106268 -0.020661201362396575
          0.011889598510595789 0.01490173959996799 -0.0018635089830336682 0.004533443455721375 0.002472598759282185 -0.006514493116909215
          -0.0018846267894669921 -0.004683820486880208 -0.00837475034820745 0.002024058172310106 -0.0010888420115344744 -0.009406448293695746
          0.015254567192161783 -0.012988079804360897 -0.013732615184189001 -0.10688679719849326 -0.1839451451552785 -0.04237463908296579
          -0.7370343557301537 -1.3022578175005792 -0.2122605977245975 -0.056200604755991534 -0.08793373619762335 -0.07152208051039022
          -0.09190395299702825 -0.08195406988866161 -0.16023508827437194 -0.0607210705068284 -0.07635085620348026 -0.01930183809348396
          0.01965697730949767 0.04938770880460375 0.03961334629187174 0.010593567391014247 0.02112167692079847 0.01234791438292504
          0.0008754007938200914 0.0014946091316954124 0.0012130599451047885 0.0008172115968170246 0.0013302529475662794 0.0010501668150126875
          0.007673016523930265 0.013188342713632117 0.005671548958451567 -0.0036201287013843952 -0.0017751849049632007 -0.002364603363828266
          -0.00014733994786331195 -0.0018192043035183403 -0.008052383805577712 0.0008182744220923688 -0.0009962298212435883 -0.009900096184042084
          0.00820713485708957 0.0011938108520013202 -0.011637944557221225 0.0016737993322362144 -0.00022950308926539265 -0.006308624917477967
          0.00273933448615038 0.0032060555644224387 -0.010631309526281996 -0.024802094006262543 -0.019029868559960583 -0.021189340686945002
          0.013516044788754566 0.01634139075519414 -0.001207527513789941 0.005696044262884836 0.030906549607550904 -0.001623928401758512
          -0.025682075910986146 -0.030154900107174587 -0.014933747789988239 -0.01982007810371833 -0.029106621892316387 -0.01595893309433105
          0.002748011930384653 0.008574093718416886 0.009439876058066954 0.010655730176421407 -8.16248233767568 0.02351841591628645
          -16.425558477634667 0.01249221766050912 -8.385778646779235 -0.016013911715332618 -0.030982433277294774 -0.013392901679917024
          -0.033528826629150466 -0.0734195221657652 -0.04062034931408487 0.0031633204032255335 -0.014482514009101166 -0.025592673912216313
          -0.04640315659161409 -0.07126547095239655 -0.023972925241573684 -0.00434045637337821 -0.007974292895578827 0.002699322161666906
          0.02196341371347632 -0.04434655478502947 0.022373876472593146 0.6513440211576724 1.1967507153308725 0.11937280173315834
          -0.0909329401168808 -0.16674598610787328 -0.20989372809009943 -0.04842938196096025 -0.04141182023596279 -0.07948867868189069
          -0.07083452165212378 -0.050317651301738486 -0.04490648623606219 0.24287397495951524 0.15318841825538554 0.4756181365455596
          0.3359016385599922 0.22398648833859447 0.17816465012445626 0.12026187967198432 0.22935709828568207 0.1010472533879998
          0.4208343840191482 0.8343063434286737 0.41165893555677524 0.45772792898863024 0.8983335555330569 0.4370606449083647
          0.29889763061127095 0.5744765876665863 0.27040147246759005 0.05990737601060303 0.10819235033955366 0.04570105539362146
          -0.04106848802153529 -0.08971163065989707 -0.05046967445228834 -0.03229466606712261 -0.054254526745872056 -0.02086130050604673
          -0.1391713334784601 -0.2786659129777007 -0.13792034716393253 -0.052877216755492285 -0.11378355258742445 -0.05849122807148355
          -0.0011677863304342395 -0.0018648742980289512 -0.0021057588174233643 0.015398230357369869 0.011536215921065462 -0.00785619673836635
          0.009986290634548922 0.01706470820797179 0.0013100352235575485 0.04495621409875916 0.09159267399813587 0.03349925859111558
          0.00034554783034401737 0.007692973784774182 0.0009099941449974835 -0.0015554273152993403 -0.0007277089530504099 0.0003363408349841279
          -0.00016712158537046662 -0.009498056738710403 -0.0062256688469268795 0.002910845915863547 0.0034711463640491047 -0.011443031396268566
          0.0032576554738632524 0.006254764737057883 -0.00941020535649173 0.001809067817660548 -0.0005619422971587795 -0.016480081898293086
          -0.001409591848075209 0.005948763210145813 -0.004326550687093089 0.0007865392449240005 -0.0011566955450259542 -0.011523392090935225
          -0.005846759467232232 -0.009010590259801887 0.009351764581019495 -0.007335654112393897 -0.00789126060910661 0.007573292818312538
          -0.0013865509942068144 -0.0008261424747892931 0.0017999335870690913 0.003544859040224946 0.022907094011648255 0.009227136053855833
          0.02571201404010459 0.011248899708776072 0.0034828728822517974 -0.003260703783196206 -0.010448082864944475 0.0016288833270259317
          -0.0007992034120372082 -0.004108163467448023 0.0034426669643394803
        </DataArray>
        <DataArray type="Float64" Name="resid_y" format="ascii" RangeMin="-0.292396280742963" RangeMax="0.26091522568449477">
          0.00040665399878750006 0.0018966330274129712 -0.000016859385533272986 -0.000029549995562908396 -0.0013393402273429395 0.0006585194157053371
          -0.00003503824564797878 -0.000170252718010383 -0.0037969899781494475 0.0028895876109729015 0.00000950197590185442 -0.00014368335366372192
          -0.00006857344234231094 -0.00018778283024172698 -0.000031045421080254376 -0.0004839344481629079 -0.000017024175530091362 -0.0003192650126315477
          -0.000010459767241210657 -0.00017017948759366283 0.000020730013412535025 -0.0005256647481631203 -0.00000371526846974779 -0.00034010124752470797
          -0.051054224339981816 -0.0251828575862994 -0.10180560934920749 -0.05106938016529758 -0.051069602007752214 -0.025946226883910656
          -0.037392294180908225 -0.01995529002150631 -0.07253666104241528 -0.038700764541445776 -0.03488720941880389 -0.01872594703609593
          -0.01243489398751084 -0.006972409610862082 -0.024777607681669256 -0.014343576072897393 -0.012493142821828632 -0.007388699431427878
          0.008965534043411251 0.004049745194468914 0.017095845279255086 0.007225156286977161 0.007829685659567154 0.0031428647378228466
          0.017011416706850573 0.008095695127000174 0.03293040881163703 0.015155334905442193 0.015388909092236586 0.006821797370493918
          0.016917264318801285 0.007973283483289025 0.033364933978981444 0.014833733198410026 0.015992405870508264 0.006660233831309419
          0.02001458059377091 0.009001329552010173 0.0406301598035533 0.01794670833957994 0.020272044886212332 0.008775181623840389
          0.02936648181219228 0.014101676593851392 0.059824210835079175 0.027979825492167446 0.030284536520565387 0.01373281651483094
          0.005395445063081858 0.0029657721965211797 0.006940400630090986 0.004790823782026459 0.007016573821933717 0.002155946681807141
          0.001721997807965149 -0.00045091964728381827 0.006659004537519068 -0.0014570698926151824 0.0005859104960615133 -0.0009079598496041469
          -0.001895309553396657 -0.0012867581575850395 -0.0033649092913410348 -0.0023771165971668267 -0.0008445816340719374 -0.0019730344957760923
          -0.0008305631806974009 -0.0013492964079949467 -0.0008743399942962183 -0.0035057349787679833 -0.000029738324738733807 -0.002138784775630998
          0.00012714109812035634 -0.0011703369728892493 0.000379467258611408 -0.0033490566319210394 0.000018417413358923218 -0.0018254186680434978
          0.001603006153624402 -0.00099436971872182 0.0032264418272827805 -0.0027026307498050073 0.0008863240424788546 -0.0018621137810492377
          -0.0053899122162458235 -0.0037944325415863733 -0.01197968834980244 -0.00921710731749003 -0.004453189996953183 -0.002871253839317675
          -0.00462497009973345 -0.0036941738389373174 -0.011391467204704055 -0.009138457218202396 -0.010102964787617047 -0.009074039032636719
          0.0012438170034484095 -0.0001925789526065879 0.00003116654040584768 -0.00034900026099657887 0.0025877485135583998 -0.00021081958426490653
          -0.0003322500187813576 -0.0004923827217777899 -0.00033050847041850295 -0.00974705226726088 -0.010174071512292314 -0.0017287055394938529
          -0.046870449352452284 -0.09810864037161993 -0.05038778688732276 -0.0304801436573249 -0.061143946048457395 -0.03051467804069611
          -0.013445751238120727 -0.02595362037910737 -0.013098597184653879 0.006731196011432253 0.012310137134775141 0.00469013555164223
          0.013619188058153493 0.02630965202226298 0.01176933176286267 0.014037895858652252 0.028188268220274322 0.013309505321484057
          0.019569176849151527 0.03970922854687992 0.01951229828681237 0.028553708321156532 0.05811910081480143 0.029134897451775582
          0.002524725245928852 0.006195926477199815 0.004484693587973487 0.00005939931416559449 0.0017109453665981114 -0.0005586283770261172
          -0.0009769503795370935 -0.002366707965805206 -0.0017918804397788687 -0.0016989720892204565 -0.0024544183923033702 -0.0016478472652064046
          -0.0021812430980069526 -0.002973544008338871 -0.0019421088607046062 -0.0018437665064006264 -0.001891659273146249 -0.001611649022105699
          -0.0028060719524872213 -0.0030236838014474493 -0.0033669599441044154 -0.008895455457067172 -0.02017139987936006 -0.01276071234409031
          -0.0010695318438108982 -0.0000673223130911102 -0.004445932003769609 -0.000030981478614650754 -0.006940222184621285 -0.00010358897214186868
          -0.00012769889021035496 -0.000009766537284688556 -0.00012898862278801042 -0.01948983715085108 -0.03466405064260864 -0.01499471493154339
          -0.038439835422564295 -0.07631624347745021 -0.0373400609232353 -0.021586586136967942 -0.04128915102431501 -0.02001007385418629
          -0.012879638540247138 -0.024672344806763866 -0.012418005690728817 0.006081642984525425 0.0090829355323349 0.0016891553671695148
          0.011192982443091113 0.02106512850249698 0.008613526151511015 0.013299839148073388 0.02695849836888148 0.01259227368268354
          0.02205759333175767 0.04462227071668296 0.021756997071232964 0.0309436658320711 0.06236969738105407 0.030587375775559998
          0.003460374449188154 0.007806516099880659 0.004218558760071024 0.00044632992811657196 0.003205770581349708 0.0020630987519339034
          0.00100291868922079 0.0021773782293142557 -0.0009023995903973576 -0.00031477773697066724 0.0002818145795485307 -0.0008418310154584482
          -0.0009283452856927374 -0.00027134317093376476 -0.0004417529034536471 -0.003283125242247345 -0.004353897526132619 -0.002257353144390727
          -0.0019491849610720619 -0.0005599000565653517 -0.0013862762769690784 -0.017560677610572756 -0.0258671880511192 -0.011442801181839607
          -0.0028305771076240945 -0.00007282797688142745 -0.007061164268623552 -0.0000531195813781582 -0.007224032537316304 -0.00011624411730076084
          -0.000143267783578798 -0.000046897594087701513 -0.00016248270814632525 -0.018923860501775448 -0.03772870979508814 -0.01807103251737885
          -0.03328125461851176 -0.0656297279711599 -0.032125103280502304 -0.016490115667106408 -0.02669995806599646 -0.010773915071003778
          -0.012760066237198605 -0.022823103155262873 -0.010680552388580657 0.0019104280506544308 -0.00050721309944185 -0.003771456099153858
          0.005810719774095672 0.01026068111727062 0.0030759350932030374 0.011125030662320155 0.023345186515992152 0.010940934781965506
          0.02390775507328157 0.04777298981049933 0.02316976157729106 0.03214837244115522 0.06405210388727291 0.030544970093588045
          0.003859449049447121 0.008717826012342576 0.005140571653838008 -0.0014711481822536135 -0.002615332064876068 0.0004750485206233557
          -0.0006880552547121818 -0.0013004794106180606 -0.002182572629226255 -0.0011018717891797675 -0.0007848952664978419 -0.0010827749205868098
          -0.000867055513867121 -0.00014338939451828334 -0.0004018388620111446 -0.003466989218061718 -0.005288562310588884 -0.0029417978318003295
          -0.005238610405660829 -0.008173767721598488 -0.003387501045652719 -0.00796028504357188 -0.016258800549938116 -0.006763611225864337
          -0.0058461369947825255 -0.00008788582139393486 -0.012924503874405933 -0.00006302674838665201 -0.010910175575628612 -0.0001133425221034462
          -0.00015240714755577513 -0.000060680915400659376 -0.00015725826930814953 -0.008832196592966086 -0.017452010191710516 -0.008552499821729828
          -0.030208568046491184 -0.058948791370975404 -0.02845588021589825 -0.010876849964482745 -0.019943499797927085 -0.01050776778434026
          -0.01072779414745437 -0.018261405480801327 -0.008397403296605838 -0.008534139594840388 -0.017509381475449188 -0.009109393204441773
          -0.0012876388612590613 -0.002671500301344377 -0.002541823628606509 0.00977115510374334 0.020507039801474114 0.009369577251466116
          0.02560935719004699 0.051197141405343934 0.024920023521077354 0.033096613283462355 0.06518116631744958 0.030096934423513765
          0.0038358105970661208 0.008320060955785427 0.0034475850238959924 -0.003966231695174502 -0.003859248930008774 0.0016034612031771561
          -0.002265270677047508 -0.00433204997938607 -0.0032988761300947675 -0.0014674609058549296 -0.0012183982057851483 -0.0011763483791875778
          -0.0008335517856993199 -0.00006637702334838513 -0.0004508093777689376 -0.0013781702805131801 -0.001499448159621039 -0.0014480507735366577
          -0.0045467074656731915 -0.00588785144117716 -0.0029361095412604107 -0.004423648574213221 -0.015620981223470585 -0.004883642265596386
          -0.009610859696354557 -0.00012012255406789601 -0.02148026631824409 -0.0000810111632490243 -0.018043884668846134 -0.00009674176813768282
          -0.0001699667210614869 -0.00005978218607393738 -0.0001216959025133438 -0.0001543768936267259 -0.00001407471370402924 -0.00021710515927409607
          -0.014635653745920763 -0.025165616565434167 -0.010164200095844834 -0.0042705945976217 -0.0087329248303739 -0.008371481384648324
          0.034484910819055845 0.004711475898153208 -0.01901453657884947 -0.06546964330572526 -0.07272413124261333 -0.015822908721255753
          -0.009555452291843142 -0.015560245482330374 -0.006515612149121448 0.00910932429594282 0.017477657707274098 0.007570663904231063
          0.027174981716073788 0.05556155795313228 0.02741397656070311 0.03171028427530778 0.060694051135961886 0.026638849935437796
          0.0023925023606393495 0.00481384223502427 0.0017193844889113255 0.0021420171686230213 0.006608707492887861 0.0032430325563103657
          -0.002657239401358702 -0.005381783977635682 -0.004631365953757002 -0.0010303240339691912 -0.0012187068524952688 -0.0011527563898158372
          -0.00159118009361006 -0.002130610634767327 -0.0019643306639990366 -0.0018654272631957944 -0.001645343331334894 -0.0022134753520552386
          -0.004217921484281434 -0.003212615709092751 -0.0020860481164963335 0.004230946802385727 0.00644236979502711 0.015153364165642516
          -0.014137474555849676 -0.00018639650524712725 -0.03357010029136238 -0.00011292111877994615 -0.03131669774409044 -0.0000437051916781922
          -0.000168350156951734 0.00001575729400750056 -0.0001237028183838293 -0.00013258446750085556 -0.00005838507974322005 -0.00024305787004451698
          -0.00021524471493231112 -0.000013941830133073346 -0.0002829565404290947 -0.0028065395456084823 -0.0009481353147508288 -0.00036068662265931715
          0.012343907702634549 -0.00901988649235881 -0.01620518171304642 -0.05016002553052427 -0.07563169436235552 -0.02948015935216729
          -0.022885169163353265 -0.03187810600973564 -0.011405432409757114 0.006464182226010959 0.013475513379849341 0.006802749249209275
          0.029447240271351045 0.060627309317966116 0.030223714759718384 0.02563187869172101 0.04825053722649747 0.01977025935996811
          -0.005002185336699598 -0.0045939387868218565 -0.00044512990709635186 0.004040290857833334 0.003765586546494837 -0.0011800604416400962
          -0.0029447853040015792 -0.006957214877942028 -0.005592896763936345 -0.0009642704695140072 -0.0012741568031175016 -0.001065110326481225
          -0.001418307395055076 -0.0018782226633966004 -0.002141769503335153 -0.0014081716254308423 -0.0010383285194998024 -0.001989854332218405
          0.0028157041708649563 0.004216191558504637 -0.0021066579525164525 -0.02191521559454576 -0.007537195003075287 0.003772319071835284
          -0.026511720366636723 -0.0009477271225082073 -0.05697116044613548 -0.003333854504317349 -0.07318146078981688 -0.0068917617801332876
          -0.0022679302387598986 -0.009622975540091595 -0.016249465763315474 0.0029659038560093665 0.012224497262197057 0.02068961475310161
          -0.00033198329173482477 -0.00001083503830159871 -0.00028987093451423446 -0.00044518824236308707 -0.0000794939845420034 -0.00040370540215391507
          -0.00041641003022374785 -0.00033927357258136965 -0.001364684800500875 -0.010278738204331395 -0.03725716256718619 -0.03263642129787933
          -0.025001334087500486 -0.04373113346711456 -0.016311209682323406 -0.006355766244032751 -0.00023570445594829625 0.007201545923118953
          0.030784332441708216 0.06215861107390143 0.030949582065699525 0.017163745389577552 0.03288107246101913 0.013489202634754033
          -0.006459058826397426 -0.005231165183266037 -0.0012375600166195516 -0.0049678379739421935 -0.009942540745435782 -0.0077336098655887975
          -0.00277941781078149 -0.00503198297041188 -0.003594687404793656 -0.0018247350126420828 -0.002113180603075124 -0.0005970224759477283
          -0.002582057023852613 -0.0033631702644594808 -0.0025511438054640484 -0.0031010794115508764 -0.007635246243048573 -0.004116351667804538
          -0.006177953288819531 -0.003606582633519012 -0.00019748759387037962 -0.028986886913239418 -0.04385904257533824 -0.011054733560354774
          0.08939062776188987 0.019093561795733575 0.1725365895600546 -0.014422886138852356 0.05196500131646321 -0.015095443789707962
          0.012408036756269242 0.022641795290985815 0.007110772398192813 0.022571529667827224 0.0496729437726977 0.031977285057666734
          -0.0005153866005441245 -0.00019283733687755532 -0.0008253376024251911 -0.0007404664039783355 -0.00017952301290397737 -0.000910146497373171
          -0.0012780014317918253 -0.0011362192071203633 -0.0013891086355764734 -0.04234286155471646 -0.09057885124316077 -0.0533622326013418
          -0.00783824313217843 -0.012961223939755212 -0.002973118677374084 0.019762757506797443 0.05028849554845694 0.02947300850201813
          0.014656277317320887 0.03033791755675575 0.015695209440599323 -0.001931997191107676 0.00018464720327705797 0.006160077078116832
          -0.002301309523482037 0.004690574704631717 0.002967832845617413 -0.0014056298332321415 0.0032907620359780843 -0.002675783013197236
          0.0005884045225156842 0.0030160977665490973 0.001767737850127904 -0.0021821602245174487 -0.0032513477627097997 -0.0027976974915989716
          -0.00599047696260091 -0.008146288472066443 -0.0058475476320504205 -0.004749043804862851 -0.005487447841326709 -0.0025198197046643056
          -0.004132473884353893 0.002790418271214956 0.0025071432007685024 0.003951066824479543 -0.0000923655613526142 -0.007156219778106654
          0.04084443819261918 0.08540332823026264 0.04545925845847054 0.022880054123784133 0.01835707926607011 0.011512273815466378
          -0.033229462760259953 -0.09641960715522635 -0.08580663621382595 -0.11157368513628191 -0.050135720547956314 0.26091522568449477
          0.0051830886586113345 0.015379909154091792 0.013173355051457836 0.050957103653954686 0.10358514706024878 0.05117282257880161
          -0.0011450857324465172 -0.000717710477351842 -0.001387152106906847 -0.0012737322441172053 -0.0012833933271432368 -0.0012538163209057027
          -0.01267602506969764 -0.021311741554783523 -0.00977037280655996 -0.004993904535928295 -0.009795926461628301 -0.006300394978904
          -0.004675264495101028 -0.005238519792925778 -0.0040811867960044435 -0.000020461553961514944 0.0027457903282374074 -0.0011073412597125687
          0.0010094350339157065 0.00854689634771122 0.0006061256574689811 -0.004099454726813612 0.005521576403596629 -0.0022474389170494824
          -0.005233515235120723 -0.01014914115845611 -0.0073156080678505875 0.010705405260827638 0.039118568230563255 0.06413819489342731
          -0.0027687617663317288 0.0016098569614991232 0.0023072864660457215 -0.001607625869824214 0.01024039981755187 0.013388610063262751
          -0.004201171945883486 -0.0016897561783285608 -0.0007468152508994241 -0.015401994202189184 -0.03027915014178767 -0.050131406013380286
          -0.016589267742191882 -0.03196304505258691 -0.013108490634707412 -0.007691407058248695 -0.0036810550517319476 -0.015372230347225263
          -0.007232407240814226 -0.008077364282591398 -0.004374835290524922 -0.008572638565464696 -0.015579850295886155 -0.008064911372116387
          -0.009702313120048184 -0.015432364083018929 -0.008686367974478665 -0.015406656726516282 -0.0250235566925541 -0.012824766098836898
          -0.014121008676453523 -0.0367234860040761 -0.017862329056214543 -0.02191094571812216 -0.052073843340463166 -0.025097555281291595
          -0.024222708903992307 -0.011356607692697085 -0.01381569392226134 -0.04520161616723495 -0.11766020835765945 -0.03345750130084568
          -0.002544433390148093 0.0022381245470142197 0.03586947009779451 0.014005749133273349 0.012209555169267916 0.006194535830293946
          0.06689398338124786 -0.03222929878899383 0.030538046649150052 -0.006606497866413152 -0.19576892812591812 0.003823373153642673
          -0.292396280742963 0.011741784048879989 0.12465161413765924 -0.04568980853394351 -0.09322815604051812 -0.04711323666630407
          0.0020853093592440725 0.010042443247458177 0.00941412473559794 0.021155329724581062 0.045031021558835885 0.023105831950334776
          0.055699437733720866 0.11367009270635843 0.056989591766544216 0.03857271985204348 0.07363651225899132 0.031840438960391265
          -0.03157794848776087 -0.061159009537300746 -0.030311000660546976 0.007390053562282381 0.014607721633049858 0.004781908716403096
          0.012943724838728118 0.02731278827170537 0.012377424796244832 0.024928365257691897 0.04643633825702766 0.018621612634244472
          0.006435936828634227 0.011527677866042807 0.007505820700534446 -0.009166205363796615 -0.008833715459692887 0.002070097048234937
          -0.016496833748091855 -0.024644354000755417 -0.009715364776708452 0.0014753258693694926 0.0062578674046714355 -0.0042244297287058336
          -0.0009131629594452684 0.0014678764151794255 -0.002601829583950499 -0.0030105021559554968 -0.000869416127582609 -0.002364613727784848
          0.0033700999388479036 -0.003031365058141222 -0.0022692906791456496 -0.006178890023128658 -0.007154118031321155 -0.004655083848571495
          -0.007049428248393164 -0.011640356630849613 -0.009057414276361975 -0.008840559489487143 -0.013085454595723967 -0.008200007294050682
          -0.005397113351251925 -0.004421504195287168 -0.004362905129310257 -0.0007082919037164626 -0.003040152983011135 -0.001576202870010368
          -0.01353741341013287 -0.02327158284710018 -0.014877847323260085 -0.007178745295911726 -0.009561759305561579 -0.005447067998309685
          -0.0028625527948796248 -0.0040301450671111905 -0.002806903506942904 -0.0011376117142162245 0.004290734085530934 -0.012787001862860858
          -0.002474559843454127 -0.016593230751542898 -0.008317816370271514 -0.01682404422379763 -0.03318208486235988 -0.022862511191386437
          -0.0044680634111323725 -0.011936397729121473 -0.008788004823833129
        </DataArray>
        <DataArray type="Float64" Name="resid_z" format="ascii" RangeMin="0" RangeMax="0">
          0 0 0 0 0 0
          0 0 0 0 0 0
          0 0 0 0 0 0
          0 0 0 0 0 0
          0 0 0 0 0 0
          0 0 0 0 0 0
          0 0 0 0 0 0
          0 0 0 0 0 0
          0 0 0 0 0 0
          0 0 0 0 0 0
          0 0 0 0 0 0
          0 0 0 0 0 0
          0 0 0 0 0 0
          0 0 0 0 0 0
          0 0 0 0 0 0
          0 0 0 0 0 0
          0 0 0 0 0 0
          0 0 0 0 0 0
          0 0 0 0 0 0
          0 0 0 0 0 0
          0 0 0 0 0 0
          0 0 0 0 0 0
          0 0 0 0 0 0
          0 0 0 0 0 0
          0 0 0 0 0 0
          0 0 0 0 0 0
          0 0 0 0 0 0
          0 0 0 0 0 0
          0 0 0 0 0 0
          0 0 0 0 0 0
          0 0 0 0 0 0
          0 0 0 0 0 0
          0 0 0 0 0 0
          0 0 0 0 0 0
          0 0 0 0 0 0
          0 0 0 0 0 0
          0 0 0 0 0 0
          0 0 0 0 0 0
          0 0 0 0 0 0
          0 0 0 0 0 0
          0 0 0 0 0 0
          0 0 0 0 0 0
          0 0 0 0 0 0
          0 0 0 0 0 0
          0 0 0 0 0 0
          0 0 0 0 0 0
          0 0 0 0 0 0
          0 0 0 0 0 0
          0 0 0 0 0 0
          0 0 0 0 0 0
          0 0 0 0 0 0
          0 0 0 0 0 0
          0 0 0 0 0 0
          0 0 0 0 0 0
          0 0 0 0 0 0
          0 0 0 0 0 0
          0 0 0 0 0 0
          0 0 0 0 0 0
          0 0 0 0 0 0
          0 0 0 0 0 0
          0 0 0 0 0 0
          0 0 0 0 0 0
          0 0 0 0 0 0
          0 0 0 0 0 0
          0 0 0 0 0 0
          0 0 0 0 0 0
          0 0 0 0 0 0
          0 0 0 0 0 0
          0 0 0 0 0 0
          0 0 0 0 0 0
          0 0 0 0 0 0
          0 0 0 0 0 0
          0 0 0 0 0 0
          0 0 0 0 0 0
          0 0 0 0 0 0
          0 0 0 0 0 0
          0 0 0 0 0 0
          0 0 0 0 0 0
          0 0 0 0 0 0
          0 0 0 0 0 0
          0 0 0 0 0 0
          0 0 0 0 0 0
          0 0 0 0 0 0
          0 0 0 0 0 0
          0 0 0 0 0 0
          0 0 0 0 0 0
          0 0 0 0 0 0
          0 0 0 0 0 0
          0 0 0 0 0 0
          0 0 0 0 0 0
          0 0 0 0 0 0
          0 0 0 0 0 0
          0 0 0 0 0 0
          0 0 0 0 0 0
          0 0 0 0 0 0
          0 0 0 0 0 0
          0 0 0 0 0 0
          0 0 0 0 0 0
          0 0 0 0 0 0
          0 0 0 0 0 0
          0 0 0 0 0 0
          0 0 0 0 0 0
          0 0 0 0 0 0
          0 0 0 0 0 0
          0 0 0 0 0 0
          0 0 0 0 0 0
          0 0 0 0 0 0
          0 0 0 0 0 0
          0 0 0 0 0 0
          0 0 0 0 0 0
          0 0 0 0 0 0
          0 0 0 0 0 0
          0 0 0 0 0 0
          0 0 0 0 0 0
          0 0 0 0 0 0
          0 0 0 0 0 0
          0 0 0 0 0 0
          0 0 0 0 0 0
          0 0 0 0 0 0
          0 0 0 0 0 0
          0 0 0 0 0 0
          0 0 0 0 0 0
          0 0 0 0 0 0
          0 0 0 0 0 0
          0 0 0 0 0 0
          0 0 0 0 0 0
          0 0 0 0 0 0
          0 0 0 0 0 0
          0 0 0 0 0 0
          0 0 0 0 0 0
          0 0 0 0 0 0
          0 0 0
        </DataArray>
        <DataArray type="Float64" Name="stress_zz" format="ascii" RangeMin="-14956778.067450147" RangeMax="12143513.90036188">
          215181.64855408348 174922.50415407904 218114.22414963436 417.554056349094 279075.64202847995 232578.78984146856
          300941.02711468417 -299746.59028688166 342969.6355028764 290235.07552885805 383767.83007973386 -599910.7346301124
          182093.4323651357 -314731.9167668864 416980.0676282508 -1036436.5526694865 651866.702891366 -1758141.1885720864
          630894.4990281851 126708.22959772786 672813.6174019994 -321255.9714410693 714732.7357758136 -769220.1724798665
          3909549.4228103347 3490567.621670856 3613189.506294059 3357379.501075671 3316829.5897777835 3224191.380480486
          8908473.976999683 8819791.410263589 8701770.172398724 8705809.738604465 8495066.367797762 8591828.06694534
          11935199.595102815 12061047.409543078 11795791.87406424 11958108.871931836 11656384.15302567 11855170.334320597
          12073123.875143873 12143513.90036188 11930891.646833975 12037615.431978282 11788659.41852408 11931716.963594683
          10348702.103439838 10365163.218165316 10276323.72701549 10308710.383875454 10203945.350591142 10252257.549585592
          8233786.462114528 8185254.257812138 8218974.134292754 8183767.86401778 8204161.806470981 8182281.470223423
          5938763.595348374 5890932.725436866 5952427.879255252 5912925.179038197 5966092.16316213 5934917.632639527
          2781456.442829194 2779243.618344452 2805234.5297598615 2804611.2953635333 2829012.6166905286 2829978.9723826144
          576502.9776379814 740239.2488840371 567542.1980823141 688682.0842722582 558581.4185266467 637124.9196604795
          264132.34293191717 522704.7937805884 215576.9424517512 401374.2896046767 167021.5419715853 280043.78542876494
          262265.6216492468 309221.4278146993 225856.82078840444 261797.76950211814 189448.01992756204 214374.11118953698
          310519.47615638934 231929.11199148372 243244.2011139078 195901.77626337114 175968.92607142625 159874.44053525862
          407667.13074017706 354446.4843555982 244449.3292363683 218169.9167193281 81231.52773255957 81893.349083058
          460701.5520357443 369320.55498090375 156156.58144245629 103894.21814341586 -148388.38915083176 -161532.11869407207
          666191.9141165214 706496.4572197767 274907.17535747023 368100.98414520756 -116377.56340158092 29705.5110706384
          1347543.6298220216 1713818.71863092 1003342.1489828092 1375797.6158318815 659140.6681435965 1037776.513032843
          141548.74793758505 289331.8122823618 213713.39291727068 332621.1765816144 285878.0378969563 375910.5408808671
          340227.79195428506 454704.34759666224 569180.9032390395 920887.890042881 884430.0835282607 847972.2770136404
          4201523.41422944 3881976.0952802463 3562428.7763310536 8759331.514184497 8472558.560318936 8185785.606453375
          11528281.780979637 11270357.79449665 11012433.808013663 11784477.200461065 11556248.644913638 11328020.089366216
          10279503.404579636 10161630.514817633 10043757.62505563 8365247.541789531 8318035.724663435 8270823.907537336
          6067730.482717145 6060000.190019919 6052269.89732269 2798047.9474812625 2809310.860571454 2820573.773661645
          548190.6288039334 544370.3347211448 540550.0406383561 262794.40572291217 228401.4157497838 194008.42577665544
          346674.7189090149 281362.8084478756 216050.89798673632 464280.4000049537 327104.7581307897 189929.11625662565
          553872.6575058543 313107.53198153595 72342.40645721751 686062.6314650052 292517.9755173987 -101026.68043020793
          897015.2120995078 386979.0250074732 -123057.16208456138 1138757.1962460568 722994.9405391916 307232.68483232625
          159792.42994158046 -16889.77017068711 204924.79427028596 -145841.42077300037 250057.15859899146 -274793.07137531356
          -360226.14607697574 -732518.1725634912 -1104810.1990500067 509587.7692204607 281778.07204475894 53968.37486905721
          3892010.062485502 3864194.2128741117 3836378.3632627213 7978098.285346568 7792857.5091250185 7607616.732903469
          10562515.89626847 10205113.730346812 9847711.564425152 11102060.688393632 10791859.380663868 10481658.072934106
          10109378.378858896 9929768.523079565 9750158.667300232 8543209.748006476 8447420.392444814 8351631.036883148
          6238670.270499485 6191764.518868872 6144858.767238261 2825145.199987491 2802410.4933998343 2779675.786812178
          680026.9939878226 628340.4757298531 576653.9574718839 553418.1804454152 454249.27711997763 355080.3737945403
          567205.1668325531 433686.11905488884 300167.07127722446 651495.9435706448 429861.2968643966 208226.65015814826
          741130.928026538 401286.23015893594 61441.53229133386 824042.4010033485 350963.976315329 -122114.44837269034
          1074480.0579106268 481478.9364255571 -111522.18505951238 1133866.7635414575 636188.2233425763 138509.68314369512
          204449.8886035373 -107275.76770149192 197471.3258180256 -27867.648728551863 190492.7630325139 51540.470244388154
          -582904.1049821314 -442554.7551450301 -302205.4053079288 275717.9699988689 393666.92004973034 511615.8701005918
          3209185.858827198 3389513.890603219 3569841.9223792404 6372258.842540717 6443732.096447078 6515205.350353437
          8504774.02452188 8328917.92347075 8153061.822419621 9703555.46319102 9447367.327326542 9191179.191462066
          9736090.98654999 9512376.673864042 9288662.361178096 8682435.975013806 8519269.427753085 8356102.880492361
          6380572.066593146 6264759.198324698 6148946.33005625 2809062.26540927 2730260.2307782792 2651458.1961472877
          656129.543382437 585540.6082829101 514951.6731833834 621258.7667424895 508676.8003142015 396094.8338859136
          705742.6639252922 521124.0249048798 336505.38588446745 766675.4067341578 484708.0096624987 202740.61259083965
          736922.7435697439 362771.0783531189 -11380.586863506232 481318.615724602 71110.00752142874 -339098.60068174446
          202707.30740136866 -188061.20772694334 -578829.7228552552 -367580.9532714762 -526402.8729990546 -685224.792726633
          411235.10585990717 113881.35046140777 348439.466789379 91986.61781796845 285643.82771885087 70091.88517452916
          -290398.7998241007 -276080.19550995395 -261761.59119580724 409758.67535767565 409463.0460146739 409167.41667167225
          2570367.655527601 2591524.613251888 2612681.5709761744 4039515.952152033 4310452.659893962 4581389.36763589
          4826043.808449521 5386963.33574105 5947882.863032578 7114038.182471944 7368977.078884538 7623915.975297133
          8957685.206260756 8781668.538517741 8605651.87077473 8558318.548768088 8356791.581890958 8155264.6150138285
          6309834.939940524 6134160.317452775 5958485.6949650245 2628209.420147598 2500162.2503506243 2372115.08055365
          553109.7432413531 479374.96867904544 405640.19411673775 610296.1560336449 492607.6359053863 374919.1157771278
          626587.0485804167 446206.39150584163 265825.73443126667 455177.4854477935 263295.5306537192 71413.575859645
          5885.395762854765 -133389.1552966644 -272663.70635618357 -1013267.8232059277 -931498.1223640004 -849728.4215220733
          -2434848.8638349706 -1953413.4993610035 -1471978.134887036 -3701256.5228333725 -2749899.302821376 -1798542.0828093793
          1049458.9685350133 629151.8009542869 796374.4955733063 411479.07165735576 543290.0226115994 193806.34236042458
          83835.36587780897 -42757.337820388326 -169350.0415185856 542225.8030600843 387843.0840337827 233460.36500748113
          2063070.397542588 1750383.5390922984 1437696.6806420088 3023974.0754145067 2910118.763349315 2796263.451284123
          3077705.7629951583 3610932.6672483496 4144159.57150154 4915205.850616571 5473527.227794114 6031848.604971655
          7516898.491765622 7567109.072923149 7617319.654080676 7878034.122334487 7771028.436132474 7664022.749930462
          5753173.753432893 5608599.527411461 5464025.301390031 2143909.942605053 2047299.1226561235 1950688.3027071944
          281541.54252193973 270102.9245924766 258664.30666301335 277689.40893218445 253031.25032891025 228373.09172563592
          -33460.031817505514 5805.6695695081435 45071.370956521816 -806517.5479532955 -546621.1850429417 -286724.8221325879
          -2195242.322401436 -1539108.7146077657 -882975.1068140953 -4443609.547148924 -3119080.4561789446 -1794551.3652089653
          -7173099.825022347 -4989786.910036762 -2806473.9950511777 -8248047.6189898085 -5611881.50366764 -2975715.3883454693
          2652416.466180198 1671026.7704472914 1768778.1384320841 1146793.0859729634 885139.8106839706 622559.4014986355
          456794.9273302368 475284.8726354179 493774.81794059894 375754.17414082825 375434.59805908386 375115.0219773395
          1053690.2894902881 760501.4203318441 467312.5511733999 1676140.694196487 1417876.3195169233 1159611.9448373602
          1665634.8114127927 1896560.5127316713 2127486.21405055 3022510.3189276066 3622043.937503807 4221577.556080007
          5509646.2987443665 5991338.2300797505 6473030.161415134 6370731.235024406 6605756.622510405 6840782.009996404
          4420445.466059007 4472967.247940447 4525489.029821889 1173843.5137568412 1237968.545508042 1302093.5772592425
          -299004.8661965399 -159822.02368003147 -20639.181163523026 -636007.1993033364 -395086.21908986015 -154165.23887638387
          -1593354.4694663356 -1045130.5412153271 -496906.6129643187 -3364072.520652167 -2274155.9231034527 -1184239.3255547388
          -6055354.2729104515 -4178361.1512858686 -2301368.0296612857 -9294523.7992915 -6448705.340359958 -3602886.8814284145
          -12526168.734136326 -8712234.840515612 -4898300.946894895 -12517783.168874692 -8546984.506658293 -4576185.844441896
          4822336.543535891 2834752.487257612 4802988.427959357 2826305.076185145 4783640.312382824 2817857.665112678
          579120.9334326248 780284.3711205674 981447.80880851 179331.09764768553 383350.65054966335 587370.2034516411
          229334.9030589648 177734.86857623485 126134.83409350489 108403.55175909256 83159.1643219975 57914.776884902414
          -93980.25818446832 120091.84240896507 334163.9430023984 1760179.1306708567 2168585.486544903 2576991.842418949
          4387062.552794019 4799299.293986752 5211536.035179485 4755472.762297571 4988343.255362434 5221213.748427299
          2432163.0951063246 2492345.3148820633 2552527.534657802 -133041.91666869656 -103441.65663307926 -73841.39659746189
          -1034837.8199701903 -1030935.3402991671 -1027032.8606281441 -1793452.1778490362 -1692008.2247435905 -1590564.271638145
          -3426873.6610833504 -3020142.7299489845 -2613411.7988146185 -5972585.003457202 -5200188.710327999 -4427792.417198798
          -9074284.099704575 -7999589.0994114615 -6924894.099118348 -11722633.024140643 -10546726.947541958 -9370820.870943269
          -13115502.504643796 -12165903.455306763 -11216304.40596973 -14936057.645177219 -13742855.361287786 -12549653.077398354
          -5052663.949897853 -2358763.1936606597 -4563215.141121819 -1916571.4144663578 -4073766.3323457846 -1474379.6352720563
          593489.5853604801 892067.6128004822 1190645.6402404844 232482.71205120313 353755.70119660953 475028.69034201594
          -335642.4359741625 -277269.3555159802 -218896.27505779796 -232057.15307848778 -207121.9993415508 -182186.84560461386
          41923.70548151762 18050.450775073365 -5822.803931370887 1347392.7910120022 1411751.6101145754 1476110.4292171483
          2658909.0389171024 2769991.2702387543 2881073.501560406 2002537.525130305 1966485.3253433998 1930433.125556495
          22892.616794625006 -97622.62109611448 -218137.85898685394 -1384489.90677409 -1508615.5558297148 -1632741.2048853398
          -1948654.4357369137 -2181262.7909651883 -2413871.146193463 -2988154.9054667596 -3268884.2204385726 -3549613.535410386
          -4908568.746804092 -5145885.386544515 -5383202.026284937 -7195366.240175672 -7510410.68476813 -7825455.12936059
          -9169965.531510178 -9825719.613788858 -10481473.696067542 -10130651.89089241 -11436723.970438 -12742796.049983589
          -9490209.126255572 -11788549.510693787 -14086889.895132003 -9681800.979944713 -12319289.523697432 -14956778.067450147
          -7816418.897497517 -10518253.781929351 -13220088.666361185 -855800.2321104018 -4882828.074374283 -8909855.916638164
          4798207.135710541 7198239.20974836 4903078.17947476 6831358.379513135 5007949.223238979 6464477.54927791
          2490920.6043890743 2732341.399461655 2973762.1945342347 1924241.2408596561 1813578.555212413 1702915.8695651698
          1161141.4716570685 1090973.614040139 1020805.7564232096 826024.8950414337 789138.5939836175 752252.2929258011
          394508.50638133433 327456.19655560824 260403.88672988224 -6457929.848871286 -6490871.222201772 -6523812.595532257
          -6569918.600368909 -6660299.23964799 -6750679.87892707 -6003906.373906067 -6188224.675761076 -6372542.977616086
          -4720351.739276662 -5016429.129319014 -5312506.519361366 -1911337.9357136432 -2534059.3885355126 -3156780.8413573825
          2818143.748013312 3754904.907969407 4691666.067925502 1212339.10816078 274445.0591819366 -663448.9897969072
          3748330.538427441 4956634.958266451 6164939.378105462 2320540.7717828904 1602668.5684502528 884796.3651176151
          4583722.310499143 5905634.532516908 7227546.754534671 2409887.2120465813 2162761.4232764984 1915635.6345064163
          5031710.717292283 6340344.556168283 7648978.395044286 2276343.852893328 2791764.6238766294 1843779.8188339192
          2252326.087540636 1411215.7847745104 1712887.5512046418 1382555.314893715 1122587.130131268 862618.9453688207
          512432.3485158164 426789.11395182833 341145.8793878402 -1185514.414414668 -774352.9742953562 -363191.5341760442
          -3777399.246697387 -2315787.6726373765 -854176.0985773657 -7203707.314290946 -4223186.434456192 -1242665.5546214364
          -10287712.636163715 -6307736.804014518 -2327760.9718653196 -14156357.911487192 -12622069.56585586 -11087781.220224531
          -7084937.674714305 -7108722.026136855 -7132506.377559405 2959906.921883547 -645674.1886087155 -1718721.204596941
          -2734580.026357214 -6397349.331077429 -4823485.864105712 5842941.187942989 7810918.391018314 5894834.583255881
          7524974.932422541 5946727.9785687765 7239031.47382677 4254889.750928393 4357431.955830585 4459974.160732778
          4332316.61985792 4182867.0377736827 4033417.4556894433 3567777.637778338 3454913.586958241 3342049.536138144
          1929719.1698909388 1800267.029480176 1670814.889069413 -134701.91381448146 -215753.45934585202 -296805.00487722276
          134167.69532201288 136225.746208979 138283.79709594516 -1187209.4275121882 -1204540.402623154 -1221871.37773412
          -104593.05565699603 -47762.12194375601 9068.811769484193 -808882.4507042754 -824349.4106768826 -839816.3706494899
          -1746208.0761034742 -1763174.5003997937 -1780140.924696113 -2591937.2454834604 -2559380.8155438243 -2526824.3856041883
          -3505839.72095719 -3490208.615065535 -3474577.5091738794 -4636216.369980665 -4622474.173633705 -4608731.977286746
          -5758979.217497788 -5756571.52293149 -5754163.828365194 -3320458.601198262 -4223891.157513251 -3096472.596263567
          -4010483.743261137 -2872486.591328872 -3797076.3290090235 -1898530.543496731 -1612415.9329629904 -1326301.3224292498
          -254247.51497384696 155351.34482719493 564950.2046282366 1453921.7119883662 2083741.537995873 2713561.36400338
          6187431.546593847 5251874.8279265035 5997263.305994468 5044996.512009539 5807095.065395091 4838118.196092574
          6708492.102541878 6547616.3813746935 6386740.660207508 6976940.60772567 6827499.762483305 6678058.91724094
          6784645.6132288035 6630958.0875041215 6477270.561779439 2982481.181122551 3371966.280494479 2993420.8378680157
          -373626.86266949936 3004360.4946134803 -4119220.0058334777 4911625.346882803 6087399.117298782 7263172.887714761
          5784689.384621937 5651481.93358675 5518274.482551563
        </DataArray>
        <DataArray type="Float64" Name="peeq" format="ascii" RangeMin="0" RangeMax="0.010093927503492745">
          0 0 0 0 0 0
          0.000003967627975064111 0 0 0 0.000007935255950128223 0
          0 0 0.000010302388907044012 0 0.000020604777814088024 0
          0 0 0.000006334760931979901 0 0.000012669521863959802 0
          0 0 0 0 0 0
          0 0 0 0 0 0
          0 0 0 0 0 0
          0 0 0 0 0 0
          0 0 0 0 0 0
          0 0 5.115861067272581e-8 1.0231722134545162e-7 1.0231722134545162e-7 2.0463444269090325e-7
          3.2589546291921445e-8 6.517909258384289e-8 6.745338381868654e-8 1.3490676763737308e-7 1.0231722134545162e-7 2.0463444269090325e-7
          0.0000030101153009144477 0.0000028133547167956524 0.0000030156303839707694 0.0000027969745639483375 0.00000302114546702709 0.0000027805944111010225
          0.000043404373924329115 0.0000434248983697211 0.000043599776168556165 0.00004347583605494779 0.00004379517841278323 0.00004352677374017449
          0.00014249035270663904 0.00014344062760311176 0.00014232108748467155 0.00014301693904984135 0.00014215182226270405 0.00014259325049657096
          0.00027587754900883856 0.000277670419908128 0.0002744742871725597 0.0002760399496535888 0.0002730710253362808 0.0002744094793990495
          0.00041351338095618913 0.00041683796487114195 0.0004111052609066425 0.0004140361939755392 0.0004086971408570959 0.00041123442307993644
          0.0005236682574132609 0.0005289228712650996 0.0005212218831086942 0.0005257296119528889 0.0005187755088041276 0.0005225363526406783
          0.0005744772546876684 0.0005796815842445393 0.0005740037879154575 0.0005781035214729986 0.0005735303211432464 0.0005765254587014579
          0.0005432323062753191 0.0005440343281120158 0.0005481545034696396 0.00054799479012136 0.00055307670066396 0.0005519552521307044
          0.00044820802084708373 0.0004408551774335905 0.0004623714231034694 0.0004539545335105541 0.00047653482535985514 0.00046705388958751784
          0 0 0 0.000003967627975064111 0 0.000007935255950128223
          0 0.000010302388907044012 0.000020604777814088024 0 0.000006334760931979901 0.000012669521863959802
          0 0 0 0 0 0
          0 0 0 0 0 0
          0 0 0 0 0 0
          0 0 0 0.000003679408571671376 0.000003715592743156903 0.0000037517769146424306
          0.00004550905334717134 0.000045609413368715305 0.00004570977339025928 0.0001432646110428767 0.00014300254546022168 0.00014274047987756664
          0.00027158634938516087 0.0002706009406999078 0.00026961553201465473 0.00040347789313970554 0.00040226582501247946 0.0004010537568852533
          0.0005087793427387521 0.000508592603553185 0.0005084058643676177 0.0005600770521054237 0.0005632465809008483 0.0005664161096962727
          0.0005430010177528474 0.0005524783308305435 0.0005619556439082399 0.00047517119886557514 0.0004950814502192304 0.0005149917015728857
          0 0 0 0 0 0
          0 0 0 0 0 0
          0 0 0 0 0 0
          0 0 0 0 0 0
          0 0 0 0 0 0
          0 0 0 0.000004832147525375146 0.0000048969902948122966 0.000004961833064249446
          0.000049460087637078805 0.00004936023265565942 0.00004926037767424005 0.00014535053076105006 0.00014496614015062774 0.0001445817495402054
          0.00026479966268905003 0.00026474080551417215 0.00026468194833929426 0.00038735156096149316 0.0003884921196849452 0.0003896326784083974
          0.00048659530475142834 0.0004907319794493611 0.000494868654147294 0.0005407157963405107 0.0005508366067105299 0.0005609574170805492
          0.0005475575875729669 0.000567035760602526 0.0005865139336320849 0.0005291774620872504 0.000562129357367332 0.0005950812526474137
          0 0 0 0 0 0
          0 0 0 0 0 0
          0 0 0 0 0 0
          0 0 0 0 0 0
          0 0 0 1.224035315115515e-7 6.120176575577575e-8 0
          1.224035315115515e-7 6.120176575577575e-8 0 0.000006302312782688969 0.000006427037710082138 0.000006551762637475307
          0.00005299817598519167 0.000053234678226476254 0.000053471180467760836 0.00014541384081175973 0.00014613688980461294 0.00014685993879746614
          0.0002551661485550292 0.000257481526719306 0.0002597969048835828 0.00036717998098167195 0.00037257683599551175 0.0003779736910093514
          0.00046171834436906415 0.0004729981643668445 0.0004842779843646248 0.0005255493273541936 0.0005465192703262065 0.0005674892132982195
          0.0005682651379360418 0.0006026501339358605 0.0006370351299356791 0.0006229122126634626 0.0006742532625605799 0.0007255943124576973
          0 0 0 0 0 0
          0 0 0 0 0 0
          0 0 0 0 0 0
          0 0 0 0 0 0
          0 0 0 1.224035315115515e-7 6.120176575577575e-8 0
          1.224035315115515e-7 6.120176575577575e-8 0 0.000007944403926146112 0.000008404143108364778 0.00000886388229058344
          0.000056392689981049304 0.00005779045732778884 0.000059188224674528375 0.00014497098901056872 0.00014807622834397553 0.00015118146767738243
          0.00024534537377485737 0.00025154317899529045 0.0002577409842157235 0.0003480511588213029 0.0003594877852710937 0.00037092441172088456
          0.00044384094481111013 0.0004642621009589301 0.0004846832571067501 0.0005314777036733578 0.00056529248823637 0.0005991072727993823
          0.0006307040127709889 0.0006811389392254148 0.0007315738656798408 0.0007901071169687644 0.0008579913435098597 0.0009258755700509553
          0 0 0 0 0 0
          0 0 0 0 0 0
          0 0 0 0.0000012996033748125235 6.498016874062618e-7 0
          0.000002304885326823069 0.0000011524426634115346 0 0.0000010052819520105457 5.026409760052728e-7 0
          0 0 0 0 0 0
          0 0 0 0.000010869124512270766 0.000012153255719849484 0.000013437386927428201
          0.00006185446133219508 0.00006522480729771484 0.00006859515326323457 0.00014723917118914095 0.0001530315927863992 0.00015882401438365747
          0.00024108204239130915 0.00025095297942993264 0.0002608239164685562 0.00034053735866165563 0.0003571286938307984 0.0003737200289999412
          0.0004508982132260867 0.0004777574371733391 0.0005046166611205915 0.0005869061243026338 0.0006272582598968238 0.0006676103954910138
          0.0007776420965351016 0.00083295191420667 0.0008882617318782385 0.0010837484133686395 0.0011507428564173877 0.0012177372994661357
          0 0 0 0 0 0
          0 0 0 0 0 0
          0 0 0 0.0000012996033748125235 6.498016874062618e-7 0
          0.000002304885326823069 0.0000011524426634115346 0 0.0000010052819520105457 5.026409760052728e-7 0
          0 0 0 0 0 0
          0 0 0 0.000016965182969497834 0.00001874082822030703 0.000020516473471116227
          0.0000739064043610192 0.00007822970764445108 0.00008255301092788295 0.00015827879357995222 0.0001646845713590056 0.000171090349138059
          0.00025170629137390334 0.0002616060997948753 0.0002715059082158472 0.00036126024392997525 0.0003764845099905591 0.00039170877605114294
          0.0005097098479710654 0.0005310217691644628 0.0005523336903578603 0.0007313154932453143 0.000757385270367718 0.0007834550474901214
          0.0010647083112775469 0.0010932193321889576 0.0011217303531003684 0.0015647655234182888 0.0015897954534315566 0.001614825383444824
          0.0000011930907955286568 5.965453977643284e-7 5.965453977643284e-7 2.982726988821642e-7 0 0
          0 0 0 0 0 0
          9.126522856915897e-7 4.5632614284579484e-7 0 0.0000020703497562169963 0.0000010351748781084981 0
          0.0000011576974705254064 5.788487352627032e-7 0 0 0 0
          0 0 0 0 0 0
          0.000001095361720154501 0.0000012328372034063105 0.00000137031268665812 0.00002791277505726436 0.000029454276092874375 0.00003099577712848438
          0.00009539445005955756 0.00009888586501605111 0.00010237727997254467 0.00018387629134314462 0.00018893039954707907 0.00019398450775101348
          0.0002869748593973364 0.0002941587898605 0.00030134272032366363 0.00042637618934529586 0.0004354275810395723 0.00044447897273384876
          0.0006433195850515825 0.0006514349330367959 0.0006595502810220093 0.0009902185452664392 0.0009918772876737537 0.0009935360300810678
          0.0015175861120932696 0.0015070463186458364 0.0014965065251984033 0.0022453175047853166 0.002221229742894028 0.0021971419810027392
          0.0000025190944775232626 0.0000012595472387616313 0.0000020938044192698836 0.000001076842543967067 0.0000016685143610165037 8.941378491725023e-7
          0 2.9940334332125234e-8 5.988066866425047e-8 0 0 0
          9.865488684684723e-7 4.932744342342362e-7 0 0.0000021442463389938787 0.0000010721231694969394 0
          0.0000011576974705254064 5.788487352627032e-7 0 0 0 0
          0 0 0 0.0000034965289638778747 0.000003761011728503721 0.000004025494493129567
          0.000022223497583217414 0.00002309690658723877 0.000023970315591260128 0.00007279659296263597 0.0000747392828237908 0.00007668197268494564
          0.00015738370795395737 0.00016086345764515102 0.00016434320733634463 0.0002672385934848531 0.0002722766892767222 0.00027731478506859127
          0.0004104497828297274 0.0004168522282589733 0.0004232546736882192 0.0006219779714505352 0.0006283471283943885 0.0006347162853382419
          0.0009531062074621654 0.0009560186552159137 0.000958931102969662 0.0014604557623019887 0.0014548094325114826 0.0014491631027209765
          0.002194724880348625 0.0021747725516675924 0.0021548202229865598 0.003162829358270759 0.0031279295216517077 0.003093029685032655
          0.004393898371612011 0.004340265262622295 0.0042866321536325774 0.005901097756470358 0.005818404539220132 0.005735711321969908
          0.0001121598521418922 0.00021151476877128764 0.00012010148614113982 0.00022896673604226757 0.00012804312014038743 0.0002464187033132475
          0.00000640246775624838 0.0000056181181200060225 0.000004833768483763665 0 0 0
          7.389658277688268e-8 3.694829138844134e-8 0 7.389658277688268e-8 3.694829138844134e-8 0
          0 0 0 0.0011290008829127369 0.0011366129872980946 0.0011442250916834525
          0.0016313909222308224 0.0016366052849484266 0.0016418196476660307 0.0023194111032413677 0.002319715289863993 0.002320019476486619
          0.0032201219916740296 0.0032124212734103196 0.0032047205551466095 0.004338834379168344 0.004319731552115257 0.004300628725062171
          0.005637921017707298 0.005633904498906467 0.005629887980105636 0.005636969683343585 0.005606107455436434 0.005575245227529282
          0.006817061737424962 0.006811031613590518 0.006805001489756076 0.007043638152262194 0.007003477910043165 0.0069633176678241355
          0.008000678984053 0.007994241616137576 0.007987804248222152 0.008473605369494808 0.00842731102622304 0.00838101668295127
          0.009121613822771903 0.00911568723685204 0.009109760650932178 0.0003560731346930279 0.00033760291699491717 0.0003840525363189201
          0.00036321118985810054 0.0004120319379448124 0.00038881946272128386 0.0004187797344018434 0.00045489861055081446 0.0004910174866997856
          0.0005416222051759417 0.0005930374115791636 0.0006444526179823854 0.000747361129652666 0.0008187851175628605 0.0008902091054730552
          0.001075188717829978 0.0011600938069736767 0.0012449988961173758 0.0015747987088662277 0.0016471374163037778 0.0017194761237413281
          0.0022996968613311656 0.002310161447600395 0.002320626033869625 0.0032459816593596803 0.003199032554033096 0.0031520834487065116
          0.004603726660126044 0.0045203665207686405 0.004437006381411237 0.007538511821236291 0.006231956110424324 0.007432654856779098
          0.0061174148319471195 0.007326797892321904 0.006002873553469916 0.00012239198037573623 0.00022355156029207475 0.00013102170112194603
          0.0002435824065637346 0.0001396514218681558 0.0002636132528353945 0.00001061620022969886 0.000009230497840078704 0.000007844795450458546
          0 0 0 0 0 0
          0 0 0 0.000010395145961022079 0.000011131816138956962 0.000011868486316891848
          0.000004040291724829262 0.000004522064276729233 0.000005003836828629204 0.00005117026222748742 0.00005319056964353552 0.00005521087705958361
          0.000023327239027828735 0.000024588099834329316 0.000025848960640829898 0.00006274645604175475 0.000064692527056599 0.00006663859807144326
          0.00012690247089305583 0.0001297642885374086 0.0001326261061817614 0.00022055738008445417 0.0002247234446650084 0.00022888950924556263
          0.00034740587055053196 0.0003532065881835518 0.00035900730581657166 0.0005236555001866472 0.0005309069194845749 0.0005381583387825027
          0.000773242241510008 0.0007813006260533554 0.0007893590105967028 0.002032208662334797 0.0014912690872286097 0.0020385463910991873
          0.0014988695084861077 0.002044884119863578 0.0015064699297436053 0.0027159350590979384 0.0027202068365210445 0.0027244786139441514
          0.0035508249245392565 0.0035524751129918713 0.003554125301444486 0.004532122626881029 0.004530908946252554 0.004529695265624077
          0.006823110791975923 0.005847079213099609 0.006817133547818521 0.0058411981000173465 0.00681115630366112 0.005835316986935085
          0.007784628643527276 0.007779514750821827 0.007774400858116378 0.008679049982923903 0.008675038005829834 0.008671026028735767
          0.00943673536748556 0.009434070175247966 0.009431404983010374 0.009820397080576028 0.009152570159606094 0.009774049917303414
          0.00904323683908731 0.009727702754030803 0.008933903518568525 0.010093927503492745 0.010088599707924785 0.010083271912356823
          0.009969356390726797 0.009968166904423731 0.009966977418120665
        </DataArray>
        <DataArray type="Float64" Name="pe11" format="ascii" RangeMin="0" RangeMax="0.010079948042794388">
          0 0 0 0 0 0
          0.000003957362037008351 0 0 0 0.000007914724074016701 0
          0 0 0.00001028412843334631 0 0.00002056825686669262 0
          0 0 0.00000632676639633796 0 0.00001265353279267592 0
          0 0 0 0 0 0
          0 0 0 0 0 0
          0 0 0 0 0 0
          0 0 0 0 0 0
          0 0 0 0 0 0
          0 0 5.115349993104185e-8 1.023069998620837e-7 1.023069998620837e-7 2.046139997241674e-7
          3.258568214052274e-8 6.517136428104548e-8 6.744634100130323e-8 1.3489268200260645e-7 1.023069998620837e-7 2.046139997241674e-7
          0.0000030099040804577054 0.000002813144800514522 0.0000030153932610490195 0.000002796743030930433 0.000003020882441640333 0.000002780341261346344
          0.000043402400416202666 0.000043423038543518726 0.00004359762589072867 0.00004347379987352694 0.00004379285136525466 0.00004352456120353514
          0.00014248160998246975 0.00014343338820194996 0.00014231261635471918 0.00014300991499583681 0.00014214362272696863 0.00014258644178972367
          0.0002758491380085939 0.0002776471214474001 0.0002744448470313457 0.00027601560154296285 0.00027304055605409746 0.0002743840816385256
          0.00041343445521862675 0.0004167672092737063 0.0004110203611015914 0.0004139589910690844 0.00040860626698455593 0.0004111507728644625
          0.0005234941637506013 0.0005287601082957446 0.000521035000101401 0.000525551576651464 0.0005185758364522008 0.0005223430450071834
          0.000574181811722954 0.0005793985665463505 0.000573696979102362 0.0005778036977910286 0.0005732121464817699 0.0005762088290357068
          0.0005428597189361372 0.0005436697644187099 0.0005477949354791152 0.0005476341948574895 0.000552730152022093 0.0005515986252962693
          0.0004478572040925124 0.00044051760283112635 0.0004620768192826396 0.00045366068831441874 0.000476296434472767 0.00046680377379771103
          0 0 0 0.000003957362037008351 0 0.000007914724074016701
          0 0.00001028412843334631 0.00002056825686669262 0 0.00000632676639633796 0.00001265353279267592
          0 0 0 0 0 0
          0 0 0 0 0 0
          0 0 0 0 0 0
          0 0 0 0.000003679181217830579 0.000003715332576573518 0.0000037514839353164564
          0.00004550635816977041 0.00004560662757131201 0.00004570689697285362 0.00014325106334866938 0.00014298953259647376 0.0001427280018442781
          0.00027154324106204637 0.0002705575460035703 0.0002695718509450942 0.0004033728335088901 0.0004021574243187277 0.0004009420151285654
          0.0005085704724851663 0.0005083787894332356 0.0005081871063813048 0.0005597488650518961 0.0005629232247084528 0.0005660975843650094
          0.0005426070827369761 0.0005521232778680908 0.0005616394729992055 0.0004747718820128986 0.0004947724294601863 0.0005147729769074738
          0 0 0 0 0 0
          0 0 0 0 0 0
          0 0 0 0 0 0
          0 0 0 0 0 0
          0 0 0 0 0 0
          0 0 0 0.000004831893904748559 0.000004896696174793777 0.000004961498444838995
          0.00004945597363943428 0.00004935618103059951 0.00004925638842176473 0.00014532942503349465 0.0001449458326387703 0.00014456224024404595
          0.0002647344132576375 0.0002646768658859234 0.00026461931851420927 0.0003872062807630044 0.00038834810016304176 0.0003894899195630792
          0.00048633796767943516 0.0004904806812131973 0.0004946233947469595 0.0005403529943290844 0.000550500904444224 0.0005606488145593637
          0.0005471442353731882 0.0005666934322708646 0.0005862426291685409 0.0005286666319378145 0.0005617351255715969 0.0005948036192053792
          0 0 0 0 0 0
          0 0 0 0 0 0
          0 0 0 0 0 0
          0 0 0 0 0 0
          0 0 0 1.222984466848035e-7 6.114922334240176e-8 0
          1.222984466848035e-7 6.114922334240176e-8 0 0.000006302041223850602 0.000006426719256317168 0.000006551397288783735
          0.00005299215449094072 0.000053228800987435314 0.000053465447483929906 0.0001453832109002731 0.00014610640159302306 0.00014682959228577304
          0.0002550764907741119 0.00025739250664985017 0.00025970852252558843 0.00036699565272301513 0.0003723941016362609 0.0003777925505495067
          0.00046142588316659054 0.00047271469018547924 0.00048400349720436795 0.0005251861877777657 0.0005461888625507825 0.0005671915373237995
          0.0005678553010710736 0.0006023016458891641 0.0006367479907072547 0.0006220925115469553 0.0006734708894700066 0.0007248492673930576
          0 0 0 0 0 0
          0 0 0 0 0 0
          0 0 0 0 0 0
          0 0 0 0 0 0
          0 0 0 1.222984466848035e-7 6.114922334240176e-8 0
          1.222984466848035e-7 6.114922334240176e-8 0 0.000007944111055276458 0.000008403768254634282 0.000008863425453992105
          0.000056384256402153376 0.00005778204884475136 0.00005917984128734934 0.0001449295753032841 0.00014803430396666525 0.0001511390326300464
          0.00024523541543237823 0.00025143042293998357 0.0002576254304475889 0.00034784807512494673 0.0003592751556523614 0.000370702236179776
          0.0004435634888598301 0.0004639662246560377 0.0004843689604522454 0.0005311846247937776 0.0005649700434897036 0.0005987554621856297
          0.0006302404638281598 0.0006805957614001937 0.0007309510589722278 0.0007882044518773215 0.0008558453749994673 0.0009234862981216132
          0 0 0 0 0 0
          0 0 0 0 0 0
          0 0 0 0.000001299157942024354 6.49578971012177e-7 0
          0.0000023042183653738273 0.0000011521091826869137 0 0.0000010050604233494733 5.025302116747367e-7 0
          0 0 0 0 0 0
          0 0 0 0.000010868541829319152 0.000012152479271792246 0.000013436416714265337
          0.00006184349157583409 0.00006521327794587235 0.0000685830643159106 0.0001471894290776178 0.00015297958218444795 0.00015876973529127812
          0.00024096431779333416 0.0002508233998378966 0.0002606824818824591 0.00034034986125545334 0.0003569022415199138 0.0003734546217843742
          0.0004506840689919409 0.0004774521953933527 0.0005042203217947644 0.0005866032881020054 0.000626784602520799 0.0006669659169395923
          0.0007763405235505197 0.000831372722553716 0.0008864049215569123 0.001078005044583773 0.0011446128349025218 0.0012112206252212706
          0 0 0 0 0 0
          0 0 0 0 0 0
          0 0 0 0.000001299157942024354 6.49578971012177e-7 0
          0.0000023042183653738273 0.0000011521091826869137 0 0.0000010050604233494733 5.025302116747367e-7 0
          0 0 0 0 0 0
          0 0 0 0.000016963516286215264 0.000018738860307606427 0.00002051420432899759
          0.00007389229586296696 0.00007821396230184509 0.00008253562874072326 0.00015822497158904486 0.00016462374257131295 0.000171022513553581
          0.00025158926503448555 0.0002614626266764443 0.00027133598831840296 0.0003610688678189923 0.0003762224904111757 0.00039137611300335914
          0.0005093277946330422 0.0005305063798829943 0.0005516849651329465 0.0007299002500008704 0.0007558364926083733 0.0007817727352158765
          0.0010591135274618413 0.0010877269791291658 0.00111634043079649 0.00154766141206624 0.0015734175277947527 0.0015991736435232654
          0.0000011897027165198198 5.948513582599099e-7 5.948513582599099e-7 2.9742567912995495e-7 0 0
          0 0 0 0 0 0
          9.120827740483338e-7 4.560413870241669e-7 0 0.0000020676618980687293 0.0000010338309490343646 0
          0.0000011555791240203954 5.777895620101977e-7 0 0 0 0
          0 0 0 0 0 0
          0.0000010953104397992994 0.0000012327555314254469 0.0000013702006230515945 0.000027909118034225 0.00002945000208886183 0.00003099088614349867
          0.00009537495393265144 0.00009886195276536382 0.00010234895159807622 0.00018381268442834123 0.00018884807737134303 0.00019388347031434492
          0.0002868195411952309 0.00029394288128656033 0.00030106622137788977 0.0004259610708803991 0.0004348484200989705 0.0004437357693175421
          0.0006418571371225417 0.0006496050278696429 0.0006573529186167442 0.000984868902556115 0.0009858777101688814 0.0009868865177816476
          0.001501235436313631 0.00148975000307191 0.0014782645698301893 0.0022063733975445895 0.0021809884874991357 0.002155603577453682
          0.0000025138919741212664 0.0000012569459870606332 0.0000020897607457620587 0.0000010747695587215844 0.0000016656295174028508 8.925931303825353e-7
          0 2.9889185840554945e-8 5.977837168110989e-8 0 0 0
          9.85967178298322e-7 4.92983589149161e-7 0 0.0000021415463023187175 0.0000010707731511593588 0
          0.0000011555791240203954 5.777895620101977e-7 0 0 0 0
          0 0 0 0.0000034962212435190577 0.000003760581668323232 0.000004024942093127407
          0.000022220340668528215 0.000023092974173798035 0.00002396560767906785 0.00007278229389594683 0.0000747216855142355 0.00007666107713252417
          0.0001573356194632785 0.00016080336502154101 0.0001642711105798035 0.0002670935823375029 0.0002720957047295451 0.0002770978271215873
          0.0004099934549013648 0.0004163034703726758 0.00042261348584398675 0.0006204875084754596 0.0006266420684012066 0.0006327966283269538
          0.0009484815123670862 0.0009509488580298519 0.0009534162036926175 0.0014477131675896665 0.001441243317361096 0.001434773467132526
          0.0021648832082826752 0.0021435199192718947 0.002122156630261114 0.0031050265231352143 0.0030677615842214486 0.003030496645307681
          0.0042992049008146 0.004242290402230817 0.0041853759036470355 0.005767652360569432 0.0056816563675840355 0.00559566037459864
          0.00011145592408827078 0.0002101257750502892 0.00011906521231266334 0.00022690743694419202 0.00012667450053705588 0.00024368909883809483
          0.000006393036563126187 0.000005611493840567332 0.0000048299511180084765 0 0 0
          7.388440424998817e-8 3.6942202124994084e-8 0 7.388440424998817e-8 3.6942202124994084e-8 0
          0 0 0 0.0011238613732102514 0.001131313775460842 0.0011387661777114324
          0.0016204319121644784 0.0016254044580539927 0.0016303770039435073 0.002298365384647803 0.002298337444099113 0.0022983095035504237
          0.0031840475517059914 0.0031759510755119185 0.0031678545993178457 0.004284335371455805 0.004264816390671487 0.004245297409887168
          0.005601116924197279 0.005596565009500687 0.005592013094804097 0.005565237496556734 0.005533940029878311 0.005502642563199888
          0.006780243827688757 0.006773660124774851 0.006767076421860946 0.006960713121533672 0.006920201168857092 0.006879689216180512
          0.007968810239083409 0.00796187864474455 0.00795494705040569 0.008389910811238622 0.008343404380463396 0.00829689794968817
          0.009098372743291982 0.009092075935026837 0.009085779126761694 0.0003557969871378098 0.00033738055281677627 0.0003838405877316009
          0.0003630434159970087 0.000411884188325392 0.00038870627917724117 0.0004182781078777434 0.00045447771245390534 0.0004906773170300673
          0.0005404604172007284 0.0005919138836178752 0.000643367350035022 0.0007443981395748749 0.000815621720235409 0.0008868453008959429
          0.0010676930696697211 0.001151964877229967 0.0012362366847902127 0.0015566289593842023 0.001628483172413936 0.0017003373854436702
          0.0022588982097488833 0.002271028712164703 0.0022831592145805225 0.0031697712048711743 0.003121457329422759 0.0030731434539743433
          0.004479557573048874 0.0043952385955964585 0.004310919618144044 0.007377899039322182 0.006063155146085592 0.007269329361930775
          0.005947817778932446 0.007160759684539368 0.005832480411779298 0.00012162932643638898 0.0002220551980852711 0.00012987628855680417
          0.0002413133894559708 0.00013812325067721936 0.00026057158082667053 0.000010601727393753443 0.000009219593828818774 0.000007837460263884105
          0 0 0 0 0 0
          0 0 0 0.000010392952833065473 0.000011129558325491366 0.000011866163817917259
          0.000004039930545852273 0.000004521617327925086 0.000005003304109997898 0.000051157073813097105 0.00005317687933722205 0.00005519668486134698
          0.00002332411300303523 0.000024584509269844063 0.000025844905536652893 0.0000627348164357409 0.00006467886032773575 0.00006662290421973061
          0.00012686603130400328 0.00012972172465274925 0.00013257741800149525 0.0002204521226914667 0.00022460348055449705 0.00022875483841752742
          0.0003471038038946805 0.00035287465822489634 0.00035864551255511206 0.0005228124045654136 0.0005300080627670945 0.0005372037209687753
          0.000771057730840696 0.0007790191533953901 0.0007869805759500838 0.0020206883358711188 0.001484621116076596 0.0020269222202222263
          0.0014921536910392124 0.002033156104573333 0.0014996862660018287 0.0026979109890949097 0.002702007955653837 0.0027061049222127645
          0.003525363101132889 0.0035267208833415897 0.00352807866555029 0.004499741899672422 0.00449809391450824 0.0044964459293440565
          0.006802976356680351 0.005824131986668156 0.00679657858121404 0.005817926288242063 0.006790180805747729 0.005811720589815971
          0.007769583613394111 0.007764014490790261 0.007758445368186412 0.00866971387230625 0.008665285629228664 0.008660857386151074
          0.009430723996303597 0.00942774950861841 0.009424775020933225 0.009749123743375403 0.008987450214594907 0.009702532995601702
          0.008875790641009197 0.009655942247828005 0.008764131067423485 0.010079948042794388 0.010074390170972045 0.010068832299149701
          0.009960057807924656 0.009958713453839464 0.009957369099754271
        </DataArray>
        <DataArray type="Float64" Name="pe22" format="ascii" RangeMin="-0.005203508315204784" RangeMax="0">
          0 0 0 0 0 0
          -0.000001781865203012755 0 0 0 -0.00000356373040602551 0
          0 0 -0.000004757702664681256 0 -0.000009515405329362511 0
          0 0 -0.0000029758374616685 0 -0.000005951674923337 0
          0 0 0 0 0 0
          0 0 0 0 0 0
          0 0 0 0 0 0
          0 0 0 0 0 0
          0 0 0 0 0 0
          0 0 -2.5131419126272723e-8 -5.026283825254545e-8 -5.026283825254545e-8 -1.005256765050909e-7
          -1.5859413581853586e-8 -3.171882716370717e-8 -3.306112591719951e-8 -6.612225183439903e-8 -5.026283825254545e-8 -1.005256765050909e-7
          -0.0000014751966354478264 -0.0000013777549146573313 -0.0000014762270253995933 -0.0000013682570952217037 -0.0000014772574153513603 -0.0000013587592757860762
          -0.00002153867074918298 -0.000021533362044867283 -0.000021608123026194498 -0.000021530746291962377 -0.000021677575303206017 -0.00002152813053905747
          -0.0000713312836999448 -0.00007175199928892458 -0.00007122182764004389 -0.00007152050662363923 -0.000071112371580143 -0.00007128901395835388
          -0.0001394956130035815 -0.0001403026747542804 -0.00013885990556764802 -0.00013958707643878677 -0.00013822419813171456 -0.00013887147812329312
          -0.00021163493236548266 -0.0002131476663172473 -0.00021062501365890654 -0.00021203232324413298 -0.00020961509495233044 -0.0002109169801710187
          -0.0002717979697155438 -0.0002742799193157188 -0.0002708955170312482 -0.00027313593698744215 -0.0002699930643469527 -0.0002719919546591655
          -0.00030204104385711614 -0.0003045458738843758 -0.000302026519033834 -0.00030415858620899813 -0.0003020119942105517 -0.00030377129853362045
          -0.00028825531755053953 -0.00028853407776755695 -0.00029038884273857395 -0.0002904630121862457 -0.0002925223679266084 -0.00029239194660493444
          -0.00023853680528697132 -0.00023471909051975704 -0.0002442656984381205 -0.00024027833366955799 -0.0002499945915892697 -0.00024583757681935893
          0 0 0 -0.000001781865203012755 0 -0.00000356373040602551
          0 -0.000004757702664681256 -0.000009515405329362511 0 -0.0000029758374616685 -0.000005951674923337
          0 0 0 0 0 0
          0 0 0 0 0 0
          0 0 0 0 0 0
          0 0 0 -0.0000018062588092904533 -0.0000018218625831032158 -0.0000018374663569159786
          -0.000022622258700771737 -0.000022647180064915654 -0.000022672101429059564 -0.00007185552183270408 -0.00007168721048889501 -0.00007151889914508596
          -0.00013758035087067778 -0.0001370824972329257 -0.0001365846435951736 -0.00020692544726575633 -0.00020633529502625433 -0.0002057451427867523
          -0.0002646684005326591 -0.0002645442478515034 -0.00026442009517034764 -0.0002951055434041778 -0.00029632290238134495 -0.00029754026135851214
          -0.0002884598747032264 -0.000291990505419029 -0.00029552113613483147 -0.0002522961902313508 -0.0002596754195392862 -0.0002670546488472215
          0 0 0 0 0 0
          0 0 0 0 0 0
          0 0 0 0 0 0
          0 0 0 0 0 0
          0 0 0 0 0 0
          0 0 0 -0.000002377692264169886 -0.0000024066853041267375 -0.0000024356783440835895
          -0.000024654838869175324 -0.000024580740478595763 -0.000024506642088016198 -0.00007311303139826753 -0.00007284908082924859 -0.00007258513026022964
          -0.0001344990121062454 -0.00013434960951773058 -0.0001342002069292158 -0.00019915826192645986 -0.00019948910338537666 -0.00019981994484429352
          -0.0002538536213284016 -0.0002552895648330833 -0.0002567255083377649 -0.00028562770725544 -0.00028921882084972765 -0.00029280993444401527
          -0.00029079680133684417 -0.0002976407083621698 -0.00030448461538749546 -0.0002786725722751816 -0.0002899947867880764 -0.00030131700130097116
          0 0 0 0 0 0
          0 0 0 0 0 0
          0 0 0 0 0 0
          0 0 0 0 0 0
          0 0 0 -5.684050745623799e-8 -2.8420253728118995e-8 0
          -5.684050745623799e-8 -2.8420253728118995e-8 0 -0.0000031111838070819015 -0.0000031687331161068508 -0.0000032262824251317996
          -0.000026530373063658818 -0.000026612321334278747 -0.00002669426960489867 -0.00007344380849176726 -0.00007364132212254898 -0.00007383883575333068
          -0.00013005804662388464 -0.00013084220474397957 -0.0001316263628640745 -0.00018933220699041828 -0.0001912805384453389 -0.0001932288699002595
          -0.0002413638212451109 -0.0002453989347300353 -0.00024943404821495973 -0.0002774565204928124 -0.0002847918598299674 -0.00029212719916712245
          -0.00029951827138440125 -0.00031105014854128604 -0.0003225820256981709 -0.0003209414126738694 -0.0003369113098213958 -0.0003528812069689223
          0 0 0 0 0 0
          0 0 0 0 0 0
          0 0 0 0 0 0
          0 0 0 0 0 0
          0 0 0 -5.684050745623799e-8 -2.8420253728118995e-8 0
          -5.684050745623799e-8 -2.8420253728118995e-8 0 -0.000003938384056194278 -0.000004161005026087131 -0.000004383625995979983
          -0.00002836511937230048 -0.0000289975641107482 -0.00002963000884919591 -0.00007352796088812895 -0.00007480364165213337 -0.00007607932241613776
          -0.00012538672560152736 -0.00012778967184972498 -0.00013019261809792257 -0.00017953907112810454 -0.0001838014068615513 -0.00018806374259499806
          -0.0002311264406575564 -0.000238492748643842 -0.0002458590566301275 -0.0002772578901667229 -0.0002888685725880108 -0.00030047925500929865
          -0.00032369969967565904 -0.0003396082849725656 -0.0003555168702694721 -0.0003882647450466233 -0.0004067725610928325 -0.0004252803771390417
          0 0 0 0 0 0
          0 0 0 0 0 0
          0 0 0 -6.287222360821329e-7 -3.1436111804106643e-7 0
          -0.0000011160820197324157 -5.580410098662079e-7 0 -4.87359783650283e-7 -2.436798918251415e-7 0
          0 0 0 0 0 0
          0 0 0 -0.0000054206268768843565 -0.000006049116393961236 -0.000006677605911038115
          -0.00003121580613910273 -0.0000327943230596203 -0.000034372839980137863 -0.00007478165620337902 -0.00007730178368975958 -0.00007982191117614016
          -0.00012290247985992272 -0.00012690216891780363 -0.0001309018579756845 -0.00017410685569531947 -0.00018044307328798215 -0.00018677929088064477
          -0.00023017668082956277 -0.00023986105065532112 -0.0002495454204810795 -0.000294875064475799 -0.0003082257073590743 -0.0003215763502423496
          -0.0003754716063582009 -0.0003916783950029619 -0.000407885183647723 -0.0004907119363334059 -0.0005067706345920096 -0.0005228293328506133
          0 0 0 0 0 0
          0 0 0 0 0 0
          0 0 0 -6.287222360821329e-7 -3.1436111804106643e-7 0
          -0.0000011160820197324157 -5.580410098662079e-7 0 -4.87359783650283e-7 -2.436798918251415e-7 0
          0 0 0 0 0 0
          0 0 0 -0.000008490122884923193 -0.000009354409053962617 -0.00001021869522300204
          -0.000037238077158944474 -0.00003927272752727423 -0.00004130737789560397 -0.00007989180594092891 -0.00008270557717273338 -0.00008551934840453785
          -0.00012653659465895482 -0.00013059751521472625 -0.0001346584357704977 -0.00017981410775472884 -0.00018571476444560091 -0.00019161542113647299
          -0.00024810686047354897 -0.0002557713593744851 -0.00026343585827542123 -0.00034090572546169773 -0.00034931236073502205 -0.00035771899600834636
          -0.0004653433345076081 -0.00047352162088945765 -0.0004816999072713073 -0.000634096336828977 -0.0006402192993768863 -0.0006463422619247954
          -5.350031987318656e-7 -2.675015993659328e-7 -2.675015993659328e-7 -1.337507996829664e-7 0 0
          0 0 0 0 0 0
          -4.403158678688265e-7 -2.2015793393441324e-7 0 -9.973097577586784e-7 -4.986548788793392e-7 0
          -5.569938898898518e-7 -2.784969449449259e-7 0 0 0 0
          0 0 0 0 0 0
          -5.398973306539526e-7 -6.062675802943865e-7 -6.726378299348202e-7 -0.000013926567478297988 -0.000014653126391510071 -0.000015379685304722156
          -0.00004768229296877426 -0.00004925258723662071 -0.00005082288150446716 -0.00009136740386042304 -0.00009344618911313386 -0.00009552497436584468
          -0.00014037668901427538 -0.0001430554999519918 -0.00014573431088970825 -0.00020282000674508194 -0.00020575283519453302 -0.00020868566364398407
          -0.00029192407881460474 -0.0002936617903044448 -0.0002953995017942849 -0.00041985418069522435 -0.00041836883421355676 -0.00041688348773188906
          -0.000594323065975722 -0.0005885774555889182 -0.0005828318452021145 -0.0008153949206510889 -0.0008069196933999958 -0.0007984444661489024
          -0.0000011771599947740512 -5.885799973870256e-7 -9.937980764351127e-7 -5.118606838969716e-7 -8.104361580961741e-7 -4.351413704069175e-7
          0 -1.4961645679415223e-8 -2.9923291358830446e-8 0 0 0
          -4.761913944325855e-7 -2.3809569721629275e-7 0 -0.0000010331852843224372 -5.165926421612187e-7 0
          -5.569938898898518e-7 -2.784969449449259e-7 0 0 0 0
          0 0 0 -0.0000017283645559328214 -0.0000018538322284172285 -0.0000019792999009016356
          -0.000011000230020175428 -0.000011396477467391092 -0.000011792724914606756 -0.00003599381407254765 -0.000036811864892035144 -0.00003762991571152262
          -0.00007730496846602458 -0.00007863879174177837 -0.00007997261501753215 -0.00012936156302729968 -0.00013100869569669326 -0.0001326558283660868
          -0.00019356116330659643 -0.00019513933377949554 -0.00019671750425239473 -0.0002818381528426621 -0.0002823465616987622 -0.0002828549705548623
          -0.0004095597250731711 -0.0004072275079115193 -0.0004048952907498676 -0.0005898576081898904 -0.0005829327393491379 -0.0005760078705083856
          -0.0008334176661805615 -0.000821119276531888 -0.0008088208868832148 -0.0011435023721453183 -0.0011279618067512006 -0.0011124212413570823
          -0.0015454210363663276 -0.0015289759987615937 -0.00151253096115686 -0.00207279320928866 -0.002055726225344399 -0.002038659241400138
          -0.00005202295451298638 -0.00009815427673913509 -0.00005348435448008049 -0.00010174527734181149 -0.000054945754447174584 -0.00010533627794448788
          -0.0000029458161434188375 -0.000002611715809174741 -0.0000022776154749306444 0 0 0
          -3.587552656375902e-8 -1.793776328187951e-8 0 -3.587552656375902e-8 -1.793776328187951e-8 0
          0 0 0 -0.0004990003688778817 -0.000498678414917954 -0.0004983564609580263
          -0.0006976527139638761 -0.0006951752291693361 -0.000692697744374796 -0.0009628682653093369 -0.0009579234841669905 -0.0009529787030246442
          -0.0013074715868511375 -0.001300423683757992 -0.0012933757806648464 -0.0017434752823508163 -0.0017351817181950101 -0.0017268881540392037
          -0.002497066042243033 -0.0024966477208342433 -0.002496229399425453 -0.002273027784578065 -0.002265544949027763 -0.002258062113477461
          -0.0030798460644932486 -0.0030818316802239142 -0.0030838172959545794 -0.002887316064858006 -0.0028832153810555757 -0.002879114697253145
          -0.003708329206446122 -0.0037133713855604824 -0.0037184135646748436 -0.0035725033035970523 -0.003572938614314736 -0.0035733739250324195
          -0.0043545060446703475 -0.004362966376653694 -0.004371426708637042 -0.0001875884717001621 -0.00017842961273757874 -0.0001983904170010562
          -0.0001885776225719643 -0.0002091923623019503 -0.00019872563240634985 -0.00021814727136035397 -0.00023112189083937816 -0.00024409651031840235
          -0.00027563136478082515 -0.0002920962415869011 -0.000308561118392977 -0.00036517074276238914 -0.0003845152672137764 -0.00040385979166516366
          -0.0004929365150205097 -0.0005112814113106169 -0.000529626307600724 -0.0006609083035871254 -0.0006731638865189742 -0.0006854194694508229
          -0.0008687342264685691 -0.0008698688292142613 -0.0008710034319599535 -0.0011139581672047188 -0.0011026063377273048 -0.0010912545082498908
          -0.001544020593072393 -0.0015285729458901047 -0.0015131252987078164 -0.0027104938367390535 -0.00211104720594499 -0.002695754474507272
          -0.002094888371266518 -0.0026810151122754903 -0.0020787295365880458 -0.00005693192743336729 -0.0001039653165907855 -0.000058517079957058934
          -0.00010834098631989508 -0.00006010223248075058 -0.00011271665604900465 -0.000004949269137974536 -0.000004346586797111397 -0.000003743904456248258
          0 0 0 0 0 0
          0 0 0 -0.000005185918996752944 -0.000005534036703109595 -0.000005882154409466246
          -0.0000020079745251417682 -0.0000022395604723186084 -0.000002471146419495448 -0.000025436003779929032 -0.000026336367377514525 -0.00002723673097510002
          -0.00001158478868058241 -0.000012168655083603425 -0.000012752521486624437 -0.00003104429913565705 -0.00003188744011442533 -0.000032730581093193597
          -0.00006236892301364914 -0.00006350346720061807 -0.00006463801138758701 -0.00010738778286158194 -0.00010886008334910183 -0.00011033238383662173
          -0.00016663686888031848 -0.00016840953904979797 -0.0001701822092192774 -0.0002458303566639999 -0.00024755137332117187 -0.0002492723899783438
          -0.0003530041145323741 -0.0003540862804471754 -0.0003551684463619766 -0.0008985043826640626 -0.0006703759831899628 -0.0008970482793091533
          -0.0006700473629967561 -0.000895592175954244 -0.0006697187428035494 -0.001187501097673496 -0.001185150521919657 -0.0011827999461658182
          -0.001546518230469216 -0.0015438958808922472 -0.0015412735313152784 -0.001982403939874206 -0.001980400920423591 -0.0019783979009729753
          -0.003203960928837663 -0.002694280130457868 -0.003205454628998001 -0.002694001488580973 -0.003206948329158339 -0.0026937228467040796
          -0.0037398948705487313 -0.0037434232247930627 -0.003746951579037394 -0.004277377585738941 -0.004282974011122433 -0.004288570436505925
          -0.004777032463161208 -0.0047849319376805765 -0.004792831412199945 -0.004299832920271748 -0.0034356518892809077 -0.004305383562484888
          -0.003427106044101306 -0.004310934204698028 -0.003418560198921703 -0.004973556866781624 -0.004985490592138504 -0.004997424317495383
          -0.00518259915338399 -0.005193053734294387 -0.005203508315204784
        </DataArray>
        <DataArray type="Float64" Name="pe33" format="ascii" RangeMin="-0.005551798325314001" RangeMax="0">
          0 0 0 0 0 0
          -0.0000021754968339955953 0 0 0 -0.000004350993667991191 0
          0 0 -0.000005526425768665057 0 -0.000011052851537330114 0
          0 0 -0.0000033509289346694615 0 -0.000006701857869338923 0
          0 0 0 0 0 0
          0 0 0 0 0 0
          0 0 0 0 0 0
          0 0 0 0 0 0
          0 0 0 0 0 0
          0 0 -2.6022080804769115e-8 -5.204416160953823e-8 -5.204416160953823e-8 -1.0408832321907646e-7
          -1.6726268558669156e-8 -3.345253711733831e-8 -3.4385215084103694e-8 -6.877043016820739e-8 -5.204416160953823e-8 -1.0408832321907646e-7
          -0.0000015347074450098786 -0.0000014353898858571898 -0.0000015391662356494257 -0.0000014284859357087286 -0.0000015436250262889728 -0.0000014215819855602675
          -0.000021863729667019687 -0.000021889676498651436 -0.000021989502864534165 -0.000021943053581564553 -0.00002211527606204864 -0.00002199643066447767
          -0.00007115032628252492 -0.00007168138891302534 -0.00007109078871467526 -0.00007148940837219757 -0.0000710312511468256 -0.00007129742783136978
          -0.00013635352500501242 -0.00013734444669311966 -0.00013558494146369765 -0.00013642852510417609 -0.00013481635792238287 -0.00013551260351523249
          -0.00020179952285314406 -0.00020361954295645897 -0.00020039534744268478 -0.00020192666782495138 -0.0001989911720322255 -0.0002002337926934438
          -0.0002516961940350575 -0.0002544801889800258 -0.0002501394830701527 -0.00025241563966402176 -0.0002485827721052479 -0.00025035109034801775
          -0.00027214076786583784 -0.0002748526926619746 -0.000271670460068528 -0.00027364511158203044 -0.00027120015227121813 -0.0002724375305020862
          -0.0002546044013855976 -0.0002551356866511528 -0.0002574060927405411 -0.00025717118267124385 -0.00026020778409548465 -0.0002592066786913349
          -0.00020932039880554104 -0.0002057985123113693 -0.0002178111208445191 -0.00021338235464486068 -0.00022630184288349717 -0.00022096619697835204
          0 0 0 -0.0000021754968339955953 0 -0.000004350993667991191
          0 -0.000005526425768665057 -0.000011052851537330114 0 -0.0000033509289346694615 -0.000006701857869338923
          0 0 0 0 0 0
          0 0 0 0 0 0
          0 0 0 0 0 0
          0 0 0 -0.0000018729224085401255 -0.0000018934699934703013 -0.000001914017578400477
          -0.000022884099468998674 -0.00002295944750639636 -0.000023034795543794042 -0.00007139554151596528 -0.0000713023221075787 -0.00007120910269919213
          -0.0001339628901913686 -0.0001334750487706446 -0.00013298720734992056 -0.0001964473862431337 -0.00019582212929247338 -0.00019519687234181306
          -0.00024390207195250715 -0.00024383454158173222 -0.0002437670112109572 -0.00026464332164771834 -0.00026660032232710774 -0.00026855732300649725
          -0.00025414720803374966 -0.0002601327724490618 -0.000266118336864374 -0.00022247569178154787 -0.00023509700992090001 -0.0002477183280602522
          0 0 0 0 0 0
          0 0 0 0 0 0
          0 0 0 0 0 0
          0 0 0 0 0 0
          0 0 0 0 0 0
          0 0 0 -0.000002454201640578672 -0.0000024900108706670386 -0.0000025258201007554053
          -0.000024801134770258953 -0.000024775440552003738 -0.000024749746333748522 -0.0000722163936352271 -0.00007209675180952171 -0.00007197710998381633
          -0.00013023540115139208 -0.00013032725636819278 -0.00013041911158499347 -0.00018804801883654448 -0.00018885899677766505 -0.00018966997471878567
          -0.0002324843463510335 -0.00023519111638011398 -0.00023789788640919451 -0.00025472528707364423 -0.00026128208359449634 -0.0002678388801153484
          -0.000256347434036344 -0.00026905272390869464 -0.0002817580137810453 -0.0002499940596626328 -0.0002717403387835204 -0.00029348661790440806
          0 0 0 0 0 0
          0 0 0 0 0 0
          0 0 0 0 0 0
          0 0 0 0 0 0
          0 0 0 -6.545793922856544e-8 -3.272896961428272e-8 0
          -6.545793922856544e-8 -3.272896961428272e-8 0 -0.0000031908574167686993 -0.0000032579861402103175 -0.0000033251148636519354
          -0.000026461781427281897 -0.00002661647965315656 -0.00002677117787903122 -0.00007193940240850583 -0.0000724650794704741 -0.00007299075653244235
          -0.00012501844415022725 -0.00012655030190587054 -0.00012808215966151387 -0.0001776634457325968 -0.00018111356319092196 -0.00018456368064924714
          -0.0002200620619214796 -0.00022731575545544385 -0.00023456944898940816 -0.00024772966728495323 -0.00026139700272081513 -0.00027506433815667697
          -0.0002683370296866723 -0.00029125149734787807 -0.0003141659650090838 -0.00030115109887308576 -0.0003365595796486106 -0.00037196806042413534
          0 0 0 0 0 0
          0 0 0 0 0 0
          0 0 0 0 0 0
          0 0 0 0 0 0
          0 0 0 -6.545793922856544e-8 -3.272896961428272e-8 0
          -6.545793922856544e-8 -3.272896961428272e-8 0 -0.00000400572699908218 -0.000004242763228547151 -0.000004479799458012123
          -0.000028019137029852882 -0.000028784484734003148 -0.000029549832438153413 -0.00007140161441515511 -0.00007323066231453185 -0.00007505971021390861
          -0.00011984868983085082 -0.00012364075109025857 -0.0001274328123496663 -0.0001683090039968422 -0.00017547374879081003 -0.00018263849358477786
          -0.00021243704820227358 -0.0002254734760121957 -0.00023850990382211787 -0.00025392673462705463 -0.00027610147090169275 -0.00029827620717633093
          -0.00030654076415250083 -0.0003409874764276282 -0.0003754341887027557 -0.0003999397068306981 -0.00044907281390663476 -0.0004982059209825714
          0 0 0 0 0 0
          0 0 0 0 0 0
          0 0 0 -6.704357059422207e-7 -3.3521785297111035e-7 0
          -0.0000011881363456414107 -5.940681728207054e-7 0 -5.177006396991899e-7 -2.5885031984959497e-7 0
          0 0 0 0 0 0
          0 0 0 -0.000005447914952434796 -0.0000061033628778310086 -0.00000675881080322722
          -0.00003062768543673136 -0.00003241895488625204 -0.000034210224335772736 -0.00007240777287423876 -0.00007567779849468835 -0.00007894782411513795
          -0.00011806183793341141 -0.00012392123092009298 -0.0001297806239067746 -0.00016624300556013384 -0.0001764591682319316 -0.00018667533090372936
          -0.0002205073881623781 -0.00023759114473803148 -0.00025467490131368485 -0.00029172822362620636 -0.00031855889516172457 -0.0003453895666972427
          -0.00040086891719231865 -0.00043969432755075396 -0.0004785197379091892 -0.000587293108250367 -0.000637842200310512 -0.0006883912923706572
          0 0 0 0 0 0
          0 0 0 0 0 0
          0 0 0 -6.704357059422207e-7 -3.3521785297111035e-7 0
          -0.0000011881363456414107 -5.940681728207054e-7 0 -5.177006396991899e-7 -2.5885031984959497e-7 0
          0 0 0 0 0 0
          0 0 0 -0.000008473393401292072 -0.00000938445125364381 -0.000010295509105995548
          -0.00003665421870402246 -0.00003894123477457086 -0.000041228250845119266 -0.00007833316564811595 -0.00008191816539857954 -0.00008550316514904313
          -0.0001250526703755307 -0.00013086511146171798 -0.00013667755254790528 -0.00018125476006426348 -0.00019050772596557476 -0.00019976069186688607
          -0.00026122093415949314 -0.0002747350205085092 -0.0002882491068575252 -0.00038899452453917266 -0.0004065241318733514 -0.00042405373920753023
          -0.0005937701929542332 -0.0006142053582397081 -0.000634640523525183 -0.0009135650752372627 -0.0009331982284178664 -0.0009528313815984702
          -6.546995177879538e-7 -3.273497588939769e-7 -3.273497588939769e-7 -1.6367487944698844e-7 0 0
          0 0 0 0 0 0
          -4.7176690617950703e-7 -2.3588345308975351e-7 0 -0.0000010703521403100505 -5.351760701550252e-7 0
          -5.985852341305433e-7 -2.9929261706527166e-7 0 0 0 0
          0 0 0 0 0 0
          -5.554131091453469e-7 -6.264879511310604e-7 -6.97562793116774e-7 -0.000013982550555927009 -0.000014796875697351755 -0.0000156112008387765
          -0.00004769266096387716 -0.0000496093655287431 -0.00005152607009360905 -0.00009244528056791818 -0.00009540188825820919 -0.00009835849594850024
          -0.0001464428521809555 -0.00015088738133456854 -0.00015533191048818155 -0.00022314106413531706 -0.0002290955849044375 -0.00023505010567355798
          -0.000349933058307937 -0.00035594323756519815 -0.0003619534168224592 -0.0005650147218608905 -0.0005675088759553245 -0.0005700030300497586
          -0.000906912370337909 -0.000901172547482992 -0.000895432724628075 -0.0013909784768935003 -0.0013740687940991402 -0.0013571591113047798
          -0.0000013367319793472144 -6.683659896736072e-7 -0.0000010959626693269452 -5.629088748246124e-7 -8.551933593066757e-7 -4.574517599756173e-7
          0 -1.4927540161139732e-8 -2.9855080322279464e-8 0 0 0
          -5.097757838657362e-7 -2.548878919328681e-7 0 -0.0000011083610179962797 -5.541805089981398e-7 0
          -5.985852341305433e-7 -2.9929261706527166e-7 0 0 0 0
          0 0 0 -0.0000017678566875862363 -0.0000019067494399060038 -0.0000020456421922257712
          -0.000011220110648352786 -0.000011696496706406938 -0.000012172882764461091 -0.00003678847982339917 -0.00003790982062220035 -0.00003903116142100154
          -0.0000800306509972539 -0.00008216457327976259 -0.00008429849556227131 -0.0001377320193102032 -0.00014108700903285183 -0.00014444199875550048
          -0.00021643229159476831 -0.00022116413659318017 -0.00022589598159159204 -0.0003386493556327975 -0.0003442955067024445 -0.00034994165777209156
          -0.0005389217872939151 -0.0005437213501183324 -0.0005485209129427497 -0.0008578555593997758 -0.0008583105780119579 -0.0008587655966241401
          -0.0013314655421021134 -0.0013224006427400065 -0.0013133357433778997 -0.001961524150989896 -0.0019397997774702473 -0.001918075403950599
          -0.002753783864448272 -0.0027133144034692234 -0.0026728449424901746 -0.0036948591512807718 -0.003625930142239636 -0.0035570011331985014
          -0.00005943296957528441 -0.00011197149831115412 -0.00006558085783258285 -0.00012516215960238053 -0.0000717287460898813 -0.00013835282089360692
          -0.0000034472204197073473 -0.0000029997780313925897 -0.000002552335643077832 0 0 0
          -3.800887768622917e-8 -1.9004438843114586e-8 0 -3.800887768622917e-8 -1.9004438843114586e-8 0
          0 0 0 -0.0006248610043323699 -0.0006326353605428879 -0.000640409716753406
          -0.0009227791982006023 -0.0009302292288846566 -0.000937679259568711 -0.001335497119338466 -0.0013404139599321224 -0.0013453308005257792
          -0.0018765759648548535 -0.0018755273917539263 -0.001874478818652999 -0.002540860089104988 -0.002529634672476476 -0.0025184092558479636
          -0.0031040508819542463 -0.0030999172886664443 -0.0030957836953786426 -0.0032922097119786695 -0.003268395080850548 -0.0032445804497224268
          -0.0037003977631955088 -0.0036918284445509367 -0.0036832591259063647 -0.004073397056675666 -0.004036985787801517 -0.004000574518927366
          -0.004260481032637288 -0.004248507259184066 -0.004236533485730845 -0.00481740750764157 -0.004770465766148661 -0.0047235240246557494
          -0.004743866698621633 -0.0047291095583731416 -0.004714352418124649 -0.00016820851543764774 -0.00015895094007919758 -0.0001854501707305447
          -0.00017446579342504442 -0.00020269182602344166 -0.00018998064677089126 -0.0002001308365173895 -0.00022335582161452712 -0.00024658080671166485
          -0.0002648290524199031 -0.00029981764203097403 -0.0003348062316420449 -0.0003792273968124857 -0.00043110645302163236 -0.0004829855092307791
          -0.0005747565546492114 -0.0006406834659193497 -0.0007066103771894883 -0.0008957206557970767 -0.0009553192858949619 -0.0010149179159928468
          -0.001390163983280314 -0.0014011598829504416 -0.0014121557826205693 -0.002055813037666455 -0.0020188509916954536 -0.0019818889457244525
          -0.002935536979976481 -0.002866665649706354 -0.0027977943194362268 -0.0046674052025831286 -0.003952107940140603 -0.004573574887423503
          -0.0038529294076659272 -0.004479744572263878 -0.003753750875191251 -0.0000646973990030217 -0.0001180898814944856 -0.00007135920859974523
          -0.0001329724031360757 -0.00007802101819646876 -0.00014785492477766585 -0.000005652458255778904 -0.000004873007031707377 -0.000004093555807635849
          0 0 0 0 0 0
          0 0 0 -0.000005207033836312529 -0.000005595521622381773 -0.000005984009408451016
          -0.0000020319560207105047 -0.0000022820568556064777 -0.0000025321576905024503 -0.00002572107003316807 -0.000026840511959707518 -0.000027959953886246966
          -0.000011739324322452816 -0.000012415854186240636 -0.000013092384050028456 -0.000031690517300083855 -0.000032791420213310435 -0.000033892323126537016
          -0.00006449710829035414 -0.00006621825745213118 -0.00006793940661390822 -0.00011306433982988473 -0.0001157433972053952 -0.00011842245458090565
          -0.00018046693501436197 -0.00018446511917509826 -0.0001884633033358346 -0.0002769820479014137 -0.00028245668944592255 -0.0002879313309904314
          -0.00041805361630832175 -0.0004249328729482145 -0.0004318121295881072 -0.001122183953207056 -0.0008142451328866331 -0.0011298739409130723
          -0.0008221063280424562 -0.001137563928619089 -0.0008299675231982792 -0.0015104098914214133 -0.0015168574337341796 -0.0015233049760469456
          -0.0019788448706636727 -0.001982825002449342 -0.0019868051342350115 -0.002517337959798216 -0.0025176929940846486 -0.0025180480283710813
          -0.0035990154278426863 -0.003129851856210287 -0.0035911239522160372 -0.0031239247996610892 -0.0035832324765893877 -0.0031179977431118914
          -0.004029688742845379 -0.004020591265997197 -0.004011493789149015 -0.004392336286567308 -0.0043823116181062275 -0.004372286949645146
          -0.004653691533142387 -0.004642817570937833 -0.0046319436087332785 -0.0054492908231036545 -0.005551798325314001 -0.005397149433116815
          -0.005448684596907892 -0.005345008043129976 -0.005345570868501781 -0.005106391176012761 -0.0050888995788335376 -0.005071407981654313
          -0.004777458654540664 -0.004765659719545073 -0.004753860784549483
        </DataArray>
        <DataArray type="Float64" Name="disp_x" format="ascii" RangeMin="0" RangeMax="0.000020222480447921133">
          0 1.3685545579366296e-7 1.3817670223398e-7 0 0 1.3677826720960677e-7
          1.382547499725992e-7 0 0 1.364357834721969e-7 1.3884042905925108e-7 0
          1.407727113396206e-7 0 1.404256661518841e-7 0 1.3650761630236043e-7 0
          1.4011173381733916e-7 0 1.401919371405285e-7 0 1.4028165209396506e-7 0
          1.385476631373616e-7 0 1.3810593249478318e-7 0 1.3706886989822166e-7 0
          1.3004132867604187e-7 0 1.30169192657273e-7 0 1.3048173002877328e-7 0
          1.2557814743811476e-7 0 1.2572632882105862e-7 0 1.2624802553851455e-7 0
          1.261599177149284e-7 0 1.2626983251210787e-7 0 1.266960634440355e-7 0
          1.29277390129837e-7 0 1.2932619048740534e-7 0 1.2949028279372818e-7 0
          1.3262535046818106e-7 0 1.3257120741458932e-7 0 1.323877340222506e-7 0
          1.3552347768509017e-7 0 1.3544339972867862e-7 0 1.3517105543863863e-7 0
          1.3925510209962826e-7 0 1.3925270670667914e-7 0 1.3923900197285596e-7 0
          1.4623581698129583e-7 0 1.4626573652820267e-7 0 1.464172552765761e-7 0
          1.5785917320111577e-7 0 1.5837994530471622e-7 0 1.5775245064254653e-7 0
          1.7351268425989223e-7 0 1.7316001066578193e-7 0 1.7268212309557862e-7 0
          1.8972428879718754e-7 0 1.893395381962123e-7 0 1.8813468331696693e-7 0
          2.027511971124925e-7 0 2.0221440596214242e-7 0 2.0071524727913325e-7 0
          2.0898197945308143e-7 0 2.0855623981925175e-7 0 2.0726181754169193e-7 0
          2.039520890622186e-7 0 2.0420597354179243e-7 0 2.048691854060942e-7 0
          1.8918174031208054e-7 0 1.907616433742652e-7 0 1.958354539318324e-7 0
          2.735111535927443e-7 2.7644720499542003e-7 2.734671598730146e-7 2.7631374620984114e-7 2.735796195853251e-7 2.755869044375751e-7
          2.804080304580485e-7 2.814713973810468e-7 2.864412389200071e-7 2.80146935121973e-7 2.802394214313008e-7 2.80364640292471e-7
          2.7634420986485687e-7 2.7590880583729196e-7 2.744427615487929e-7 2.5995343953350595e-7 2.6036012223503227e-7 2.6144533562445007e-7
          2.5156891006973134e-7 2.5196907694836846e-7 2.53277526953808e-7 2.525537805297548e-7 2.5286143305716727e-7 2.539020589271597e-7
          2.5868490113983876e-7 2.5880179638979066e-7 2.591693921894449e-7 2.651030004329046e-7 2.6500879011203966e-7 2.6467984955638883e-7
          2.708171451848357e-7 2.706770239327116e-7 2.7021530338344494e-7 2.786288817096797e-7 2.7860767831684e-7 2.7853535126408616e-7
          2.9267059247461264e-7 2.9274250932889856e-7 2.930803379121515e-7 3.15629812158187e-7 3.153857023650337e-7 3.161237006003568e-7
          3.4674182569841053e-7 3.463616119146128e-7 3.449817219090423e-7 3.786106109719961e-7 3.778691062566503e-7 3.7587743053931996e-7
          4.042060254247564e-7 4.0331400832061855e-7 4.007302897049961e-7 4.1627889003189054e-7 4.1576232044630156e-7 4.140539931344821e-7
          4.0738923955610396e-7 4.08237956682325e-7 4.10440693607377e-7 3.798491752425267e-7 3.8306264371389795e-7 3.93098584820805e-7
          4.100004766364597e-7 4.1450347147167845e-7 4.098961856473903e-7 4.1431273599430204e-7 4.0960534022218845e-7 4.1402048799487e-7
          4.206952617205309e-7 4.2221135983833363e-7 4.2427030489447385e-7 4.20166579815749e-7 4.2029502385498513e-7 4.2063931996528976e-7
          4.1005947046448597e-7 4.111730721825725e-7 4.1147477836543853e-7 3.9083704269177577e-7 3.9140541248874136e-7 3.934583508065518e-7
          3.780231696867474e-7 3.790917798248439e-7 3.8196725821603716e-7 3.7948499421803906e-7 3.8014724837775716e-7 3.8213912569486735e-7
          3.883551850690619e-7 3.8857341966665506e-7 3.89198878080273e-7 3.972493218188462e-7 3.9715910795066376e-7 3.968067392483964e-7
          4.0573415646604437e-7 4.055820289199854e-7 4.0505833414930914e-7 4.1807879570464016e-7 4.1804852358493226e-7 4.1798757811453987e-7
          4.396100487728203e-7 4.3972910730586373e-7 4.4023195254690705e-7 4.74025665349757e-7 4.740131612031077e-7 4.7398399843621467e-7
          5.191252924643927e-7 5.185364354168304e-7 5.170146863381414e-7 5.658995918919321e-7 5.650732543379494e-7 5.625467681504357e-7
          6.031820778031703e-7 6.023273339972415e-7 5.996911901233823e-7 6.205298288417906e-7 6.205945614148277e-7 6.202694886304026e-7
          6.099069572465716e-7 6.123452907938373e-7 6.186672294871291e-7 5.746376319245423e-7 5.806866738862477e-7 5.989381355572485e-7
          5.461971743444166e-7 5.523340464273452e-7 5.45947608702612e-7 5.522207749353694e-7 5.453616234476052e-7 5.519850273389208e-7
          5.61658591898687e-7 5.622713024650287e-7 5.631469303072926e-7 5.600947920700188e-7 5.603479141870412e-7 5.608773980817385e-7
          5.440636676300045e-7 5.447058868534419e-7 5.467311704484175e-7 5.226698482292778e-7 5.238026563664836e-7 5.270575962339349e-7
          5.055230366334853e-7 5.076925280237765e-7 5.131165770670534e-7 5.073545089479855e-7 5.0865723306556e-7 5.120550175360678e-7
          5.183957995636879e-7 5.187363925212925e-7 5.197144384674016e-7 5.289278948429613e-7 5.289433981003373e-7 5.288239989418015e-7
          5.401914399844329e-7 5.401229361192782e-7 5.397821577215535e-7 5.576142367029865e-7 5.57625897512109e-7 5.577584256830341e-7
          5.872627872624027e-7 5.874641470314303e-7 5.880871486377545e-7 6.32767751019183e-7 6.325840137065792e-7 6.322716436811492e-7
          6.904203024236496e-7 6.899096718692898e-7 6.886345213668624e-7 7.50754762021552e-7 7.501800274084999e-7 7.481231672629919e-7
          7.986549133184211e-7 7.986239396472913e-7 7.977847488758655e-7 8.212866709470846e-7 8.231528362737172e-7 8.273824367315793e-7
          8.113926846690137e-7 8.170282543964042e-7 8.31887750294852e-7 7.753823847835557e-7 7.869651489966819e-7 8.195009651049939e-7
          6.818194470500102e-7 6.900508468049714e-7 6.814592094439029e-7 6.899141675326357e-7 6.804263935181871e-7 6.89549173576142e-7
          7.022219761775325e-7 7.025213971684887e-7 7.030122761707187e-7 7.000699887279643e-7 7.004094388277848e-7 7.010869938690981e-7
          6.790102545080563e-7 6.793008864894713e-7 6.822043121061366e-7 6.570283690860429e-7 6.577500689437969e-7 6.616291055905272e-7
          6.351974836510919e-7 6.388746159618777e-7 6.470415629220647e-7 6.369681118697649e-7 6.391166542204972e-7 6.4409780495169e-7
          6.487553768496915e-7 6.49288473257557e-7 6.509320560777727e-7 6.601321354977378e-7 6.604272263529841e-7 6.609241084844528e-7
          6.742411481647757e-7 6.743882497185182e-7 6.745805178560107e-7 6.973153961550426e-7 6.975254037170097e-7 6.982075628113274e-7
          7.356844880296538e-7 7.35979376797459e-7 7.367665479436397e-7 7.912566942472926e-7 7.911111535079343e-7 7.912725557392948e-7
          8.603804853013537e-7 8.603928397486929e-7 8.603397672570332e-7 9.325025586119385e-7 9.329504249784525e-7 9.331252015003488e-7
          9.901861186502739e-7 9.921712405637412e-7 9.96118981039775e-7 0.000001019331953028074 0.000001024789307860568 0.0000010381291575736876
          0.0000010140906960256832 0.0000010253587617843637 0.0000010552428547484488 9.86975681806925e-7 0.0000010064619897749685 0.0000010605536388564975
          8.165217353595327e-7 8.275477321188504e-7 8.161784696972316e-7 8.273854729891023e-7 8.145114324419987e-7 8.268040466106164e-7
          8.427241460325514e-7 8.430712354226684e-7 8.43616787709103e-7 8.40104807284659e-7 8.402992194743587e-7 8.408602933493916e-7
          8.174131691130068e-7 8.184255748005522e-7 8.216024847100746e-7 7.937137217597496e-7 7.937139962825908e-7 7.97374474605434e-7
          7.701157113672089e-7 7.747680840034631e-7 7.814575367816244e-7 7.696595478186545e-7 7.721115132536522e-7 7.778914837146654e-7
          7.791739818999019e-7 7.803456388378984e-7 7.833132354320213e-7 7.912821544079866e-7 7.919294765161391e-7 7.933690585173292e-7
          8.080899763590488e-7 8.086159531933486e-7 8.097911661802391e-7 8.37411252887806e-7 8.380792997971307e-7 8.397593191010802e-7
          8.847877693982638e-7 8.852291697765743e-7 8.866276138335457e-7 9.492075928577351e-7 9.497862413823333e-7 9.514950030301298e-7
          0.0000010290848338205557 0.0000010302466807470136 0.0000010327320647722848 0.0000011113765743165248 0.000001113771346417529 0.0000011186745322540401
          0.0000011789073750886755 0.00000118420463656889 0.0000011965890870785 0.000001218015077230793 0.0000012287483277041227 0.0000012561749591733686
          0.0000012246748381171335 0.0000012435236771586078 0.0000012948638517781638 0.0000012191068113407266 0.0000012481628487512455 0.0000013300558868349621
          9.495475606675354e-7 9.64666366382549e-7 9.49765666382664e-7 9.64590456933471e-7 9.47585285608492e-7 9.638911655110525e-7
          9.83391231187197e-7 9.841497553611787e-7 9.850888236843193e-7 9.797373504959243e-7 9.800225781633546e-7 9.806671888230826e-7
          9.586443344844602e-7 9.592302142970451e-7 9.610781590112787e-7 9.326717000420009e-7 9.34733385285778e-7 9.381358669056801e-7
          9.210508053838549e-7 9.181852989414813e-7 9.18985386316873e-7 9.069005440631917e-7 9.079851744685705e-7 9.123498316505472e-7
          9.102838623947026e-7 9.126344407832537e-7 9.173006693790193e-7 9.23070751596096e-7 9.23908102326724e-7 9.263292150880103e-7
          9.423185967824366e-7 9.432733283244547e-7 9.458222351273966e-7 9.784547133302446e-7 9.79723668641645e-7 9.82749071208453e-7
          0.0000010345974951545947 0.0000010354764723083554 0.000001038274917809957 0.0000011074632761820024 0.0000011090077615688391 0.0000011133228754878832
          0.00000119758201315865 0.0000012000687910321952 0.0000012064013336512166 0.0000012895010044468219 0.0000012941479687645001 0.0000013058999276696036
          0.0000013691481621547747 0.0000013778344470666588 0.000001401231465614414 0.0000014254876560447878 0.000001440783597726497 0.0000014844839793538662
          0.000001457387815726979 0.0000014818206848125689 0.0000015554361438174477 0.0000014916810989605636 0.0000015264141030769147 0.0000016356538889990926
          0.0000010790094159206222 0.0000011010692188888508 0.0000010816095601413703 0.0000011016412181616488 0.0000010804799144127304 0.0000011012868784456496
          0.0000011248593688965998 0.0000011252863020564367 0.000001127701338529344 0.000001119545933167407 0.0000011198368162107268 0.0000011204144536211508
          0.0000010995362474103988 0.0000010999980638973153 0.0000011011276532706234 0.000001075118114418346 0.0000010768293096522003 0.000001078527045520497
          0.0000010612749747060034 0.0000010604370299930917 0.0000010599040059101359 0.0000010490875013715628 0.0000010484635164886834 0.0000010498265056792844
          0.0000010448264951552042 0.0000010468822282992828 0.00000105161156862805 0.0000010562830291858665 0.0000010570525592661665 0.0000010601258698684366
          0.0000010781818930015826 0.0000010791017567898377 0.000001082919795395589 0.0000011213262424523015 0.0000011229303270178276 0.0000011274045539216014
          0.000001186117327080985 0.0000011873222917823852 0.000001191870240168529 0.0000012678823101575487 0.000001269857509735868 0.000001276868426824
          0.00000136832240285252 0.0000013711815046981622 0.000001381612120137742 0.0000014719245761961534 0.0000014770548158046234 0.000001495519328208521
          0.0000015698967989201014 0.0000015786788234895014 0.0000016111903977948853 0.000001655832042639087 0.0000016698881526207994 0.000001724144482001872
          0.0000017345896488818367 0.0000017554695034399533 0.0000018387157946747509 0.0000018330551959770668 0.0000018617528948985316 0.000001980528889856279
          0.0000012058388265154708 0.0000012373529750383234 0.0000012072035869464854 0.0000012383834172743702 0.000001213817587800661 0.0000012414264087570257
          0.0000012659588867614364 0.000001265727045883851 0.0000012639939667963277 0.0000012594278691929907 0.0000012595714737706693 0.00000126056517190322
          0.0000012403425986799493 0.00000124071110098627 0.0000012416068989890346 0.0000012187916604154958 0.000001218775339571034 0.0000012194099409314406
          0.0000012019510841175225 0.000001201709359188372 0.0000012014886275744266 0.000001190275887299221 0.000001190230607773439 0.0000011896282959172662
          0.0000011866327824714445 0.0000011861465434823236 0.0000011861614254248375 0.0000011913478273925984 0.0000011923239905904027 0.0000011953351463291003
          0.0000012168039421479672 0.0000012179311613706213 0.0000012217940272356492 0.0000012667111228139885 0.000001268650756796483 0.000001273500885266601
          0.0000013401632707268583 0.000001341966684627417 0.0000013472649591364486 0.0000014321697303577174 0.00000143471781546869 0.0000014429043894909444
          0.000001543587372458011 0.000001547377038633415 0.0000015599647113633213 0.0000016632947999019022 0.0000016695611924223638 0.0000016903038709452854
          0.0000017884670788089018 0.0000017983837758884746 0.0000018310924894465061 0.0000019192013883489697 0.0000019340169537082763 0.0000019828421276862474
          0.000002067274957600086 0.000002087509267527452 0.000002156637219638578 0.0000022618621103164975 0.00000228972208100453 0.0000023812380554763127
          0.0000025523309018464115 0.000002587099553721725 0.000002709920202246854 0.0000030745986607875793 0.000003111730180629153 0.000003233042358017606
          0.0000017960486039766555 0.000001734569809827914 0.000001797958717867674 0.0000017239006922430395 0.0000018018610599377078 0.0000017368879925385811
          0.0000018242219964636593 0.000001824112411056622 0.0000018248296628889212 0.000001818959113900623 0.0000018187085796634398 0.0000018180679084758708
          0.0000018045688770620027 0.0000018041647388282712 0.0000018032299363855716 0.0000017850384745452756 0.000001784641585903225 0.000001783546603504004
          0.0000017665947390245564 0.000001766461165244264 0.0000017658767220425803 0.0000025601092485826273 0.0000025705911389912033 0.0000026000518277418418
          0.0000028582234505656284 0.000002871248629925187 0.000002907457450607499 0.0000032467971969495654 0.0000032621762744042333 0.000003303181059418195
          0.000003759002379993651 0.0000037758308865131325 0.0000038172546519118045 0.0000044317918378467725 0.000004449053902119281 0.000004486386524729467
          0.000007196392720409865 0.000007205770135294774 0.0000072439609970886525 0.000005321419284337674 0.000005338966755595001 0.0000053669905289686796
          0.000008669490446093261 0.000008672463506917839 0.000008695285783160587 0.0000065140977227348485 0.000006527088233051116 0.00000653921124813251
          0.000010452548554078828 0.000010450292275348255 0.000010458082495399337 0.000008055804688189796 0.00000806236149647871 0.000008054643044262952
          0.000012586392971252323 0.000012577608088329554 0.000012566570196283528 1.7541043422821026e-7 0 1.78588751016183e-7
          0 1.87388617113242e-7 0 3.5426481136262484e-7 3.609744121825411e-7 3.8126540170465287e-7
          5.418837899433128e-7 5.535522944271632e-7 5.895262280183624e-7 7.456425760381738e-7 7.647053605906542e-7 8.224751838507438e-7
          9.74258490685838e-7 0.0000010038478103641632 0.000001091085465088519 0.0000012471612586666587 0.0000012867287373935682 0.0000014063107870978438
          0.0000015872684844306333 0.0000016314170665789373 0.000001775538949238916 0.0000020230580816977913 0.0000020606041188195824 0.000002200234387791981
          0.0000023546307310169373 0.000002397266777310818 0.0000025738839153269655 0.000003895037757501072 0.0000029894094416003308 0.000003933624382957216
          0.0000030376070253571924 0.0000040561069523126 0.0000032224339886518858 0.000002406580813561412 0.0000024682563892890536 0.0000024049882798688807
          0.0000024798952287574895 0.0000024010706989468155 0.000002471700845352631 0.0000023755652922781284 0.000002375107067452035 0.0000023735773526650352
          0.0000023754555335213737 0.0000023747660662145903 0.0000023719748598679973 0.0000023637442097255643 0.00000236297489999724 0.0000023600128062486977
          0.000002346085037844383 0.0000023456113554878646 0.000002343699197977148 0.000002328649537416079 0.00000232874517109117 0.0000023288048076141707
          0.000001751666606038067 0.0000017517425709918842 0.000001751864122494362 0.0000023174974255999684 0.000002318558368068395 0.000002321805731470527
          0.0000017426349090281632 0.000001743213546781096 0.0000017451970000706258 0.0000017575187896071473 0.0000017588300659358548 0.000001762890259409762
          0.000001803283766355221 0.0000018055725023285244 0.0000018118036122965904 0.00000188346012234631 0.0000018861102380738065 0.0000018942519351179526
          0.0000019969628358331713 0.000002000926947438213 0.0000020125144597455214 0.000002146233264757529 0.00000215183646639039 0.0000021672596758373043
          0.000002328128995296365 0.000002335973705165012 0.000002358161485476982 0.0000037719478789999826 0.0000033452131345499003 0.000003786032599092356
          0.0000033572883472257866 0.000003830568869168324 0.000003394958308387393 0.000004333983168043814 0.000004349248615081153 0.000004398740950029571
          0.000005066790579541725 0.000005082070047610731 0.00000513307261028279 0.000006008074611585919 0.000006021408545885426 0.000006068912533960436
          0.000010565718354976126 0.000008896226355880965 0.0000105767474567398 0.000008910325731024235 0.000010608212052176393 0.000008951571074246608
          0.00001253048075568774 0.000012537432295624286 0.000012556660929786193 0.000014797687972817105 0.000014799634097858668 0.000014804153496633887
          0.00001736679152337275 0.000017363261776342495 0.000017352017279040384 0.000010007227733853178 0.000005156954623052449 0.000010007645673932752
          0.000005188381495889136 0.000009982848564449065 0.000005288321690445484 0.000015085775852173057 0.000015071009739472262 0.000015041045027575027
          0.000020222480447921133 0.000020212862769708787 0.00002018432542604097
        </DataArray>
        <DataArray type="Float64" Name="disp_y" format="ascii" RangeMin="-0.000016230789974436854" RangeMax="0">
          0 0 -1.549883433924938e-7 -1.5519315823150143e-7 0 0
          -1.548758193061439e-7 -1.5509537017900638e-7 0 0 -1.5406416709499217e-7 -1.5504781904096704e-7
          -3.1556522849170116e-7 -3.157141656492997e-7 -3.1548494786850287e-7 -3.156709361487397e-7 -3.151939740938815e-7 -3.1562526473159337e-7
          -4.793690122868329e-7 -4.794567541729288e-7 -4.797983512895366e-7 -4.798520774522152e-7 -4.813058799473997e-7 -4.802376429817072e-7
          -6.419491349440553e-7 -6.424273257941844e-7 -6.42567004867732e-7 -6.430818811221716e-7 -6.444716592738736e-7 -6.452607338958056e-7
          -7.910656463193689e-7 -7.916870395259294e-7 -7.915084344578297e-7 -7.921441032007197e-7 -7.935215164974726e-7 -7.942295984483021e-7
          -9.273438945740509e-7 -9.27484255963797e-7 -9.275758254126304e-7 -9.277212637963614e-7 -9.281355453325591e-7 -9.282859946181314e-7
          -0.0000010584659031561046 -0.000001058114692020762 -0.000001058296143124931 -0.0000010579355631601212 -0.0000010575715936605405 -0.0000010571712020254071
          -0.0000011907205684806655 -0.0000011901503152896536 -0.0000011904055456029646 -0.0000011898206135796799 -0.0000011892297320790325 -0.0000011885979475180369
          -0.0000013262358223055384 -0.0000013256355916869754 -0.0000013258708833619103 -0.000001325279561323593 -0.0000013247201241582778 -0.0000013241072741367322
          -0.0000014650503278428775 -0.0000014645493053256132 -0.000001464575653811484 -0.0000014640785420265987 -0.0000014632403911191406 -0.0000014627723399989857
          -0.0000016092250536138498 -0.0000016086229388367518 -0.0000016084559455504106 -0.0000016079051525272398 -0.0000016064096457347356 -0.000001605862660516917
          -0.0000017643886606458789 -0.0000017633947031517674 -0.0000017634333761614289 -0.0000017623173360027817 -0.0000017601085206074904 -0.000001759231526905577
          -0.000001939442765659754 -0.0000019381908787971724 -0.0000019379788695473805 -0.0000019368300757757464 -0.000001933711307349128 -0.000001932360221062744
          -0.0000021442109897966295 -0.000002142897338256397 -0.0000021426626758848975 -0.0000021413548095126385 -0.000002137634641304953 -0.0000021362776010772775
          -0.00000238389184980336 -0.0000023828593286010003 -0.0000023825436635880566 -0.0000023815168335914217 -0.000002378217430885736 -0.0000023772091330617816
          -0.000002658109180794367 -0.0000026577384946219234 -0.0000026572401529289467 -0.000002656950289536732 -0.000002654629131935532 -0.0000026543402713633503
          -0.000002958855930972788 -0.0000029595958071996064 -0.0000029586088203031583 -0.0000029594480553784847 -0.000002958361809541703 -0.000002959413457954857
          -0.0000032697517944438447 -0.0000032713266946315956 -0.0000032699121928555825 -0.000003271662466028453 -0.0000032719229276795104 -0.000003273902759740455
          -0.0000035680427885886843 -0.000003569206691330958 -0.0000035679706198652084 -0.000003569387784796497 -0.000003570319191245004 -0.0000035725433067986795
          0 -1.5467650372377274e-7 0 -1.5451039548498637e-7 0 -1.536631312214068e-7
          -3.150457296000845e-7 -3.1499060225645585e-7 -3.143241157927587e-7 -4.792110421482735e-7 -4.794530738289048e-7 -4.811230911698331e-7
          -6.403246870798765e-7 -6.409630340644852e-7 -6.427489702071402e-7 -7.891483278896485e-7 -7.895983699657941e-7 -7.9132165831991e-7
          -9.271386702086566e-7 -9.273269942832856e-7 -9.278949373946449e-7 -0.000001059498518281292 -0.00000105941444508057 -0.0000010588578292910176
          -0.0000011924831848044723 -0.0000011922248246680145 -0.000001191220931452757 -0.000001328048319547518 -0.0000013276949412896664 -0.00000132663316787765
          -0.0000014666346058052032 -0.0000014661466745235614 -0.0000014647836183882374 -0.0000016110840916974066 -0.0000016103196472741054 -0.0000016081686402696714
          -0.0000017672701555171245 -0.0000017662205507664853 -0.0000017629544590324259 -0.00000194333741520811 -0.0000019419506280994025 -0.0000019377402790624947
          -0.000002148254764434017 -0.0000021467284194999404 -0.0000021419430835189435 -0.000002387030573472835 -0.000002385676228176283 -0.0000023814629681428677
          -0.00000265934557217838 -0.0000026583375461597717 -0.0000026556479822861356 -0.00000295716200828973 -0.0000029566214360309006 -0.000002955799312420303
          -0.0000032653633743954255 -0.0000032650051518652787 -0.000003265910423722418 -0.0000035651469921871644 -0.0000035643457428874292 -0.0000035646241930880585
          0 -1.542983686970506e-7 0 -1.5417252452185997e-7 0 -1.5396296660589344e-7
          -3.1419190215835323e-7 -3.1414442446859825e-7 -3.1396793762934234e-7 -4.783545416841806e-7 -4.78494071127024e-7 -4.792466715720021e-7
          -6.377306463194628e-7 -6.382091948739689e-7 -6.399120261374109e-7 -7.864238682392156e-7 -7.867899369629646e-7 -7.879652270598161e-7
          -9.26848665898565e-7 -9.269823317203711e-7 -9.27570891722792e-7 -0.0000010611161311902824 -0.0000010612047932505598 -0.000001060985745994242
          -0.000001195295213392775 -0.000001195133197907245 -0.000001194426324410763 -0.0000013308853125408747 -0.0000013305586219605664 -0.0000013296266680979036
          -0.000001469234645455985 -0.0000014687371411072924 -0.000001467328774342905 -0.0000016142178846940169 -0.0000016134437567539023 -0.0000016111529760550646
          -0.0000017718457980441074 -0.0000017707893331012122 -0.000001767637539609992 -0.000001949777168010045 -0.0000019484136399747955 -0.0000019443123409942672
          -0.000002155045581834491 -0.000002153542285707909 -0.000002148966974268772 -0.000002392184732465235 -0.0000023907754383511507 -0.0000023866788035002113
          -0.000002661315488455315 -0.0000026600748928164984 -0.000002657054339315493 -0.000002954936228017918 -0.0000029538667343519206 -0.0000029519901751787137
          -0.0000032595476320784457 -0.0000032583623587405347 -0.000003256918018504884 -0.0000035617397978182613 -0.0000035596523044124896 -0.000003556418754116856
          0 -1.5366423183085375e-7 0 -1.5356775914897003e-7 0 -1.5323173046750555e-7
          -3.1306601198349183e-7 -3.130246628449593e-7 -3.127750141764196e-7 -4.7636061019107507e-7 -4.764902257953734e-7 -4.773461916477924e-7
          -6.344720747725573e-7 -6.348449154147409e-7 -6.361854680462877e-7 -7.83575970032004e-7 -7.8368542012475e-7 -7.842697865167502e-7
          -9.264123206474143e-7 -9.265063905743529e-7 -9.270678933824844e-7 -0.0000010634130631492685 -0.0000010636813440135754 -0.0000010639682357356542
          -0.0000011990358633573848 -0.0000011989861779642547 -0.000001198668274678306 -0.0000013345955802056157 -0.0000013343077066596905 -0.0000013335315065641368
          -0.0000014728842842747704 -0.0000014723784367292352 -0.0000014709036997371693 -0.0000016187556228122176 -0.0000016179661533977577 -0.0000016155601039449024
          -0.0000017784213073179725 -0.0000017773748985111233 -0.0000017742074813911202 -0.0000019586216242669597 -0.0000019572884122347046 -0.000001953342509371625
          -0.0000021643681340387516 -0.0000021628453856401376 -0.0000021584728981168557 -0.0000023995221913345655 -0.000002397946803986057 -0.0000023937691516570903
          -0.0000026643048203709815 -0.0000026626459025737848 -0.000002658876161764764 -0.000002953002192419928 -0.000002951125479363526 -0.0000029474310118215795
          -0.0000032546786920559535 -0.0000032522651377532285 -0.0000032474017903146642 -0.000003560334543744139 -0.0000035569145790143134 -0.000003548812428453893
          0 -1.5283891310841713e-7 0 -1.5266391148362327e-7 0 -1.5211685820526737e-7
          -3.1181005357378204e-7 -3.117349451612916e-7 -3.114446057428802e-7 -4.733685357056852e-7 -4.734834797055888e-7 -4.740640184704674e-7
          -6.307918399980375e-7 -6.310311301589562e-7 -6.319052057468999e-7 -7.805445748137415e-7 -7.805904043153133e-7 -7.809267835925615e-7
          -9.256692720773343e-7 -9.258056835072484e-7 -9.2640324677613e-7 -0.0000010665581557856587 -0.0000010668377634888284 -0.0000010675092862508278
          -0.0000012033992333081881 -0.00000120340516170116 -0.0000012035096933383917 -0.0000013389088915180908 -0.0000013387112281017895 -0.0000013381402494878244
          -0.0000014775827332678828 -0.0000014770468323029416 -0.0000014754857307049766 -0.0000016248132224518127 -0.0000016240035398912702 -0.0000016214674105882716
          -0.000001787052774332699 -0.000001785983752444586 -0.0000017828873848828096 -0.0000019697069259028897 -0.000001968303713490003 -0.000001964408406565109
          -0.000002176020680610896 -0.0000021744570741773467 -0.000002170219456007519 -0.0000024089707785939186 -0.000002407113796354337 -0.0000024025476454377875
          -0.000002668852125044376 -0.000002666562422755932 -0.0000026613864479493216 -0.0000029525834405717337 -0.000002949631666637004 -0.0000029430782926006864
          -0.000003253166310194748 -0.0000032492193065234313 -0.0000032398522520894853 -0.0000035658402410033005 -0.0000035609780454789825 -0.0000035466646966442186
          0 -1.5188070939507235e-7 0 -1.5163790214294865e-7 0 -1.5079706324103976e-7
          -3.106275283210364e-7 -3.1047035907442516e-7 -3.1010571612684767e-7 -4.7036569659200303e-7 -4.705147617845131e-7 -4.7075686095035774e-7
          -6.266959288204558e-7 -6.266995854851585e-7 -6.269658540428688e-7 -7.770816008939127e-7 -7.772109963613043e-7 -7.772948275342282e-7
          -9.235552815232543e-7 -9.249178549582178e-7 -9.262123825127164e-7 -0.0000010715542187904012 -0.0000010704566191226938 -0.0000010708830950249796
          -0.0000012075569332372178 -0.000001207787775185807 -0.0000012083251125916957 -0.0000013437375677852425 -0.0000013436124555746207 -0.000001343261457035315
          -0.0000014832841750633237 -0.0000014826983550901074 -0.0000014810273336946363 -0.000001632482313427715 -0.0000016316333759034373 -0.000001628975029742081
          -0.0000017978039907318482 -0.0000017966913794784716 -0.0000017935679153319313 -0.000001982728673099402 -0.0000019812949257525927 -0.000001977481653248664
          -0.000002189954822771008 -0.000002188251790156098 -0.0000021837917881015445 -0.0000024207109886100234 -0.0000024184441361592867 -0.0000024130104880715437
          -0.0000026759246078516955 -0.000002672847413884132 -0.000002665464769450181 -0.0000029556625535963 -0.0000029514782204446044 -0.0000029408983763348517
          -0.0000032585132878395124 -0.0000032529203813314537 -0.0000032376726956124024 -0.000003584356960626383 -0.0000035778481241207386 -0.0000035560115834834844
          0 -1.5089329454132262e-7 0 -1.5066060129004392e-7 0 -1.4941922213584583e-7
          -3.0971761255287864e-7 -3.095326071720607e-7 -3.0906523652916703e-7 -4.683524249608347e-7 -4.683665983971516e-7 -4.6835565450728444e-7
          -6.228480861826093e-7 -6.227943432993836e-7 -6.226868947233536e-7 -7.741086197955114e-7 -7.742283582844774e-7 -7.739771204914886e-7
          -9.231807967299888e-7 -9.241027170937848e-7 -9.250991847972009e-7 -0.00000107269043883097 -0.0000010721913802977972 -0.0000010731596185716803
          -0.0000012119384566922342 -0.0000012118947852792528 -0.0000012126165993593078 -0.0000013488508061554735 -0.000001348753127874141 -0.0000013485112366249288
          -0.000001489968220257977 -0.000001489331953745371 -0.0000014875432824542572 -0.0000016417947386240086 -0.000001640902005888706 -0.0000016381495867480124
          -0.0000018106839032928469 -0.0000018094172754086155 -0.0000018060710508763184 -0.000001997977146100799 -0.0000019965738949622045 -0.0000019926619731836202
          -0.000002206212613212885 -0.0000022042637841972915 -0.000002199237800086642 -0.0000024351967747463838 -0.0000024324285232042353 -0.000002425463379240145
          -0.0000026870986232519633 -0.0000026831927426197204 -0.0000026727321127968673 -0.000002965332913065009 -0.000002959855854538476 -0.000002944167510083951
          -0.0000032751450817907143 -0.0000032680566272252405 -0.000003245418879379517 -0.0000036256569528065464 -0.000003616204490135485 -0.0000035862619493250533
          0 -1.4996543727218986e-7 0 -1.4968173255275857e-7 0 -1.4831697805101033e-7
          -3.095875739044253e-7 -3.094499650423235e-7 -3.0933352152822615e-7 -4.670269218916871e-7 -4.668628139664026e-7 -4.6586650969453093e-7
          -6.200505360230545e-7 -6.201200441796019e-7 -6.200123619427495e-7 -7.723256784422555e-7 -7.721678749286955e-7 -7.71830242277797e-7
          -9.227792096418086e-7 -9.228248685488737e-7 -9.231326867246738e-7 -0.0000010710118184523201 -0.0000010717625039608383 -0.000001073504961744798
          -0.0000012149978273477975 -0.0000012149488966807097 -0.0000012156756931159803 -0.000001354375502294079 -0.000001353960804741348 -0.0000013533908488947049
          -0.000001497505025595733 -0.0000014969062930678843 -0.0000014950866356431172 -0.0000016529413888192523 -0.0000016519778313746323 -0.000001649119875855798
          -0.0000018252857482708234 -0.000001823890452669222 -0.0000018202468187408097 -0.0000020157982612682496 -0.0000020141756449090822 -0.0000020097692910833357
          -0.0000022251443377947294 -0.0000022228624625937285 -0.0000022168096587018106 -0.0000024535998052305955 -0.0000024502620035441026 -0.000002441094706743466
          -0.0000027050552489761466 -0.000002700129206555886 -0.000002685812770587875 -0.000002986710032596483 -0.0000029797522923191506 -0.0000029578341797040477
          -0.0000033108206010677895 -0.0000033012331943858766 -0.0000032701360257779934 -0.0000036987961075436436 -0.0000036858044993223742 -0.0000036448411647606056
          0 -1.4807360335239143e-7 0 -1.4815259746159975e-7 0 -1.465533977117888e-7
          -3.1103283594968637e-7 -3.109446527899324e-7 -3.104747462262109e-7 -4.6631099933155757e-7 -4.6609883969344877e-7 -4.6531591505212243e-7
          -6.184419993962757e-7 -6.18394260697655e-7 -6.181173747482172e-7 -7.704854638980569e-7 -7.704282094179247e-7 -7.702382127639097e-7
          -9.214959871327192e-7 -9.215306330342819e-7 -9.217002334520161e-7 -0.000001071078454592608 -0.0000010715005206433459 -0.000001072556667564809
          -0.0000012159402025961482 -0.0000012161061541226478 -0.000001216828981508618 -0.0000013586218026002303 -0.000001358277327453364 -0.0000013575949494724207
          -0.000001506236306317608 -0.0000015055507149947133 -0.0000015036196885300706 -0.0000016661462617729578 -0.000001665089462089533 -0.0000016620850504573636
          -0.000001841804928975686 -0.0000018403659371161545 -0.0000018362391858255959 -0.0000020359814393371036 -0.000002034109549914195 -0.00000202881274301023
          -0.0000022476920373850386 -0.0000022451386475958415 -0.0000022375909985431854 -0.0000024779782696911243 -0.0000024741923543550546 -0.0000024621119515248495
          -0.000002733628169442391 -0.0000027279536929541844 -0.0000027087416498541647 -0.0000030261285265080386 -0.0000030178682924552553 -0.0000029885378698476355
          -0.0000033753354777853316 -0.0000033639563097330805 -0.0000033223133183116117 -0.0000038081321260237685 -0.000003793698861366167 -0.0000037412691615723308
          -0.00000435918082947527 -0.000004340347297394941 -0.000004275274286959255 -0.000005089637287669456 -0.000005067133732477414 -0.000004990749715845132
          -1.8122081808928464e-7 0 -1.827790315710092e-7 0 -1.8925368692405287e-7 0
          -3.266985692038104e-7 -3.2719952987834363e-7 -3.2757049426959884e-7 -4.6853521412412774e-7 -4.6837536010596463e-7 -4.6769179952237156e-7
          -6.152735880094447e-7 -6.152086692664822e-7 -6.153045422017481e-7 -7.64815738800327e-7 -7.6484163975825e-7 -7.649852526405186e-7
          -9.15973960438619e-7 -9.160066718507576e-7 -9.16389574228193e-7 -0.000002712481870543941 -0.0000027056995662949505 -0.0000026851012020115898
          -0.0000030572185695267076 -0.000003047682240022862 -0.000003018632256577758 -0.0000034842770716942775 -0.0000034714961326975957 -0.0000034325244978427364
          -0.000004029724169669472 -0.000004013544671946366 -0.0000039645516218956415 -0.000004737097152240922 -0.0000047179884980743474 -0.000004660290049838092
          -0.000006316243635741326 -0.0000063007203953140985 -0.000006252920367536259 -0.000005658747219575954 -0.0000056380629153242515 -0.00000557600254125955
          -0.0000076085431653396186 -0.000007593268081402184 -0.000007547092483189273 -0.000006840165288838224 -0.000006819590641657086 -0.0000067594835693284805
          -0.000009173043981358582 -0.000009159236366548721 -0.000009117846153492862 -0.000008315632299053012 -0.00000829749866975897 -0.00000824350666445428
          -0.000011024742691928493 -0.000011013465716501822 -0.000010979387944142855 -0.000003840135609832914 -0.000003839358197528105 -0.0000038386572649349695
          -0.000003838188202383727 -0.000003837144116762345 -0.0000038375484408018595 -0.000003843165712528065 -0.000003840783582231337 -0.000003836861650661123
          -0.000003850509322597188 -0.000003846794835129824 -0.000003838875800380819 -0.000003865771254558757 -0.000003860500573257704 -0.000003846721320977255
          -0.00000389508477239624 -0.000003888614417915538 -0.000003867371092991251 -0.0000039487558515992845 -0.000003940360945952806 -0.000003910149716292656
          -0.000004037097830882577 -0.0000040253171429300015 -0.000003985374839727025 -0.000004171530817622647 -0.000004155943879527542 -0.000004102550050018751
          -0.00000477494583457565 -0.000004756245133068036 -0.000004690161302329019 -0.000006057964818461169 -0.0000055894942588584354 -0.000006032916488211667
          -0.000005566967234869331 -0.000005957062709174074 -0.00000549431935562556 -1.8153589033479784e-7 0 -1.830255532196949e-7
          0 -1.8907719880208638e-7 0 -3.308585463258703e-7 -3.317307003237913e-7 -3.3365009109257804e-7
          -4.6997433494620496e-7 -4.700007065808397e-7 -4.7020016405396016e-7 -6.101957718837353e-7 -6.101075165874136e-7 -6.100022246117458e-7
          -7.552906197611805e-7 -7.550084503793221e-7 -7.542608333496366e-7 -9.065974110811272e-7 -9.060292497279831e-7 -9.046508386348176e-7
          -0.0000010677215857825752 -0.0000010675430473170827 -0.000001067461957331719 -0.0000010657368617673466 -0.0000010648371478202279 -0.0000010622117281883602
          -0.000001220435399146423 -0.0000012200112147792027 -0.0000012188236737317254 -0.000001381058642610412 -0.0000013803492289089024 -0.0000013781072869171467
          -0.0000015537505307234777 -0.0000015526099306230459 -0.0000015493863728301635 -0.0000017414440724326699 -0.00000173979231313828 -0.0000017352135708749275
          -0.000001946106198032627 -0.0000019437324745219133 -0.0000019370742283568263 -0.0000021708754957968627 -0.000002167587591660674 -0.000002158071963585575
          -0.000002422800611505879 -0.0000024180509488895817 -0.0000024039368914623958 -0.0000032323821049013325 -0.000002800868867156612 -0.000003223236870594771
          -0.000002793700916089771 -0.0000031948930219804293 -0.000002771317931095726 -0.0000037656405347993737 -0.0000037544293228500842 -0.0000037195456594155673
          -0.000004432694947441643 -0.000004419511044837669 -0.000004378752830013241 -0.00000526985846759694 -0.000005255079629934783 -0.000005209670859900844
          -0.000008412181375321112 -0.0000070394299611758945 -0.000008400044361434925 -0.00000702673582287811 -0.000008364157236652895 -0.000006988636806942188
          -0.000010017623734485196 -0.000010006945716871192 -0.000009975201589233037 -0.000011863282510295893 -0.000011854881422200937 -0.00001182987970231901
          -0.000013943248014429017 -0.0000139380394225529 -0.000013922547044621284 -0.000010112937704592657 -0.000007314454897279783 -0.000010098925297148671
          -0.000007288845109985371 -0.000010056265963746998 -0.000007217708284417791 -0.000013163408269791354 -0.000013155920345184993 -0.000013133659743436405
          -0.000016230789974436854 -0.00001622989818391922 -0.000016226812244971288
        </DataArray>
        <DataArray type="Float64" Name="disp_z" format="ascii" RangeMin="-0.0000018933105564747775" RangeMax="0">
          0 0 0 0 -5.524880485140211e-8 -5.5071560143377363e-8
          -5.559578458266492e-8 -5.5278350553253386e-8 -1.1030694715039683e-7 -1.1047255534439625e-7 -1.1063699413576882e-7 -1.1100851138450915e-7
          0 0 -5.490135747594674e-8 -5.7261872505478974e-8 -1.1364250002307864e-7 -1.1143028314528379e-7
          0 0 -5.569101794382538e-8 -5.570829878511484e-8 -1.1118653675192498e-7 -1.1131287746745016e-7
          0 0 -5.3749798607901236e-8 -5.418691981087257e-8 -1.0750711754921055e-7 -1.0799500285421646e-7
          0 0 -4.8173199180073703e-8 -4.821524636538833e-8 -9.664321522838066e-8 -9.659579196462614e-8
          0 0 -4.546113486696296e-8 -4.5373355269968144e-8 -9.149437222254714e-8 -9.121536097553798e-8
          0 0 -4.6053980329650834e-8 -4.599186264884725e-8 -9.251118906898318e-8 -9.231084052294505e-8
          0 0 -4.848902885256604e-8 -4.845785539552362e-8 -9.71134968560331e-8 -9.702747300186614e-8
          0 0 -5.100859047111597e-8 -5.107510164673087e-8 -1.0195916542756501e-7 -1.020684985426926e-7
          0 0 -5.319875193804166e-8 -5.32919237247606e-8 -1.0633158021452985e-7 -1.0649536670526003e-7
          0 0 -5.592411417982001e-8 -5.591915515958265e-8 -1.119183672288488e-7 -1.1191811911587876e-7
          0 0 -6.055816208414315e-8 -6.050901553566244e-8 -1.2124512750617726e-7 -1.211562232628099e-7
          0 0 -6.732876034658706e-8 -6.77400779110471e-8 -1.353039612741673e-7 -1.3572949841548564e-7
          0 0 -7.747030407200214e-8 -7.752575886842683e-8 -1.543710366393253e-7 -1.5457000281571776e-7
          0 0 -8.683185920195894e-8 -8.72597504963968e-8 -1.7298565308695711e-7 -1.7357651795043035e-7
          0 0 -9.377772470642329e-8 -9.428194726127302e-8 -1.8657525985271098e-7 -1.873518461672685e-7
          0 0 -9.612305122831044e-8 -9.67548186232967e-8 -1.916334894457301e-7 -1.925397450080478e-7
          0 0 -9.21147792996706e-8 -9.227872552165373e-8 -1.8514019440266177e-7 -1.8516351307952936e-7
          0 0 -8.243135389480459e-8 -8.156932592102486e-8 -1.682131131100384e-7 -1.6692807173197106e-7
          0 0 -5.5028460180066727e-8 -5.561476489821039e-8 -1.1039292641199167e-7 -1.1060311665147437e-7
          0 -5.458777578188207e-8 -1.136834888773796e-7 0 -5.5648502182441637e-8 -1.11164147351771e-7
          0 -5.198500905256853e-8 -1.0576721118534825e-7 0 -4.8405307330032337e-8 -9.715836053903313e-8
          0 -4.570534815547797e-8 -9.238500835014495e-8 0 -4.6303710493984264e-8 -9.319409926220516e-8
          0 -4.8589065480555656e-8 -9.739562395363926e-8 0 -5.081679143047881e-8 -1.0163799231790625e-7
          0 -5.293871660704171e-8 -1.058759912807826e-7 0 -5.590496672446366e-8 -1.1187784547943757e-7
          0 -6.068307462879663e-8 -1.2152715833535661e-7 0 -6.767936824635988e-8 -1.3541670275748788e-7
          0 -7.688915628525499e-8 -1.534999797117199e-7 0 -8.586024740126484e-8 -1.7135453778390427e-7
          0 -9.232483003590776e-8 -1.8429835020704246e-7 0 -9.442688798902934e-8 -1.8927801044077765e-7
          0 -9.153308837533202e-8 -1.854263165931464e-7 0 -8.479889877410725e-8 -1.7397201203719958e-7
          0 0 -5.511635671549238e-8 -5.5333594146724934e-8 -1.1005136816092336e-7 -1.1090439226726637e-7
          0 -5.6682580609756934e-8 -1.1159451914701643e-7 0 -5.5646095020406593e-8 -1.1138845559433038e-7
          0 -5.115443826477185e-8 -1.0290788300730292e-7 0 -4.8983252387900846e-8 -9.887728997633023e-8
          0 -4.6353334241261095e-8 -9.414394953416252e-8 0 -4.684589072349494e-8 -9.459565631887286e-8
          0 -4.877312327315264e-8 -9.786326651777813e-8 0 -5.050900112325104e-8 -1.011592283804403e-7
          0 -5.2559451040770656e-8 -1.0525205052630097e-7 0 -5.583534554471906e-8 -1.11788640513625e-7
          0 -6.094182907344753e-8 -1.2207426021326665e-7 0 -6.782316183783877e-8 -1.3571141863663938e-7
          0 -7.600826956546584e-8 -1.520337271381314e-7 0 -8.433733637752907e-8 -1.6877779069607485e-7
          0 -9.009556566914331e-8 -1.810217717473345e-7 0 -9.21547845834047e-8 -1.866222238360994e-7
          0 -9.097847930802631e-8 -1.870453276689236e-7 0 -8.874871181977112e-8 -1.8623433362173369e-7
          0 0 -5.4947899369110635e-8 -5.538077150343747e-8 -1.0976264883888169e-7 -1.1079234124563722e-7
          0 -5.6349721534182267e-8 -1.1199385277120612e-7 0 -5.578633604575104e-8 -1.1174594552822814e-7
          0 -5.192276868040201e-8 -1.0310927848124749e-7 0 -5.0430682114154784e-8 -1.0149451373541632e-7
          0 -4.799288473899905e-8 -9.767962051578296e-8 0 -4.7953680022767773e-8 -9.707948354407433e-8
          0 -4.90289238353851e-8 -9.851813725249375e-8 0 -5.01577690666223e-8 -1.0069458506480365e-7
          0 -5.2140679327001063e-8 -1.0462509336453605e-7 0 -5.5757747750094246e-8 -1.1179458082525279e-7
          0 -6.123627037287586e-8 -1.227109672772881e-7 0 -6.755196641491188e-8 -1.3510963614665716e-7
          0 -7.491606424919499e-8 -1.504975841957284e-7 0 -8.226803700906952e-8 -1.6571729511926633e-7
          0 -8.751660806825243e-8 -1.7780752999329458e-7 0 -9.02762955539809e-8 -1.8589238567282583e-7
          0 -9.214176885843827e-8 -1.9318133824861007e-7 0 -9.642013870440557e-8 -2.0691243340470652e-7
          0 0 -5.462615564565114e-8 -5.531024481831601e-8 -1.0917193888018298e-7 -1.1062035808061977e-7
          0 -5.623097251020352e-8 -1.1220200684913376e-7 0 -5.608429538100338e-8 -1.121633604264376e-7
          0 -5.35916773448435e-8 -1.0744314376894914e-7 0 -5.2943062157873435e-8 -1.0498997954084357e-7
          0 -5.1800966340303405e-8 -1.0410930650966181e-7 0 -5.003038538989466e-8 -1.009244540480292e-7
          0 -4.9400503004994355e-8 -9.952380181612898e-8 0 -4.995351199157888e-8 -1.0055705132412281e-7
          0 -5.183334599830997e-8 -1.0425498443220322e-7 0 -5.5762435307240995e-8 -1.1215515711758971e-7
          0 -6.152811997038503e-8 -1.2325026136213802e-7 0 -6.698050132553701e-8 -1.349344004950289e-7
          0 -7.385893033637058e-8 -1.493558860289793e-7 0 -8.025893084504896e-8 -1.6341106478820879e-7
          0 -8.571194834993443e-8 -1.7664108779477988e-7 0 -9.079908774449063e-8 -1.9048584963784904e-7
          0 -9.780157081828391e-8 -2.0915091615746338e-7 0 -1.1211411139234321e-7 -2.4260480890982454e-7
          0 0 -5.386114702869361e-8 -5.506380480975406e-8 -1.0796569776067434e-7 -1.102338241789289e-7
          0 -5.619578118883556e-8 -1.1252682258895973e-7 0 -5.6347433048681694e-8 -1.1251095604104822e-7
          0 -5.5824263073023814e-8 -1.1261262130604124e-7 0 -5.506777223299674e-8 -1.1095557347624722e-7
          0 -5.919748737060709e-8 -1.1313624192720042e-7 0 -5.3397007529263326e-8 -1.0574882164314708e-7
          0 -5.0165566022204944e-8 -1.014624409397838e-7 0 -5.020112048670948e-8 -1.0110268846754965e-7
          0 -5.1875190586120635e-8 -1.0455104696233822e-7 0 -5.611839468081903e-8 -1.1314764053498186e-7
          0 -6.174754530185666e-8 -1.241191316972503e-7 0 -6.672225702564255e-8 -1.351451186659864e-7
          0 -7.352478763781108e-8 -1.495714329351516e-7 0 -7.965968537548676e-8 -1.63648218019622e-7
          0 -8.691634076318897e-8 -1.8088864640397964e-7 0 -9.71882699358143e-8 -2.0521905366266835e-7
          0 -1.1354738685833482e-7 -2.4244440311235747e-7 0 -1.416230188859773e-7 -3.0254132524388196e-7
          0 0 -5.205203174469133e-8 -5.453109379618824e-8 -1.0543672853920296e-7 -1.094497903574777e-7
          0 -5.597955397322427e-8 -1.1290384107605941e-7 0 -5.655351666957271e-8 -1.1305005273166116e-7
          0 -5.742418592109272e-8 -1.1461788670612548e-7 0 -5.746525182064524e-8 -1.1570476638940682e-7
          0 -6.048582976523401e-8 -1.1852120481708604e-7 0 -5.698358451459284e-8 -1.1147225103855827e-7
          0 -5.212676166623323e-8 -1.0468430592543803e-7 0 -5.1177826373548783e-8 -1.0272097531022095e-7
          0 -5.268319109120892e-8 -1.0598321018194455e-7 0 -5.711857455804948e-8 -1.1511184564759904e-7
          0 -6.251478378750545e-8 -1.260984798558236e-7 0 -6.78966382191105e-8 -1.376171077303025e-7
          0 -7.497592352385424e-8 -1.5233082087527594e-7 0 -8.260288151841891e-8 -1.6907101666417028e-7
          0 -9.45603065905033e-8 -1.9466527308413037e-7 0 -1.1442145520706472e-7 -2.3576221342199054e-7
          0 -1.4656882557708452e-7 -3.010014889245249e-7 0 -1.9441978483183358e-7 -3.97728555239937e-7
          0 0 -4.791131458533296e-8 -5.321668756307532e-8 -1.0076268895533165e-7 -1.0865124126292503e-7
          0 -5.6827683296399466e-8 -1.1105227041393446e-7 0 -5.676824959634227e-8 -1.1368660135187903e-7
          0 -5.7759895414494764e-8 -1.1534286153209809e-7 0 -5.900460505874641e-8 -1.169975266203486e-7
          0 -5.865710237191819e-8 -1.1768671235728718e-7 0 -5.8418351423496466e-8 -1.1586851914711568e-7
          0 -5.5976261547838515e-8 -1.0902607539449953e-7 0 -5.290056729059206e-8 -1.0556977174814737e-7
          0 -5.469219931717982e-8 -1.0912205495645814e-7 0 -5.903153581432513e-8 -1.1838448443987186e-7
          0 -6.463586538144014e-8 -1.2990286910751328e-7 0 -7.11596551284648e-8 -1.4278775835430207e-7
          0 -7.951041174938737e-8 -1.595660303789806e-7 0 -9.129467942741498e-8 -1.8287026906734268e-7
          0 -1.1171644677798573e-7 -2.2233767347324945e-7 0 -1.462216554029991e-7 -2.87827376149424e-7
          0 -2.0051626227282835e-7 -3.9043679502696764e-7 0 -2.758922297509649e-7 -5.347571396144312e-7
          0 0 -4.527942533917747e-8 -5.2823807799518844e-8 -8.346865784364949e-8 -1.0593832428030645e-7
          0 -5.583266911404457e-8 -1.107667011491009e-7 0 -5.716907695212464e-8 -1.1411336291495178e-7
          0 -5.800802160144595e-8 -1.1552968842568531e-7 0 -5.882839622205885e-8 -1.1692584786356928e-7
          0 -5.849901154156058e-8 -1.1682086758700975e-7 0 -5.8019205029106276e-8 -1.1600218669346485e-7
          0 -5.649318957273092e-8 -1.1183726054100362e-7 0 -5.4992578303320685e-8 -1.1054006986730612e-7
          0 -5.7195762800996444e-8 -1.1536786569454135e-7 0 -6.159966055584157e-8 -1.237082361414863e-7
          0 -6.713915463543719e-8 -1.358890406676479e-7 0 -7.589384401580072e-8 -1.5394788605489608e-7
          0 -8.633537031478243e-8 -1.7587437572457963e-7 0 -1.0409049345822803e-7 -2.1250009766885958e-7
          0 -1.3470524130820182e-7 -2.746816447269858e-7 0 -1.8484456386914396e-7 -3.755869265979845e-7
          0 -2.62073319498185e-7 -5.287955383202928e-7 0 -3.688062818196802e-7 -7.393040956727124e-7
          0 -4.940921196553993e-7 -9.890919911868542e-7 0 -6.578704247149999e-7 -0.000001304538137271709
          0 0 -6.299967959877689e-8 -8.337005712141952e-8 -1.240619239013194e-7 -1.7553832039511767e-7
          0 -5.5946179505320465e-8 -1.1279045534677827e-7 0 -5.896303173435996e-8 -1.1801195410187794e-7
          0 -5.90579609508925e-8 -1.1791590946510199e-7 0 -5.862326151479396e-8 -1.1726633305131962e-7
          0 -5.797209053977974e-8 -1.1604533233373379e-7 0 -1.4716600043792393e-7 -2.968169246143369e-7
          0 -1.9315643925636653e-7 -3.880722321719025e-7 0 -2.5722757761386297e-7 -5.144956740182074e-7
          0 -3.4116971572864675e-7 -6.79178165845157e-7 0 -4.436156203215753e-7 -8.791077782345483e-7
          0 -5.283869692223308e-7 -0.0000010587040427955475 0 -5.623479512280204e-7 -0.0000011091871094069437
          0 -6.174194387461377e-7 -0.0000012364387104727686 0 -6.734146676371902e-7 -0.0000013298156179688367
          0 -7.001413236580226e-7 -0.000001401261042574585 0 -7.846286097532807e-7 -0.0000015496322750945645
          0 -7.702130725685172e-7 -0.000001541346821662677 0 0 -7.460884659404599e-8
          -7.31597417142417e-8 -1.5651789903522326e-7 -1.530962982297089e-7 0 -7.970140779746042e-8 -1.6862349781456066e-7
          0 -9.008157987638311e-8 -1.9350833331847568e-7 0 -1.0816594239044609e-7 -2.353776203438765e-7
          0 -1.3873252418235285e-7 -3.0168265642093327e-7 0 -1.887831679114607e-7 -3.9955016287063733e-7
          0 -2.6454700477048897e-7 -5.377669977279268e-7 0 -3.703048151025324e-7 -7.142818435759859e-7
          0 -5.08945035912017e-7 -9.774775824488817e-7 0 0 -8.205330501186986e-7
          -6.632215870274751e-7 -0.000001617838526514231 -0.000001282810152647786 0 0 -6.361178203618376e-8
          -7.990462351399892e-8 -1.250679522819394e-7 -1.7077067707673256e-7 0 -5.5680009347627006e-8 -1.1150854439942922e-7
          0 -5.4446131611932754e-8 -1.0902434820800027e-7 0 -5.3925217047668865e-8 -1.0804128132798918e-7
          0 -5.4517801314887805e-8 -1.0939862725599757e-7 0 -5.6094509994260495e-8 -1.1266095433994656e-7
          0 -5.651595113444786e-8 -1.1331874375477813e-7 0 -5.9117109184321e-8 -1.1888226635776224e-7
          0 -5.699352334709956e-8 -1.149361718200085e-7 0 -6.062412013905114e-8 -1.216237855496266e-7
          0 -6.548710691215322e-8 -1.315113289683458e-7 0 -7.169810817500577e-8 -1.4417722444327913e-7
          0 -8.105375328261934e-8 -1.636508348429126e-7 0 -9.491313627270054e-8 -1.9173888108651506e-7
          0 -1.1570052674031201e-7 -2.338114146176824e-7 0 0 -2.2474449431780484e-7
          -1.7704918210453664e-7 -4.531365508143867e-7 -3.5784675009049844e-7 0 -2.84872264685421e-7 -5.733762371326216e-7
          0 -3.5720870578532974e-7 -7.175685922321241e-7 0 -4.393715808684168e-7 -8.812095263126242e-7
          0 0 -6.060190274959619e-7 -5.358811032663241e-7 -0.0000012087321468768639 -0.0000010691174327628368
          0 -6.694423358696132e-7 -0.0000013354549835506276 0 -7.232387035099335e-7 -0.0000014427753383686612
          0 -7.612193675498244e-7 -0.0000015184945298392255 0 0 -8.762111339329712e-7
          -9.600437545360194e-7 -0.0000017328149216777794 -0.0000018933105564747775 0 -8.248914014467909e-7 -0.0000016491807417149184
          0 -7.789997314593273e-7 -0.0000015540170684016179
        </DataArray>
      </PointData>
      <CellData>
        <DataArray type="Int32" Name="libmesh_elem_id" format="ascii" RangeMin="0" RangeMax="1173">
          0 1 2 3 4 5
          6 7 8 9 10 11
          12 13 14 15 16 17
          18 19 20 21 22 23
          24 25 26 27 28 29
          30 31 32 33 34 35
          36 37 38 39 58 59
          60 61 62 63 64 65
          66 67 68 69 70 71
          72 73 74 75 76 77
          78 79 80 81 82 83
          84 85 86 87 88 89
          90 91 92 93 94 95
          96 97 116 117 118 119
          120 121 122 123 124 125
          126 127 128 129 130 131
          132 133 134 135 136 137
          138 139 140 141 142 143
          144 145 146 147 148 149
          150 151 152 153 154 155
          174 175 176 177 178 179
          180 181 182 183 184 185
          186 187 188 189 190 191
          192 193 194 195 196 197
          198 199 200 201 202 203
          204 205 206 207 208 209
          210 211 212 213 232 233
          234 235 236 237 238 239
          240 241 242 243 244 245
          246 247 248 249 250 251
          252 253 254 255 256 257
          258 259 260 261 262 263
          264 265 266 267 268 269
          270 271 290 291 292 293
          294 295 296 297 298 299
          300 301 302 303 304 305
          306 307 308 309 310 311
          312 313 314 315 316 317
          318 319 320 321 322 323
          324 325 326 327 328 329
          348 349 350 351 352 353
          354 355 356 357 358 359
          360 361 362 363 364 365
          366 367 368 369 370 371
          372 373 374 375 376 377
          378 379 380 381 382 383
          384 385 386 387 406 407
          408 409 410 411 412 413
          414 415 416 417 418 419
          420 421 422 423 424 425
          426 427 428 429 430 431
          432 433 434 435 436 437
          438 439 440 441 442 443
          444 445 464 465 466 467
          468 469 470 471 472 473
          474 475 476 477 478 479
          480 481 482 483 484 485
          486 487 488 489 490 491
          492 493 494 495 496 497
          498 499 500 501 502 503
          504 505 506 507 772 773
          774 775 790 791 792 793
          808 809 810 811 826 827
          828 829 844 845 846 847
          862 863 864 865 880 881
          882 883 898 899 916 917
          934 935 952 953 970 971
          988 989 1006 1007 1024 1025
          1026 1027 1042 1043 1044 1045
          1060 1061 1062 1063 1078 1079
          1080 1081 1096 1097 1098 1099
          1100 1101 1114 1115 1116 1117
          1118 1119 1132 1133 1134 1135
          1136 1137 1150 1151 1152 1153
          1154 1155 1168 1169 1170 1171
          1172 1173
        </DataArray>
        <DataArray type="Int32" Name="subdomain_id" format="ascii" RangeMin="103" RangeMax="105">
          103 103 103 103 103 103
          103 103 103 103 103 103
          103 103 103 103 103 103
          103 103 103 103 103 103
          103 103 103 103 103 103
          103 103 103 103 103 103
          103 103 103 103 103 103
          103 103 103 103 103 103
          103 103 103 103 103 103
          103 103 103 103 103 103
          103 103 103 103 103 103
          103 103 103 103 103 103
          103 103 103 103 103 103
          103 103 103 103 103 103
          103 103 103 103 103 103
          103 103 103 103 103 103
          103 103 103 103 103 103
          103 103 103 103 103 103
          103 103 103 103 103 103
          103 103 103 103 103 103
          103 103 103 103 103 103
          103 103 103 103 103 103
          103 103 103 103 103 103
          103 103 103 103 103 103
          103 103 103 103 103 103
          103 103 103 103 103 103
          103 103 103 103 103 103
          103 103 103 103 103 103
          103 103 103 103 103 103
          103 103 103 103 103 103
          103 103 103 103 103 103
          103 103 103 103 103 103
          103 103 103 103 103 103
          103 103 103 103 103 103
          103 103 103 103 103 103
          103 103 103 103 103 103
          103 103 103 103 103 103
          103 103 103 103 103 103
          103 103 103 103 103 103
          103 103 103 103 103 103
          103 103 103 103 103 103
          103 103 103 103 103 103
          103 103 103 103 103 103
          103 103 103 103 103 103
          103 103 103 103 103 103
          103 103 103 103 103 103
          103 103 103 103 103 103
          103 103 103 103 103 103
          103 103 103 103 103 103
          103 103 103 103 103 103
          103 103 103 103 103 103
          103 103 103 103 103 103
          103 103 103 103 103 103
          103 103 103 103 103 103
          103 103 103 103 103 103
          103 103 103 103 103 103
          103 103 103 103 103 103
          103 103 103 103 103 103
          103 103 103 103 103 103
          103 103 103 103 103 103
          103 103 103 103 105 105
          105 105 105 105 105 105
          105 105 105 105 105 105
          105 105 105 105 105 105
          105 105 105 105 105 105
          105 105 105 105 105 105
          105 105 105 105 105 105
          105 105 105 105 105 105
          105 105 105 105 105 105
          105 105 105 105 105 105
          105 105 105 105 105 105
          105 105 105 105 105 105
          105 105 105 105 105 105
          105 105 105 105 105 105
          105 105 105 105 105 105
          105 105
        </DataArray>
        <DataArray type="Int32" Name="processor_id" format="ascii" RangeMin="7" RangeMax="7">
          7 7 7 7 7 7
          7 7 7 7 7 7
          7 7 7 7 7 7
          7 7 7 7 7 7
          7 7 7 7 7 7
          7 7 7 7 7 7
          7 7 7 7 7 7
          7 7 7 7 7 7
          7 7 7 7 7 7
          7 7 7 7 7 7
          7 7 7 7 7 7
          7 7 7 7 7 7
          7 7 7 7 7 7
          7 7 7 7 7 7
          7 7 7 7 7 7
          7 7 7 7 7 7
          7 7 7 7 7 7
          7 7 7 7 7 7
          7 7 7 7 7 7
          7 7 7 7 7 7
          7 7 7 7 7 7
          7 7 7 7 7 7
          7 7 7 7 7 7
          7 7 7 7 7 7
          7 7 7 7 7 7
          7 7 7 7 7 7
          7 7 7 7 7 7
          7 7 7 7 7 7
          7 7 7 7 7 7
          7 7 7 7 7 7
          7 7 7 7 7 7
          7 7 7 7 7 7
          7 7 7 7 7 7
          7 7 7 7 7 7
          7 7 7 7 7 7
          7 7 7 7 7 7
          7 7 7 7 7 7
          7 7 7 7 7 7
          7 7 7 7 7 7
          7 7 7 7 7 7
          7 7 7 7 7 7
          7 7 7 7 7 7
          7 7 7 7 7 7
          7 7 7 7 7 7
          7 7 7 7 7 7
          7 7 7 7 7 7
          7 7 7 7 7 7
          7 7 7 7 7 7
          7 7 7 7 7 7
          7 7 7 7 7 7
          7 7 7 7 7 7
          7 7 7 7 7 7
          7 7 7 7 7 7
          7 7 7 7 7 7
          7 7 7 7 7 7
          7 7 7 7 7 7
          7 7 7 7 7 7
          7 7 7 7 7 7
          7 7 7 7 7 7
          7 7 7 7 7 7
          7 7 7 7 7 7
          7 7 7 7 7 7
          7 7 7 7 7 7
          7 7 7 7 7 7
          7 7 7 7 7 7
          7 7 7 7 7 7
          7 7 7 7 7 7
          7 7 7 7 7 7
          7 7 7 7 7 7
          7 7 7 7 7 7
          7 7 7 7 7 7
          7 7 7 7 7 7
          7 7 7 7 7 7
          7 7 7 7 7 7
          7 7 7 7 7 7
          7 7
        </DataArray>
      </CellData>
      <Points>
        <DataArray type="Float64" Name="Points" NumberOfComponents="3" format="ascii" RangeMin="0" RangeMax="0.009803689505302022">
          0 0 0 0.00011111111111093 0 0
          0.00011111111111095 0.00041379310344969 0 0 0.00041379310344996 0
          0 0 0.00015 0.00011111111111093 0 0.00015
          0.00011111111111095 0.00041379310344969 0.00015 0 0.00041379310344996 0.00015
          0 0 0.0003 0.00011111111111093 0 0.0003
          0.00011111111111095 0.00041379310344969 0.0003 0 0.00041379310344996 0.0003
          0.00011111111111096 0.00082758620689912 0 0 0.00082758620689964 0
          0.00011111111111096 0.00082758620689912 0.00015 0 0.00082758620689964 0.00015
          0.00011111111111096 0.00082758620689912 0.0003 0 0.00082758620689964 0.0003
          0.00011111111111098 0.0012413793103467 0 0 0.0012413793103472 0
          0.00011111111111098 0.0012413793103467 0.00015 0 0.0012413793103472 0.00015
          0.00011111111111098 0.0012413793103467 0.0003 0 0.0012413793103472 0.0003
          0.00011111111111099 0.0016551724137963 0 0 0.0016551724137971 0
          0.00011111111111099 0.0016551724137963 0.00015 0 0.0016551724137971 0.00015
          0.00011111111111099 0.0016551724137963 0.0003 0 0.0016551724137971 0.0003
          0.00011111111111101 0.002068965517246 0 0 0.0020689655172471 0
          0.00011111111111101 0.002068965517246 0.00015 0 0.0020689655172471 0.00015
          0.00011111111111101 0.002068965517246 0.0003 0 0.0020689655172471 0.0003
          0.00011111111111102 0.0024827586206956 0 0 0.002482758620697 0
          0.00011111111111102 0.0024827586206956 0.00015 0 0.002482758620697 0.00015
          0.00011111111111102 0.0024827586206956 0.0003 0 0.002482758620697 0.0003
          0.00011111111111104 0.0028965517241444 0 0 0.002896551724146 0
          0.00011111111111104 0.0028965517241444 0.00015 0 0.002896551724146 0.00015
          0.00011111111111104 0.0028965517241444 0.0003 0 0.002896551724146 0.0003
          0.00011111111111105 0.0033103448275919 0 0 0.0033103448275936 0
          0.00011111111111105 0.0033103448275919 0.00015 0 0.0033103448275936 0.00015
          0.00011111111111105 0.0033103448275919 0.0003 0 0.0033103448275936 0.0003
          0.00011111111111107 0.0037241379310415 0 0 0.0037241379310435 0
          0.00011111111111107 0.0037241379310415 0.00015 0 0.0037241379310435 0.00015
          0.00011111111111107 0.0037241379310415 0.0003 0 0.0037241379310435 0.0003
          0.00011111111111108 0.0041379310344912 0 0 0.0041379310344935 0
          0.00011111111111108 0.0041379310344912 0.00015 0 0.0041379310344935 0.00015
          0.00011111111111108 0.0041379310344912 0.0003 0 0.0041379310344935 0.0003
          0.0001111111111111 0.0045517241379399 0 0 0.0045517241379424 0
          0.0001111111111111 0.0045517241379399 0.00015 0 0.0045517241379424 0.00015
          0.0001111111111111 0.0045517241379399 0.0003 0 0.0045517241379424 0.0003
          0.00011111111111111 0.004965517241389 0 0 0.0049655172413917 0
          0.00011111111111111 0.004965517241389 0.00015 0 0.0049655172413917 0.00015
          0.00011111111111111 0.004965517241389 0.0003 0 0.0049655172413917 0.0003
          0.00011111111111113 0.0053793103448383 0 0 0.0053793103448414 0
          0.00011111111111113 0.0053793103448383 0.00015 0 0.0053793103448414 0.00015
          0.00011111111111113 0.0053793103448383 0.0003 0 0.0053793103448414 0.0003
          0.00011111111111114 0.005793103448287 0 0 0.0057931034482903 0
          0.00011111111111114 0.005793103448287 0.00015 0 0.0057931034482903 0.00015
          0.00011111111111114 0.005793103448287 0.0003 0 0.0057931034482903 0.0003
          0.00011111111111116 0.0062068965517355 0 0 0.0062068965517387 0
          0.00011111111111116 0.0062068965517355 0.00015 0 0.0062068965517387 0.00015
          0.00011111111111116 0.0062068965517355 0.0003 0 0.0062068965517387 0.0003
          0.00011111111111117 0.006620689655183 0 0 0.006620689655186 0
          0.00011111111111117 0.006620689655183 0.00015 0 0.006620689655186 0.00015
          0.00011111111111117 0.006620689655183 0.0003 0 0.006620689655186 0.0003
          0.00011111111111119 0.0070344827586302 0 0 0.007034482758633 0
          0.00011111111111119 0.0070344827586302 0.00015 0 0.007034482758633 0.00015
          0.00011111111111119 0.0070344827586302 0.0003 0 0.007034482758633 0.0003
          0.0001111111111112 0.0074482758620775 0 0 0.00744827586208 0
          0.0001111111111112 0.0074482758620775 0.00015 0 0.00744827586208 0.00015
          0.0001111111111112 0.0074482758620775 0.0003 0 0.00744827586208 0.0003
          0.00011111111111122 0.0078620689655252 0 0 0.0078620689655276 0
          0.00011111111111122 0.0078620689655252 0.00015 0 0.0078620689655276 0.00015
          0.00011111111111122 0.0078620689655252 0.0003 0 0.0078620689655276 0.0003
          0.00022222222222175 0 0 0.00022222222222178 0.00041379310344941 0
          0.00022222222222175 0 0.00015 0.00022222222222178 0.00041379310344941 0.00015
          0.00022222222222175 0 0.0003 0.00022222222222178 0.00041379310344941 0.0003
          0.00022222222222182 0.0008275862068986 0 0.00022222222222182 0.0008275862068986 0.00015
          0.00022222222222182 0.0008275862068986 0.0003 0.00022222222222185 0.0012413793103461 0
          0.00022222222222185 0.0012413793103461 0.00015 0.00022222222222185 0.0012413793103461 0.0003
          0.00022222222222188 0.0016551724137956 0 0.00022222222222188 0.0016551724137956 0.00015
          0.00022222222222188 0.0016551724137956 0.0003 0.00022222222222192 0.0020689655172449 0
          0.00022222222222192 0.0020689655172449 0.00015 0.00022222222222192 0.0020689655172449 0.0003
          0.00022222222222195 0.0024827586206942 0 0.00022222222222195 0.0024827586206942 0.00015
          0.00022222222222195 0.0024827586206942 0.0003 0.00022222222222199 0.0028965517241428 0
          0.00022222222222199 0.0028965517241428 0.00015 0.00022222222222199 0.0028965517241428 0.0003
          0.00022222222222202 0.0033103448275902 0 0.00022222222222202 0.0033103448275902 0.00015
          0.00022222222222202 0.0033103448275902 0.0003 0.00022222222222205 0.0037241379310395 0
          0.00022222222222205 0.0037241379310395 0.00015 0.00022222222222205 0.0037241379310395 0.0003
          0.00022222222222209 0.0041379310344889 0 0.00022222222222209 0.0041379310344889 0.00015
          0.00022222222222209 0.0041379310344889 0.0003 0.00022222222222212 0.0045517241379374 0
          0.00022222222222212 0.0045517241379374 0.00015 0.00022222222222212 0.0045517241379374 0.0003
          0.00022222222222216 0.0049655172413862 0 0.00022222222222216 0.0049655172413862 0.00015
          0.00022222222222216 0.0049655172413862 0.0003 0.00022222222222219 0.0053793103448353 0
          0.00022222222222219 0.0053793103448353 0.00015 0.00022222222222219 0.0053793103448353 0.0003
          0.00022222222222222 0.0057931034482838 0 0.00022222222222222 0.0057931034482838 0.00015
          0.00022222222222222 0.0057931034482838 0.0003 0.00022222222222226 0.0062068965517323 0
          0.00022222222222226 0.0062068965517323 0.00015 0.00022222222222226 0.0062068965517323 0.0003
          0.00022222222222229 0.0066206896551799 0 0.00022222222222229 0.0066206896551799 0.00015
          0.00022222222222229 0.0066206896551799 0.0003 0.00022222222222232 0.0070344827586275 0
          0.00022222222222232 0.0070344827586275 0.00015 0.00022222222222232 0.0070344827586275 0.0003
          0.00022222222222236 0.007448275862075 0 0.00022222222222236 0.007448275862075 0.00015
          0.00022222222222236 0.007448275862075 0.0003 0.00022222222222239 0.0078620689655229 0
          0.00022222222222239 0.0078620689655229 0.00015 0.00022222222222239 0.0078620689655229 0.0003
          0.00033333333333257 0 0 0.00033333333333262 0.00041379310344914 0
          0.00033333333333257 0 0.00015 0.00033333333333262 0.00041379310344914 0.00015
          0.00033333333333257 0 0.0003 0.00033333333333262 0.00041379310344914 0.0003
          0.00033333333333268 0.00082758620689808 0 0.00033333333333268 0.00082758620689808 0.00015
          0.00033333333333268 0.00082758620689808 0.0003 0.00033333333333273 0.0012413793103456 0
          0.00033333333333273 0.0012413793103456 0.00015 0.00033333333333273 0.0012413793103456 0.0003
          0.00033333333333278 0.0016551724137948 0 0.00033333333333278 0.0016551724137948 0.00015
          0.00033333333333278 0.0016551724137948 0.0003 0.00033333333333283 0.0020689655172438 0
          0.00033333333333283 0.0020689655172438 0.00015 0.00033333333333283 0.0020689655172438 0.0003
          0.00033333333333289 0.0024827586206928 0 0.00033333333333289 0.0024827586206928 0.00015
          0.00033333333333289 0.0024827586206928 0.0003 0.00033333333333294 0.0028965517241412 0
          0.00033333333333294 0.0028965517241412 0.00015 0.00033333333333294 0.0028965517241412 0.0003
          0.00033333333333299 0.0033103448275885 0 0.00033333333333299 0.0033103448275885 0.00015
          0.00033333333333299 0.0033103448275885 0.0003 0.00033333333333305 0.0037241379310375 0
          0.00033333333333305 0.0037241379310375 0.00015 0.00033333333333305 0.0037241379310375 0.0003
          0.0003333333333331 0.0041379310344865 0 0.0003333333333331 0.0041379310344865 0.00015
          0.0003333333333331 0.0041379310344865 0.0003 0.00033333333333315 0.0045517241379349 0
          0.00033333333333315 0.0045517241379349 0.00015 0.00033333333333315 0.0045517241379349 0.0003
          0.0003333333333332 0.0049655172413834 0 0.0003333333333332 0.0049655172413834 0.00015
          0.0003333333333332 0.0049655172413834 0.0003 0.00033333333333326 0.0053793103448322 0
          0.00033333333333326 0.0053793103448322 0.00015 0.00033333333333326 0.0053793103448322 0.0003
          0.00033333333333331 0.0057931034482806 0 0.00033333333333331 0.0057931034482806 0.00015
          0.00033333333333331 0.0057931034482806 0.0003 0.00033333333333336 0.006206896551729 0
          0.00033333333333336 0.006206896551729 0.00015 0.00033333333333336 0.006206896551729 0.0003
          0.00033333333333342 0.0066206896551769 0 0.00033333333333342 0.0066206896551769 0.00015
          0.00033333333333342 0.0066206896551769 0.0003 0.00033333333333347 0.0070344827586248 0
          0.00033333333333347 0.0070344827586248 0.00015 0.00033333333333347 0.0070344827586248 0.0003
          0.00033333333333352 0.0074482758620725 0 0.00033333333333352 0.0074482758620725 0.00015
          0.00033333333333352 0.0074482758620725 0.0003 0.00033333333333357 0.0078620689655205 0
          0.00033333333333357 0.0078620689655205 0.00015 0.00033333333333357 0.0078620689655205 0.0003
          0.00044444444444337 0 0 0.00044444444444345 0.00041379310344886 0
          0.00044444444444337 0 0.00015 0.00044444444444345 0.00041379310344886 0.00015
          0.00044444444444337 0 0.0003 0.00044444444444345 0.00041379310344886 0.0003
          0.00044444444444352 0.00082758620689756 0 0.00044444444444352 0.00082758620689756 0.00015
          0.00044444444444352 0.00082758620689756 0.0003 0.00044444444444359 0.0012413793103451 0
          0.00044444444444359 0.0012413793103451 0.00015 0.00044444444444359 0.0012413793103451 0.0003
          0.00044444444444367 0.001655172413794 0 0.00044444444444367 0.001655172413794 0.00015
          0.00044444444444367 0.001655172413794 0.0003 0.00044444444444374 0.0020689655172427 0
          0.00044444444444374 0.0020689655172427 0.00015 0.00044444444444374 0.0020689655172427 0.0003
          0.00044444444444382 0.0024827586206914 0 0.00044444444444382 0.0024827586206914 0.00015
          0.00044444444444382 0.0024827586206914 0.0003 0.00044444444444389 0.0028965517241395 0
          0.00044444444444389 0.0028965517241395 0.00015 0.00044444444444389 0.0028965517241395 0.0003
          0.00044444444444397 0.0033103448275869 0 0.00044444444444397 0.0033103448275869 0.00015
          0.00044444444444397 0.0033103448275869 0.0003 0.00044444444444404 0.0037241379310355 0
          0.00044444444444404 0.0037241379310355 0.00015 0.00044444444444404 0.0037241379310355 0.0003
          0.00044444444444412 0.0041379310344842 0 0.00044444444444412 0.0041379310344842 0.00015
          0.00044444444444412 0.0041379310344842 0.0003 0.00044444444444419 0.0045517241379324 0
          0.00044444444444419 0.0045517241379324 0.00015 0.00044444444444419 0.0045517241379324 0.0003
          0.00044444444444426 0.0049655172413807 0 0.00044444444444426 0.0049655172413807 0.00015
          0.00044444444444426 0.0049655172413807 0.0003 0.00044444444444434 0.0053793103448292 0
          0.00044444444444434 0.0053793103448292 0.00015 0.00044444444444434 0.0053793103448292 0.0003
          0.00044444444444441 0.0057931034482774 0 0.00044444444444441 0.0057931034482774 0.00015
          0.00044444444444441 0.0057931034482774 0.0003 0.00044444444444449 0.0062068965517258 0
          0.00044444444444449 0.0062068965517258 0.00015 0.00044444444444449 0.0062068965517258 0.0003
          0.00044444444444456 0.0066206896551738 0 0.00044444444444456 0.0066206896551738 0.00015
          0.00044444444444456 0.0066206896551738 0.0003 0.00044444444444464 0.007034482758622 0
          0.00044444444444464 0.007034482758622 0.00015 0.00044444444444464 0.007034482758622 0.0003
          0.00044444444444471 0.00744827586207 0 0.00044444444444471 0.00744827586207 0.00015
          0.00044444444444471 0.00744827586207 0.0003 0.00044444444444479 0.0078620689655182 0
          0.00044444444444479 0.0078620689655182 0.00015 0.00044444444444479 0.0078620689655182 0.0003
          0.00055555555555442 0 0 0.0005555555555545 0.00041379310344859 0
          0.00055555555555442 0 0.00015 0.0005555555555545 0.00041379310344859 0.00015
          0.00055555555555442 0 0.0003 0.0005555555555545 0.00041379310344859 0.0003
          0.00055555555555458 0.00082758620689704 0 0.00055555555555458 0.00082758620689704 0.00015
          0.00055555555555458 0.00082758620689704 0.0003 0.00055555555555465 0.0012413793103446 0
          0.00055555555555465 0.0012413793103446 0.00015 0.00055555555555465 0.0012413793103446 0.0003
          0.00055555555555473 0.0016551724137932 0 0.00055555555555473 0.0016551724137932 0.00015
          0.00055555555555473 0.0016551724137932 0.0003 0.00055555555555481 0.0020689655172416 0
          0.00055555555555481 0.0020689655172416 0.00015 0.00055555555555481 0.0020689655172416 0.0003
          0.00055555555555489 0.0024827586206899 0 0.00055555555555489 0.0024827586206899 0.00015
          0.00055555555555489 0.0024827586206899 0.0003 0.00055555555555497 0.0028965517241379 0
          0.00055555555555497 0.0028965517241379 0.00015 0.00055555555555497 0.0028965517241379 0.0003
          0.00055555555555504 0.0033103448275852 0 0.00055555555555504 0.0033103448275852 0.00015
          0.00055555555555504 0.0033103448275852 0.0003 0.00055555555555512 0.0037241379310336 0
          0.00055555555555512 0.0037241379310336 0.00015 0.00055555555555512 0.0037241379310336 0.0003
          0.0005555555555552 0.0041379310344819 0 0.0005555555555552 0.0041379310344819 0.00015
          0.0005555555555552 0.0041379310344819 0.0003 0.00055555555555528 0.0045517241379299 0
          0.00055555555555528 0.0045517241379299 0.00015 0.00055555555555528 0.0045517241379299 0.0003
          0.00055555555555535 0.0049655172413779 0 0.00055555555555535 0.0049655172413779 0.00015
          0.00055555555555535 0.0049655172413779 0.0003 0.00055555555555543 0.0053793103448261 0
          0.00055555555555543 0.0053793103448261 0.00015 0.00055555555555543 0.0053793103448261 0.0003
          0.00055555555555551 0.0057931034482741 0 0.00055555555555551 0.0057931034482741 0.00015
          0.00055555555555551 0.0057931034482741 0.0003 0.00055555555555559 0.0062068965517226 0
          0.00055555555555559 0.0062068965517226 0.00015 0.00055555555555559 0.0062068965517226 0.0003
          0.00055555555555566 0.0066206896551708 0 0.00055555555555566 0.0066206896551708 0.00015
          0.00055555555555566 0.0066206896551708 0.0003 0.00055555555555574 0.0070344827586193 0
          0.00055555555555574 0.0070344827586193 0.00015 0.00055555555555574 0.0070344827586193 0.0003
          0.00055555555555582 0.0074482758620675 0 0.00055555555555582 0.0074482758620675 0.00015
          0.00055555555555582 0.0074482758620675 0.0003 0.0005555555555559 0.0078620689655158 0
          0.0005555555555559 0.0078620689655158 0.00015 0.0005555555555559 0.0078620689655158 0.0003
          0.00066666666666586 0 0 0.0006666666666659 0.00041379310344831 0
          0.00066666666666586 0 0.00015 0.0006666666666659 0.00041379310344831 0.00015
          0.00066666666666586 0 0.0003 0.0006666666666659 0.00041379310344831 0.0003
          0.00066666666666595 0.00082758620689653 0 0.00066666666666595 0.00082758620689653 0.00015
          0.00066666666666595 0.00082758620689653 0.0003 0.00066666666666599 0.0012413793103441 0
          0.00066666666666599 0.0012413793103441 0.00015 0.00066666666666599 0.0012413793103441 0.0003
          0.00066666666666604 0.0016551724137924 0 0.00066666666666604 0.0016551724137924 0.00015
          0.00066666666666604 0.0016551724137924 0.0003 0.00066666666666608 0.0020689655172404 0
          0.00066666666666608 0.0020689655172404 0.00015 0.00066666666666608 0.0020689655172404 0.0003
          0.00066666666666613 0.0024827586206885 0 0.00066666666666613 0.0024827586206885 0.00015
          0.00066666666666613 0.0024827586206885 0.0003 0.00066666666666617 0.0028965517241363 0
          0.00066666666666617 0.0028965517241363 0.00015 0.00066666666666617 0.0028965517241363 0.0003
          0.00066666666666622 0.0033103448275835 0 0.00066666666666622 0.0033103448275835 0.00015
          0.00066666666666622 0.0033103448275835 0.0003 0.00066666666666626 0.0037241379310316 0
          0.00066666666666626 0.0037241379310316 0.00015 0.00066666666666626 0.0037241379310316 0.0003
          0.0006666666666663 0.0041379310344796 0 0.0006666666666663 0.0041379310344796 0.00015
          0.0006666666666663 0.0041379310344796 0.0003 0.00066666666666635 0.0045517241379274 0
          0.00066666666666635 0.0045517241379274 0.00015 0.00066666666666635 0.0045517241379274 0.0003
          0.00066666666666639 0.0049655172413752 0 0.00066666666666639 0.0049655172413752 0.00015
          0.00066666666666639 0.0049655172413752 0.0003 0.00066666666666644 0.0053793103448231 0
          0.00066666666666644 0.0053793103448231 0.00015 0.00066666666666644 0.0053793103448231 0.0003
          0.00066666666666648 0.0057931034482709 0 0.00066666666666648 0.0057931034482709 0.00015
          0.00066666666666648 0.0057931034482709 0.0003 0.00066666666666653 0.0062068965517194 0
          0.00066666666666653 0.0062068965517194 0.00015 0.00066666666666653 0.0062068965517194 0.0003
          0.00066666666666657 0.0066206896551677 0 0.00066666666666657 0.0066206896551677 0.00015
          0.00066666666666657 0.0066206896551677 0.0003 0.00066666666666661 0.0070344827586165 0
          0.00066666666666661 0.0070344827586165 0.00015 0.00066666666666661 0.0070344827586165 0.0003
          0.00066666666666666 0.0074482758620651 0 0.00066666666666666 0.0074482758620651 0.00015
          0.00066666666666666 0.0074482758620651 0.0003 0.0006666666666667 0.0078620689655135 0
          0.0006666666666667 0.0078620689655135 0.00015 0.0006666666666667 0.0078620689655135 0.0003
          0.00077777777777724 0 0 0.00077777777777728 0.00041379310344804 0
          0.00077777777777724 0 0.00015 0.00077777777777728 0.00041379310344804 0.00015
          0.00077777777777724 0 0.0003 0.00077777777777728 0.00041379310344804 0.0003
          0.00077777777777731 0.00082758620689601 0 0.00077777777777731 0.00082758620689601 0.00015
          0.00077777777777731 0.00082758620689601 0.0003 0.00077777777777734 0.0012413793103436 0
          0.00077777777777734 0.0012413793103436 0.00015 0.00077777777777734 0.0012413793103436 0.0003
          0.00077777777777737 0.0016551724137916 0 0.00077777777777737 0.0016551724137916 0.00015
          0.00077777777777737 0.0016551724137916 0.0003 0.0007777777777774 0.0020689655172393 0
          0.0007777777777774 0.0020689655172393 0.00015 0.0007777777777774 0.0020689655172393 0.0003
          0.00077777777777743 0.0024827586206871 0 0.00077777777777743 0.0024827586206871 0.00015
          0.00077777777777743 0.0024827586206871 0.0003 0.00077777777777747 0.0028965517241347 0
          0.00077777777777747 0.0028965517241347 0.00015 0.00077777777777747 0.0028965517241347 0.0003
          0.0007777777777775 0.0033103448275818 0 0.0007777777777775 0.0033103448275818 0.00015
          0.0007777777777775 0.0033103448275818 0.0003 0.00077777777777753 0.0037241379310296 0
          0.00077777777777753 0.0037241379310296 0.00015 0.00077777777777753 0.0037241379310296 0.0003
          0.00077777777777756 0.0041379310344773 0 0.00077777777777756 0.0041379310344773 0.00015
          0.00077777777777756 0.0041379310344773 0.0003 0.00077777777777759 0.0045517241379249 0
          0.00077777777777759 0.0045517241379249 0.00015 0.00077777777777759 0.0045517241379249 0.0003
          0.00077777777777762 0.0049655172413724 0 0.00077777777777762 0.0049655172413724 0.00015
          0.00077777777777762 0.0049655172413724 0.0003 0.00077777777777765 0.00537931034482 0
          0.00077777777777765 0.00537931034482 0.00015 0.00077777777777765 0.00537931034482 0.0003
          0.00077777777777769 0.0057931034482677 0 0.00077777777777769 0.0057931034482677 0.00015
          0.00077777777777769 0.0057931034482677 0.0003 0.00077777777777772 0.0062068965517161 0
          0.00077777777777772 0.0062068965517161 0.00015 0.00077777777777772 0.0062068965517161 0.0003
          0.00077777777777775 0.0066206896551647 0 0.00077777777777775 0.0066206896551647 0.00015
          0.00077777777777775 0.0066206896551647 0.0003 0.00077777777777778 0.0070344827586137 0
          0.00077777777777778 0.0070344827586137 0.00015 0.00077777777777778 0.0070344827586137 0.0003
          0.00077777777777781 0.0074482758620625 0 0.00077777777777781 0.0074482758620625 0.00015
          0.00077777777777781 0.0074482758620625 0.0003 0.00077777777777784 0.0078620689655112 0
          0.00077777777777784 0.0078620689655112 0.00015 0.00077777777777784 0.0078620689655112 0.0003
          0.00088888888888862 0 0 0.00088888888888863 0.00041379310344776 0
          0.00088888888888862 0 0.00015 0.00088888888888863 0.00041379310344776 0.00015
          0.00088888888888862 0 0.0003 0.00088888888888863 0.00041379310344776 0.0003
          0.00088888888888864 0.00082758620689549 0 0.00088888888888864 0.00082758620689549 0.00015
          0.00088888888888864 0.00082758620689549 0.0003 0.00088888888888865 0.0012413793103431 0
          0.00088888888888865 0.0012413793103431 0.00015 0.00088888888888865 0.0012413793103431 0.0003
          0.00088888888888866 0.0016551724137908 0 0.00088888888888866 0.0016551724137908 0.00015
          0.00088888888888866 0.0016551724137908 0.0003 0.00088888888888867 0.0020689655172382 0
          0.00088888888888867 0.0020689655172382 0.00015 0.00088888888888867 0.0020689655172382 0.0003
          0.00088888888888868 0.0024827586206857 0 0.00088888888888868 0.0024827586206857 0.00015
          0.00088888888888868 0.0024827586206857 0.0003 0.00088888888888868 0.002896551724133 0
          0.00088888888888868 0.002896551724133 0.00015 0.00088888888888868 0.002896551724133 0.0003
          0.00088888888888869 0.0033103448275802 0 0.00088888888888869 0.0033103448275802 0.00015
          0.00088888888888869 0.0033103448275802 0.0003 0.0008888888888887 0.0037241379310276 0
          0.0008888888888887 0.0037241379310276 0.00015 0.0008888888888887 0.0037241379310276 0.0003
          0.00088888888888871 0.004137931034475 0 0.00088888888888871 0.004137931034475 0.00015
          0.00088888888888871 0.004137931034475 0.0003 0.00088888888888872 0.0045517241379224 0
          0.00088888888888872 0.0045517241379224 0.00015 0.00088888888888872 0.0045517241379224 0.0003
          0.00088888888888873 0.0049655172413697 0 0.00088888888888873 0.0049655172413697 0.00015
          0.00088888888888873 0.0049655172413697 0.0003 0.00088888888888874 0.005379310344817 0
          0.00088888888888874 0.005379310344817 0.00015 0.00088888888888874 0.005379310344817 0.0003
          0.00088888888888875 0.0057931034482644 0 0.00088888888888875 0.0057931034482644 0.00015
          0.00088888888888875 0.0057931034482644 0.0003 0.00088888888888876 0.0062068965517129 0
          0.00088888888888876 0.0062068965517129 0.00015 0.00088888888888876 0.0062068965517129 0.0003
          0.00088888888888877 0.0066206896551616 0 0.00088888888888877 0.0066206896551616 0.00015
          0.00088888888888877 0.0066206896551616 0.0003 0.00088888888888877 0.007034482758611 0
          0.00088888888888877 0.007034482758611 0.00015 0.00088888888888877 0.007034482758611 0.0003
          0.00088888888888878 0.00744827586206 0 0.00088888888888878 0.00744827586206 0.00015
          0.00088888888888878 0.00744827586206 0.0003 0.00088888888888879 0.0078620689655088 0
          0.00088888888888879 0.0078620689655088 0.00015 0.00088888888888879 0.0078620689655088 0.0003
          0.001 0 0 0.001 0.00041379310344749 0
          0.001 0 0.00015 0.001 0.00041379310344749 0.00015
          0.001 0 0.0003 0.001 0.00041379310344749 0.0003
          0.001 0.00082758620689497 0 0.001 0.00082758620689497 0.00015
          0.001 0.00082758620689497 0.0003 0.001 0.0012413793103426 0
          0.001 0.0012413793103426 0.00015 0.001 0.0012413793103426 0.0003
          0.001 0.0016551724137901 0 0.001 0.0016551724137901 0.00015
          0.001 0.0016551724137901 0.0003 0.001 0.0020689655172371 0
          0.001 0.0020689655172371 0.00015 0.001 0.0020689655172371 0.0003
          0.001 0.0024827586206843 0 0.001 0.0024827586206843 0.00015
          0.001 0.0024827586206843 0.0003 0.001 0.0028965517241314 0
          0.001 0.0028965517241314 0.00015 0.001 0.0028965517241314 0.0003
          0.001 0.0033103448275785 0 0.001 0.0033103448275785 0.00015
          0.001 0.0033103448275785 0.0003 0.001 0.0037241379310256 0
          0.001 0.0037241379310256 0.00015 0.001 0.0037241379310256 0.0003
          0.001 0.0041379310344727 0 0.001 0.0041379310344727 0.00015
          0.001 0.0041379310344727 0.0003 0.001 0.0045517241379199 0
          0.001 0.0045517241379199 0.00015 0.001 0.0045517241379199 0.0003
          0.001 0.0049655172413669 0 0.001 0.0049655172413669 0.00015
          0.001 0.0049655172413669 0.0003 0.001 0.0053793103448139 0
          0.001 0.0053793103448139 0.00015 0.001 0.0053793103448139 0.0003
          0.001 0.0057931034482612 0 0.001 0.0057931034482612 0.00015
          0.001 0.0057931034482612 0.0003 0.001 0.0062068965517097 0
          0.001 0.0062068965517097 0.00015 0.001 0.0062068965517097 0.0003
          0.001 0.0066206896551586 0 0.001 0.0066206896551586 0.00015
          0.001 0.0066206896551586 0.0003 0.001 0.0070344827586082 0
          0.001 0.0070344827586082 0.00015 0.001 0.0070344827586082 0.0003
          0.001 0.0074482758620575 0 0.001 0.0074482758620575 0.00015
          0.001 0.0074482758620575 0.0003 0.001 0.0078620689655065 0
          0.001 0.0078620689655065 0.00015 0.001 0.0078620689655065 0.0003
          0.001 0.0082758620689564 0 0.001 0.0082758620689564 0.00015
          0.001 0.0082758620689564 0.0003 0.001 0.0086896551724064 0
          0.001 0.0086896551724064 0.00015 0.001 0.0086896551724064 0.0003
          0.0014444444444438 0.00041379310344749 0 0.0014444444444438 0 0
          0.0014444444444438 0.00041379310344749 0.00015 0.0014444444444438 0 0.00015
          0.0014444444444438 0.00041379310344749 0.0003 0.0014444444444438 0 0.0003
          0.0014444444444439 0.00082758620689497 0 0.0014444444444439 0.00082758620689497 0.00015
          0.0014444444444439 0.00082758620689497 0.0003 0.001444444444444 0.0012413793103426 0
          0.001444444444444 0.0012413793103426 0.00015 0.001444444444444 0.0012413793103426 0.0003
          0.001444444444444 0.0016551724137901 0 0.001444444444444 0.0016551724137901 0.00015
          0.001444444444444 0.0016551724137901 0.0003 0.0014444444444441 0.0020689655172371 0
          0.0014444444444441 0.0020689655172371 0.00015 0.0014444444444441 0.0020689655172371 0.0003
          0.0014444444444441 0.0024827586206843 0 0.0014444444444441 0.0024827586206843 0.00015
          0.0014444444444441 0.0024827586206843 0.0003 0.0014444444444446 0.0062068965517097 0
          0.0014444444444446 0.0062068965517097 0.00015 0.0014444444444446 0.0062068965517097 0.0003
          0.0014444444444447 0.0066206896551586 0 0.0014444444444447 0.0066206896551586 0.00015
          0.0014444444444447 0.0066206896551586 0.0003 0.0014444444444448 0.0070344827586082 0
          0.0014444444444448 0.0070344827586082 0.00015 0.0014444444444448 0.0070344827586082 0.0003
          0.0014444444444448 0.0074482758620576 0 0.0014444444444448 0.0074482758620576 0.00015
          0.0014444444444448 0.0074482758620576 0.0003 0.0014444444444449 0.0078620689655065 0
          0.0014444444444449 0.0078620689655065 0.00015 0.0014444444444449 0.0078620689655065 0.0003
          0.0018888888888896 0.0078620689655065 0 0.0018888888888896 0.0078620689655065 0.00015
          0.0018888888888896 0.0078620689655065 0.0003 0.0014444444444449 0.0082758620689564 0
          0.0014444444444449 0.0082758620689564 0.00015 0.0014444444444449 0.0082758620689564 0.0003
          0.0018888888888898 0.0082758620689564 0 0.0018888888888898 0.0082758620689564 0.00015
          0.0018888888888898 0.0082758620689564 0.0003 0.001444444444445 0.0086896551724064 0
          0.001444444444445 0.0086896551724064 0.00015 0.001444444444445 0.0086896551724064 0.0003
          0.0018888888888899 0.0086896551724064 0 0.0018888888888899 0.0086896551724064 0.00015
          0.0018888888888899 0.0086896551724064 0.0003 0.0014444444444451 0.0091034482758539 0
          0.0014444444444451 0.0091034482758539 0.00015 0.0014444444444451 0.0091034482758539 0.0003
          0.00188888888889 0.0091034482758539 0 0.00188888888889 0.0091034482758539 0.00015
          0.00188888888889 0.0091034482758539 0.0003 0.00011111111111123 0.0082758620689751 0
          0 0.0082758620689774 0 0.00011111111111123 0.0082758620689751 0.00015
          0 0.0082758620689774 0.00015 0.00011111111111123 0.0082758620689751 0.0003
          0 0.0082758620689774 0.0003 0.00022222222222243 0.0082758620689727 0
          0.00022222222222243 0.0082758620689727 0.00015 0.00022222222222243 0.0082758620689727 0.0003
          0.00033333333333363 0.0082758620689704 0 0.00033333333333363 0.0082758620689704 0.00015
          0.00033333333333363 0.0082758620689704 0.0003 0.00044444444444486 0.0082758620689681 0
          0.00044444444444486 0.0082758620689681 0.00015 0.00044444444444486 0.0082758620689681 0.0003
          0.00055555555555597 0.0082758620689657 0 0.00055555555555597 0.0082758620689657 0.00015
          0.00055555555555597 0.0082758620689657 0.0003 0.00066666666666675 0.0082758620689634 0
          0.00066666666666675 0.0082758620689634 0.00015 0.00066666666666675 0.0082758620689634 0.0003
          0.00077777777777787 0.0082758620689611 0 0.00077777777777787 0.0082758620689611 0.00015
          0.00077777777777787 0.0082758620689611 0.0003 0.0008888888888888 0.0082758620689588 0
          0.0008888888888888 0.0082758620689588 0.00015 0.0008888888888888 0.0082758620689588 0.0003
          0.00088888888888881 0.0086896551724084 0 0.00088888888888881 0.0086896551724084 0.00015
          0.00088888888888881 0.0086896551724084 0.0003 0.001 0.0091034482758539 0
          0.00088888888888882 0.0091034482758559 0 0.001 0.0091034482758539 0.00015
          0.00088888888888882 0.0091034482758559 0.00015 0.001 0.0091034482758539 0.0003
          0.00088888888888882 0.0091034482758559 0.0003 0.0018888888888873 0.00041379310344749 0
          0.0018888888888872 0 0 0.0018888888888873 0.00041379310344749 0.00015
          0.0018888888888872 0 0.00015 0.0018888888888873 0.00041379310344749 0.0003
          0.0018888888888872 0 0.0003 0.0018888888888875 0.00082758620689497 0
          0.0018888888888875 0.00082758620689497 0.00015 0.0018888888888875 0.00082758620689497 0.0003
          0.0018888888888876 0.0012413793103426 0 0.0018888888888876 0.0012413793103426 0.00015
          0.0018888888888876 0.0012413793103426 0.0003 0.0018888888888877 0.0016551724137901 0
          0.0018888888888877 0.0016551724137901 0.00015 0.0018888888888877 0.0016551724137901 0.0003
          0.0018888888888879 0.0020689655172371 0 0.0018888888888879 0.0020689655172371 0.00015
          0.0018888888888879 0.0020689655172371 0.0003 0.001888888888888 0.0024827586206843 0
          0.001888888888888 0.0024827586206843 0.00015 0.001888888888888 0.0024827586206843 0.0003
          0.0014444444444442 0.0028965517241314 0 0.0014444444444442 0.0028965517241314 0.00015
          0.0014444444444442 0.0028965517241314 0.0003 0.0018888888888881 0.0028965517241314 0
          0.0018888888888881 0.0028965517241314 0.00015 0.0018888888888881 0.0028965517241314 0.0003
          0.0014444444444442 0.0033103448275785 0 0.0014444444444442 0.0033103448275785 0.00015
          0.0014444444444442 0.0033103448275785 0.0003 0.0014444444444443 0.0037241379310256 0
          0.0014444444444443 0.0037241379310256 0.00015 0.0014444444444443 0.0037241379310256 0.0003
          0.0014444444444444 0.0041379310344727 0 0.0014444444444444 0.0041379310344727 0.00015
          0.0014444444444444 0.0041379310344727 0.0003 0.0014444444444444 0.0045517241379199 0
          0.0014444444444444 0.0045517241379199 0.00015 0.0014444444444444 0.0045517241379199 0.0003
          0.0014444444444445 0.0049655172413669 0 0.0014444444444445 0.0049655172413669 0.00015
          0.0014444444444445 0.0049655172413669 0.0003 0.0014444444444445 0.0053793103448139 0
          0.0014444444444445 0.0053793103448139 0.00015 0.0014444444444445 0.0053793103448139 0.0003
          0.0014444444444446 0.0057931034482612 0 0.0014444444444446 0.0057931034482612 0.00015
          0.0014444444444446 0.0057931034482612 0.0003 0.0018888888888891 0.0062068965517097 0
          0.001888888888889 0.0057931034482612 0 0.0018888888888891 0.0062068965517097 0.00015
          0.001888888888889 0.0057931034482612 0.00015 0.0018888888888891 0.0062068965517097 0.0003
          0.001888888888889 0.0057931034482612 0.0003 0.0018888888888893 0.0066206896551586 0
          0.0018888888888893 0.0066206896551586 0.00015 0.0018888888888893 0.0066206896551586 0.0003
          0.0018888888888894 0.0070344827586082 0 0.0018888888888894 0.0070344827586082 0.00015
          0.0018888888888894 0.0070344827586082 0.0003 0.0018888888888895 0.0074482758620575 0
          0.0018888888888895 0.0074482758620575 0.00015 0.0018888888888895 0.0074482758620575 0.0003
          0.0023333333333346 0.0078620689655065 0 0.0023333333333344 0.0074482758620575 0
          0.0023333333333346 0.0078620689655065 0.00015 0.0023333333333344 0.0074482758620575 0.00015
          0.0023333333333346 0.0078620689655065 0.0003 0.0023333333333344 0.0074482758620575 0.0003
          0.0023333333333348 0.0082758620689564 0 0.0023333333333348 0.0082758620689564 0.00015
          0.0023333333333348 0.0082758620689564 0.0003 0.002333333333335 0.0086896551724064 0
          0.002333333333335 0.0086896551724064 0.00015 0.002333333333335 0.0086896551724064 0.0003
          0.0023333333333351 0.0091034482758539 0 0.0023333333333351 0.0091034482758539 0.00015
          0.0023333333333351 0.0091034482758539 0.0003 0.0014444444444451 0.0095172413793029 0
          0.001 0.0095172413793029 0 0.0014444444444451 0.0095172413793029 0.00015
          0.001 0.0095172413793029 0.00015 0.0014444444444451 0.0095172413793029 0.0003
          0.001 0.0095172413793029 0.0003 0.0018888888888902 0.0095172413793029 0
          0.0018888888888902 0.0095172413793029 0.00015 0.0018888888888902 0.0095172413793029 0.0003
          0.0023333333333353 0.0095172413793029 0 0.0023333333333353 0.0095172413793029 0.00015
          0.0023333333333353 0.0095172413793029 0.0003
          <InformationKey name="L2_NORM_RANGE" location="vtkDataArray" length="2">
            <Value index="0">
              0
            </Value>
            <Value index="1">
              0.0098036895053
            </Value>
          </InformationKey>
        </DataArray>
      </Points>
      <Cells>
        <DataArray type="Int64" Name="connectivity" format="ascii" RangeMin="0" RangeMax="788">
          0 1 2 3 4 5
          6 7 4 5 6 7
          8 9 10 11 3 2
          12 13 7 6 14 15
          7 6 14 15 11 10
          16 17 13 12 18 19
          15 14 20 21 15 14
          20 21 17 16 22 23
          19 18 24 25 21 20
          26 27 21 20 26 27
          23 22 28 29 25 24
          30 31 27 26 32 33
          27 26 32 33 29 28
          34 35 31 30 36 37
          33 32 38 39 33 32
          38 39 35 34 40 41
          37 36 42 43 39 38
          44 45 39 38 44 45
          41 40 46 47 43 42
          48 49 45 44 50 51
          45 44 50 51 47 46
          52 53 49 48 54 55
          51 50 56 57 51 50
          56 57 53 52 58 59
          55 54 60 61 57 56
          62 63 57 56 62 63
          59 58 64 65 61 60
          66 67 63 62 68 69
          63 62 68 69 65 64
          70 71 67 66 72 73
          69 68 74 75 69 68
          74 75 71 70 76 77
          73 72 78 79 75 74
          80 81 75 74 80 81
          77 76 82 83 79 78
          84 85 81 80 86 87
          81 80 86 87 83 82
          88 89 85 84 90 91
          87 86 92 93 87 86
          92 93 89 88 94 95
          91 90 96 97 93 92
          98 99 93 92 98 99
          95 94 100 101 97 96
          102 103 99 98 104 105
          99 98 104 105 101 100
          106 107 103 102 108 109
          105 104 110 111 105 104
          110 111 107 106 112 113
          109 108 114 115 111 110
          116 117 111 110 116 117
          113 112 118 119 115 114
          663 664 117 116 665 666
          117 116 665 666 119 118
          667 668 1 120 121 2
          5 122 123 6 5 122
          123 6 9 124 125 10
          2 121 126 12 6 123
          127 14 6 123 127 14
          10 125 128 16 12 126
          129 18 14 127 130 20
          14 127 130 20 16 128
          131 22 18 129 132 24
          20 130 133 26 20 130
          133 26 22 131 134 28
          24 132 135 30 26 133
          136 32 26 133 136 32
          28 134 137 34 30 135
          138 36 32 136 139 38
          32 136 139 38 34 137
          140 40 36 138 141 42
          38 139 142 44 38 139
          142 44 40 140 143 46
          42 141 144 48 44 142
          145 50 44 142 145 50
          46 143 146 52 48 144
          147 54 50 145 148 56
          50 145 148 56 52 146
          149 58 54 147 150 60
          56 148 151 62 56 148
          151 62 58 149 152 64
          60 150 153 66 62 151
          154 68 62 151 154 68
          64 152 155 70 66 153
          156 72 68 154 157 74
          68 154 157 74 70 155
          158 76 72 156 159 78
          74 157 160 80 74 157
          160 80 76 158 161 82
          78 159 162 84 80 160
          163 86 80 160 163 86
          82 161 164 88 84 162
          165 90 86 163 166 92
          86 163 166 92 88 164
          167 94 90 165 168 96
          92 166 169 98 92 166
          169 98 94 167 170 100
          96 168 171 102 98 169
          172 104 98 169 172 104
          100 170 173 106 102 171
          174 108 104 172 175 110
          104 172 175 110 106 173
          176 112 108 174 177 114
          110 175 178 116 110 175
          178 116 112 176 179 118
          114 177 669 663 116 178
          670 665 116 178 670 665
          118 179 671 667 120 180
          181 121 122 182 183 123
          122 182 183 123 124 184
          185 125 121 181 186 126
          123 183 187 127 123 183
          187 127 125 185 188 128
          126 186 189 129 127 187
          190 130 127 187 190 130
          128 188 191 131 129 189
          192 132 130 190 193 133
          130 190 193 133 131 191
          194 134 132 192 195 135
          133 193 196 136 133 193
          196 136 134 194 197 137
          135 195 198 138 136 196
          199 139 136 196 199 139
          137 197 200 140 138 198
          201 141 139 199 202 142
          139 199 202 142 140 200
          203 143 141 201 204 144
          142 202 205 145 142 202
          205 145 143 203 206 146
          144 204 207 147 145 205
          208 148 145 205 208 148
          146 206 209 149 147 207
          210 150 148 208 211 151
          148 208 211 151 149 209
          212 152 150 210 213 153
          151 211 214 154 151 211
          214 154 152 212 215 155
          153 213 216 156 154 214
          217 157 154 214 217 157
          155 215 218 158 156 216
          219 159 157 217 220 160
          157 217 220 160 158 218
          221 161 159 219 222 162
          160 220 223 163 160 220
          223 163 161 221 224 164
          162 222 225 165 163 223
          226 166 163 223 226 166
          164 224 227 167 165 225
          228 168 166 226 229 169
          166 226 229 169 167 227
          230 170 168 228 231 171
          169 229 232 172 169 229
          232 172 170 230 233 173
          171 231 234 174 172 232
          235 175 172 232 235 175
          173 233 236 176 174 234
          237 177 175 235 238 178
          175 235 238 178 176 236
          239 179 177 237 672 669
          178 238 673 670 178 238
          673 670 179 239 674 671
          180 240 241 181 182 242
          243 183 182 242 243 183
          184 244 245 185 181 241
          246 186 183 243 247 187
          183 243 247 187 185 245
          248 188 186 246 249 189
          187 247 250 190 187 247
          250 190 188 248 251 191
          189 249 252 192 190 250
          253 193 190 250 253 193
          191 251 254 194 192 252
          255 195 193 253 256 196
          193 253 256 196 194 254
          257 197 195 255 258 198
          196 256 259 199 196 256
          259 199 197 257 260 200
          198 258 261 201 199 259
          262 202 199 259 262 202
          200 260 263 203 201 261
          264 204 202 262 265 205
          202 262 265 205 203 263
          266 206 204 264 267 207
          205 265 268 208 205 265
          268 208 206 266 269 209
          207 267 270 210 208 268
          271 211 208 268 271 211
          209 269 272 212 210 270
          273 213 211 271 274 214
          211 271 274 214 212 272
          275 215 213 273 276 216
          214 274 277 217 214 274
          277 217 215 275 278 218
          216 276 279 219 217 277
          280 220 217 277 280 220
          218 278 281 221 219 279
          282 222 220 280 283 223
          220 280 283 223 221 281
          284 224 222 282 285 225
          223 283 286 226 223 283
          286 226 224 284 287 227
          225 285 288 228 226 286
          289 229 226 286 289 229
          227 287 290 230 228 288
          291 231 229 289 292 232
          229 289 292 232 230 290
          293 233 231 291 294 234
          232 292 295 235 232 292
          295 235 233 293 296 236
          234 294 297 237 235 295
          298 238 235 295 298 238
          236 296 299 239 237 297
          675 672 238 298 676 673
          238 298 676 673 239 299
          677 674 240 300 301 241
          242 302 303 243 242 302
          303 243 244 304 305 245
          241 301 306 246 243 303
          307 247 243 303 307 247
          245 305 308 248 246 306
          309 249 247 307 310 250
          247 307 310 250 248 308
          311 251 249 309 312 252
          250 310 313 253 250 310
          313 253 251 311 314 254
          252 312 315 255 253 313
          316 256 253 313 316 256
          254 314 317 257 255 315
          318 258 256 316 319 259
          256 316 319 259 257 317
          320 260 258 318 321 261
          259 319 322 262 259 319
          322 262 260 320 323 263
          261 321 324 264 262 322
          325 265 262 322 325 265
          263 323 326 266 264 324
          327 267 265 325 328 268
          265 325 328 268 266 326
          329 269 267 327 330 270
          268 328 331 271 268 328
          331 271 269 329 332 272
          270 330 333 273 271 331
          334 274 271 331 334 274
          272 332 335 275 273 333
          336 276 274 334 337 277
          274 334 337 277 275 335
          338 278 276 336 339 279
          277 337 340 280 277 337
          340 280 278 338 341 281
          279 339 342 282 280 340
          343 283 280 340 343 283
          281 341 344 284 282 342
          345 285 283 343 346 286
          283 343 346 286 284 344
          347 287 285 345 348 288
          286 346 349 289 286 346
          349 289 287 347 350 290
          288 348 351 291 289 349
          352 292 289 349 352 292
          290 350 353 293 291 351
          354 294 292 352 355 295
          292 352 355 295 293 353
          356 296 294 354 357 297
          295 355 358 298 295 355
          358 298 296 356 359 299
          297 357 678 675 298 358
          679 676 298 358 679 676
          299 359 680 677 300 360
          361 301 302 362 363 303
          302 362 363 303 304 364
          365 305 301 361 366 306
          303 363 367 307 303 363
          367 307 305 365 368 308
          306 366 369 309 307 367
          370 310 307 367 370 310
          308 368 371 311 309 369
          372 312 310 370 373 313
          310 370 373 313 311 371
          374 314 312 372 375 315
          313 373 376 316 313 373
          376 316 314 374 377 317
          315 375 378 318 316 376
          379 319 316 376 379 319
          317 377 380 320 318 378
          381 321 319 379 382 322
          319 379 382 322 320 380
          383 323 321 381 384 324
          322 382 385 325 322 382
          385 325 323 383 386 326
          324 384 387 327 325 385
          388 328 325 385 388 328
          326 386 389 329 327 387
          390 330 328 388 391 331
          328 388 391 331 329 389
          392 332 330 390 393 333
          331 391 394 334 331 391
          394 334 332 392 395 335
          333 393 396 336 334 394
          397 337 334 394 397 337
          335 395 398 338 336 396
          399 339 337 397 400 340
          337 397 400 340 338 398
          401 341 339 399 402 342
          340 400 403 343 340 400
          403 343 341 401 404 344
          342 402 405 345 343 403
          406 346 343 403 406 346
          344 404 407 347 345 405
          408 348 346 406 409 349
          346 406 409 349 347 407
          410 350 348 408 411 351
          349 409 412 352 349 409
          412 352 350 410 413 353
          351 411 414 354 352 412
          415 355 352 412 415 355
          353 413 416 356 354 414
          417 357 355 415 418 358
          355 415 418 358 356 416
          419 359 357 417 681 678
          358 418 682 679 358 418
          682 679 359 419 683 680
          360 420 421 361 362 422
          423 363 362 422 423 363
          364 424 425 365 361 421
          426 366 363 423 427 367
          363 423 427 367 365 425
          428 368 366 426 429 369
          367 427 430 370 367 427
          430 370 368 428 431 371
          369 429 432 372 370 430
          433 373 370 430 433 373
          371 431 434 374 372 432
          435 375 373 433 436 376
          373 433 436 376 374 434
          437 377 375 435 438 378
          376 436 439 379 376 436
          439 379 377 437 440 380
          378 438 441 381 379 439
          442 382 379 439 442 382
          380 440 443 383 381 441
          444 384 382 442 445 385
          382 442 445 385 383 443
          446 386 384 444 447 387
          385 445 448 388 385 445
          448 388 386 446 449 389
          387 447 450 390 388 448
          451 391 388 448 451 391
          389 449 452 392 390 450
          453 393 391 451 454 394
          391 451 454 394 392 452
          455 395 393 453 456 396
          394 454 457 397 394 454
          457 397 395 455 458 398
          396 456 459 399 397 457
          460 400 397 457 460 400
          398 458 461 401 399 459
          462 402 400 460 463 403
          400 460 463 403 401 461
          464 404 402 462 465 405
          403 463 466 406 403 463
          466 406 404 464 467 407
          405 465 468 408 406 466
          469 409 406 466 469 409
          407 467 470 410 408 468
          471 411 409 469 472 412
          409 469 472 412 410 470
          473 413 411 471 474 414
          412 472 475 415 412 472
          475 415 413 473 476 416
          414 474 477 417 415 475
          478 418 415 475 478 418
          416 476 479 419 417 477
          684 681 418 478 685 682
          418 478 685 682 419 479
          686 683 420 480 481 421
          422 482 483 423 422 482
          483 423 424 484 485 425
          421 481 486 426 423 483
          487 427 423 483 487 427
          425 485 488 428 426 486
          489 429 427 487 490 430
          427 487 490 430 428 488
          491 431 429 489 492 432
          430 490 493 433 430 490
          493 433 431 491 494 434
          432 492 495 435 433 493
          496 436 433 493 496 436
          434 494 497 437 435 495
          498 438 436 496 499 439
          436 496 499 439 437 497
          500 440 438 498 501 441
          439 499 502 442 439 499
          502 442 440 500 503 443
          441 501 504 444 442 502
          505 445 442 502 505 445
          443 503 506 446 444 504
          507 447 445 505 508 448
          445 505 508 448 446 506
          509 449 447 507 510 450
          448 508 511 451 448 508
          511 451 449 509 512 452
          450 510 513 453 451 511
          514 454 451 511 514 454
          452 512 515 455 453 513
          516 456 454 514 517 457
          454 514 517 457 455 515
          518 458 456 516 519 459
          457 517 520 460 457 517
          520 460 458 518 521 461
          459 519 522 462 460 520
          523 463 460 520 523 463
          461 521 524 464 462 522
          525 465 463 523 526 466
          463 523 526 466 464 524
          527 467 465 525 528 468
          466 526 529 469 466 526
          529 469 467 527 530 470
          468 528 531 471 469 529
          532 472 469 529 532 472
          470 530 533 473 471 531
          534 474 472 532 535 475
          472 532 535 475 473 533
          536 476 474 534 537 477
          475 535 538 478 475 535
          538 478 476 536 539 479
          477 537 687 684 478 538
          688 685 478 538 688 685
          479 539 689 686 480 540
          541 481 482 542 543 483
          482 542 543 483 484 544
          545 485 481 541 546 486
          483 543 547 487 483 543
          547 487 485 545 548 488
          486 546 549 489 487 547
          550 490 487 547 550 490
          488 548 551 491 489 549
          552 492 490 550 553 493
          490 550 553 493 491 551
          554 494 492 552 555 495
          493 553 556 496 493 553
          556 496 494 554 557 497
          495 555 558 498 496 556
          559 499 496 556 559 499
          497 557 560 500 498 558
          561 501 499 559 562 502
          499 559 562 502 500 560
          563 503 501 561 564 504
          502 562 565 505 502 562
          565 505 503 563 566 506
          504 564 567 507 505 565
          568 508 505 565 568 508
          506 566 569 509 507 567
          570 510 508 568 571 511
          508 568 571 511 509 569
          572 512 510 570 573 513
          511 571 574 514 511 571
          574 514 512 572 575 515
          513 573 576 516 514 574
          577 517 514 574 577 517
          515 575 578 518 516 576
          579 519 517 577 580 520
          517 577 580 520 518 578
          581 521 519 579 582 522
          520 580 583 523 520 580
          583 523 521 581 584 524
          522 582 585 525 523 583
          586 526 523 583 586 526
          524 584 587 527 525 585
          588 528 526 586 589 529
          526 586 589 529 527 587
          590 530 528 588 591 531
          529 589 592 532 529 589
          592 532 530 590 593 533
          531 591 594 534 532 592
          595 535 532 592 595 535
          533 593 596 536 534 594
          597 537 535 595 598 538
          535 595 598 538 536 596
          599 539 537 597 600 687
          538 598 601 688 538 598
          601 688 539 599 602 689
          687 600 603 690 688 601
          604 691 688 601 604 691
          689 602 605 692 690 603
          693 694 691 604 695 696
          691 604 695 696 692 605
          697 698 606 541 540 607
          608 543 542 609 608 543
          542 609 610 545 544 611
          699 606 607 700 701 608
          609 702 701 608 609 702
          703 610 611 704 612 546
          541 606 613 547 543 608
          613 547 543 608 614 548
          545 610 705 612 606 699
          706 613 608 701 706 613
          608 701 707 614 610 703
          615 549 546 612 616 550
          547 613 616 550 547 613
          617 551 548 614 708 615
          612 705 709 616 613 706
          709 616 613 706 710 617
          614 707 618 552 549 615
          619 553 550 616 619 553
          550 616 620 554 551 617
          711 618 615 708 712 619
          616 709 712 619 616 709
          713 620 617 710 621 555
          552 618 622 556 553 619
          622 556 553 619 623 557
          554 620 714 621 618 711
          715 622 619 712 715 622
          619 712 716 623 620 713
          624 558 555 621 625 559
          556 622 625 559 556 622
          626 560 557 623 717 624
          621 714 718 625 622 715
          718 625 622 715 719 626
          623 716 720 561 558 624
          721 562 559 625 721 562
          559 625 722 563 560 626
          723 720 624 717 724 721
          625 718 724 721 625 718
          725 722 626 719 726 564
          561 720 727 565 562 721
          727 565 562 721 728 566
          563 722 729 567 564 726
          730 568 565 727 730 568
          565 727 731 569 566 728
          732 570 567 729 733 571
          568 730 733 571 568 730
          734 572 569 731 735 573
          570 732 736 574 571 733
          736 574 571 733 737 575
          572 734 738 576 573 735
          739 577 574 736 739 577
          574 736 740 578 575 737
          741 579 576 738 742 580
          577 739 742 580 577 739
          743 581 578 740 744 582
          579 741 745 583 580 742
          745 583 580 742 746 584
          581 743 627 585 582 744
          628 586 583 745 628 586
          583 745 629 587 584 746
          747 627 744 748 749 628
          745 750 749 628 745 750
          751 629 746 752 630 588
          585 627 631 589 586 628
          631 589 586 628 632 590
          587 629 753 630 627 747
          754 631 628 749 754 631
          628 749 755 632 629 751
          633 591 588 630 634 592
          589 631 634 592 589 631
          635 593 590 632 756 633
          630 753 757 634 631 754
          757 634 631 754 758 635
          632 755 636 594 591 633
          637 595 592 634 637 595
          592 634 638 596 593 635
          759 636 633 756 760 637
          634 757 760 637 634 757
          761 638 635 758 639 597
          594 636 640 598 595 637
          640 598 595 637 641 599
          596 638 642 639 636 759
          643 640 637 760 643 640
          637 760 644 641 638 761
          762 642 759 763 764 643
          760 765 764 643 760 765
          766 644 761 767 645 600
          597 639 646 601 598 640
          646 601 598 640 647 602
          599 641 648 645 639 642
          649 646 640 643 649 646
          640 643 650 647 641 644
          768 648 642 762 769 649
          643 764 769 649 643 764
          770 650 644 766 651 603
          600 645 652 604 601 646
          652 604 601 646 653 605
          602 647 654 651 645 648
          655 652 646 649 655 652
          646 649 656 653 647 650
          771 654 648 768 772 655
          649 769 772 655 649 769
          773 656 650 770 657 693
          603 651 658 695 604 652
          658 695 604 652 659 697
          605 653 660 657 651 654
          661 658 652 655 661 658
          652 655 662 659 653 656
          774 660 654 771 775 661
          655 772 775 661 655 772
          776 662 656 773 777 778
          693 657 779 780 695 658
          779 780 695 658 781 782
          697 659 783 777 657 660
          784 779 658 661 784 779
          658 661 785 781 659 662
          786 783 660 774 787 784
          661 775 787 784 661 775
          788 785 662 776
        </DataArray>
        <DataArray type="Int64" Name="offsets" format="ascii" RangeMin="8" RangeMax="3616">
          8 16 24 32 40 48
          56 64 72 80 88 96
          104 112 120 128 136 144
          152 160 168 176 184 192
          200 208 216 224 232 240
          248 256 264 272 280 288
          296 304 312 320 328 336
          344 352 360 368 376 384
          392 400 408 416 424 432
          440 448 456 464 472 480
          488 496 504 512 520 528
          536 544 552 560 568 576
          584 592 600 608 616 624
          632 640 648 656 664 672
          680 688 696 704 712 720
          728 736 744 752 760 768
          776 784 792 800 808 816
          824 832 840 848 856 864
          872 880 888 896 904 912
          920 928 936 944 952 960
          968 976 984 992 1000 1008
          1016 1024 1032 1040 1048 1056
          1064 1072 1080 1088 1096 1104
          1112 1120 1128 1136 1144 1152
          1160 1168 1176 1184 1192 1200
          1208 1216 1224 1232 1240 1248
          1256 1264 1272 1280 1288 1296
          1304 1312 1320 1328 1336 1344
          1352 1360 1368 1376 1384 1392
          1400 1408 1416 1424 1432 1440
          1448 1456 1464 1472 1480 1488
          1496 1504 1512 1520 1528 1536
          1544 1552 1560 1568 1576 1584
          1592 1600 1608 1616 1624 1632
          1640 1648 1656 1664 1672 1680
          1688 1696 1704 1712 1720 1728
          1736 1744 1752 1760 1768 1776
          1784 1792 1800 1808 1816 1824
          1832 1840 1848 1856 1864 1872
          1880 1888 1896 1904 1912 1920
          1928 1936 1944 1952 1960 1968
          1976 1984 1992 2000 2008 2016
          2024 2032 2040 2048 2056 2064
          2072 2080 2088 2096 2104 2112
          2120 2128 2136 2144 2152 2160
          2168 2176 2184 2192 2200 2208
          2216 2224 2232 2240 2248 2256
          2264 2272 2280 2288 2296 2304
          2312 2320 2328 2336 2344 2352
          2360 2368 2376 2384 2392 2400
          2408 2416 2424 2432 2440 2448
          2456 2464 2472 2480 2488 2496
          2504 2512 2520 2528 2536 2544
          2552 2560 2568 2576 2584 2592
          2600 2608 2616 2624 2632 2640
          2648 2656 2664 2672 2680 2688
          2696 2704 2712 2720 2728 2736
          2744 2752 2760 2768 2776 2784
          2792 2800 2808 2816 2824 2832
          2840 2848 2856 2864 2872 2880
          2888 2896 2904 2912 2920 2928
          2936 2944 2952 2960 2968 2976
          2984 2992 3000 3008 3016 3024
          3032 3040 3048 3056 3064 3072
          3080 3088 3096 3104 3112 3120
          3128 3136 3144 3152 3160 3168
          3176 3184 3192 3200 3208 3216
          3224 3232 3240 3248 3256 3264
          3272 3280 3288 3296 3304 3312
          3320 3328 3336 3344 3352 3360
          3368 3376 3384 3392 3400 3408
          3416 3424 3432 3440 3448 3456
          3464 3472 3480 3488 3496 3504
          3512 3520 3528 3536 3544 3552
          3560 3568 3576 3584 3592 3600
          3608 3616
        </DataArray>
        <DataArray type="UInt8" Name="types" format="ascii" RangeMin="12" RangeMax="12">
          12 12 12 12 12 12
          12 12 12 12 12 12
          12 12 12 12 12 12
          12 12 12 12 12 12
          12 12 12 12 12 12
          12 12 12 12 12 12
          12 12 12 12 12 12
          12 12 12 12 12 12
          12 12 12 12 12 12
          12 12 12 12 12 12
          12 12 12 12 12 12
          12 12 12 12 12 12
          12 12 12 12 12 12
          12 12 12 12 12 12
          12 12 12 12 12 12
          12 12 12 12 12 12
          12 12 12 12 12 12
          12 12 12 12 12 12
          12 12 12 12 12 12
          12 12 12 12 12 12
          12 12 12 12 12 12
          12 12 12 12 12 12
          12 12 12 12 12 12
          12 12 12 12 12 12
          12 12 12 12 12 12
          12 12 12 12 12 12
          12 12 12 12 12 12
          12 12 12 12 12 12
          12 12 12 12 12 12
          12 12 12 12 12 12
          12 12 12 12 12 12
          12 12 12 12 12 12
          12 12 12 12 12 12
          12 12 12 12 12 12
          12 12 12 12 12 12
          12 12 12 12 12 12
          12 12 12 12 12 12
          12 12 12 12 12 12
          12 12 12 12 12 12
          12 12 12 12 12 12
          12 12 12 12 12 12
          12 12 12 12 12 12
          12 12 12 12 12 12
          12 12 12 12 12 12
          12 12 12 12 12 12
          12 12 12 12 12 12
          12 12 12 12 12 12
          12 12 12 12 12 12
          12 12 12 12 12 12
          12 12 12 12 12 12
          12 12 12 12 12 12
          12 12 12 12 12 12
          12 12 12 12 12 12
          12 12 12 12 12 12
          12 12 12 12 12 12
          12 12 12 12 12 12
          12 12 12 12 12 12
          12 12 12 12 12 12
          12 12 12 12 12 12
          12 12 12 12 12 12
          12 12 12 12 12 12
          12 12 12 12 12 12
          12 12 12 12 12 12
          12 12 12 12 12 12
          12 12 12 12 12 12
          12 12 12 12 12 12
          12 12 12 12 12 12
          12 12 12 12 12 12
          12 12 12 12 12 12
          12 12 12 12 12 12
          12 12 12 12 12 12
          12 12 12 12 12 12
          12 12 12 12 12 12
          12 12 12 12 12 12
          12 12 12 12 12 12
          12 12
        </DataArray>
      </Cells>
    </Piece>
  </UnstructuredGrid>
</VTKFile>
